LAMMPS (29 Sep 2021 - Update 1)
# Test LAMMPS input file for single DeFDe

# Initialize simulation

clear

units real
atom_style full
boundary p p p
dielectric 1
special_bonds dreiding

bond_style harmonic
angle_style harmonic
dihedral_style harmonic
improper_style umbrella
pair_style hybrid/overlay hbond/dreiding/lj 4 9.0 11.0 90 lj/cut 8.50000

# Read data file
read_data frag5.dat
Reading data file ...
  triclinic box = (0.0000000 0.0000000 0.0000000) to (15.000000 15.000000 15.000000) with tilt (0.0000000 0.0000000 0.0000000)
  2 by 4 by 4 MPI processor grid
  reading atoms ...
  1515 atoms
  scanning bonds ...
  4 = max bonds/atom
  scanning angles ...
  6 = max angles/atom
  scanning dihedrals ...
  15 = max dihedrals/atom
  scanning impropers ...
  1 = max impropers/atom
  reading bonds ...
  1015 bonds
  reading angles ...
  528 angles
  reading dihedrals ...
  36 dihedrals
  reading impropers ...
  1 impropers
Finding 1-2 1-3 1-4 neighbors ...
  special bond factors lj:    0        0        1       
  special bond factors coul:  0        0        1       
     4 = max # of 1-2 neighbors
     6 = max # of 1-3 neighbors
     9 = max # of special neighbors
  special bonds CPU = 0.002 seconds
  read_data CPU = 0.017 seconds

# Dreiding potential information

bond_coeff 1 350 1.375
bond_coeff 2 350 1.53
bond_coeff 3 350 1.42
bond_coeff 4 350 1.09
bond_coeff 5 350 0.935
bond_coeff 6 350 0.98

angle_coeff 1 50 109.471
angle_coeff 2 50 120
angle_coeff 3 50 104.51

dihedral_coeff 1 0.0833333333333333 -1 6
dihedral_coeff 2 0.111111111111111 -1 3
dihedral_coeff 3 0.333333333333333 -1 3

improper_coeff 1 40 0

pair_coeff 1 1 lj/cut 0.0951 3.8983
pair_coeff 1 2 lj/cut 0.0857947550844456 3.77835472527395
pair_coeff 1 3 lj/cut 0.0953995283007206 3.64309650983885
pair_coeff 1 4 lj/cut 0.0380199947396104 3.52917391183829
pair_coeff 1 5 lj/cut 0.00308382878902186 3.52806914614779
pair_coeff 2 2 lj/cut 0.0774 3.6621
pair_coeff 2 3 lj/cut 0.0860649754545948 3.53100349192691
pair_coeff 2 4 lj/cut 0.0342998542270955 3.42058613398347
pair_coeff 2 5 lj/cut 0.00278208554864871 3.41951536039831
pair_coeff 3 3 lj/cut 0.0957 3.4046
pair_coeff 3 4 lj/cut 0.0381397430510485 3.29813538230316
pair_coeff 3 5 lj/cut 0.0030935416596516 3.29710294046152
pair_coeff 4 4 lj/cut 0.0152 3.195
pair_coeff 4 5 lj/cut 0.0012328828005938 3.19399984345648
pair_coeff 5 5 lj/cut 1e-04 3.193
pair_coeff 2 2 hbond/dreiding/lj 5 j 9.50 2.75 4 9.0 11.0 90
pair_coeff 2 3 hbond/dreiding/lj 5 i 9.50 2.75 4 9.0 11.0 90
pair_coeff 2 3 hbond/dreiding/lj 5 j 9.50 2.75 4 9.0 11.0 90
pair_coeff 3 3 hbond/dreiding/lj 5 j 9.50 2.75 4 9.0 11.0 90

neighbor 2 bin
neigh_modify every 2 one 10000

# Gemoetric relaxation
fix 1 all box/relax iso 1.0 vmax 0.001
minimize 1.0e-4 1.0e-6 10000 10000
WARNING: Using 'neigh_modify every 1 delay 0 check yes' setting during minimization (../min.cpp:188)
Neighbor list info ...
  update every 1 steps, delay 0 steps, check yes
  max neighbors/atom: 10000, page size: 100000
  master list distance cutoff = 13
  ghost atom cutoff = 13
  binsize = 6.5, bins = 3 3 3
  3 neighbor lists, perpetual/occasional/extra = 3 0 0
  (1) pair hbond/dreiding/lj, perpetual, skip from (3)
      attributes: full, newton on
      pair build: skip
      stencil: none
      bin: none
  (2) pair lj/cut, perpetual, half/full from (3)
      attributes: half, newton on
      pair build: halffull/newton
      stencil: none
      bin: none
  (3) neighbor class addition, perpetual
      attributes: full, newton on
      pair build: full/bin
      stencil: full/bin/3d
      bin: standard
Per MPI rank memory allocation (min/avg/max) = 16.29 | 16.62 | 17.08 Mbytes
Step Temp E_pair E_mol TotEng Press Volume 
       0            0 1.1352482e+17    283.61059 1.1352482e+17 9.2257388e+18         3375 
    5155            0    -1018.466    37.359597   -981.10639    73.190879    37373.809 
Loop time of 4.71146 on 32 procs for 5155 steps with 1515 atoms

100.0% CPU use with 32 MPI tasks x no OpenMP threads

Minimization stats:
  Stopping criterion = energy tolerance
  Energy initial, next-to-last, final = 
    1.13524821716826e+17  -980.522354439441  -980.610550019672
  Force two-norm initial, final = 1.5647723e+19 88.240692
  Force max component initial, final = 8.1479879e+18 52.960121
  Final line search alpha, max atom move = 1.0934984e-05 0.00057911809
  Iterations, force evaluations = 5155 5158

MPI task timing breakdown:
Section |  min time  |  avg time  |  max time  |%varavg| %total
---------------------------------------------------------------
Pair    | 1.3573     | 2.5029     | 4.0123     |  36.6 | 53.12
Bond    | 0.0066331  | 0.011113   | 0.022015   |   2.8 |  0.24
Neigh   | 0.099526   | 0.099787   | 0.10008    |   0.1 |  2.12
Comm    | 0.25374    | 1.7619     | 2.9065     |  43.6 | 37.40
Output  | 0          | 0          | 0          |   0.0 |  0.00
Modify  | 0          | 0          | 0          |   0.0 |  0.00
Other   |            | 0.3358     |            |       |  7.13

Nlocal:        47.3438 ave          69 max          30 min
Histogram: 3 2 3 6 5 5 4 1 2 1
Nghost:        1984.59 ave        2016 max        1949 min
Histogram: 2 0 3 5 6 3 3 6 1 3
Neighs:        4996.03 ave        7665 max        3244 min
Histogram: 5 2 6 3 6 5 1 0 2 2

Total # of neighbors = 159873
Ave neighs/atom = 105.52673
Ave special neighs/atom = 2.0369637
Neighbor list builds = 98
Dangerous builds = 0

# MD simulation
velocity all create 300.0 12345 rot yes dist gaussian
timestep 1.0
fix 2 all nvt temp 300.0 300.0 1

# Compute interaction energy
group WAT molecule <> 2 501
1500 atoms in group WAT
group MOL molecule 1
15 atoms in group MOL

compute w WAT group/group MOL pair yes
fix 3 all ave/time 10 5 100 c_w file outa

# Outputs
thermo 100 # Output thermodynamic data every nth step
#dump mf1 all xyz 10000 mol_*.xyz

# Run
run 1000000
Neighbor list info ...
  update every 2 steps, delay 10 steps, check yes
  max neighbors/atom: 10000, page size: 100000
  master list distance cutoff = 13
  ghost atom cutoff = 13
  binsize = 6.5, bins = 6 6 6
  4 neighbor lists, perpetual/occasional/extra = 3 1 0
  (1) pair hbond/dreiding/lj, perpetual, skip from (4)
      attributes: full, newton on
      pair build: skip
      stencil: none
      bin: none
  (2) pair lj/cut, perpetual, half/full from (4)
      attributes: half, newton on
      pair build: halffull/newton
      stencil: none
      bin: none
  (3) compute group/group, occasional, copy from (2)
      attributes: half, newton on
      pair build: copy
      stencil: none
      bin: none
  (4) neighbor class addition, perpetual
      attributes: full, newton on
      pair build: full/bin
      stencil: full/bin/3d
      bin: standard
Per MPI rank memory allocation (min/avg/max) = 15.13 | 15.20 | 15.68 Mbytes
Step Temp E_pair E_mol TotEng Press Volume 
    5155          300    -1018.466    37.359597    372.77754    1729.1398    37373.809 
    5200    296.31037   -1068.5219    206.13619    474.84715    2207.0713    37373.809 
    5300    296.57922   -1031.2866    185.45977    492.61933    1844.1791    37373.809 
    5400    298.13643   -1105.6648     172.8177    412.62664     942.7206    37373.809 
    5500    306.51217    -1144.396    201.61349    440.49051    629.69381    37373.809 
    5600     289.4066   -1110.6742    206.79668    402.19895    926.30615    37373.809 
    5700    303.61237   -1079.5713    187.05339    477.66843    284.26223    37373.809 
    5800    304.15233   -1121.3783    198.86776    450.11256    83.957006    37373.809 
    5900    306.37236   -1112.5948    177.80227    447.84953   -187.40169    37373.809 
    6000    304.14958   -1102.8949    194.59705    464.31296   -250.60586    37373.809 
    6100    288.01533   -1100.9742    197.44224    396.26575   -240.30653    37373.809 
    6200    302.80608   -1114.5574    185.17031    437.16048    -92.62245    37373.809 
    6300    307.98483   -1068.5514    208.64835    530.01596    380.88199    37373.809 
    6400    297.27035   -1113.9517    206.00621    433.61963    195.80178    37373.809 
    6500    298.45756   -1066.0962    205.10944    485.93625    211.07068    37373.809 
    6600     307.0821   -1082.7819    209.02332    512.08645      439.884    37373.809 
    6700    306.20827    -1077.703    210.80748    515.00601    338.53698    37373.809 
    6800    301.89419   -1097.7192    214.29308    479.00619    262.85722    37373.809 
    6900    305.51186   -1093.7445    216.09595    501.11006    572.18521    37373.809 
    7000    293.03061   -1085.4406    226.09693    463.08777    186.96532    37373.809 
    7100     296.8551   -1066.2155    226.01447    499.49008    613.09806    37373.809 
    7200    296.62676   -1086.7063    217.36883    469.32322    557.96229    37373.809 
    7300    292.17187   -1078.2155    223.85127    464.19177    594.78777    37373.809 
    7400    303.29676   -1074.3156    225.71737    520.16376    529.89856    37373.809 
    7500    296.11155   -1028.0646    220.22251    528.49346    512.57903    37373.809 
    7600    299.01558   -1006.7249    236.77173    579.48813    33.755436    37373.809 
    7700    301.39813   -1058.5332    227.04903    528.70943    675.82317    37373.809 
    7800    308.04851    -1065.252    229.97909    554.93347    552.45598    37373.809 
    7900    295.15847    -1099.573    231.10562    463.56697    1063.1448    37373.809 
    8000    303.15201   -1078.0062    224.18589    514.28845    745.79431    37373.809 
    8100     303.8925   -1110.2013    233.68713    494.93636    543.07244    37373.809 
    8200     306.0859   -1104.6661    251.24272    527.92594    777.78031    37373.809 
    8300      293.822    -1129.978    254.33558    450.36049    716.61579    37373.809 
    8400    293.80652   -1097.0238    235.92542    464.83472    613.24787    37373.809 
    8500    293.81368   -1089.1805    244.59408    481.37897    501.39579    37373.809 
    8600    295.55879   -1095.7565    227.24551    465.32995    457.11709    37373.809 
    8700    296.01397    -1133.464    246.07305    448.50421   -26.576436    37373.809 
    8800    297.51709   -1113.5882    241.05039    470.14084     409.6674    37373.809 
    8900    300.47341   -1119.3501    249.97223    486.64253    242.57255    37373.809 
    9000    298.05939   -1126.9824    232.41374    450.55735    340.27871    37373.809 
    9100    298.98118   -1155.5439    236.02657     429.7687    194.69056    37373.809 
    9200    303.71027   -1119.2251    247.83363     499.2367    450.29649    37373.809 
    9300    300.87208   -1106.1785    255.21936    506.86038    247.69783    37373.809 
    9400    308.49539   -1091.1272    253.19831    554.29426    398.98616    37373.809 
    9500    300.79798   -1116.2344    251.30168    492.55244    153.18519    37373.809 
    9600    297.54511   -1094.5016    254.52293    502.82652    338.47927    37373.809 
    9700      289.955   -1079.0923     268.6492    498.10827   -92.168419    37373.809 
    9800    308.56139   -1066.9412    261.29365    586.87348    446.49206    37373.809 
    9900    298.87293   -1072.8138    265.42757    541.41124     628.8638    37373.809 
   10000    299.60889   -1111.2149    281.24487    522.14886    271.43702    37373.809 
   10100    289.88474   -1133.9626    253.09982    427.37151     169.8321    37373.809 
   10200     288.4219   -1180.8007    247.28512    368.11705   -114.11616    37373.809 
   10300    304.48069   -1161.5269    259.16514    471.74332    41.609894    37373.809 
   10400    307.89263   -1170.0153    237.27608     456.7637   -173.20958    37373.809 
   10500    294.72924   -1181.2879      260.638    409.44741    178.40572    37373.809 
   10600    289.11783   -1176.9035    259.88015     387.7499   -267.55316    37373.809 
   10700     294.7639   -1161.7669    262.22867    430.71547   -23.994855    37373.809 
   10800    308.02098   -1193.6801     257.9298     454.3319    457.98789    37373.809 
   10900    306.70057   -1169.3492    265.02154    479.79562    423.61398    37373.809 
   11000    312.98396   -1137.5251    266.45224    541.40698    840.51176    37373.809 
   11100    291.95087   -1141.4591    264.24021    440.33975    780.56874    37373.809 
   11200    304.68853   -1186.8863    261.89783     450.0545      658.871    37373.809 
   11300    296.37217   -1169.5369    269.71394    437.68876    368.77323    37373.809 
   11400      301.521   -1202.8584    251.09803    408.98778    251.93709    37373.809 
   11500    306.25803   -1141.6807    283.86276    524.30812    1098.5888    37373.809 
   11600    292.74658   -1156.2057     263.3777    428.32161    527.06056    37373.809 
   11700    299.51753   -1187.6073     282.2569    446.35619    706.37018    37373.809 
   11800    308.43012   -1147.6452    273.72421    518.00762    717.09766    37373.809 
   11900     303.0132   -1167.9987    269.36586    468.84949    768.93984    37373.809 
   12000    301.71204   -1159.1785    269.22217    471.65396    312.50829    37373.809 
   12100    290.00873   -1145.8971    275.26578    438.16247    693.21902    37373.809 
   12200    291.56966   -1140.6694     291.2364    466.40525    380.90465    37373.809 
   12300    307.71729   -1172.5905    273.43732    489.55845     338.3777    37373.809 
   12400    297.09286   -1199.9471    267.42588    408.24291     185.4782    37373.809 
   12500     292.4841   -1163.5129      266.157    422.60913    495.86894    37373.809 
   12600    293.74714   -1104.3104    289.16282    510.51747    247.90563    37373.809 
   12700    302.59842   -1136.2226      278.597    507.98485    544.02795    37373.809 
   12800    295.18141   -1169.8255    280.13359    442.44593    420.52555    37373.809 
   12900    291.83548   -1190.6642    270.77659    397.15032   -95.798583    37373.809 
   13000    303.03464   -1159.7802    288.06868    495.86758     410.0938    37373.809 
   13100    302.48604   -1158.3359    282.55216    489.31954    406.18415    37373.809 
   13200    300.78396   -1144.8314    278.99895    491.58949    124.28716    37373.809 
   13300    299.06507   -1180.8601    293.50166    462.30619    191.25175    37373.809 
   13400    297.32116   -1214.7738    274.47509    401.49578   -5.1060995    37373.809 
   13500    293.11017   -1220.7534    275.83198    377.86908    175.26991    37373.809 
   13600    299.50423   -1151.3749    284.28133    484.55293    244.78764    37373.809 
   13700    295.42551   -1196.5622    281.50441    418.18175    183.59613    37373.809 
   13800    294.39225   -1209.4779     289.4599    408.55849    183.15449    37373.809 
   13900    299.73165   -1203.0215    281.21145    430.86282    104.48686    37373.809 
   14000    288.56747   -1179.5326    299.41377    422.17072    372.20135    37373.809 
   14100    297.34484   -1193.2808    281.80007    430.42057    458.94098    37373.809 
   14200    291.86925   -1265.5964    295.83966    347.43356    407.72868    37373.809 
   14300    297.22147   -1184.6856    294.44682    451.10578    419.92766    37373.809 
   14400    296.13329   -1212.4652    296.20233    420.17079    345.63489    37373.809 
   14500    302.89053    -1219.043     286.0589    433.94462     216.8953    37373.809 
   14600    303.43795   -1234.9091    290.30147    424.79156    522.98007    37373.809 
   14700    299.69401    -1202.043    301.74236    452.20234    440.62937    37373.809 
   14800    295.68652   -1207.1476    279.27448    406.54432    16.266363    37373.809 
   14900    304.17372   -1201.3285    275.34718    446.73836    14.644044    37373.809 
   15000    298.17062   -1200.6786    300.28328    445.23274    447.41919    37373.809 
   15100     297.2623   -1249.6766    264.48214    356.33432    422.24079    37373.809 
   15200    292.38646   -1205.0192    294.96298    409.46821    387.78339    37373.809 
   15300    291.82736    -1227.772    290.51841    379.74761   -48.502735    37373.809 
   15400    300.06928   -1191.2474    295.79935    458.74851    115.02492    37373.809 
   15500    313.03674   -1249.1269    292.40674    455.99781    10.532384    37373.809 
   15600    290.18492   -1225.8035    296.56189    380.34741    -281.1752    37373.809 
   15700    288.72629   -1204.5899    285.92356    384.33998   -294.43744    37373.809 
   15800    301.74436   -1191.1839     303.2694     473.8416   -109.47317    37373.809 
   15900    295.02993   -1196.1837    279.64381    414.91437   -202.39268    37373.809 
   16000    296.95261   -1190.8524    300.40814    449.68696    428.59545    37373.809 
   16100    298.72314   -1218.7278     283.7929    413.18659   -115.68206    37373.809 
   16200    316.61818   -1168.4177    316.68012    577.14331    502.08201    37373.809 
   16300    300.33575   -1161.0536    325.01311    519.35865    568.77296    37373.809 
   16400    309.02044   -1194.9799    309.21862    508.83138    465.15507    37373.809 
   16500    299.26175   -1202.1968    303.93337     452.2888    692.84644    37373.809 
   16600    303.64375    -1168.424    311.74033    513.64433    212.79831    37373.809 
   16700    303.69267   -1196.0507    307.20442    481.70249     749.6264    37373.809 
   16800     297.8382   -1182.7647    288.09811    449.46129    628.72644    37373.809 
   16900    293.74592   -1222.1252    306.11948    409.65392     847.4578    37373.809 
   17000     289.0786   -1164.1395    310.53365    450.99041    355.26012    37373.809 
   17100    297.36844   -1190.6461    297.49578    448.85751    409.33285    37373.809 
   17200    305.78038   -1174.6036    317.91891    523.28574    644.80932    37373.809 
   17300    297.13054   -1191.9565     300.9807    449.95841    1017.4227    37373.809 
   17400    297.83129   -1139.9534    303.18638    507.32959    991.52145    37373.809 
   17500     293.2205   -1205.6194    293.50364    411.17262    465.70563    37373.809 
   17600     298.2025   -1191.5327    321.60247    475.84172    524.31721    37373.809 
   17700    301.63534   -1204.1717    291.52903    448.62149    614.63362    37373.809 
   17800    311.19087   -1169.6914    310.91237    545.60871    553.98097    37373.809 
   17900    295.14143   -1134.4628    321.62977    519.12442    410.01639    37373.809 
   18000    313.27382   -1148.9077    310.18617    575.06646    283.90122    37373.809 
   18100    308.02227   -1153.8612    303.96464    540.19148    484.82476    37373.809 
   18200    300.31851   -1206.7233    295.97348    444.57159    11.107146    37373.809 
   18300    301.01434   -1163.8892    309.70005    504.27247    604.20978    37373.809 
   18400    297.78091   -1189.8522    322.33512    476.35225    612.69143    37373.809 
   18500    289.23382   -1174.2493    329.85199    460.89939    565.18878    37373.809 
   18600    290.57897    -1173.867    317.21909     454.7194    432.63341    37373.809 
   18700    297.86247   -1188.7888    296.33093    451.77952   -52.847037    37373.809 
   18800    293.37771   -1191.2301    329.90948    462.67727    378.24873    37373.809 
   18900    296.67282   -1209.6747    315.36651     444.5603    743.99523    37373.809 
   19000    296.04386    -1191.067    322.38679    467.34987    704.55561    37373.809 
   19100    292.21665   -1170.5123    330.54969     478.7955    483.28799    37373.809 
   19200    288.09108   -1208.8108    340.78566    432.11451    322.76588    37373.809 
   19300    304.42693   -1205.7178    305.27696    473.42155    285.51373    37373.809 
   19400    299.45169   -1214.0774     318.6077    455.93972    190.18978    37373.809 
   19500    300.64723   -1228.7099    299.53805      427.633   -123.46564    37373.809 
   19600    297.06081   -1218.5148    304.17902    426.28372   -199.09416    37373.809 
   19700    314.50426   -1190.5175    332.42905    561.25243    65.048956    37373.809 
   19800    306.12617   -1196.2514    321.97123    507.25083       120.31    37373.809 
   19900     294.3631   -1197.5135    325.25805    456.18949    178.92009    37373.809 
   20000    302.65546   -1163.8284    317.26248    519.30195    288.98639    37373.809 
   20100    298.31616   -1167.4399    331.79595    510.64087    311.18417    37373.809 
   20200    307.85101   -1154.3147    320.08776    555.08812    798.94147    37373.809 
   20300    305.86859   -1196.1546    344.30012     528.5141    651.95333    37373.809 
   20400    307.76205   -1153.3989    337.83704    573.35174    378.33561    37373.809 
   20500    301.12367   -1152.6872    325.21192    531.47966     383.0683    37373.809 
   20600    298.43788   -1187.5466    333.35881    492.64632    563.70644    37373.809 
   20700    301.04888   -1211.1636     326.1576    473.61142    330.71907    37373.809 
   20800    304.77391   -1176.8542     324.0837    522.65786    79.244302    37373.809 
   20900    293.03202   -1220.1997    319.43801    421.67617   -358.47769    37373.809 
   21000    301.98806   -1221.0134    327.68513    469.52761    345.92171    37373.809 
   21100    307.81691   -1201.1408    322.99921    511.01963    6.2034074    37373.809 
   21200    294.38939   -1165.0779    344.30625    507.79187   -359.12558    37373.809 
   21300    310.00196   -1184.8206    323.15383    537.35553    177.30937    37373.809 
   21400     299.1383   -1172.2567    330.14552    507.88398    23.589187    37373.809 
   21500    300.14414   -1177.1424    340.53192    517.92397    471.36339    37373.809 
   21600    296.47896   -1178.4232    322.66295    482.23336    179.16414    37373.809 
   21700    309.03031   -1184.7337     344.4782     554.3817    -220.5475    37373.809 
   21800    300.31367   -1201.0501    327.71024    481.95966   -243.27864    37373.809 
   21900    308.43151   -1214.2438    333.03388    510.72494   -476.18171    37373.809 
   22000     294.0595   -1196.1483     350.3843    481.31075   -303.67274    37373.809 
   22100    310.57054   -1228.4174    342.88451    516.05536    275.66073    37373.809 
   22200    303.48841   -1177.2127    322.56956    514.98385    221.58006    37373.809 
   22300    293.85584   -1210.0014    350.29721     466.4515    578.41606    37373.809 
   22400    296.96531   -1231.8477     325.7651    434.10591    594.67389    37373.809 
   22500    304.67275   -1236.7442     340.1114    478.33898    554.12671    37373.809 
   22600     301.7007   -1231.3306     340.4625    470.69095    760.73298    37373.809 
   22700    295.72637   -1231.8133    329.54818    432.33217     650.8761    37373.809 
   22800     299.3874   -1189.8833    351.45743    512.69343    516.22666    37373.809 
   22900     300.4272   -1256.7626    338.42293    437.47224   -156.77651    37373.809 
   23000    293.06199   -1254.1095    315.44898    383.91257    123.40961    37373.809 
   23100    305.83172   -1216.9466    368.32092    531.57646   -255.46102    37373.809 
   23200    289.36096   -1218.7864     342.2768    429.36095   -92.179352    37373.809 
   23300    295.95034   -1225.4187    350.01204    460.20131    145.21307    37373.809 
   23400    302.01318   -1206.5553    342.30427    498.71831    9.7720194    37373.809 
   23500    296.16994   -1219.5694    350.92555    467.95517   -548.00702    37373.809 
   23600    296.12714   -1215.2777    348.55085    469.67912    59.434487    37373.809 
   23700    298.68974   -1222.5603     349.5158    474.92633   -238.58224    37373.809 
   23800    300.46519   -1234.0593    334.15381    456.07778   -295.13147    37373.809 
   23900    297.20542   -1227.0075    336.61016    450.87473   -189.64699    37373.809 
   24000    307.20506   -1276.4849    342.83917    452.75431   -339.22302    37373.809 
   24100    301.11833    -1211.057    341.20901    489.08295     172.0979    37373.809 
   24200    287.41304   -1235.4887    378.58365     440.1746   -412.32448    37373.809 
   24300    288.68474    -1264.124    366.85366    405.54848   -174.33948    37373.809 
   24400    298.99162   -1275.8126     332.5521     406.0727    307.90703    37373.809 
   24500    297.62293   -1268.2278    339.71243    414.64096    84.848405    37373.809 
   24600    299.05578   -1249.7828    344.98986    444.82976      -81.063    37373.809 
   24700    306.88645    -1221.426    363.68661    527.22274    333.10646    37373.809 
   24800    292.98343   -1222.1338    365.79481    465.87958   -112.08792    37373.809 
   24900    301.32598    -1209.547    341.69738    492.01843    43.759118    37373.809 
   25000    292.14736    -1227.071    363.23393    454.60835    93.559512    37373.809 
   25100    291.26361   -1220.0804    367.66468     462.0413    371.96232    37373.809 
   25200    310.54901     -1226.95    350.44795    524.98896   -16.516238    37373.809 
   25300    292.52053   -1202.2905    376.53773    494.37674    134.79141    37373.809 
   25400    300.04332   -1219.0484    364.49687    499.52789    191.61709    37373.809 
   25500    299.72104   -1239.5895    359.13146    472.16699   -84.217993    37373.809 
   25600    312.43563   -1209.7422    379.68957    579.95263      155.676    37373.809 
   25700    299.52149   -1213.2861    374.42527    512.86364   -280.93899    37373.809 
   25800    296.05526   -1225.0891     364.8339     475.8263    131.57178    37373.809 
   25900    300.23141   -1220.8564    376.27718    510.34901    189.28539    37373.809 
   26000    296.01466   -1212.5368    385.79873    509.16026   -57.108373    37373.809 
   26100    295.10032    -1178.132    352.21894     505.8589    -17.94817    37373.809 
   26200    301.35503   -1181.9771    367.14917    545.17119   -69.206751    37373.809 
   26300    301.46827   -1214.6776    368.98141    514.81398    314.39558    37373.809 
   26400    308.06827   -1235.5364    355.23209    509.99129    376.22949    37373.809 
   26500    296.78079   -1253.9507    370.01565    455.42078    348.52965    37373.809 
   26600    304.87978    -1199.314    361.09072    537.68285    16.500542    37373.809 
   26700    302.42303   -1222.9305    358.64746    500.53588    90.179442    37373.809 
   26800    304.01834   -1271.2559    364.85526    465.61777   -57.449092    37373.809 
   26900    296.47371   -1228.8493    352.59795    461.71865     236.9015    37373.809 
   27000    293.08133   -1209.5582    365.08632    478.18849    174.02929    37373.809 
   27100    308.98553   -1221.7721    390.66525    563.32831    460.94993    37373.809 
   27200    301.88408   -1256.5714     398.2995    504.11478    128.02096    37373.809 
   27300    303.40154   -1231.5579    390.44391    528.12095   -49.631287    37373.809 
   27400    310.34075   -1214.5732    375.53639    561.51436    38.492306    37373.809 
   27500    291.81175   -1238.6784     368.7716      447.024   -75.828077    37373.809 
   27600    300.81238   -1232.8447    351.80985    476.51526   -143.95505    37373.809 
   27700    293.15753   -1198.2373    371.24772    496.01465    73.764914    37373.809 
   27800    288.56068   -1234.6775    394.87976    462.46113     289.7076    37373.809 
   27900     296.9535   -1266.7311    364.46047    437.86462    116.70261    37373.809 
   28000     308.1601   -1229.3549    380.22296    541.57809    448.88601    37373.809 
   28100     304.5006   -1248.0525     366.5703    492.71263   -55.895177    37373.809 
   28200    277.50206    -1258.147    377.93241    372.13735    388.71802    37373.809 
   28300    290.91842   -1250.1045    390.14763    452.94235     20.30428    37373.809 
   28400    306.61404   -1256.0612    370.51792    498.18942   -48.709482    37373.809 
   28500    301.78278   -1238.5514    361.50326    484.88136     323.5841    37373.809 
   28600    298.95159   -1267.1426    380.48441    462.49434     272.6851    37373.809 
   28700    298.19275   -1263.6736    370.73023    452.78453    248.00683    37373.809 
   28800    306.72434   -1230.2265    356.78068    510.78471   -38.797959    37373.809 
   28900    307.10501   -1223.5204    356.86682    519.29491    382.62651    37373.809 
   29000    294.21837   -1271.2091    371.13803    427.72066    236.53037    37373.809 
   29100    302.25176   -1311.5737    354.37702    406.84933     187.4357    37373.809 
   29200    300.46778   -1293.0095    370.97402    433.95956    15.777664    37373.809 
   29300    295.24215   -1294.2438    387.62296     425.7912    148.35475    37373.809 
   29400     288.5173   -1291.7496    375.19571    385.50928    57.133232    37373.809 
   29500    302.99631   -1329.2038    378.37349    416.57581    -57.68737    37373.809 
   29600    306.56393   -1250.6925    371.58818    504.40231    282.14476    37373.809 
   29700    315.21949   -1275.4888    361.20787    508.28773    59.914975    37373.809 
   29800    299.61409   -1248.7663    377.90229    481.27831    236.10378    37373.809 
   29900    305.16104   -1248.3851    382.40939    511.19974    458.59927    37373.809 
   30000    295.95191   -1273.8127    388.04075    449.84318     538.5375    37373.809 
   30100    298.80254    -1273.429    367.80259    442.85349    695.47259    37373.809 
   30200    296.47197   -1257.6383    380.14303     460.4669    352.47197    37373.809 
   30300    308.07962   -1276.6429    391.55753    505.26145    839.50666    37373.809 
   30400    292.50394   -1243.0052    375.44777    452.49714    561.44093    37373.809 
   30500    289.99326   -1258.2145    387.26087    437.77041    409.70665    37373.809 
   30600    297.62754   -1251.6753    404.96375    496.46561    403.50021    37373.809 
   30700    295.37527   -1306.4258     371.1455    397.73246   -503.64802    37373.809 
   30800    304.95889   -1299.2246    396.67159    473.71013   -302.08008    37373.809 
   30900    306.42769   -1329.3947    374.10795    427.60505   -387.79266    37373.809 
   31000    298.41958   -1316.0255    382.17618    412.90227   -332.53299    37373.809 
   31100     294.2569   -1317.3149    377.23286    387.88361   -501.50375    37373.809 
   31200    291.08947   -1284.7833    392.91376    421.80166   -115.25397    37373.809 
   31300    307.14196   -1268.1283    395.05729    513.04425     150.3842    37373.809 
   31400    306.25335   -1296.8031    378.33787    463.63968    191.03909    37373.809 
   31500    297.30733   -1293.5462    386.20885    434.39472    -539.2847    37373.809 
   31600    298.32005   -1222.3404    385.40591    509.36795    -291.0006    37373.809 
   31700    293.52639   -1252.9664    373.98118    445.68366   -919.68589    37373.809 
   31800    307.75044    -1235.011    397.63726    551.48752    140.66731    37373.809 
   31900    300.42497   -1270.2075    383.59467    469.18898     258.0616    37373.809 
   32000    296.28942    -1291.852    395.72135    441.00766   -215.35495    37373.809 
   32100    299.52862   -1242.3841     390.9536    500.32608    52.852793    37373.809 
   32200    299.00662   -1305.1451    356.80673     401.0625    -30.06445    37373.809 
   32300    305.66602   -1286.8395    395.62326    488.23815   -184.79357    37373.809 
   32400    301.12646    -1295.407    379.20708    442.76764    -29.59234    37373.809 
   32500    303.25765   -1299.6559    378.94647    447.87612   -620.63563    37373.809 
   32600    286.98064   -1309.7792    391.33515    376.68423   -21.804626    37373.809 
   32700     308.0819   -1317.7824     381.8241    454.39878    60.758037    37373.809 
   32800    299.02948   -1296.3774    397.54557    450.67224    644.46782    37373.809 
   32900     302.3495   -1332.8639    403.65193    435.27517    355.69407    37373.809 
   33000    302.86911   -1297.2469    387.15789    456.74309    283.29743    37373.809 
   33100    297.41978   -1273.8304    403.99532    472.40441    79.707279    37373.809 
   33200    303.16821   -1303.1199     399.2837    464.34564    444.36617    37373.809 
   33300    296.16828   -1324.6697    387.37794     399.2998    358.56106    37373.809 
   33400    299.83316   -1291.8768    384.74394    445.99807    394.33387    37373.809 
   33500    308.59547   -1305.7312    371.41665    458.36026    354.15457    37373.809 
   33600    309.83452   -1276.1248    384.63995    506.78177    797.94588    37373.809 
   33700    296.08665   -1310.5064    396.71538    422.43213    555.89232    37373.809 
   33800    294.41132   -1331.7695    377.73028    374.62326     162.4237    37373.809 
   33900    296.52542   -1324.9731    375.53109    388.76132    245.61753    37373.809 
   34000    308.91354    -1322.534    402.89551    474.47176    423.25928    37373.809 
   34100    300.93502   -1385.4237    389.42601     362.1059    310.60332    37373.809 
   34200    301.63722   -1353.6352    385.79026    393.42768    145.95815    37373.809 
   34300    301.06913   -1334.5896    392.58692    416.70615    491.24902    37373.809 
   34400    299.25809    -1332.232    383.92059    402.22433    218.44641    37373.809 
   34500    295.45838   -1352.1598     403.4567    384.68472    244.92333    37373.809 
   34600    296.58709   -1295.5987    404.46331    447.34625    489.89079    37373.809 
   34700    304.09384   -1350.2361    380.70845    402.83151    178.41764    37373.809 
   34800     287.9083    -1362.436    366.92859     303.8073    247.74625    37373.809 
   34900    295.43465   -1339.3805    381.31265    375.21285    487.16909    37373.809 
   35000    301.85607   -1330.5797    393.85106    425.53161     429.6473    37373.809 
   35100    306.18406   -1314.2657    375.41705    442.94358    72.309369    37373.809 
   35200    311.19038   -1344.1869    395.05447    455.25312    695.44037    37373.809 
   35300    300.00983   -1307.1741     403.3104    450.06455    358.01658    37373.809 
   35400    294.19577   -1373.0838    410.81221    365.41813    628.38593    37373.809 
   35500    307.30998    -1360.866    389.01316    415.02068    657.33451    37373.809 
   35600      298.337    -1325.317    401.97943    423.04137    369.07502    37373.809 
   35700    297.35634   -1349.5191    381.09362    373.52774   -69.531818    37373.809 
   35800    292.30014   -1333.7234    399.23247    384.64389    38.700065    37373.809 
   35900    293.81667   -1303.7218    378.85737    401.11444    179.62085    37373.809 
   36000    302.19201   -1308.4486    397.13695    452.46471    126.36574    37373.809 
   36100    321.00112   -1313.6003    388.90255     523.9631    28.457164    37373.809 
   36200    302.44372   -1302.2982    393.59415    456.20827    223.30817    37373.809 
   36300    297.78919   -1320.1363    400.95832    424.72865    -592.7282    37373.809 
   36400    293.81962   -1332.7582    399.66928    392.90326   -535.38841    37373.809 
   36500    310.91981   -1322.4399    366.01194    446.73647   -940.96489    37373.809 
   36600    304.03921   -1289.4276    391.23494       473.92   -511.25279    37373.809 
   36700    292.20055   -1371.4769    381.70625    328.91474   -310.23938    37373.809 
   36800    296.27618   -1325.7141    381.31914    392.68354   -72.542745    37373.809 
   36900    299.84007   -1318.0927    402.44461    437.51411   -180.53494    37373.809 
   37000    293.88468   -1283.7028    403.24632    445.82934    126.15951    37373.809 
   37100    293.05957   -1321.7444    401.39069     402.2084    32.042497    37373.809 
   37200    310.50475   -1367.0136    384.85831    419.13602    765.91502    37373.809 
   37300    298.40667   -1320.5652    393.80514    419.93323    729.54448    37373.809 
   37400     290.7421   -1327.3817    409.23877    393.96055    78.288689    37373.809 
   37500    300.73523   -1332.9227    393.89678    418.17605     217.1334    37373.809 
   37600    289.20855   -1277.8977    404.81153    432.09648   -101.34029    37373.809 
   37700    290.77521    -1291.311    406.21228    427.15425   -803.22856    37373.809 
   37800    301.68973   -1272.1565    420.14854     509.5016   -216.41989    37373.809 
   37900    302.78725   -1287.2699    399.73767    478.93043     367.3739    37373.809 
   38000    293.93868   -1278.2956    403.20762    451.44154    523.52482    37373.809 
   38100    299.32123    -1303.706    367.87103    414.98565   -346.33725    37373.809 
   38200    299.37033   -1270.6535    397.74044    478.12925    351.20403    37373.809 
   38300    303.16226   -1275.2893    412.53543    505.40118   -48.650212    37373.809 
   38400    294.14085   -1284.9359    383.76358    426.26961   -310.56796    37373.809 
   38500    305.46939   -1269.3819    374.67564    483.86072   -24.532403    37373.809 
   38600    305.18268   -1276.3501    419.91448    520.83746   -136.32427    37373.809 
   38700    305.84083   -1267.9766    417.25943    529.52608    132.20926    37373.809 
   38800    290.62857   -1248.7529    423.23681    486.07504   -325.23384    37373.809 
   38900     293.3873   -1283.6767    410.87834    451.24277   -22.729314    37373.809 
   39000    294.64532   -1252.8389    413.72559    490.60527    83.691301    37373.809 
   39100    287.90867   -1238.7725    412.92326    473.46718    720.40784    37373.809 
   39200    286.25969   -1277.1311    428.42895    443.17245    160.22095    37373.809 
   39300    301.56962   -1325.9209    398.57972    433.62641     552.0042    37373.809 
   39400    305.25503   -1329.9055    404.31918    452.01325    508.51741    37373.809 
   39500    285.28266   -1303.7457    402.94336    386.66298     82.35566    37373.809 
   39600    305.57694   -1352.0374    395.81384     422.8288   -177.09671    37373.809 
   39700     298.3484   -1310.7696    410.52425    446.18497   -170.30387    37373.809 
   39800    297.42063    -1286.455    402.20278    457.99119   -193.51245    37373.809 
   39900    305.04427    -1308.268    405.80699    474.18739   -394.30977    37373.809 
   40000    299.08595   -1271.2905    407.34917     485.8175     135.8045    37373.809 
   40100    303.81213    -1276.913     397.8803    492.05512    70.998802    37373.809 
   40200    301.06704   -1290.6028    417.57017     485.6668    412.67543    37373.809 
   40300    295.54694    -1315.274    409.83612    428.34962   -108.16573    37373.809 
   40400    293.50859   -1273.6985    410.70886    461.59893    80.267666    37373.809 
   40500    303.15913   -1271.6466    418.69825     515.1925   -149.12191    37373.809 
   40600    289.85801   -1256.8568    433.84267    485.09954    284.71394    37373.809 
   40700    295.65498   -1327.4696    417.46866    424.27409   -11.325992    37373.809 
   40800    304.39319    -1345.693    392.84152     420.8587   -37.342519    37373.809 
   40900    297.43243   -1325.2862    398.41667    415.42709    31.984016    37373.809 
   41000    304.12596   -1295.8818    399.85852    476.48084    410.04324    37373.809 
   41100    297.15454   -1326.2086    407.06695     421.9008    1022.5218    37373.809 
   41200    305.56464   -1324.2037    400.93193    455.72505    397.36116    37373.809 
   41300    298.11643   -1265.1317     419.4744    499.72618    576.78476    37373.809 
   41400    302.13595   -1282.4834    398.82937    479.86934    716.38831    37373.809 
   41500    287.80223   -1262.0372    407.17306    443.97186    385.76124    37373.809 
   41600    308.03813   -1309.0582    406.31369    487.41508     207.6098    37373.809 
   41700    308.47565   -1282.2669    399.84094    509.70812    174.59146    37373.809 
   41800    305.65518   -1295.8948    423.57357    507.08419    341.23008    37373.809 
   41900    303.14883    -1264.963    412.39371    515.52511    155.71782    37373.809 
   42000    302.78889   -1296.8125    406.08479    475.74234   -69.453871    37373.809 
   42100    297.78081   -1330.8873    421.69252    434.67403    428.13425    37373.809 
   42200    301.30936    -1309.089    414.56651    465.27054    117.55308    37373.809 
   42300    298.32669   -1308.4033     424.3209    462.25001    514.37908    37373.809 
   42400    299.41252   -1364.3813    422.59538    409.44677   -87.861268    37373.809 
   42500    297.60757   -1280.1431    423.77618    486.72003    159.99671    37373.809 
   42600    291.80553   -1321.9011    403.66937      398.671    68.109274    37373.809 
   42700    300.10781   -1346.8385    417.06605    424.59799   -208.06707    37373.809 
   42800    306.97897   -1374.6643    400.68257    411.39795    118.37302    37373.809 
   42900    306.59035   -1301.0609    416.07716    498.64205    124.03244    37373.809 
   43000     303.2731   -1293.9154    423.65184    498.39174   -131.63099    37373.809 
   43100    307.21194   -1284.1531    413.46831    515.74625   -507.23839    37373.809 
   43200    305.55099   -1299.7495     425.7845    504.97025   -813.97482    37373.809 
   43300    301.52365   -1291.5042    404.05649    473.31235   -485.70534    37373.809 
   43400    298.28428   -1300.7748    420.98097    466.34717    102.34496    37373.809 
   43500    299.48313   -1304.2884    419.57072    466.83368    58.829991    37373.809 
   43600    300.61221   -1307.0785    402.15546    451.72371    163.15276    37373.809 
   43700    297.85539   -1335.0637    436.06653    445.20822     234.0211    37373.809 
   43800    293.30523   -1319.6913    412.88016    416.85968     409.4529    37373.809 
   43900    303.27091   -1391.0633    400.10706    377.68917    192.33569    37373.809 
   44000    295.87863   -1351.1537    415.91986    400.05061    521.68608    37373.809 
   44100    299.71774   -1299.3092    419.66637    472.96726    534.75655    37373.809 
   44200    309.78811    -1330.405    416.27032    483.92252    132.79027    37373.809 
   44300    304.47393   -1363.0709    416.25538    427.25904    324.31253    37373.809 
   44400    311.81672   -1322.6818    421.57607    506.10639    158.66371    37373.809 
   44500    304.88404   -1301.6115    421.21954    495.53336    50.951643    37373.809 
   44600    300.25525   -1288.3939    401.44755     468.0895    29.426105    37373.809 
   44700    296.07602   -1302.0797    429.47189    463.56734    9.4611909    37373.809 
   44800       307.32   -1273.6185    438.61708    551.91726    152.29128    37373.809 
   44900    292.63338   -1318.3073    416.55389    418.88535     -120.032    37373.809 
   45000    305.39339   -1332.0823    408.92225    455.06394   -218.55817    37373.809 
   45100    313.09452   -1322.9385    382.34762    472.38787   -667.07257    37373.809 
   45200    293.66293   -1309.8356    410.32068    425.77018   -978.88017    37373.809 
   45300     303.1936   -1312.5371    411.63495    467.39434   -381.44406    37373.809 
   45400    298.15735   -1334.9367    425.68511    436.31658   -204.60221    37373.809 
   45500    301.07536   -1328.4927    411.28928     441.5336   -588.16441    37373.809 
   45600    303.69318   -1332.0009     407.1388    445.68894    176.59971    37373.809 
   45700     300.0121   -1275.5502    446.39802    524.78635    702.49333    37373.809 
   45800    306.00471   -1336.2213    415.32988    460.09144    170.76443    37373.809 
   45900    299.71077   -1347.4615    439.98728    445.10444    371.65417    37373.809 
   46000     296.1408   -1319.9603    457.95648    474.46372    266.30649    37373.809 
   46100    304.24848   -1326.2588    432.05397     478.8522     376.8932    37373.809 
   46200    304.31746   -1358.6976    417.00554    431.67639    536.73824    37373.809 
   46300    297.20125    -1308.464    430.69769    463.48702    589.96437    37373.809 
   46400    295.85025   -1358.6971    418.97016    395.42934   -392.40654    37373.809 
   46500    307.72325   -1333.7536    422.55825    477.54318   -129.49265    37373.809 
   46600    313.00678   -1285.7551    433.55628    560.38399    -291.2099    37373.809 
   46700    300.30377   -1357.0048    412.51712    410.76714   -370.98092    37373.809 
   46800    303.68211   -1364.5519    439.18581    445.13496   -143.07806    37373.809 
   46900    306.57698   -1347.8412    422.03124    457.75554     228.8077    37373.809 
   47000    295.48596   -1308.9817    422.62342    447.15403    230.80414    37373.809 
   47100    300.95417   -1336.1359    426.02992    448.08401    188.01339    37373.809 
   47200    293.10215   -1337.4784    422.30962    407.58552   -82.331261    37373.809 
   47300    309.71775   -1349.5622    415.35293    463.53038   -160.13373    37373.809 
   47400     282.6616   -1337.9158    430.60087     368.3217   -353.62146    37373.809 
   47500    294.81376   -1315.2649    442.00433    457.21814   -250.06875    37373.809 
   47600    297.18721    -1325.059    412.26581    428.39674    -239.1228    37373.809 
   47700    309.03515    -1263.101    430.29703    561.85515   -519.75307    37373.809 
   47800    299.87628   -1330.0736    467.23353    490.48557   -839.60038    37373.809 
   47900    311.83245   -1330.2122    450.19441    527.26535   -108.33628    37373.809 
   48000    306.16291   -1371.6629    408.73227     418.7662   -213.18617    37373.809 
   48100    310.12445   -1355.7945    433.62543    477.40592   -381.21392    37373.809 
   48200    307.21341   -1315.1293    435.80732    507.11569     315.3026    37373.809 
   48300    299.14808   -1277.5986    438.82664     511.2673    817.32288    37373.809 
   48400    292.42049   -1293.7697    449.33003    475.23836    356.12905    37373.809 
   48500    302.70205   -1315.4983    435.51169    486.09157     743.1662    37373.809 
   48600    308.21918   -1274.5085    436.70662    553.17481    372.47878    37373.809 
   48700    298.56356    -1322.085    413.33595    438.65228   -282.15513    37373.809 
   48800    310.92566   -1306.9138     425.3753    521.65234    246.58048    37373.809 
   48900    299.02289   -1329.8673    444.24523    463.85218   -49.938788    37373.809 
   49000    297.34672   -1331.3725    454.18253    464.71981    172.45145    37373.809 
   49100    306.54083   -1324.3368     432.9853    492.05083    19.299598    37373.809 
   49200    296.05799   -1359.6912      440.301     416.7036    230.09161    37373.809 
   49300    304.95282   -1340.2393    410.05597    446.05238    234.65169    37373.809 
   49400    293.90288   -1316.5652    432.42226    442.22505   -241.28996    37373.809 
   49500    304.33534   -1272.8109    433.39444    534.03269   -128.52303    37373.809 
   49600    297.43488   -1312.5982    443.52098    473.23049    101.34158    37373.809 
   49700    302.47746   -1288.5332    445.83024    522.36158    1047.1968    37373.809 
   49800    300.63787   -1375.9311    443.47579    424.30725    291.89421    37373.809 
   49900     305.7407   -1324.9826    436.95179    491.76057    823.01495    37373.809 
   50000    300.23731   -1324.2802    435.81072    466.48537    475.83283    37373.809 
   50100    304.52482   -1332.4175    428.87208    470.75875   -11.299689    37373.809 
   50200    311.61405   -1324.4152    424.62897    506.51124    322.18034    37373.809 
   50300    302.15401   -1327.7697    420.16352    455.99864      62.8723    37373.809 
   50400    300.73246   -1352.3648    433.57048    438.39519    233.60054    37373.809 
   50500    295.98524    -1327.658    422.50084    430.60834   -55.182774    37373.809 
   50600    289.31435   -1314.1379    451.44533     442.9676    406.30427    37373.809 
   50700    301.23477   -1349.3021    450.71441     460.8687    208.26342    37373.809 
   50800    303.69232   -1294.8379    452.15945    527.86873    510.87052    37373.809 
   50900    288.28863   -1348.7826     407.4345    359.68304    351.63179    37373.809 
   51000    303.73854   -1357.1916     433.2776    446.84174     762.6924    37373.809 
   51100    287.59016    -1360.507     403.2581    340.63011    745.10357    37373.809 
   51200    292.53555   -1381.2186    444.81219    383.79088    740.53599    37373.809 
   51300    296.49341   -1396.8729    443.50545    384.69141    575.31613    37373.809 
   51400    308.08865   -1363.1854     422.4659    449.66809    849.43423    37373.809 
   51500    302.05861   -1396.2635    435.19899    402.10982    384.45636    37373.809 
   51600    288.70553   -1400.9678    441.91129    343.85602    301.69649    37373.809 
   51700    291.07933   -1391.3962    445.35924     367.5885   -263.43334    37373.809 
   51800    294.42431   -1399.3072    415.38968    344.80357    95.700076    37373.809 
   51900    299.67849   -1403.2974    422.47365    371.60925   -361.86823    37373.809 
   52000    296.98262   -1351.3324    434.34583    423.28004   -217.08816    37373.809 
   52100    309.04707   -1331.5393     422.3665    485.54009   -138.68184    37373.809 
   52200    295.49457   -1326.8806    439.33155    446.00211    386.42483    37373.809 
   52300    294.32605   -1392.9134    429.88211     365.2464    220.69404    37373.809 
   52400    299.49475   -1331.7033    431.79672     451.6972    43.415669    37373.809 
   52500    302.45049   -1362.7941    437.84115     439.9899    166.10079    37373.809 
   52600    301.02864   -1342.0245    452.39098    468.89264    155.64949    37373.809 
   52700    293.70701   -1335.3634    420.51332    410.63392    185.33654    37373.809 
   52800    300.21159    -1353.816    441.37683    442.39965    476.56862    37373.809 
   52900    296.30355   -1364.6765    424.88349    397.40904   -17.651123    37373.809 
   53000    296.28484   -1351.1006    415.03725    401.05428   -145.52972    37373.809 
   53100    293.16214   -1346.3258    433.33847    410.03773    461.04382    37373.809 
   53200     302.0201   -1362.8004    427.35684    427.55692   -277.67196    37373.809 
   53300     297.8112   -1354.7967    431.18361    420.39291    348.39009    37373.809 
   53400    286.73323   -1312.0958    448.04766    429.96357   -298.77433    37373.809 
   53500    290.89333    -1312.193    471.85494    472.44795    366.41089    37373.809 
   53600    305.94104   -1349.5699    450.87135    481.99701     97.24558    37373.809 
   53700    291.28524   -1334.9783    441.90385    421.48026   -507.57992    37373.809 
   53800    305.54826   -1351.0006    445.34746    473.26978   -490.67386    37373.809 
   53900    303.72299   -1316.0982       447.57    502.15741    333.72806    37373.809 
   54000    295.69466   -1339.3843     424.7318    419.80165    125.17587    37373.809 
   54100    296.19009   -1367.4198    420.26335    389.53353   -438.93068    37373.809 
   54200    303.48816   -1370.9338    457.33723    456.02928   -249.40436    37373.809 
   54300    309.44224   -1358.6888    447.44687    485.25432   -359.72085    37373.809 
   54400    304.20825   -1361.8217    441.96374    453.01757  -0.73278751    37373.809 
   54500    300.06918   -1333.1954    444.42245    465.42316   -416.26423    37373.809 
   54600    289.93048   -1331.2936    459.97539    437.12246   -787.58592    37373.809 
   54700    307.21702   -1353.9147    445.09502    477.63426   -419.27233    37373.809 
   54800    297.22438   -1301.9844    430.82665    470.19996   -141.34128    37373.809 
   54900    303.16999   -1346.8133    446.95896    468.33557    53.409361    37373.809 
   55000    303.01982   -1368.2937    448.96192    448.18042    98.484666    37373.809 
   55100    307.96846   -1386.6588    440.18542    443.37178    8.9523284    37373.809 
   55200    306.75661   -1378.6061    442.90212    448.67216    96.189455    37373.809 
   55300    299.10877   -1381.8928    438.60459    406.57359    230.46941    37373.809 
   55400    291.00657   -1369.5556      468.043    411.78448    -462.3202    37373.809 
   55500    305.65597   -1350.8721    434.15216    462.68906   -40.183586    37373.809 
   55600    296.53015    -1358.906    440.38457    419.70327    327.77974    37373.809 
   55700    295.92733   -1337.4868    473.23474    471.25214    345.74472    37373.809 
   55800     303.4575   -1363.6169    420.21641    426.08692    35.002971    37373.809 
   55900    292.69797   -1341.3328    457.94033     437.5378    460.45853    37373.809 
   56000    304.91914   -1391.4634    447.50279    432.12313    209.26346    37373.809 
   56100     294.5948   -1407.9139    440.24155    361.81821    106.98349    37373.809 
   56200    298.47937   -1438.3057    451.33869    360.05438    272.07157    37373.809 
   56300     305.1935   -1444.1077    450.36535    383.57957   -325.64191    37373.809 
   56400    305.28092    -1385.381    449.82884    442.16427   -282.64045    37373.809 
   56500    301.54126   -1380.2705     442.4134    422.98244   -372.91981    37373.809 
   56600    293.14242   -1370.5094    449.34377    401.77038     300.9798    37373.809 
   56700    298.56972   -1402.8129     452.7089    397.32517     336.2848    37373.809 
   56800     302.1121   -1347.9515    449.28172    464.74594    268.66295    37373.809 
   56900    292.51301   -1371.0729    432.85877    381.88137   -99.551342    37373.809 
   57000    303.74469   -1353.8605    449.55938    466.48237    200.84683    37373.809 
   57100    291.34598   -1370.7522    469.92811    414.00472   -151.29018    37373.809 
   57200    303.76839   -1390.4759     442.8363     423.2509    318.98264    37373.809 
   57300    308.48832   -1400.8886    464.21394    455.51658    389.68008    37373.809 
   57400    308.39655   -1395.3016    446.13817    442.61371    486.35808    37373.809 
   57500    298.58135   -1369.9941    472.56595    450.05351    19.811082    37373.809 
   57600    307.05571   -1410.5055    446.62149      421.842     462.1175    37373.809 
   57700    302.24436   -1407.1228    409.44786    366.33765     133.7894    37373.809 
   57800    303.23191    -1378.606    448.01705    437.88039   -226.42813    37373.809 
   57900    309.79005   -1401.5266    458.79552    455.33477    118.65602    37373.809 
   58000    307.45083   -1376.4834    441.92335    452.94908   -248.51208    37373.809 
   58100    295.99569   -1414.7618    475.18129    396.23216   -36.199077    37373.809 
   58200    290.53129   -1418.9178    442.57674    334.81109    318.99277    37373.809 
   58300    294.41981   -1436.2494    439.29831    331.74973    -423.6795    37373.809 
   58400    291.57663    -1448.873    446.49302    313.48974    108.71961    37373.809 
   58500    304.96871   -1409.9702    455.04656    421.38383   -284.47936    37373.809 
   58600    302.52666    -1388.336    453.25329    430.20386     -479.873    37373.809 
   58700    310.25614   -1371.3444    473.28798    502.11292   -210.94099    37373.809 
   58800    294.50717   -1376.0491    435.56113    388.60708    143.76938    37373.809 
   58900    309.20183   -1376.4904    432.16819    451.08911    467.78559    37373.809 
   59000     294.4315   -1359.0802    441.98345    411.65679    8.8041367    37373.809 
   59100    292.48377   -1413.0419    454.03771    360.95941   -158.32314    37373.809 
   59200    305.85725   -1375.2459    442.00754    447.07901    248.56759    37373.809 
   59300    301.18379   -1357.7483     453.9415    455.41955   -698.60878    37373.809 
   59400    293.52984   -1370.3892    444.11235    398.40758   -186.88309    37373.809 
   59500    306.26878   -1403.4149    412.19321    390.95296   -311.43011    37373.809 
   59600    291.31157   -1369.9156     466.1051    410.86303   -59.757493    37373.809 
   59700    298.65545   -1406.8274    419.74084    360.72947   -159.98113    37373.809 
   59800    295.76935    -1402.906    448.50628    380.39147    47.478166    37373.809 
   59900    302.44293   -1364.5607    446.08709    446.43515   -288.31841    37373.809 
   60000    309.95074   -1389.8046    436.64325    445.62976   -312.13324    37373.809 
   60100     310.2574   -1403.9694    426.53593    422.74159   -300.54378    37373.809 
   60200    297.23542   -1392.5848    454.24865    403.07134   -733.83547    37373.809 
   60300     304.8476   -1448.7029    431.66431    358.72226   -505.41474    37373.809 
   60400    306.44849   -1372.6818    462.18122    472.48503   -47.991739    37373.809 
   60500    292.17277   -1356.2691    413.68681    375.97778    135.33666    37373.809 
   60600    296.78725   -1379.5547    437.83176    397.66205     152.6188    37373.809 
   60700    303.74887   -1348.7006    442.00839    464.11011    399.01325    37373.809 
   60800    303.84164   -1347.3171    428.30397    452.20797     481.8825    37373.809 
   60900    306.47572     -1360.47    435.94743    458.58591    430.64188    37373.809 
   61000    300.74684   -1320.5668    450.28741      486.975    729.67909    37373.809 
   61100    301.62566   -1340.6663    428.83342    449.38755    557.98089    37373.809 
   61200    303.82401   -1391.2287    440.95056    420.86332    654.26732    37373.809 
   61300    291.96598    -1356.251    433.03319    394.40899    238.74005    37373.809 
   61400    293.27859   -1396.3567    437.54263    364.73647   -211.83723    37373.809 
   61500    305.87493   -1370.5547     448.1495    457.99196   -251.69823    37373.809 
   61600    300.69676   -1333.5908    448.99028     472.4278    442.48843    37373.809 
   61700     303.1843    -1321.523    457.73999    504.47154     584.1581    37373.809 
   61800    290.07333   -1309.5509    465.13379    464.66834    559.39548    37373.809 
   61900     290.3651   -1354.3586    442.39184    398.43533    526.60899    37373.809 
   62000    302.07589   -1341.9883    455.17371    476.43767    996.04606    37373.809 
   62100    306.75232   -1395.4366    460.13597    449.05619    1092.6262    37373.809 
   62200     304.4198   -1404.4485    444.06422    413.44594    182.70682    37373.809 
   62300    306.38424   -1372.8333    459.57919    469.44151    177.05829    37373.809 
   62400    301.99618   -1358.2279    462.41713    467.08184    719.76503    37373.809 
   62500    306.40374   -1378.5315    427.35489    431.60707    726.87922    37373.809 
   62600    295.15894   -1407.5816    441.94227    366.39712    706.28144    37373.809 
   62700    304.87304   -1426.2333    450.23426    399.87665     428.9061    37373.809 
   62800    309.78954   -1436.7416     440.2548    401.57675    178.26373    37373.809 
   62900    300.13989   -1406.3283    442.49556    390.68253   -83.660454    37373.809 
   63000    304.17455   -1393.1925    432.29556    411.82646   -299.51674    37373.809 
   63100    299.75968   -1364.6765    451.30996    439.43281   -523.20388    37373.809 
   63200    303.55478   -1393.3377    429.32283    405.91162   -267.41963    37373.809 
   63300    299.83598   -1399.2359    436.04721    389.95499   -167.60283    37373.809 
   63400    304.30878   -1412.0421     461.9807    423.26781    86.017308    37373.809 
   63500    307.75257   -1428.8935    419.50971    379.48701   -44.058453    37373.809 
   63600    293.28842   -1424.0763      442.284    341.80269   -384.44812    37373.809 
   63700    301.98308   -1423.0153    426.18102    365.99916   -518.69275    37373.809 
   63800    302.20752   -1385.4153    430.08143    408.51246    115.73463    37373.809 
   63900    293.13735   -1434.4255    434.08031    322.56796   -162.28498    37373.809 
   64000    301.57091   -1405.0274    438.38074     394.3267    229.77339    37373.809 
   64100    304.63034   -1357.3449    446.85621    464.29177   -115.30085    37373.809 
   64200    301.46435   -1397.0569    453.21409    416.64959    365.25294    37373.809 
   64300    296.68482   -1417.5547    449.56555    370.93357   -210.13599    37373.809 
   64400    297.12441   -1388.1732    443.70207    396.43542   -171.90745    37373.809 
   64500    304.46829   -1383.9101    443.25623    433.39523    136.09402    37373.809 
   64600    291.06008   -1376.3546    457.99723    395.18121     546.8515    37373.809 
   64700    297.38098   -1386.3383    447.44291     403.1691     464.6047    37373.809 
   64800    302.11134   -1382.6385    444.10335     424.8771    654.30237    37373.809 
   64900    309.15762   -1395.7473    459.51115    458.97567    624.59307    37373.809 
   65000    320.07879   -1391.3144    462.50781    515.69188     909.9969    37373.809 
   65100    297.88872   -1427.7534    421.54127    338.14367    605.15873    37373.809 
   65200    288.96461   -1347.6597    455.48212    411.90421    13.086165    37373.809 
   65300    304.14396   -1365.9535    451.60557    458.23749     56.27651    37373.809 
   65400    304.23791   -1413.1739    439.76417    399.59962   -264.47224    37373.809 
   65500    295.70902   -1334.5761    458.42856    458.37144   -549.07546    37373.809 
   65600    295.83572   -1407.0843    443.78161    371.78807    -1213.857    37373.809 
   65700    311.04789   -1425.4624    447.19935    425.47941   -703.85521    37373.809 
   65800    287.41573   -1413.9901    428.27606    311.37772   -461.26746    37373.809 
   65900    302.64705   -1387.6884    457.71376    435.85524   -339.03549    37373.809 
   66000    306.75156   -1383.2711    437.63036    438.71266   -428.78047    37373.809 
   66100     294.2903   -1410.0079    433.35008    351.45856    30.304728    37373.809 
   66200    285.79187   -1398.7241    439.68839    330.72773    170.82154    37373.809 
   66300     300.1057   -1408.3512    442.61155     388.6213    584.34262    37373.809 
   66400    300.24541   -1395.6131    453.23231    412.61065    631.76258    37373.809 
   66500    301.79214   -1425.5054    441.25338    377.71972    226.71796    37373.809 
   66600    309.09896   -1458.1933    448.92309    385.67686    -222.9521    37373.809 
   66700    310.62091   -1405.8932    449.94448    445.86678   -149.26841    37373.809 
   66800    298.04302   -1403.3273    460.52168    402.24651   -350.28668    37373.809 
   66900    292.97809   -1405.8053    448.47036    364.85943   -771.05843    37373.809 
   67000      300.933   -1339.9921    472.71638    490.81876   -234.35915    37373.809 
   67100    302.42552   -1333.7836    455.30588    486.35244   -475.98952    37373.809 
   67200    295.09579   -1333.8827    464.42952     462.2983    73.737149    37373.809 
   67300    307.60156   -1321.7473    443.60007    510.04214    -566.0384    37373.809 
   67400    299.33789   -1333.0008    460.98936    478.88436   -166.81857    37373.809 
   67500    297.09343   -1335.8977    476.08924    480.95828   -316.42479    37373.809 
   67600    301.76978   -1367.3502     462.2482    456.76882     34.70873    37373.809 
   67700    288.73955   -1407.6348    456.52611     351.9574   -160.90587    37373.809 
   67800    310.01479   -1413.9629    448.51244    433.62973   -28.580789    37373.809 
   67900     301.4418   -1409.3114    441.92452    393.00374    169.88781    37373.809 
   68000    285.70657    -1374.505    466.45457    381.32801    218.88171    37373.809 
   68100    298.15738   -1424.6089    468.16283    389.12219    31.868678    37373.809 
   68200    306.24119   -1427.6525    464.29629    418.69389    669.51527    37373.809 
   68300    295.29393   -1414.9961    460.01121    377.66075    124.45852    37373.809 
   68400    290.37196   -1410.1314     468.8549    369.15659    214.50627    37373.809 
   68500    303.89273   -1375.8817    447.06673    442.63666    604.18756    37373.809 
   68600    321.02047   -1381.4842    470.94972    538.21366    317.17416    37373.809 
   68700    293.97876   -1378.8888    466.72009     414.5417    7.5939975    37373.809 
   68800    299.04742   -1332.1205    448.65406    466.11853    -220.1315    37373.809 
   68900     303.4778   -1336.5823    482.31115    515.30787    518.08102    37373.809 
   69000    295.54063   -1367.4788    449.24237     415.5226    1.5689564    37373.809 
   69100    297.26287   -1404.7155    457.76486    394.58078   -139.10754    37373.809 
   69200    293.00099   -1366.9282    455.11237    410.48195    219.06548    37373.809 
   69300    307.79985   -1388.4933     478.4184    479.00932    82.367012    37373.809 
   69400    300.22143    -1389.756    476.25676      441.384   -16.577737    37373.809 
   69500    296.35186   -1388.0065    442.20769    391.62127    83.700646    37373.809 
   69600    296.58488   -1354.7905    492.69437    476.37553   -371.19331    37373.809 
   69700    300.73718   -1402.9074    459.56293    413.86625    4.5373184    37373.809 
   69800    299.26716    -1403.725     458.5658    405.41749    37.995763    37373.809 
   69900    311.16007   -1399.9788    462.67914    466.94904     35.39645    37373.809 
   70000    315.42961   -1382.7523    468.73454    509.49919    638.85309    37373.809 
   70100    298.25242   -1365.6489    467.25885    447.60713   -257.58154    37373.809 
   70200    316.83269   -1372.8207    461.90694    518.93519    48.620453    37373.809 
   70300    296.40934   -1378.5226    443.98477    403.14168   -300.17928    37373.809 
   70400    297.14132   -1400.9934    454.12421    394.11365   -443.08681    37373.809 
   70500    313.50706   -1380.6495    446.29492    480.48601    404.99722    37373.809 
   70600    296.20784    -1408.231     487.2279    415.76704    8.8638353    37373.809 
   70700    294.46294   -1403.0547    473.06394    398.90465    883.10756    37373.809 
   70800    296.15681   -1430.4731    473.23054    379.29722    836.03499    37373.809 
   70900    295.67018   -1368.4237    482.80345    448.72342    1000.6063    37373.809 
   71000    303.47219   -1375.8815    469.70327    463.37547     510.3102    37373.809 
   71100    295.59394   -1429.7521    470.12895    374.37647    411.52398    37373.809 
   71200    296.37914   -1407.2009    470.27212     400.6144    230.09135    37373.809 
   71300     298.3516    -1417.585    446.51987    375.37965   -64.774566    37373.809 
   71400    287.13672   -1455.8429    457.79207    297.78176   -276.44905    37373.809 
   71500    306.38117   -1425.1395    460.58089    418.12317    44.536683    37373.809 
   71600    290.78761   -1415.4333    469.47719     366.3528    339.29795    37373.809 
   71700    302.73497   -1394.6326    475.74298    447.33702    272.34859    37373.809 
   71800    301.11924   -1417.5486    438.82024    380.20665     395.4222    37373.809 
   71900    307.74587   -1419.6643    461.66476    430.84104    696.20802    37373.809 
   72000    305.64905   -1407.2762    459.10764    431.20923   -206.16389    37373.809 
   72100    295.85863   -1375.5213    437.52693     397.1998   -139.69479    37373.809 
   72200    293.38198   -1399.3415    477.19603    401.87168   -272.86349    37373.809 
   72300    299.47109    -1390.367    499.89022    461.02027   -233.36392    37373.809 
   72400    301.73597   -1405.5845    451.69242    407.82622   -288.60972    37373.809 
   72500    293.17576   -1424.2886    469.80596    368.60388    -407.8136    37373.809 
   72600    301.79636   -1411.6755    459.83156    410.14681   -721.24715    37373.809 
   72700    293.60268    -1395.202    470.26035    400.07151   -571.35196    37373.809 
   72800     305.4172   -1396.8924    443.73167    425.17076   -258.41847    37373.809 
   72900    312.57257    -1445.484    464.57918    429.71845   -458.82104    37373.809 
   73000    300.68036     -1433.65    476.77045    400.07479   -347.27751    37373.809 
   73100    303.14877   -1377.2023     465.4963    456.38821   -568.58594    37373.809 
   73200    291.76518   -1444.2073    484.22784    356.74117   -135.15478    37373.809 
   73300    299.79386   -1428.0441    459.34121    384.25067   -131.81042    37373.809 
   73400    302.61983   -1420.2697    478.46106    423.89845   -468.86609    37373.809 
   73500    306.06589    -1443.191    478.66803    416.73597      640.206    37373.809 
   73600    300.07941   -1424.8956     446.5985    375.94524   -19.622591    37373.809 
   73700    300.68455   -1452.2659    446.63456    351.34197   -444.45589    37373.809 
   73800    304.24933   -1371.6365    474.60742    476.03189   -267.15193    37373.809 
   73900    300.55116   -1406.2236    441.08877    391.23647   -93.186633    37373.809 
   74000    288.09037    -1395.383    450.73345    355.48684   -138.36465    37373.809 
   74100    294.00129   -1389.9831    468.01138    404.84032   -154.77953    37373.809 
   74200    309.82246   -1409.7638    481.04452    469.49289   -469.04874    37373.809 
   74300    295.45093   -1432.7206    444.83471    345.46834   -26.699671    37373.809 
   74400    295.42935   -1417.0419    462.46037    378.67527   -516.16474    37373.809 
   74500    296.39453   -1419.1185    453.75207    372.24626     52.48367    37373.809 
   74600    292.29918   -1410.9155    464.00028    372.21531   -12.087115    37373.809 
   74700     291.8244   -1406.5923    474.64515    385.04067    187.21432    37373.809 
   74800    294.70091   -1437.8859    447.86538    339.94891   -312.03459    37373.809 
   74900    299.83559   -1427.0599    455.23782    381.31992   -197.22976    37373.809 
   75000    291.44598   -1438.5918    463.25529    339.94355   -394.97615    37373.809 
   75100    310.18392    -1425.113    445.08174    419.81213    187.63168    37373.809 
   75200     298.9071   -1445.7455    438.27142    341.47764    217.92496    37373.809 
   75300    297.37415   -1397.7102     470.7634    415.08685   -179.64776    37373.809 
   75400    308.87088   -1390.8125    454.95416    458.05945    10.417228    37373.809 
   75500    302.18921   -1394.7006     446.6138    415.67695   -88.282897    37373.809 
   75600    307.69708   -1429.5438    464.55851     423.6352   -650.87933    37373.809 
   75700    304.14001   -1429.6002    459.13923    402.10659    200.79814    37373.809 
   75800    301.55531   -1409.5425      474.216    425.57649    -203.5195    37373.809 
   75900    293.18267   -1423.9538     428.7378    327.90169   -305.95279    37373.809 
   76000    294.67964   -1465.5249    451.43922    315.78774   -209.88772    37373.809 
   76100    304.39343   -1441.2185    467.56196    400.05469    188.87089    37373.809 
   76200     293.7864   -1428.2337     446.4577    344.06631   -504.31634    37373.809 
   76300    296.60355   -1439.3673    437.84804    337.03672   -190.74055    37373.809 
   76400    308.88241   -1407.7035    481.97267     468.2389   -199.18333    37373.809 
   76500    306.47606   -1396.2898    468.41602    455.23627     753.1995    37373.809 
   76600    303.71286   -1369.0527    467.40606    468.99322    619.90485    37373.809 
   76700    302.71056   -1425.1507    483.64594    424.61177    198.07013    37373.809 
   76800     300.0774   -1364.3812    489.23454     479.0866    558.49326    37373.809 
   76900     312.1048   -1410.2408    444.46985     442.7413    584.30981    37373.809 
   77000    285.01298   -1428.0831    496.04211    354.20726    1021.6618    37373.809 
   77100    305.27832   -1406.7805    501.45553    472.37976    633.87522    37373.809 
   77200    302.13316   -1429.5438    478.44106    412.40801    667.31851    37373.809 
   77300    303.03438    -1378.356    474.49653    463.71846    242.54431    37373.809 
   77400    304.19362   -1364.1316    466.01887     474.6968   -60.287133    37373.809 
   77500    301.56949   -1390.9364    460.55793     430.5885    341.07928    37373.809 
   77600    305.70683   -1399.6087    452.47325    432.50314    228.98109    37373.809 
   77700    306.03268   -1406.8247    468.37778    442.66219    558.00348    37373.809 
   77800    294.68306   -1377.4093    458.53025    411.00984   -54.766958    37373.809 
   77900    297.54009   -1421.2931    480.54486    402.03426   -94.954377    37373.809 
   78000    305.89922   -1423.0886     488.4898    445.90804   -193.90264    37373.809 
   78100    303.74453   -1410.7121    463.77849    423.84918   -272.58259    37373.809 
   78200    299.19947   -1404.6593    488.94465    434.55651    88.467574    37373.809 
   78300    302.20765   -1430.6876    486.48369    419.64297    123.15979    37373.809 
   78400     294.9338   -1388.5736    501.26475    443.71156    598.79295    37373.809 
   78500    308.73041   -1433.6758    483.91559    443.52357    450.89497    37373.809 
   78600    308.95164   -1417.6201    477.39086    454.05296    486.37635    37373.809 
   78700    294.97751   -1422.0845    485.64127    394.77447    525.47692    37373.809 
   78800    298.67502   -1415.9614    491.91778    423.86079     426.1015    37373.809 
   78900    300.08731   -1417.2635    474.45699    411.47143    445.31564    37373.809 
   79000    299.80122   -1421.5443    463.39948    394.84207    177.08988    37373.809 
   79100     305.8278   -1408.7539    485.82944    457.26001    300.33404    37373.809 
   79200      302.549   -1418.8187    434.79601    381.36473    115.90467    37373.809 
   79300      303.328   -1421.5428     453.0793    400.43947   -543.50316    37373.809 
   79400    288.79186   -1427.5438    464.37123    340.12964    42.907969    37373.809 
   79500    299.44789   -1436.9174    484.59876    399.07368   -3.2222614    37373.809 
   79600    301.07636   -1420.6706    465.17306    403.24395    175.79429    37373.809 
   79700    309.15279   -1405.0001    494.67452    484.86436   -325.33776    37373.809 
   79800    313.19239   -1405.5228    465.31713     473.2148    381.09283    37373.809 
   79900    297.31988   -1393.7604    471.12968    419.15799   -25.912228    37373.809 
   80000    288.18011   -1407.2683    479.18008    372.45316   -137.44647    37373.809 
   80100    308.54056   -1414.5258    476.52788    454.42907   -202.95413    37373.809 
   80200    300.74461   -1432.7348    434.28987    358.79934   -162.19878    37373.809 
   80300    305.05788   -1452.7476    476.86726    400.82947    87.876558    37373.809 
   80400    307.96071   -1433.2663     459.7024    416.24631    276.40691    37373.809 
   80500    286.82979   -1432.8814    438.78595    300.35203     328.2042    37373.809 
   80600    313.17018   -1418.5527    496.17882    490.94632   -65.758159    37373.809 
   80700    304.28186   -1455.7064    485.22863    402.72995    125.78438    37373.809 
   80800    296.95817   -1452.0715    489.58383    377.66863    442.08367    37373.809 
   80900    311.16086   -1454.8918    467.86042    417.22093    50.579511    37373.809 
   81000    292.79913   -1494.4893    460.68182    287.57936   -430.47093    37373.809 
   81100    296.01997   -1463.8092    455.61216    327.72527   -407.33318    37373.809 
   81200    302.32448   -1450.0665    475.58681    389.89452   -204.82229    37373.809 
   81300    303.65393   -1470.5106    454.35255    354.21586   -187.39759    37373.809 
   81400    311.27957   -1421.3631    487.73981    471.16468   -407.62341    37373.809 
   81500    310.86711   -1421.8268    459.50261    440.60239   -206.20517    37373.809 
   81600    293.39625   -1414.3414    491.27097    401.01108   -452.16464    37373.809 
   81700    311.00146   -1446.3763    484.79125    441.94787   -601.19411    37373.809 
   81800    294.34193   -1432.1713    469.16137    365.33949   -636.87017    37373.809 
   81900    295.24435   -1459.9553     477.5059    349.97255   -537.79885    37373.809 
   82000     302.8082   -1462.6169    472.22894    376.16927   -745.60062    37373.809 
   82100    306.01955   -1486.7506    475.32178    369.62101   -188.95827    37373.809 
   82200    293.80926   -1548.9584    465.44047    242.42751    286.51789    37373.809 
   82300    298.09983   -1527.2079    477.65743    295.75811     187.9334    37373.809 
   82400    309.88415    -1504.839    469.87064    363.52218     626.0967    37373.809 
   82500    304.50766   -1472.1726    481.52372     383.5779    522.95168    37373.809 
   82600    293.26817   -1458.6475    480.94717     345.8032    572.27472    37373.809 
   82700    301.05473    -1512.956    465.32741    311.01525     194.9661    37373.809 
   82800     309.9672   -1486.7334     492.6846    404.81654    218.47438    37373.809 
   82900    286.95195   -1488.1779    464.92607    271.74697   -55.467454    37373.809 
   83000    299.27925   -1471.9059    475.20306    353.92837    342.53658    37373.809 
   83100    294.22214   -1438.0375    468.79375    358.56496     341.2501    37373.809 
   83200     305.5201   -1467.3031    468.89972    380.39246     300.4045    37373.809 
   83300    308.53931   -1432.5354     509.4796    469.36556      252.262    37373.809 
   83400    292.38362   -1502.4803     482.5275    299.55881    183.48473    37373.809 
   83500    308.70547   -1477.3374    493.47672    409.31059    369.65498    37373.809 
   83600    296.52337   -1481.0907    477.24145    334.34481    451.91055    37373.809 
   83700    295.18786   -1438.0443    499.22567    393.34837    575.33643    37373.809 
   83800    300.13684    -1465.494    467.07948    356.08695    218.91507    37373.809 
   83900    289.08357   -1420.1995     496.1345    380.55368   -10.029439    37373.809 
   84000    290.60484   -1431.9098    503.74069    383.31493   -314.16554    37373.809 
   84100    290.08695   -1427.7368    465.20818    346.61826   -253.19243    37373.809 
   84200     302.3869     -1439.18    486.28451    411.76038   -225.38545    37373.809 
   84300    311.70153    -1472.443    484.16689    418.41616    255.57324    37373.809 
   84400    303.55566   -1523.7504    457.45762    303.63771    166.28352    37373.809 
   84500    291.88363   -1465.0801    486.75658     338.9317   -651.19642    37373.809 
   84600    296.47133   -1456.1573    455.50049     337.3024     15.07954    37373.809 
   84700     297.4075   -1453.6441    481.42629    369.96634    227.11409    37373.809 
   84800    300.35668   -1487.7648    504.82478    372.55355    188.17932    37373.809 
   84900    294.23893   -1459.7972    474.16362    342.25091   -168.52033    37373.809 
   85000    299.75959   -1468.3901    439.06422    323.47307    262.95315    37373.809 
   85100    300.90943   -1473.4798    500.68801    385.19635    644.15118    37373.809 
   85200    306.89545   -1444.5686    471.35147    411.78559    605.94583    37373.809 
   85300    292.34175   -1460.7271    479.53182    338.12736    3.1218604    37373.809 
   85400    296.59579   -1462.5641    493.27152    369.22837   -541.20207    37373.809 
   85500    297.55425   -1500.3823    462.72707    305.19117    -446.5759    37373.809 
   85600    308.02251   -1479.1145    490.06752    401.04205   -224.50133    37373.809 
   85700    304.80936    -1496.509    487.91236     366.9917    216.62689    37373.809 
   85800     302.5675   -1474.1707    479.02192    370.32208    93.877958    37373.809 
   85900    299.88509    -1445.517    470.75742     378.6057    392.28643    37373.809 
   86000    300.41981   -1459.1289    508.66534    405.31501    127.23168    37373.809 
   86100    293.16256   -1447.2497    471.51122    347.28848   -599.10278    37373.809 
   86200    288.80411   -1421.9994    470.29289    351.65093   -356.53332    37373.809 
   86300    305.25107   -1402.9915    497.52594    472.11621    74.958439    37373.809 
   86400    292.18471   -1425.2953    493.13351    386.45217   -162.53718    37373.809 
   86500    299.80359   -1374.7062    488.75509    467.04641   -490.65128    37373.809 
   86600    297.38519   -1406.3018    494.33876    430.12042   -300.87884    37373.809 
   86700    296.26034   -1432.3619    482.16169    386.80688    -253.1062    37373.809 
   86800    304.56733   -1416.2762    480.61429    438.83414   -206.63631    37373.809 
   86900    300.69591   -1389.4623    497.47426     465.0365   -351.27315    37373.809 
   87000    301.94904   -1394.9308    505.44634    473.19538   -203.69672    37373.809 
   87100    296.59913   -1406.5834    496.60742    428.56003   -640.51542    37373.809 
   87200    299.39809   -1396.8313    482.35961    436.69583   -407.86559    37373.809 
   87300    308.30688   -1390.0608    487.46769    488.77929   -1318.4668    37373.809 
   87400    318.39361   -1417.3807    490.05367    509.56634   -871.06378    37373.809 
   87500    305.36295    -1431.399    484.12831     430.8159   -572.82059    37373.809 
   87600    310.88573   -1440.1634    474.11975    436.96698   -451.92234    37373.809 
   87700    302.10711   -1498.6464    482.08772    346.83453   -193.10313    37373.809 
   87800     288.3256   -1498.9923    474.88832    277.09402   -18.669705    37373.809 
   87900    309.42986   -1482.5328    476.14804    390.05567    3.2780427    37373.809 
   88000      302.925   -1476.9301     512.3499    402.50403     553.5297    37373.809 
   88100    304.79652   -1465.7546    511.06033    420.83608    368.08034    37373.809 
   88200    301.44366   -1473.1744    462.94644    350.17112    67.355581    37373.809 
   88300    310.80884   -1479.5749    469.08874    392.17752    423.90187    37373.809 
   88400    289.87821    -1467.107     471.9492    313.04708   -430.19716    37373.809 
   88500     303.0986   -1498.8251    486.17573    355.21841   -11.480928    37373.809 
   88600    306.64624   -1492.2144    445.37042    337.03409    767.68079    37373.809 
   88700    298.48217   -1494.1547    481.02906    333.90844    119.07715    37373.809 
   88800    303.77384   -1506.3635     496.7764    361.32793    254.95559    37373.809 
   88900    301.31523   -1515.9008    503.99955    347.91827    564.06659    37373.809 
   89000    305.28775   -1477.4135    503.20976    403.54355    488.95066    37373.809 
   89100    288.70058   -1498.8067    493.70769    297.79122    472.37731    37373.809 
   89200    297.33237   -1491.3515    459.14156    309.63513    743.39151    37373.809 
   89300    304.74333   -1491.4819    460.23996    344.04839    510.01099    37373.809 
   89400    292.75637   -1513.4544    505.26012    312.99956    494.84141    37373.809 
   89500     296.6864   -1468.3149    469.18185    339.79673    156.32274    37373.809 
   89600    293.84539   -1502.4417    481.92863    305.59544    409.41679    37373.809 
   89700    307.06082   -1480.5321    496.87456    402.09144     179.9383    37373.809 
   89800    289.62363   -1461.2449    496.51957    342.33056    22.096329    37373.809 
   89900    307.03609   -1435.9055     478.5828    428.31479   -32.952858    37373.809 
   90000    295.30931   -1442.4227    493.81511     384.1075   -487.29264    37373.809 
   90100    302.28683   -1456.8855    458.11557    365.43431   -169.64511    37373.809 
   90200    306.48609   -1509.0643    475.39569    349.48671    -328.6402    37373.809 
   90300    307.76837   -1499.7065    488.89824    378.13392    255.10878    37373.809 
   90400    291.63639   -1509.4158    485.91926    292.64285    4.9043109    37373.809 
   90500    296.10454    -1452.392    504.52043    388.43233   -295.20465    37373.809 
   90600    308.11867    -1509.123    487.41169    368.81168    379.24458    37373.809 
   90700     294.7587   -1471.0473     474.2705    333.45347   -4.6770797    37373.809 
   90800     300.4141   -1473.7086    482.80288    364.84699    667.49219    37373.809 
   90900    300.35158   -1469.1621    485.50958    371.81806    282.00609    37373.809 
   91000    298.38227   -1479.1804    487.40676    354.80952    246.34698    37373.809 
   91100    297.85543   -1415.5448    484.03519    412.69594   -19.296621    37373.809 
   91200    305.93223   -1475.8063    496.26073    401.11022    110.63314    37373.809 
   91300    302.59621    -1463.344    461.86539    364.12192    148.36242    37373.809 
   91400    292.68063   -1421.5962    503.96628     403.2221    185.64952    37373.809 
   91500    302.38161   -1420.1863    493.13217    437.57787    474.52588    37373.809 
   91600    289.09698   -1442.0296    485.89623    348.54583    246.48618    37373.809 
   91700    294.94513   -1486.5804    476.32619    320.81739    453.06455    37373.809 
   91800    301.23683   -1428.6844    490.60156     421.3828   -20.882708    37373.809 
   91900     290.1724   -1417.2075    487.54602    379.87103   -237.12004    37373.809 
   92000    293.04426    -1451.577    479.79624    350.71235    -121.7014    37373.809 
   92100    299.84506   -1449.6107    471.43987    375.01387    369.23246    37373.809 
   92200    312.61778   -1477.0429    497.30614    431.09052     719.6853    37373.809 
   92300    295.39243   -1474.9404    481.76311     339.9129    394.84072    37373.809 
   92400    290.60651   -1418.5056    478.03225    371.01827   -205.62135    37373.809 
   92500    300.88821   -1405.3812    488.60994    441.12112   -35.598301    37373.809 
   92600    305.63264   -1408.4631    481.66454    452.50517   -174.30947    37373.809 
   92700    301.56457   -1423.3896    497.52851    435.08369   -462.90325    37373.809 
   92800    301.14852   -1404.4929    461.24523    415.81948   -75.941383    37373.809 
   92900    308.88344   -1408.8946    498.53595    483.61576   -524.55614    37373.809 
   93000    293.26805   -1433.8021    486.51241     376.2133   -686.62465    37373.809 
   93100    298.63868   -1415.8701    488.17457    420.04484    114.30072    37373.809 
   93200    296.41418   -1419.4568    497.99011    416.23461   -339.01503    37373.809 
   93300    310.92632    -1410.161     488.2586    481.29138   -918.35125    37373.809 
   93400    294.59149   -1420.3081    530.04931     439.2168   -275.57618    37373.809 
   93500    289.53121   -1385.6661    495.00032    415.97309   -329.33688    37373.809 
   93600     301.6666   -1418.8176    512.22672    454.81435   -103.96278    37373.809 
   93700    307.01697   -1429.5602    489.63507    445.62606   -187.79073    37373.809 
   93800    290.06497   -1440.9095    482.34815    350.48632   -154.05921    37373.809 
   93900    299.54767   -1467.0301    506.06217    390.87462   -179.54628    37373.809 
   94000    290.65801   -1438.0564    457.48767    331.15526   -133.31931    37373.809 
   94100     298.4999   -1417.7006    506.35394    435.76738   -35.334867    37373.809 
   94200    300.30198   -1461.5435    488.99536     382.6986   -329.64793    37373.809 
   94300    298.67065   -1472.8164    465.54028    340.60851   -293.20136    37373.809 
   94400    301.55659   -1480.1192    462.56711    343.35659   -436.10173    37373.809 
   94500    306.76132    -1451.864    469.48493    402.01831    82.552082    37373.809 
   94600    301.57591   -1426.2626    495.26871    430.00205   -264.53056    37373.809 
   94700    297.34828   -1464.9255    480.53946    357.53085   -815.83178    37373.809 
   94800    304.82359    -1465.854    503.59811    413.39664   -864.41703    37373.809 
   94900     305.0462   -1455.7185     481.3238    402.26239   -25.380504    37373.809 
   95000    299.78128   -1426.6142    497.28861    423.57127    30.377948    37373.809 
   95100    309.31716   -1439.7069    499.87901    456.10389    83.939069    37373.809 
   95200    293.20516   -1493.8985    484.63318    313.95383    440.15577    37373.809 
   95300    305.03516    -1414.782    497.38461    459.20999    633.07127    37373.809 
   95400    295.38559   -1420.6453    478.98918    391.40319    464.33043    37373.809 
   95500    303.54946     -1439.01    520.58758    451.48001    348.76826    37373.809 
   95600    311.58418   -1425.5713    515.58342    496.17484    514.49049    37373.809 
   95700    296.25611   -1430.2477    489.49897     396.2392   -54.449857    37373.809 
   95800    303.85359   -1418.9655    504.05042    456.35991    627.32786    37373.809 
   95900    307.92147   -1440.2819    483.49898    432.85016    763.26498    37373.809 
   96000     305.9486   -1447.8089    486.77535    419.69606    354.84982    37373.809 
   96100    316.05688   -1447.0703     487.1761    466.45355    216.36896    37373.809 
   96200    305.90583   -1428.9176    484.66994    436.28901   -265.61891    37373.809 
   96300     300.8884   -1452.0396    488.51465    394.36824   -216.53465    37373.809 
   96400    299.66851   -1424.7133    506.60168     434.2763    265.12437    37373.809 
   96500    298.38406   -1438.6572    499.88063    407.81471   -121.41531    37373.809 
   96600    292.09096   -1421.9668    530.52852    426.75263   -147.55693    37373.809 
   96700    299.00116     -1417.91    488.58736    420.05354      527.806    37373.809 
   96800    292.10159   -1439.0151    475.27832    354.50203   -118.99964    37373.809 
   96900    311.75671     -1469.73    479.34794    416.55929   -404.34687    37373.809 
   97000    290.99369   -1471.0649    464.42089    306.59489   -858.29441    37373.809 
   97100    296.57333   -1428.0912    479.67532     390.0037   -635.74262    37373.809 
   97200     289.0155   -1407.6179    472.95725    369.65083   -229.11717    37373.809 
   97300    292.23336   -1446.1533    488.42164    361.10182   -435.94524    37373.809 
   97400    304.83907     -1434.42    466.65403    407.95639     211.1456    37373.809 
   97500    300.22402   -1433.9904    476.89872    397.80327    -28.21272    37373.809 
   97600    301.25625   -1407.9186    499.43513    451.06981   -395.26332    37373.809 
   97700    303.09098   -1391.7643    494.86254    470.93162   -893.69753    37373.809 
   97800    300.50408    -1405.127     456.0206    407.05245    -360.4542    37373.809 
   97900    298.65549   -1389.9481    487.15644    445.02456   -523.93559    37373.809 
   98000    298.79521    -1389.667    478.88246    437.66219   -98.579007    37373.809 
   98100     288.4465   -1443.6425    500.40564    358.50678   -49.923305    37373.809 
   98200    311.78148    -1428.164    467.05202    445.94106    147.53409    37373.809 
   98300    290.03942   -1425.8051    492.98521    376.11246   -297.41285    37373.809 
   98400    305.47635   -1439.5255    482.38251    421.45541    117.92972    37373.809 
   98500    301.76832   -1453.0842    491.31443    400.09448   -102.07254    37373.809 
   98600    305.81225   -1422.8417    481.23273     438.5053     17.99813    37373.809 
   98700    298.04679   -1426.2715    462.19268    380.99036   -408.33307    37373.809 
   98800    291.60524   -1454.2682     490.5655    352.29617   -541.71153    37373.809 
   98900    301.50989   -1432.5629    488.80237    416.93744   -303.40838    37373.809 
   99000     301.0827   -1435.9918    475.75118    398.52944   -147.32556    37373.809 
   99100    298.80074   -1434.4647    489.54572    403.55275   -69.153136    37373.809 
   99200    292.22298    -1433.548    489.14558    374.38427   -71.818359    37373.809 
   99300    308.55112   -1423.4955    481.95982    450.93899   -114.50313    37373.809 
   99400     311.7028   -1412.5599    481.58475    475.72284    150.83569    37373.809 
   99500    306.24034   -1398.3517    478.02875    461.72329    256.79098    37373.809 
   99600    306.96536   -1420.0772    470.82581    436.06681   -181.18544    37373.809 
   99700     294.3932   -1435.5021    488.88421    381.96284    30.440003    37373.809 
   99800    302.93223   -1439.4623    497.50224    425.15691    19.797725    37373.809 
   99900    306.43485   -1409.9987    466.97962    439.90495    98.445298    37373.809 
  100000    300.97583   -1439.4366    499.22266    418.07382    498.73279    37373.809 
  100100     298.6926   -1494.4467    467.47055     321.0075    285.03573    37373.809 
  100200    301.49965    -1433.125    478.27576    405.80257    355.67495    37373.809 
  100300    299.31643   -1438.0914    485.78116    398.48881    464.50467    37373.809 
  100400    300.38403   -1449.3197    496.79279    403.09008    53.465647    37373.809 
  100500    306.01629   -1506.5573    475.89573    350.37352    463.99752    37373.809 
  100600    290.07471   -1427.1616    500.80748    382.73747    278.91126    37373.809 
  100700    303.98712   -1442.4124      491.337    420.80216    356.99384    37373.809 
  100800    295.76337    -1432.881    494.25107    396.13432    634.39916    37373.809 
  100900    303.63322   -1471.2937    500.15171    399.13849    227.00008    37373.809 
  101000    300.11416   -1464.9534    502.03278    391.47856   -325.73517    37373.809 
  101100    299.61876   -1447.6619    461.03438    365.53586   -353.44502    37373.809 
  101200    304.46105   -1456.6392    490.54027     407.9175   -156.40361    37373.809 
  101300     304.3657   -1436.9629    511.80617     448.4294    228.32068    37373.809 
  101400    317.50444   -1466.3797    516.96066     483.4615    457.81665    37373.809 
  101500    292.95924   -1457.7036    496.76222    361.16794    118.28643    37373.809 
  101600    303.33661    -1431.806    495.38786    432.52372   -54.992385    37373.809 
  101700    292.57078   -1501.5652    490.19992    308.99098    342.36593    37373.809 
  101800    308.90928   -1531.3692    459.70603    322.42783    966.96867    37373.809 
  101900    310.81795   -1518.1115    480.44266    365.03591    1520.8003    37373.809 
  102000    295.11735    -1480.924    505.03747    355.96224    1259.9229    37373.809 
  102100    289.18409   -1418.0202    504.12051    391.17254    787.32437    37373.809 
  102200    302.43722    -1458.425     487.5419    393.99987   -90.526145    37373.809 
  102300    290.01957   -1458.2274    531.82998     382.4454    453.83566    37373.809 
  102400    305.59865   -1473.6263    500.40217    405.92621    349.27797    37373.809 
  102500     303.6705    -1464.943    495.01261    400.51832    290.39683    37373.809 
  102600    303.88095   -1426.4021    483.06998    428.06628    575.06185    37373.809 
  102700    308.91382   -1503.8443    496.78786    387.05509    445.31123    37373.809 
  102800    297.50222   -1459.6852    501.47558    384.40198    401.34208    37373.809 
  102900    297.72682   -1428.8069    501.15934    415.97765   -106.81208    37373.809 
  103000    306.64845   -1478.0527     491.0068    396.84215   -126.31493    37373.809 
  103100    301.66435    -1453.671     495.4353    403.15936    312.47385    37373.809 
  103200    303.19822   -1440.8467    492.97056     420.4412    588.57296    37373.809 
  103300    312.69729   -1465.0655    480.94223    427.06288    1283.9706    37373.809 
  103400    310.13597   -1452.8486    498.57952    445.35797    813.62783    37373.809 
  103500    307.25323   -1413.2867    496.70953    470.04021    404.94456    37373.809 
  103600    299.13126   -1459.9714    479.40143    369.39341    338.87155    37373.809 
  103700     305.2397   -1501.9958    483.71342    359.24803    446.95986    37373.809 
  103800     286.1269   -1505.4388    488.19715    274.03377    227.73705    37373.809 
  103900    292.45554   -1497.5584    465.85122    288.12903   -144.52089    37373.809 
  104000    305.87491    -1503.737    483.46022    360.12027    333.31807    37373.809 
  104100    307.70694   -1504.7267    477.39672    361.33497    458.01868    37373.809 
  104200    305.29721   -1464.1701    474.84935     388.4692   -126.87859    37373.809 
  104300    292.44766   -1466.1093    474.85377    328.54506     236.7302    37373.809 
  104400    307.03606    -1469.904    470.37531     386.1086    149.39873    37373.809 
  104500    302.38887   -1496.1125    467.87894    336.43123   -60.755723    37373.809 
  104600    301.67515   -1444.7086    504.74043    421.47565    171.44455    37373.809 
  104700      294.018   -1484.2021    476.11723    318.80266    205.07832    37373.809 
  104800    316.20792   -1464.4099    485.98846    448.60797   -75.432025    37373.809 
  104900    302.39532    -1426.565    496.39679    434.52572    67.893805    37373.809 
  105000    301.23314   -1450.0173    491.44098    400.87273    155.32784    37373.809 
  105100    300.18612   -1472.7615    487.81902    369.78138    40.035989    37373.809 
  105200    307.76408   -1481.6473    488.29535    395.57082   -69.057273    37373.809 
  105300    294.21429   -1465.9934    482.94808    344.72796    284.82825    37373.809 
  105400    291.34987   -1452.3554    491.87081    354.36172    365.13378    37373.809 
  105500    302.34254   -1480.8578    457.98483    341.58275    730.53762    37373.809 
  105600    297.72458   -1456.7984    475.79722    362.61393   -34.078679    37373.809 
  105700     295.9632    -1464.339    484.19894    355.52599   -369.59208    37373.809 
  105800    298.01265   -1463.6637    479.34054    360.59193   -188.64817    37373.809 
  105900    301.92893    -1469.657    476.88619    369.81824    678.18678    37373.809 
  106000    293.80817   -1445.8059    484.46829    364.60293    389.38217    37373.809 
  106100    293.43879   -1453.7083    475.30014    345.86543    54.643586    37373.809 
  106200    303.61249   -1447.6995    479.24577    401.73314    307.55689    37373.809 
  106300    295.79632   -1453.6283    477.50129    358.78595     97.35168    37373.809 
  106400    304.71671   -1507.0274    477.20758    345.35035   -183.79709    37373.809 
  106500    294.05017    -1483.215    464.83934    308.65702     -565.552    37373.809 
  106600    307.57885   -1481.5788    481.02234    387.53041    249.03219    37373.809 
  106700    302.55636   -1504.6833    474.58139    335.31876   -52.891479    37373.809 
  106800     290.2377   -1492.9447    462.41964    279.30218    147.42054    37373.809 
  106900    305.01345   -1451.2999    482.54236    407.75181   -82.175325    37373.809 
  107000    300.15675   -1465.6882    484.90768    373.81076    298.17215    37373.809 
  107100     295.3068   -1481.7926    483.49581    334.40698    716.81102    37373.809 
  107200    306.00539   -1461.9139    499.03798    418.11005     259.7557    37373.809 
  107300    304.81879   -1467.3193     508.2152    416.52678    171.60137    37373.809 
  107400    295.35485   -1503.8644    459.83617    288.89237    341.46574    37373.809 
  107500    304.16527   -1458.3964    488.72651    403.01169      -419.71    37373.809 
  107600    307.67043   -1488.4054    507.94629    408.04106    193.44193    37373.809 
  107700    299.51848    -1522.473    460.37992    289.61773   -318.91867    37373.809 
  107800    307.56053   -1494.4645    474.24829      367.788    18.377073    37373.809 
  107900    288.44578   -1458.4662    507.87401    351.14818   -373.30089    37373.809 
  108000    304.24008   -1466.1472    499.42595    406.29796    37.692118    37373.809 
  108100    297.63261   -1429.6191    469.01187    382.59283    45.840153    37373.809 
  108200    302.44678   -1431.5557    494.36863    427.73907    427.17065    37373.809 
  108300    300.86591    -1452.919    475.42742    380.30018    278.21366    37373.809 
  108400    311.17769   -1461.4109     476.3912    419.30852    120.37048    37373.809 
  108500    303.00458   -1454.5148    482.36418    395.29282    335.09731    37373.809 
  108600      308.608   -1483.9489    489.14466    397.92711    362.28653    37373.809 
  108700    300.35736   -1442.9196    470.79481    383.37185    557.56891    37373.809 
  108800    298.39674   -1447.4011    484.63568    383.88306   -492.96993    37373.809 
  108900    299.67415   -1483.3735    437.39058    306.43048   -710.01703    37373.809 
  109000    295.80317   -1440.2477    482.12063    376.81674   -474.93789    37373.809 
  109100    307.34975   -1458.2105    474.46671    403.30913   -355.63356    37373.809 
  109200    308.87959   -1472.4104    479.46824    401.01489    637.05011    37373.809 
  109300    297.89105   -1456.3685    503.13963    391.13749    488.09927    37373.809 
  109400    303.15378   -1447.4242    473.82022    394.51281    205.26022    37373.809 
  109500    298.20162   -1457.0405    481.92651    370.65393     509.2917    37373.809 
  109600    289.57772    -1452.165    479.62325    334.30694    442.62211    37373.809 
  109700    302.84079    -1408.152    486.65096    445.20321   -128.17245    37373.809 
  109800    295.46801   -1427.8732    493.39437    398.95246   -493.38753    37373.809 
  109900    298.96537   -1489.4935    465.95779    325.67894   -391.44811    37373.809 
  110000    293.17051   -1480.0892     463.1038    306.07736    -80.99284    37373.809 
  110100    307.48817   -1443.5616    481.96387    426.07984   -580.82049    37373.809 
  110200    292.05062    -1454.609    481.99836    345.39816   -1292.4887    37373.809 
  110300    304.66203   -1464.1164    480.77196    391.57897   -692.26224    37373.809 
  110400    302.32654    -1505.664    455.63287    314.35239   -158.66767    37373.809 
  110500    295.02852   -1497.3809    467.83834    301.90537   -654.80189    37373.809 
  110600    290.89826   -1503.1907    476.44879    286.06632   -219.61239    37373.809 
  110700    294.38726   -1485.4119    476.79945    319.94152   -205.37079    37373.809 
  110800    310.43031   -1500.5149    477.20598    377.64645    531.20269    37373.809 
  110900    290.15661   -1449.9832     483.5675    343.04549    36.361192    37373.809 
  111000    297.71482   -1473.8728    514.08081    383.77903   -90.143216    37373.809 
  111100    301.27024   -1479.9625    453.64311    333.29703    55.562427    37373.809 
  111200    311.93004    -1476.156    469.49758    401.06517    -620.6365    37373.809 
  111300    301.02633   -1474.3141    503.34047    387.54202    251.43624    37373.809 
  111400    293.49637    -1484.166    490.68815    331.05555    59.773156    37373.809 
  111500    308.83365   -1437.4855    508.87489    465.13906    50.531847    37373.809 
  111600    289.47074   -1403.8796     489.5223    392.00869    117.87691    37373.809 
  111700    298.66812   -1451.2852    478.56939    375.15748   -525.56257    37373.809 
  111800    295.62718   -1434.4898    491.56508    391.22486   -240.84476    37373.809 
  111900    306.07341   -1444.2878    482.72949     419.7346   -326.32379    37373.809 
  112000    294.41166   -1438.0948    486.92411    377.49335     31.07327    37373.809 
  112100    308.68481   -1418.0974    497.47023    472.45087   -101.38642    37373.809 
  112200    307.89079   -1407.0901    493.52112    475.92561   -563.05423    37373.809 
  112300    304.60411   -1410.1145    493.54954    458.09709   -358.08496    37373.809 
  112400    287.06125   -1440.6456    486.87175    341.71814   -287.38316    37373.809 
  112500    305.83211   -1455.6546    505.03486    429.58419   -612.17569    37373.809 
  112600     295.4808    -1432.696    471.71561    372.50864   -419.78645    37373.809 
  112700    306.79516    -1487.114     478.4265    375.86264    165.12289    37373.809 
  112800    295.31561   -1488.9954    464.25011    307.99823    -245.8872    37373.809 
  112900    293.09494   -1515.9826    480.82602    287.56518    274.83211    37373.809 
  113000     292.7356   -1529.9694    487.99669    279.12734    945.64287    37373.809 
  113100    296.22593   -1553.0039    460.13637    243.98419    127.52687    37373.809 
  113200    303.11866   -1566.8455    482.40419    283.51695    660.65523    37373.809 
  113300    305.77725   -1513.2664    499.04336    365.73329    339.65467    37373.809 
  113400    306.78866   -1474.6608    486.46891    396.32886    511.79652    37373.809 
  113500    307.98253   -1495.3628    476.91913    371.46501    641.15496    37373.809 
  113600    310.89545   -1485.6812    485.16977     402.5431    886.85083    37373.809 
  113700    294.10096   -1460.0101    496.74927    364.00107     728.5861    37373.809 
  113800    299.94555   -1511.6929    459.45352    301.39881    771.94956    37373.809 
  113900     297.1234   -1501.3213    519.05909    358.63983     202.1224    37373.809 
  114000    288.95269   -1505.2362    483.50747    282.29929   -123.60446    37373.809 
  114100    297.69295   -1508.1155    498.37379    333.73063   -167.69522    37373.809 
  114200    296.04229   -1524.5759    500.82789    312.27492    11.932204    37373.809 
  114300    299.72264   -1508.3191    484.19575    328.50889     326.7841    37373.809 
  114400    295.34165   -1520.4895     484.1653    296.53679     85.34997    37373.809 
  114500    295.28494   -1528.4415    479.04791    283.21159   -235.39452    37373.809 
  114600     303.2785   -1495.2584    475.19944    348.62061   -211.47839    37373.809 
  114700    307.59674   -1566.1973    461.18965    283.15991   -501.75566    37373.809 
  114800     304.9614   -1497.5448    501.30054    380.03022   -199.33954    37373.809 
  114900    304.15792   -1508.8655    487.10848    350.89141   -366.88568    37373.809 
  115000     301.4953    -1521.552    485.00747    324.08756   -455.92233    37373.809 
  115100    308.79791   -1519.1629    505.31798    379.74354   -287.12349    37373.809 
  115200     298.6146    -1499.037    490.21963    338.81435   -682.53065    37373.809 
  115300     301.4606   -1498.5973    503.86647    365.74467   -626.15986    37373.809 
  115400      293.353   -1463.0664    477.28915    338.10916   -1245.8449    37373.809 
  115500    284.66635   -1491.9932    509.75178    302.44255   -956.31047    37373.809 
  115600     291.1298   -1465.0483    492.00537    340.81027   -480.81036    37373.809 
  115700    298.31475   -1499.1115    477.02473    324.19176    -332.3883    37373.809 
  115800    303.01237   -1527.0855    509.64987    350.04299   -138.98822    37373.809 
  115900    314.02733   -1483.2896    470.10403     404.0029    239.05256    37373.809 
  116000    302.14045   -1494.9547    503.31577    371.90473    410.67122    37373.809 
  116100    284.30608   -1487.3362    515.21797    310.93992    72.612301    37373.809 
  116200    298.61889   -1468.7988     464.6404    343.49269   -57.369215    37373.809 
  116300    308.77372   -1501.6171    510.18829    402.05042     662.1224    37373.809 
  116400     295.6199   -1503.4901    493.60232    324.22901    127.49993    37373.809 
  116500    303.05608   -1481.6232    512.62941    398.68207    1087.5698    37373.809 
  116600    298.82506   -1466.6701    469.90494    351.81633    739.74703    37373.809 
  116700    304.19055   -1487.1814    511.06562    396.67985    173.93885    37373.809 
  116800    300.86328   -1497.4224     456.7498    317.10728   -123.29472    37373.809 
  116900    295.02349   -1482.7205    488.61944    337.32419   -73.337553    37373.809 
  117000     300.7939   -1451.6434    475.67454    381.49793    105.88979    37373.809 
  117100    296.15605   -1473.0589    498.92702    362.40446    98.717869    37373.809 
  117200    303.23148   -1515.4089    472.12052    325.17904   -150.22412    37373.809 
  117300    304.53442    -1494.539    486.93042    366.73898    245.65012    37373.809 
  117400    301.40443   -1500.6653    535.88499    395.44174    411.96928    37373.809 
  117500    297.17919   -1508.5629    472.74599    305.33688    2.4618634    37373.809 
  117600     286.5627   -1489.6059    506.51937    310.15562    460.03812    37373.809 
  117700    291.55089   -1552.4354    498.70091    262.01906    991.45174    37373.809 
  117800    295.64695   -1498.8949    509.89951    345.24348    135.81004    37373.809 
  117900    308.76435   -1456.0175    481.75612    419.17553    245.71062    37373.809 
  118000    309.20433   -1484.5291    464.29861    375.19205    470.93925    37373.809 
  118100    303.40892   -1498.9739    493.69894     363.9932    291.28438    37373.809 
  118200    300.01273   -1420.9877    501.56231    434.51597    70.482191    37373.809 
  118300    295.07888   -1409.0372    493.26398    415.90195     259.9627    37373.809 
  118400    296.34254   -1472.0618    504.98637    370.30257   -298.64562    37373.809 
  118500    302.48078   -1461.0948    493.92227    397.90701   -71.919659    37373.809 
  118600    295.88865   -1454.7735    473.57836    354.13453   -221.38956    37373.809 
  118700    307.43606   -1428.7154    519.27304    478.00009   -152.02809    37373.809 
  118800    306.01958   -1445.9264     498.6804    433.80394   -611.51701    37373.809 
  118900    311.37898   -1456.1225    467.28417    416.39832   -318.45114    37373.809 
  119000    308.85625   -1477.2888    482.72086    399.28378   -255.01606    37373.809 
  119100    294.36132   -1441.7345    457.62004    344.32243   -706.97507    37373.809 
  119200    310.57752   -1442.8741    494.96575    453.71133   -762.57383    37373.809 
  119300    310.17807   -1431.9787     482.9649    450.80323   -1014.9568    37373.809 
  119400    300.85067   -1452.9027    504.37497    409.19525   -902.16224    37373.809 
  119500    296.12651   -1476.8862    482.14455    341.66146   -514.20846    37373.809 
  119600    299.70553     -1496.13    500.36626    356.79122   -126.20769    37373.809 
  119700    296.52045     -1488.92    485.20972    334.47065    317.40253    37373.809 
  119800    300.26921   -1514.5397    482.61092    323.17004   -34.963045    37373.809 
  119900    306.57014   -1493.4295    514.69215    404.79732    951.54648    37373.809 
  120000    301.03526    -1476.466    493.96435    376.05441     706.9563    37373.809 
  120100    302.34269   -1493.5157    495.77424    366.71483    431.85318    37373.809 
  120200    298.11926   -1498.2878    472.87563    319.98405     513.8133    37373.809 
  120300    305.76812   -1495.3634    519.58042    404.13213    203.43038    37373.809 
  120400    289.13506   -1520.1612    499.06643    283.75629   -257.74987    37373.809 
  120500    303.32382    -1464.339    477.85244    382.39761   -325.64993    37373.809 
  120600    292.05836   -1485.0718    478.45285    311.42482   -27.955724    37373.809 
  120700    300.54811   -1495.4744      484.007    344.89013    12.024787    37373.809 
  120800    295.32006   -1508.7715    492.92266    316.91472    47.051785    37373.809 
  120900    296.11398   -1528.6985    502.26869    309.91673     92.11775    37373.809 
  121000    313.29004   -1506.1434     495.4501    403.16789    120.63611    37373.809 
  121100    297.23177   -1508.5162    504.65453    337.52939   -329.26081    37373.809 
  121200    308.56149   -1523.4961    472.83148    341.85689   -224.03401    37373.809 
  121300    294.93636   -1528.2892    485.64607     288.3888   -106.62362    37373.809 
  121400    304.09746   -1486.6325    490.25394    375.99697    318.31884    37373.809 
  121500     308.9923   -1472.1813    517.85151    440.13587   -420.66493    37373.809 
  121600    290.95483   -1464.6637    475.50781    323.90767    137.61429    37373.809 
  121700    297.87836   -1459.7868    483.81563    368.33792    118.47985    37373.809 
  121800    296.15307   -1519.5158    483.27738    300.28451    150.95898    37373.809 
  121900    302.37365   -1503.4039    505.41708    366.60925    436.56676    37373.809 
  122000    347.54362    -1529.873    439.93654    478.50933    894.93673    37373.809 
  122100    298.36245   -1508.5892    495.86859    333.77309    304.66823    37373.809 
  122200    299.25146   -1494.1979     500.1343    356.44223    55.512331    37373.809 
  122300    298.94879   -1478.7742    459.87053    330.23621    471.68851    37373.809 
  122400    296.68495    -1551.415    459.14159    246.64991   -188.72957    37373.809 
  122500    304.74313   -1511.0746     471.9241     336.1389     188.9469    37373.809 
  122600    303.68917    -1478.025     466.0526    358.56059     301.5973    37373.809 
  122700     304.1622   -1517.6022    464.99077    320.05625     509.5222    37373.809 
  122800    306.14499   -1529.3987    487.56674    339.78402    574.77694    37373.809 
  122900     307.6879   -1542.7881    464.94524    310.73615    614.90008    37373.809 
  123000     293.6765   -1509.8966    501.39214     316.8419   -388.17851    37373.809 
  123100    294.88219   -1513.4831    476.22499     293.5294    179.37182    37373.809 
  123200    307.55649   -1466.0384    500.20541    422.15295    500.49635    37373.809 
  123300    309.12787   -1484.9612    501.97198    412.08835    523.42715    37373.809 
  123400    305.58555   -1472.5757    493.03278    399.54836    7.9779891    37373.809 
  123500    301.64371   -1474.1309    477.82655    364.99762    127.42022    37373.809 
  123600    308.89899   -1484.5633    475.64376    385.12499    140.47795    37373.809 
  123700     296.7523   -1454.9593    500.31359    384.58151    203.22888    37373.809 
  123800    299.62523   -1482.4742    486.42465    356.14302     94.13513    37373.809 
  123900    293.82305   -1435.0544    507.56634    398.51966    239.23364    37373.809 
  124000    308.85681   -1460.7102    492.82729    425.97133    55.137187    37373.809 
  124100    300.16034   -1493.9333    474.14833    334.82253   -366.06476    37373.809 
  124200     304.6019   -1477.6883    500.11325    397.07705    524.48418    37373.809 
  124300    305.28524   -1490.2785    472.54066    359.99805   -407.16024    37373.809 
  124400    306.95167   -1501.0402    488.19842    372.41459   -386.75147    37373.809 
  124500    299.38791   -1480.6301    480.92811    351.41959    181.17452    37373.809 
  124600    299.19827   -1485.9107    491.14957    355.50466   -245.40811    37373.809 
  124700    307.87343   -1494.4639    496.44336    391.39573   -256.79173    37373.809 
  124800    295.26186   -1507.2338    497.55867    322.82582   -211.47195    37373.809 
  124900    304.84162   -1508.0404    487.26709     354.9606    -15.20403    37373.809 
  125000    292.70611   -1474.0877     487.9455    334.82476   -29.240935    37373.809 
  125100    298.64421   -1538.6855    471.39276    280.47258   -310.46013    37373.809 
  125200    308.02188   -1495.8236    501.35245    395.61505    -52.47616    37373.809 
  125300    301.05661   -1520.0443    480.37656    318.98461   -314.46314    37373.809 
  125400    291.02654   -1533.0056    485.27018    265.65176    61.947791    37373.809 
  125500    303.80995   -1505.8966    476.49888    341.68031   -19.946614    37373.809 
  125600    286.99156   -1490.9557    498.89735    303.11913    487.85679    37373.809 
  125700    309.85629   -1520.3489    494.76567     372.7816    77.285979    37373.809 
  125800    303.05749   -1524.2217    472.26258    315.72312   -161.37426    37373.809 
  125900    295.41117   -1501.9908    491.36826    322.55222   -431.55467    37373.809 
  126000    312.34846   -1528.2285    455.63426    337.01762   -945.90208    37373.809 
  126100    298.04707   -1496.0697    490.28149     339.2823   -780.19059    37373.809 
  126200    306.63735   -1510.5696     495.4598    368.72815    -176.4245    37373.809 
  126300    305.30077   -1524.1577    499.78779    353.43615   -539.02213    37373.809 
  126400    304.46414   -1477.4349    481.27618    377.87167   -152.78728    37373.809 
  126500    295.60116   -1492.2786    458.29896    300.05254   -410.52842    37373.809 
  126600    313.32885   -1491.3487    485.43927    408.12691    58.020877    37373.809 
  126700    299.45407   -1467.9571    522.54527    406.00838    288.50552    37373.809 
  126800    297.32377   -1507.1544    494.75908    329.41089   -70.710657    37373.809 
  126900    305.40559   -1464.8567    483.38257    396.80494   -18.366796    37373.809 
  127000    310.36456   -1541.7905    486.70593     345.5741   -410.78931    37373.809 
  127100    312.80957   -1529.9165    504.76443    386.54074   -116.08374    37373.809 
  127200    299.52954   -1564.4459    470.56782     257.8827   -506.81587    37373.809 
  127300    306.70895    -1572.347    474.24433    286.05832   -227.06986    37373.809 
  127400    305.58124   -1574.1836    494.20771    299.09586    398.87519    37373.809 
  127500    303.86413   -1548.3976    493.77461    316.69957    402.76475    37373.809 
  127600    299.54027   -1493.4708    490.27611    348.61445   -303.05987    37373.809 
  127700     298.4382    -1474.966       486.14    358.00962   -515.18363    37373.809 
  127800    304.30133   -1506.9888    494.16238    360.46914   -87.550449    37373.809 
  127900    299.20748   -1499.0308    468.62185    319.89839   -200.16961    37373.809 
  128000    298.59454   -1504.1339    514.28188    357.68919   -470.37521    37373.809 
  128100    291.08665   -1504.2453    485.36721    294.78036   -310.04729    37373.809 
  128200    311.26411   -1525.3321    494.54586    373.93201   -373.74992    37373.809 
  128300    309.16521   -1513.6205    507.43432    389.05987   -400.62449    37373.809 
  128400    297.38928   -1517.9732    514.95834      339.087   -112.61583    37373.809 
  128500    292.13491    -1523.063    517.29868    312.62491    778.47939    37373.809 
  128600    292.86548      -1476.9    482.47792    327.26417    283.82179    37373.809 
  128700    304.52536   -1488.2008     538.2793    424.38513    113.53458    37373.809 
  128800    289.39843   -1484.3088    491.68273     313.4135      706.714    37373.809 
  128900    282.91388    -1470.311    523.14096     329.6051    284.20085    37373.809 
  129000    311.44004    -1486.013    503.67499     423.1742    409.44535    37373.809 
  129100    301.33343   -1482.5728    502.33334    379.66222    557.72989    37373.809 
  129200    290.06933   -1513.8946    498.19339    293.36607   -278.25861    37373.809 
  129300    296.26329   -1492.6405    497.91287    342.29271   -107.42519    37373.809 
  129400     295.5916   -1493.4854    493.17826     333.6819   -145.31384    37373.809 
  129500    301.29528   -1491.8014    481.34117    349.26924    220.89099    37373.809 
  129600    306.62779   -1529.1471    489.15397    343.80167    706.89902    37373.809 
  129700    304.42425   -1500.4434     494.5553    367.96225    506.66502    37373.809 
  129800    300.50378   -1500.4068    493.72677    349.47746    378.54694    37373.809 
  129900    294.53419   -1453.6677    494.65402    370.20331    498.48188    37373.809 
  130000    306.89811   -1510.9343    494.01933    368.09979    17.318694    37373.809 
  130100     303.6129   -1516.3834    471.88857    325.69387   -486.72524    37373.809 
  130200     289.8133   -1506.8553    473.79047    274.84703    -305.0066    37373.809 
  130300    305.57278   -1507.3061    509.03833    380.76578   -28.726609    37373.809 
  130400    308.64625   -1495.1025    457.26997    355.07142    294.71208    37373.809 
  130500    301.22582   -1507.6802    480.38873    332.12453   -38.952872    37373.809 
  130600    297.89914   -1524.4117     506.5907    326.58187    115.45616    37373.809 
  130700    296.06694      -1525.4     490.8775    301.61169    52.013352    37373.809 
  130800    297.41337   -1515.7865    497.84924    324.27339     60.96842    37373.809 
  130900    299.55564   -1514.0014    491.41913    329.29626    354.77921    37373.809 
  131000    311.19739   -1507.5813    479.24914    376.08503    56.610511    37373.809 
  131100     300.0699   -1507.0999     466.3198    313.41925    -545.4547    37373.809 
  131200    301.19704   -1502.7597    473.83688     330.3633   -22.638535    37373.809 
  131300    296.33864   -1478.4781    491.98355    350.86583   -252.72048    37373.809 
  131400    299.21624   -1473.1153    489.45711    366.68868   -284.83645    37373.809 
  131500    294.13312   -1499.7339    501.46029    329.13338    324.74424    37373.809 
  131600    297.49432   -1461.2942    478.81314    360.09493    290.70382    37373.809 
  131700    297.85149   -1459.9221    475.90118    360.16693   -223.81395    37373.809 
  131800    302.45689   -1462.2962    500.78467    403.46024    177.98199    37373.809 
  131900     300.7438    -1453.519    471.44389     375.1656    153.98881    37373.809 
  132000     301.5573   -1457.2183     457.3289    361.02253   -281.94236    37373.809 
  132100    301.25009   -1453.7236    488.67546    394.47742   -451.64325    37373.809 
  132200    304.28361   -1433.6172     455.4791    395.07755    507.46056    37373.809 
  132300    294.68031   -1466.0696    480.97915      344.786    669.74318    37373.809 
  132400    305.99156   -1468.0115    506.79259    419.70466    402.17972    37373.809 
  132500    290.44448   -1472.0236    480.10847    318.84522    389.94158    37373.809 
  132600    301.28952   -1515.6924    474.78738    318.79846    63.125866    37373.809 
  132700    293.79324   -1528.4211    483.55592      281.008    451.95376    37373.809 
  132800    305.13531   -1506.7464    470.73706    341.04994    293.41375    37373.809 
  132900    300.41517   -1518.2711    485.83424    323.32065    293.65374    37373.809 
  133000    295.96292   -1471.0152    500.47395    365.12358   -449.20854    37373.809 
  133100    305.16704   -1487.0574    480.43839    370.58353   -397.82972    37373.809 
  133200    297.53271   -1528.1762    460.90405    275.47701    34.229436    37373.809 
  133300    300.42935   -1517.3222    467.12228    305.62166   -293.15903    37373.809 
  133400    309.01839   -1509.8662    475.17095    359.88814   -288.06526    37373.809 
  133500    299.38914   -1537.1614    476.23852    290.20426   -169.76563    37373.809 
  133600    288.69396   -1522.7365    476.81174     256.9356   -273.75249    37373.809 
  133700    296.42265   -1551.2404    453.10469    239.60386    177.46557    37373.809 
  133800    300.79136   -1504.2074    478.13646    331.38432   -137.83317    37373.809 
  133900    305.51051   -1504.5725    469.34922    343.52926    330.61602    37373.809 
  134000     309.9846   -1478.7606    445.64809    365.83139    132.92049    37373.809 
  134100    304.89369   -1472.3518    480.67731    384.29438   -220.89417    37373.809 
  134200    298.23262   -1446.3081    499.96276    399.56246   -531.62949    37373.809 
  134300    302.06811   -1457.0961     461.9667    368.08777   -234.15881    37373.809 
  134400    304.72056   -1496.3902    475.91313    354.71048   -147.12403    37373.809 
  134500    301.49031   -1458.9884    483.78965    385.41087   -16.370583    37373.809 
  134600     300.8558   -1478.0602    499.39376    379.07972    235.82638    37373.809 
  134700      315.707    -1465.933     479.4067    438.24246   -225.04573    37373.809 
  134800    290.98181   -1468.7963    486.37532    330.76441    26.204326    37373.809 
  134900    297.67877   -1487.3364    465.04813    321.12002    168.47143    37373.809 
  135000    304.54172   -1485.7408    483.56814    372.20784   -56.397574    37373.809 
  135100    308.46172   -1478.9393    466.38761    379.51956   -150.64644    37373.809 
  135200    294.40284   -1492.6473    468.97691    304.95383   -374.39733    37373.809 
  135300    302.60134   -1469.6911    491.03078    386.96336    -361.7733    37373.809 
  135400    300.20483   -1479.8032    475.83523    350.84031   -192.83642    37373.809 
  135500    307.81326   -1451.0178    505.32973    443.45669    83.249641    37373.809 
  135600     302.0869   -1464.1635    481.80982    380.94828   -78.339008    37373.809 
  135700    317.86074   -1497.0552    481.95918    419.39244   -186.03373    37373.809 
  135800     302.0995   -1494.4484    483.65169    352.56219   -394.01221    37373.809 
  135900    313.47834   -1500.2586    495.00903    409.46141    139.35194    37373.809 
  136000    294.93481   -1498.8858    496.75193    328.89109   -169.34648    37373.809 
  136100    295.29195   -1475.9973    487.54627    344.18571    173.09673    37373.809 
  136200    302.84915   -1419.2778    470.52245    417.98665    12.329355    37373.809 
  136300    294.77726   -1463.9864     495.6987    362.02621    175.24505    37373.809 
  136400     309.0516   -1496.9654    487.06572    384.83365    964.71567    37373.809 
  136500    290.92207   -1471.9076    494.89526    335.90339    905.83167    37373.809 
  136600     302.1365   -1490.5797    493.68348    366.62955    891.50776    37373.809 
  136700    294.80681   -1460.2366    489.01794    359.22869    529.82874    37373.809 
  136800    295.84762   -1457.8429    486.21452    363.51607     185.0706    37373.809 
  136900    294.67705   -1431.9911    495.41424    393.28484   -179.27972    37373.809 
  137000    299.17644   -1427.9175    478.26855    400.51827    290.71916    37373.809 
  137100    307.40611   -1436.7452    501.64263    452.20467   -389.79314    37373.809 
  137200    305.40267   -1450.4136    470.64153    398.49384   -50.153013    37373.809 
  137300    301.78375   -1503.7678    459.72551    317.89155   -73.727863    37373.809 
  137400     302.7199   -1455.4128    456.93299    367.67886   -39.906126    37373.809 
  137500    302.94716   -1495.9666    495.18981     366.4075    33.402215    37373.809 
  137600    312.46101   -1478.7605     454.6665    386.02573    390.14209    37373.809 
  137700     301.8262   -1469.5137    449.80785    342.41964    836.61719    37373.809 
  137800    309.42054    -1465.059    519.56265    450.90198    319.86904    37373.809 
  137900     304.7735   -1464.0669    504.42964    415.78926    688.05863    37373.809 
  138000    300.56809   -1461.6711     462.2045    356.98107    297.98591    37373.809 
  138100    296.14309   -1473.9359    468.00882    330.55077    404.48269    37373.809 
  138200     302.0182   -1475.9361    498.79962    385.85545    614.72186    37373.809 
  138300    308.37457   -1525.8538    485.53396     351.3581    474.20219    37373.809 
  138400     303.3686   -1496.6342    489.68909    362.14113     234.0294    37373.809 
  138500     296.6703   -1504.4185    475.91612    310.35477   -76.945893    37373.809 
  138600    290.47198   -1484.4851    495.41344    321.81282   -325.47986    37373.809 
  138700    307.47943   -1513.4471    459.88489    334.07598    280.06855    37373.809 
  138800    292.43351   -1496.5005    486.21695    309.45324   -177.36277    37373.809 
  138900    298.03995   -1441.1129    490.77776    394.70315   -508.57387    37373.809 
  139000    307.24165   -1430.7339    482.07313    437.90435   -95.792157    37373.809 
  139100    295.76097   -1449.6922    481.88748    366.94867   -517.97008    37373.809 
  139200    304.19263   -1434.0157    498.48059    437.26987      8.41485    37373.809 
  139300    298.65728   -1498.1589    484.78876    334.45421   -309.63434    37373.809 
  139400    305.98448   -1463.7855    471.13364    388.23968   -245.58799    37373.809 
  139500    299.01418   -1479.7123    479.74787    349.47053   -113.57995    37373.809 
  139600    302.13651   -1464.3192    493.68351     392.8902    520.72999    37373.809 
  139700    296.19073     -1444.68    507.61807      399.631   -170.24898    37373.809 
  139800    296.39083   -1471.0709    513.04896      379.574   -40.284049    37373.809 
  139900    299.45135   -1423.1098    507.24462    435.54273   -29.177188    37373.809 
  140000    307.23868   -1405.3402    474.34116    455.55272   -91.263783    37373.809 
  140100    297.17002   -1405.1513    488.09042    424.05151   -35.643119    37373.809 
  140200    308.50361   -1387.0299    524.61788    529.84826    167.11472    37373.809 
  140300     302.3048   -1412.6161    492.98297    444.65224   -76.850502    37373.809 
  140400    299.10331   -1421.3686    504.34833     432.8169   -47.266829    37373.809 
  140500    292.30403    -1394.275    511.61937    436.49674    249.77532    37373.809 
  140600     307.1569   -1435.4833    482.81276    433.51214    242.20817    37373.809 
  140700    295.49225     -1473.89    508.35718    368.00791    344.65064    37373.809 
  140800     303.2365   -1427.1505    511.54367    452.88326    362.73616    37373.809 
  140900    293.27407   -1441.0624    508.60591    391.07369    122.72125    37373.809 
  141000    306.54248   -1426.8983    499.98273    456.49423    42.347989    37373.809 
  141100    304.84031   -1455.0635    474.29079    394.95524    620.99586    37373.809 
  141200    299.35407   -1441.1687    494.89591    404.69609   -418.00574    37373.809 
  141300    302.45225   -1451.3621    498.60971    412.19844   -15.303833    37373.809 
  141400    305.33966    -1437.492    463.44302    403.93253    158.20441    37373.809 
  141500    292.50426   -1471.5002    504.02555     352.5814    -490.2669    37373.809 
  141600    306.73891    -1499.123    487.72432    372.89762    445.94181    37373.809 
  141700     317.0977   -1473.2765    515.74635    473.51478    636.32503    37373.809 
  141800     292.9863   -1448.1013    484.61545    358.74559    477.43039    37373.809 
  141900    308.89137     -1441.26     501.7012    454.45135    703.98303    37373.809 
  142000     298.7235   -1458.6226    486.47674     375.9773    342.98274    37373.809 
  142100    312.46963   -1445.9271     476.5051    440.73664    575.03149    37373.809 
  142200    298.87167   -1477.6021    464.96218    336.15191    279.29579    37373.809 
  142300    304.02739   -1446.0265     506.1157    432.14851    348.56385    37373.809 
  142400    309.47051   -1455.5386    492.84516    433.93041    1088.7618    37373.809 
  142500    295.34938   -1412.4293     488.4796    408.94625    1679.4321    37373.809 
  142600    293.79879   -1464.9946    508.68318    369.58681    569.72313    37373.809 
  142700    299.57402   -1466.6958    502.83782    388.10354    713.71747    37373.809 
  142800    291.46095    -1434.436    498.55878    379.47045    457.52895    37373.809 
  142900    302.93559   -1452.3515     503.3567     418.1373    361.74451    37373.809 
  143000    301.88304   -1423.6676    502.23734    440.95172    578.17773    37373.809 
  143100    300.39962   -1440.0515    492.50677    408.14267    444.29767    37373.809 
  143200    303.45521   -1467.8427    489.50096     391.1354    267.35268    37373.809 
  143300    298.67509   -1445.3189    480.59557    383.18142   -450.70881    37373.809 
  143400    298.49213   -1485.8202    496.95275    358.21154    99.822591    37373.809 
  143500    306.58239   -1496.4508    489.50752    376.64663   -388.49018    37373.809 
  143600    295.70767    -1484.115    486.42276     336.8206   -19.933582    37373.809 
  143700    297.59512    -1473.941    508.52692    377.61675   -96.030924    37373.809 
  143800    310.02964   -1453.0364     468.3365    414.44729    439.73557    37373.809 
  143900    295.14069    -1479.144    482.38099    335.19109    -219.0052    37373.809 
  144000    306.74339   -1424.2186    521.36658    481.46449    160.65575    37373.809 
  144100    307.03655   -1466.4703    484.75146    403.92063   -282.84535    37373.809 
  144200    291.54754   -1469.0209    479.52025    326.23779   -180.03956    37373.809 
  144300    292.39097   -1539.6838    486.51349    266.37453   -318.53463    37373.809 
  144400    298.38688   -1477.6261    487.42152    356.39945    482.52481    37373.809 
  144500    312.66933     -1486.13    460.55434    385.48423    171.40077    37373.809 
  144600    289.24199   -1461.3033    498.63662    342.66695    25.402901    37373.809 
  144700    302.73779   -1468.1953    485.37986    383.42401    114.26116    37373.809 
  144800    303.66531    -1519.025    496.40056    347.80085    587.73472    37373.809 
  144900    302.93659   -1519.6804     506.0365    353.49269    371.56863    37373.809 
  145000    305.30503   -1511.8826    472.12797    338.07064    36.827609    37373.809 
  145100      304.479   -1492.7236    498.37551    379.74937   -64.546997    37373.809 
  145200    301.81884   -1492.9523    484.12647    353.26639   -466.50869    37373.809 
  145300    289.59974   -1494.9868    500.19721    312.15849   -6.7600864    37373.809 
  145400    300.06681   -1478.6941    476.80866    352.30002    41.946473    37373.809 
  145500     297.6866   -1510.6631     501.5647    334.34526     157.0268    37373.809 
  145600    302.86105   -1453.6683    467.49312    380.62055    123.15292    37373.809 
  145700    301.96051   -1458.4344    506.88974    411.18691    69.874417    37373.809 
  145800    285.42477    -1497.248    466.19235      257.051   -376.76239    37373.809 
  145900    302.17933   -1472.7771    489.43418     380.3762   -143.87651    37373.809 
  146000    300.54377    -1473.558    493.19414    375.97407   -212.84086    37373.809 
  146100    311.13142   -1503.4965    479.20763    379.83054   -332.69879    37373.809 
  146200       308.87   -1500.4368    511.12644    404.60342   -226.99915    37373.809 
  146300     289.5088     -1509.55    484.44898    281.43664   -91.813287    37373.809 
  146400    298.78977   -1490.5491    477.24502    335.11814    48.046005    37373.809 
  146500    303.47679   -1480.3719    503.62269    392.82522    82.818876    37373.809 
  146600     292.6685   -1469.2852    531.75353    383.26559   -237.70452    37373.809 
  146700    301.67024   -1487.8303    495.93207    369.52343   -224.50653    37373.809 
  146800    299.28726   -1435.2923    537.84374    453.21877   -333.25148    37373.809 
  146900    290.86523   -1481.4626    490.67874    321.87535   -110.09082    37373.809 
  147000    301.80581   -1482.0143    507.64422    387.66336   -171.70125    37373.809 
  147100    298.94426   -1482.0002    479.25744    346.37664    108.26874    37373.809 
  147200     302.0042   -1518.4669     536.6479    381.10974    177.81564    37373.809 
  147300     294.4736   -1453.8512    509.67134     384.7637   -435.85659    37373.809 
  147400    296.02311   -1437.9368    488.62691    386.62659   -820.25368    37373.809 
  147500    302.64371   -1464.7559    495.15484    396.21384   -511.69776    37373.809 
  147600    303.06444   -1433.2296    511.80567    446.28964   -520.54718    37373.809 
  147700    302.45192   -1448.4593    484.71112    401.20115    -26.04102    37373.809 
  147800    299.41677    -1528.901     466.0584    288.40923   -171.20231    37373.809 
  147900    302.24918    -1481.359    526.85777    409.53306    -89.18604    37373.809 
  148000    288.57937   -1471.7063    493.66846    324.30537    588.61513    37373.809 
  148100    309.49775   -1458.2968    497.40744    435.85742    856.47738    37373.809 
  148200     299.4382   -1474.3308     527.3107    404.32845    218.20169    37373.809 
  148300    299.10271   -1459.3832    521.67525    412.12659    385.22442    37373.809 
  148400     295.6617   -1460.6628    498.21424    371.85689    271.21317    37373.809 
  148500    297.92944   -1494.0952    484.98333     335.4277   -28.510541    37373.809 
  148600    310.22912   -1469.6592    501.93406    432.32228    341.37261    37373.809 
  148700    310.55284   -1451.7356    496.60676    446.37947    347.82664    37373.809 
  148800    298.45169   -1436.3423    498.73933    409.29349    137.13568    37373.809 
  148900    291.40039   -1471.7312    508.80003    352.14314   -205.20243    37373.809 
  149000    290.71236   -1398.7582    510.04757     423.2587   -215.06797    37373.809 
  149100     305.3785   -1435.4425    500.07103    442.78541   -108.35471    37373.809 
  149200    301.88079   -1452.0709    520.91462    431.21553   -189.49061    37373.809 
  149300    311.73583   -1445.8167    514.19705    475.22747    321.91332    37373.809 
  149400    295.88033   -1472.1643    499.17248    362.30028    43.456497    37373.809 
  149500    303.53589   -1487.2748    511.25179    393.81822   -153.50678    37373.809 
  149600    292.20281   -1499.0282    478.40424    298.07163   -397.57865    37373.809 
  149700    285.13114   -1499.7869    477.75894     264.7536   -140.86273    37373.809 
  149800    297.56002   -1487.7418    508.03873    363.16938   -144.68271    37373.809 
  149900    302.17044    -1455.183    512.36695    420.86291   -303.80498    37373.809 
  150000    299.97591   -1447.6271    505.12802    411.27612   -399.82778    37373.809 
  150100    304.10013   -1429.4445    502.89495    445.83802   -505.21386    37373.809 
  150200    302.01581   -1461.6457    512.12238    413.45782   -435.65642    37373.809 
  150300    291.46987   -1471.7716    472.88845    316.50479   -476.83515    37373.809 
  150400    300.94827   -1464.3701    456.44085    350.23411     -591.177    37373.809 
  150500    291.12148   -1504.2477    499.28804    308.85594    -455.5528    37373.809 
  150600    303.72092   -1482.0272    478.37796    367.02706   -91.629976    37373.809 
  150700    306.41206   -1509.5362    489.17003    362.45506   -372.14296    37373.809 
  150800    300.01975   -1498.0961    509.42278    365.29977   -152.28034    37373.809 
  150900     299.7689   -1458.1872    459.30227    353.95607   -336.78313    37373.809 
  151000    303.61096   -1473.3338    505.03787     401.8841    191.51852    37373.809 
  151100    293.35894   -1471.8359    493.53617    345.61349    566.84006    37373.809 
  151200    307.28356   -1496.5058    485.42081    375.66928    195.98419    37373.809 
  151300    297.85093   -1460.3592     497.9966    381.82265    66.083974    37373.809 
  151400    295.02037      -1464.7     462.9648    329.67596   -144.54984    37373.809 
  151500    299.99064   -1501.9376    481.34386    333.24797   -188.02406    37373.809 
  151600    293.69738   -1468.8359    498.56724    355.17188   -92.983517    37373.809 
  151700     299.8196   -1431.3735    486.31045    408.00671   -181.31893    37373.809 
  151800    291.59987   -1485.5403    494.26122    324.69555   -180.00524    37373.809 
  151900     306.2401   -1467.0803    501.16618    416.13107    138.92855    37373.809 
  152000    295.97763   -1479.5434    482.42265    338.61047   -412.25681    37373.809 
  152100    293.81434   -1479.2105    491.87121    338.62907   -281.94801    37373.809 
  152200    301.73102   -1476.6252    516.73381    401.80455   -227.81089    37373.809 
  152300    287.99908   -1465.8573    466.79997    300.66706    128.90982    37373.809 
  152400    297.12432   -1483.7868    493.42732    350.54665    188.07234    37373.809 
  152500    303.19105   -1542.1007    491.34684    317.53108    458.80985    37373.809 
  152600    289.98295   -1543.0554    479.23929    244.86141    -47.37176    37373.809 
  152700    299.73171   -1538.3495    521.42503    335.74864    306.88375    37373.809 
  152800    299.62246   -1529.2043    493.89592    316.87171    503.57263    37373.809 
  152900    290.76215   -1515.4008    484.20484    280.99811    404.36516    37373.809 
  153000    307.03123   -1485.1691    500.79922    401.24562    126.93186    37373.809 
  153100    298.10964   -1498.0577    479.05122    326.34637   -225.90276    37373.809 
  153200    300.55507   -1533.4765    523.29974    346.21214    598.76677    37373.809 
  153300    299.43519   -1460.1449    481.63511    372.82523    841.59897    37373.809 
  153400    299.73527   -1477.4422    509.66422    384.91125    178.78109    37373.809 
  153500    305.26393   -1459.9001    510.45843    428.19816    160.17545    37373.809 
  153600    296.53524   -1493.5415    473.63671    318.34282   -81.437403    37373.809 
  153700    302.65099   -1471.5126    488.01111    382.34618   -223.90272    37373.809 
  153800    305.27914   -1450.4118    488.13254    415.42916   -256.51913    37373.809 
  153900    304.12123   -1481.2948    482.25389    373.44193   -92.397604    37373.809 
  154000    296.02852   -1452.3074     499.4057    383.05917    39.075654    37373.809 
  154100    307.13219   -1518.9114    471.16711     338.3268    89.028575    37373.809 
  154200    291.36442   -1528.6894    474.44917    260.67179    175.27689    37373.809 
  154300    303.78967   -1493.7285    497.62652    374.88451   -144.61791    37373.809 
  154400    296.54496   -1525.2253    491.38215    304.44839   -292.24785    37373.809 
  154500    303.82686   -1503.9152    483.74954    350.98864   -342.53992    37373.809 
  154600    295.18149   -1464.8053     490.1388    357.47176   -385.57447    37373.809 
  154700    304.70239   -1537.1782    476.29696    314.22432   -138.18427    37373.809 
  154800    311.37411   -1521.9784    475.91398    359.15023   -102.50045    37373.809 
  154900    299.82866   -1486.4585     452.0364    318.68862   -500.09139    37373.809 
  155000    301.26946   -1520.8675    460.91254    299.65799   -764.23583    37373.809 
  155100    303.73528   -1529.0828    463.91007     305.5683   -418.24468    37373.809 
  155200    290.33242   -1524.8749    498.14183    283.52163   -255.50545    37373.809 
  155300     298.4291   -1516.2496    486.15234    316.69729   -13.327665    37373.809 
  155400    301.72095   -1529.5485    477.20769    309.30972   -119.12434    37373.809 
  155500     294.2767   -1534.2753    484.61865    278.39835   -305.74693    37373.809 
  155600    298.14853   -1530.6459    483.94972    298.83215   -650.24692    37373.809 
  155700    292.64096   -1471.6597    491.54449    340.55779   -1121.9248    37373.809 
  155800    299.42123   -1521.2841    494.85558    324.84346   -713.33223    37373.809 
  155900    310.68648   -1528.6727    494.82492    368.26368   -636.53158    37373.809 
  156000    310.04036   -1524.2697    467.38881    342.31463    108.38882    37373.809 
  156100    302.33162   -1493.4789    505.44634    376.37381   -753.57821    37373.809 
  156200    298.70925   -1513.8189    479.19502    313.43498   -518.82691    37373.809 
  156300    292.37808   -1497.5162    495.13141    317.10175     -772.286    37373.809 
  156400    307.49753   -1484.1749    478.41302    381.95796   -372.74625    37373.809 
  156500    301.58006   -1504.5504    472.36536    328.82958   -301.79151    37373.809 
  156600    296.57886   -1513.8416    496.20036    320.80322   -66.380227    37373.809 
  156700    296.16573   -1504.1678    507.31782    339.73007   -167.95073    37373.809 
  156800    303.82898   -1505.9617    480.50249    345.70471   -455.79271    37373.809 
  156900    307.02886   -1486.3006    480.43003    379.73423   -439.14473    37373.809 
  157000    304.70001   -1504.1422    473.78344    344.73611   -654.75379    37373.809 
  157100    291.73182   -1481.0374    503.61134    339.14397   -63.702134    37373.809 
  157200     288.3078   -1462.6578    482.06615    320.52598   -400.95634    37373.809 
  157300    300.15427   -1459.8484    503.68725    398.41902    -3.096109    37373.809 
  157400    299.74572   -1482.8121    501.01543     370.9397     72.21372    37373.809 
  157500    300.62275   -1513.5157    483.14864    326.32724   -411.95218    37373.809 
  157600    297.55338   -1458.8153    490.84161    374.86878   -107.48084    37373.809 
  157700    304.85292   -1464.4197    491.67058    403.03575   -88.873262    37373.809 
  157800    291.95467   -1465.6335    483.11468      335.057    92.545704    37373.809 
  157900    297.83427   -1476.2718    507.77217    375.61049    617.06905    37373.809 
  158000    288.29154   -1475.6042    537.09401    362.53404    508.76442    37373.809 
  158100    298.82264   -1460.6445    489.01672    376.94279    607.17691    37373.809 
  158200    303.05931   -1507.7482    489.25452    349.19671    559.07617    37373.809 
  158300    296.14954   -1487.7677    502.36409    351.10338    234.01531    37373.809 
  158400    298.25877   -1438.8121     510.7034    417.91717    176.60646    37373.809 
  158500    291.03821   -1469.5867    498.77021    342.62339   -164.17056    37373.809 
  158600    294.83753   -1493.1063    511.20607    348.68578   -252.07329    37373.809 
  158700    306.03123   -1466.0877      498.268    413.28285    138.05175    37373.809 
  158800    299.63534   -1485.1383    487.63129    354.73122    287.08789    37373.809 
  158900    291.79206   -1486.8932    509.98158    339.93029    86.283818    37373.809 
  159000    308.19505   -1497.5073    503.61941    396.97983    252.55014    37373.809 
  159100    296.18014   -1470.1961    487.61844    354.06742   -147.43234    37373.809 
  159200    299.54604   -1438.8873    523.50712      436.455    50.828478    37373.809 
  159300    298.87757   -1428.7559    501.21059    421.27321   -434.91997    37373.809 
  159400    299.95173   -1467.5431     514.1401    400.26311   -245.24819    37373.809 
  159500    293.55771   -1489.5524    525.65075    360.90857    -346.1551    37373.809 
  159600    291.96908   -1466.4105    518.35186    369.58212   -251.96021    37373.809 
  159700    292.71335   -1465.1807    501.83873    357.65764   -555.35032    37373.809 
  159800    305.11704    -1504.332    510.79068    383.43553   -48.451963    37373.809 
  159900    299.35472   -1532.7279    495.87445    314.11841   -58.568224    37373.809 
  160000    286.73461   -1513.2292    488.95316    269.74193    -64.24126    37373.809 
  160100    295.93116   -1491.7891    491.63139    335.36378    35.043429    37373.809 
  160200    292.49647   -1471.2783    480.60532    329.34795   -336.34724    37373.809 
  160300    298.79721   -1501.6193     499.6075    346.44402   -309.47515    37373.809 
  160400    303.74179   -1484.4754    510.05623    396.35124   -288.48211    37373.809 
  160500    296.96516    -1458.717    497.69494    379.16579   -532.01327    37373.809 
  160600     295.3191   -1453.9163    483.39935     362.2423   -672.52673    37373.809 
  160700    301.61865   -1482.2163    491.18989    370.16244    -311.1129    37373.809 
  160800    308.06749   -1464.9506    489.07653    414.41805    21.391218    37373.809 
  160900    301.88188   -1492.2176    517.46262    387.62173   -81.394624    37373.809 
  161000    312.57326   -1484.9767    486.11435      411.764    236.06933    37373.809 
  161100    305.71015   -1491.5317    494.79112    382.91293   -240.93615    37373.809 
  161200    298.19654   -1496.5907    464.89479    314.04908    182.50421    37373.809 
  161300    302.42129   -1470.9534    505.28291    399.14058    155.48163    37373.809 
  161400    291.99753   -1489.5253    451.06838    279.31226    247.19119    37373.809 
  161500    307.73185   -1518.9629    491.32707     361.1415     747.6378    37373.809 
  161600    302.12904   -1503.7253    510.83525    370.60218    187.73395    37373.809 
  161700    303.15173    -1491.292    467.39205    344.20759    828.87154    37373.809 
  161800    296.63366   -1501.3549    491.79181    329.12871    879.16079    37373.809 
  161900     307.6431   -1549.8552    496.67693    335.19853    303.70828    37373.809 
  162000    304.13486   -1490.4341    517.71739     399.8276    58.004512    37373.809 
  162100    294.65624    -1489.925    466.40265    306.24546   -120.07554    37373.809 
  162200    306.98106   -1496.2393    501.46517    390.61493    179.34665    37373.809 
  162300    294.43792   -1497.4104    486.09235    317.46445    85.773144    37373.809 
  162400    299.40926   -1470.8539    497.52623    377.89029   -101.74332    37373.809 
  162500    291.78959   -1491.6794    494.61976     319.7711   -141.43326    37373.809 
  162600    298.61186   -1487.1006     506.1232    366.64195    -394.8159    37373.809 
  162700    308.01661   -1486.4053    487.59459    391.25173   -363.94289    37373.809 
  162800    298.15118   -1501.5552    479.77247    323.75753   -42.345524    37373.809 
  162900    304.68647   -1494.9224    506.66727    386.77861   -153.62044    37373.809 
  163000     306.9558    -1443.054    517.94801    460.16909    125.13359    37373.809 
  163100    304.80826   -1469.0146    503.93802    410.50674   -455.35791    37373.809 
  163200    298.10261    -1438.777    515.83242    422.37651   -483.11942    37373.809 
  163300    294.02365   -1490.7116    466.88226    303.08369   -831.83529    37373.809 
  163400    304.06496   -1483.1669    509.46493    398.52689   -20.236418    37373.809 
  163500    307.90693   -1487.2444    512.04607    414.36908   -416.60353    37373.809 
  163600    300.61907   -1460.8757    460.39467    356.19673   -523.09989    37373.809 
  163700    294.52931   -1451.3936    516.45389    394.25532   -294.44151    37373.809 
  163800    295.79008    -1486.905    512.77861    360.75839   -270.70813    37373.809 
  163900    299.83903   -1500.5951    510.20602    362.76843   -227.88341    37373.809 
  164000    308.08947   -1458.8027    541.88105    473.46961     14.27953    37373.809 
  164100     308.7001   -1427.7817    516.29864    481.66398    -386.1083    37373.809 
  164200    297.17022   -1484.7381    506.52984    362.90502    -247.5654    37373.809 
  164300    299.38843   -1438.5485    509.18366    421.75909   -446.47788    37373.809 
  164400    291.57555   -1488.0012    487.13827    315.00193   -212.81615    37373.809 
  164500    294.83055   -1500.9309    534.07591    363.69949   -61.369884    37373.809 
  164600    294.08784   -1517.4646    500.00156    309.73966   -91.520254    37373.809 
  164700     303.6858   -1503.9648    506.14973    372.70269   -176.56706    37373.809 
  164800    303.03221   -1555.0187    472.44416     284.9936    135.75529    37373.809 
  164900    290.64933    -1509.608    497.12198    299.19883    217.35667    37373.809 
  165000    301.70337   -1538.6098    505.52191    328.48324    555.98792    37373.809 
  165100    309.26013   -1505.2859    494.61187    385.00034    452.31968    37373.809 
  165200     304.8896   -1499.3727    516.92507    393.50274     481.1436    37373.809 
  165300    295.68193   -1515.7791    490.84778    309.46544    206.60156    37373.809 
  165400    293.45256   -1470.6581    531.82191    385.49946    154.90162    37373.809 
  165500    305.65342   -1488.1653    484.70767    375.93991   -355.18683    37373.809 
  165600    309.86603   -1472.3634    520.50233    446.54775   -590.09078    37373.809 
  165700    282.82958   -1487.7971    498.25596    286.85363   -501.22387    37373.809 
  165800    295.68643   -1507.9228     506.7771    333.27135   -114.81739    37373.809 
  165900    304.83907   -1500.7949    494.96533    369.89285   -464.98012    37373.809 
  166000    302.58473   -1487.4751    500.96882    379.04242   -134.83629    37373.809 
  166100    305.36912   -1471.6893     507.5397    413.96489    56.888386    37373.809 
  166200    304.02239   -1461.0539    503.36437    414.34721    172.50737    37373.809 
  166300    282.92422   -1490.9451    515.72589    301.60262    58.626139    37373.809 
  166400    300.64931   -1429.9917    507.25885    434.08136   -211.35894    37373.809 
  166500     293.3794   -1439.0869    515.94628    400.86491   -539.52086    37373.809 
  166600    294.61479   -1444.4639    527.26698    412.38378    -560.6486    37373.809 
  166700     306.2632   -1497.3039     501.9047    386.75024    53.149861    37373.809 
  166800    316.30069   -1486.5057    505.01956    445.96191   -83.163539    37373.809 
  166900    298.87639   -1476.6128    498.45645    370.65683   -268.33008    37373.809 
  167000    292.46512   -1474.1753    510.39053    356.09465    124.85084    37373.809 
  167100    310.25623   -1498.5873    514.79789    416.38034    -93.94999    37373.809 
  167200    290.48364   -1482.6825    517.34795    345.60253   -23.752878    37373.809 
  167300    296.43521   -1498.8157    476.44307    315.42358   -145.73311    37373.809 
  167400    292.96036   -1515.5282    523.19548    329.78168   -168.26558    37373.809 
  167500    293.06261     -1497.99    516.65818    341.24402   -21.118997    37373.809 
  167600    299.62555   -1435.5442    509.90656    426.55642   -194.13588    37373.809 
  167700    303.19361   -1438.2504    512.13363    442.17973    31.646613    37373.809 
  167800    297.36044   -1436.7696    532.66159    437.86373    263.00745    37373.809 
  167900    295.67717   -1463.7574    487.66468    358.28252   -380.00698    37373.809 
  168000    307.75478   -1464.9325    500.35601     424.3043   -352.84684    37373.809 
  168100    300.27898   -1463.8278    507.44881    398.76393   -629.02805    37373.809 
  168200    313.92751   -1473.7147    502.78701    445.81034    50.844947    37373.809 
  168300    312.09016   -1476.4535    484.97369    416.96631   -87.599802    37373.809 
  168400    303.76604   -1472.7082    503.91315    402.08486    2.2654952    37373.809 
  168500    300.66772   -1472.9954    552.97266    436.87454    597.41135    37373.809 
  168600    299.90368   -1414.1119    539.66251    478.99985    571.78558    37373.809 
  168700    306.26099   -1477.4777    517.92748    422.58923    445.36938    37373.809 
  168800    315.70455   -1505.0338    496.68654    416.41042    275.43852    37373.809 
  168900    303.23148   -1492.3256    499.69941    375.84121     450.1291    37373.809 
  169000    299.65056   -1476.9462    510.39152     385.7523    650.03829    37373.809 
  169100    298.62899   -1486.1609    512.30811    373.84383    312.87752    37373.809 
  169200    302.40431   -1520.5095    512.29792    356.52289    352.22052    37373.809 
  169300    305.77378   -1486.3469     493.6634    387.25718    89.467363    37373.809 
  169400    299.74523   -1473.6646    511.51969    390.58921     -318.046    37373.809 
  169500     292.6281   -1440.2148    477.50216    357.90227   -660.86292    37373.809 
  169600    304.61724   -1490.8627    490.50404    374.36262   -313.30244    37373.809 
  169700    291.28826   -1446.2769    489.69327    357.98469   -129.41596    37373.809 
  169800    304.13242   -1448.7494    500.19575    423.97971    492.02678    37373.809 
  169900    295.65038   -1495.7597    519.27321     357.7678    89.900005    37373.809 
  170000    300.08067   -1484.6349    509.85867    379.47172   -92.586234    37373.809 
  170100    304.54081   -1473.7401    494.26858    394.90486   -196.31703    37373.809 
  170200    294.96918    -1479.972    496.48384    347.69197    470.20083    37373.809 
  170300     311.0224    -1490.387     504.4356    417.67608    556.25665    37373.809 
  170400    295.23934   -1513.3233    507.51075    326.58677    362.25405    37373.809 
  170500    307.97088   -1507.6988    513.86007    396.01733   -206.73555    37373.809 
  170600    290.67213    -1487.453     499.0589    323.39358   -294.45515    37373.809 
  170700    305.30938    -1466.464    490.85733    402.23821   -297.32307    37373.809 
  170800    300.61907   -1491.1619    507.23626    372.75207   -161.85413    37373.809 
  170900    301.59994   -1503.6182    509.09568    366.58188   -179.98914    37373.809 
  171000     297.7529   -1515.0928    505.52028    334.17034   -739.37343    37373.809 
  171100    293.45489    -1470.826    492.05741    345.57762   -344.61902    37373.809 
  171200    294.95714   -1482.7233    508.57251    356.97496    -333.5585    37373.809 
  171300    311.18872   -1487.5764    490.29769    407.09931   -168.48617    37373.809 
  171400    299.93331   -1508.1208    483.71974     329.1819   -46.592461    37373.809 
  171500    303.77048   -1483.3522    555.28369    442.83139    179.24203    37373.809 
  171600    314.98123   -1524.9765     500.3587    396.87558    154.36497    37373.809 
  171700      307.226   -1464.1582     519.2738    441.61003    910.99649    37373.809 
  171800    309.04862   -1488.0899    535.22017    441.85011    909.74058    37373.809 
  171900    309.29302   -1445.6886    525.84711    475.98136    813.85336    37373.809 
  172000    293.83664   -1498.7659    532.72043    360.02354    809.56586    37373.809 
  172100    312.26201   -1511.7054    538.46444    435.98074    1022.0289    37373.809 
  172200       297.67   -1489.3956    481.29999    335.27309    395.28579    37373.809 
  172300    298.13962    -1489.567    503.05031    358.97147    331.51961    37373.809 
  172400    309.90203   -1482.9093    492.11669     407.7786    230.46768    37373.809 
  172500    300.26827   -1477.1369    474.56724    352.52499   -367.11151    37373.809 
  172600    302.90778   -1479.5499    487.92474    375.38136   -277.70159    37373.809 
  172700    307.89171    -1458.366    530.03111    461.16392   -83.981987    37373.809 
  172800    297.01448     -1471.24    491.48667    360.65712    241.95598    37373.809 
  172900    307.03006   -1489.8678    527.38492    423.12733   -130.98945    37373.809 
  173000    307.08879   -1469.4723    490.35124    406.75419    326.41022    37373.809 
  173100    304.18237    -1456.615     505.1399     421.2836    96.842655    37373.809 
  173200    304.14845   -1471.6866     504.2652     405.1842    100.28346    37373.809 
  173300       294.19    -1466.522     498.3064    359.44813     38.86561    37373.809 
  173400    303.26438    -1437.061     474.6914    406.24627   -174.70219    37373.809 
  173500    293.35847   -1468.1595     499.6988     355.4503   -455.90555    37373.809 
  173600    289.56832   -1483.5196    512.37719    335.66389   -356.84084    37373.809 
  173700     301.4655   -1468.9583    506.63046    398.16975    504.22829    37373.809 
  173800    298.10746   -1458.6216    504.56509    391.28654    19.104626    37373.809 
  173900    300.13236     -1421.06    519.03516    452.45643   -26.397905    37373.809 
  174000    303.48084   -1469.0755    491.49501    392.01221   -677.16034    37373.809 
  174100    305.24466   -1448.0799    505.13813      434.611   -803.72713    37373.809 
  174200    296.43723   -1435.8933    508.50062    410.41264   -740.38203    37373.809 
  174300    297.48358    -1461.673     519.7407    400.59519   -376.47045    37373.809 
  174400    306.07912   -1410.4296    519.67608    490.56517    -286.7733    37373.809 
  174500     300.2257    -1442.839    492.13991    404.20345   -379.64369    37373.809 
  174600    301.79077   -1515.7023    514.63278    360.89602   -450.27866    37373.809 
  174700     293.5783   -1430.2783     495.7508    390.37567   -536.23726    37373.809 
  174800    299.58382   -1397.9344    524.04188     478.1132   -151.48451    37373.809 
  174900    297.40695   -1424.0129    500.06256    418.23131   -130.65027    37373.809 
  175000    291.77159   -1457.6134    515.22646    374.36262   -691.21687    37373.809 
  175100    295.43087   -1500.0184    493.91522    327.16052   -647.19831    37373.809 
  175200     295.8453   -1468.2993    473.67095    340.50562   -577.15791    37373.809 
  175300     297.8935   -1458.9614    529.68757    415.10352   -838.95697    37373.809 
  175400    294.78279   -1457.2061    501.58087    374.71374   -620.52431    37373.809 
  175500    295.41756   -1442.1746     534.8367    425.86572   -599.09983    37373.809 
  175600    297.45429   -1451.0253     462.9793    354.34934   -762.79609    37373.809 
  175700    312.87267   -1448.8736    507.68849    470.79242   -479.67297    37373.809 
  175800     308.1747   -1500.5715    512.47524    402.67967   -40.991818    37373.809 
  175900    313.30721     -1457.11    499.05113    455.87972   -213.83785    37373.809 
  176000    295.53037   -1488.4177    494.09323    339.38824    341.94136    37373.809 
  176100    288.34211   -1488.2716    503.38445    316.38531    446.28721    37373.809 
  176200    291.83978   -1494.7123    505.77687    328.12182    342.74173    37373.809 
  176300    303.10418   -1539.4291    494.91288    323.37673    590.76914    37373.809 
  176400    303.71075   -1532.4675    493.85773    332.02052    861.43847    37373.809 
  176500    293.33745   -1544.0482    493.60396    273.37194     429.1455    37373.809 
  176600    308.06291   -1486.6419     527.3161    430.94559     396.8551    37373.809 
  176700    295.66148   -1521.8432     498.4559     310.9171   -366.53932    37373.809 
  176800    308.05925   -1460.5545    506.06008    435.76047    262.85974    37373.809 
  176900    291.00889   -1516.0949    499.15976    296.37238    38.511765    37373.809 
  177000    306.98884   -1477.7736    510.80144    418.45204   -219.59583    37373.809 
  177100    294.65819   -1492.0831    492.63443    330.32799   -232.73848    37373.809 
  177200    300.94414   -1456.4753    500.14303    401.81249    108.47428    37373.809 
  177300    299.86158   -1501.1239    523.01323    375.14852    768.58089    37373.809 
  177400    300.30831   -1452.9347    537.29971    439.64035    373.98948    37373.809 
  177500    295.09605   -1498.5071    508.97546    342.22104    229.35041    37373.809 
  177600    310.22355   -1536.9931    493.91451    356.94364     -153.036    37373.809 
  177700     297.0327   -1562.8043    499.35078    277.03909   -448.19081    37373.809 
  177800    297.70651   -1533.1861    539.37676    349.72423    -220.2808    37373.809 
  177900    298.31947   -1523.5157     486.3264    309.11047     222.3412    37373.809 
  178000    306.18336   -1521.9317    493.09774     352.9552   -55.776565    37373.809 
  178100    302.21993   -1507.3405    523.57229    380.13419   -1.9069467    37373.809 
  178200    292.70295   -1491.6175    499.28127    328.61649   -333.46781    37373.809 
  178300    297.12544   -1525.0341    527.02906    342.90611   -83.835102    37373.809 
  178400    298.58847    -1486.934    500.97993    361.55969   -88.970649    37373.809 
  178500    301.48768   -1500.1343    503.54438     364.0078    434.68452    37373.809 
  178600    292.89835   -1487.6581     505.2772    339.45364    234.19911    37373.809 
  178700    309.85267   -1492.3609     504.5686    410.55617    606.68567    37373.809 
  178800     303.0857   -1505.5066    479.68229    341.98517    433.12274    37373.809 
  178900     298.4977   -1487.8265    519.60331    378.88095    878.87449    37373.809 
  179000    311.26291   -1482.9167    501.20192    422.99801   -159.98386    37373.809 
  179100    295.28748   -1481.5103    495.67566    346.78199   -369.86348    37373.809 
  179200    309.47322   -1537.2069    507.46323    366.89239    -289.4475    37373.809 
  179300    309.67776   -1530.1359    488.35644    355.77971    421.75706    37373.809 
  179400    295.97602   -1521.7515    487.27361    301.24605   -624.34955    37373.809 
  179500    295.52164   -1513.2118    517.75958     338.2211   -309.64897    37373.809 
  179600    291.70934   -1507.6466    485.91408     294.7361   -430.81529    37373.809 
  179700     303.6901    -1504.132     515.2578    381.66292   -470.09323    37373.809 
  179800     296.0385   -1500.5186    511.24703    346.73431   -46.095233    37373.809 
  179900    293.74159   -1518.8566    509.15236    315.93576   -673.19624    37373.809 
  180000    304.75265   -1490.3412     475.8826    360.87376   -585.81441    37373.809 
  180100     304.2386   -1483.1643    490.81111     380.6593   -67.095721    37373.809 
  180200    299.36254   -1484.3025    514.85816    381.56279    97.032657    37373.809 
  180300    313.43095   -1495.9044      509.041    427.63366    788.51273    37373.809 
  180400    296.94764   -1521.3359    509.26017    328.03303    774.09258    37373.809 
  180500    295.55524    -1485.469    491.99547    340.35149    547.26948    37373.809 
  180600    300.02304   -1490.4963    524.54164    388.03326   -26.220823    37373.809 
  180700    302.61141   -1531.3631     489.2126    323.51858   -303.54439    37373.809 
  180800    295.19807   -1554.3921    495.93684     273.7578    132.88893    37373.809 
  180900    304.11557   -1563.3206    516.34714    325.48385   -155.97128    37373.809 
  181000    307.84388   -1546.5104     472.9689    315.74147   -295.64506    37373.809 
  181100    299.50759   -1475.3316    499.81344    376.14358    199.18083    37373.809 
  181200      297.454   -1500.7627    497.22699    338.85825   -523.89758    37373.809 
  181300    299.41734    -1505.597     503.2728    348.93018    -503.9507    37373.809 
  181400    288.80256   -1491.6958    512.36738    324.02208   -397.16968    37373.809 
  181500    298.66493   -1531.2206    455.40577    272.04399    733.81045    37373.809 
  181600    300.58586   -1513.3051    506.10066    349.32346     149.7654    37373.809 
  181700    292.69116    -1526.116     497.7553    292.53875   -280.75926    37373.809 
  181800    293.49611   -1511.6813    482.92856    295.77946   -151.93192    37373.809 
  181900    295.72827    -1504.278    506.88602    337.21391    250.41144    37373.809 
  182000    293.18663   -1507.3148    491.11073    306.93152   -346.91373    37373.809 
  182100    297.75861   -1507.3891    490.95329    327.33285   -258.14264    37373.809 
  182200    310.74378   -1501.7501     489.4787    390.09867    -553.8354    37373.809 
  182300    303.34258   -1455.3894    495.33771     408.9171    296.90229    37373.809 
  182400    302.04295   -1511.0701    491.64271    343.67627   -75.597552    37373.809 
  182500    305.72459   -1483.4521    490.53252    386.79908   -370.67544    37373.809 
  182600    302.47751    -1492.536    499.28964    371.81839   -465.46981    37373.809 
  182700    301.28696   -1500.2051    481.76234    341.24916   -233.11422    37373.809 
  182800    295.36588   -1483.4831    495.37333    344.86059   -947.33602    37373.809 
  182900    298.50007    -1437.843    491.88781     401.1597   -239.37544    37373.809 
  183000    299.50283    -1456.975     497.0494    391.71468    182.78211    37373.809 
  183100    306.91278   -1502.2753    481.00349     363.8091   -205.14695    37373.809 
  183200    300.19718   -1509.2967    480.69564    326.17275    99.978651    37373.809 
  183300    289.77026   -1524.3514    493.68654    277.05281     403.9792    37373.809 
  183400     303.3831   -1505.3131    503.16667    367.00528    465.32122    37373.809 
  183500    311.18768   -1482.0568    490.05886    412.37542    602.92612    37373.809 
  183600    295.02692   -1434.8704    492.68243    389.25271    387.31234    37373.809 
  183700    307.51802   -1427.4469    486.65514    447.02061   -434.86635    37373.809 
  183800    292.81738   -1393.1742    513.65404    441.94895    443.33877    37373.809 
  183900    303.46192   -1436.2061    472.61029    405.91157     607.2676    37373.809 
  184000    308.32271   -1433.7352    532.95795    490.66662   -46.765282    37373.809 
  184100    300.00583   -1447.1975    504.50237    411.21512   -171.54589    37373.809 
  184200    302.90854   -1427.0422    490.85683    430.82467   -2.8011063    37373.809 
  184300    299.30222   -1443.6362    520.29912    427.39779    -285.0919    37373.809 
  184400    308.94679   -1460.2226    483.88726    417.92498   -106.33651    37373.809 
  184500    295.57004   -1449.1304    528.49822    413.25961    177.20495    37373.809 
  184600    289.17534    -1455.423    491.37823    340.98802     1.270222    37373.809 
  184700    304.72062   -1437.7376    483.26223    420.71244    303.58061    37373.809 
  184800    294.95794   -1454.6322    508.69495     385.1921   -99.701326    37373.809 
  184900    302.03281   -1436.1711    510.31195    437.19874    245.52166    37373.809 
  185000     303.3107   -1426.8226    504.02047    446.02281    421.60388    37373.809 
  185100    298.86277    -1490.514    495.30944    353.54708     107.4147    37373.809 
  185200    304.24629   -1446.0745    502.50422    429.47694   -533.47714    37373.809 
  185300    292.89499   -1437.9764    515.86352    399.70655   -552.85991    37373.809 
  185400     300.5137   -1426.7581    483.93194     413.3761   -750.35132    37373.809 
  185500    293.82465   -1424.8973    498.66786    399.78548   -439.74896    37373.809 
  185600    295.96638   -1446.5997    485.14633    374.22707   -456.38059    37373.809 
  185700    317.46436   -1473.8666    507.88363    466.71664    218.43521    37373.809 
  185800    305.08607   -1448.2347    499.36098    427.96343   -172.96572    37373.809 
  185900    297.43495   -1493.8006    491.78582    340.29318    169.26012    37373.809 
  186000    300.10642   -1456.5524    508.74779    406.55959   -30.829407    37373.809 
  186100    299.49135   -1451.6807    518.27103    418.17871    -243.6392    37373.809 
  186200    301.17657   -1450.4077    492.06013    400.84617    8.9741081    37373.809 
  186300    302.69578   -1479.8249    501.71293    387.93792   -640.66879    37373.809 
  186400    299.07366   -1468.1348    519.10899    400.67761   -627.93584    37373.809 
  186500    290.08244   -1492.1449    477.21681    294.19838   -126.02276    37373.809 
  186600    307.53116   -1461.8748    509.42449    435.42139    256.54103    37373.809 
  186700    301.60469   -1502.9835    472.35694    330.49929    -52.87772    37373.809 
  186800    306.05731   -1527.4355    492.41149    346.19627    540.04736    37373.809 
  186900    296.82461   -1479.0997    497.94388    358.39773   -402.07227    37373.809 
  187000    301.59751   -1465.6895    498.06607       393.47   -1039.3638    37373.809 
  187100    308.98672   -1444.9296    520.34579    469.85673   -1001.6539    37373.809 
  187200    302.88997    -1479.676    470.39671    357.64692   -417.74704    37373.809 
  187300    292.76512   -1497.6072    504.50352    328.12964    347.10387    37373.809 
  187400     302.3433    -1508.345    504.26207    360.37623    315.51117    37373.809 
  187500     301.6209   -1485.8581    509.63314    384.97394     170.5944    37373.809 
  187600     294.2258   -1520.8357     492.9825    299.97203   -24.976454    37373.809 
  187700    302.95067   -1515.7095    493.62487    345.11548    340.53841    37373.809 
  187800    305.81317   -1496.9176    521.10587    404.30672    535.16483    37373.809 
  187900    298.46298   -1510.8732    502.74092    338.81514     320.8259    37373.809 
  188000    308.32752   -1524.6549    502.53869    369.34935    160.23573    37373.809 
  188100    295.85671   -1520.3439    505.09081    319.93233    254.16903    37373.809 
  188200    299.84972   -1503.7388     495.4368    344.90373    716.01215    37373.809 
  188300     306.5533   -1506.7193    496.01348    372.75279    432.70477    37373.809 
  188400    297.41932   -1482.4542    505.24934    365.03264    168.54099    37373.809 
  188500    302.49554   -1473.9569    515.83946    407.02874   -145.26201    37373.809 
  188600    309.66832     -1489.31    497.61714    405.82368    432.36177    37373.809 
  188700    300.29266   -1451.5167    522.30717    425.99513    -73.41368    37373.809 
  188800    300.79171   -1458.0262    502.56682    401.99748    616.66709    37373.809 
  188900      302.548   -1449.3573    499.07739    415.10295    185.67821    37373.809 
  189000    301.71292   -1467.9615    506.36584    400.01862   -54.723559    37373.809 
  189100    290.82531   -1487.4163    490.39256    315.45529   -175.42284    37373.809 
  189200    293.68843   -1468.5885    488.76598     345.5776   -266.50758    37373.809 
  189300     303.0168   -1481.1642    512.05919    398.39364   -273.88978    37373.809 
  189400    309.90546   -1494.5477    491.17287    395.21189   -30.108845    37373.809 
  189500    310.61484   -1473.1136    514.35062    443.02519    538.05934    37373.809 
  189600    295.70904   -1424.0079    500.33116    410.84228    360.18684    37373.809 
  189700     294.9116   -1465.1262    526.70991    392.50393    351.89922    37373.809 
  189800     302.6196   -1471.1956    514.96038    409.47088    332.02848    37373.809 
  189900    290.30496   -1461.4616    494.52894    343.19802   -65.163659    37373.809 
  190000     299.7216   -1477.0107     504.2101    379.82688    40.623399    37373.809 
  190100    291.31769   -1487.3957    504.98143    332.28689   -69.952519    37373.809 
  190200    295.76759   -1501.2409    516.88605    350.42839    472.63865    37373.809 
  190300    292.97389   -1484.7561     505.8527    343.27208    414.31033    37373.809 
  190400    290.84363   -1479.4198    512.75129    345.89326    718.49126    37373.809 
  190500    301.34876   -1490.9776    490.88054     359.8737    398.96838    37373.809 
  190600    295.50883   -1476.3089    521.11379    378.42046    365.74417    37373.809 
  190700    300.26502   -1450.4151    472.03363    376.69843    495.88404    37373.809 
  190800    305.94779   -1457.3057    513.21988    436.64013    830.24479    37373.809 
  190900    300.74045   -1477.8447    507.32777    386.70859    801.44728    37373.809 
  191000    291.36735   -1447.1496    527.23736    395.01298    905.15529    37373.809 
  191100      306.632   -1460.5844    530.15026    453.37966    22.370657    37373.809 
  191200    307.04655   -1452.0453    509.06215    442.70149   -217.47511    37373.809 
  191300    295.87669   -1492.8887    491.90988    334.29684   -396.38136    37373.809 
  191400    310.34232   -1504.1334    491.02444    387.44929   -481.77694    37373.809 
  191500    302.18643   -1468.8435    491.61036    386.51804   -785.43474    37373.809 
  191600    301.18693   -1497.3294    499.55725    361.46835   -884.66611    37373.809 
  191700    294.26005   -1476.0322    499.87241    351.82003   -296.43091    37373.809 
  191800    305.66299   -1473.1314    493.54554    399.85479   -309.60121    37373.809 
  191900    301.78625   -1406.5674    517.15757    472.53539    251.89662    37373.809 
  192000    295.92751   -1495.9834    504.16512    343.68667   -483.12602    37373.809 
  192100    298.82693   -1506.9163    513.33865     355.0123    184.60562    37373.809 
  192200    309.93704    -1480.229    507.72904    426.22925    428.61894    37373.809 
  192300    294.34122   -1497.1808    494.07777    325.24318   -369.31435    37373.809 
  192400    302.93967   -1539.7706    462.23564    289.61549   -214.33185    37373.809 
  192500    292.33076   -1546.6843    504.85644    277.44525    95.751643    37373.809 
  192600    304.55273   -1518.0308     475.1151    331.51446    241.68258    37373.809 
  192700    298.28742   -1471.9785    517.70013    391.87674   -428.29995    37373.809 
  192800    297.03905   -1495.9299    512.13534    356.72676    326.01503    37373.809 
  192900    300.57686   -1457.7474    499.44531    398.18523    170.75118    37373.809 
  193000    301.98461   -1490.2753    512.91651     385.4816   -83.410504    37373.809 
  193100    302.93495   -1490.1192    507.15875    384.16879    560.91936    37373.809 
  193200    306.19318    -1524.371    524.38469    381.84708    154.09118    37373.809 
  193300    300.16405   -1487.9422    510.28693    376.96897    282.95675    37373.809 
  193400    295.79226   -1500.4774    510.72025    345.13748   -516.60846    37373.809 
  193500     307.7856   -1465.6913    510.18761    433.51622    -61.39354    37373.809 
  193600    307.11239   -1500.0919     503.9928    389.88262   -503.73065    37373.809 
  193700    296.43087   -1498.2241    502.71244    342.26496   -327.03834    37373.809 
  193800    297.65249   -1499.6381    499.87854    343.53022   -433.89492    37373.809 
  193900    312.41849    -1509.755    500.95619    401.12905   -624.09129    37373.809 
  194000    291.27496   -1467.4861    495.57366    342.59588   -818.33837    37373.809 
  194100    305.20834   -1445.4366    501.25009    433.20244   -547.30242    37373.809 
  194200    295.85727   -1491.4898    484.13109    327.82932   -228.86721    37373.809 
  194300    302.45073   -1515.1981    513.47228    363.21814   -212.10517    37373.809 
  194400    299.59594   -1522.8275    486.08306    315.31597     604.4193    37373.809 
  194500     300.6912   -1496.7756    467.34563    327.57335    81.177111    37373.809 
  194600    299.46461    -1495.865    507.15539    362.75812     237.0672    37373.809 
  194700    306.37455   -1452.0631    506.29742    436.88623   0.45428722    37373.809 
  194800    299.14113   -1469.7852    505.44578     385.6685    7.3438063    37373.809 
  194900    298.56524   -1494.8192    527.19669    379.78645   -399.15968    37373.809 
  195000    299.98815   -1494.7313     531.1489    390.24804   -65.554448    37373.809 
  195100    312.24722   -1453.4881    504.03993    459.70675    176.28117    37373.809 
  195200    311.12173   -1465.8797    514.39112    452.58716   -113.80737    37373.809 
  195300    298.68146   -1528.8783    499.05506    318.11022   -150.80866    37373.809 
  195400    293.01624   -1530.7149     519.1221     310.7738    153.02072    37373.809 
  195500    295.12096   -1503.6002    475.67012    303.93499   -540.28456    37373.809 
  195600    298.73705   -1512.4395    518.94987     354.6947    -505.0498    37373.809 
  195700    302.88922    -1514.308    501.27606    353.89083   -239.88658    37373.809 
  195800    293.42464   -1553.5073    471.14746    241.84978   -191.28721    37373.809 
  195900    317.44574   -1572.7969     521.5963    381.41502   -558.62879    37373.809 
  196000    296.23351     -1513.14    527.35459     351.1005   -378.32984    37373.809 
  196100    300.45106   -1545.6286    497.85606    308.14698   -237.54361    37373.809 
  196200    302.72616   -1535.4933    513.47759     344.1712    260.52205    37373.809 
  196300    296.23921   -1515.2461    514.04673    335.71234     4.126342    37373.809 
  196400    304.44065   -1476.1085    509.95903    407.77489    209.21221    37373.809 
  196500    303.00192   -1497.3267    490.65655    360.76125   -80.566715    37373.809 
  196600    304.86304   -1500.6874    499.11105    374.25418    83.626213    37373.809 
  196700    297.82482   -1491.1099    508.00152     360.9591    6.3197404    37373.809 
  196800    303.04901   -1522.8514    482.49672    327.28926   -379.27519    37373.809 
  196900    297.24977    -1502.119    520.78963    360.14292   -70.383119    37373.809 
  197000    297.43429    -1531.996    522.06653     332.3755    682.92508    37373.809 
  197100    295.64507   -1535.5391    511.45138    310.14259    440.38795    37373.809 
  197200    304.37032   -1565.6831    497.84304    305.76694    549.68698    37373.809 
  197300    292.20393   -1548.3925    500.40881    270.71704   -137.13339    37373.809 
  197400    307.46271   -1525.4241    505.00134    367.14003   -218.43037    37373.809 
  197500    302.39279   -1514.9933    513.67025    363.35937   -40.661079    37373.809 
  197600     291.8241   -1532.3395    498.38253    283.02956   -24.436204    37373.809 
  197700    298.28676   -1530.6114    519.25801    334.79879   -504.73331    37373.809 
  197800    300.73472   -1531.8295    507.12431     332.4945   -920.81395    37373.809 
  197900    295.88014   -1531.1514    466.52055    270.66031   -243.91699    37373.809 
  198000    292.36557    -1546.514    517.26815     290.1843    34.032255    37373.809 
  198100    293.50335   -1506.5087    506.39996    324.45611    227.68565    37373.809 
  198200    293.61775   -1528.1032    503.52438     300.5023    471.46354    37373.809 
  198300    309.80139   -1496.7053    495.16188    396.57366    252.56111    37373.809 
  198400    300.81978   -1515.7006    497.64511     339.5281   -346.59273    37373.809 
  198500    298.37191   -1501.2889    477.26961    322.51715   -161.04679    37373.809 
  198600     299.0658   -1485.0418    510.36199    374.98806   -557.25355    37373.809 
  198700    302.24886   -1545.4108    503.00826    321.63037   -517.23811    37373.809 
  198800    289.90413   -1533.9026    506.16079    280.58001    129.93394    37373.809 
  198900    307.76401   -1535.5521     486.5043    339.87471    166.35553    37373.809 
  199000    300.35877   -1570.3835    490.83889    275.95842    84.493824    37373.809 
  199100     291.5611   -1554.7749     503.6435    264.66824    321.53447    37373.809 
  199200    309.02733   -1548.5102    496.36163    342.47524    51.576546    37373.809 
  199300    296.07075   -1545.7525    511.28453    301.68349   -71.720635    37373.809 
  199400    299.82537   -1492.2781    503.42342     364.2412   -72.053067    37373.809 
  199500    300.37605   -1530.3504    492.61338    317.84397     536.4694    37373.809 
  199600    295.64037    -1520.641     514.8871    328.45521    167.22798    37373.809 
  199700    300.62123   -1507.8167    489.60113    338.47191   -20.650406    37373.809 
  199800    295.43685   -1522.7055    509.99745    320.58262   -152.39252    37373.809 
  199900    300.17316   -1524.2762    509.57045    339.95962    82.260971    37373.809 
  200000    292.72201   -1480.6963    511.00918    351.35158   -218.48184    37373.809 
  200100    301.35174   -1468.8713    495.69345     386.8064   -475.96387    37373.809 
  200200    302.93338   -1495.1972    510.51317    382.43813   -212.88346    37373.809 
  200300    290.43978   -1437.3871    518.64008    391.99213   -1013.7742    37373.809 
  200400    297.48873   -1457.0219    540.86062    426.38939   -756.63208    37373.809 
  200500    288.66188   -1484.3417     532.1127    350.48658   -301.53886    37373.809 
  200600    299.00833   -1446.7006    500.87924    403.58718   -413.66408    37373.809 
  200700    291.23516   -1483.4337    520.13786    351.03283   -245.73959    37373.809 
  200800    290.04551   -1477.9497    501.39117    332.40131    81.545138    37373.809 
  200900     302.8752   -1500.0554    513.49579    380.29997    270.86123    37373.809 
  201000    300.35305   -1527.9916    509.44633    336.93197     246.2806    37373.809 
  201100    295.25355   -1512.2176    505.55185     325.7977    552.08207    37373.809 
  201200    287.99859   -1552.5298    497.38907    244.58151     -91.0988    37373.809 
  201300    293.15122   -1560.8782    497.93219    260.02973   -610.02692    37373.809 
  201400    301.12098   -1519.0744     504.8108    344.67925   -489.14966    37373.809 
  201500     301.0478   -1475.2498    502.15985    385.52262   -24.524904    37373.809 
  201600    289.00643   -1489.2114    500.64549    315.70458   -344.40446    37373.809 
  201700     300.4275   -1506.0658    497.52465    347.27207   -74.161992    37373.809 
  201800    297.58929   -1497.0076    473.46667    319.46362    663.57194    37373.809 
  201900    310.58278   -1507.9183    528.06562    421.79074    293.49521    37373.809 
  202000    296.39676   -1503.4111    502.39386    336.60542    104.93158    37373.809 
  202100    293.20059   -1487.7568    509.37201    344.81373   -12.005152    37373.809 
  202200    296.24844   -1477.0319    484.29116    344.21258   -343.84009    37373.809 
  202300    303.40733   -1463.8106    512.36759    417.81804    112.96622    37373.809 
  202400    306.66099   -1483.1617    512.37544     413.1584   -50.975429    37373.809 
  202500    298.47587   -1488.0378    482.90049     341.8683   -313.82686    37373.809 
  202600    305.34518   -1486.7645    513.17632    404.41827   -342.32372    37373.809 
  202700     299.8779   -1500.4717    491.72785    344.58908    251.48622    37373.809 
  202800    298.21649   -1497.1414    487.26333    335.95695   -204.25132    37373.809 
  202900    301.43473   -1521.5673    474.58542    313.37688    193.43238    37373.809 
  203000    292.56126   -1518.3965     484.1894     286.1062    330.15051    37373.809 
  203100    305.14978   -1554.0734    491.56819    314.61934   -229.12292    37373.809 
  203200    294.38313   -1513.0022    488.43308    303.96617   -500.92122    37373.809 
  203300    298.45819   -1521.9165    505.87148    330.88077   -26.778555    37373.809 
  203400    295.43622    -1514.564    505.26227    323.98613    -124.5881    37373.809 
  203500    298.76028   -1477.6054    500.46234    371.14612    86.708999    37373.809 
  203600    294.75118   -1487.5811    497.33947    339.95468    273.42507    37373.809 
  203700    296.03547    -1504.935    489.14227    320.19953    317.71423    37373.809 
  203800    310.27616   -1513.2343    499.39171    386.41705   -32.732484    37373.809 
  203900    309.56296   -1483.4302    497.14368    410.75452   -313.29731    37373.809 
  204000    304.01728   -1474.3962      492.491    390.10847   -751.24302    37373.809 
  204100    303.27904     -1523.84    483.21539    328.05746   -698.71492    37373.809 
  204200    304.16529   -1494.0188    505.51189    384.17472  -0.87999671    37373.809 
  204300    304.45753   -1511.2346    488.21571    350.98164    -117.7032    37373.809 
  204400    301.74097   -1521.6257    532.79586    372.91098   -547.76039    37373.809 
  204500    303.17009   -1475.0377    516.85032    410.00302    134.38343    37373.809 
  204600    298.45455   -1531.6807    489.57222    304.80093   -229.10091    37373.809 
  204700    296.67805   -1512.5784    508.16531    334.47906    -523.7968    37373.809 
  204800    301.76535   -1490.9745    495.49014    366.36652   -248.11002    37373.809 
  204900    288.58469   -1487.1273    505.61502    320.85499   -276.84529    37373.809 
  205000    311.01701   -1496.5032     505.1453    412.24516    915.96018    37373.809 
  205100    298.43833   -1459.0387    491.35667    379.15412    498.18696    37373.809 
  205200    304.94753   -1477.6529    528.31589    426.87482   -42.085595    37373.809 
  205300    299.41109   -1497.5907    463.64314    317.27865   -342.01104    37373.809 
  205400    293.23007   -1550.8868    503.55029    275.99508   -235.05339    37373.809 
  205500    303.03306   -1501.2139    515.40866    381.76674    166.96572    37373.809 
  205600    304.63903   -1479.5674     488.8929    384.14515   -155.24931    37373.809 
  205700    296.30927    -1469.227    499.59263    367.59347   -163.11775    37373.809 
  205800    304.32227   -1505.6707    503.62975    371.34915   -167.28887    37373.809 
  205900    296.46971   -1523.9423    483.10036    297.10994    -38.92042    37373.809 
  206000    294.51365   -1492.6735    492.40272    328.85357   -148.90494    37373.809 
  206100    284.64696   -1470.1419     493.0342    307.48876    -151.0723    37373.809 
  206200     307.8939   -1477.3986    493.17818    405.28823   -173.76773    37373.809 
  206300     300.4934   -1503.1483     475.5587    328.52101   -205.85737    37373.809 
  206400     306.6189   -1518.8068    488.88013      353.828    511.22172    37373.809 
  206500    293.69555   -1532.0213    492.41827    285.82919    474.80175    37373.809 
  206600    302.78711    -1503.325    516.53858    379.67562    906.26766    37373.809 
  206700    304.57174    -1532.945    500.45198     342.0229    748.33866    37373.809 
  206800    300.25922    -1551.864    504.51944    307.70921    107.40026    37373.809 
  206900    305.57104   -1512.1642    507.63977    374.50127    334.22988    37373.809 
  207000    309.37638   -1501.4195    494.00891    388.78846    9.8981438    37373.809 
  207100    296.64454    -1505.278    511.38532     344.8482    354.65563    37373.809 
  207200    295.57796   -1484.6844     520.0949    369.33793    84.848401    37373.809 
  207300    296.94612   -1499.7152    505.60734    345.99402   -126.56148    37373.809 
  207400    296.62704   -1467.3583    515.54773    386.85138    176.44246    37373.809 
  207500    297.00766   -1517.0553    518.93391    342.25825      617.197    37373.809 
  207600    311.41705    -1490.655       487.92    402.67347    384.47904    37373.809 
  207700    297.24198   -1463.2229    485.18651    363.40075    -119.5789    37373.809 
  207800    305.60957   -1475.6327    517.88855    421.45549   -549.12568    37373.809 
  207900    297.03684   -1496.2871    483.83747     328.0617   -1030.9346    37373.809 
  208000    307.06405   -1490.5133    461.12453    356.37483   -556.09119    37373.809 
  208100    310.21061   -1524.8171    484.05912    359.20586   -87.208922    37373.809 
  208200    293.70524   -1522.1129    501.61827    304.98133    14.881337    37373.809 
  208300    302.97531    -1491.261    496.78607    372.83642   -172.58225    37373.809 
  208400    298.96587   -1464.8275    516.90593    401.29544   -250.77982    37373.809 
  208500    310.78722   -1485.8704    516.98095     433.6766   -378.94575    37373.809 
  208600    291.37005   -1523.2157    495.12463     286.8463   -14.946354    37373.809 
  208700    295.52405    -1523.291    488.40499    298.79816   -13.461194    37373.809 
  208800    296.46134   -1544.4708    492.46863    285.91198   -298.34643    37373.809 
  208900    302.70596   -1531.7335    507.65314    342.01544    40.391342    37373.809 
  209000    305.97795   -1483.8878    478.16498     375.1393    231.60848    37373.809 
  209100    290.63689   -1530.8397    493.40199    274.19102   -32.664659    37373.809 
  209200    298.07254   -1532.8039    507.66276    320.04423    538.20047    37373.809 
  209300     300.9577   -1554.7587    491.16148    294.60871    651.13222    37373.809 
  209400    313.72834   -1551.0774    502.14103    366.90281    816.94334    37373.809 
  209500    312.71657   -1509.0844     505.1366    407.32534    935.81083    37373.809 
  209600    287.85085   -1519.0316    520.57761     300.6015    1055.2483    37373.809 
  209700    297.61315   -1509.8801    496.86142    330.09348    594.13619    37373.809 
  209800    291.96568   -1472.8293    492.62342    337.41954     224.1993    37373.809 
  209900    305.74114    -1523.381    495.42121    351.83359    597.39114    37373.809 
  210000    302.81149   -1493.0722    511.15221    384.65204    396.71324    37373.809 
  210100    299.31326   -1522.4291    486.88353    315.23915    1.0967127    37373.809 
  210200    305.81027   -1516.0839     494.1047    358.12613    249.17453    37373.809 
  210300    292.36779   -1478.0191    495.77985    337.20087   -8.1255067    37373.809 
  210400    285.92747   -1515.1759    506.99711    282.19658     238.5133    37373.809 
  210500    301.89833   -1512.5204    497.75415    347.68478    400.81749    37373.809 
  210600    296.32981   -1535.7223    522.16471    323.76298     607.4155    37373.809 
  210700    295.98369   -1516.6821    486.42549    305.50196    646.95432    37373.809 
  210800    312.11342   -1489.1418    515.20643    434.61573    119.61377    37373.809 
  210900     306.4112   -1477.8439    495.00776    399.98121   -296.80686    37373.809 
  211000     304.4328   -1509.1633    511.40801     376.1336   -553.45247    37373.809 
  211100    306.94131   -1539.9565    491.39905    336.65222   -22.959447    37373.809 
  211200    288.51258   -1514.1175    497.76642    285.69072   -435.02584    37373.809 
  211300    304.69214   -1528.1329    493.13972    340.06613   -410.31609    37373.809 
  211400    291.38141   -1513.9385    508.41623     309.4664    -291.3954    37373.809 
  211500    306.16722    -1502.382    488.72027    368.05453   -531.11788    37373.809 
  211600    303.88881   -1493.1853    507.23941    385.48799   -245.21041    37373.809 
  211700    301.65903   -1479.7915    494.43134     376.0109   -1187.8401    37373.809 
  211800    307.05511   -1500.8567    499.25667    384.12323   -656.41142    37373.809 
  211900    302.72854   -1462.9709    526.88989    430.11666   -480.69267    37373.809 
  212000    297.86469    -1488.126    506.44767    362.56909   -267.00953    37373.809 
  212100    289.51433   -1526.9237    499.94979    279.58873   -17.806928    37373.809 
  212200    289.10095   -1515.8488    504.86492    293.71324    349.98574    37373.809 
  212300    292.34456   -1548.4948    503.16752      274.008    339.05006    37373.809 
  212400    297.77749   -1508.0456    493.30259     329.1108   -114.97784    37373.809 
  212500    302.98634   -1488.3862    533.68381    412.65874   -431.14755    37373.809 
  212600    296.87229   -1536.3437    495.22712    298.65218   -30.184468    37373.809 
  212700    296.36893   -1522.6977    505.07321     319.8726   -377.54242    37373.809 
  212800    297.39684   -1519.9812    508.58097    330.73576   -232.02594    37373.809 
  212900    298.94677   -1494.9865    511.89025    366.03448    11.075274    37373.809 
  213000     292.3299   -1494.5398    528.74755    353.47697   -375.05087    37373.809 
  213100    308.71799   -1492.2317    497.89812    398.89415    128.94049    37373.809 
  213200    291.36981   -1477.8637    522.38165    359.45427    -28.13549    37373.809 
  213300    302.70156   -1493.6572    514.21183    386.63057    807.58542    37373.809 
  213400     303.8353   -1518.8439    497.27265     349.6212    424.91713    37373.809 
  213500    297.60587   -1493.7504    515.54738    364.87632    734.13901    37373.809 
  213600    297.68275   -1469.4493    499.09663    373.07367    954.26284    37373.809 
  213700    304.95701   -1491.1073    494.88402    380.03138    282.84127    37373.809 
  213800     301.7407   -1448.5326    529.60409    442.81111    547.10853    37373.809 
  213900    295.90543   -1456.1588    521.22641      400.473    91.943589    37373.809 
  214000    302.04117   -1485.7783    530.27847    407.59579   -304.87691    37373.809 
  214100    288.89668   -1527.8228    527.35964    303.31209   -593.57276    37373.809 
  214200    292.45754   -1497.5064    529.57534    351.91415   -442.54931    37373.809 
  214300    305.70293   -1515.1414    491.12137    355.60089   -509.65829    37373.809 
  214400    300.33921   -1544.1848    499.86262     311.0926   -7.2421817    37373.809 
  214500    293.06894   -1529.6303     543.0244    335.99856   -371.13474    37373.809 
  214600    293.35529   -1514.5807    500.72131     310.0373   -100.70478    37373.809 
  214700    305.00243   -1545.6845    502.71987    333.49497   -235.07638    37373.809 
  214800    304.71506   -1539.0615    483.95612    320.05732    32.243858    37373.809 
  214900    303.22248   -1475.6953    514.19486    406.92634    647.83907    37373.809 
  215000    290.56159   -1515.6955     526.7684    322.36176    390.01519    37373.809 
  215100    303.49811   -1466.0236    522.47468     426.1218    546.80969    37373.809 
  215200    299.63413   -1473.0023    531.28135    410.51182    120.82435    37373.809 
  215300      310.587   -1472.3762    506.00816    435.29444    286.92087    37373.809 
  215400    290.38967   -1509.1872    503.95011    305.27594   -232.94452    37373.809 
  215500    315.20182   -1479.3665    509.74217    452.86456   -588.46393    37373.809 
  215600    296.81306   -1515.1998     485.3244    309.62605   -409.00905    37373.809 
  215700    301.97646   -1510.3778    543.31509    395.74084     30.30602    37373.809 
  215800    298.93737   -1507.0219    499.02528    341.09173   -216.13881    37373.809 
  215900    301.15621   -1514.1576    512.88841    357.83264    106.71985    37373.809 
  216000    295.88005   -1476.3871    515.14382    374.04758     -330.903    37373.809 
  216100    282.35755    -1489.022    514.55448    299.79696   -621.71335    37373.809 
  216200    291.97829   -1502.8623    503.37917     318.1992   -219.21642    37373.809 
  216300    303.53095   -1507.1441    493.32038    355.99523   -241.27278    37373.809 
  216400      300.501   -1475.7102    497.82721    378.26196    509.32881    37373.809 
  216500    287.89571   -1487.0004    532.72772    344.98524    366.11071    37373.809 
  216600    303.32174   -1519.8052    503.40898    352.47855    -334.7668    37373.809 
  216700    298.32819   -1502.6036    483.62235    327.35789   -541.52748    37373.809 
  216800    312.58384   -1469.8235    476.63199    417.48262   -234.78394    37373.809 
  216900    301.25848   -1493.3355    513.67223    379.90017     157.9117    37373.809 
  217000     299.2595   -1514.8367    510.34434    346.04974    169.62373    37373.809 
  217100    297.39486   -1555.3256    506.80688    293.60833    320.07695    37373.809 
  217200    306.61685   -1528.9534    515.25798    370.04998    -175.4793    37373.809 
  217300    310.95741   -1558.7172     511.9597    356.57659    -114.1273    37373.809 
  217400    305.50243   -1544.0402    477.61781    312.29369    31.028065    37373.809 
  217500    303.30402   -1531.2791    494.64451    332.16021    149.65761    37373.809 
  217600    296.73697   -1533.1861    494.32266    300.29464    541.13079    37373.809 
  217700    294.56437   -1533.7393    490.71662    286.33055    767.30563    37373.809 
  217800    300.44187   -1516.0108    513.79851    353.66574    317.76989    37373.809 
  217900    302.51555   -1535.1717    506.28673    336.35153    106.35124    37373.809 
  218000    300.42327   -1508.6503    510.74027    357.88416    297.72565    37373.809 
  218100    295.96337   -1482.3036    510.30724    363.67041      299.445    37373.809 
  218200    304.64264   -1493.9427    519.14458    400.03776   -75.037524    37373.809 
  218300    292.02307   -1535.6359    492.75698    275.00554    206.49691    37373.809 
  218400    299.39854    -1497.309    501.61031     355.4709    133.83248    37373.809 
  218500    307.23785   -1513.5134     493.5566    366.59113    246.07073    37373.809 
  218600    307.14561   -1503.7553    497.99453    380.37089   -305.45299    37373.809 
  218700    301.52574   -1478.7035    506.37549    388.44147    273.34737    37373.809 
  218800    304.74766   -1489.4458    523.14712    409.01115    193.59675    37373.809 
  218900    298.69787   -1485.5773    529.37711    391.80726    586.65695    37373.809 
  219000     282.7824    -1454.522    545.00218    366.66193    23.564992    37373.809 
  219100    301.52819   -1470.9137    529.24224    419.10908   -40.752152    37373.809 
  219200    293.31567   -1449.1875    492.59199    367.12241   -262.45463    37373.809 
  219300    296.64883   -1481.1683    507.59298    365.18494   -486.33788    37373.809 
  219400    303.62366   -1461.6484    512.60007    421.18898   -822.54366    37373.809 
  219500    300.06806   -1488.5115    495.77425    361.45379   -880.80074    37373.809 
  219600    292.36024   -1509.4616    492.46699    302.41146   -548.17712    37373.809 
  219700    303.32108   -1481.9954    524.17514    411.05151    -11.32437    37373.809 
  219800    309.22396   -1507.1745    489.04984    377.38647    28.494606    37373.809 
  219900    306.02693   -1489.1993    508.10769    399.99154    103.76473    37373.809 
  220000    303.04669   -1506.7824    513.41914    374.27018   -62.940507    37373.809 
  220100     305.3781   -1545.0925    494.86956    327.93203   -70.108809    37373.809 
  220200    298.94399   -1495.8479    499.48484    352.75519    16.760936    37373.809 
  220300    290.29453   -1489.9945    504.84607    324.93526    560.50858    37373.809 
  220400    302.82764   -1471.7808    502.18427    397.04833    559.57511    37373.809 
  220500    297.29569   -1533.6989    500.01238    307.99297    29.647536    37373.809 
  220600    304.38836   -1467.3666    523.02075    429.34253   -6.6853484    37373.809 
  220700    294.68879   -1436.6131    512.72714    406.02874   -80.292058    37373.809 
  220800    303.17318   -1431.4211    514.01608    450.79931    -279.0256    37373.809 
  220900    287.20534   -1453.9179    510.98756    353.21202    241.32816    37373.809 
  221000     296.0594   -1485.5629    514.70244    365.23978    419.28027    37373.809 
  221100    300.17305   -1467.0547    523.31379    410.92395     367.2101    37373.809 
  221200    295.62858   -1504.1875    504.79257    334.76106    749.14823    37373.809 
  221300    304.57254   -1529.0375    505.24494    350.72699    679.55432    37373.809 
  221400    291.49049   -1510.7897    519.83146    324.52273    1147.3005    37373.809 
  221500    304.33833   -1512.6155    505.48632    366.33339     792.0564    37373.809 
  221600    293.47078   -1487.5244    515.72301    352.61649    186.21514    37373.809 
  221700    298.09182   -1502.6384    525.91709    368.55115   -139.73155    37373.809 
  221800    295.42132   -1506.0627    507.20238    334.36027    151.43476    37373.809 
  221900    302.67353   -1548.4457    495.98776    313.49145    450.07955    37373.809 
  222000     298.2277   -1545.0797    509.80391    310.60987    330.68257    37373.809 
  222100    296.73556   -1557.4899    523.21959    304.88133   -374.61298    37373.809 
  222200    289.29965   -1510.8147    524.15219    318.93133    -351.7695    37373.809 
  222300    309.19784   -1567.2625    470.45807    298.58888   -435.71296    37373.809 
  222400    308.91918   -1532.7534    527.61459    388.99693   -303.14415    37373.809 
  222500    303.29013   -1525.8345    524.19831    367.09586    185.91116    37373.809 
  222600    294.31954   -1551.4611    469.54963    246.33679   -333.95335    37373.809 
  222700    307.24008   -1533.6993    518.72868    371.58742   -394.65634    37373.809 
  222800    301.58143   -1559.0888    517.10971    319.04173   -30.286794    37373.809 
  222900    304.86245    -1496.713     518.1961    397.31097    314.51865    37373.809 
  223000    307.78959   -1497.6622    521.03478    412.41048    612.93561    37373.809 
  223100    302.31619   -1537.1699    486.83198    313.99885    39.306273    37373.809 
  223200    301.38437   -1558.5856    499.80372    301.34966    33.759343    37373.809 
  223300    294.88412   -1549.2081    484.28396    265.87213   -438.51356    37373.809 
  223400    301.47458   -1543.9955    493.24963    309.79278   -410.35459    37373.809 
  223500      305.736   -1507.0905    498.42743    371.10714   -649.30572    37373.809 
  223600    297.27085   -1547.6714    488.02501    281.92098    -327.9454    37373.809 
  223700    297.00965   -1542.1854    500.11509     298.3183    171.54144    37373.809 
  223800    300.24846   -1564.6315    518.46592    308.83959    190.98275    37373.809 
  223900    290.54963   -1557.9543    491.99425    245.27491   -198.00409    37373.809 
  224000    310.88328   -1518.6056    511.54241    395.93636   0.48403356    37373.809 
  224100    303.16788   -1589.0336    508.71935    287.86621    12.537355    37373.809 
  224200    299.72547   -1554.8947    508.31619    306.06643    332.81977    37373.809 
  224300    294.01758   -1577.8875     505.5183    254.51638    229.84644    37373.809 
  224400     300.4175   -1552.9585    494.05841    296.86798    347.12121    37373.809 
  224500    305.71908   -1514.2872    514.44293     379.8496    583.69277    37373.809 
  224600    297.14402   -1533.6235    490.81474    298.18625    279.74522    37373.809 
  224700    298.42384    -1548.911    517.57287    315.43272    31.128078    37373.809 
  224800     285.1468   -1546.1165    509.55767    250.29338   -238.22169    37373.809 
  224900     303.8035   -1527.6985    495.40181    338.75222    105.89303    37373.809 
  225000    301.77728   -1522.3169    511.97462    351.56239   -350.63923    37373.809 
  225100    301.40011   -1537.6019    474.94575     297.5464    396.51939    37373.809 
  225200     301.4192   -1513.1018     521.7879    368.97485    111.79233    37373.809 
  225300    291.72828   -1506.6139    525.38199    335.32219    473.80945    37373.809 
  225400    312.40195   -1499.2662    517.40803    427.99511   -66.881937    37373.809 
  225500     305.7424   -1483.3247    485.66293    382.13723   -377.99149    37373.809 
  225600    294.20054   -1514.5411    518.43336    331.60347     133.5199    37373.809 
  225700    301.64185   -1537.7633    499.98748    323.51765   -32.752208    37373.809 
  225800    300.15702   -1485.1429    506.86233    376.31201    150.30195    37373.809 
  225900    288.59797   -1518.8945    503.53921    287.07188   -350.80237    37373.809 
  226000    292.61788   -1516.8983    510.88781     314.5583    -411.8641    37373.809 
  226100    302.45463   -1503.3781    516.95958    378.54304   -597.00446    37373.809 
  226200    300.40738   -1475.9902    500.39461    380.12682   -539.05129    37373.809 
  226300    298.93826   -1548.0384    472.45339    273.50732   -699.27667    37373.809 
  226400    308.06027   -1521.0605    525.98535    395.18433    -90.33552    37373.809 
  226500    299.26454    -1533.596    506.31409    323.28296   -179.23097    37373.809 
  226600    296.93144   -1533.7114    482.43074    288.75498   -433.06019    37373.809 
  226700    310.27133   -1544.4442    497.94052    353.73416    240.58788    37373.809 
  226800    299.33626   -1532.2369    479.78132    298.43296   -681.89786    37373.809 
  226900    300.86764   -1539.2858    490.77468    309.28835   -316.61244    37373.809 
  227000    294.06892   -1540.0131    516.00128    303.10545    694.04213    37373.809 
  227100    296.45763   -1532.6056     526.9218     332.2136    29.229131    37373.809 
  227200    290.08704   -1553.7461    485.15208    240.55327    395.03698    37373.809 
  227300    291.92038   -1541.7368    515.43254    291.11679    744.74386    37373.809 
  227400    298.09145   -1549.2076    532.71654    328.77973   -72.211185    37373.809 
  227500    303.32497   -1547.5977    506.85803    328.14968    38.630855    37373.809 
  227600    292.74426   -1559.3246    490.47229    252.28688   -109.64066    37373.809 
  227700    302.24556   -1546.1127    508.61045    326.51575   -134.52273    37373.809 
  227800    289.31564   -1564.2043    469.11421    210.57592    258.60795    37373.809 
  227900    297.80399   -1568.7247    496.67514    271.92388    662.21452    37373.809 
  228000    288.68774   -1585.2225    503.82032    221.43008   -371.02641    37373.809 
  228100    301.53629   -1535.8367    522.05536    347.03584    402.35658    37373.809 
  228200     303.5754   -1554.6773    505.64687    320.98906    684.86846    37373.809 
  228300    291.68645   -1545.5211    488.45364    259.29789   -164.93272    37373.809 
  228400     301.1209   -1523.0386    502.70321     338.6071   -123.28618    37373.809 
  228500    298.73588   -1476.5942     513.7187    385.30355    29.148073    37373.809 
  228600    309.81842    -1517.183    512.70976    393.72071    11.145777    37373.809 
  228700    295.61074   -1522.0997    516.66874    328.64444   -638.84729    37373.809 
  228800    298.52834   -1502.3217    504.88098    349.80171   -58.677667    37373.809 
  228900    299.71066   -1495.8961    508.16772     364.8498   -529.71449    37373.809 
  229000      316.122   -1491.7894    501.53989     436.3921   -390.52261    37373.809 
  229100     307.8602   -1508.3026    506.44183    387.49582    28.699529    37373.809 
  229200    299.93311   -1509.8933    500.17839    343.86712   -243.94813    37373.809 
  229300    310.24198   -1507.3315    535.91282    428.68672    159.16122    37373.809 
  229400    295.10619   -1503.0217    515.44415     344.2209    805.06002    37373.809 
  229500    295.29224   -1506.0022    495.61821    322.25409    331.63394    37373.809 
  229600    311.93369     -1477.79    526.54661    456.49666    999.02903    37373.809 
  229700    308.00127   -1500.0652    494.77918     384.7072    622.77497    37373.809 
  229800    298.17783   -1517.0041     506.4354    335.09185    188.34338    37373.809 
  229900     292.7381   -1537.9977    508.73237    291.84602   -8.8560608    37373.809 
  230000    297.39443   -1551.1447    515.92348    306.90395   -228.44734    37373.809 
  230100    302.50312   -1516.0217    492.31271    341.47136    -73.90136    37373.809 
  230200     299.8903   -1543.1286     523.4747    333.73489    190.11412    37373.809 
  230300    306.46646   -1544.8988    524.64374    362.81162    640.72166    37373.809 
  230400     287.4939   -1523.6628    524.16398    297.94572     100.2917    37373.809 
  230500    304.64906   -1544.1993    502.84122    333.50682   -150.71575    37373.809 
  230600    304.10176   -1549.5166    513.37399    336.25229   -245.90782    37373.809 
  230700    306.97622   -1540.0824    487.94808     333.2329    365.20526    37373.809 
  230800    304.87168   -1528.1126    515.08093    362.83791    244.53587    37373.809 
  230900    299.39128   -1495.6674    522.57904    378.04843    98.236675    37373.809 
  231000     292.9654   -1454.1724    533.95808    401.92285    37.481985    37373.809 
  231100     309.8583   -1518.3986    501.90243    381.87767    305.52762    37373.809 
  231200    302.91963   -1536.9044    488.57878    318.73446   -134.70504    37373.809 
  231300    314.05981   -1533.7606    526.15355      409.728    311.65374    37373.809 
  231400    301.59622   -1552.9816    493.64562    301.75163    81.248844    37373.809 
  231500    298.09285   -1521.2811    513.37313    337.36906   -501.53918    37373.809 
  231600    299.31057   -1491.6786    514.18602       373.28   -250.03305    37373.809 
  231700    293.77737   -1510.2484    512.50957     328.0627    106.51966    37373.809 
  231800    294.36598   -1572.1032    508.36724    264.72196   -139.45699    37373.809 
  231900    307.12456   -1498.1513    490.98979     378.8752    149.10512    37373.809 
  232000    295.14239   -1503.0112    523.56798    352.51863   -224.71242    37373.809 
  232100    297.15441   -1495.5746    509.11503    354.58236   -827.79522    37373.809 
  232200    296.76304   -1502.8482    507.97316    344.40063   -65.374341    37373.809 
  232300    309.80092   -1519.9048    484.44079    362.65093    153.83039    37373.809 
  232400    290.36506   -1514.8099    513.51224    309.10433    -7.059748    37373.809 
  232500    303.72345   -1519.9143    496.14839    346.92172    71.264739    37373.809 
  232600    296.95854   -1490.8577    490.75386    340.05411   -151.83873    37373.809 
  232700      298.737   -1480.6936    507.04843    374.53894   -126.53953    37373.809 
  232800    296.53471     -1534.17    536.05772    340.13301   -568.13887    37373.809 
  232900     297.3513   -1536.2577     516.0382    321.71097    341.72858    37373.809 
  233000    292.26584   -1542.8257    477.12268     253.2771    95.649055    37373.809 
  233100    306.44972   -1517.8411    510.08442    375.23449    187.35692    37373.809 
  233200    292.32668   -1529.0596    504.16288    294.35795   -187.20494    37373.809 
  233300    300.68422   -1505.4681    479.60348    331.10716   -129.15688    37373.809 
  233400    296.68711   -1512.5895    490.58987     316.9334   -208.86525    37373.809 
  233500    302.92586   -1570.7525    492.65625    288.99192   -381.98694    37373.809 
  233600    293.68383    -1575.133    509.57308    259.81948   -465.52456    37373.809 
  233700    294.39982   -1500.0986    499.92777    328.43979   -204.26158    37373.809 
  233800    301.33739   -1584.9226    493.09643    268.09334   -696.77789    37373.809 
  233900      306.879   -1525.5933     498.6179    357.95306   -93.627642    37373.809 
  234000     304.0933   -1545.7895    507.45932    334.02662   -67.232043    37373.809 
  234100    295.74257   -1506.2067     491.2763       319.74     476.5964    37373.809 
  234200    298.30153   -1519.4464    528.90735    355.67974    383.98123    37373.809 
  234300    305.28734   -1538.0834    486.39439    326.05637    387.48134    37373.809 
  234400    291.47529   -1485.4638    524.52938    354.47793    85.011964    37373.809 
  234500    308.57842   -1521.9553    504.33037    374.97293    125.46478    37373.809 
  234600     294.3356    -1483.306    505.05961    350.07445     490.6576    37373.809 
  234700    304.59173   -1502.3269    534.69265    406.97192    215.35895    37373.809 
  234800    293.64869     -1537.97    483.47363    270.72439   -77.392174    37373.809 
  234900    302.69985    -1511.263    483.17162    337.97682   -158.88353    37373.809 
  235000    291.31996   -1498.9856    490.04696    305.77273   -639.97491    37373.809 
  235100    304.16083   -1539.2223    475.35924    308.79847   -662.35086    37373.809 
  235200    312.87684   -1494.0905    490.88479    408.79066   -988.17601    37373.809 
  235300    293.39784   -1515.5567    491.29517    299.82716   -357.90535    37373.809 
  235400    305.58481   -1468.4276    485.13997    395.80027   -600.02395    37373.809 
  235500    304.40113   -1511.0805     512.7582    375.42369   -371.74055    37373.809 
  235600    296.46105   -1522.5449    486.00265    301.37054   -518.09237    37373.809 
  235700    304.20305   -1518.7505     492.1531    346.25464    334.80485    37373.809 
  235800    302.91063   -1527.0481    501.89538    341.86677     435.1716    37373.809 
  235900    298.97736   -1520.6726     498.0563    326.65246   -28.147342    37373.809 
  236000    308.83043   -1499.1786    505.64616    400.20269    222.02741    37373.809 
  236100    296.77076     -1512.54    479.08974    305.86035   -316.80588    37373.809 
  236200    291.57495     -1575.91     492.4507    232.40286    372.12205    37373.809 
  236300    301.32266   -1551.9321    507.28345    315.20439    330.10271    37373.809 
  236400    283.15671   -1503.6495    493.21047      267.432    148.87047    37373.809 
  236500    289.80754   -1494.2138    508.24825    321.92031   -565.83657    37373.809 
  236600    301.56201   -1482.7061    495.36154    373.58863   -353.32311    37373.809 
  236700    304.74821   -1509.7718    497.73947    363.27995    168.90121    37373.809 
  236800    305.39569   -1518.6009    480.12783    339.76132    351.42295    37373.809 
  236900    297.68493   -1545.7136    513.62236    311.34489    14.791981    37373.809 
  237000    293.68652   -1511.4472    478.83822    292.78257   -121.36101    37373.809 
  237100    298.35229   -1524.5194    490.97233     312.9008    113.03028    37373.809 
  237200    321.18129   -1525.0899    519.03466    443.41871    399.40253    37373.809 
  237300    298.77254   -1543.1238     474.3486    279.56925    342.55992    37373.809 
  237400    298.43363   -1503.8711    505.55468    348.49855    174.91359    37373.809 
  237500    295.68139    -1503.282    503.68173    334.79397    136.90297    37373.809 
  237600    307.44459   -1506.7578    526.25995    406.98307    302.30542    37373.809 
  237700    311.69272   -1540.3781    470.16342    336.43781    167.90223    37373.809 
  237800    298.39286    -1523.263    510.67368    334.04172   -105.85857    37373.809 
  237900    302.04643   -1475.8946    507.31803    394.54278   -264.37486    37373.809 
  238000    301.02188   -1491.8664    481.26019     347.8894    332.15332    37373.809 
  238100     294.2667   -1528.3986    477.77791    277.38915    172.32301    37373.809 
  238200    289.51591    -1516.531    523.20634    313.24511    304.88324    37373.809 
  238300    295.79612    -1476.603    493.34739    351.65646    459.25081    37373.809 
  238400    303.76674   -1509.6395    524.48862    385.73215    710.95818    37373.809 
  238500     296.2998   -1507.0706    494.50702    324.62151    21.659022    37373.809 
  238600    299.62321   -1478.3338    526.78456    400.63424    490.30722    37373.809 
  238700    307.49293   -1515.3983    512.49757    384.79842    336.17711    37373.809 
  238800    300.95349   -1503.0565    503.10726     358.2378     245.6568    37373.809 
  238900    307.42399   -1521.4983    490.57237    356.46211    543.85193    37373.809 
  239000    298.79353   -1514.6554    503.27069     337.0545    377.08639    37373.809 
  239100    301.76781    -1525.594    497.63833    333.90627   -242.19171    37373.809 
  239200    302.20847    -1490.276    527.13765    400.71225   -219.69688    37373.809 
  239300    290.03641    -1517.891     489.1803    280.20813   -595.34585    37373.809 
  239400    297.36909   -1481.4272    513.94332    374.52686   -621.23487    37373.809 
  239500    297.37586   -1480.2559    514.76656      376.552    -23.29492    37373.809 
  239600    306.42442   -1494.8095    522.39921    410.46666   -757.73619    37373.809 
  239700    295.54364   -1486.9659     470.0063    316.81299   -852.88978    37373.809 
  239800    304.69133   -1482.1813    498.03816    390.91247   -64.753334    37373.809 
  239900    296.20521    -1480.861    493.96073    349.85801    -208.6851    37373.809 
  240000    297.84924   -1486.4971    500.84463    358.52515    147.21072    37373.809 
  240100    308.40213   -1503.0943    516.37243    405.08036     263.1235    37373.809 
  240200    305.92736   -1486.5397    515.74774    409.84181    508.13437    37373.809 
  240300    310.13359   -1469.9938    509.38995    439.01245    147.82142    37373.809 
  240400     295.2384   -1481.5931    502.38511    353.18702   -250.07969    37373.809 
  240500    303.48412   -1511.3761     491.1296    349.36102   -469.59324    37373.809 
  240600    298.68011     -1480.56     513.6761    381.04339    -247.2788    37373.809 
  240700    310.38761   -1466.5154    512.27558    446.52284   -544.11612    37373.809 
  240800    294.53054   -1466.3404    492.19457    355.05469   -328.55044    37373.809 
  240900    296.47938   -1446.2937    487.03277    378.73464   -53.550257    37373.809 
  241000    298.90607   -1463.9929    501.87314    386.82736    140.25238    37373.809 
  241100    298.15078   -1472.6588    498.99374    371.87343    387.14811    37373.809 
  241200    303.18663   -1505.3997    499.13522    362.00058     21.02271    37373.809 
  241300    293.44318   -1465.5219    536.34034    395.11181    81.756607    37373.809 
  241400    320.31616    -1449.351    469.42838    465.64706   -266.41116    37373.809 
  241500    301.92343   -1445.6872    483.58982    400.46685   -659.79038    37373.809 
  241600    301.83823   -1420.1985    499.20424    441.18552   -460.08961    37373.809 
  241700    307.99965   -1407.5023    520.98945    503.47312    -576.6575    37373.809 
  241800    301.62386   -1406.8323    492.66023    447.04028   -585.20208    37373.809 
  241900    297.61382   -1422.8431    512.31299    432.58513   -529.91874    37373.809 
  242000    288.39757   -1443.2868    512.70052    370.93649    -707.4261    37373.809 
  242100    295.63264   -1516.5871    504.05792    321.64505   -450.96168    37373.809 
  242200    291.17578    -1516.879    504.12901    301.31075   -414.76013    37373.809 
  242300    290.37197   -1502.7199    473.61378    281.32702   -596.20448    37373.809 
  242400    301.60227   -1494.2558    502.86089    369.71999   -145.60733    37373.809 
  242500    296.62704   -1472.2626     513.9614    380.36075   -522.83739    37373.809 
  242600    290.34431    -1522.856    493.19828    280.65062   -269.49976    37373.809 
  242700    298.91244   -1488.9149    489.42042    349.48135   -404.30249    37373.809 
  242800    296.28081   -1517.2255    492.04029    311.91415   -765.55087    37373.809 
  242900    293.99005   -1522.0727    515.15998    319.84858  -0.73907482    37373.809 
  243000    297.44563   -1466.3978    512.43457    388.39296    184.17017    37373.809 
  243100    294.35731   -1493.1588    485.38127    320.64119    654.84578    37373.809 
  243200     294.0542   -1498.3831     494.9094    323.57715    35.890501    37373.809 
  243300    306.60777   -1471.1218    496.06622    408.64891    189.35876    37373.809 
  243400    291.65789   -1468.1587    477.66944    325.74711    -74.18841    37373.809 
  243500    307.54796   -1481.6146    493.21424    399.54707   -419.61458    37373.809 
  243600    292.34699   -1528.6534    507.40088    298.09375    124.32551    37373.809 
  243700    313.38732   -1511.2588    496.21809    399.25946    563.41849    37373.809 
  243800    299.46112   -1538.2605     493.6717    306.86323    504.66994    37373.809 
  243900    303.92356   -1536.9797    510.73518    345.34624    630.73907    37373.809 
  244000    304.05229   -1529.2467     510.3816    353.30662    1026.3487    37373.809 
  244100    292.16887   -1509.9683    499.99699    308.57116    420.25572    37373.809 
  244200     295.8397   -1491.5062    487.84529    331.44781    225.31351    37373.809 
  244300    311.34765   -1492.5216    506.80035      419.374   -154.21011    37373.809 
  244400    304.84586    -1485.197    480.92352    371.47953    -173.6874    37373.809 
  244500    286.52192   -1478.5176    521.80798    336.34848   -357.58125    37373.809 
  244600     291.8039   -1444.9927    494.80209    366.70473   -618.78111    37373.809 
  244700     297.5414   -1439.2978    501.01064    404.50128   -411.95641    37373.809 
  244800    299.39263   -1443.7798    506.20441    413.56745   -436.26115    37373.809 
  244900    300.45233   -1439.9777    498.98718    414.93477   -118.10919    37373.809 
  245000    290.69813   -1486.3796    513.47427    338.99979    29.968786    37373.809 
  245100    304.41236   -1435.9616    503.03704    440.87208    403.01561    37373.809 
  245200    303.20203   -1444.5973    500.61526    424.35249    143.58262    37373.809 
  245300    288.43055   -1465.5811    492.48738    328.57786    93.090555    37373.809 
  245400    296.84305   -1436.6155    526.76081    429.78213    17.930968    37373.809 
  245500    303.04963   -1486.5918    474.75997    355.81487   -119.28927    37373.809 
  245600    299.28845     -1492.58    497.44491    355.53764    27.487064    37373.809 
  245700    295.97498   -1486.0751    486.00161    335.64573    168.12279    37373.809 
  245800    302.25773   -1475.3637    502.26035    390.96958    73.709827    37373.809 
  245900    298.69174   -1469.2697    515.32172    394.03185    22.222759    37373.809 
  246000    304.89822   -1508.4545    501.16288    368.69771    337.31155    37373.809 
  246100    292.45666   -1510.1145    511.75859    321.48533    603.25401    37373.809 
  246200    295.08368   -1535.5222    488.65195    284.82664    832.08676    37373.809 
  246300    301.86055   -1534.3083    500.07652    328.04874    1010.2467    37373.809 
  246400    300.65877   -1514.1379     506.9586    349.67763    632.54816    37373.809 
  246500    302.36458   -1527.2368    498.50169    335.82004    518.86939    37373.809 
  246600    306.80735   -1524.4625    477.41995    337.56258    367.26925    37373.809 
  246700    304.23412   -1462.6417    483.27547    393.62602   -384.36404    37373.809 
  246800    300.25422   -1500.1442    473.47735    328.36433    -626.4875    37373.809 
  246900    306.68995   -1515.2562    503.76206    372.58114    -198.9965    37373.809 
  247000    291.03134     -1496.86    485.58447    302.13335   -178.97635    37373.809 
  247100     304.3429   -1486.6286    530.46081    417.31537   -811.74184    37373.809 
  247200    289.15635   -1506.4556     508.7921    307.28362   -361.68489    37373.809 
  247300    305.11145   -1482.5364    511.93958    406.35485    -50.99286    37373.809 
  247400    302.75249   -1487.7914    487.64726    366.16167   -380.68394    37373.809 
  247500    295.65485   -1498.0635    486.84421    323.05523   -459.24265    37373.809 
  247600    300.62517   -1454.6447    512.49786    414.55845    705.60679    37373.809 
  247700    299.81114   -1465.0527    490.56936     378.5483    104.75963    37373.809 
  247800     301.2342   -1445.0676    539.86764    454.25386    164.66499    37373.809 
  247900    298.97358   -1486.0072     486.6504    349.89494   -110.02381    37373.809 
  248000    297.05402   -1527.2997    487.92857    301.21771    278.07485    37373.809 
  248100    292.54175   -1512.9641    502.11762    309.37875   -177.14069    37373.809 
  248200    304.28006   -1477.0622     521.1462    417.28362    142.91697    37373.809 
  248300      295.652   -1478.2906    525.94122    381.91228    9.9149451    37373.809 
  248400    304.74017    -1490.447    500.10004     384.9291    295.83226    37373.809 
  248500     293.2754    -1486.453    501.30557     338.3887   -210.87096    37373.809 
  248600     297.3335   -1437.4557    495.93093    400.32537     210.5391    37373.809 
  248700    295.78659   -1511.3192     502.4081    325.95791    72.088645    37373.809 
  248800    299.21002   -1488.9907    538.54448    399.87255    248.91173    37373.809 
  248900    294.59618   -1443.7059    507.93269    393.72358    504.05891    37373.809 
  249000    301.62731   -1420.1724    500.07391    441.12944    269.74376    37373.809 
  249100    299.89688   -1444.6103    518.80917    427.61742   -164.55526    37373.809 
  249200    299.94326   -1429.2815    497.42711     421.7735    317.62608    37373.809 
  249300    307.49449   -1465.1795    508.66258    431.18926   -87.056083    37373.809 
  249400    307.29924   -1431.0805    508.90766    464.65219   -217.58651    37373.809 
  249500    301.47276   -1462.4686    513.19761    411.25942    -161.3438    37373.809 
  249600    301.37434   -1460.2418    481.01385    380.85833    77.941407    37373.809 
  249700    289.74734   -1486.4741     505.3502    326.49037   -13.993848    37373.809 
  249800    298.24297   -1472.9178    478.64181    351.67854   -44.588428    37373.809 
  249900    303.58136   -1484.2184    503.64814    389.47621    413.24963    37373.809 
  250000    302.62745   -1472.3798    506.37632    399.73797    355.18056    37373.809 
  250100    293.29903   -1473.3118    498.27721    348.60824     139.9055    37373.809 
  250200    297.25196   -1496.7011    483.97903    328.76008    405.90008    37373.809 
  250300    289.42272   -1479.3778    526.99942    353.77086    432.60199    37373.809 
  250400    286.88052   -1479.2133    518.56123    334.02433    197.27092    37373.809 
  250500    289.21405   -1426.6253    510.68875    389.27094    224.15016    37373.809 
  250600    303.36323   -1457.2071    506.79238    418.64732    115.03931    37373.809 
  250700    296.86781   -1477.2761    488.10126    350.57369    188.01162    37373.809 
  250800    300.47606   -1454.5751     487.1604    388.61768   -294.90694    37373.809 
  250900     306.5731   -1476.2064     501.4447    408.78629    54.753051    37373.809 
  251000    300.63572   -1480.2007    504.39045    380.94262   -284.99912    37373.809 
  251100    288.96782   -1448.0903    491.94174    347.94768   -708.24824    37373.809 
  251200    300.29286    -1434.313    508.88346    429.77608   -455.76459    37373.809 
  251300    287.02219   -1464.0118    505.71156    337.01556   -217.69572    37373.809 
  251400    296.30744   -1446.4469    497.72611    388.49876   -416.25336    37373.809 
  251500    301.84005   -1452.0382    493.46882    403.61855   -574.28185    37373.809 
  251600    294.32984   -1496.5243    481.50044    313.27098   -700.90556    37373.809 
  251700    291.71476   -1476.0317    494.85737    335.31874    317.81344    37373.809 
  251800    295.46022   -1467.1959    499.44432    365.64458   -43.483967    37373.809 
  251900    293.80216   -1457.8628    513.77842      381.829    220.72286    37373.809 
  252000    289.91098   -1435.3234    514.23139    387.26074   -261.45358    37373.809 
  252100    299.37839   -1457.1567    499.74668    393.66861    317.94378    37373.809 
  252200    294.98429   -1456.1606    494.10694    369.19463   -163.05913    37373.809 
  252300     302.4589   -1457.2554    527.02139    434.74682    90.394308    37373.809 
  252400    295.74006   -1455.7687    458.58102    337.47139   -365.22282    37373.809 
  252500    303.67751   -1446.7086     477.0701     400.8418   -498.01453    37373.809 
  252600    294.34868   -1466.5012     522.6726    384.55124   -625.06263    37373.809 
  252700    299.91425    -1502.739    484.92052    335.67846     -295.503    37373.809 
  252800    298.73185   -1485.4442    481.74307    344.45966    17.801236    37373.809 
  252900    298.13883   -1497.7083    496.04941    343.82568    228.36885    37373.809 
  253000    298.01172   -1483.6981    493.75855    354.97135    222.00165    37373.809 
  253100    311.01411   -1459.2125    491.86934    436.24689    396.15949    37373.809 
  253200    307.67949   -1494.7325    500.99774    394.80633    492.38609    37373.809 
  253300    293.25339   -1515.3248    495.52051    303.63252    610.71461    37373.809 
  253400    297.94106    -1502.613    501.46182    343.44082     309.0567    37373.809 
  253500    295.36316   -1468.6783    490.49996    354.77983    -526.8449    37373.809 
  253600    298.89378   -1492.6822    520.88038    377.08981   -33.288017    37373.809 
  253700     306.2272   -1473.3411    497.99351    406.63937   -294.44412    37373.809 
  253800    298.50637   -1467.9743    495.21613    374.38506   -514.51331    37373.809 
  253900    302.00565   -1442.6358    496.61467    416.91419   -413.90505    37373.809 
  254000     307.8925   -1476.9262    497.35897    409.93516   -660.84119    37373.809 
  254100    307.48134   -1435.6579    499.60615    451.59502    70.619074    37373.809 
  254200     294.9904   -1465.9202    491.38146    356.73712   -21.131537    37373.809 
  254300    292.36018    -1456.732    487.05463    349.72848    163.96705    37373.809 
  254400    295.82478   -1459.9169    497.56862    372.69309   -33.395637    37373.809 
  254500    309.96456   -1453.6648    489.33152     434.5202   -403.94866    37373.809 
  254600    285.04373   -1450.5416    471.41357    307.25907    -159.2993    37373.809 
  254700    297.47447   -1422.3703    506.39185    426.50789   -12.276324    37373.809 
  254800     295.8983   -1444.6029    503.23142    394.00171     309.0118    37373.809 
  254900    295.36219   -1429.9541    525.67209    428.67173    125.35088    37373.809 
  255000    315.74031   -1438.4151    510.12419    496.62819   -361.62867    37373.809 
  255100    295.73813   -1448.7982    471.14111    356.99322   -217.92092    37373.809 
  255200    304.49524   -1473.1863    507.90338    408.88777   -394.95585    37373.809 
  255300    292.67787   -1450.8618     469.2262    339.20396   -1013.2552    37373.809 
  255400    295.61142   -1470.4663    489.51872    353.13092   -685.07088    37373.809 
  255500    309.06313   -1495.7033     511.2461    410.32813   -177.34054    37373.809 
  255600    306.28622   -1469.2955    480.67526    393.63309    -362.0549    37373.809 
  255700    306.85563   -1453.7926    497.00913    428.03949    67.066061    37373.809 
  255800    296.32276   -1482.2772    504.59528    359.60686    8.1734902    37373.809 
  255900    307.78031   -1484.6463    492.45284    396.80261   -360.00967    37373.809 
  256000    313.07778   -1442.2746    518.14649    488.77509    259.75417    37373.809 
  256100    300.53053   -1428.7791    487.60225    415.10134    139.13101    37373.809 
  256200    300.84999   -1418.8249    534.05494    472.94989   -33.496682    37373.809 
  256300    302.39359   -1430.5625    509.39104    443.51458   -89.207548    37373.809 
  256400    299.82063    -1456.997    509.17814    405.25561    117.26552    37373.809 
  256500    308.13918    -1452.635    465.35213    403.33269   -245.16862    37373.809 
  256600    297.39473   -1492.5846    494.84496     344.3868    -305.3722    37373.809 
  256700    298.05559    -1492.133    493.36988    346.34577     91.95389    37373.809 
  256800    294.23854   -1464.1976    475.60787    339.29301    366.35333    37373.809 
  256900    304.90378   -1442.2425    507.86052    441.63239   -365.77193    37373.809 
  257000    310.15679   -1474.5223    476.43881     401.6375   -221.31201    37373.809 
  257100    300.73133   -1419.5328     521.2911    458.94264   -81.509902    37373.809 
  257200     296.0354   -1463.7226     496.6606     368.9299   -315.83042    37373.809 
  257300    294.54501   -1482.9649    508.48579    354.78669   -664.33849    37373.809 
  257400    301.41285   -1479.4168    487.37506    368.21836   -657.60295    37373.809 
  257500    302.62596   -1457.3227    510.21808    418.63013   -571.09926    37373.809 
  257600    298.92679   -1453.6146    492.93256    388.35851   -137.17216    37373.809 
  257700    294.91469   -1407.0033    504.68026    428.61112   -395.46983    37373.809 
  257800    300.85631   -1432.9942    485.94608    410.70027    12.869316    37373.809 
  257900    303.04871   -1466.4528    501.50889    402.69874   -467.20134    37373.809 
  258000    308.88547   -1484.5515    503.80392    413.23603   -426.91499    37373.809 
  258100    301.91519   -1460.7137    505.36272    407.17608   -731.12245    37373.809 
  258200    291.37468   -1430.4896    496.34894    380.81771   -69.805268    37373.809 
  258300    301.25628   -1516.0809    484.63504    328.10761   -175.48406    37373.809 
  258400    301.26842   -1504.7862    506.90651    361.72851    50.245468    37373.809 
  258500     298.2567   -1485.8863     507.8971    368.02735   -34.436186    37373.809 
  258600    300.63027   -1498.2529    501.60053    360.07595    325.31937    37373.809 
  258700    299.60779   -1495.8879    526.08746    382.31345   -395.35091    37373.809 
  258800    307.36366   -1499.3715    496.81346    384.55772   -311.60836    37373.809 
  258900    295.15787   -1487.0329    520.17337    365.17209   -498.24139    37373.809 
  259000    306.11818   -1486.2278    495.89154    391.15872   -324.58708    37373.809 
  259100    298.93316   -1466.9159    487.63085     369.7843   -528.78865    37373.809 
  259200    309.61053   -1499.4273    494.95723    392.78565   -537.23487    37373.809 
  259300    290.62466   -1550.8887    478.35527    239.04012   -371.57398    37373.809 
  259400    297.74037   -1522.9722    506.60167    327.31578    161.40421    37373.809 
  259500    304.66734   -1510.5556    498.90867    363.30046   -24.356923    37373.809 
  259600    295.47116   -1507.3303    467.79811    293.91335   -309.06033    37373.809 
  259700     296.3171   -1507.7446     479.2727    308.79125    13.740914    37373.809 
  259800    285.04152   -1462.3417    505.20399    329.23941    -88.48396    37373.809 
  259900    306.97264   -1489.7638    505.85804    401.44537   -758.28466    37373.809 
  260000    289.87471   -1489.4543    516.45767    335.19245   -290.15837    37373.809 
  260100     296.9042   -1512.6845    486.30823     313.5365   -706.22671    37373.809 
  260200    311.84227    -1495.322    503.71244    415.71792   -225.18273    37373.809 
  260300    295.02877   -1512.7323    504.98929    323.70597   -428.50165    37373.809 
  260400    301.32654   -1529.1637    477.05371    307.76051   -798.73021    37373.809 
  260500    294.18454   -1515.7789    496.32893    308.18912   -797.16203    37373.809 
  260600    303.12096   -1534.7024    515.08527    348.35155   -273.49524    37373.809 
  260700    295.50409   -1513.4884    461.86418    281.96994    91.715614    37373.809 
  260800     295.1602   -1499.6916    500.89136    333.24193     289.5338    37373.809 
  260900    306.68977   -1495.9572    505.13464    393.25194    355.62801    37373.809 
  261000    291.82738   -1560.1991    503.20253    260.00474    466.02611    37373.809 
  261100    301.41257   -1509.2652    491.00244    341.99602    249.12667    37373.809 
  261200    306.52171   -1489.4188    501.67965    395.57693    -198.6648    37373.809 
  261300    307.33808   -1517.0935    503.81335    373.72015    443.67068    37373.809 
  261400    300.20988   -1492.0212    515.27247    378.08238    435.31959    37373.809 
  261500    301.63889   -1525.8924      509.726    345.11382    23.020047    37373.809 
  261600    293.17637   -1538.5446    489.19244    273.73707    121.52436    37373.809 
  261700    302.36166   -1523.2604    495.72667    337.00824     168.0892    37373.809 
  261800    299.47283   -1539.6404    485.78732    297.65181    133.73174    37373.809 
  261900    304.19637   -1487.0689    510.95879    396.71181    109.59813    37373.809 
  262000    299.21059   -1493.5413    486.72856    343.50861    202.12588    37373.809 
  262100    305.12377   -1503.4343    488.87869    362.45156    326.22396    37373.809 
  262200    298.78389   -1547.8096    474.64319    275.22924   -221.19662    37373.809 
  262300    295.04521   -1490.1513    513.91785    355.28977    103.75323    37373.809 
  262400    298.87521     -1510.87    498.42527    336.36312   -515.14926    37373.809 
  262500    302.31737   -1520.3286    503.89931    347.91283    63.964862    37373.809 
  262600    302.39964   -1515.8211    488.95981    337.85202   -281.39924    37373.809 
  262700    292.41838   -1474.4173    489.30658    334.55779    255.51153    37373.809 
  262800    302.77098    -1492.434    487.95144    361.90663   -104.70749    37373.809 
  262900    302.86737   -1500.5079    502.83984    369.15612    368.72044    37373.809 
  263000    307.91116   -1502.2664    499.01327    386.33343    120.45502    37373.809 
  263100    294.12018    -1489.161    484.22611    322.41367    422.57467    37373.809 
  263200    304.15714   -1471.6102    516.93863     417.9733    631.67324    37373.809 
  263300    291.46851   -1448.7503    484.93215    351.56356     828.2749    37373.809 
  263400    290.11459   -1474.7085     489.4262    323.98933    491.89379    37373.809 
  263500    294.11474   -1495.7622    509.53447    341.09631    643.85787    37373.809 
  263600    295.35756   -1485.8205    480.07755    327.18994    409.36346    37373.809 
  263700    302.31598   -1485.1517    525.44018     404.6243    237.38251    37373.809 
  263800    295.69036   -1489.6975    471.03097    315.76824    89.017677    37373.809 
  263900    300.61815   -1461.2145     498.5101    393.96915    599.92741    37373.809 
  264000    302.47547   -1505.0102    493.63981    353.68522   -41.675965    37373.809 
  264100    303.63357   -1448.2291    479.20391    401.25681    51.012445    37373.809 
  264200    304.63399   -1491.9507    461.80967    344.65587    20.653886    37373.809 
  264300    293.57307   -1477.6839    485.32229    332.51789   -611.87731    37373.809 
  264400    305.17822   -1423.2124    491.66178    445.70235   -181.08538    37373.809 
  264500    290.96551    -1412.369    485.90273    386.64549    177.77911    37373.809 
  264600    294.71771   -1397.6711    495.70067    428.07484   -713.49835    37373.809 
  264700    295.96076   -1440.5667    490.93576    386.02409    -875.1815    37373.809 
  264800    303.67463   -1407.5769    504.59189    467.48233   -876.35147    37373.809 
  264900    316.25925   -1460.3456    487.92522    454.84068   -511.30158    37373.809 
  265000     291.0534   -1452.0257    499.17565    360.65835    -355.0929    37373.809 
  265100    300.39866   -1465.8893    496.08013    385.87384    -622.6435    37373.809 
  265200    294.18994   -1503.0029    492.80743    317.46795   -850.74854    37373.809 
  265300    292.04265   -1468.9134    516.08094    365.14038   -710.08084    37373.809 
  265400    296.07362   -1419.8611    497.79812    414.10142   -922.69586    37373.809 
  265500    292.12325   -1453.6742    518.00917    382.67154   -590.79146    37373.809 
  265600    304.86588   -1470.3306    494.97518    400.48795   -445.25203    37373.809 
  265700    294.46854   -1499.0134    484.13119    314.03855    -586.9853    37373.809 
  265800    312.76944   -1504.3361    501.57125    408.74685   -336.27724    37373.809 
  265900    298.15898   -1460.0409     496.0497    381.58425   -104.63081    37373.809 
  266000    304.84622   -1465.5554    485.56142    395.76069    639.70279    37373.809 
  266100    303.70216   -1465.6023    497.54184    402.53115    644.22462    37373.809 
  266200    304.43809    -1479.466    495.33176    389.77851     381.0704    37373.809 
  266300    303.47552   -1493.2128    499.97958    376.33552    12.527012    37373.809 
  266400    296.06743   -1490.3682     490.7604    336.52864   -338.32454    37373.809 
  266500    304.79684   -1485.0741    463.52925    353.98696   -333.64881    37373.809 
  266600    293.61792   -1495.5676    503.17425    332.68859   -111.58041    37373.809 
  266700    301.87094   -1449.7437     476.8664    389.45004    246.11859    37373.809 
  266800    306.43731   -1461.8308    507.29411    428.39847    239.78866    37373.809 
  266900    303.49013   -1499.8182     487.7821    357.59864    622.51646    37373.809 
  267000    300.32892   -1504.5691    515.49057    366.28978    419.09302    37373.809 
  267100    300.80634   -1464.6967    514.55331    407.37956    388.50572    37373.809 
  267200    300.37176   -1477.0818    493.42503    371.90489    121.26118    37373.809 
  267300    293.71509   -1495.2867    500.76299    330.99674     189.3023    37373.809 
  267400    303.82251   -1546.6448    495.82816    320.31805    333.76849    37373.809 
  267500    292.45719   -1506.1021    485.74102     299.4825   -147.19134    37373.809 
  267600    300.74813   -1494.3464    506.91338    369.82716   -652.90843    37373.809 
  267700    300.54256   -1499.4103    478.47423    335.39635   -597.61575    37373.809 
  267800    290.37851   -1487.4989    521.75539    344.71911   -20.945949    37373.809 
  267900    303.15981   -1450.4798    542.00198    459.66615    277.58198    37373.809 
  268000    295.68006   -1477.1533    508.54175    365.77674    138.74347    37373.809 
  268100    303.27976   -1428.2516    517.53176    457.96551    259.72742    37373.809 
  268200    304.96978   -1469.6936    505.31444    411.93313     124.4823    37373.809 
  268300    301.21712   -1493.9362    485.76225    351.20276    610.28077    37373.809 
  268400    305.37896   -1483.6948    506.33074    400.79477    524.46343    37373.809 
  268500    296.59528   -1465.3635    498.91677    372.07186    269.51462    37373.809 
  268600      295.873   -1508.9015    502.72899    329.08653    388.85617    37373.809 
  268700     296.8342   -1496.5516    523.58827    366.63351    333.06714    37373.809 
  268800    298.74437    -1458.875     480.5208    369.86317    -56.72906    37373.809 
  268900    302.96767   -1465.2858    499.30416    401.29522   -22.936636    37373.809 
  269000    296.66912   -1512.1609    489.66005    316.35099   -429.73871    37373.809 
  269100    285.86628   -1512.3181    492.76176    270.54284   -434.76537    37373.809 
  269200    299.17118   -1454.8305    504.60626    399.91927   -349.42682    37373.809 
  269300    296.52395   -1484.1198    530.26313    384.34005    159.80328    37373.809 
  269400    299.50866    -1451.485    499.91342    400.09493   -338.71274    37373.809 
  269500    291.13928   -1415.0269    523.73589    422.60497   -243.35261    37373.809 
  269600    306.77229   -1426.7205    499.69034    457.41673   -264.40333    37373.809 
  269700    305.16031   -1444.1353      512.586    445.62278   -592.88904    37373.809 
  269800    305.12822    -1424.051    508.29142    461.26773   -409.69893    37373.809 
  269900    307.13195   -1441.5744     508.5135    453.00915    -199.2133    37373.809 
  270000    307.53851   -1469.9916    520.57597     438.4892   -487.11186    37373.809 
  270100    298.23475   -1475.3672    503.07314    373.62342   -613.62418    37373.809 
  270200    296.43272   -1470.0214    489.05371    356.81732   -247.18778    37373.809 
  270300    305.37379   -1505.1094    512.82216    385.84833   -895.12302    37373.809 
  270400    301.69258   -1513.9514    477.29419    324.86524    115.28633    37373.809 
  270500    298.69672   -1486.6371    506.55877    367.92401   -325.04648    37373.809 
  270600    295.83613   -1478.3852    487.30417    344.01155    228.71534    37373.809 
  270700    297.10066   -1479.5138    464.12772    325.41327    74.204107    37373.809 
  270800    301.11741    -1475.075    533.12825    416.98001   -859.45324    37373.809 
  270900    294.15264   -1458.3301    483.96957    353.13457   -466.32178    37373.809 
  271000    295.22085   -1479.1171     506.0668    359.26563   -184.62624    37373.809 
  271100    291.46326    -1474.294    507.52813     348.5922   -314.68706    37373.809 
  271200    301.14939     -1477.91    513.15438    394.31543   -476.29785    37373.809 
  271300    299.01628   -1516.4112    499.90402    332.93725   -86.588467    37373.809 
  271400    307.29768    -1503.671    504.65246    387.79936    227.73043    37373.809 
  271500    295.00287   -1538.3414     504.8666    297.85735   -29.449069    37373.809 
  271600     303.3673   -1479.2083    496.50149     386.3735   -187.73138    37373.809 
  271700     308.8691    -1496.223    490.47141    388.15808    337.83821    37373.809 
  271800    299.92545    -1545.786    501.09972     308.8612   -487.88565    37373.809 
  271900    292.04515   -1491.5796    510.89135    337.29589   -528.07356    37373.809 
  272000    294.48672    -1489.767    483.17934    322.41518   -494.53969    37373.809 
  272100    294.94854   -1485.8785     490.6667    335.87514    98.384148    37373.809 
  272200    296.32572   -1496.8359    492.91313     333.3793     494.5752    37373.809 
  272300    302.60931   -1507.9961    496.84007    354.50356     538.9433    37373.809 
  272400    284.59168   -1500.6431    476.62395    260.32783    278.47268    37373.809 
  272500    298.98919     -1487.47    526.20055    388.05277    381.48971    37373.809 
  272600    301.58379   -1514.3593    487.09649    333.76867    -534.0622    37373.809 
  272700    294.50986   -1524.0559    493.94806    298.99939   -313.76969    37373.809 
  272800    308.76425   -1484.1615    504.42205    413.69708    724.52018    37373.809 
  272900    302.42503   -1502.9685     498.0542    359.91361    497.71037    37373.809 
  273000    300.70316   -1489.1569    486.56409     354.4644    481.82881    37373.809 
  273100    298.61521   -1479.7006    506.43161    374.36548    445.57678    37373.809 
  273200    294.25579   -1446.9685    508.45633    389.44846   -347.87556    37373.809 
  273300    292.14647   -1474.1711    486.01767    330.28796   -243.41793    37373.809 
  273400    295.64151   -1541.7595    512.38587    304.84064    -921.4439    37373.809 
  273500    294.73283     -1505.55    487.35943    311.92295   -320.09865    37373.809 
  273600      298.021   -1488.0962     499.8463    356.70286   -623.55876    37373.809 
  273700     309.4851   -1493.7781    492.99511    395.90665   -862.46971    37373.809 
  273800    290.90299   -1482.0113    509.72859    340.54687   -332.08836    37373.809 
  273900    290.16438   -1458.4283    511.80516    362.87318    132.72104    37373.809 
  274000    287.95703   -1477.7946    487.70656    309.44662   -688.09371    37373.809 
  274100    312.45481    -1428.814     515.7587    497.03653    495.56772    37373.809 
  274200    289.93896   -1471.6683    518.15928    354.96999   -99.539126    37373.809 
  274300    301.50904   -1517.5131    508.07839    351.25949    -194.1986    37373.809 
  274400    290.85227   -1467.5003    506.83863    351.93902   -314.94772    37373.809 
  274500      297.738   -1473.6376    532.33202    402.37006    225.25782    37373.809 
  274600    306.94795    -1501.513    513.58276    397.30937    323.15974    37373.809 
  274700    291.66252   -1516.0685    504.41894    304.60772   -313.62545    37373.809 
  274800    299.34327   -1532.1435    482.91158    301.68815   -3.3630088    37373.809 
  274900    297.57606   -1555.1893    499.84536     287.6009    59.971859    37373.809 
  275000    303.21959   -1546.4066     509.5897    331.59689    57.346943    37373.809 
  275100     292.9593    -1497.247    514.50738    339.36998    771.73622    37373.809 
  275200    302.10283   -1476.1474    499.35266    386.57915    343.37589    37373.809 
  275300    300.68756   -1491.8435    500.97795    366.12127    5.9363131    37373.809 
  275400    306.99195    -1513.953    517.18791    388.67316    111.54715    37373.809 
  275500    309.62895        -1510    469.00252    356.34137    522.61754    37373.809 
  275600    303.66721   -1500.8942    503.37475    372.91435   -23.083947    37373.809 
  275700    304.28227   -1520.2122    469.29521    322.29264    236.12012    37373.809 
  275800    304.43347   -1551.6661    498.28571    320.51155    758.21935    37373.809 
  275900     304.0025   -1514.8223    507.47307    364.59777   -278.80972    37373.809 
  276000    299.40571    -1485.313    510.27836    376.16724   -4.4843005    37373.809 
  276100    300.90915   -1489.6533    488.76234    357.09594    135.61843    37373.809 
  276200    294.48694   -1501.8207    510.35217    337.53525    205.31675    37373.809 
  276300    307.40679   -1505.5553    496.68825     378.4433    439.61486    37373.809 
  276400    301.83275   -1494.2905    522.45462    390.31916    879.31336    37373.809 
  276500    291.18151   -1508.5548    523.46788    328.99964    202.61047    37373.809 
  276600    298.58587   -1454.2764    522.16154    415.38719     321.9512    37373.809 
  276700    302.93567   -1470.4272    489.42385    386.12907    280.81589    37373.809 
  276800     302.5424   -1478.1588    498.05833    385.25719   -159.28388    37373.809 
  276900    304.16675   -1520.7483    502.21337    354.15331    190.67343    37373.809 
  277000    296.18469   -1546.8354    472.46455    262.29479   -50.869619    37373.809 
  277100    296.94997   -1486.2358    498.50252    352.38598     261.0563    37373.809 
  277200    300.98272   -1547.8582    469.74823    280.20892   -176.66516    37373.809 
  277300    295.34538    -1558.992    467.92681     241.8127   -274.99878    37373.809 
  277400    294.70874   -1554.0379    515.59619    291.56309    15.295935    37373.809 
  277500    304.62786   -1532.0131    492.64588    335.40196     255.0774    37373.809 
  277600    299.66976   -1508.6603    488.71634    332.44962   -20.432117    37373.809 
  277700        299.1   -1534.4948    485.82091    301.14839    127.07623    37373.809 
  277800    298.98733   -1529.4752    485.59863    305.43723   -167.95172    37373.809 
  277900    294.96543   -1478.0195     498.3823    351.52596    612.49366    37373.809 
  278000    292.64261   -1479.5651    526.65276    367.76807    343.07861    37373.809 
  278100    299.77676    -1514.731    493.17206    331.31751   -157.62328    37373.809 
  278200    297.10131   -1545.8461    483.51385    278.47006   -613.79127    37373.809 
  278300    321.39373   -1491.9232    546.16851    504.67804    45.960345    37373.809 
  278400    296.94615   -1526.3039    501.62842    315.42658     490.3444    37373.809 
  278500     299.9639   -1555.2995    488.38913     286.8107    728.69129    37373.809 
  278600    303.77408   -1496.0945    497.74868    372.57031    548.84544    37373.809 
  278700    306.56917   -1482.5721    501.96311    402.92123     850.9384    37373.809 
  278800    299.34593   -1558.5254    483.31332    275.72001   -138.36584    37373.809 
  278900    305.54851    -1582.698    496.22424    292.45037   -199.78249    37373.809 
  279000    290.45069   -1538.6609    494.92905    267.05652   -236.21982    37373.809 
  279100    298.97252   -1529.1708    474.97736    295.05353   -254.38287    37373.809 
  279200    296.31043   -1557.2371     480.8775    260.87348    104.52916    37373.809 
  279300    304.05829   -1514.9033    513.50991    370.80537    317.05506    37373.809 
  279400    291.01444   -1476.5482    494.90429    331.68868    143.39449    37373.809 
  279500    309.43135   -1489.5652     536.4138    443.29576    574.78567    37373.809 
  279600    304.40511   -1489.5988     517.1068    401.27194    20.220125    37373.809 
  279700    290.72028   -1453.7549    483.15028    341.40044   -147.71505    37373.809 
  279800     303.1493   -1442.9683    540.51245    465.64068   -439.19009    37373.809 
  279900    299.24451   -1456.8788    508.98956    402.58518   -57.905352    37373.809 
  280000    296.08584   -1488.3329      521.268    369.15469   -617.40302    37373.809 
  280100    290.42507   -1487.3393    496.97109    320.30461   -617.46996    37373.809 
  280200    301.70697   -1493.3643    485.91072    354.13381   -341.68809    37373.809 
  280300     313.9961   -1505.4822     469.9418    381.50719   -471.67696    37373.809 
  280400    301.27454   -1452.1232    515.78489    423.29751   -510.00829    37373.809 
  280500    318.46452   -1453.7854    515.25182    498.67978   -777.42445    37373.809 
  280600    293.72995   -1429.3291    510.56728    406.82574   -70.293855    37373.809 
  280700     302.5844   -1454.1196    474.40717    385.83481    452.42965    37373.809 
  280800    300.21523   -1467.2557    497.06294    384.66247    207.42531    37373.809 
  280900    291.49561   -1486.4526     486.4004    315.45189    661.97482    37373.809 
  281000     303.1635    -1474.696     503.8448    397.30942    793.80823    37373.809 
  281100    304.86696   -1508.7348    525.72756    392.84098    32.257978    37373.809 
  281200    300.86328   -1459.2602    507.79466     406.3143   -141.96583    37373.809 
  281300    297.68884   -1497.9626     499.2677    344.75895    89.058598    37373.809 
  281400    294.17983   -1440.3819    522.43738     409.6733   -680.21069    37373.809 
  281500    303.48281   -1439.1146    501.79498    432.28206   -408.70451    37373.809 
  281600    289.20768   -1405.9849     522.6902    421.88404   -731.35106    37373.809 
  281700    296.40142   -1473.8375    522.02927    385.83548   -327.40693    37373.809 
  281800    300.15089   -1453.7542     532.5239     433.3346    166.29943    37373.809 
  281900    302.91104   -1470.4669    509.93445    406.48883    -667.0599    37373.809 
  282000    290.89512   -1495.5762    491.58941    308.80732   -348.84743    37373.809 
  282100    309.05345   -1497.8204    482.62045    379.54172   -55.200434    37373.809 
  282200    302.26814   -1482.2154      514.872     396.7765    255.44304    37373.809 
  282300    298.81085   -1500.9991    510.78959    358.30783    305.49066    37373.809 
  282400    311.95473   -1497.7642    506.39744     416.4682    590.67654    37373.809 
  282500    298.31667   -1477.9098    502.53875    370.91607    157.48862    37373.809 
  282600    298.76502   -1507.1879    531.96981    373.09245    430.76467    37373.809 
  282700    299.38769   -1565.3762    514.86213    300.60657   -124.32493    37373.809 
  282800     299.3107   -1499.9656    494.70474    345.51235   -573.12264    37373.809 
  282900    300.11326   -1491.8498    524.95671    387.50197    313.19845    37373.809 
  283000    297.66557   -1490.3054    489.38364    342.42706    421.51573    37373.809 
  283100    297.71333   -1444.0362    536.71724    436.24536   -48.570575    37373.809 
  283200    291.74223   -1452.8863    476.65576    340.38646   -155.02737    37373.809 
  283300    297.24837   -1466.3015    500.81106    375.97555   -63.783595    37373.809 
  283400    309.31252   -1467.4331    537.90335    466.38104    469.88659    37373.809 
  283500    312.57085   -1487.2845    463.68176     387.0128   -80.127044    37373.809 
  283600    294.49849   -1469.1916    515.77805    375.64237   -773.18366    37373.809 
  283700    298.64173   -1484.4886    488.30576     351.5713   -451.94142    37373.809 
  283800    301.15926   -1511.2076    492.30567    340.21368    765.98304    37373.809 
  283900    297.20502   -1497.2051    524.04142    368.10665    460.88758    37373.809 
  284000    308.19506   -1467.9074    481.01671    403.97709    619.65207    37373.809 
  284100    301.03711   -1483.6695    486.99984    361.89468    -330.2638    37373.809 
  284200    304.63098   -1470.2761    502.80092    407.30813   -257.21153    37373.809 
  284300    297.92905   -1457.6952    496.10799    382.95057   -174.51402    37373.809 
  284400    291.44677   -1451.8794    494.50555    357.90977    206.24191    37373.809 
  284500    304.78331   -1472.8335    505.09966    407.73686    566.93545    37373.809 
  284600     297.5689   -1474.6152    507.65828    375.95561    823.91871    37373.809 
  284700    309.96446   -1501.5207    501.83261    399.16489     917.0391    37373.809 
  284800    306.08024   -1476.4435    503.44561    408.32585    511.54929    37373.809 
  284900     293.5881   -1452.1452     487.6013    360.40349    85.839312    37373.809 
  285000    300.12823    -1448.811    502.82741      408.479    123.00871    37373.809 
  285100    293.14584     -1493.41    499.13571    328.67711     541.1536    37373.809 
  285200    304.90394   -1461.3337    531.48159    446.16304    712.21193    37373.809 
  285300    300.56125    -1471.146    498.29289    383.56367    622.43542    37373.809 
  285400    291.84427   -1478.8318    526.53602    364.78178    65.708408    37373.809 
  285500    301.10979   -1511.1721    465.32244    313.04267   -11.064516    37373.809 
  285600     311.0284   -1478.6575    480.92947    405.92652   -38.771289    37373.809 
  285700    299.30421   -1508.3313     496.9838    339.39634   -324.72897    37373.809 
  285800     302.3562   -1508.4693    482.02738    338.07545   -201.47881    37373.809 
  285900    294.13413   -1484.0692    487.49792    330.84029   -324.53816    37373.809 
  286000    296.23393   -1463.5426    510.60137    383.94661    7.8366008    37373.809 
  286100    293.67468   -1453.8105    506.96876    378.49636   -186.59073    37373.809 
  286200     297.1236   -1478.1832    492.75278    355.47248    336.86034    37373.809 
  286300    308.03613    -1492.116     485.9942     384.0287    55.868965    37373.809 
  286400    300.80768   -1435.7608    511.21008    432.97826   -31.887243    37373.809 
  286500    295.63462   -1459.3493     484.3792    359.21311   -83.735456    37373.809 
  286600    306.14271   -1475.4008    504.48149    410.68637   -897.10663    37373.809 
  286700     304.1238   -1465.6139    486.69055    393.57109   -841.19635    37373.809 
  286800    303.00571   -1487.9058    473.28499    352.82768   -1053.2614    37373.809 
  286900    302.54458   -1468.9784    497.64774    394.03677   -598.89647    37373.809 
  287000    305.53099   -1505.9848    485.83439    358.69456   -329.07374    37373.809 
  287100    296.72836   -1489.4058    484.49814     334.2115   -111.93437    37373.809 
  287200    297.38673   -1529.2244    477.76767    290.63361    203.99448    37373.809 
  287300    298.44335   -1499.1079    492.93501    340.68591   -8.1454495    37373.809 
  287400    306.56482   -1511.7505    486.63976    358.39983   -216.85772    37373.809 
  287500    290.44451   -1480.9659    504.53015    334.32476    92.468363    37373.809 
  287600    293.01381   -1462.9423    506.52725    365.94055   -119.22378    37373.809 
  287700    302.48062   -1440.0299    468.45681    393.50569    89.015092    37373.809 
  287800     302.7649   -1445.6608    496.37352    417.07443     222.2169    37373.809 
  287900    293.33102   -1434.6889    492.74848    381.84675   -182.52518    37373.809 
  288000    305.52151    -1515.772    502.40193    365.43217    226.40131    37373.809 
  288100    298.45505   -1539.8335     491.5959    298.67402   -103.09913    37373.809 
  288200    301.00457   -1454.2988    508.45479    412.57345   -258.12401    37373.809 
  288300    304.84982   -1442.1941    514.77108    448.34789   -100.05967    37373.809 
  288400    288.75598   -1452.8105    517.58578     367.9156   -375.54759    37373.809 
  288500    290.69634   -1462.9017    494.76436    343.75968   -228.51918    37373.809 
  288600    304.32713   -1465.4993    487.96027    395.87301    48.612052    37373.809 
  288700    298.54598   -1484.9331    500.77398    363.16287   -430.70692    37373.809 
  288800    307.05226   -1448.0897    502.31869    439.93941     259.3667    37373.809 
  288900    307.83252   -1441.4556    525.56092    473.33701   -164.69274    37373.809 
  289000    307.97515   -1462.7836    468.82586    395.91759   -179.47173    37373.809 
  289100    303.28543   -1459.5192    496.22302    405.41477    173.28615    37373.809 
  289200    298.36756   -1513.4936    482.44532    315.46849   -151.17452    37373.809 
  289300    302.97628   -1457.2906    508.63642    418.66156   -238.93774    37373.809 
  289400    305.97564   -1457.4564    500.90861    424.30381   -485.01298    37373.809 
  289500    299.28848   -1487.5731    504.39347     367.4933   -711.86464    37373.809 
  289600    290.15909   -1502.3158     478.3699    285.52657   -540.45127    37373.809 
  289700    299.97165   -1499.1659    491.22949    345.81956    26.130552    37373.809 
  289800    302.36932   -1481.7841    497.43585    380.22826   -98.485517    37373.809 
  289900    297.27758   -1496.0923    475.74261    321.24808     168.6704    37373.809 
  290000    307.69283   -1485.9073    528.17842    430.87238    496.94401    37373.809 
  290100    299.41149   -1467.9625    482.44865    365.71415    309.39126    37373.809 
  290200    289.40094   -1473.8523    509.43031    341.62895   -9.0542069    37373.809 
  290300    296.75414   -1482.6593    518.83715    375.41333   -196.30474    37373.809 
  290400    297.90824   -1458.3802    483.53125    369.59494   -391.39716    37373.809 
  290500    308.68945   -1443.3283    483.64939    433.42001    364.04393    37373.809 
  290600    304.10464   -1436.9578    505.17815    440.62826   -268.64041    37373.809 
  290700    299.69561   -1509.2355    483.15361    326.42831   -88.109349    37373.809 
  290800    295.17292   -1524.5583    491.89209    299.43338     517.5331    37373.809 
  290900    300.07678   -1463.1019    522.67972    413.80827   -55.232747    37373.809 
  291000    297.74632   -1489.3062    494.53983     348.9468    13.377881    37373.809 
  291100    297.93128   -1442.3236    521.34922    423.57349   -8.8808919    37373.809 
  291200    305.01434   -1426.0053    513.77578    464.28385   -632.72748    37373.809 
  291300    289.88561   -1451.6387    513.39797    369.99744   -18.554154    37373.809 
  291400    302.47934   -1440.4907    499.45889    424.04124   -43.392645    37373.809 
  291500    298.79201   -1427.9061     533.8472    454.37342   -883.55739    37373.809 
  291600    297.98225   -1414.8163    515.10143    445.06305   -433.37039    37373.809 
  291700    292.57537   -1424.4512    488.94543    384.87121   -472.86687    37373.809 
  291800     293.7253   -1433.3773    494.77318    386.96236   -355.37197    37373.809 
  291900    294.95059   -1439.4336    498.19775    389.86038   -324.44983    37373.809 
  292000    313.52251   -1436.6041    472.64721    450.95342    -453.1524    37373.809 
  292100    301.05898    -1477.983    495.94929    376.62938    194.26406    37373.809 
  292200    315.29057   -1481.3975    495.94839    437.44035    422.95263    37373.809 
  292300    292.94112   -1462.5183    500.54882    360.05807    67.149897    37373.809 
  292400    302.80817   -1437.7947    487.83608    416.59844    228.05756    37373.809 
  292500    301.19795   -1445.8978    499.10696    412.49938    365.19533    37373.809 
  292600    298.64128   -1461.0341    497.91833    384.63631   -1.1554538    37373.809 
  292700    300.67705    -1496.208    524.08845    384.81989    217.11805    37373.809 
  292800    301.19826    -1493.447    486.87761    352.72228    489.61465    37373.809 
  292900    290.25036   -1469.2665    505.27371     345.8915    -15.71113    37373.809 
  293000     296.2753   -1472.6232    509.31252    373.76383    765.57139    37373.809 
  293100    288.14168   -1513.6966    480.16375     266.8351    49.281597    37373.809 
  293200    302.73207   -1510.4006    475.66011    331.47308    102.33729    37373.809 
  293300    302.06596   -1482.3388    528.88308     409.7517     176.6864    37373.809 
  293400    298.24546   -1524.8307    480.17476    301.30984   -727.81554    37373.809 
  293500    302.07523   -1511.1617    489.38826    341.47592   -92.244412    37373.809 
  293600    299.06971    -1490.433    490.61942    349.87205    -72.61059    37373.809 
  293700    296.76196   -1462.9814    487.67308    363.96249    71.387408    37373.809 
  293800    299.02673   -1460.2213    483.97762    373.24794    79.626263    37373.809 
  293900    308.53686   -1434.6926     501.5676    459.28533   -31.116311    37373.809 
  294000    293.84856   -1442.7529    514.73276    398.10266    400.50179    37373.809 
  294100    288.38785   -1438.4914    484.83809    347.82555    481.20187    37373.809 
  294200    289.32869   -1450.9881    494.21023    348.94698    564.23563    37373.809 
  294300    299.68931   -1441.0362    496.43353    407.87915    842.74076    37373.809 
  294400    304.21003   -1450.1483    504.83635    427.57158    404.95112    37373.809 
  294500    306.20607   -1445.5298    490.96232    427.32411    631.08761    37373.809 
  294600    303.96075   -1484.5719     517.2762    404.46282    755.49861    37373.809 
  294700    294.23677   -1476.2729    510.06348    361.66533    457.14708    37373.809 
  294800    302.47685    -1472.927     484.1017    376.23656     208.6045    37373.809 
  294900    307.47904   -1420.2243    508.31987    475.73195     88.75667    37373.809 
  295000    291.38675   -1459.9489    505.54885    360.61277    259.08835    37373.809 
  295100    307.47046   -1443.8601    497.34962    441.08727    251.29901    37373.809 
  295200     307.1041   -1442.9924    495.07303    438.02503   -454.93376    37373.809 
  295300    291.28641   -1440.3082    523.19149    397.44323   -61.704208    37373.809 
  295400    299.60361   -1435.3517    506.23494    422.97834   -130.22634    37373.809 
  295500    302.05775   -1486.3982    498.79005     375.5623    344.53309    37373.809 
  295600    297.98355   -1456.4671    492.26562    380.58226    30.458425    37373.809 
  295700    301.51462   -1441.6337     472.4962    391.58185    400.25777    37373.809 
  295800     302.9984   -1456.5648    541.38507    452.23586    151.08678    37373.809 
  295900    300.18915   -1394.6458    474.28043    434.37222    456.86946    37373.809 
  296000    303.58123   -1420.9609    501.50622    450.59111    44.449442    37373.809 
  296100    286.37047   -1435.0771    498.58767     355.8851   -276.59447    37373.809 
  296200    291.31687    -1440.933    504.06511    377.82952   -690.08434    37373.809 
  296300     294.2301   -1429.9401     514.2357    412.14028   -493.49331    37373.809 
  296400    295.34316   -1403.4946    533.05324    462.42645   -61.233783    37373.809 
  296500    294.18445   -1429.1019    535.13855    433.67532     74.18271    37373.809 
  296600    307.81188   -1477.0328    483.84933    395.95504    488.64903    37373.809 
  296700    311.57884   -1446.0994     536.5891    496.62832     115.8964    37373.809 
  296800    295.15883   -1481.9115    495.24244     345.3669    409.03595    37373.809 
  296900    295.74326   -1457.1997     484.8923    362.36606    732.74238    37373.809 
  297000    297.34868   -1492.3435    525.39128    374.96643    586.41065    37373.809 
  297100    305.01787   -1443.1689    498.17328    431.53374    670.12602    37373.809 
  297200    291.86709   -1457.5268    479.98259    339.63634    7.1620519    37373.809 
  297300    299.66961    -1466.243    511.85125     398.0011   -540.15398    37373.809 
  297400    294.84357   -1460.7762    491.49715    361.33421   -286.18269    37373.809 
  297500    299.73067   -1456.0632    471.26241    367.86772   -1119.9626    37373.809 
  297600    290.95481   -1437.3482    514.11388    389.82917   -918.51957    37373.809 
  297700    307.39569   -1486.6064    494.41632    395.07018   -878.48002    37373.809 
  297800    299.84082   -1483.1882    462.18381    332.16111   -539.58379    37373.809 
  297900    305.51547    -1469.209    509.82991    419.39583   -736.73373    37373.809 
  298000    295.64043   -1504.4513     526.5399    356.29797    -414.1012    37373.809 
  298100    307.61185     -1539.09    476.11511    325.26089    -8.966525    37373.809 
  298200     294.7254   -1484.5441    504.97913    350.51495     469.9546    37373.809 
  298300    291.90946   -1504.7288    509.59231    322.23529    549.79993    37373.809 
  298400    300.51765   -1540.9135    485.46024    300.76681   -106.79092    37373.809 
  298500    300.91036   -1513.3271    483.37713    328.04235   -416.16551    37373.809 
  298600    293.25441   -1553.4272    479.77205    249.78627    292.64076    37373.809 
  298700    307.73269    -1548.722    481.53312    321.59227   -238.07639    37373.809 
  298800    312.38861   -1541.7486    491.15635    359.20076   -181.86842    37373.809 
  298900    304.36687    -1493.224    498.75816    379.12554   -421.06801    37373.809 
  299000    292.87531     -1525.85    485.39932    281.27986    81.981177    37373.809 
  299100    306.55683   -1520.4881    498.93263    361.91906   -261.06928    37373.809 
  299200    298.85401   -1513.8088    471.14986    306.05316    -341.7761    37373.809 
  299300    295.29456   -1518.3489    499.56967     313.8693   -408.31473    37373.809 
  299400    301.06667    -1497.005    472.77388    334.46661   -137.53018    37373.809 
  299500    310.09548   -1485.0176    496.83438    411.26108   -507.26258    37373.809 
  299600    301.20829   -1514.1157     507.3873     352.6085   -135.81198    37373.809 
  299700    303.88124   -1562.5351    483.69194    292.55662   -49.178931    37373.809 
  299800    303.26499   -1538.8257    473.22725    303.02013   -234.68294    37373.809 
  299900    293.15525   -1534.0974    489.62827    278.52483   -266.90907    37373.809 
  300000    292.62146   -1541.7774    490.03347    268.84107    87.815124    37373.809 
  300100    293.78581   -1570.9923    500.27404    255.12141    358.91357    37373.809 
  300200    306.59158   -1596.2359    500.48694    287.88244    705.97016    37373.809 
  300300     295.0833    -1564.151    494.57665    262.12079   -530.03339    37373.809 
  300400    295.43789   -1580.0929    467.50328    220.70581   -261.15374    37373.809 
  300500    303.30161   -1583.3596    472.64255    258.06683   -329.26411    37373.809 
  300600    299.75752   -1517.2378    513.77165    349.32342   -579.66824    37373.809 
  300700    296.88673   -1531.3398    470.65647    279.15057   -243.03551    37373.809 
  300800    303.27104   -1572.8082    475.48428    271.32209   -521.61476    37373.809 
  300900    293.94895   -1552.6654     495.2643    269.17474   -480.76581    37373.809 
  301000    305.88534   -1531.8299    495.38935    344.00362   -535.52334    37373.809 
  301100    298.16514   -1520.8796    474.90553    299.62921   -522.29707    37373.809 
  301200    301.80757   -1507.4112    486.32414    340.95436   -284.67107    37373.809 
  301300    305.47442   -1478.5389    519.00934    419.06015   -213.90624    37373.809 
  301400    294.31964   -1500.8009    510.11824     337.5661     52.25848    37373.809 
  301500    300.19883   -1504.4804    512.33039     362.6312    109.33412    37373.809 
  301600    308.45748   -1532.9192    531.19593    390.32882    49.848439    37373.809 
  301700    297.66259   -1487.8806    511.31705    366.77177    79.606344    37373.809 
  301800    301.31426    -1519.132    506.45222    347.13532   -84.423733    37373.809 
  301900    297.50688   -1459.0842    493.64335    377.19174     216.2084    37373.809 
  302000    311.50561   -1494.2996     521.6237    433.13222    300.97946    37373.809 
  302100    300.95488   -1483.6484    505.10757    379.65245    241.69337    37373.809 
  302200    317.86689   -1502.1683    517.37882    449.72674   -150.21222    37373.809 
  302300    293.06812   -1493.6501    513.02242    341.97307   -172.47142    37373.809 
  302400    303.69081   -1511.1598    541.50681    400.88739   -23.202549    37373.809 
  302500    291.23565   -1477.2199    500.39534    337.50633    229.41524    37373.809 
  302600    304.28573     -1456.15    522.68365    439.75883    320.55209    37373.809 
  302700    302.15961   -1455.6183    515.03839    423.05024    865.64309    37373.809 
  302800    309.20126   -1470.1898    509.88937     435.1083     309.3188    37373.809 
  302900    296.37361      -1502.7    478.54441    313.36259    465.65813    37373.809 
  303000    291.40926    -1467.417    516.09656    363.79398    526.52503    37373.809 
  303100     307.7345   -1487.6477    519.97451    421.11612    146.39027    37373.809 
  303200    305.58395   -1502.2785    500.67355    377.47903   -28.217096    37373.809 
  303300    306.95775    -1528.627    512.71365    369.37056    479.10627    37373.809 
  303400    298.87311   -1546.3554    526.03491     328.4778    138.63034    37373.809 
  303500    298.18184   -1481.2882    491.29426    355.68471   -87.307299    37373.809 
  303600    294.88152   -1516.4313    524.63827    338.99148    220.29934    37373.809 
  303700    290.39955   -1478.2177    520.08064    352.42052    -436.1982    37373.809 
  303800    316.64329   -1476.8593    499.98872    452.12359   -164.77366    37373.809 
  303900    295.97745   -1518.3782     494.4927     311.8449   -45.039877    37373.809 
  304000     295.8149   -1518.9836    504.56906     320.5822    122.57445    37373.809 
  304100    309.47556   -1499.1113    499.48882     397.0241    442.69651    37373.809 
  304200    289.65515   -1530.3456    470.55209    247.40468   -439.70357    37373.809 
  304300    307.67744   -1484.4293    541.79393    445.89644    315.49111    37373.809 
  304400    290.87923   -1505.6032    505.56319     312.6824   -50.317414    37373.809 
  304500    300.76225   -1477.3055      505.909    385.92739    19.754773    37373.809 
  304600    287.45065   -1501.7629    502.10205    297.58851      233.738    37373.809 
  304700    300.36476    -1512.885    513.10726    355.75227    224.58912    37373.809 
  304800    297.55024   -1475.9455    502.57558    369.45836    548.17056    37373.809 
  304900    295.85516   -1514.9904     510.5326     330.7207    458.10959    37373.809 
  305000    295.07348   -1507.8619    498.29092    322.07983    475.87084    37373.809 
  305100    305.63619   -1542.2551    496.33467    333.39935    634.47554    37373.809 
  305200    298.57713    -1491.863    486.62438    342.22394   -385.57111    37373.809 
  305300    292.15362   -1503.1259    493.75121     309.0989   -938.36032    37373.809 
  305400    302.61043   -1493.1214    482.11578    354.65902    -449.4475    37373.809 
  305500    302.24065   -1472.0276    500.80463    392.77286   -408.25833    37373.809 
  305600    299.01924   -1491.3965    517.20506    375.26642   -53.456329    37373.809 
  305700    292.35305   -1462.9331    514.18039    370.62089   -256.21551    37373.809 
  305800    297.73324    -1477.723    497.60365    363.53483    -268.7854    37373.809 
  305900    298.77232   -1473.8072    502.82841    377.36467    99.374996    37373.809 
  306000    292.96637   -1485.9361    483.39234    319.59772   -62.427693    37373.809 
  306100    306.86937   -1477.5746    516.02829    423.33868   -116.25112    37373.809 
  306200    302.28083   -1471.7054    490.15222    382.62399   -61.142685    37373.809 
  306300    286.60917   -1520.6911    488.11558    260.87636      20.6192    37373.809 
  306400    303.29197   -1506.2468    524.33449     386.8281    625.56558    37373.809 
  306500    307.86578   -1513.9869    502.86293    378.25778    409.36598    37373.809 
  306600    292.93071    -1503.134    482.67712    301.52376    256.05688    37373.809 
  306700    296.37691   -1512.6182    528.34024     353.2552    614.52518    37373.809 
  306800    292.49147   -1474.5503      485.365    330.81299    1122.1919    37373.809 
  306900    302.49811   -1484.7644    501.03096    381.42434    1270.0176    37373.809 
  307000    302.14673    -1442.779     517.0165    437.80947    785.20206    37373.809 
  307100    293.76509   -1495.0369    473.18494    303.89412    635.85638    37373.809 
  307200    301.20551   -1454.6231    494.91022    399.61146    2.4449906    37373.809 
  307300    301.94863   -1455.1234    490.50814    398.06278   -11.046173    37373.809 
  307400    296.75227   -1448.3167     492.7898    383.70022    99.378216    37373.809 
  307500    296.34922   -1470.9418    486.20642    352.67274   -375.03796    37373.809 
  307600    304.68296   -1494.5139    490.93851    371.44246    17.696492    37373.809 
  307700    302.63143   -1475.0817    493.50965    384.18741    153.45892    37373.809 
  307800    302.93775    -1489.978    471.77591    348.93969     193.9023    37373.809 
  307900    298.34448   -1469.3438    497.88044    374.94925   -14.468679    37373.809 
  308000    304.84932    -1464.153    513.54314    425.15877    334.94789    37373.809 
  308100    292.89906   -1492.3091    495.24696     324.7756    720.53756    37373.809 
  308200    304.99599   -1502.6856    484.18264    357.92758    50.577381    37373.809 
  308300     307.1261   -1459.4135    489.05819    415.68827   -136.65689    37373.809 
  308400    294.32845   -1492.3659     474.6766     310.5992     265.5946    37373.809 
  308500    295.70326   -1464.1691    503.98371    374.30757    553.11203    37373.809 
  308600     301.6323   -1491.7189    497.28777    366.81929    670.72442    37373.809 
  308700    304.96601   -1525.3035    497.80484    348.79658    279.43309    37373.809 
  308800    308.64957   -1495.5566    485.56879    382.93114    320.72817    37373.809 
  308900    308.69513     -1503.54    486.51174    376.09638   -137.65242    37373.809 
  309000    306.96613   -1455.2041    501.36703     431.4846   -237.67061    37373.809 
  309100    313.70435   -1439.4046    497.44775    473.77409   -87.483993    37373.809 
  309200    286.11452   -1436.7811    498.16264     352.6011    -660.6329    37373.809 
  309300    297.30932   -1509.1702    466.59761    299.16847   -581.94942    37373.809 
  309400     289.6828   -1516.2708    486.62421     277.6764   -86.185511    37373.809 
  309500    308.43841   -1531.8566    475.21697    335.32635    133.91551    37373.809 
  309600    299.69465   -1506.5148    470.08567    316.07674   -236.90517    37373.809 
  309700     301.5149   -1524.5901    464.20716    300.33767   -97.036944    37373.809 
  309800    291.93325   -1460.3857    516.74774    373.84116   -143.20554    37373.809 
  309900      298.164   -1531.7503    463.49842    277.34626    145.87061    37373.809 
  310000    292.37856    -1525.186    472.33865    266.64144    170.72356    37373.809 
  310100    293.18658   -1505.0372    502.12797    320.22611    298.77036    37373.809 
  310200    298.07069   -1468.3974    457.59819    334.37789    91.647316    37373.809 
  310300    289.59553   -1549.3289    510.68503    268.28521    410.93513    37373.809 
  310400    300.92154   -1545.0959     478.8048    291.75172     184.6798    37373.809 
  310500    307.41258    -1517.083    508.38591    378.63937    425.28864    37373.809 
  310600    290.44025   -1467.6147    486.61774    329.74431   -459.06241    37373.809 
  310700    303.06551    -1495.294    496.31514    368.73955    316.36865    37373.809 
  310800    296.34634   -1491.5289    464.46034    310.32659   -266.65496    37373.809 
  310900    301.50259   -1515.0912    471.83545    317.40929   -607.56681    37373.809 
  311000    303.58942   -1517.2215    478.22175    331.08304    -502.7799    37373.809 
  311100    304.81973   -1490.6398    483.67623    368.67151   -466.69793    37373.809 
  311200    296.54995   -1525.2812    492.99171    306.02456   -233.30447    37373.809 
  311300    294.89072   -1494.4959     471.5919    307.92198    46.270718    37373.809 
  311400    297.81828   -1433.0351    531.91788    442.92075   -484.80637    37373.809 
  311500    294.01984    -1453.435    512.15312    385.61389    502.12935    37373.809 
  311600    291.95265   -1473.9519    505.86465    349.47939    448.51522    37373.809 
  311700    287.50286    -1481.878     504.0441    319.65112     639.1343    37373.809 
  311800     295.1252   -1490.4559    502.58581    344.01418    672.20797    37373.809 
  311900    297.20868   -1486.5411    491.30605    346.05179   -317.48724    37373.809 
  312000    302.26132   -1468.1502    495.80602    391.74499   -135.80065    37373.809 
  312100    298.99593   -1504.7142     487.6168    332.25518     448.7296    37373.809 
  312200    304.01988   -1480.0721    513.86892    405.82222    504.99813    37373.809 
  312300    309.96291   -1503.0414    490.44862    386.25322    278.20405    37373.809 
  312400    298.57154    -1499.863    508.63416    356.20849     101.5513    37373.809 
  312500    294.85179   -1499.3471    478.95913    310.26238    238.95395    37373.809 
  312600    307.69918   -1493.5773    496.73684    391.78942    733.15087    37373.809 
  312700    301.60899   -1492.1365    484.55008     353.5588     68.84363    37373.809 
  312800    294.05772   -1489.6653     469.9734    307.37477    172.94984    37373.809 
  312900    305.90705   -1471.4964     512.6963    421.74196   -172.33434    37373.809 
  313000    292.15129   -1501.2242    489.66659    306.90555   -125.36126    37373.809 
  313100    309.77712   -1469.0823    478.86366    407.78888    159.50221    37373.809 
  313200    309.82057   -1440.4477    503.89521    461.65114    674.77978    37373.809 
  313300    293.96233   -1429.0389    508.61817    406.21552    336.03163    37373.809 
  313400    298.75693   -1453.4578    507.36902    402.18519    120.12625    37373.809 
  313500    307.73213   -1454.9368    511.91807    445.75985   -15.577691    37373.809 
  313600    289.67143   -1440.8556    490.27008    356.68613   -665.62643    37373.809 
  313700    296.56351    -1425.614    489.62936    402.39056   -968.64721    37373.809 
  313800    305.84251   -1450.0847    486.73598    416.90213   -642.58898    37373.809 
  313900    301.70738   -1375.3007    514.35337    500.64193   -603.25165    37373.809 
  314000    298.08516   -1409.1931    507.31864    443.36792    265.00876    37373.809 
  314100     304.3006   -1443.1818    487.30918     417.4197   -214.07767    37373.809 
  314200    295.10827   -1446.9256    499.16051     384.0427    -114.3214    37373.809 
  314300    298.11525   -1432.0261    493.82061    407.17268   -425.29655    37373.809 
  314400    300.91977   -1405.4206    526.01365    478.62783   -62.959921    37373.809 
  314500    311.32093     -1430.08     518.8955    493.79018    410.36602    37373.809 
  314600    296.93611   -1450.6873    487.03574    376.40524   -94.215558    37373.809 
  314700    297.52251   -1437.6406    539.80779    444.87033    212.47538    37373.809 
  314800    301.94868   -1426.4884    483.18129    419.37108    118.66737    37373.809 
  314900    302.59122   -1471.2094    500.18321    394.55179   -612.11696    37373.809 
  315000    298.34768   -1432.6647    523.98853    437.75096   -371.78189    37373.809 
  315100    300.55172   -1466.3481    500.30816    390.33387   -664.06959    37373.809 
  315200    301.85672   -1420.1883    493.58869     435.6636   -492.23294    37373.809 
  315300    292.96032   -1505.9381    494.05343    310.22959   -819.87925    37373.809 
  315400     294.2294   -1446.6734    512.77124    393.93935    140.66444    37373.809 
  315500     297.5489    -1437.567     475.9582    381.21346   -164.39764    37373.809 
  315600    295.33612   -1447.4697    504.80693    390.17332   -123.32759    37373.809 
  315700    312.95611   -1470.4513    514.45051    456.35339    216.71512    37373.809 
  315800    304.92183   -1440.3412    491.79374    427.54847   -66.023201    37373.809 
  315900    301.67445   -1492.2226    488.47093    357.68892   -15.534331    37373.809 
  316000    304.38376   -1474.7681    477.75083    376.65031    233.57644    37373.809 
  316100    300.25891   -1460.0152    503.95895    398.99616   -1.5223918    37373.809 
  316200    297.46757   -1486.3814    512.75934    368.83312   -361.47665    37373.809 
  316300    299.61571   -1494.5835    502.05113    359.61732     292.8238    37373.809 
  316400    299.91479   -1509.7567    486.84501    330.58766    349.05496    37373.809 
  316500    292.81395   -1507.8154    485.45424    299.09249    628.25064    37373.809 
  316600    299.94872   -1482.2672    493.96811    365.35346    751.84902    37373.809 
  316700    298.81368   -1454.9326    510.93767    404.53522    292.97368    37373.809 
  316800     296.4137   -1488.9667    487.09833    335.83074    171.71442    37373.809 
  316900    300.01607    -1471.673    496.20561    378.48901    -28.42202    37373.809 
  317000    304.13915   -1490.2016     481.3399    363.70196    223.82933    37373.809 
  317100    312.99333   -1512.8616    476.05284    375.71333   -51.528438    37373.809 
  317200    307.94433   -1449.4967    496.94881    437.18838    345.01772    37373.809 
  317300    312.12228   -1513.9777    475.63725    370.25064    324.25388    37373.809 
  317400    305.20912   -1488.1567    488.64764    377.88329    561.03388    37373.809 
  317500     306.2517    -1511.289    478.49159    349.30011    320.69522    37373.809 
  317600    309.92736   -1514.1572    485.58273    370.11106    670.34975    37373.809 
  317700    293.80941   -1528.5054    447.50507    244.94579    434.75406    37373.809 
  317800     309.4429    -1537.723    510.13255    368.90882    1068.5331    37373.809 
  317900    306.63657   -1509.5962    474.58378    348.82196    479.29199    37373.809 
  318000    304.60675   -1492.8086    493.05016    374.91546    158.85685    37373.809 
  318100    298.63918   -1530.7727    483.30756    300.27745   -382.26319    37373.809 
  318200    290.02271   -1473.9362     495.6901    330.61082    107.73632    37373.809 
  318300    289.29494   -1490.8099    506.13141     320.8941   -19.042335    37373.809 
  318400    304.41995   -1492.1156      468.624    350.33935   -135.95909    37373.809 
  318500    293.95503   -1487.2718    465.32805    304.65952    -937.1861    37373.809 
  318600    300.17805   -1513.6115    468.90567    309.98162   -845.19084    37373.809 
  318700    289.31106   -1454.0836     500.1016    351.66337   -561.09992    37373.809 
  318800    303.55133   -1487.3884    470.00677    352.52923   -475.41272    37373.809 
  318900    290.10522   -1509.0414    479.49586    279.68379    80.607792    37373.809 
  319000     303.2769   -1490.5773    489.01658    367.11167    47.707921    37373.809 
  319100    301.04052   -1447.9811     468.8026    379.40121    307.60589    37373.809 
  319200    303.49104   -1407.3009    484.16391    446.50185   -310.37134    37373.809 
  319300    302.03138   -1404.8959    485.54659    443.70214   -175.98347    37373.809 
  319400    305.51707    -1396.206    510.80918    493.38536   0.47100085    37373.809 
  319500    298.49992   -1413.5009    479.70696    413.32025    107.36469    37373.809 
  319600    300.67121   -1443.7978    514.14182    427.25705    685.01385    37373.809 
  319700     306.3987   -1462.5258    491.23824     411.4733   -126.67775    37373.809 
  319800    299.03748    -1457.919    502.37433    393.99549    39.027403    37373.809 
  319900    295.72357   -1485.1876    491.74703    341.14407    277.55141    37373.809 
  320000    299.39349   -1446.0149    502.00456    407.13637    435.15051    37373.809 
  320100    297.80806   -1426.1579    517.46384    435.29772   -68.291871    37373.809 
  320200    304.13943   -1462.2184    519.62897    429.97555    -286.4702    37373.809 
  320300    298.37489   -1473.7001    479.78742    352.63723    36.428022    37373.809 
  320400    309.13819   -1464.5351    497.22618    427.81514    27.725594    37373.809 
  320500    293.81513   -1477.1638     487.0967     335.9048   -562.54433    37373.809 
  320600    299.26293   -1457.4087     484.4747    377.62352   -91.924078    37373.809 
  320700    293.18334   -1474.7156    479.39077    327.79586    154.65683    37373.809 
  320800    291.97327   -1470.0939    506.02032    353.58617    28.599282    37373.809 
  320900    299.13158   -1494.0897    477.15172    333.02685     378.7936    37373.809 
  321000    293.09063   -1478.8558    493.55119    337.39774   -399.93126    37373.809 
  321100    297.05896   -1442.8387     496.3554    394.12791   -249.95553    37373.809 
  321200    293.75296   -1470.3379    496.25563     351.6091   -209.01263    37373.809 
  321300    295.66078   -1380.4014    514.30877     468.2086    352.53057    37373.809 
  321400    306.82982   -1461.7192    467.83884    390.82621    115.83029    37373.809 
  321500    298.29864   -1452.2412    501.36778    395.33237    550.91628    37373.809 
  321600    299.98827   -1413.1541    481.08955    421.76646    2.7961859    37373.809 
  321700    299.03398   -1459.5448     490.0986    380.07809   -665.19369    37373.809 
  321800     303.9697   -1451.2054    488.86646    409.45999   -533.38796    37373.809 
  321900     297.2914   -1448.6915    480.01916    372.98786   -28.495115    37373.809 
  322000    297.73502   -1484.0373    487.36213    346.98702    722.73303    37373.809 
  322100    301.65304   -1487.8948    510.77965    384.22892    -187.7345    37373.809 
  322200    301.65527   -1464.0457    483.36029    380.66866    59.367997    37373.809 
  322300    300.83158    -1468.994    475.09108    363.73388   -213.79648    37373.809 
  322400    296.40145   -1442.4729    494.39408    389.56508   -641.84164    37373.809 
  322500    305.69138   -1433.0337    483.57536    430.11046    238.13499    37373.809 
  322600    293.40437   -1427.3505    508.09562    404.86337    112.61129    37373.809 
  322700    306.59122   -1457.1094    526.39842    452.91881    389.42019    37373.809 
  322800    292.52472   -1471.2332    480.42615    329.34133    558.95803    37373.809 
  322900    298.71934   -1428.9138    507.10128    426.29186   -2.0575675    37373.809 
  323000    287.64044   -1435.4544    531.31145    393.96297    254.53125    37373.809 
  323100    297.00093    -1410.072    526.15023     456.4275    603.99806    37373.809 
  323200    302.49039   -1438.8634    506.73495    432.99451   -108.55593    37373.809 
  323300    300.29987    -1436.604     499.0155    417.64869   -100.85515    37373.809 
  323400    307.95431   -1426.7281    533.34683    496.40003   -107.10541    37373.809 
  323500    302.89938   -1453.7435    479.43237    392.65753    -513.7317    37373.809 
  323600    308.25661   -1413.4155    512.69108     490.4211   -595.42391    37373.809 
  323700    287.94972   -1430.9735    514.84493    383.37307   -481.79199    37373.809 
  323800    304.97564   -1441.3377    506.29278    441.29376   -249.12387    37373.809 
  323900    303.99606   -1495.1094    514.59939    391.40791   -240.90388    37373.809 
  324000    294.08183   -1466.5858    517.91816    378.50785     153.7941    37373.809 
  324100    307.70386   -1429.2883    549.70148     509.0642    71.178784    37373.809 
  324200    300.42005   -1400.3809    503.72098    459.11964   -125.33846    37373.809 
  324300    296.64222   -1424.3138    516.22217     430.6388   -418.07245    37373.809 
  324400     307.1233   -1408.3549    509.48042    487.15653    205.82375    37373.809 
  324500    302.14694   -1426.8713    501.93524    438.63695   -171.07196    37373.809 
  324600    309.68059   -1431.9327    527.39604    493.03527   -281.93619    37373.809 
  324700    296.83676   -1460.1417    498.07741    377.54416    258.43377    37373.809 
  324800    304.43537    -1419.002    502.77435    457.67285    244.80702    37373.809 
  324900    294.08605   -1456.4887    494.46688    365.17281    281.51216    37373.809 
  325000    303.42856   -1459.3925    529.25176    439.21613    212.24077    37373.809 
  325100    298.93873   -1443.1403     510.1814     416.1356    450.54836    37373.809 
  325200     295.2784   -1415.4341     522.9535    440.09497   -344.41537    37373.809 
  325300    301.31915   -1421.8661    500.29502    438.26616   -262.68848    37373.809 
  325400     302.7805   -1460.8816    481.87491    387.42547    12.995837    37373.809 
  325500    295.18323   -1483.7561    507.14399    355.53404   -424.07319    37373.809 
  325600    306.68415   -1432.6092    502.31099    453.75094     400.7037    37373.809 
  325700    292.50406   -1406.2381    513.21026    427.02736    157.61423    37373.809 
  325800    301.68487   -1428.9658    495.97653    428.49841    246.90726    37373.809 
  325900    311.84691   -1401.6654    522.70057    528.38356    907.59602    37373.809 
  326000    299.63593   -1386.5367    509.36959    475.07379    451.58054    37373.809 
  326100    304.83551   -1411.1973    511.50132    476.01037   -238.35606    37373.809 
  326200    307.26959   -1453.3861    507.90643    441.21154    26.946687    37373.809 
  326300    295.84508   -1470.2772      489.507    354.36281   -145.04192    37373.809 
  326400     316.7227   -1450.3972    503.51057    482.46597   -212.39712    37373.809 
  326500    308.23011   -1442.2001    503.41662     452.2425   -832.09163    37373.809 
  326600    291.29243    -1466.189    514.22098    362.61911   -1002.9823    37373.809 
  326700    295.04354   -1478.3722    493.64866    346.79215   -355.10058    37373.809 
  326800    308.92853   -1448.4848    513.73004    459.42308   -154.29432    37373.809 
  326900    306.47624    -1457.508    527.72455    453.32739   -122.15219    37373.809 
  327000    301.44288   -1443.5394    483.90478    400.76094     145.3158    37373.809 
  327100    292.81498   -1409.0481    512.38447    424.79468   -249.79729    37373.809 
  327200     292.9875   -1459.9954    517.30608    379.54755    201.20294    37373.809 
  327300     297.2917   -1389.0017    488.70506    441.36486  -0.21200501    37373.809 
  327400    301.76402   -1416.6594    518.26814    463.45361    85.580687    37373.809 
  327500    301.55978   -1398.2527    535.51189     498.1823    285.65119    37373.809 
  327600    302.18441   -1413.2052      491.614    442.15085   -7.7731553    37373.809 
  327700    298.33571   -1402.4405    529.05537    472.98798   -72.117918    37373.809 
  327800    298.23701   -1413.7354    496.87639     429.0686    154.41386    37373.809 
  327900     310.6373   -1461.1741    500.77826    441.49359   -471.81576    37373.809 
  328000    304.44893   -1436.7923    523.93308    461.10252    227.11374    37373.809 
  328100    302.03998   -1447.4752    498.71622    414.33127    27.315527    37373.809 
  328200    293.05725   -1428.3452    490.03714     384.2436   -671.86253    37373.809 
  328300    289.41643   -1446.4522    515.81636    375.48505   -261.91185    37373.809 
  328400     303.6197   -1418.9148    510.42525    461.72989    188.97969    37373.809 
  328500    291.09785   -1431.6666     507.4398    389.48222   -369.99181    37373.809 
  328600    307.52658   -1474.0365    504.68151      418.496   -309.12568    37373.809 
  328700    288.24636   -1492.7137    520.78557     328.9123    510.67675    37373.809 
  328800    292.81674   -1460.6757    517.20634    377.99687   -295.05081    37373.809 
  328900    311.07027   -1467.7166    517.13486     453.2617    33.639971    37373.809 
  329000    295.61805   -1482.6187    506.98845    358.47815   -9.1409472    37373.809 
  329100     297.4267   -1449.1906    519.98373    413.06386   -280.31481    37373.809 
  329200    291.94481   -1464.8361     511.1389    363.83411   -65.456757    37373.809 
  329300    295.85693   -1445.0878    525.73051    415.82914   -570.10101    37373.809 
  329400    309.04293   -1432.7569    531.56957    493.50684   -98.601983    37373.809 
  329500    290.79039   -1467.3688    489.77884    334.73147   -855.05859    37373.809 
  329600    304.37728   -1443.9171    516.99772    446.71901   -621.63355    37373.809 
  329700    295.19689   -1418.0931    503.13653    417.25117   -624.42336    37373.809 
  329800    291.61127   -1388.5698    496.59969    424.05596   -656.30801    37373.809 
  329900    297.93345   -1422.5365    548.32733    470.34853   -646.34448    37373.809 
  330000    308.39407   -1417.0601    513.16036    487.86613   -561.13471    37373.809 
  330100    298.12301   -1426.7637    508.93608    427.58556   -511.21929    37373.809 
  330200    295.53179   -1420.9633    487.67172    400.42754   -421.15426    37373.809 
  330300    299.79388   -1386.4325    535.43616    501.95743   -302.87158    37373.809 
  330400     298.2674   -1407.0976    501.84087    440.80806    -287.8208    37373.809 
  330500    293.76023   -1419.2519    502.28101     408.7533    15.112112    37373.809 
  330600    291.80612   -1470.8758    509.68288    355.71248    598.94956    37373.809 
  330700    293.62224   -1445.5132    515.44156    395.02986    418.00988    37373.809 
  330800     304.1853   -1437.2389    527.63964    463.17268    638.52019    37373.809 
  330900    298.91846    -1420.798    504.43618    432.64119    966.10639    37373.809 
  331000     309.7031   -1449.4189    501.44599    449.70057    224.71054    37373.809 
  331100    299.74068   -1482.6056    509.08304    379.19104   -199.55236    37373.809 
  331200    295.45643   -1447.5772    495.71127    381.51307    171.90946    37373.809 
  331300     302.7818   -1495.5597    488.63599     359.5143   -293.78478    37373.809 
  331400    310.50681   -1504.7706    489.88538    386.41534    164.34242    37373.809 
  331500    307.67005    -1461.669     505.9267    432.75619    436.39437    37373.809 
  331600    285.01758   -1509.2454    502.55487    279.57852   -441.18815    37373.809 
  331700    296.07409   -1509.8725    485.65504    311.94899   -539.43738    37373.809 
  331800    297.61167   -1455.9484    516.23447    403.39163   -16.108662    37373.809 
  331900    300.14256   -1489.4146    515.14471    380.25742    487.94847    37373.809 
  332000    300.73612   -1521.8499     524.7741    360.13018   -92.074546    37373.809 
  332100    298.19591   -1482.4396     482.7433    346.04586    326.11002    37373.809 
  332200    300.67391   -1515.7872    486.96568    328.10377    489.00218    37373.809 
  332300    304.15919   -1517.6787    480.46615    335.44158    221.48647    37373.809 
  332400    306.76137   -1522.0127    494.62281    357.00771    513.99618    37373.809 
  332500    301.49895   -1478.6627     486.7254    368.71134    98.134437    37373.809 
  332600    294.35131   -1492.9137    513.47124    348.94927   -253.57954    37373.809 
  332700    311.47552   -1514.5256    506.44251    397.58925    584.10792    37373.809 
  332800    296.50246   -1530.0562    506.88636    314.92983    720.68218    37373.809 
  332900    293.46538   -1483.8959    511.68293    352.18054    542.65217    37373.809 
  333000    297.24713   -1494.9543     505.8709    352.37699    397.10846    37373.809 
  333100    302.11457   -1489.5702    494.88391    368.74056    61.049998    37373.809 
  333200    294.55631   -1528.7419    493.94564    294.52062   -372.11848    37373.809 
  333300    309.67141    -1526.837    470.88432    341.57777   -15.169244    37373.809 
  333400    292.76501   -1552.0317    477.12446    246.32556   -432.68946    37373.809 
  333500    298.80024   -1487.2008    505.75297    367.02159   -793.42468    37373.809 
  333600    299.14758   -1517.5054    492.08578    324.61734   -693.74751    37373.809 
  333700    290.11419    -1470.528      511.124    349.86581   -535.80273    37373.809 
  333800    303.24999   -1476.5517    522.06678    414.06608   -492.59377    37373.809 
  333900    294.78978   -1507.7072    501.09421    323.75751    122.29644    37373.809 
  334000    301.40911   -1513.6849    499.07433    345.63257   -126.75851    37373.809 
  334100    295.75648   -1518.7577    491.75578    307.73124    165.97309    37373.809 
  334200    302.74096   -1484.3547     519.8759    401.77498    521.71764    37373.809 
  334300    303.39412   -1501.5321    519.37529    387.04457    860.84134    37373.809 
  334400    299.23858   -1476.4416    522.63627    396.64235     122.3198    37373.809 
  334500    294.00205   -1503.7087    511.46057    334.56735    882.24062    37373.809 
  334600    297.11761   -1528.9597    516.35893    328.27512    1127.9365    37373.809 
  334700    308.38969   -1466.5315    482.82782    408.04247    479.76835    37373.809 
  334800    293.16384   -1486.9119    513.01342    349.13418    430.20183    37373.809 
  334900    303.15116   -1451.0709    484.56492    401.59896    563.29878    37373.809 
  335000    294.66739   -1461.6165    531.00354     399.2052    331.04099    37373.809 
  335100    291.25602   -1450.4611     512.8873    376.84904    564.84873    37373.809 
  335200    286.90303   -1468.5997    529.94876    356.12702    209.14212    37373.809 
  335300    303.91309   -1499.9503     502.2483    373.84146   -269.61459    37373.809 
  335400    306.17643   -1470.8763     509.3722    420.25377   -515.31372    37373.809 
  335500    306.86399   -1517.0396     494.2631    362.08429    35.877412    37373.809 
  335600    309.58234    -1484.727     510.5935    422.99503    453.68682    37373.809 
  335700    302.58081   -1488.5396    507.72713    384.71849   -351.69373    37373.809 
  335800    293.65279   -1491.3602    505.52883    339.40792   -378.74538    37373.809 
  335900     297.5483   -1437.9435    500.39398    405.27004   -219.86861    37373.809 
  336000    301.99231   -1445.5366    518.76489    436.10338   -70.182743    37373.809 
  336100    290.76069   -1491.4639    500.47753     321.2011   -503.85323    37373.809 
  336200    309.62693   -1495.2565    483.10441    385.17769   -310.82674    37373.809 
  336300    298.51737   -1495.9363    495.94307    347.19962   -328.32148    37373.809 
  336400    294.46119   -1496.9074    492.32926    324.30944   -688.61825    37373.809 
  336500     295.6105   -1493.4548    510.14084    350.76039   -1007.0683    37373.809 
  336600    308.05815   -1499.9032    478.54582    368.89254   -459.39224    37373.809 
  336700    293.42852   -1494.9632    499.65844    328.92237   -356.85775    37373.809 
  336800    299.89906    -1470.531    499.93354    382.83094    -897.8423    37373.809 
  336900    292.59006   -1452.3578    481.39837    349.48384   -601.73786    37373.809 
  337000    296.47929   -1453.6593    503.82743     388.1633    313.47126    37373.809 
  337100    296.89992   -1460.1916    526.98569    406.68751      480.358    37373.809 
  337200    290.73932   -1489.5005      510.243    332.83348    558.14306    37373.809 
  337300    307.21497   -1497.6556    479.84478    368.63387   -160.62178    37373.809 
  337400    299.56624   -1499.0231    533.77659     386.6799    123.87925    37373.809 
  337500    303.29674   -1491.7268    478.91944    355.95456    253.88081    37373.809 
  337600    295.81504   -1478.5311    512.52719     368.9935     284.0666    37373.809 
  337700    312.86589   -1495.3133    498.99734    415.63109    251.27968    37373.809 
  337800    291.17148   -1425.5192    513.47722    401.99935    83.186006    37373.809 
  337900    296.63975    -1457.897    505.64036     386.4627    41.212573    37373.809 
  338000     306.2981   -1449.5491    502.78895    435.54677    212.11236    37373.809 
  338100    296.16852   -1432.3762    513.65059    417.86706    447.71373    37373.809 
  338200    310.54744   -1412.8697    517.79163    506.40585    566.41309    37373.809 
  338300      297.917   -1501.8225    496.40279    339.06376    624.17918    37373.809 
  338400    292.16755   -1454.1631    511.31589    375.68931    429.51946    37373.809 
  338500    300.22104   -1490.4987    492.32665    356.70947    323.58496    37373.809 
  338600    301.82886   -1492.1184    481.69533    351.71437    256.84234    37373.809 
  338700    292.03038   -1471.1551    497.40909    344.17149   -321.64611    37373.809 
  338800     284.5781   -1440.6811      483.375    326.97959   -644.55701    37373.809 
  338900    294.80308   -1459.8502    482.53125    353.11158   -564.66092    37373.809 
  339000    297.99858   -1480.0489    503.85503    368.65773   -406.86667    37373.809 
  339100    292.64275   -1455.3457    501.54723    366.88258   -417.04081    37373.809 
  339200    297.70229   -1484.6436    517.05312    375.92397    444.23101    37373.809 
  339300    307.27414   -1467.8959    481.54006    400.35588    590.66341    37373.809 
  339400    295.40019   -1488.7703    484.60359    328.95854    242.28739    37373.809 
  339500    295.61289   -1475.4153    508.91149    367.58131    139.53647    37373.809 
  339600    310.45306   -1428.1089     489.1483    462.09744    40.120612    37373.809 
  339700    293.98534   -1475.1701    501.82828    353.39829   -415.13384    37373.809 
  339800    308.54043    -1512.082    474.95144    355.29589   -512.18675    37373.809 
  339900    307.48265   -1444.9859    508.88274     451.5496    82.802142    37373.809 
  340000    303.02125     -1487.86     508.0858    387.74447   -276.46745    37373.809 
  340100    298.16328   -1512.0732    503.39505    336.91679    92.829659    37373.809 
  340200    303.59198    -1470.693    481.06901    380.47032    87.720841    37373.809 
  340300    298.53091   -1435.6909    515.14055    426.70366    415.53174    37373.809 
  340400     287.8202   -1424.0416    489.22674    364.10229    86.533105    37373.809 
  340500     298.6986   -1466.6324    498.88658      380.265    499.03221    37373.809 
  340600    296.23137   -1496.1695    474.52393    315.23075   -582.06645    37373.809 
  340700    293.68809   -1500.2275    516.12781    341.29897   -721.15548    37373.809 
  340800    298.24767   -1520.1076    509.05471     334.9229   -285.11658    37373.809 
  340900    292.21897   -1517.5463    506.94694    308.16918   -334.85868    37373.809 
  341000    302.27733   -1519.5014    508.71869    353.37862   -183.13062    37373.809 
  341100     310.2946   -1525.9814    511.10661    385.46806   -293.20941    37373.809 
  341200    299.40736   -1443.3192     509.3642    417.25437    338.58344    37373.809 
  341300    293.97404    -1508.757    501.51458    319.44666   -115.62601    37373.809 
  341400     301.8316   -1491.5683    490.91373     361.4953    462.90869    37373.809 
  341500    307.76053   -1519.7575    484.34158    353.49089    228.25425    37373.809 
  341600    305.39736   -1486.1842    494.51703    386.57476     56.54306    37373.809 
  341700    304.30849    -1525.833    488.57945    336.07432   -372.28734    37373.809 
  341800    289.95255   -1513.5384    497.48276     292.4847   -365.66282    37373.809 
  341900    295.21993   -1493.4634    489.10304    327.95134   -326.31437    37373.809 
  342000    298.75028   -1456.6412    521.75916    413.36199    195.86582    37373.809 
  342100    301.61917   -1502.2684    515.78139    374.70415    264.56226    37373.809 
  342200    294.16819   -1476.0193    499.75617     351.3021    63.014564    37373.809 
  342300     294.9729   -1453.8878    481.91456    359.22363   -44.911806    37373.809 
  342400    306.35702   -1489.8946    504.62531    397.30355    81.821994    37373.809 
  342500    291.75058    -1484.289    478.46438    310.83011   -641.82507    37373.809 
  342600    294.16069    -1477.444    518.87526    368.96269   -635.19431    37373.809 
  342700    299.81346   -1522.1855    508.48414    339.34077    -43.30215    37373.809 
  342800    312.52293    -1465.804    479.98299    424.57822    269.23739    37373.809 
  342900    293.89803   -1481.3576    502.47795    347.46642   -27.276723    37373.809 
  343000    309.88402   -1477.8831    496.63808    417.24491    554.36009    37373.809 
  343100    288.57217   -1489.2488    497.17254    310.23445    739.15872    37373.809 
  343200    296.10957   -1486.4482    508.45157       358.33    692.91718    37373.809 
  343300    312.14386   -1496.2886    496.85729    409.25719    975.92867    37373.809 
  343400     309.6424   -1456.7908    499.11075     439.7195    847.39674    37373.809 
  343500    297.81449    -1480.877    502.36906    365.51295    691.83163    37373.809 
  343600    303.32864   -1465.9745    493.45608    396.38743    988.84572    37373.809 
  343700    304.59526   -1498.9063    473.87584    349.59166    406.91189    37373.809 
  343800    307.45805   -1468.9305    488.92852    407.53974    70.150223    37373.809 
  343900    291.65399   -1466.8293    492.78801    342.17757   -11.316646    37373.809 
  344000     295.2595    -1509.154    485.78356    309.11988    251.33047    37373.809 
  344100    291.33945    -1460.256    516.65458    371.19791    611.06559    37373.809 
  344200     291.9732   -1486.4599    499.50911    330.70865    199.76441    37373.809 
  344300    299.43418    -1451.908    500.34131    399.76369    158.28863    37373.809 
  344400    306.16663   -1467.1884    505.36807    419.89329   -573.46452    37373.809 
  344500    295.04221   -1452.5289    510.94244    389.92322   -278.86481    37373.809 
  344600      309.351   -1477.9217    492.31168    410.47446   -149.06412    37373.809 
  344700    292.16116   -1467.7976    523.26575    373.97579   -561.72669    37373.809 
  344800    303.42696   -1454.5521    493.97546    408.77294   -365.28545    37373.809 
  344900    305.29164   -1441.7226    482.22795    418.27012   -373.16072    37373.809 
  345000    302.97179   -1405.9708    509.01258    470.33728    116.20351    37373.809 
  345100    297.98669   -1422.7249    531.18964    453.26266   -484.62132    37373.809 
  345200    302.53076   -1414.6746    516.67274    467.30327    101.49387    37373.809 
  345300    286.53905   -1421.7349    518.75784    390.15835    74.389138    37373.809 
  345400     302.2774   -1429.5418    489.70172    424.32165    -357.1444    37373.809 
  345500    296.61818   -1411.0064    486.58596    414.20151    218.53411    37373.809 
  345600    300.87977   -1454.5346     515.6673    418.98696    381.57037    37373.809 
  345700    293.35139   -1472.1267    463.93048     315.6829    347.05715    37373.809 
  345800    303.55237   -1440.5308    502.05689     431.4417    778.87122    37373.809 
  345900    283.23287   -1425.0166    514.76227    367.96041    1201.4861    37373.809 
  346000    303.50157   -1455.1653    514.60683    429.12791    1131.2758    37373.809 
  346100    301.97566      -1410.7    493.60316    445.70318    1036.6648    37373.809 
  346200    307.35214   -1433.7896    488.58237    441.85656    865.98966    37373.809 
  346300    304.53845   -1429.6726     471.9161     416.6092    871.65187    37373.809 
  346400    298.87875   -1403.8902    511.14155    456.07512    196.27463    37373.809 
  346500    298.71092   -1434.7954    482.11936     395.3903   -271.65795    37373.809 
  346600    294.14876   -1436.5021    496.50281    387.47831   -235.42031    37373.809 
  346700    299.03008   -1428.4345    510.53255    431.60473    151.72787    37373.809 
  346800    301.98761   -1456.5188    514.38843    420.72353    221.97032    37373.809 
  346900    295.93443   -1442.8652    496.27822    388.94919    273.05098    37373.809 
  347000    296.73264   -1411.7904      485.666    413.01414    272.61179    37373.809 
  347100    301.53258   -1430.5212    509.70423    439.98338   -138.14351    37373.809 
  347200    303.89229   -1446.9277    495.59028    420.11221    91.527513    37373.809 
  347300    312.06412   -1416.3362    476.06248    468.05495    323.51879    37373.809 
  347400    291.60393   -1411.2023    509.77724    414.56789    391.20138    37373.809 
  347500    302.81087   -1441.0886    495.33525    420.81593    572.15422    37373.809 
  347600    298.36249   -1503.3024    475.70925    318.90074    184.73727    37373.809 
  347700    302.83384   -1476.4796    485.17594    375.36917    101.99404    37373.809 
  347800    302.24845    -1478.417    477.77577    363.38976    262.65367    37373.809 
  347900    300.30667   -1461.8346    463.58728    357.02057    269.86496    37373.809 
  348000    304.21735   -1451.8445    489.91704    410.98921   -197.61291    37373.809 
  348100    288.51294   -1443.8205    485.48113    343.70408   -748.00342    37373.809 
  348200    290.48671   -1451.9819    468.21582    327.18487   -580.05578    37373.809 
  348300    303.38667   -1444.9494    497.47504    421.69344    211.04118    37373.809 
  348400    303.84982   -1453.2047    492.29503    410.34823   -162.10166    37373.809 
  348500    301.67485    -1457.681    479.82501    383.58647   -456.89943    37373.809 
  348600    298.01166    -1445.152    472.99638    372.75498   -434.32839    37373.809 
  348700    302.23653   -1428.6322    486.99215    422.33717   -433.20885    37373.809 
  348800    304.05084   -1404.1537    491.11162    459.12303   -530.73306    37373.809 
  348900    295.00504    -1436.842    488.03979    382.53971   -151.02297    37373.809 
  349000    294.93258   -1399.0917    482.94569     414.8689   -331.32666    37373.809 
  349100    295.24382   -1448.1791    484.49263    368.73304   -280.57635    37373.809 
  349200    301.77998   -1440.7717    501.01357    422.15877     611.7204    37373.809 
  349300    304.68814   -1436.8861    501.67604    439.83119    573.72016    37373.809 
  349400    294.76571   -1422.1545    512.31866    420.42604    684.31951    37373.809 
  349500    292.69907   -1418.8205    491.89723    394.01193    542.53494    37373.809 
  349600    304.80525   -1407.1479    510.80418      479.226    199.95442    37373.809 
  349700    298.22021   -1417.5588    487.78424    416.07731     338.1324    37373.809 
  349800     302.3754   -1421.7192    477.74812    420.63293    -73.16276    37373.809 
  349900    305.76049   -1474.9923    489.22719    394.11565   -2.8177359    37373.809 
  350000    293.57279   -1448.1268    518.17294    394.92437    132.18329    37373.809 
  350100    294.59014   -1454.3773    479.14656    354.23878   -26.877829    37373.809 
  350200    302.95301   -1449.0037    493.84458    412.05161    637.62403    37373.809 
  350300     300.8494   -1453.4655    476.58182     380.8335    231.71504    37373.809 
  350400     310.1317   -1411.8851    489.72967    477.45234    632.06398    37373.809 
  350500    297.87429    -1439.077    485.84555    391.05926    368.78192    37373.809 
  350600    287.07795   -1426.8991    517.39149    386.05975    345.62337    37373.809 
  350700    296.66605   -1458.3028    496.36191    376.89708    300.17019    37373.809 
  350800    308.56845   -1407.0179    501.95933    487.49427    274.34343    37373.809 
  350900    297.83822   -1412.0554     487.3441    419.41661     321.8765    37373.809 
  351000    292.28082   -1482.0919    521.37814    358.33389    426.46127    37373.809 
  351100    297.88083   -1422.9845    500.47094    421.80665   -80.191578    37373.809 
  351200    303.87948   -1437.3782    496.45941    430.47296   -386.04401    37373.809 
  351300    289.31941   -1486.4841    478.62394    297.82284   -328.70607    37373.809 
  351400    297.52705   -1457.7658    475.50814    360.46594   -633.41677    37373.809 
  351500    305.12159   -1433.0471    497.96926    441.91953    124.08439    37373.809 
  351600    293.23056   -1500.7376    510.10407    332.70024    343.12349    37373.809 
  351700    298.37422   -1459.3655    485.44574    372.62716   -172.13441    37373.809 
  351800    297.51045   -1457.5646    504.90238    389.98643   -671.38276    37373.809 
  351900    303.69093   -1411.0343    480.07767    439.58429   -672.94347    37373.809 
  352000     298.3327   -1451.8858    497.89778    392.37146    -918.3431    37373.809 
  352100    299.43568   -1464.9444    479.44094    365.83369   -637.73273    37373.809 
  352200    292.79681   -1472.2595    508.11957     357.2364   -142.38997    37373.809 
  352300    295.99626   -1440.5669    506.76624     402.0146   -645.00629    37373.809 
  352400    304.30405   -1465.5581     482.6085    390.35823   -2.8421287    37373.809 
  352500    288.72871   -1493.8602    501.28513    310.44209   -53.254414    37373.809 
  352600    300.41745   -1429.3796    478.99473    405.38301   -452.86155    37373.809 
  352700    292.81922    -1443.553    500.81998    378.74445   -612.10852    37373.809 
  352800    305.52692   -1426.1591     487.6367    440.30425    418.92591    37373.809 
  352900    304.67808   -1435.7763    494.12724    433.34684    135.22279    37373.809 
  353000    301.06943   -1455.0906    514.50795    418.12749    281.65614    37373.809 
  353100    300.54265    -1479.115    465.64987    342.86774    154.58077    37373.809 
  353200    310.93348   -1483.9893    462.60414    381.84102    595.34773    37373.809 
  353300    294.36266   -1469.8107    466.21303    324.84525   -439.39448    37373.809 
  353400    308.05811   -1472.5357    482.90087    400.61489   -25.880264    37373.809 
  353500    310.45068   -1469.1505        482.8    414.69673    585.02376    37373.809 
  353600    296.31254   -1479.5719    512.79975    370.47051    328.63969    37373.809 
  353700    305.47564   -1497.4385    483.83653    364.99316    619.04554    37373.809 
  353800    296.24052   -1474.6862    480.44791    342.67927    533.58602    37373.809 
  353900    301.98002   -1428.5626    499.85409    434.11108    427.95259    37373.809 
  354000    307.41234   -1452.3888    487.74612    422.69277    891.38288    37373.809 
  354100    287.90901   -1439.6694    484.70529     344.3538   -146.44492    37373.809 
  354200    296.11587   -1477.2561    474.87772     333.9767    336.37229    37373.809 
  354300     298.3676   -1435.8758    489.68406    400.32527   -204.26905    37373.809 
  354400    307.41472    -1461.137    482.58961    408.79879   -54.061603    37373.809 
  354500    299.54603   -1473.3767    469.08335    347.54184   -406.24867    37373.809 
  354600    298.58573    -1481.112    484.40404    350.79346   -521.39653    37373.809 
  354700    304.99866    -1505.473    477.33674    348.30633   -63.034408    37373.809 
  354800    290.35871   -1519.4212     484.5677    275.51984   -50.817603    37373.809 
  354900     301.2683   -1485.0199    465.43663    340.02445    183.40249    37373.809 
  355000    295.38826    -1469.279    494.55894    358.35133    317.43256    37373.809 
  355100     284.9936   -1454.0525    505.53102    337.63934    347.09274    37373.809 
  355200     296.4527   -1484.6745    478.20055    331.40122    480.97124    37373.809 
  355300    304.05863   -1466.4593    490.54844    396.28945    -258.8288    37373.809 
  355400     292.6264   -1452.9108     476.6335    344.32992   -152.61007    37373.809 
  355500    289.24108   -1468.3038    490.80536    327.83109    146.43963    37373.809 
  355600    302.87063    -1464.478     501.1508    403.51172    362.31384    37373.809 
  355700    297.83541   -1464.5513    473.78666    353.35057   -150.20036    37373.809 
  355800    296.06733   -1487.8328    487.59405    335.89729    379.59507    37373.809 
  355900     300.3109   -1437.4037    498.37961     416.2629    137.84819    37373.809 
  356000     306.1148    -1441.571    466.09647    406.00513     151.2234    37373.809 
  356100    307.46255   -1455.2908    484.10153    416.37272    -463.6353    37373.809 
  356200    298.96568   -1475.8764     494.8886    368.22833   -43.656129    37373.809 
  356300     310.1653   -1465.2113    470.96275     405.5108    194.79285    37373.809 
  356400    302.00146   -1493.0384    474.89158    344.76961    327.05005    37373.809 
  356500     297.4755   -1480.5075    458.73747    320.72102   -254.85551    37373.809 
  356600      307.307   -1471.1322    470.18266    385.91043     64.18759    37373.809 
  356700    296.66413    -1421.606    489.34457    406.56792   -297.35088    37373.809 
  356800    316.71176   -1470.2748    501.06112    460.08945   -5.9228043    37373.809 
  356900    293.87554   -1446.6244    498.06025    377.68045    115.15117    37373.809 
  357000      301.368   -1441.6382    514.95568    433.37511   -670.83569    37373.809 
  357100    292.75031   -1388.8267    506.79559    439.13538   -997.78156    37373.809 
  357200    308.78333   -1435.9055    489.87362    447.49074    -340.0468    37373.809 
  357300    294.31216   -1429.2148      506.188    405.18822   -781.67122    37373.809 
  357400    301.58645   -1447.6757    486.71327    400.08105   -234.01822    37373.809 
  357500    301.29782   -1471.8187    518.59285    406.51507   -11.915313    37373.809 
  357600    306.20065   -1408.9684    508.97796    481.87672    -155.9489    37373.809 
  357700    296.64246   -1431.8674    482.17208    389.03619   -151.41868    37373.809 
  357800    309.84348    -1418.746    513.42101      492.982   -141.55673    37373.809 
  357900    301.07524   -1414.6456    474.61006    418.70088   -675.74146    37373.809 
  358000    305.88301   -1383.5955    516.85275    513.69093   -69.958648    37373.809 
  358100    297.00848   -1472.8551    470.91218     338.4404    178.34947    37373.809 
  358200     292.6829   -1458.3156    486.83085    349.37749   -83.592784    37373.809 
  358300    307.74861   -1472.5763    480.53493    396.81156    301.43265    37373.809 
  358400    303.93069   -1444.5503    482.66075    409.73337    147.74567    37373.809 
  358500    308.36876   -1442.9034    498.23404    446.98227    156.17153    37373.809 
  358600    311.80155   -1475.3581    463.87284    395.65842    434.47032    37373.809 
  358700     304.6679   -1423.3329    495.29962    446.91665    758.09343    37373.809 
  358800    303.90222   -1435.6342    483.30515    419.16537    467.97079    37373.809 
  358900    292.00783   -1403.4975    480.99309     395.3113   -249.58616    37373.809 
  359000     309.7183   -1411.4825    481.08556    467.34511   -49.729586    37373.809 
  359100     299.5324   -1416.5656    489.78128    424.98936   -99.564368    37373.809 
  359200    302.09023   -1395.8808    507.53417    474.97034   -459.80772    37373.809 
  359300     287.6285    -1414.598    494.49703    377.95106   -815.04734    37373.809 
  359400    301.20146   -1393.6079    482.49741    448.19558   -648.81777    37373.809 
  359500    297.55349   -1394.2273    493.77449     442.3902   -534.92931    37373.809 
  359600    302.75072   -1411.5246    509.39414    464.16737   -480.03993    37373.809 
  359700    308.00741   -1421.3811    486.63619    455.27608   -662.77801    37373.809 
  359800    315.92096   -1353.0401    487.08931    559.78355   -205.95652    37373.809 
  359900    290.36095   -1386.1571    519.60082    443.82712   -456.71988    37373.809 
  360000    295.80207   -1385.0481    495.04985    444.94065    -367.4769    37373.809 
  360100    303.98437   -1406.8232    508.95191    473.99387   -117.13974    37373.809 
  360200    297.32171   -1418.7385    519.80743     442.8659   -599.56044    37373.809 
  360300    306.03684   -1413.1925    471.46666    439.40197   -550.10315    37373.809 
  360400    306.25113   -1404.2596    480.02544     457.8608   -629.03895    37373.809 
  360500    300.74944     -1400.36    503.46687    460.37299   -465.34754    37373.809 
  360600    303.55299   -1389.4492    487.58891    468.05803    121.48735    37373.809 
  360700    301.24427   -1433.9879    510.90259    436.41394   -80.391372    37373.809 
  360800    295.18281   -1431.8372     491.1823    391.48926   -375.84087    37373.809 
  360900    307.35304   -1468.2345    466.29854    385.13184   -599.91553    37373.809 
  361000    292.22905   -1440.9068    515.89398    393.80122    97.976737    37373.809 
  361100    294.85746   -1453.6726    500.43552    377.43881   -198.01442    37373.809 
  361200    306.38256   -1468.6966    483.88562    397.87707     137.1412    37373.809 
  361300    305.48427   -1482.4267    466.21091    362.41837    215.62051    37373.809 
  361400    299.31582   -1459.3828    495.56592    386.97944     205.3792    37373.809 
  361500    298.93761   -1464.3452    489.80601    374.55024    585.11542    37373.809 
  361600    309.25358   -1462.7335     477.0476    409.95893    519.96421    37373.809 
  361700    298.51822   -1413.0165    478.49653    412.67677    23.435184    37373.809 
  361800    309.27443   -1418.6091      510.776    487.90579    51.625687    37373.809 
  361900    294.13846    -1464.441    485.43177    348.42184    15.525619    37373.809 
  362000    297.08536   -1473.9693    493.23542    359.99642    328.62063    37373.809 
  362100    293.01428   -1470.9943    501.16531    352.52876    640.27272    37373.809 
  362200    303.24318   -1503.6293     511.3653    376.25619    379.26831    37373.809 
  362300    297.45367   -1444.7075    498.65111     396.3361    351.80074    37373.809 
  362400    291.69386   -1461.5614    490.93561    345.77297   -33.713065    37373.809 
  362500    306.53944   -1430.0463    484.71682    438.06658    261.65963    37373.809 
  362600    305.23671      -1418.3    504.09636     463.3133    228.40781    37373.809 
  362700    298.57123   -1469.1766    490.94196     369.2013    487.30152    37373.809 
  362800    300.77499   -1491.1597    480.00836    346.23006     1029.142    37373.809 
  362900    301.32525   -1475.6233    484.68094    368.92238    905.48892    37373.809 
  363000     306.5402   -1460.3373    507.62098    430.68317    866.57339    37373.809 
  363100     299.6125    -1506.832    507.77846    353.08164    784.68011    37373.809 
  363200    304.52802   -1490.2707    498.60865    382.65654    677.47071    37373.809 
  363300    306.56624   -1450.6843    489.94607    422.77885    93.752564    37373.809 
  363400    299.95453   -1448.9878    476.13663    380.82756   -165.94269    37373.809 
  363500    298.84127   -1455.9049    517.44202    410.19181    37.594869    37373.809 
  363600    304.53197   -1490.5048    475.09222    358.92394   -62.799329    37373.809 
  363700    308.52162   -1445.8361    489.35178     435.8572   -18.112688    37373.809 
  363800    310.22584   -1472.6059    482.72279    410.14948   -639.13094    37373.809 
  363900     309.8312   -1430.6325    494.68384    462.30292    -19.39777    37373.809 
  364000    296.77148   -1448.1433    503.29289    394.46344    17.716697    37373.809 
  364100    311.47218   -1436.7602    509.45986     478.3569   -71.885748    37373.809 
  364200    306.12693   -1437.6088    479.11104    423.03673    51.715503    37373.809 
  364300    294.76131   -1445.6849    516.97179    401.52887    -138.3802    37373.809 
  364400    308.43114   -1451.5282     495.5321    435.93708    331.95358    37373.809 
  364500    295.19689   -1470.5023    510.51553    372.22095   -440.86808    37373.809 
  364600    297.43658   -1474.7317     478.4486    346.03226   -362.16691    37373.809 
  364700    309.54608   -1492.6956    475.81613    380.08537   -283.89213    37373.809 
  364800    292.52116   -1462.3581    498.35933    356.13357   -92.847892    37373.809 
  364900    302.50271   -1469.6609     489.4585    384.97614    175.51199    37373.809 
  365000    289.84699   -1482.6234    473.01333    298.45385    297.88824    37373.809 
  365100    303.06796   -1497.8329    498.02783    367.92441   -64.975507    37373.809 
  365200    292.09235   -1479.1376    474.01467    313.07415     -99.8295    37373.809 
  365300    293.19832   -1490.0173    476.39653    309.56756    -191.0899    37373.809 
  365400    289.23975   -1464.5194    512.04905    352.85313    104.41567    37373.809 
  365500    290.92451   -1475.0079    468.36553    306.28432   -704.23498    37373.809 
  365600     288.8435   -1474.6058    493.12872     322.0582   -630.41691    37373.809 
  365700    293.48197   -1499.9088    467.78555    292.34513   -348.19843    37373.809 
  365800    296.41614   -1495.5361    489.86833    332.04238   -183.89993    37373.809 
  365900    305.57513   -1457.5795    495.11261    416.57726    51.982273    37373.809 
  366000    290.13411   -1426.2323    508.86307    391.99044   -163.14045    37373.809 
  366100    309.44635   -1492.4989    475.19002    379.20592   -80.490067    37373.809 
  366200    295.18262   -1480.4584    464.81259     316.4976    265.53993    37373.809 
  366300    290.81333   -1450.0783     489.4186    351.76523   -116.91221    37373.809 
  366400    300.75669   -1462.8047    464.70398     359.1981   -148.38373    37373.809 
  366500    300.80566   -1508.3662     475.5838     324.7374    277.65321    37373.809 
  366600    302.23457   -1486.1109    486.46821    364.32573    443.38574    37373.809 
  366700    312.31557   -1498.3969    478.07215    389.13868    344.55622    37373.809 
  366800    311.90452   -1494.1899    499.35409    412.77258    694.00648    37373.809 
  366900    302.29586    -1532.207    459.75147     291.7895    537.24599    37373.809 
  367000    299.82914    -1501.094    470.49261    322.51145   -171.85957    37373.809 
  367100    291.44599    -1515.154    499.13967    299.26581   -835.17359    37373.809 
  367200    288.23562   -1455.9456    489.53489    334.38115   -263.60163    37373.809 
  367300    298.48665     -1439.48     456.7564    364.33062   -316.40615    37373.809 
  367400    295.29224    -1461.037    469.32908    340.93011   -1.0362778    37373.809 
  367500    297.75269   -1499.9015    504.48476    348.32515    241.09235    37373.809 
  367600    306.82612   -1518.9797    497.21287    362.92305    858.10553    37373.809 
  367700    297.65371   -1520.8334     464.3339    286.79571    11.519191    37373.809 
  367800    298.58376   -1515.4088    486.70837     318.7921    50.027248    37373.809 
  367900    305.31636   -1505.7155    460.69881     332.8597   -14.798468    37373.809 
  368000    298.48384   -1508.2528    467.15011    305.93889   -17.223675    37373.809 
  368100    298.23003   -1498.8593    484.28454    331.32144    192.95246    37373.809 
  368200     297.4034   -1491.4734    484.33735    335.02956     347.4735    37373.809 
  368300    292.89451   -1467.7025    492.28341    346.39812   -94.439872    37373.809 
  368400     299.5007   -1500.0559    478.45336    330.02804   -26.071118    37373.809 
  368500    306.89333   -1517.6838    472.07213    339.38149   -100.21543    37373.809 
  368600    303.51194   -1508.9164    484.23158    345.04833    8.0354324    37373.809 
  368700    303.24622   -1474.7093    470.63138    364.45607   -29.028894    37373.809 
  368800    303.30411   -1481.7262    496.52804    383.59704    12.797513    37373.809 
  368900    305.54443   -1467.3717    493.62074    405.15469    248.55034    37373.809 
  369000    295.89872   -1518.3831    475.56228    292.55422    815.76805    37373.809 
  369100     297.0172   -1533.2279    470.93173    278.12659    689.69744    37373.809 
  369200    297.44021   -1495.2089     517.5508    364.67367    763.04998    37373.809 
  369300    296.70766    -1466.979     466.8353    338.88212    580.55197    37373.809 
  369400    298.24782   -1467.2296    501.81503    380.56181   -324.19513    37373.809 
  369500    291.43074    -1452.267    500.01429    362.95864   -356.82932    37373.809 
  369600    306.21311   -1485.4196     484.9536    381.45734   -496.62088    37373.809 
  369700    305.81462    -1524.231    489.94916    345.84319   -654.86509    37373.809 
  369800    307.26278   -1517.6119     484.9992    354.04774   -590.29153    37373.809 
  369900    295.85244   -1499.4517    473.16505    308.87954   -61.205639    37373.809 
  370000    295.34143   -1471.1658    485.22333     346.9176    630.74249    37373.809 
  370100    303.60485   -1491.3486    483.90332    362.70713    1009.9831    37373.809 
  370200     302.0937   -1513.2382    489.87424    339.96877    1243.6249    37373.809 
  370300    291.61625   -1517.6802     476.8853    275.25361     736.3247    37373.809 
  370400    299.82303   -1502.5018     483.6227    334.20615    1049.7465    37373.809 
  370500    309.19919   -1487.3078    501.40561    409.49718    465.84612    37373.809 
  370600    299.98396   -1499.7612    488.18557    342.23589   -341.45349    37373.809 
  370700    293.14182   -1505.5814    470.93476    288.28667    200.81621    37373.809 
  370800    296.17018   -1507.2995     484.1316    313.43229    224.56622    37373.809 
  370900    301.00331   -1507.0213    482.60669    333.99717    148.69783    37373.809 
  371000    304.76594   -1502.8993    480.50505    352.99815    200.83982    37373.809 
  371100    300.47145   -1509.8149    482.80879    329.00542   -474.56894    37373.809 
  371200    306.68558   -1493.9097    493.01626    383.16215   -208.86024    37373.809 
  371300    297.94331   -1493.1175    455.54747    307.03213   -196.18155    37373.809 
  371400    293.16933    -1507.942    506.44054      321.556    646.73542    37373.809 
  371500     310.9315   -1545.3182    490.76766    348.66672   -161.99499    37373.809 
  371600    297.33065   -1538.0292     487.1687    290.97677    302.42197    37373.809 
  371700     302.7294   -1543.7544    471.53417    293.98132    235.92368    37373.809 
  371800    302.71627   -1524.2172    479.48558    321.41071    15.768606    37373.809 
  371900    295.71586   -1508.0306    490.68409    317.20328   -248.16178    37373.809 
  372000    297.06939   -1496.5601    484.34131    328.43948    203.21894    37373.809 
  372100     297.0378    -1520.321    492.53984    312.73448    342.62352    37373.809 
  372200    288.75391   -1509.8727    474.83982    268.09806     89.44257    37373.809 
  372300    303.98107     -1539.92    484.39383    316.32413    301.35841    37373.809 
  372400    288.55063   -1473.9854    477.69513    305.92326    138.94087    37373.809 
  372500    294.49717   -1442.1953    478.31511    365.16972   -429.17855    37373.809 
  372600    296.20577   -1478.2646    497.22505    355.72127    147.07644    37373.809 
  372700    298.28789   -1473.9229    484.56378    356.79812    -214.2364    37373.809 
  372800    309.37387   -1464.9743    487.42664    418.63998   -443.70483    37373.809 
  372900    290.85727   -1479.8576    479.91776    312.68345   -341.61324    37373.809 
  373000    298.59526   -1445.7191    502.21363      404.039   -178.90107    37373.809 
  373100    307.97869   -1442.8159    484.74156    431.81697    -39.28243    37373.809 
  373200    300.94393   -1484.4129    498.66395    372.39489   -255.46436    37373.809 
  373300    301.95062   -1470.5678    481.21398    373.33314    244.98183    37373.809 
  373400    312.88057   -1435.3014    485.44613    462.15795   -38.677587    37373.809 
  373500    300.87281   -1454.7292    498.92281    402.01648     589.4462    37373.809 
  373600    288.28575   -1472.1764    472.20121    301.04294    661.78952    37373.809 
  373700    298.29249   -1437.6732    487.67808    396.18293    74.637074    37373.809 
  373800     294.8064   -1384.3307    489.87979    435.99456    246.03851    37373.809 
  373900    297.79301   -1439.3435    476.13937    380.71978   -354.70249    37373.809 
  374000    299.86521   -1433.7865    509.26823    428.75735    21.396796    37373.809 
  374100    300.39318   -1457.8138    485.11513    382.95964   -609.41818    37373.809 
  374200    300.82002   -1387.9105    492.58871    462.26285    64.981936    37373.809 
  374300    305.07932   -1396.8967    487.54288    467.45278   -259.96411    37373.809 
  374400    299.12902   -1421.7027    503.06975    431.32031    117.65285    37373.809 
  374500    303.75612   -1447.3713    480.03597    403.49972   -218.93002    37373.809 
  374600    303.97449   -1454.0206    481.53109    399.33109   -8.8533342    37373.809 
  374700    287.26782   -1449.1732     494.2443    341.49537   -468.78218    37373.809 
  374800    296.74199   -1468.1563    483.19978    354.22413    189.92872    37373.809 
  374900    303.13402    -1438.371    477.14135    406.79798    900.44128    37373.809 
  375000    307.39403   -1500.6666    499.40154    385.98772    402.52618    37373.809 
  375100    293.60979   -1460.6557    504.44941    368.83897    683.97411    37373.809 
  375200    308.41361   -1443.9489    480.63206    428.53727     463.7834    37373.809 
  375300    304.06893   -1410.4529    514.93782    476.73177     23.39759    37373.809 
  375400    296.09235   -1420.1996    498.05587    414.10521   -83.943236    37373.809 
  375500    292.02908   -1468.1069    473.67231    323.47702   -363.57025    37373.809 
  375600    295.49766   -1401.1041    487.07501    419.53601    74.196377    37373.809 
  375700    301.79175    -1416.807    491.74139    436.90439   -76.457057    37373.809 
  375800    303.20794   -1411.1718    487.19565    444.38502     144.8264    37373.809 
  375900    307.24842   -1436.6774    507.20196    457.12021    684.47256    37373.809 
  376000    301.75318   -1462.1999     498.2648    397.86086    165.89647    37373.809 
  376100    305.04633   -1463.9778    482.94489    395.62479   -220.16855    37373.809 
  376200    306.84317   -1475.7718    479.62438     388.6194    332.99462    37373.809 
  376300    301.24951   -1437.3996    491.32771    413.45104    7.8986406    37373.809 
  376400    312.51736   -1427.2416    486.30274    469.43525    89.548279    37373.809 
  376500    293.05527   -1427.2194    465.89181    361.21515    56.665622    37373.809 
  376600    300.78288    -1434.223     501.5764    424.77043    329.19734    37373.809 
  376700    298.83121   -1433.8888    519.52098    434.24142   -125.52576    37373.809 
  376800    300.44652   -1384.5541    498.70628     470.0512   -20.563586    37373.809 
  376900    298.19052   -1421.5103    482.41133    406.61889   -83.692079    37373.809 
  377000    306.98866   -1474.7373    488.46484    399.15095   -197.80941    37373.809 
  377100    303.93843   -1487.5672    488.42561    372.51628    177.90563    37373.809 
  377200    299.02637   -1459.2407    485.26361    375.51285   -279.02826    37373.809 
  377300    295.16986   -1449.2868    488.73611    371.53512    466.91685    37373.809 
  377400    304.64984   -1460.4173    496.44527    410.89639    1315.6415    37373.809 
  377500    305.95539   -1441.3509    508.89577    448.30515     671.6781    37373.809 
  377600    299.11592   -1466.3526    497.22748    380.76898    527.50675    37373.809 
  377700    312.06438   -1440.7084    514.29598    481.91742    193.18998    37373.809 
  377800     298.4746   -1408.0016    464.58002     403.5783    187.47458    37373.809 
  377900    297.05412    -1468.898    515.96945    387.66072    32.248558    37373.809 
  378000    304.44787   -1454.1628    502.63017    422.42432    28.937734    37373.809 
  378100    297.01455   -1423.9042    499.18339    415.68998    131.83283    37373.809 
  378200    297.61532   -1471.2447    509.14208    381.01943   -572.08277    37373.809 
  378300    300.69154   -1489.9294    485.15982     352.2352     66.84196    37373.809 
  378400     306.3227   -1485.5986    490.35054    387.16993     53.55195    37373.809 
  378500    299.80062   -1474.1597    499.96382    378.78819    6.9810913    37373.809 
  378600    298.05849   -1504.1086    516.32343    357.33687   -184.03536    37373.809 
  378700     295.1695   -1484.4775    493.81765    341.42428    155.77536    37373.809 
  378800    287.21296    -1434.361    520.46054    382.27622   -493.86537    37373.809 
  378900    298.97275   -1470.2656    508.10472    387.08711   -583.08092    37373.809 
  379000     300.0301   -1499.1027    488.93374    343.85077   -587.71523    37373.809 
  379100     286.5012   -1511.9157    507.31089    288.35973    188.36102    37373.809 
  379200    293.29182   -1502.0046    462.79666    284.40231    526.06887    37373.809 
  379300    294.95286   -1505.8282    484.49249    309.77074    446.95599    37373.809 
  379400    283.71647   -1510.9703    500.07491    269.50183    309.72282    37373.809 
  379500    298.84811   -1476.0427    496.11748    368.76029    519.17777    37373.809 
  379600    307.61202    -1517.598    515.92782    386.56632    338.91671    37373.809 
  379700    297.81591   -1523.6234    510.84537    331.24918    633.76347    37373.809 
  379800    300.44321   -1468.3546    487.70973    375.23924   -228.90048    37373.809 
  379900    282.14256    -1483.717    486.72371    276.30094   -351.62437    37373.809 
  380000    295.31926   -1488.5734    488.61814    332.80479    218.34709    37373.809 
  380100    301.00538   -1453.4122    494.82214     399.8311    345.64951    37373.809 
  380200     296.7796   -1436.1195    483.97255     387.2035    86.486746    37373.809 
  380300    300.13822   -1453.6651    510.52436    411.36697    -77.68406    37373.809 
  380400    284.22227   -1464.1825    478.62631    297.12367   -235.04673    37373.809 
  380500    286.01492   -1469.5443    486.96282    308.18852   -194.95934    37373.809 
  380600    300.23093   -1453.7691    495.76801    396.92504    178.88811    37373.809 
  380700    298.89022   -1486.5889    506.44319     368.7298   -367.20168    37373.809 
  380800    291.17676   -1467.2308    491.60837    338.44271   -285.57258    37373.809 
  380900    300.86145    -1447.058    497.35675    408.07035   -576.00066    37373.809 
  381000     299.4294   -1498.6197      469.877    322.56618   -446.41232    37373.809 
  381100    301.75844    -1494.513    480.62891    347.93557    3.4319244    37373.809 
  381200    296.30456   -1522.2914    502.66331    317.57849    -328.1919    37373.809 
  381300    304.11934   -1521.9192    489.53821    340.09331   -587.14146    37373.809 
  381400    297.71317   -1476.9184    499.87988    366.52506   -361.73329    37373.809 
  381500    302.42954   -1440.1902    492.42786    417.08599   -597.31893    37373.809 
  381600    291.76988   -1460.9246    505.14471      360.962   -103.78875    37373.809 
  381700    290.28575   -1450.2485    510.05167    369.84718   -503.20767    37373.809 
  381800     301.4121   -1484.2673    510.73057    386.71987   -507.48136    37373.809 
  381900    303.69665   -1470.2608    511.76982    412.07573   -87.643897    37373.809 
  382000    299.11319    -1443.205    480.33712    387.01392    -195.0311    37373.809 
  382100    307.78964    -1437.349    489.29075    440.97986   -258.53763    37373.809 
  382200     297.7968   -1477.0253    495.57694    362.49259   -243.48164    37373.809 
  382300    304.82343   -1458.6655    503.17324    420.15957   -479.04907    37373.809 
  382400     299.7249    -1453.817    493.66061    392.48596   -435.59713    37373.809 
  382500    299.48266   -1462.6361    494.95564    383.86878   -610.80923    37373.809 
  382600    306.26658   -1454.9813    494.70613    421.88955    80.506462    37373.809 
  382700    296.50692   -1465.2808    498.05359    370.89262   -18.158633    37373.809 
  382800    290.95414   -1430.1251    520.25368    403.18897    569.99708    37373.809 
  382900    295.75713   -1430.6404    512.98401    417.07968    601.04626    37373.809 
  383000    300.15448   -1442.6646    522.53575    434.45222     482.7956    37373.809 
  383100     297.2237   -1443.3924    480.26573    378.22798   -34.223128    37373.809 
  383200    301.51114   -1413.5307    500.45148    447.62443    240.23583    37373.809 
  383300    306.06514    -1444.226    493.22578    430.25536    595.61155    37373.809 
  383400    306.80574   -1448.1739    494.00474    430.42874   -153.97812    37373.809 
  383500    293.02818   -1420.3183    493.65657    395.75871    140.33833    37373.809 
  383600    300.05014   -1418.5474    500.09788    435.66069    533.46179    37373.809 
  383700    298.67637   -1404.6184    495.11714    438.40923    20.880371    37373.809 
  383800     294.6784   -1425.9216    488.86381    392.81006     235.6178    37373.809 
  383900    303.65879   -1447.1935    520.26555    443.46791    77.928835    37373.809 
  384000    291.51275   -1437.3558    485.37105    363.59666    -26.86716    37373.809 
  384100    291.05289    -1429.901    526.24029    409.84534   -201.71843    37373.809 
  384200    304.38096   -1408.2724    508.98115    474.36375    87.473404    37373.809 
  384300    310.11645   -1400.7823    494.63663    493.39326    297.57359    37373.809 
  384400     300.6516   -1403.3656    502.81308    456.27202   -249.68281    37373.809 
  384500    294.27219   -1423.2039    508.55003    413.38082    336.34225    37373.809 
  384600    299.81905   -1456.6709    468.37716    364.77357    28.475875    37373.809 
  384700    295.89222   -1391.0654     510.9027    455.18301   -250.43692    37373.809 
  384800    286.36295   -1404.3683    484.02212    371.99441   -551.45178    37373.809 
  384900    296.26397   -1433.2857    502.52259    406.26026   -700.30327    37373.809 
  385000    295.24131   -1401.1615    480.75347    412.00016   -423.61901    37373.809 
  385100      306.159   -1463.1667    475.34894    393.86141   -689.03949    37373.809 
  385200    295.04807   -1478.9383    499.20139    351.79921   -309.21228    37373.809 
  385300    299.05656    -1447.483    499.11057    401.25378   -491.40805    37373.809 
  385400    303.73838   -1494.3963    500.54131    376.90001    496.13142    37373.809 
  385500    298.97151   -1484.3809    493.92067    358.78217    241.82092    37373.809 
  385600    293.29714   -1478.6882      474.176    319.12209   -105.64422    37373.809 
  385700    300.85546   -1472.7407    483.71049    368.71438    -565.7645    37373.809 
  385800    294.45782    -1490.094    490.61707     329.3954    -81.84673    37373.809 
  385900    298.69406   -1465.8717    462.89966    345.01824   -102.30169    37373.809 
  386000    315.41496   -1448.4174    494.21675     469.2502   -277.70877    37373.809 
  386100    304.41957   -1473.8195    477.71015    377.71986   -236.49791    37373.809 
  386200    296.51008   -1459.7275    496.54958    374.95622    68.509129    37373.809 
  386300    304.50149   -1452.6152    479.22682     400.8105   -53.795528    37373.809 
  386400    298.70615   -1452.8382    483.47625    378.68291   -175.37085    37373.809 
  386500    305.06879   -1464.3466    468.05149    380.46401    129.83337    37373.809 
  386600    297.37962   -1473.9165    475.72709    343.86891    -282.6345    37373.809 
  386700    297.51129   -1478.3195    494.69006    359.02306   -386.74643    37373.809 
  386800    297.33418    -1440.945    479.21585    380.12403    98.638381    37373.809 
  386900    306.03255   -1491.1433    488.02095    377.98616   -20.578425    37373.809 
  387000    288.32108   -1442.5153    502.94019    361.60247   -494.89001    37373.809 
  387100    303.97192   -1410.5455     508.7586    470.02207    264.91334    37373.809 
  387200    300.57412   -1463.3337    493.79021    386.93137    266.37672    37373.809 
  387300    301.56215   -1488.4535    484.06906    356.54935    210.21468    37373.809 
  387400    295.00187    -1450.446    501.16738    382.04902   -136.19374    37373.809 
  387500    290.30071   -1491.1637    467.47787     286.4257   -0.1369761    37373.809 
  387600     290.1314   -1487.5077    483.47185    305.31167    654.37695    37373.809 
  387700    299.35814   -1446.9865    526.09073    430.09148    605.90213    37373.809 
  387800    306.49687   -1475.0714    513.72591    421.85846    730.42694    37373.809 
  387900    300.13014   -1454.1078    489.81104    390.17449    946.95712    37373.809 
  388000    310.55513   -1441.4537    507.23679    467.30181    430.26973    37373.809 
  388100    303.12879   -1430.5198    489.69091    427.17512    93.286597    37373.809 
  388200    300.08278   -1425.1555    473.91713    403.01912   -145.08746    37373.809 
  388300    290.54228   -1480.3649    491.92726    322.76407   -348.39706    37373.809 
  388400     300.9192    -1477.006    489.11476    370.14101    50.025699    37373.809 
  388500     303.9128   -1466.0993    487.14996     392.5928    259.63787    37373.809 
  388600     309.5656   -1484.2127    538.14844    450.98865    310.25538    37373.809 
  388700    290.81702   -1466.7697    502.91423    348.58615   -177.26247    37373.809 
  388800    298.77341   -1457.1783    484.48633    375.65642    264.86317    37373.809 
  388900    291.45667   -1474.3913    488.52739    329.46441   -69.810394    37373.809 
  389000    296.20225   -1440.7162    517.38487     413.4136   -264.15878    37373.809 
  389100    292.84308   -1482.6523    499.50427    338.43712   -8.2432082    37373.809 
  389200    291.40395   -1497.9524       495.39    312.52803   -122.90842    37373.809 
  389300    305.81079   -1479.6144     493.5423    394.03564    273.52089    37373.809 
  389400    311.04583   -1463.8082    503.42674    443.35176   -130.82428    37373.809 
  389500    294.48728   -1468.0848    508.60172    369.52221   -185.38899    37373.809 
  389600     304.0888   -1434.0173    482.09729    420.41644    177.66777    37373.809 
  389700     295.1025   -1437.0987    514.93861    409.62168   -242.76701    37373.809 
  389800    298.64438   -1435.5898     506.9774    419.15372   -298.69416    37373.809 
  389900    298.69937   -1488.5163    486.38182    345.87981   -39.576199    37373.809 
  390000    308.13553   -1468.4309     482.6524    404.82067   -85.323175    37373.809 
  390100    298.62247   -1473.9687    471.31169    345.01015    91.675399    37373.809 
  390200    297.82086   -1492.8147    463.74054    314.97547    233.50571    37373.809 
  390300    305.15686   -1525.1127    481.45902    333.50283   -252.58338    37373.809 
  390400    301.29061   -1506.8112    471.74003     324.6372    200.02398    37373.809 
  390500    297.56936   -1510.7402      538.867    371.04136   -12.437604    37373.809 
  390600    305.56334   -1458.1926    516.05483    436.85317    96.848563    37373.809 
  390700    299.66121   -1445.1349    472.45825    379.67837    468.32423    37373.809 
  390800    306.15732   -1432.9913    500.12745    448.80779   -316.53099    37373.809 
  390900    303.55467   -1437.1844    494.30324    427.04485   -75.377966    37373.809 
  391000    297.98767   -1485.5696    489.76693    348.99971   -375.28876    37373.809 
  391100    300.66094   -1493.2391    497.00102    360.62863   -308.04198    37373.809 
  391200    304.32293   -1495.2916    501.39402    379.49553    407.78446    37373.809 
  391300    297.14034   -1531.0482    494.77415     304.7044   -215.30598    37373.809 
  391400    294.51228   -1509.7812    476.44697    295.78388   -647.85204    37373.809 
  391500    300.00616   -1470.4557    486.23918    369.69523   -58.693514    37373.809 
  391600    296.95745   -1482.9285    488.15347    345.37807    206.33343    37373.809 
  391700    295.60546   -1405.9537    481.19343    409.29131   -78.385799    37373.809 
  391800    297.18191   -1434.4452     475.7692       382.49   -78.974085    37373.809 
  391900    292.93584   -1460.5505    523.10989    384.56309   -783.32618    37373.809 
  392000    300.65677   -1435.5158    455.41298    376.74508   -76.477292    37373.809 
  392100    296.86602   -1459.6154    473.15335     353.2784   -134.80946    37373.809 
  392200    296.94354   -1447.6676    497.14245    389.56517    555.66821    37373.809 
  392300    289.53628   -1419.4531    480.60744    367.81606   -185.71935    37373.809 
  392400    294.35818   -1470.3473    492.42098    350.49631   -224.82977    37373.809 
  392500    299.99488    -1454.032    471.18019    371.00902    388.26682    37373.809 
  392600    310.73785   -1463.0024    466.35808    405.69901   -825.57686    37373.809 
  392700    295.46391   -1465.0317    476.55865    344.93975    -919.0957    37373.809 
  392800    297.54346   -1488.1827    465.45866    320.07367   -459.82606    37373.809 
  392900    294.97579   -1475.6666    483.33661    338.87997   -910.24527    37373.809 
  393000    297.57957   -1467.5592    466.87538    342.27679   -913.54177    37373.809 
  393100    310.13823   -1422.7959    478.72461    455.56596   -903.07562    37373.809 
  393200    287.14552   -1422.0445    498.58558    372.41338   -286.53896    37373.809 
  393300    287.07075   -1459.6361    489.32335    325.22214   -286.89771    37373.809 
  393400     288.2926    -1465.208    495.58516    331.42623   -236.85133    37373.809 
  393500    288.73382   -1494.8876    477.87206    286.02476   -372.77912    37373.809 
  393600     285.0422   -1465.8157    513.14925     333.7137    -241.6766    37373.809 
  393700    295.36612   -1490.6172    468.69389    311.04813   -448.80458    37373.809 
  393800    292.47822   -1410.4873     499.5091    408.96037   -760.02381    37373.809 
  393900    306.23334   -1405.8858    501.50541    477.63422   -796.35731    37373.809 
  394000    286.14466   -1471.8856    477.02916    296.49906   -807.07179    37373.809 
  394100    308.94996   -1482.3849    484.97309    396.86283   -505.34628    37373.809 
  394200    284.31021   -1424.5184    475.83495    334.39332   -210.91433    37373.809 
  394300    298.24738   -1441.5052     481.5108    385.98003    474.54453    37373.809 
  394400    301.30212   -1480.9768    522.26456    401.04812    26.439754    37373.809 
  394500     300.5966   -1475.5768    491.04621    372.04576    200.04271    37373.809 
  394600    293.51318   -1490.0316    473.64836    308.22603   -518.37161    37373.809 
  394700    301.16276   -1472.2961    503.70782    390.54312   -715.98442    37373.809 
  394800    298.92015   -1471.4491    486.77643    364.33801    189.27018    37373.809 
  394900    304.71407   -1477.0961     460.7444    358.80655   -407.80479    37373.809 
  395000    301.72474   -1461.4699    486.63312     386.8308   -399.72615    37373.809 
  395100    300.41299   -1468.1845    481.58681    369.15005   -445.78788    37373.809 
  395200    298.45985   -1466.5266    473.95354    354.36026    -753.3479    37373.809 
  395300    301.20686   -1518.6643    501.21206    341.87817   -398.69543    37373.809 
  395400    300.50504   -1492.2302    474.04764    337.98056      209.991    37373.809 
  395500    301.42654   -1504.7468    500.57817    356.15317   -48.701474    37373.809 
  395600     302.2184   -1494.0298    495.28341    365.14909   -81.734668    37373.809 
  395700    299.05072   -1461.4264    482.34606    370.51953    102.84167    37373.809 
  395800    300.08779   -1480.6596    480.62292    354.24346    181.15786    37373.809 
  395900    306.96469   -1457.8356    492.73675    420.21633   -347.90029    37373.809 
  396000    289.79719    -1459.685    475.98194    324.13609   -261.11273    37373.809 
  396100    294.04221   -1473.4225    488.28867    341.86292    217.85324    37373.809 
  396200    306.65163   -1502.9369    483.60915    364.57459   -63.418113    37373.809 
  396300    296.63485   -1472.6395    492.84788    358.90559    3.5365849    37373.809 
  396400    302.63899   -1465.2885    484.20668    384.71177    547.45295    37373.809 
  396500    291.60289   -1463.5041    475.88172    328.36585    205.15224    37373.809 
  396600    305.05008   -1463.0034    485.97194    399.64317    137.11219    37373.809 
  396700    308.67458   -1453.5833    482.71284    422.16138      336.277    37373.809 
  396800    304.08008   -1452.1285    488.63019     408.7988    361.23994    37373.809 
  396900    294.98509   -1475.0975    500.02077    356.17512    145.08002    37373.809 
  397000    305.56726   -1472.7315    488.37392    394.65115    527.68492    37373.809 
  397100    300.00693   -1457.0884     499.8901    396.71688    76.053809    37373.809 
  397200    302.95941   -1446.2221    485.53184    406.54929   -136.24918    37373.809 
  397300    305.74192   -1447.2267    466.67553    399.24573    -316.3012    37373.809 
  397400    296.28664    -1491.326    496.09432    341.89408   -453.30353    37373.809 
  397500     293.4309   -1485.0077    486.75349    325.98367   -688.23349    37373.809 
  397600      292.685    -1473.407    486.48173    333.94642   -533.81871    37373.809 
  397700    304.35998   -1475.0757    466.07826    364.56287    -738.2261    37373.809 
  397800     301.1756   -1493.2561    488.80103    354.73425   -814.87797    37373.809 
  397900    293.18675   -1474.0117    508.77474    357.89918   -582.94794    37373.809 
  398000    286.47956   -1432.5385    501.20848    361.53691   -889.42411    37373.809 
  398100     310.6064   -1452.2677    509.69455    459.17693    -467.5189    37373.809 
  398200    295.07813   -1455.1404    500.45063    376.98196   -517.95159    37373.809 
  398300    293.72153    -1498.013    495.91463     323.4512   -1006.8413    37373.809 
  398400    295.12473   -1438.2243    480.77913    374.43696   -1019.7825    37373.809 
  398500    291.51467    -1429.772    483.23092    369.04903   -606.05039    37373.809 
  398600    299.39171   -1454.2602     476.9144    373.79297   -473.42737    37373.809 
  398700    301.22408   -1459.3076     495.4628    395.56335   -422.89719    37373.809 
  398800     302.9935   -1460.6716    498.30808    405.02993   -122.74135    37373.809 
  398900    308.82656   -1469.4065    486.51419    410.82536    251.56157    37373.809 
  399000    295.56878   -1488.3127    486.49457     332.0679    77.033898    37373.809 
  399100    298.42182   -1477.3998    494.93863    364.30049    336.99407    37373.809 
  399200    298.57646   -1489.2459    488.21544     346.4291   -137.86473    37373.809 
  399300    293.42121   -1469.0717     511.0449    366.16742    286.37099    37373.809 
  399400    304.09312   -1450.8455    483.70728    405.21776    23.413699    37373.809 
  399500    294.24121    -1405.394    509.40755    431.90834    -117.4672    37373.809 
  399600    296.17811   -1440.7244    498.63818     394.5497   -20.928394    37373.809 
  399700    301.69369   -1410.2629    480.28477    431.54929    -270.8721    37373.809 
  399800    295.31365   -1422.0183    497.07442    407.79084   -724.78436    37373.809 
  399900    298.63849   -1465.9653     482.7542     364.5284   -318.02027    37373.809 
  400000    300.98809   -1483.9106    463.15932    337.59186   -801.20713    37373.809 
  400100    290.31954   -1450.7692    504.57768    364.00496   -1173.8384    37373.809 
  400200    294.56092   -1426.3277    505.50675    408.51669   -519.66843    37373.809 
  400300    305.60817   -1438.8605    486.67306    427.00591    -165.7609    37373.809 
  400400    292.22323   -1463.9134    509.86252    364.73685    105.66735    37373.809 
  400500    302.42868   -1421.8144    498.29667    441.32671     60.00544    37373.809 
  400600    302.01551   -1449.5661    479.70664    393.12036    292.70176    37373.809 
  400700    304.01308   -1486.3385    493.59468    379.25086   -525.01678    37373.809 
  400800    293.10836   -1473.3635    509.54454    358.96336    -766.1184    37373.809 
  400900    302.66143   -1469.2553    491.29047    387.92997    -58.08058    37373.809 
  401000    304.89887    -1502.828    487.55109    360.71531    83.886107    37373.809 
  401100    296.16822   -1473.1943    498.86092    362.25798   -28.259432    37373.809 
  401200    295.60291   -1459.3439    475.17467    349.87083    383.61172    37373.809 
  401300    295.45105   -1464.1378    505.03768    374.25462   -160.32126    37373.809 
  401400    306.61522    -1470.354    501.87105    415.25503   -290.74148    37373.809 
  401500    294.78782   -1471.1559    502.06101    361.26676   -96.946365    37373.809 
  401600    293.00063   -1451.7567    522.80407    393.34355   -762.66718    37373.809 
  401700      288.828   -1493.8376    498.73725    308.36497   -217.65926    37373.809 
  401800    294.25092   -1471.1862    499.06661    355.81905     98.58682    37373.809 
  401900    296.09772   -1448.0222    520.97511    409.22602    359.57491    37373.809 
  402000     297.4741   -1467.9315    527.49665     402.0498    133.27383    37373.809 
  402100    297.34845   -1467.9173    490.85496     364.8553    639.04375    37373.809 
  402200    294.20526   -1489.7882    510.82781    348.77217    438.52179    37373.809 
  402300    294.06351   -1479.3666    487.39482    335.12108      430.379    37373.809 
  402400    302.06016   -1461.1273    496.76035    398.81441    685.06836    37373.809 
  402500    299.92219   -1497.9044    467.77264    323.40097    776.09253    37373.809 
  402600    288.64833   -1502.4849    518.34663    318.51614    279.51632    37373.809 
  402700    301.55395   -1478.2646    485.26014    367.89232    257.13563    37373.809 
  402800    315.05014    -1451.734    479.69645    449.76684    171.45916    37373.809 
  402900    291.93234   -1472.4177    507.37779    352.43509    -138.3695    37373.809 
  403000     300.2205   -1491.5431     509.0267    372.36259    -28.41134    37373.809 
  403100    299.30514    -1475.766    496.17541    371.15749   -155.63454    37373.809 
  403200    295.63889    -1459.199    483.68472    358.68817   -435.04114    37373.809 
  403300    314.12949   -1429.5361    472.33886    460.45226   -444.77034    37373.809 
  403400    300.06106   -1467.8703    481.45231    367.74154   -592.53759    37373.809 
  403500    307.72032   -1481.7432    471.49143    378.47351   -889.75317    37373.809 
  403600    298.07163   -1416.2544    477.16602    406.09289   -858.85245    37373.809 
  403700    295.96301   -1437.9782    522.92568    420.61269   -857.37169    37373.809 
  403800    300.78439   -1394.1168    514.92942    478.23641   -365.12285    37373.809 
  403900    295.37672   -1371.1217    511.39993    473.29754    8.0162828    37373.809 
  404000    295.42195   -1432.4184    487.42834    388.23332   -386.84242    37373.809 
  404100    292.04386   -1413.7662    505.15735    409.36949   -594.13137    37373.809 
  404200    302.08747    -1412.325    493.80616    444.78572   -710.90123    37373.809 
  404300    299.66218   -1432.7346    502.28606    421.91081   -535.65683    37373.809 
  404400    296.77894   -1470.2518    497.35507    366.45078   -379.53698    37373.809 
  404500    299.52198    -1433.245     488.5312    407.01282   -92.398287    37373.809 
  404600    296.39794   -1446.8023     482.7505    373.57626    285.54357    37373.809 
  404700    299.70977   -1438.9178    505.21036    418.86664    596.10699    37373.809 
  404800    302.91276   -1481.6813    513.68986    399.03761    227.70422    37373.809 
  404900    301.88289   -1476.9349    499.38927    384.83568    725.95858    37373.809 
  405000    293.97537   -1490.0016    492.78765    329.48119   -253.25593    37373.809 
  405100    295.43777   -1447.7033    508.90335    394.49491   -614.09575    37373.809 
  405200     305.9076   -1454.7571    495.85855    421.64608   -416.93695    37373.809 
  405300    308.08906   -1491.4342    497.08129    396.03652   -1157.4313    37373.809 
  405400    293.31311   -1521.2611    517.20793    319.65321   -598.03344    37373.809 
  405500    301.22068   -1535.1419    474.10359    298.35444   -437.44357    37373.809 
  405600    305.80007    -1499.351    490.34778    371.05612    160.73527    37373.809 
  405700    307.24481   -1513.4471    485.17756    358.30979    20.837741    37373.809 
  405800    300.99619   -1490.6199    475.58038    343.34017   -336.90401    37373.809 
  405900    307.52732   -1490.8206    478.87152    375.90522    -500.6297    37373.809 
  406000    299.68212   -1499.8919    500.79364    353.35107   -227.34374    37373.809 
  406100    302.46948   -1496.7876     503.9047     372.1457    115.40039    37373.809 
  406200    285.15808   -1506.9722    506.14685    286.07774    60.781612    37373.809 
  406300    297.65871   -1456.3726    530.73594    417.68111    422.22868    37373.809 
  406400    296.10664   -1473.7645    486.73118    349.28012    636.25769    37373.809 
  406500    301.68567   -1516.5844    505.63096    350.53782    503.00619    37373.809 
  406600    303.93767   -1480.3966    511.68372    402.94156    52.604006    37373.809 
  406700    299.34258   -1527.6959    477.58624    300.80732   -1.3656815    37373.809 
  406800    285.80146   -1515.5942    475.91373    250.12625   -429.01311    37373.809 
  406900    305.11401   -1460.6857     530.7042    446.98173   -686.40991    37373.809 
  407000    296.99516   -1530.3957    468.98563    278.91321   -395.34895    37373.809 
  407100    294.87615    -1507.735    488.47565    311.50097   -528.31345    37373.809 
  407200    297.60591   -1492.7334    504.40523    354.75132   -87.966044    37373.809 
  407300    294.35714    -1495.722     499.5774    332.27345    -49.59814    37373.809 
  407400    295.43316   -1527.8912    488.82932    294.21213    38.227228    37373.809 
  407500    300.95084   -1501.0649    465.86637    322.97642    70.722979    37373.809 
  407600    262.66016   -1492.9807    478.50527    170.89581   -493.42413    37373.809 
  407700    300.39867   -1439.3224    509.55308    425.91376   -288.73306    37373.809 
  407800    304.50848   -1438.5882    497.12538    432.76761   -493.36688    37373.809 
  407900    302.34335   -1453.6213    500.31684    411.15487   -763.77233    37373.809 
  408000    300.03418   -1492.7398    502.10808    363.40644   -473.74658    37373.809 
  408100     290.9608   -1448.1875    499.04357    363.94661   -723.38301    37373.809 
  408200    288.43686   -1454.8353    484.75462    331.61941   -1282.0878    37373.809 
  408300    299.09437   -1499.6704    514.58946    364.71589   -436.31735    37373.809 
  408400    294.60765   -1490.7496    508.09173    346.89066   -110.80077    37373.809 
  408500    305.96013   -1483.8551    499.58659    396.51315   -160.59809    37373.809 
  408600    298.73585   -1520.8735    466.67075    293.97608   -167.43738    37373.809 
  408700    300.79757   -1531.0319    518.39133    344.84269   -28.656311    37373.809 
  408800     300.6596   -1530.6175    494.42857    320.67172   -31.742576    37373.809 
  408900     310.9019   -1512.5951    502.70973    393.19828    360.28436    37373.809 
  409000    311.52482   -1505.6711    497.67872    397.90248    8.3047364    37373.809 
  409100    294.75989   -1513.3594    492.71878    309.59497   -102.35157    37373.809 
  409200    304.32482   -1503.9196    506.27352    375.75549     52.89045    37373.809 
  409300    300.07895   -1489.1057    497.77935    362.91384    274.04211    37373.809 
  409400    301.97397   -1470.6159    507.29173     399.4682    624.37729    37373.809 
  409500     301.5712   -1502.4279    490.01538    348.56215    110.64295    37373.809 
  409600    301.25034   -1507.3865    502.14368    354.28387    127.82801    37373.809 
  409700    291.11429   -1496.4541    496.31446    313.64349   -196.35158    37373.809 
  409800    309.48411    -1472.627    511.43404    435.49227    -582.5482    37373.809 
  409900    297.45939   -1465.4869    499.24858    376.17995    -307.2817    37373.809 
  410000    300.60672   -1525.2488    495.04486    326.41813   -536.74017    37373.809 
  410100    289.58274   -1456.3519    468.19366     318.7131   -612.86688    37373.809 
  410200    315.61289   -1431.8456    501.14381    493.64225    26.402299    37373.809 
  410300    300.16609   -1480.1736     487.0258    361.48565    333.00514    37373.809 
  410400    307.47885   -1501.7397     501.0656    386.96152    426.55956    37373.809 
  410500    293.22805   -1486.9992    488.72537    325.04867    476.92802    37373.809 
  410600    303.66216   -1522.1412    492.61591    340.88574    -3.183456    37373.809 
  410700    309.66341    -1488.435    502.69453    411.75395   -83.712927    37373.809 
  410800    303.48077   -1501.0294    490.98416    359.54717    201.10759    37373.809 
  410900    305.09882   -1462.0236    493.52291    408.39399     27.22091    37373.809 
  411000     296.4161    -1502.062    480.63953    316.28745     264.8902    37373.809 
  411100    295.46024   -1530.4966    491.22526     294.1249    83.479598    37373.809 
  411200    299.01229   -1512.0231    487.62969    325.03301    463.00103    37373.809 
  411300    306.15381   -1526.0633    486.08684    341.67929   -100.05035    37373.809 
  411400    299.80544   -1497.9255    518.63318    373.71358   -262.80187    37373.809 
  411500    297.08616   -1446.8465     480.0459    373.93331    -218.0298    37373.809 
  411600    298.16336   -1487.2976    499.64024    357.93797   -431.58551    37373.809 
  411700    292.64561   -1487.5567    491.05518    324.19245   -749.11539    37373.809 
  411800    300.80871   -1516.6866    471.16226    312.00928    327.86109    37373.809 
  411900    309.83908   -1472.2758    489.37757    415.38896    185.44663    37373.809 
  412000    298.49682    -1501.538    485.36461    330.92677    324.99439    37373.809 
  412100    306.22438   -1495.4979    493.07948    379.55577     310.9718    37373.809 
  412200    286.19778   -1506.1645    508.99336    294.42408   -433.20602    37373.809 
  412300    304.41225    -1492.501    489.62743    370.92264   -71.706536    37373.809 
  412400    289.73209   -1500.8249    496.85344    303.57392    91.156578    37373.809 
  412500    298.89673   -1534.6293    500.46866    314.74423    334.37361    37373.809 
  412600    297.86734   -1542.6795    506.38953    307.96943    119.19071    37373.809 
  412700     293.0202    -1507.041    525.32601    340.66946   -169.96623    37373.809 
  412800    302.11962    -1512.295     529.4689    380.62351    -63.53471    37373.809 
  412900    310.40834   -1514.9516    498.34692    384.25153    166.37381    37373.809 
  413000    317.39189   -1531.5087    473.53533     374.3992    1081.5683    37373.809 
  413100    295.92965   -1513.1307    487.61098    309.99492    1130.0361    37373.809 
  413200    304.05324   -1527.7161    518.41977    362.87959    637.47593    37373.809 
  413300    301.41106   -1476.8414    497.32692    380.73752    514.26179    37373.809 
  413400    294.06358   -1474.0347    507.94925    361.00776     180.1586    37373.809 
  413500    292.04821   -1488.8883    514.43074    343.54039    506.31181    37373.809 
  413600    300.60276   -1491.1598    531.04204    396.48643    224.36091    37373.809 
  413700    295.38493   -1478.2467    532.87631    387.68595    238.69515    37373.809 
  413800    303.13216   -1465.1797    510.37015    413.20963    157.55365    37373.809 
  413900    304.67569   -1493.2752    502.01963    383.72952   -271.65012    37373.809 
  414000    303.26423   -1468.0096    525.23826    425.84391    82.853617    37373.809 
  414100    291.12235   -1505.2504     513.2233    321.79241   -213.20193    37373.809 
  414200    288.57717    -1410.187     510.7809    402.92724   -391.83935    37373.809 
  414300    307.32264   -1428.9659    508.13229    466.09694    -362.4895    37373.809 
  414400    294.44298   -1477.3785    502.32743     353.7543   -413.49736    37373.809 
  414500    296.79156   -1484.7591     517.6817    372.32701   -291.95246    37373.809 
  414600    307.23316   -1482.2094    500.64784    404.96522    -223.2653    37373.809 
  414700    293.65293   -1509.9403    503.79861    319.09829   -144.09332    37373.809 
  414800    301.38092   -1512.8003    490.38374    337.69934   -40.191974    37373.809 
  414900    301.11714   -1478.8506     496.9973     377.0722   -267.90658    37373.809 
  415000      305.053   -1487.3964     529.0395    418.33095   -247.50892    37373.809 
  415100    280.21587   -1478.7251    510.43336    296.30745    110.28803    37373.809 
  415200    304.16153   -1534.6933    526.26928    364.24066   -107.93455    37373.809 
  415300    291.84767   -1510.4397    512.76483    319.41806    59.637379    37373.809 
  415400    302.45893   -1462.8355     514.4299    416.57538   -494.15887    37373.809 
  415500     304.4158   -1481.8134      494.702     386.7008    127.75649    37373.809 
  415600    293.74365   -1525.6844    520.10441    320.06938    51.395889    37373.809 
  415700    296.62908    -1519.994    512.03965    330.71677    317.99572    37373.809 
  415800    295.27677   -1562.4635    494.81478    264.91955    289.33202    37373.809 
  415900    296.93819   -1537.8489    506.43524    308.65251    249.29803    37373.809 
  416000    309.75065   -1532.9843    528.02315    392.92699    288.83656    37373.809 
  416100     305.7496   -1521.0431     508.0463    366.83473    527.12511    37373.809 
  416200    298.51131   -1490.1486    517.81726    374.83423   -176.54944    37373.809 
  416300    299.51152    -1499.773    524.77197    376.67838    39.975259    37373.809 
  416400    295.63383   -1495.0968    482.00448    321.08736   -336.53536    37373.809 
  416500    292.70087   -1472.5365    494.21313    342.61998    -578.7346    37373.809 
  416600    296.09132    -1504.079    521.21287    353.37808   -332.09471    37373.809 
  416700    296.88624   -1470.5789    494.72483    363.97757    -450.6965    37373.809 
  416800     312.8918   -1513.6323    497.75697    396.18865    896.28734    37373.809 
  416900    294.57324   -1554.0596    477.64636    252.98002    646.18181    37373.809 
  417000    305.36468   -1556.6085    486.42882     307.9148    848.57758    37373.809 
  417100    301.83316    -1524.264    506.94663    344.83953    319.90142    37373.809 
  417200    303.43011   -1553.6947    484.55356     300.2227    801.84796    37373.809 
  417300    282.16734    -1509.486    511.68807    275.60813    269.15276    37373.809 
  417400    299.99945   -1502.4796     494.1047    345.50658    549.59908    37373.809 
  417500    303.87013   -1558.3061    488.29252    301.33605    194.37311    37373.809 
  417600    315.56864   -1487.6121    491.88914    428.42141    723.82062    37373.809 
  417700    296.28447   -1498.0671    500.20089    339.24968    116.82247    37373.809 
  417800    305.05959   -1487.1323    510.21122    399.79654    357.58032    37373.809 
  417900    298.53132   -1492.3534    503.23877    358.14119    131.78023    37373.809 
  418000    308.79718    -1457.056    517.71512    454.24428   -310.60814    37373.809 
  418100    296.94622   -1485.6707      517.334    371.76565    149.69939    37373.809 
  418200    301.77533   -1490.5896    509.81537    381.12165    294.80247    37373.809 
  418300    307.42095   -1511.8792    508.18327    383.67831   -304.54535    37373.809 
  418400    293.27418   -1505.3084    493.64993    311.87225   -584.33872    37373.809 
  418500    304.27718   -1502.0037    518.81705          390     86.34199    37373.809 
  418600    296.62379   -1519.4644    489.85778    309.04063    203.09026    37373.809 
  418700    309.52506   -1497.5296    497.64571    396.98609    237.67281    37373.809 
  418800    319.90643   -1505.4657    471.22614      409.481   -72.370357    37373.809 
  418900    302.71106   -1464.8392    514.69827    415.97791   -166.57907    37373.809 
  419000    300.15918   -1528.2666    512.19961    338.53534     -146.527    37373.809 
  419100    296.95645   -1492.4571    514.85942     362.5509    -105.0817    37373.809 
  419200    300.89377   -1511.1754    491.96459    338.70667   -98.515737    37373.809 
  419300    294.51395   -1498.2199    527.45425    358.36006     93.93349    37373.809 
  419400    296.10091   -1490.2128    500.42763    346.50244   -45.601494    37373.809 
  419500    293.99636   -1499.8451    521.09582    348.04055    114.33544    37373.809 
  419600    304.45653   -1526.5219    506.20517    353.67924    311.56435    37373.809 
  419700    290.58274   -1491.8719    498.17875    317.69121   -34.102778    37373.809 
  419800    310.45474   -1494.1663    506.82587    413.72515   -622.03217    37373.809 
  419900    307.40431   -1529.9915    471.58626     328.8939   -268.54386    37373.809 
  420000    300.17448   -1514.5483    508.21937    348.34239   -210.38197    37373.809 
  420100    302.85429   -1542.0143    504.29467    329.04557   -279.25259    37373.809 
  420200    300.59954   -1482.6549    489.82222    363.75695    148.06505    37373.809 
  420300    304.12325   -1491.4237    539.04305    420.11132   -605.98035    37373.809 
  420400    299.41263   -1481.8307    479.50023    348.90272   -20.774047    37373.809 
  420500     306.4937   -1484.7325    514.95379    413.41098      468.105    37373.809 
  420600    295.25152   -1498.5214    507.42064    341.35357    231.66219    37373.809 
  420700    296.52031   -1512.9452    519.35314    344.58818    342.17765    37373.809 
  420800    310.45282   -1534.0414    489.62907    356.64459    139.16078    37373.809 
  420900    294.87292   -1507.5322    506.35461    329.56807   -666.10558    37373.809 
  421000    305.59992   -1486.0626    506.86169    399.95514   -393.75166    37373.809 
  421100    300.29441   -1494.0826     482.6116    343.74157    40.242691    37373.809 
  421200    304.71835   -1488.5695    525.73486    412.34295    36.069527    37373.809 
  421300    298.07223    -1512.549    503.72928    336.36431    501.61689    37373.809 
  421400    305.68381   -1530.1691    504.58507    353.95065   -90.752151    37373.809 
  421500    297.35105    -1557.689    500.10283     284.3432    130.03271    37373.809 
  421600    295.18025   -1540.2299    495.41159    287.31438    812.92079    37373.809 
  421700    308.07429   -1494.6672    490.69831     386.3539    400.92754    37373.809 
  421800    303.65854   -1499.7281     508.7748    379.44142    370.37486    37373.809 
  421900    307.45954   -1506.4239    527.51541    408.63988   -132.74565    37373.809 
  422000    312.99979   -1535.2187    495.59996     372.9325   -244.71191    37373.809 
  422100    302.95298   -1550.4489    525.07189    341.83355   -288.36125    37373.809 
  422200    289.81645   -1504.0726    498.61636    302.46992    11.666625    37373.809 
  422300    299.26263   -1474.2487    498.65877    374.96628   -286.76093    37373.809 
  422400     293.9634    -1493.784    525.42384    358.28089    309.37447    37373.809 
  422500    292.80455   -1487.1856    518.89494    353.12064    578.89615    37373.809 
  422600    296.37245   -1525.5091    486.15767    298.16153    242.92915    37373.809 
  422700    301.64464   -1535.9034    491.40593    316.80864    284.78179    37373.809 
  422800    306.13478   -1511.1476    509.08765    379.50995    449.37347    37373.809 
  422900    301.65643   -1523.5398    513.06818     350.8877     375.8271    37373.809 
  423000     308.0881   -1523.3601    495.99536    363.02037    182.87386    37373.809 
  423100    295.75306   -1490.9537    529.25683    373.02083    -141.9898    37373.809 
  423200    302.90343   -1521.7046    483.74523    329.02759     27.26752    37373.809 
  423300    289.29231   -1476.5702    504.67645    333.66692   -45.082533    37373.809 
  423400    302.14267   -1491.8022    538.29556    410.04701   -210.64368    37373.809 
  423500     299.6592   -1502.9176    485.99868    335.42703    -263.7025    37373.809 
  423600    306.89579   -1468.4728    524.25422     440.7857   -330.18879    37373.809 
  423700    296.42124   -1497.6228    516.36593    356.47631   -423.43238    37373.809 
  423800    296.02446   -1527.0241    502.01208    310.93051   -78.339538    37373.809 
  423900    301.59677    -1510.568    517.10321    367.62528   -322.69784    37373.809 
  424000    291.41898    -1496.543    511.34524    329.96049   -495.99737    37373.809 
  424100    293.54577   -1494.1417    515.89983    346.51444   -142.48999    37373.809 
  424200    291.44878    -1475.216     506.6574     346.7341   -46.359056    37373.809 
  424300    299.86404   -1486.4764    506.28598    373.07994     25.47696    37373.809 
  424400    305.86338   -1526.4925    485.11546    338.96799     158.9835    37373.809 
  424500    289.38014   -1496.2589    518.76563    328.46378   -381.15781    37373.809 
  424600    293.40936   -1488.7551    493.38351    328.76909   -151.65504    37373.809 
  424700     297.7325   -1504.4351    511.50631    350.72197   -102.65155    37373.809 
  424800    296.00871   -1525.3561    504.99431    315.50965   -93.982991    37373.809 
  424900    308.72275   -1533.7557     526.1281    385.62163     124.9259    37373.809 
  425000    298.46471   -1491.7192    516.78208    372.01814    -316.9445    37373.809 
  425100      297.064   -1533.0689    510.50436     318.0694   -504.01769    37373.809 
  425200     298.5697   -1507.9861    487.30802    326.75094   -543.10468    37373.809 
  425300    292.13547   -1482.0235    511.29734    347.66557    271.60632    37373.809 
  425400    305.07898   -1512.2901    489.54976    354.06469    60.756664    37373.809 
  425500    301.31253   -1518.4216    492.14921    333.53487    361.18364    37373.809 
  425600    287.91424   -1504.4966    498.45407      293.299   -229.24754    37373.809 
  425700    297.06863    -1505.235    493.79737     329.2172    80.889074    37373.809 
  425800    297.36071   -1514.8771    503.42389    330.51968    208.87382    37373.809 
  425900    291.09987   -1503.1487    540.90811    351.47758   -285.87341    37373.809 
  426000    300.38884   -1476.6328     536.2316    415.23752    329.51102    37373.809 
  426100    312.30651   -1486.0544     513.8553    437.22348    263.20193    37373.809 
  426200    292.02333   -1512.1968    501.99775     307.6866   -320.03963    37373.809 
  426300    292.55679   -1464.4191    518.21642    374.09048    352.63658    37373.809 
  426400    294.72068   -1504.8338    524.15475     349.3796    622.67318    37373.809 
  426500     292.3017     -1492.48    509.02467    335.68655    126.40458    37373.809 
  426600    311.45111   -1470.3064    508.89329    444.14913   -317.97352    37373.809 
  426700    294.83628   -1494.4708    536.47332    372.58288    230.12024    37373.809 
  426800    296.77519   -1497.7953    520.12393    361.65919   -175.64596    37373.809 
  426900     296.8339   -1567.6326    491.72444    263.68735     236.1806    37373.809 
  427000    305.34684   -1529.2617    510.51648    359.26872    140.32596    37373.809 
  427100    298.35136   -1540.0299    520.92606    327.33989    226.28614    37373.809 
  427200    306.47921   -1533.4791    507.70681    357.35194   -41.132936    37373.809 
  427300    306.10991    -1490.926    525.10338    415.63501    296.62194    37373.809 
  427400    303.49217   -1534.3748     500.8689    336.13799    249.05265    37373.809 
  427500    295.10156   -1527.8321    477.67484    281.62023    362.26045    37373.809 
  427600    297.20215   -1507.6234    490.17378     323.8077    804.96093    37373.809 
  427700      309.471   -1497.4023    502.22538    401.44912    1026.1274    37373.809 
  427800    295.27574   -1520.9755    541.36525    352.95337    730.75625    37373.809 
  427900    295.03786   -1535.5861    505.68995    301.59389    592.25395    37373.809 
  428000    297.09028   -1509.7831    512.97152    343.94093    22.131738    37373.809 
  428100    307.32162   -1496.7431    519.67358    409.85642    452.45471    37373.809 
  428200    309.23723   -1478.6937    532.15818    449.03554    371.96569    37373.809 
  428300    296.80204   -1521.8844    491.51848    309.08579   -16.432226    37373.809 
  428400    291.95318   -1493.5751    514.39726    338.39121    102.10232    37373.809 
  428500    303.18421   -1493.3637    528.48289     403.3733   -357.03985    37373.809 
  428600    303.20881   -1528.9819    513.54603    352.92924    58.454102    37373.809 
  428700    301.09237   -1513.2942    544.25828    389.77782    324.11085    37373.809 
  428800    295.35319    -1516.024     485.0868    301.97592    763.42104    37373.809 
  428900    291.90342   -1502.5469    510.76753    325.56515    1068.4866    37373.809 
  429000    291.31819   -1520.9809    511.32208    305.04459    230.81437    37373.809 
  429100    303.36976    -1527.534    528.76409    370.32159    285.93918    37373.809 
  429200    299.59953   -1527.0305    484.50789      309.554   -390.63968    37373.809 
  429300     302.3777   -1486.2971    513.20057    391.51786   -411.28657    37373.809 
  429400    299.46002   -1512.7542    489.95026     328.6431   -425.46721    37373.809 
  429500    299.85942   -1481.6842    519.03916    390.60446   -260.97633    37373.809 
  429600    292.89843   -1486.7673    511.35453    346.42216    121.71938    37373.809 
  429700    289.38399   -1538.7671     537.0552    304.26254    127.82267    37373.809 
  429800    296.35673   -1531.1379    504.49975    310.80386    169.71461    37373.809 
  429900    306.90318   -1526.9161    519.12423    377.24577    673.39116    37373.809 
  430000    293.00533   -1478.9578    504.43481    347.79432    259.11133    37373.809 
  430100    295.52937   -1501.9101    510.39974     342.1979    99.471005    37373.809 
  430200     285.7928   -1523.2251    472.02214    238.56461   -258.20143    37373.809 
  430300    306.37321   -1519.2307    502.45678    365.87192   -697.50796    37373.809 
  430400    302.83792    -1507.163     518.0998    377.62816   -562.43797    37373.809 
  430500    294.74666   -1527.3638    476.18142     278.9935   -754.43884    37373.809 
  430600    296.91524   -1502.6793     502.7154    339.99867   -72.874367    37373.809 
  430700    299.85579   -1502.2249     524.1802    375.18839    144.15732    37373.809 
  430800    295.88205   -1531.1104    483.48457    287.67398   -105.15428    37373.809 
  430900    301.25996   -1520.6337    533.64642     372.5828   -242.22718    37373.809 
  431000    304.29867   -1535.3629    485.46594    323.38666    694.90698    37373.809 
  431100    300.09492   -1536.0755    503.99608     322.2329    102.03289    37373.809 
  431200    303.15274   -1520.2795     531.1881     379.0207    462.89984    37373.809 
  431300    310.92685   -1507.0444    513.00605    409.15784    968.06597    37373.809 
  431400    298.30567   -1503.4633    507.59614    350.37038    9.9803726    37373.809 
  431500    309.24612   -1495.8627    503.59621    403.34467   -190.85635    37373.809 
  431600    308.90947   -1503.3486    542.50077    433.24404   -276.77458    37373.809 
  431700     319.2864   -1509.8155     465.6106    396.71752   -461.48923    37373.809 
  431800    299.32861    -1522.163    511.79693    340.48787      133.712    37373.809 
  431900    292.48914   -1543.1744    518.58562    295.39899   -191.53668    37373.809 
  432000    292.95815   -1508.8122    522.51078    335.80303      99.5571    37373.809 
  432100    297.96728   -1497.4645    521.34222    368.58809    392.49159    37373.809 
  432200    289.32871   -1512.1573    513.42219    306.98984    196.19657    37373.809 
  432300    298.82374   -1503.7372    509.06901    353.90733    172.34175    37373.809 
  432400    305.08722   -1495.6207    494.95072    376.17233     5.152317    37373.809 
  432500    296.88454   -1500.8734    510.18988    349.14049   -150.48931    37373.809 
  432600    297.07206    -1559.155    526.92977    308.44511   -349.84418    37373.809 
  432700    300.28809   -1548.2619    499.55293    306.47505   -309.77687    37373.809 
  432800    298.79965   -1499.2799    475.85294     325.0398   -217.86906    37373.809 
  432900    295.51843   -1526.2743    526.92797    334.31249   -145.02846    37373.809 
  433000    300.07257   -1541.3634    507.26339    320.11144    38.534832    37373.809 
  433100    298.81395   -1514.2134     536.8983    371.21626    -822.1346    37373.809 
  433200    296.51018   -1438.6693    510.52752    409.99271   -170.38275    37373.809 
  433300    293.54894   -1454.8723    515.71142    385.60979   -513.66673    37373.809 
  433400    305.98653   -1453.5578    523.75925    451.10227   -194.87171    37373.809 
  433500    297.85886   -1465.1211    484.53047    363.63043   -229.30615    37373.809 
  433600    296.74809   -1466.4086    510.07331    382.87289   -367.70977    37373.809 
  433700    293.46406   -1476.1459    508.02484    356.26658    -686.6462    37373.809 
  433800    297.12908   -1497.7092     525.5007    368.71916   -979.67992    37373.809 
  433900    292.66524   -1489.7974    486.72387      317.709   -913.90619    37373.809 
  434000    300.47108   -1476.0542    533.54729    413.50295   -700.62848    37373.809 
  434100    301.44555   -1483.4121     475.8284    352.82387     -865.733    37373.809 
  434200    301.89418   -1488.7032    507.24122    380.97026   -706.29491    37373.809 
  434300    297.35252   -1495.5478    509.27049    355.65868     -501.206    37373.809 
  434400    304.12498   -1492.9305    503.67544     383.2447   -555.45777    37373.809 
  434500     296.1901   -1469.4295    489.03834    356.29888   -372.01131    37373.809 
  434600    298.38968   -1443.1381    490.05677    393.53534    128.25705    37373.809 
  434700     303.3798   -1484.6361    512.21517    396.71588    152.65691    37373.809 
  434800    307.98876   -1514.5081    502.02231    377.45103    412.17237    37373.809 
  434900    316.26042   -1493.6372    493.63988    427.26901    547.14228    37373.809 
  435000    303.44569    -1483.107    513.19239    399.51952    243.89312    37373.809 
  435100    300.18994   -1456.5834    507.76206     405.9198     48.65842    37373.809 
  435200    298.01673   -1478.3605    479.76697    346.34004   -237.59133    37373.809 
  435300    300.08257    -1459.662    511.79624    406.39081    496.21001    37373.809 
  435400    293.62541   -1450.3936    534.88003    409.60219   -118.59447    37373.809 
  435500    301.14533   -1436.2271    490.90934    413.73501    417.90414    37373.809 
  435600    298.59178   -1485.4652    540.36937    402.43291    450.38268    37373.809 
  435700     308.4202   -1480.5965    518.78581     430.0732    183.84052    37373.809 
  435800    306.56052   -1418.6603    535.86882    500.69971    399.73797    37373.809 
  435900    307.30356   -1472.5359    517.90361     432.2122     308.5858    37373.809 
  436000    309.01475   -1462.3178    516.33276    448.58195    442.59428    37373.809 
  436100     300.6041   -1452.7111    506.63206    410.53116   -114.84502    37373.809 
  436200    296.86892    -1465.233    506.01005    380.53058    202.28422    37373.809 
  436300    303.12987   -1477.1155    521.34451    412.23782    118.35295    37373.809 
  436400    291.99989   -1496.2109    483.20886    304.77778   -53.139769    37373.809 
  436500    289.29485    -1494.883    510.39943    321.08856    105.79072    37373.809 
  436600    299.71709   -1473.0492    502.22016    381.77818     340.9606    37373.809 
  436700    287.20657   -1526.7666    481.03681    250.41804   -155.30258    37373.809 
  436800    304.04215   -1474.7555    520.74086    418.11127    200.26534    37373.809 
  436900    299.84784   -1509.5257    514.11973    357.79132    452.00535    37373.809 
  437000    305.80012    -1515.224     532.6261    397.46166    325.95396    37373.809 
  437100    309.65663    -1492.549    507.90814    412.82298    32.686934    37373.809 
  437200    305.21328   -1442.2844    512.99455    448.12135    85.067697    37373.809 
  437300    301.82014   -1456.0698    516.09469    422.12298    230.66075    37373.809 
  437400     293.2679   -1449.5567    497.51453    371.46018     131.8756    37373.809 
  437500    297.97782   -1526.8651    522.38363    340.27644    212.10213    37373.809 
  437600    302.79476   -1485.6933    479.16518    359.96844   -54.560509    37373.809 
  437700    312.15453   -1494.1032    514.87646    429.50998    70.148309    37373.809 
  437800    296.13008    -1480.874    494.60977    350.15498    106.61952    37373.809 
  437900    286.18421   -1433.1895    505.80122    364.14576    -634.5799    37373.809 
  438000    294.40735   -1431.1611    542.61955    440.10304   -1086.2487    37373.809 
  438100    297.87198    -1459.099    495.08032    380.26164   -994.61538    37373.809 
  438200    292.47469   -1485.2772    512.62663    347.27197    -170.3964    37373.809 
  438300    295.33211   -1493.5213    507.50638    346.80305   -776.43305    37373.809 
  438400    296.41413   -1443.8936     518.6845    412.49193   -1152.9637    37373.809 
  438500      304.725   -1428.6297    514.67152    461.24941   -1207.5819    37373.809 
  438600    303.15608   -1398.8289    515.80532    485.10351    -878.2186    37373.809 
  438700     304.7485   -1510.2177    498.11228    363.20825   -512.03175    37373.809 
  438800    298.60798   -1442.0526    494.35059    399.89976   -727.01047    37373.809 
  438900    304.77063   -1459.7155    505.07678    420.77476    -641.5827    37373.809 
  439000     290.0876   -1447.3908    524.57398    386.33296   -698.84645    37373.809 
  439100    305.50979   -1476.1872    499.39597    401.95804   -393.65389    37373.809 
  439200    296.42042   -1453.6683    528.00058    412.06174    314.17827    37373.809 
  439300     293.1581   -1485.9355    536.35225     373.4235     427.3754    37373.809 
  439400    297.82699   -1463.0551    519.73678     400.7589     644.6182    37373.809 
  439500    310.16803   -1445.8186    506.69804    460.65116    243.88578    37373.809 
  439600    299.36823   -1468.4181    513.01512    395.62982     56.19925    37373.809 
  439700    295.79342   -1485.3724    511.19758    360.72502   -468.26875    37373.809 
  439800    305.46891   -1492.1946    477.54396    363.91421    206.91157    37373.809 
  439900    299.11676   -1490.6146    503.02994    362.31323    114.26721    37373.809 
  440000    295.98449   -1512.6172    514.34271     337.4877    491.87285    37373.809 
  440100    305.74117   -1472.9748    542.77924    449.59795    781.07997    37373.809 
  440200    296.23295   -1485.4899    489.87446      341.268    551.12293    37373.809 
  440300     302.1563   -1492.9267    517.31373    388.00228    710.27748    37373.809 
  440400    302.40501   -1517.0374    523.43349     371.1337    858.25492    37373.809 
  440500    304.84872    -1509.134    500.02403    366.65597    717.20415    37373.809 
  440600    304.43074   -1507.9942    511.30435    377.18981    1220.1831    37373.809 
  440700    309.21298   -1509.5298    511.04506    396.97689    868.99394    37373.809 
  440800    303.08601   -1507.8034     523.9107    383.91817     792.5259    37373.809 
  440900    299.34904   -1504.3318    489.29284    335.90724    338.04847    37373.809 
  441000     299.1133   -1490.3117    536.13589    395.70644    337.85042    37373.809 
  441100    292.36082   -1501.5191    512.27398     330.1636   -453.91568    37373.809 
  441200    300.38056    -1494.328    488.50866    349.78209   -396.04092    37373.809 
  441300    297.01848    -1481.204    500.22756    359.45206   -248.55182    37373.809 
  441400    297.98076   -1475.5491    521.31604    390.53811    490.15755    37373.809 
  441500    297.60982   -1496.8178    493.28326    339.56265     703.0033    37373.809 
  441600     296.2561    -1493.733    539.37521    382.63014   -220.03183    37373.809 
  441700    297.15698    -1461.518    520.13117    399.66669   -94.395343    37373.809 
  441800    302.82796   -1448.0999    534.07167     452.6181    432.43093    37373.809 
  441900    311.75919   -1445.0283    521.34033    483.26452    269.44518    37373.809 
  442000    300.79953   -1429.7211    516.51583    444.28684   -155.22446    37373.809 
  442100    303.40746   -1488.8814    538.24199    418.62217       108.67    37373.809 
  442200    301.78532   -1450.3492    494.98131    406.57304     -389.049    37373.809 
  442300    298.65847   -1489.5127    531.32438    389.64137   -467.07956    37373.809 
  442400    304.64911   -1456.0097    510.61995    429.47542   -723.19279    37373.809 
  442500    298.80379   -1504.0414    510.97212    355.41622   -472.94178    37373.809 
  442600    303.67056   -1455.8187    513.36758    427.99784    5.7785024    37373.809 
  442700    296.53592    -1455.329    508.55224    391.47402   -267.99333    37373.809 
  442800    299.27049   -1483.1241     514.9422     382.4098   -282.27484    37373.809 
  442900    303.52422   -1469.8521    496.38228    396.31873   -28.717762    37373.809 
  443000    299.98398   -1496.0273    511.24393    369.02829   -141.94991    37373.809 
  443100    295.83147   -1444.5331    530.94958    421.48801   -397.67574    37373.809 
  443200    302.55547   -1453.5335    521.41577    433.29887   -435.21203    37373.809 
  443300    296.70797   -1485.0497    497.26058    351.23802    -474.6438    37373.809 
  443400     303.3443   -1498.1908    495.92611    366.71189   -60.487236    37373.809 
  443500    299.91037   -1538.0309    517.88479    333.33331     82.43168    37373.809 
  443600    305.48235   -1543.5492    515.27947    350.35575    598.23646    37373.809 
  443700    297.88241   -1583.3201     497.4461    258.45339    545.30966    37373.809 
  443800    298.38276   -1594.6073    504.47887    256.45694    571.68899    37373.809 
  443900    302.41558   -1576.6373    497.42475     285.5727   -120.05237    37373.809 
  444000    301.67323   -1560.8487    475.87054     276.4569   -571.87824    37373.809 
  444100    292.59666   -1557.1574    489.96677    253.28245   -36.781613    37373.809 
  444200    308.54619   -1543.1614    491.72198    341.01301    -378.5164    37373.809 
  444300    293.15728   -1531.2689    491.33444     283.0686   -865.09386    37373.809 
  444400    305.25709   -1511.7639    478.39631    344.24126   -501.94343    37373.809 
  444500    304.91196   -1497.0729    491.57098    370.54941   -1330.0717    37373.809 
  444600    293.95538   -1559.7262    480.88818    247.76683   -884.58448    37373.809 
  444700    306.50857   -1547.7957    514.43051    349.89159   -1055.1342    37373.809 
  444800      295.243   -1497.3184    471.99131    307.08873   -409.78268    37373.809 
  444900     314.0775   -1478.3864    525.08015    464.10866   -212.31147    37373.809 
  445000    290.99808   -1507.1864    486.05371    292.12606   -73.792793    37373.809 
  445100    305.31322   -1491.7223    508.77266    394.91255    90.668457    37373.809 
  445200    289.33621   -1485.7659    546.22067    366.21363   -184.57438    37373.809 
  445300     289.0331   -1520.3919    489.72276    273.72178   -496.63979    37373.809 
  445400    295.01279   -1529.7323    505.44706    307.09164    32.229776    37373.809 
  445500    303.92699   -1482.9466     495.6093    384.26895   -775.34562    37373.809 
  445600    296.87291   -1496.9735    502.90372     345.7018   -169.12973    37373.809 
  445700    297.99831   -1460.2612    465.47778    350.06699   -113.42089    37373.809 
  445800    299.96658   -1444.0519     517.1324    426.81358   -156.77801    37373.809 
  445900    292.97278   -1482.7031    517.78039    357.24777   -21.884641    37373.809 
  446000    300.40945    -1516.967    510.03736    348.80209    153.62888    37373.809 
  446100    306.67314   -1482.6464    482.05754    383.41059   -170.35536    37373.809 
  446200    287.89902   -1537.2935    483.82153    245.80092   -681.84155    37373.809 
  446300    302.59199   -1547.2642    487.31374    305.63103   -500.07579    37373.809 
  446400    305.26523   -1486.7688    483.63903    374.51585   -33.231089    37373.809 
  446500    288.38204   -1499.0909    505.24201    307.60383   -461.00589    37373.809 
  446600    301.10165   -1479.7645    489.91021    369.00134   -253.98074    37373.809 
  446700    301.10675   -1481.2059    488.31054    365.98321   -479.35935    37373.809 
  446800    308.11686   -1479.9423    484.68778    395.26036   -380.74637    37373.809 
  446900    305.60424   -1537.7882    483.22793    324.61534   -555.88247    37373.809 
  447000    300.80116   -1524.9534    487.31212    319.85821   -41.810038    37373.809 
  447100    308.87766   -1535.1507    474.72879    333.52642   -338.13098    37373.809 
  447200    288.99366   -1518.1553     494.3409    280.39846   -572.78346    37373.809 
  447300    307.27064   -1504.6308    487.60845    369.67358   -86.090731    37373.809 
  447400    309.60885   -1536.9842    487.52806    347.79196   -155.72093    37373.809 
  447500     305.4567   -1493.9958     483.9162    368.43008   -340.16224    37373.809 
  447600    296.88851   -1478.2702    488.67079    350.24253   -467.04892    37373.809 
  447700    310.04278   -1499.9649     492.6392    391.88075    -568.1797    37373.809 
  447800    304.51086   -1496.2302    479.12295     357.1339    39.566823    37373.809 
  447900    303.57774   -1463.9165    511.18082    417.29436   -467.16217    37373.809 
  448000    307.78868   -1453.7817    503.91121     439.1633   -788.79802    37373.809 
  448100    298.70476    -1455.177     489.7454    382.60698   -348.16495    37373.809 
  448200    291.80979   -1498.8319    481.94699    300.03709   -428.24546    37373.809 
  448300    306.62637    -1504.256    476.97498    356.50733   -114.85106    37373.809 
  448400    305.79037   -1478.9618    486.93522    387.98897   -155.01349    37373.809 
  448500    296.85528   -1483.6933    525.17596    381.17467   -46.559807    37373.809 
  448600    296.41606   -1502.5184    463.23614    298.42751    85.822961    37373.809 
  448700    292.31535   -1488.1318    469.50279    300.57446    239.46947    37373.809 
  448800    296.79783   -1448.5444    510.61433    401.50259   -107.82437    37373.809 
  448900    300.63155   -1477.2326    494.27136     373.7728   -5.5173915    37373.809 
  449000    291.06065   -1466.9067    488.40774    335.04211    478.14777    37373.809 
  449100    306.37223   -1478.4355    493.67166    397.87764     787.1877    37373.809 
  449200    298.52384   -1488.5716     471.6594    330.30986   -108.69859    37373.809 
  449300    302.19541   -1479.2617    519.44757    403.97757   -190.39132    37373.809 
  449400    296.03263   -1483.7787    478.86702    331.06768   -10.615767    37373.809 
  449500    302.00916   -1495.7862    480.11069    347.27569    78.527696    37373.809 
  449600    298.79642   -1545.3864    480.05355    283.11933    204.86679    37373.809 
  449700    296.46368   -1499.8056     500.4688    338.58788    444.36139    37373.809 
  449800    301.88324    -1497.989    494.10522    358.49914    251.59215    37373.809 
  449900    295.26505   -1511.5398     486.9158    307.89139    552.98229    37373.809 
  450000    295.17057   -1525.8622     486.8347    293.06144    263.57751    37373.809 
  450100    299.89065   -1497.0917    510.18586    366.48459    427.38888    37373.809 
  450200    300.07482   -1478.6445    493.22158    368.79863   -18.024841    37373.809 
  450300    305.12096   -1460.7894    516.98323    433.18838   -498.96849    37373.809 
  450400    296.37776    -1447.405    509.01465    399.14666   -375.17318    37373.809 
  450500    305.60314   -1469.0008    508.10903    418.27878   -35.135685    37373.809 
  450600    294.62274   -1450.4217    521.47809    400.67309    330.29342    37373.809 
  450700    300.13543   -1471.7194    512.31148    395.08723    229.74568    37373.809 
  450800    294.79466     -1484.74    479.91838    325.57086    700.35372    37373.809 
  450900    307.20746   -1495.0985      526.619    417.93127    624.84218    37373.809 
  451000     297.7921    -1486.337    509.50737    367.09019    441.84414    37373.809 
  451100    306.21443   -1459.1198     524.1738    446.98331    413.35298    37373.809 
  451200     294.8175   -1468.2861    500.60931    362.81878   -69.237078    37373.809 
  451300    298.09909   -1472.0534     499.3862      372.638    263.45513    37373.809 
  451400    301.28931   -1473.1172    509.81017    396.39551    77.567109    37373.809 
  451500    302.18537   -1453.8492    516.73141    426.62856   -493.26087    37373.809 
  451600    291.06383   -1432.7842     517.8564    398.62769    -569.6425    37373.809 
  451700    305.50025   -1467.1431    514.15727    425.72041    7.5993903    37373.809 
  451800    295.22857   -1478.5977    526.32467    380.07766     227.1891    37373.809 
  451900    305.73725   -1467.4461     510.2661    422.59578   -43.974111    37373.809 
  452000    297.15401   -1449.1223    506.08006    397.99785    193.44146    37373.809 
  452100    299.82492   -1452.3107     508.3459    409.12898   -152.78005    37373.809 
  452200    291.44416   -1432.9126    508.21697    390.57625    188.53014    37373.809 
  452300    304.10628   -1447.9675    516.14701    440.59484    362.83783    37373.809 
  452400    290.20197   -1441.3832    531.25739    399.54016    12.797096    37373.809 
  452500    297.45779   -1446.4478     519.1419    415.10516   -30.868399    37373.809 
  452600    301.21691   -1466.5247    507.16276    400.01384    355.93079    37373.809 
  452700    288.56442   -1452.2535     501.8426    351.86487   -67.247863    37373.809 
  452800    297.74996   -1455.3806    519.83123    408.18022   -60.698474    37373.809 
  452900    289.14159   -1494.0916    472.09033    282.87926    34.387017    37373.809 
  453000    306.01287   -1522.1206    532.47242     391.3715    -272.6687    37373.809 
  453100    294.49781   -1438.7281    496.84696    387.17171    -220.2572    37373.809 
  453200    302.13699   -1470.0016    492.02355    385.55001   -154.53055    37373.809 
  453300     302.1852   -1494.1379    503.53879    373.14649    221.48091    37373.809 
  453400    297.32038    -1490.495    533.85699    385.15293     202.4347    37373.809 
  453500     286.0841   -1436.8678    497.40009    351.61446    147.63857    37373.809 
  453600    297.39681   -1450.5945    537.62168     429.1631    346.73971    37373.809 
  453700    307.01747   -1488.9607    508.65936    405.25209   -261.66122    37373.809 
  453800    301.22323   -1459.8673    508.49122    408.02822    -558.4764    37373.809 
  453900    310.46057   -1515.8993    506.67013     391.8628   -786.43838    37373.809 
  454000     310.0763   -1483.7619     488.2189     403.8147   -952.17267    37373.809 
  454100    300.33424    -1460.247    519.74649     414.8918   -305.07626    37373.809 
  454200    315.74783   -1480.0921    534.03706    478.89805   -408.74041    37373.809 
  454300    312.85508   -1474.7375    505.54263    442.70338   -314.19948    37373.809 
  454400    284.29204   -1457.9339    525.23694    350.29777   -350.39938    37373.809 
  454500    306.75538   -1466.8081     508.1723    425.73473   -167.58861    37373.809 
  454600    309.18942   -1479.7335    503.86894    419.49073     343.4624    37373.809 
  454700    302.65164   -1419.0594    542.79052     489.5817   -46.066885    37373.809 
  454800     295.5652   -1469.3723    506.21406    370.71164   -120.37274    37373.809 
  454900    303.50969   -1463.9594    535.38862    441.15221    721.97868    37373.809 
  455000    294.76128    -1488.413    531.01793     372.8468    957.25308    37373.809 
  455100    296.43925   -1436.1467    500.82838    402.49616    1009.4065    37373.809 
  455200    302.98682   -1423.3061     509.4038    453.46103    752.84795    37373.809 
  455300    308.18975   -1431.2146    497.01532    456.64451    635.22293    37373.809 
  455400    298.60272   -1442.4127    518.86641    424.03183    641.02644    37373.809 
  455500    304.79495    -1456.585    500.44268    419.38098    145.22009    37373.809 
  455600    301.37406   -1479.8447    527.25856    407.49878   -142.05279    37373.809 
  455700    307.78276   -1500.7457    455.60782     343.8692   -568.01367    37373.809 
  455800    294.29899   -1467.4136    512.22141    372.96336   -819.07399    37373.809 
  455900    304.55437   -1482.8273    508.06801    399.67828    3.7940413    37373.809 
  456000    304.34652   -1473.1851    521.82453    422.13899    -116.4998    37373.809 
  456100    294.32035   -1473.2713    512.44474    367.42543    134.14318    37373.809 
  456200    299.15544   -1507.0282    520.63383    363.67815    493.84307    37373.809 
  456300    294.76025   -1487.8749    500.92864    343.29092    128.60709    37373.809 
  456400    303.72905   -1519.2955    511.89376     363.3112   -148.14161    37373.809 
  456500    284.35676   -1501.9336    500.32822    281.68145    677.45963    37373.809 
  456600     301.4714   -1552.7227    494.84925    302.65081    125.67286    37373.809 
  456700    300.45347   -1535.9213    515.68433    335.69346   -272.95749    37373.809 
  456800    301.23471    -1575.269    496.74481    280.93189   -170.31357    37373.809 
  456900    300.81436   -1539.1716    495.87412    314.26159    -363.8218    37373.809 
  457000    304.47346   -1523.6025     499.9053    350.37519   -283.93895    37373.809 
  457100     298.6804   -1519.9933    511.41769    339.35308    117.24776    37373.809 
  457200    291.33252   -1502.6616    498.44152    310.54799    705.09379    37373.809 
  457300    297.21575   -1528.7845    500.57327    313.10752    219.53487    37373.809 
  457400    293.37814   -1555.3387      511.966    280.62712    256.47239    37373.809 
  457500    303.67058    -1528.486    466.03363    307.99669   -146.76984    37373.809 
  457600    299.73461   -1539.0972    496.86611    310.45515   -217.97232    37373.809 
  457700    302.88223   -1543.1272    504.12379    327.88786   -513.74188    37373.809 
  457800    296.94907   -1507.9343    476.74046    308.92138   -337.71339    37373.809 
  457900     301.6552   -1545.1624    502.72746    318.91881   -68.948472    37373.809 
  458000    298.50525   -1520.5496    532.07514    358.66379   -132.36046    37373.809 
  458100    290.44146   -1480.4735    489.09619    319.36945    255.25368    37373.809 
  458200    297.24388   -1482.7703    512.11194    370.78739   -106.23077    37373.809 
  458300    294.15329   -1512.6958    486.54319    301.34547    320.70982    37373.809 
  458400    298.60219   -1503.4392    527.83127    371.96778      216.822    37373.809 
  458500    294.29012   -1527.0229    480.20628    281.29897   -282.40826    37373.809 
  458600    299.49854    -1501.365    498.20139    348.45729    370.04608    37373.809 
  458700    305.03424   -1477.7399    516.24216    415.10545    80.774019    37373.809 
  458800    294.11863    -1542.678    494.00512    278.66874    144.67617    37373.809 
  458900    295.39648   -1558.3688    496.14903    270.88873   -773.22262    37373.809 
  459000    299.49593   -1533.5643    497.82093    315.86569   -168.62639    37373.809 
  459100    305.10808   -1515.1234    501.99001    363.80299   -577.26623    37373.809 
  459200    303.40721    -1510.116    498.21021    357.35466   -334.32703    37373.809 
  459300    303.04961    -1527.144    513.55223    354.05487   -64.551432    37373.809 
  459400    300.00204   -1524.2311    501.28755    330.94961     599.8918    37373.809 
  459500    291.08524   -1522.1892    519.51977    310.98266    -52.35817    37373.809 
  459600    291.21644   -1506.4147    502.86679    310.69624   -665.32339    37373.809 
  459700    299.83039   -1526.0452    478.21656    305.28981   -186.97088    37373.809 
  459800    289.68415   -1497.9321    502.42637    311.82328   -261.33503    37373.809 
  459900    306.18502   -1530.8624    513.90866    364.84282    371.98199    37373.809 
  460000    302.29926   -1556.7363    503.19337    310.71741    64.913316    37373.809 
  460100    289.14152   -1564.9392    501.74843    241.68946   -425.97551    37373.809 
  460200    304.68705   -1510.2149    500.98145    365.80287   -712.08759    37373.809 
  460300    301.37221   -1554.4564    472.09461    277.71486   -598.84506    37373.809 
  460400    296.32618   -1522.4029    514.07391     328.9752   -777.45014    37373.809 
  460500    305.09513   -1521.7659    487.16724     342.2793   -782.14436    37373.809 
  460600     295.1548   -1501.6241    494.40765     324.8014   -334.83029    37373.809 
  460700    307.10482   -1513.9298    521.09391    393.11175   -424.17744    37373.809 
  460800      306.158   -1537.7176    502.76911    346.72615   -262.46427    37373.809 
  460900    299.81918    -1552.349    498.13836    298.85728   -478.07651    37373.809 
  461000    306.64689   -1546.5359    492.51826    329.86335   -517.78328    37373.809 
  461100    297.35936   -1541.1229     517.0336     317.8776  -0.36997404    37373.809 
  461200    283.60428   -1537.7947    513.27764    255.37384    389.83247    37373.809 
  461300    293.55453   -1564.2109    497.93768    258.52261    527.71766    37373.809 
  461400    303.06436   -1524.3076    520.22755    363.63318    355.26575    37373.809 
  461500    299.41861   -1540.9901    486.61435    296.88439    450.75893    37373.809 
  461600    299.36857   -1519.9969     499.7935    330.83093   -27.801528    37373.809 
  461700    307.84297   -1542.8021    506.81405    353.29077    630.34672    37373.809 
  461800    302.56949   -1551.4541    512.91548    326.94131    456.75049    37373.809 
  461900    296.39695   -1542.5324    488.67298    283.76413    310.72293    37373.809 
  462000    305.93269   -1537.6737    517.81727    360.80144     622.3819    37373.809 
  462100    287.84635   -1539.5518    487.12993    246.61332    1012.3662    37373.809 
  462200    299.34169   -1522.6965    502.25382    330.47034    -73.30067    37373.809 
  462300    304.49691   -1558.7703    480.26956    295.67752     105.7459    37373.809 
  462400    298.81267    -1558.284    497.01755    287.25914    117.99882    37373.809 
  462500    286.66923   -1543.1022    487.07601    237.69672    322.28984    37373.809 
  462600    295.61471   -1551.9976    494.10124    276.19699    374.43776    37373.809 
  462700    297.96861   -1570.9601    494.34766    268.10394    -192.3633    37373.809 
  462800     294.2838   -1523.4938    489.53182    294.12507    6.4498622    37373.809 
  462900     300.8596   -1513.0182    494.51025    339.25532   -1021.9733    37373.809 
  463000    287.80257   -1486.7942    519.78393    331.82727   -1002.6656    37373.809 
  463100    294.11363   -1475.4586    493.60052    345.46096   -706.74067    37373.809 
  463200     310.5965   -1428.0651      492.421    466.06133   -298.41132    37373.809 
  463300    296.80291   -1469.0038    516.05883    386.51069    35.229334    37373.809 
  463400    295.45021   -1515.9494    484.75437    302.15595    52.166916    37373.809 
  463500    300.15117   -1510.7628    499.08926    342.89257    377.98763    37373.809 
  463600    299.34017   -1497.5495     523.0449    376.40157    11.114124    37373.809 
  463700     298.1987   -1483.2566      495.643    358.14116   -89.551419    37373.809 
  463800    298.28651   -1493.3069    517.01289    369.85704   -99.522768    37373.809 
  463900    294.95694   -1501.2718    484.31026    314.16337   -612.69538    37373.809 
  464000    303.29488    -1533.235    468.43892    303.95743   -685.65746    37373.809 
  464100    293.07431    -1521.851    474.52198    275.29968   -653.38115    37373.809 
  464200    310.59294   -1538.8025    501.21891    364.10573   -370.26177    37373.809 
  464300    309.58964   -1515.1485    480.83994    362.85285   -926.43106    37373.809 
  464400    310.99058   -1516.9939    499.69315     386.1831   -483.15835    37373.809 
  464500    299.12638    -1513.345    495.76687    332.36319   -120.76904    37373.809 
  464600    312.65201   -1504.7001    499.76918    406.05084    638.25233    37373.809 
  464700    303.11697   -1542.1223     499.9647    325.79305    641.95309    37373.809 
  464800    292.90216   -1512.9886     493.4559      302.319    813.50635    37373.809 
  464900    299.97811   -1528.2322    480.72132    306.27425    1002.2207    37373.809 
  465000    300.28539   -1509.3852    527.09296    372.87963    760.34828    37373.809 
  465100    304.67472    -1476.221    508.76461     407.5243     355.4988    37373.809 
  465200    298.34252   -1540.8127    482.20023     287.7913    370.43536    37373.809 
  465300     304.6837   -1515.2244    487.53451    347.33131    591.26192    37373.809 
  465400    305.89449   -1501.0493    475.74484    355.18095    347.50834    37373.809 
  465500       294.55   -1529.0918    499.52332    299.71994    282.85629    37373.809 
  465600    298.04653   -1518.9217    509.16844    335.31477    523.62925    37373.809 
  465700    305.39111    -1510.193    500.63711    368.65779    546.51377    37373.809 
  465800    295.75135   -1499.3363    512.48511    347.85883    46.238206    37373.809 
  465900     292.6625   -1531.8573    486.62973     275.5426   -80.909723    37373.809 
  466000    298.37658   -1521.6582    495.15245    320.05176    246.99294    37373.809 
  466100    303.75942    -1498.831    499.89587    371.91487    545.22786    37373.809 
  466200    303.42978    -1507.121    481.96947    344.21079    262.54093    37373.809 
  466300    294.02811   -1541.4789    482.38356    267.83777     74.94357    37373.809 
  466400    290.93274   -1474.7618    522.77051    360.97258    84.982043    37373.809 
  466500    294.13538   -1457.8377    496.09823    365.67775   -255.99389    37373.809 
  466600    304.45467   -1495.8572    494.66806    372.79847   -313.49325    37373.809 
  466700    303.01559   -1464.6704    488.72602    391.54874   -127.33608    37373.809 
  466800     305.1361   -1536.1905    486.59492    327.46732    350.47884    37373.809 
  466900    306.39228   -1528.2197    512.92984    367.44209    641.41961    37373.809 
  467000    310.70811   -1543.4682    508.03818    366.77907      68.2526    37373.809 
  467100    285.20017    -1508.485     499.8812    278.48929   -347.94982    37373.809 
  467200    294.83974   -1508.7851      466.596    288.40689   -640.33505    37373.809 
  467300    287.36267   -1500.2211    492.14376      288.775   -462.43446    37373.809 
  467400    304.92188   -1471.8245    521.50163    425.77326    -90.33479    37373.809 
  467500    301.37989   -1456.7237     482.4043    385.79189    409.27406    37373.809 
  467600    292.56177   -1426.2368    543.39511    437.47388    639.50653    37373.809 
  467700     291.3436   -1467.7506    500.96832    348.03582    632.93657    37373.809 
  467800    298.43721   -1479.6623    475.51033    342.67912    676.75458    37373.809 
  467900    308.46344   -1463.8183    487.08609    415.34679    1186.9843    37373.809 
  468000    309.63206   -1488.6494    532.17463    440.87814    1087.7324    37373.809 
  468100    298.05583   -1493.7351    516.47635    367.85125    688.19661    37373.809 
  468200    295.29986   -1476.3949    517.81109    374.08867    1111.0698    37373.809 
  468300    296.89825   -1512.9753    508.14282    335.05338    603.98677    37373.809 
  468400    305.21307   -1513.0225    497.99778    362.38551    1283.9134    37373.809 
  468500     299.7854   -1509.2521    497.18365    340.84697    1043.4159    37373.809 
  468600    297.66542   -1545.8645    511.29242    308.77603    548.13808    37373.809 
  468700    267.15868   -1493.3701    556.10909    268.41173    160.59707    37373.809 
  468800    328.03726   -1511.8885    452.83739    421.36349    535.63629    37373.809 
  468900    297.07665   -1495.8234     496.9936    341.86127   -121.78768    37373.809 
  469000    297.37177   -1473.2995    489.36649    358.08989   -822.72707    37373.809 
  469100    299.03657   -1489.0289    487.28103    347.78815    -51.45462    37373.809 
  469200    301.24285   -1493.3782    496.15629    362.27099    45.973677    37373.809 
  469300    298.75789   -1480.4658    517.67245    385.48502   -78.118432    37373.809 
  469400     306.5995    -1482.423    489.41367    390.65776    516.21778    37373.809 
  469500    293.89154   -1507.5096    495.31809    314.12531    614.38905    37373.809 
  469600    298.43691   -1458.9499    510.88356    398.76342    128.21513    37373.809 
  469700    292.38712   -1507.8294    506.00796    317.70595   0.77159014    37373.809 
  469800    310.60239   -1513.7815    503.84243    391.79293    76.869442    37373.809 
  469900    293.09651   -1509.8368    525.72244    338.61449    -475.1515    37373.809 
  470000    301.40657   -1501.1408    517.26136    376.35222    66.313942    37373.809 
  470100    288.46231   -1483.0305    509.03359    327.81805   -728.87219    37373.809 
  470200    299.04108   -1524.3787    479.32706    304.50471   -578.14809    37373.809 
  470300    295.74769   -1459.8506    480.55467    355.39754   -352.06447    37373.809 
  470400    297.54545   -1504.9402    508.66412    346.53062   -474.72214    37373.809 
  470500    300.84395   -1446.9948    535.98462    446.68239   -376.47106    37373.809 
  470600    299.45772   -1489.5497    496.16505    358.05196    453.82155    37373.809 
  470700    290.15448   -1486.2819     492.4883    315.65799    120.57524    37373.809 
  470800    298.44705   -1477.8635    495.42715    364.43914   -16.437637    37373.809 
  470900    303.07185   -1454.4517     486.3139     399.6092    657.08653    37373.809 
  471000    304.74987   -1508.1057    505.71142    372.92553    717.27072    37373.809 
  471100    293.44208   -1499.6097    484.01967    308.69833    319.36537    37373.809 
  471200    305.39068   -1442.6592    489.60535    425.15795    1109.4364    37373.809 
  471300     293.8827   -1429.2687    514.90032    411.90845    587.13918    37373.809 
  471400    293.39532   -1452.0419    511.06627    383.10172    321.41915    37373.809 
  471500    317.75153   -1433.1572    516.99595    517.83441    176.88506    37373.809 
  471600    302.95168   -1456.5717    467.33735    377.97034   -339.19456    37373.809 
  471700    307.99367   -1411.1511    511.55909    490.36687    128.53556    37373.809 
  471800    304.17886   -1457.0369     506.7414    422.44743   -199.85503    37373.809 
  471900    303.79182   -1428.2526    490.94267    433.68627    -247.3436    37373.809 
  472000    288.23311   -1451.2372    523.83988    373.38326  -0.37453842    37373.809 
  472100    303.48633   -1475.7261      491.729    385.62046    -689.4661    37373.809 
  472200     310.5191   -1446.6221    482.25123    436.98513   -687.11757    37373.809 
  472300    302.46037   -1472.3025    504.62727    397.31219   -1114.0589    37373.809 
  472400    307.31916   -1463.7166    497.53123    420.72954   -1169.2594    37373.809 
  472500    298.90018   -1488.4765    492.05062    352.49458   -581.20667    37373.809 
  472600    297.56178   -1511.0647    490.68004    322.49567    -486.5286    37373.809 
  472700    298.19866   -1508.5657    489.36716    326.55605   -388.26037    37373.809 
  472800    300.23954   -1458.9948    496.18565    392.15576   -536.22411    37373.809 
  472900    301.28924   -1446.6458    502.70138    415.75778    -417.1187    37373.809 
  473000    292.98541   -1499.9237    472.54098    294.84472   -311.61626    37373.809 
  473100    300.58757   -1489.8654     537.7138    404.38396   -387.43747    37373.809 
  473200    292.30206   -1483.3292    478.58176    314.39613   -215.74347    37373.809 
  473300    302.99085    -1482.489    497.47068     382.3632    23.162211    37373.809 
  473400    300.28424    -1553.386    485.00199    286.78262   -263.09124    37373.809 
  473500    302.37031   -1526.9002    473.32347     311.0043   -478.65953    37373.809 
  473600    294.28221   -1523.0555    495.77252    300.79684    82.645248    37373.809 
  473700     302.0799   -1557.1952    470.36691    276.44213   -235.54986    37373.809 
  473800    301.41111   -1576.4258     479.2426    263.06903    -175.7894    37373.809 
  473900    302.70055   -1576.3185    491.79168    281.54455   -145.70625    37373.809 
  474000    303.96903   -1514.0927    513.76337    371.46663   -316.93554    37373.809 
  474100    303.14754   -1537.4298    483.28769    313.94654   -144.65513    37373.809 
  474200    286.03439   -1524.7633    515.60644    281.70102    114.01865    37373.809 
  474300    295.43883   -1566.1001    501.54913    268.74865   -334.89619    37373.809 
  474400    313.55559   -1564.5444    470.38297    320.89817    39.269999    37373.809 
  474500    297.15849   -1536.5436    493.14776    297.66453     195.3014    37373.809 
  474600     300.4304   -1531.1693     504.6262    329.28316    240.04023    37373.809 
  474700     306.6795   -1530.9511    505.77199    358.84901   -267.73298    37373.809 
  474800    304.53973   -1477.6376    504.65522    401.38914   -268.70842    37373.809 
  474900    302.69649   -1489.8541    496.26027    372.45917    5.1112992    37373.809 
  475000    297.90872   -1545.2074    499.30236    298.54099   -501.83607    37373.809 
  475100    299.82708   -1512.9159    514.06304    354.25071    132.06008    37373.809 
  475200    293.09435   -1519.5471    512.82198    315.99401    293.97622    37373.809 
  475300    297.36577   -1556.0515    511.09834    297.04266   -324.95447    37373.809 
  475400    315.68231   -1544.7011    496.91745    376.87366    211.19043    37373.809 
  475500    302.62213   -1559.1429    496.97885    303.55339    237.82432    37373.809 
  475600    298.11001   -1575.5061    507.43539    277.28376   -172.39204    37373.809 
  475700    296.43854   -1542.2104     477.7171    273.31801   -94.364993    37373.809 
  475800    310.45652    -1501.168    488.35825    388.26388    305.64923    37373.809 
  475900    302.58599   -1529.8048    497.28816    333.03776    -563.0354    37373.809 
  476000    308.66123   -1523.8742    505.58362    374.68097   -291.32673    37373.809 
  476100    289.95455   -1579.8536    490.95352    219.64928   -238.17734    37373.809 
  476200    301.97695   -1565.8307    499.36179    296.33689    22.970865    37373.809 
  476300    303.52576   -1603.9365    479.82998    245.68897    -81.68713    37373.809 
  476400    299.72951   -1551.1542    480.13567    281.64466    297.58171    37373.809 
  476500    291.09135   -1538.9051    490.88926    265.66382    247.86411    37373.809 
  476600    314.59768    -1541.006    474.05078    352.80725    341.60869    37373.809 
  476700    293.33068   -1503.8862    515.44913     335.3486    421.51298    37373.809 
  476800    295.21329   -1538.1546    502.54251    296.66969     774.2208    37373.809 
  476900    307.79649   -1521.2889    516.08469    383.86487    579.69245    37373.809 
  477000    305.01783    -1537.436     502.7279    341.82105     118.7522    37373.809 
  477100    297.31194   -1509.0506    475.01882    307.72105   -159.71306    37373.809 
  477200    298.03854   -1524.6397    527.10623    347.49846   -491.03508    37373.809 
  477300    293.75383   -1476.3332     513.9916    363.35371   -296.59807    37373.809 
  477400    307.27724   -1474.3301    487.92016    400.31573    175.97674    37373.809 
  477500    298.29855   -1480.3535    525.94128    391.79313   -312.54727    37373.809 
  477600    299.10154   -1499.7739     504.3225    354.37779   -510.38658    37373.809 
  477700     303.5969   -1517.9584    503.36517    355.52328    340.76561    37373.809 
  477800    296.89042   -1514.7312    509.83578    334.95517    -391.3701    37373.809 
  477900    292.77425   -1518.3093     508.7578      311.723   -557.30154    37373.809 
  478000    304.54725   -1464.6694    502.57367    412.30974   -117.07656    37373.809 
  478100    301.61581   -1527.9013    497.85965    331.13437   -266.79088    37373.809 
  478200    305.00464   -1472.1602    545.96734    450.27668   -297.04547    37373.809 
  478300    303.54979   -1491.6078    486.10585    364.40199   -787.56298    37373.809 
  478400    293.43238   -1520.0673    490.47257    294.64985   -489.37341    37373.809 
  478500    302.54995   -1482.1464    535.09346    418.33876   -459.11096    37373.809 
  478600    297.81898   -1463.9458    498.43782    378.53314   -440.44021    37373.809 
  478700    296.39019    -1489.353    523.07184    371.31194   -995.35724    37373.809 
  478800    304.21917   -1471.7644    511.92309    413.08346   -543.64327    37373.809 
  478900    288.80269   -1470.8813    487.43605    319.90582   -206.63023    37373.809 
  479000    296.33012   -1534.0464    503.19842    306.47403   -81.401663    37373.809 
  479100     308.1022   -1533.3589    508.50585    365.59563   -31.135779    37373.809 
  479200    298.71703   -1522.1473     502.9941    328.94077    735.79962    37373.809 
  479300     305.7655   -1502.3377    505.13901    382.70464    616.28658    37373.809 
  479400    303.02908   -1497.3452    519.89907    390.10783    257.77706    37373.809 
  479500    302.71322   -1491.4133    495.44155    370.15678    252.52286    37373.809 
  479600    308.89373   -1457.7518    503.77494    440.04398    304.14471    37373.809 
  479700     301.2068    -1521.007    497.94468    336.26779    504.53812    37373.809 
  479800    300.42193   -1488.1074    510.25323    377.93391    471.03802    37373.809 
  479900    293.61982   -1492.7366    520.00466    352.35861    501.94209    37373.809 
  480000    305.15171   -1513.2167    500.23365     364.1503    1158.8048    37373.809 
  480100    304.89027   -1476.2173    519.74311    419.47932    542.32152    37373.809 
  480200    304.65222   -1482.7843    501.12113    393.21596    852.83231    37373.809 
  480300    305.78987   -1482.3509    509.53964    407.20199    583.54111    37373.809 
  480400    290.79261   -1466.1899    513.32119    359.46279    396.85501    37373.809 
  480500    290.66429   -1467.6317     512.0196    356.14028    250.28986    37373.809 
  480600     301.5858   -1502.8938    519.91297    378.05974   -18.600947    37373.809 
  480700    298.67341   -1536.7947    487.94032    299.04267    33.608319    37373.809 
  480800    291.93988   -1551.6872    511.54376    277.36564   -433.86373    37373.809 
  480900    305.41445   -1525.4712    507.81741    360.66523    -500.2266    37373.809 
  481000    306.04924   -1533.3159    478.25186    326.11982   -264.14728    37373.809 
  481100    301.21492   -1524.8049    498.75342    333.31532   -397.29984    37373.809 
  481200    301.73221     -1502.87    508.92575    367.75706     276.7139    37373.809 
  481300    307.07516   -1517.4264    494.42041    362.80779   -234.95883    37373.809 
  481400    297.06169   -1516.2735    498.08952    322.43952    7.3251978    37373.809 
  481500    302.99267   -1540.7095    480.98152     307.6617   -379.54117    37373.809 
  481600    294.46331   -1544.7705    507.38894    291.51557   -322.92882    37373.809 
  481700    291.02395   -1516.2897    470.87924    267.96499    102.58295    37373.809 
  481800    301.01644   -1520.4717    502.16887    340.16824    12.581933    37373.809 
  481900    301.65425    -1530.923    481.81638    312.24282    527.01797    37373.809 
  482000    295.31069   -1506.1003    516.64538    343.26641    544.35438    37373.809 
  482100    311.73084   -1455.0549    506.19332    457.96296    90.322106    37373.809 
  482200    300.04239   -1464.6596    528.60065    418.01629   -164.14677    37373.809 
  482300    290.26714   -1482.5402    496.79818    324.21796    149.33801    37373.809 
  482400    300.82975   -1501.2487      536.431    392.81085   -121.91973    37373.809 
  482500    296.12098   -1508.9901     483.8892    311.27722   -607.97217    37373.809 
  482600     302.2284   -1513.0022    515.35915    366.29754   -1285.8539    37373.809 
  482700    292.43416   -1493.1171    491.48862    318.11124   -541.72471    37373.809 
  482800    310.31352   -1508.0866    502.57422    394.91588   -590.52301    37373.809 
  482900    296.19772    -1508.241     514.2807    342.76417   -773.70579    37373.809 
  483000    306.18893    -1497.906    483.92036    367.82857   -209.02981    37373.809 
  483100    305.47102    -1452.975    513.72302    439.32232   -40.489488    37373.809 
  483200    288.80148   -1464.6471    535.75628    374.45481   -512.12074    37373.809 
  483300    300.85553   -1498.4029    510.63989    369.98189    104.96733    37373.809 
  483400    293.78547   -1473.5369    477.47225    329.77346   -471.51038    37373.809 
  483500    309.57606   -1475.4428    520.91453    442.57189   -62.027643    37373.809 
  483600    306.23859   -1475.9672    507.62621    413.69738   -580.80889    37373.809 
  483700    301.54399   -1513.9309    509.76888    356.68986   -1279.6517    37373.809 
  483800     299.6598   -1498.9648    494.97187    348.35572   -917.18629    37373.809 
  483900    306.43805   -1518.1335    472.04136    336.84638   -579.31693    37373.809 
  484000    300.11273   -1505.1451    490.89715    340.14471   -782.99259    37373.809 
  484100    287.82052   -1521.5327    496.29083    273.67672   -312.79008    37373.809 
  484200    307.40509   -1504.5581    519.69472     402.4393   -128.08578    37373.809 
  484300     290.4058   -1543.9838    512.23545    278.83745   -197.80583    37373.809 
  484400    293.47008   -1523.1064    506.43203    307.74039   -231.11241    37373.809 
  484500    301.66324   -1537.5715     523.8605    347.67907    395.59467    37373.809 
  484600    301.25157   -1550.3915    489.86601    299.00671   -19.139727    37373.809 
  484700    298.67625    -1517.721    506.23538    336.42431    365.14663    37373.809 
  484800    306.80544   -1522.4762    490.88087    353.00124    111.48814    37373.809 
  484900    301.89917   -1498.2475    496.05528    360.26259    340.74109    37373.809 
  485000    299.51463   -1509.8499    518.60217    360.44571    737.71088    37373.809 
  485100     293.5206   -1556.6539    495.01743    263.00625     287.2512    37373.809 
  485200    308.15549   -1594.3277    478.18452    274.54606    484.02087    37373.809 
  485300    304.92138   -1559.5138    492.53838    309.11843    474.69387    37373.809 
  485400    302.65816   -1539.6427    502.90835    329.14569    351.37446    37373.809 
  485500    299.53189   -1542.2063    529.81734    339.38242    284.00831    37373.809 
  485600    295.75667   -1511.8054    505.21932    328.14794    156.95328    37373.809 
  485700    306.04218   -1499.1044    532.81656    414.86418    388.41498    37373.809 
  485800    297.76084   -1495.5124    529.45376     377.7201    192.52246    37373.809 
  485900    309.53308   -1522.0425    494.28525    369.14891    739.92603    37373.809 
  486000    306.90578   -1535.1483     509.9077    359.80877    660.75678    37373.809 
  486100    298.53344   -1527.3613    525.83002    345.73412    331.60996    37373.809 
  486200    291.43436   -1527.9794    498.14541    285.39364    444.83316    37373.809 
  486300    310.52502   -1566.3647    489.79921    324.81728    523.68068    37373.809 
  486400    301.07423   -1539.5944    522.81104    341.94853   -362.30751    37373.809 
  486500     291.0569   -1530.5413    499.29789    282.28076   -177.98602    37373.809 
  486600    295.45619      -1513.9    508.63562    328.11356    293.01451    37373.809 
  486700    302.15111   -1537.3273    524.06946    350.33389    946.05896    37373.809 
  486800     312.9263   -1564.1584    510.40844    358.46972    396.36992    37373.809 
  486900    299.18788   -1515.7419    493.63935    328.11629    117.73693    37373.809 
  487000    291.91417   -1494.2315     524.0474    347.20885    65.099517    37373.809 
  487100    295.77485   -1484.3221    535.16005    385.65396   -203.49405    37373.809 
  487200    312.42439   -1484.7114    492.98486    418.22805    -334.9733    37373.809 
  487300    293.96192   -1510.1328    500.36686     316.8685   -306.40426    37373.809 
  487400    296.13764   -1511.1918    545.70871    370.97018   -963.64484    37373.809 
  487500    301.37724   -1486.5299    514.04917    387.61855   -698.31382    37373.809 
  487600    304.83686   -1457.4575    528.51675    446.77168   -373.10134    37373.809 
  487700    292.51638   -1462.3324    538.39635    396.17471   -191.22185    37373.809 
  487800    307.68291   -1502.0374    520.06335     406.5824   -196.39141    37373.809 
  487900    301.93378   -1524.1836    504.00422    342.43157    -87.18947    37373.809 
  488000    303.38212   -1484.2494    526.53034    411.42817    143.31038    37373.809 
  488100    299.00859   -1490.7332     511.7537    370.43027    137.99867    37373.809 
  488200     291.4571   -1481.7659     509.6476    343.21196   -231.95206    37373.809 
  488300    303.68042   -1478.8579    526.64358    418.27915   -301.43148    37373.809 
  488400    295.50732   -1523.1891    500.43581    310.85539   -430.41123    37373.809 
  488500    308.51069    -1509.699    511.55943    394.15262    -140.9706    37373.809 
  488600    308.81999   -1499.0335    534.23414     428.8887    4.7223466    37373.809 
  488700    294.94971   -1509.4847    492.44162    314.04914   -697.79348    37373.809 
  488800    298.03525   -1517.2458    508.41782    336.18913   -110.70721    37373.809 
  488900    302.17854    -1534.909    523.92292    352.72945   -17.635531    37373.809 
  489000    298.23305   -1550.2455    515.80764     311.4719   -80.466368    37373.809 
  489100     293.5993   -1534.4659    481.52443    272.05645   -171.53715    37373.809 
  489200    291.47697   -1505.1059    525.54641    335.86044   -393.15122    37373.809 
  489300    295.03323   -1549.9695    507.41767    288.91728   -239.55837    37373.809 
  489400    308.83867   -1532.5548    497.01097    358.22858    26.713442    37373.809 
  489500    305.13767     -1526.88    539.78758    389.97751   -346.61303    37373.809 
  489600    293.14293   -1491.2137    505.81559    337.54022   -1052.3224    37373.809 
  489700    297.64388   -1476.6543     519.7726    386.36919   -838.80146    37373.809 
  489800    297.07969   -1513.5012    493.99599    321.19954   -587.82561    37373.809 
  489900    290.28369   -1503.9756    499.09471     305.1538   -87.667764    37373.809 
  490000    296.74402    -1521.306    489.06814      306.952   -346.92613    37373.809 
  490100    308.35039   -1494.3439    508.02637     405.2513   -549.90855    37373.809 
  490200    292.61896   -1482.7089    517.99333     355.8581    274.42375    37373.809 
  490300    305.43982   -1474.0038    517.22653    421.65626    522.52948    37373.809 
  490400    303.86081   -1474.8017    522.22354    418.72937    2.8587907    37373.809 
  490500    303.44064   -1430.4666    504.60469     443.5494   -294.69761    37373.809 
  490600    296.63429   -1467.2245    522.26218    393.73233    380.13591    37373.809 
  490700    285.39267   -1479.6153    523.06645    331.41296    105.14305    37373.809 
  490800    306.79314   -1410.1985     530.3535    504.69605    270.75746    37373.809 
  490900    303.02101   -1460.8599    542.26947    448.92717     46.29659    37373.809 
  491000    285.52226   -1507.3636     521.7518    302.93485    38.913626    37373.809 
  491100     306.4284   -1468.8462    497.82333    411.87213    98.103721    37373.809 
  491200    311.99493   -1525.4351    508.41247    390.99375    127.37844    37373.809 
  491300     305.8293   -1524.2356    514.14838    370.10399    373.22992    37373.809 
  491400    302.45865    -1511.039    533.16415    387.10485    761.50934    37373.809 
  491500    299.34876   -1510.3297    514.38539    355.00058    266.92696    37373.809 
  491600    317.08852   -1547.4662    506.80472    390.34207    296.06004    37373.809 
  491700    295.02783   -1557.7421    489.08421    262.78687   -214.45039    37373.809 
  491800    292.81445   -1554.8694    469.13554    235.72206   -360.99758    37373.809 
  491900    300.35381    -1534.095    497.20231    318.58798   -397.62871    37373.809 
  492000    294.79168   -1531.0264    493.50688    292.85949    202.00694    37373.809 
  492100    299.58195   -1480.4656    492.75314    364.28486     181.2871    37373.809 
  492200    303.41082    -1519.977    498.06511    347.36488    374.66846    37373.809 
  492300     306.3958   -1519.6483    498.09634     361.1959   -261.20047    37373.809 
  492400    301.75734    -1532.061     496.1776    325.93126    277.27249    37373.809 
  492500    300.40476   -1531.9653     505.2159    328.96111   -105.72882    37373.809 
  492600    301.13704   -1524.6496     510.4031    344.76878   -401.35857    37373.809 
  492700    313.23866   -1545.6506    481.02994    349.00865   -368.03619    37373.809 
  492800    307.35577   -1579.8411     493.8234    301.06236   -213.09992    37373.809 
  492900    304.65115   -1511.0009    510.10615    373.97957   -221.63547    37373.809 
  493000     302.3609   -1553.9879    496.78503    307.33567    636.65199    37373.809 
  493100    297.56129   -1544.7263    487.12098    285.27285    219.34264    37373.809 
  493200    302.71057   -1496.1581     509.2873    379.24575    231.60848    37373.809 
  493300    305.53758   -1546.5596    509.95906    342.27422    702.38964    37373.809 
  493400    297.31588    -1525.926    523.03761    338.88228    1241.7279    37373.809 
  493500    305.57013   -1554.1757    517.59486    342.44085    17.443656    37373.809 
  493600    288.65732    -1547.132    516.51402    272.07701    120.40957    37373.809 
  493700     308.0332   -1555.0874    496.31221     331.3621   -333.65808    37373.809 
  493800    292.93417   -1518.8133    512.36893    315.55187   -726.84625    37373.809 
  493900    302.42534   -1461.3284    515.98465    419.48562   -313.19291    37373.809 
  494000     298.7177   -1466.9764    512.83355    393.95409   -197.40944    37373.809 
  494100     296.0936   -1431.2475     532.2563    437.26334   -588.88498    37373.809 
  494200    287.23629   -1503.8085    475.63237     268.1059   -542.81726    37373.809 
  494300    292.82786   -1471.3597    521.32699    371.48369   -534.21238    37373.809 
  494400    311.00439   -1496.4103    512.38454    419.52042   -190.27925    37373.809 
  494500    304.24638   -1495.7448    521.67553    398.97834   -89.423402    37373.809 
  494600    300.78178    -1474.074    524.21367     407.5517   -52.808773    37373.809 
  494700    298.80796   -1468.5789    534.67852    414.60391    890.35834    37373.809 
  494800    302.52508   -1540.8728    506.23494    330.64165     716.3325    37373.809 
  494900    300.37641    -1475.639    500.18964    380.13326    780.97315    37373.809 
  495000    300.78941   -1483.9906    508.88823    382.34416   -123.26467    37373.809 
  495100    304.38049   -1526.4685    517.40851    364.59285    92.523709    37373.809 
  495200    307.98695   -1542.8636    492.79578    339.86075     10.29154    37373.809 
  495300    291.67347   -1525.8277    490.07958    280.55861   -257.61089    37373.809 
  495400     292.5338    -1526.333    527.79287    321.64927    243.63872    37373.809 
  495500    295.70987   -1487.2858    483.63078    330.86774   -161.52794    37373.809 
  495600     305.3119   -1530.6797    507.45454    354.63102   -411.11809    37373.809 
  495700    298.73238   -1536.5758    480.39843    291.98583   -222.48298    37373.809 
  495800    307.52146   -1518.9262    521.26418    390.16585   -305.87089    37373.809 
  495900     293.4406    -1489.262    521.58577    356.60548    57.774801    37373.809 
  496000    298.17951   -1501.0369    510.99394    355.62516   -392.10679    37373.809 
  496100    287.60632   -1503.0692    531.13086    326.01361   -435.00786    37373.809 
  496200    293.94762   -1497.3758    504.60403    333.79815   -654.20357    37373.809 
  496300    298.26527    -1479.788    520.48697    386.75419   -654.74974    37373.809 
  496400    296.99391   -1505.4486    500.77078    335.63975   -485.70832    37373.809 
  496500    300.82875   -1505.4618     518.3899    370.55211   -86.426289    37373.809 
  496600    314.65718   -1503.1541    519.08853    435.96544    359.08031    37373.809 
  496700    300.55863   -1524.8271    476.60968    308.18762   -548.10526    37373.809 
  496800    303.70177    -1499.386     534.4962    405.69995   -15.180768    37373.809 
  496900    302.96672   -1480.4176    498.65147    385.50648     63.18055    37373.809 
  497000    293.46565   -1525.0416    529.07294    328.42607    375.62797    37373.809 
  497100    306.12662   -1480.2673    518.82826    420.09398    423.09837    37373.809 
  497200    304.83179   -1466.4433    521.68154    430.92772   -81.052086    37373.809 
  497300    294.20028   -1477.9392    503.98276    353.75365   -144.34575    37373.809 
  497400    307.07868   -1490.9618    526.89183    421.75967     280.8984    37373.809 
  497500    296.84924   -1483.3541    518.42191    374.73251   -38.652101    37373.809 
  497600    308.68166   -1572.2015    488.05387    308.91615   0.33720692    37373.809 
  497700    305.23465   -1480.7195     494.1626    390.95076    306.23568    37373.809 
  497800    301.38789   -1475.1971    528.65541    413.60573   -140.99866    37373.809 
  497900    292.70966   -1514.4912    538.92724     345.4191   -376.25796    37373.809 
  498000    300.97225   -1523.1526    499.18141    334.30048    91.042967    37373.809 
  498100    304.57725   -1483.3095    521.75531    412.98666   -51.546389    37373.809 
  498200    302.08235   -1499.0489    529.51427    393.74686    192.92115    37373.809 
  498300    305.68793   -1477.7459    519.99007    421.79739   -166.28485    37373.809 
  498400    301.36407   -1486.0817    501.66597    375.62415    450.36313    37373.809 
  498500    301.99415   -1510.0951    498.82079    351.60911    417.58731    37373.809 
  498600    302.43356    -1498.574    504.36442    370.65685   -317.91788    37373.809 
  498700    310.57779   -1467.8165    486.77097    420.57535    398.41868    37373.809 
  498800    295.69341   -1479.7288     518.9948    373.71454    -711.0549    37373.809 
  498900    308.38269   -1469.5503     517.3652    439.52945    -127.1646    37373.809 
  499000    295.74649   -1437.1939    492.41475    389.90887    145.35509    37373.809 
  499100    288.61081   -1489.9594    533.90569    346.43141   -71.617984    37373.809 
  499200      289.379   -1475.5705    512.36473    342.74617    168.43105    37373.809 
  499300    303.12582   -1501.6799    519.14252    385.45318    596.33087    37373.809 
  499400    310.02072   -1524.1121    521.36701    396.36181    452.64448    37373.809 
  499500    293.04245   -1485.0203    483.89937    321.36392   -48.454597    37373.809 
  499600    300.37926   -1504.4546    519.22102    370.36194    440.60146    37373.809 
  499700    296.04303   -1487.0323    542.33256    391.32661   -391.89401    37373.809 
  499800    310.37842   -1519.0139    514.55295     396.2602   -326.13708    37373.809 
  499900    308.28568   -1531.2012    503.80877    363.88433   -615.61715    37373.809 
  500000    299.12092   -1531.2361    518.06403    336.74459   -58.174355    37373.809 
  500100    304.04798   -1524.7361    503.04221    350.45839   -187.85721    37373.809 
  500200     303.8134   -1482.9276    510.34698    398.51299    166.17657    37373.809 
  500300    291.71393   -1508.9795    492.48138    299.99128    374.39473    37373.809 
  500400    311.01928   -1501.8484    505.26319    407.02819    229.18001    37373.809 
  500500    275.97511   -1499.7379     537.6318    283.35478   -31.127486    37373.809 
  500600    292.44419   -1526.1583    481.89098    275.51761    458.92538    37373.809 
  500700    299.14794   -1491.3031    548.15712    406.89259   -383.86398    37373.809 
  500800    307.27344   -1493.9021    502.91369    395.72019   -847.65552    37373.809 
  500900    294.62738   -1485.5642    506.33071    350.40404   -832.97173    37373.809 
  501000    285.48825   -1493.6388    506.45764    301.21204   -1015.1426    37373.809 
  501100     297.9438    -1512.181      514.155    346.57846   -648.77923    37373.809 
  501200    291.96708   -1502.5308    503.23068    318.33165   -494.90056    37373.809 
  501300    303.56122   -1506.2199    519.13221    382.86789   -148.46511    37373.809 
  501400    291.44723   -1512.9906    525.85881     328.1539   -358.77683    37373.809 
  501500    291.54102   -1515.2736    519.52397    319.95941    146.61949    37373.809 
  501600    303.76818    -1529.603    516.75307    358.03962   -602.34059    37373.809 
  501700    295.88376     -1493.85    504.67177    346.12932    -84.35293    37373.809 
  501800    299.99733    -1522.169    503.19318    334.89609    256.01477    37373.809 
  501900    309.07718   -1454.2424    534.36562    474.97199     5.909199    37373.809 
  502000    291.36903   -1490.8907    550.14608     374.1882   -290.04872    37373.809 
  502100     304.7985   -1495.2198    521.62901    401.94849    20.915569    37373.809 
  502200    295.48171   -1477.4649    525.40264     381.4308   -280.54404    37373.809 
  502300    297.09242   -1510.9376    506.88704    336.71156     377.5754    37373.809 
  502400    307.97491   -1489.7707    502.19886    402.30245    299.51879    37373.809 
  502500    313.55802    -1458.757    504.73219    461.04575    523.60557    37373.809 
  502600    293.00821   -1513.8168    525.73192     334.2455    609.57616    37373.809 
  502700    292.24534   -1507.3158    527.00503    338.57682    349.45431    37373.809 
  502800    306.17104   -1528.3481    495.90774    349.29313    20.976268    37373.809 
  502900    308.98278   -1495.7755    497.36721    396.01442    226.54866    37373.809 
  503000    304.29004   -1475.0097    526.19871    424.43365    166.49202    37373.809 
  503100    305.12431   -1429.3216    524.94929    472.63728   -21.151135    37373.809 
  503200    299.39932   -1460.9966    508.06858    398.24506    -131.5462    37373.809 
  503300    302.61214   -1473.1956    510.31526    402.79199    65.361279    37373.809 
  503400    300.59416   -1449.9022    546.99956    453.66266   -595.68586    37373.809 
  503500    302.01262   -1480.6317    477.68937    360.02437   -308.33045    37373.809 
  503600    304.83104   -1456.9099    515.50264     434.2789   -228.79354    37373.809 
  503700     289.5896   -1435.1853    543.51853    415.23562     -429.505    37373.809 
  503800    292.63255   -1436.2821    534.10214    418.45512    239.80433    37373.809 
  503900    308.38806   -1452.1099    531.53768    471.16661   -37.354284    37373.809 
  504000    291.80502   -1480.1523    557.09562    393.84377   -60.146429    37373.809 
  504100    296.46832   -1502.7272    501.30349    336.52192     412.2715    37373.809 
  504200    296.73856   -1471.1402     565.5244    433.54941    781.96863    37373.809 
  504300    308.51145   -1465.3187    532.96357    459.94053     693.7078    37373.809 
  504400    293.75312   -1464.3694    472.42094    333.74365    279.15981    37373.809 
  504500    298.84937   -1492.9345    518.02176    373.77846    587.07311    37373.809 
  504600    295.55191   -1536.1231    519.86724     317.5541    173.46537    37373.809 
  504700    310.49968    -1525.111    522.61862    398.77601    54.545168    37373.809 
  504800    312.52047   -1495.7104    507.81013     422.4878    33.933353    37373.809 
  504900    296.74514   -1534.2748    522.03121    326.95129   -145.48209    37373.809 
  505000    291.86448   -1481.3332    505.54307    341.37861   -530.62547    37373.809 
  505100    295.25016   -1480.3736    490.77832    342.85285   -319.70341    37373.809 
  505200    290.27163   -1511.2249    505.11959    303.87504   -1320.9674    37373.809 
  505300    296.06093   -1483.5835    516.65171    369.17536   -1163.1037    37373.809 
  505400    296.81141   -1476.3193    462.20513    325.37986   -1058.2008    37373.809 
  505500    302.73098    -1468.707    504.87594    402.37766   -839.44937    37373.809 
  505600    302.64683   -1473.0614    520.46466    413.23214   -866.46916    37373.809 
  505700    309.15949   -1462.0167    524.65968    457.86325   -426.82298    37373.809 
  505800    297.20021   -1469.8747    519.61706    390.99097   -914.78259    37373.809 
  505900    297.61918   -1484.6568    507.61424    366.09684   -423.82541    37373.809 
  506000    291.35986   -1474.0751    534.02046     374.8368   -82.611265    37373.809 
  506100    302.04982   -1472.4487       496.02    386.70595     281.4949    37373.809 
  506200    299.42989   -1479.2375     499.2893    371.36286    137.49748    37373.809 
  506300    300.03988   -1478.7658    529.04783     404.3459   -117.74279    37373.809 
  506400    300.76215   -1469.6128    506.36523    394.07586    303.79442    37373.809 
  506500    298.98574   -1475.5452     505.7428    379.50424    362.33616    37373.809 
  506600    297.98542   -1510.2067    508.17742    342.76294    299.40549    37373.809 
  506700    295.74309   -1468.8194    519.37127    385.22461    161.19865    37373.809 
  506800     300.0386   -1463.0807    501.19529    392.17271   -126.15015    37373.809 
  506900     303.1161   -1496.8101    493.17572     364.3123   -559.18922    37373.809 
  507000    293.50115   -1511.1994    497.77238    311.12795   -342.65084    37373.809 
  507100    305.19893   -1514.3438    503.38978    366.39238    248.99206    37373.809 
  507200    299.45056   -1512.6704    515.49893    354.23288    167.91227    37373.809 
  507300    297.84629   -1480.3824    511.13653    374.91849    627.17376    37373.809 
  507400    300.14837   -1472.0009    509.08221    391.63487   -58.790388    37373.809 
  507500    300.37623   -1500.6547    510.59514    365.52228   -728.53596    37373.809 
  507600    297.04332     -1480.64    481.24562    341.14623   -479.42595    37373.809 
  507700    292.37859   -1498.4422    517.74717    338.79383   -950.58687    37373.809 
  507800    290.09272   -1531.8101    497.80786    275.17071    -644.4909    37373.809 
  507900    292.17845    -1563.325    527.20632    282.46699   -453.51229    37373.809 
  508000    296.75212   -1505.0223    518.47467    352.67886   -338.60723    37373.809 
  508100    295.94776   -1452.9566    498.63681    381.27655   -559.42249    37373.809 
  508200    300.27194   -1473.3563     533.6479    415.40274   -385.44062    37373.809 
  508300     307.9218   -1509.0663    481.31198    361.88031   -281.61325    37373.809 
  508400    303.88095   -1540.0259    525.96422    357.33679    186.70704    37373.809 
  508500    300.78987    -1530.614    470.88142    297.71602   -306.99191    37373.809 
  508600    301.43695   -1540.1253    526.23676    346.48023    349.20357    37373.809 
  508700       298.95   -1528.6595    508.45418    328.94003   -197.89768    37373.809 
  508800    299.59345   -1514.7661    496.37007    333.65316     155.8184    37373.809 
  508900    305.37842   -1498.8154     541.3106    420.65163    34.252885    37373.809 
  509000    302.40822   -1533.5678    518.11516    349.29947     25.16101    37373.809 
  509100    310.97522   -1518.8823     494.7942     379.3264    335.86418    37373.809 
  509200    304.49091   -1516.1902     517.2961    375.25706    293.08448    37373.809 
  509300    302.23379   -1508.6532    478.26857    333.58022   -72.903388    37373.809 
  509400    300.25173   -1479.3132      541.975    417.68178     510.8656    37373.809 
  509500    298.63402   -1541.5899     516.7068    322.83626    118.52481    37373.809 
  509600    293.60436    -1477.191    513.47429      361.304    497.95852    37373.809 
  509700    304.86914   -1523.0732    500.46104    353.24595   -100.87055    37373.809 
  509800    299.04664   -1511.5507    513.03283    351.06361   -97.598124    37373.809 
  509900    293.75352   -1509.7208    472.24225     288.2154   -792.11249    37373.809 
  510000    296.53994   -1492.4649    509.47012    355.27412   -889.55156    37373.809 
  510100    291.32412   -1521.9645     499.9353    292.70097   -631.20424    37373.809 
  510200    292.01811   -1489.1926    497.47206    326.14154   -558.10554    37373.809 
  510300    291.72517   -1492.0734    505.93138    330.39802   -557.62931    37373.809 
  510400    303.69238   -1531.3024    478.57449    317.81959   -480.96721    37373.809 
  510500    304.67614   -1501.4676    515.36435    388.88385    476.46718    37373.809 
  510600    311.03178   -1500.3411    505.08327    408.41193    695.30687    37373.809 
  510700    297.72285   -1519.3662    510.57077    334.81187    590.20351    37373.809 
  510800    307.52823   -1519.1961    512.82439    381.48669    617.10869    37373.809 
  510900     305.3224   -1552.1724    506.84506    332.57634    871.88453    37373.809 
  511000    292.60499   -1520.6576    479.60368    279.45668    65.457781    37373.809 
  511100    297.96039   -1446.4022    511.11821     409.3953   -487.02048    37373.809 
  511200    295.34358   -1510.4467    513.56153    335.98454    -598.6857    37373.809 
  511300     309.2827   -1496.5891    506.82585    406.01298   -626.09406    37373.809 
  511400    300.76224   -1516.8803    481.27833    321.72187    90.150889    37373.809 
  511500    300.82823   -1526.3492    486.35664    317.62909   -165.09602    37373.809 
  511600    295.01014    -1521.023    485.75175    296.09371   -432.32899    37373.809 
  511700    300.77219   -1487.5317    495.25825    365.09529    67.847717    37373.809 
  511800    295.95214   -1502.7872    517.66142    350.49036   -91.021847    37373.809 
  511900    288.69295   -1502.5344    501.79365    302.11508   -536.72249    37373.809 
  512000     314.3324   -1536.5772    486.78669    368.77472   -252.55944    37373.809 
  512100    292.25412   -1507.6089    508.19551    319.51377   -422.02991    37373.809 
  512200    308.08021   -1491.1893    507.53205    406.69218    408.63166    37373.809 
  512300    308.26912   -1469.9953    513.95714    435.16382    454.57377    37373.809 
  512400    302.93142   -1515.0263    491.51491    343.60182    236.74816    37373.809 
  512500    301.09577   -1449.8441    510.73314    419.71815   -86.502662    37373.809 
  512600    303.46551   -1492.0227    518.24365    395.74457   -108.48403    37373.809 
  512700    303.50394   -1493.5234    522.06546    398.23911   -22.575717    37373.809 
  512800    305.65883   -1459.3988    526.33084    446.35394    387.00812    37373.809 
  512900    291.32523   -1493.3306    483.73754    305.14205    102.74507    37373.809 
  513000    298.28823   -1524.9121    505.02531    326.27203    228.06623    37373.809 
  513100    299.37077   -1470.0197    509.48461    390.50912    722.88263    37373.809 
  513200    305.86074   -1518.7452    506.07931    367.66722    109.96183    37373.809 
  513300    296.40207   -1473.4466    513.72706    377.92712   -355.58438    37373.809 
  513400    310.54273   -1463.1687    525.67586    463.96987    183.13274    37373.809 
  513500     301.5633   -1505.0922    524.79752    380.64427    220.79106    37373.809 
  513600    298.21393   -1465.3408    529.53127    410.01395    432.59853    37373.809 
  513700    302.43383   -1495.3391    498.60279    368.13136    446.91553    37373.809 
  513800    301.55479    -1503.802    517.27538    374.37398    623.25934    37373.809 
  513900    307.25827   -1502.4121     502.9593     387.1873    270.40406    37373.809 
  514000    291.04449   -1457.1619    513.28951    369.59579   -270.54767    37373.809 
  514100    304.98707   -1467.2876    512.83448    421.93724   -307.38348    37373.809 
  514200    312.34941   -1459.0265    528.27202    478.86166   -135.30697    37373.809 
  514300    291.55293   -1492.4513    502.85742    326.16886   -367.23807    37373.809 
  514400    291.13958   -1487.9562    515.68591    341.62705   -115.36299    37373.809 
  514500    291.57055   -1485.8142    521.53201    351.56005   -185.38536    37373.809 
  514600    293.20639    -1461.896    519.54054    380.86923    408.27319    37373.809 
  514700    296.42051   -1427.5431    512.09075    422.27751   -513.76129    37373.809 
  514800    297.76297   -1439.7874    514.12284     418.1237   -424.97618    37373.809 
  514900    304.31243   -1436.9562    492.19596    428.58551   -656.47583    37373.809 
  515000    288.67411   -1441.1516    526.15468    387.77384   -655.93683    37373.809 
  515100     291.6871   -1492.4184     481.2854    305.23524    49.195236    37373.809 
  515200     306.4129   -1507.1573    481.65604    357.32376    244.00413    37373.809 
  515300    307.83707   -1525.8062    510.97782    374.42381    156.25119    37373.809 
  515400    287.46204    -1485.291     485.7943     297.8041    486.78346    37373.809 
  515500    307.72513   -1475.9843    512.81293    425.57571   -171.34877    37373.809 
  515600    306.11707   -1418.7565      519.661    482.39443    173.55339    37373.809 
  515700    301.75039   -1463.0642    507.13171    405.85084   -42.259476    37373.809 
  515800    302.98034   -1458.4205    520.02917    428.94271   -689.97752    37373.809 
  515900    292.64874   -1427.5119    468.51192    361.70807   -450.81363    37373.809 
  516000    303.08448   -1435.4785     484.8647    417.19015    -254.1335    37373.809 
  516100    294.77164   -1456.7245    513.09432    386.65843    234.38538    37373.809 
  516200    305.55744   -1430.2601    509.64662    458.35086    94.341223    37373.809 
  516300    303.17936     -1466.74    485.18764    386.67989    142.48836    37373.809 
  516400    303.24649   -1434.8224    504.42241    438.13514   -71.538628    37373.809 
  516500    306.64977   -1494.5913    484.51095    373.81364   -307.64296    37373.809 
  516600    301.84176    -1495.222     510.5293      377.503   -58.803929    37373.809 
  516700    298.51152   -1470.2846    536.55532    413.43717   -106.68438    37373.809 
  516800     296.6039    -1515.123    493.01361    316.44815    85.197842    37373.809 
  516900    294.79424   -1460.1651    502.13947    372.36497    220.85668    37373.809 
  517000    309.95639   -1525.4925    493.50182    366.82595     305.3376    37373.809 
  517100    295.37557   -1558.4221    502.08255    276.67456    575.12804    37373.809 
  517200    299.67769   -1527.2978    512.03348    337.16507    -65.55112    37373.809 
  517300    304.08514   -1544.6292    496.58675    324.27751   -55.945976    37373.809 
  517400    307.18201   -1527.0937    495.82645    355.02869    30.970019    37373.809 
  517500    294.61883   -1500.3487    486.40371    315.65395    394.45092    37373.809 
  517600    305.78157   -1499.4481    533.90462    414.43235   -71.060749    37373.809 
  517700    299.57814    -1490.021    507.99831     369.9574   -37.372852    37373.809 
  517800    291.38296   -1554.3999    479.30473    239.90056   -343.79309    37373.809 
  517900    298.37032   -1542.6369    493.35228    297.24462   -304.22364    37373.809 
  518000    302.79877   -1472.3173    533.54209    427.73939   -187.43839    37373.809 
  518100    288.20956   -1450.7306    526.53776    376.48149   -161.77955    37373.809 
  518200    296.23434   -1501.8594    489.67873    324.70903   -444.03088    37373.809 
  518300    302.93567   -1524.5545    516.53901    359.11696    193.60066    37373.809 
  518400    296.42614   -1464.4178    510.96324    384.30078     236.3092    37373.809 
  518500    293.13959   -1440.0924    526.54135     409.3722     150.2165    37373.809 
  518600    310.58867   -1461.7674    538.67364    478.57623    419.92576    37373.809 
  518700    311.89536   -1508.9003    479.29024    377.95699    281.95488    37373.809 
  518800    302.45167   -1545.9139    516.02784    335.06214   -286.73204    37373.809 
  518900    305.81108   -1498.5094    517.40013    398.99974   -146.55773    37373.809 
  519000    299.62805   -1540.7051    487.54081    299.04105   -261.53449    37373.809 
  519100    303.02507   -1474.2811    520.56939    413.82419   -339.11653    37373.809 
  519200    294.86184   -1458.6933    540.42989    412.43227   -266.15334    37373.809 
  519300    295.99462   -1481.7253    532.73431    386.81684   -534.11489    37373.809 
  519400    304.02266   -1493.5129    489.65717     368.1822   -226.91633    37373.809 
  519500    302.68556   -1460.7276    497.30636    402.58243   -193.45278    37373.809 
  519600    294.74089   -1500.1784    496.26301    326.23441    186.68923    37373.809 
  519700    306.13396   -1513.1615    510.71404    379.11863    828.09996    37373.809 
  519800    298.67184   -1506.3644    517.75537    359.28098    1126.6216    37373.809 
  519900    293.37277   -1506.0712    515.26997    333.17433    1212.0635    37373.809 
  520000    299.10184   -1528.0811    508.45665    330.20612    321.91914    37373.809 
  520100    309.13314   -1525.2692    504.80838    374.64044    224.47045    37373.809 
  520200    301.56922   -1521.0655    494.89542    334.79565    272.71645    37373.809 
  520300    295.71716   -1522.1482    486.36897    298.77642    133.66371    37373.809 
  520400    297.20066   -1549.5582    503.85334    295.54576    53.978452    37373.809 
  520500    298.89213   -1516.6482     484.2873    316.52322    338.04471    37373.809 
  520600    293.74637   -1499.6757    514.62026    340.60616   -192.56636    37373.809 
  520700    303.01829   -1484.5594     491.3749    374.32081    188.75576    37373.809 
  520800    293.04139   -1497.7632    504.22756    328.94443   -236.74409    37373.809 
  520900     287.7051   -1525.8299    527.19767    299.76552    217.03355    37373.809 
  521000    299.00626   -1507.6061    487.15912    328.95225    218.09996    37373.809 
  521100    307.87467   -1512.4318    523.60215    400.59218   -199.73402    37373.809 
  521200    293.63763   -1531.1572    507.76453    301.77828   -171.50343    37373.809 
  521300    293.97092   -1504.2154    481.22459    303.68424   -374.17145    37373.809 
  521400    310.24135   -1454.2222    511.25048    457.13087    184.17969    37373.809 
  521500    293.39137   -1469.3947    516.07361    370.73847    479.29774    37373.809 
  521600    285.97134   -1446.5065    523.40757     367.4744    308.88496    37373.809 
  521700    296.04964   -1477.5721    528.75309    387.23718   -229.97758    37373.809 
  521800    318.25888    -1503.142    510.47774    443.62105    92.481176    37373.809 
  521900     295.2839   -1499.6761    496.81497     329.7393   -185.29733    37373.809 
  522000    304.43789   -1513.8613    517.16808    377.21864   -119.72687    37373.809 
  522100     295.6387   -1458.7932    519.35588    394.76426   -117.68032    37373.809 
  522200    297.99724   -1449.7726    533.65613    428.72907    534.82816    37373.809 
  522300    309.18972   -1468.8908    497.87259    424.33839    512.89752    37373.809 
  522400    296.86292   -1490.4245     520.3823    369.68431    270.74311    37373.809 
  522500     307.9976   -1476.6034     501.7319    415.10516    445.82129    37373.809 
  522600    292.73441   -1504.3732    512.78837    329.50989   -170.07121    37373.809 
  522700     305.7187   -1470.3071    511.93608    421.32111    377.16056    37373.809 
  522800    297.88257   -1469.6305    498.51278    373.21037    344.18884    37373.809 
  522900    303.96669   -1525.0005    512.26252    359.04741   -121.77169    37373.809 
  523000    292.27096   -1526.7789    507.13437    299.35866    -52.93635    37373.809 
  523100    300.79783   -1504.5806     508.2747    361.17858    493.91457    37373.809 
  523200    304.70645   -1526.5708    512.19213    360.74528   -412.41907    37373.809 
  523300    299.86376   -1483.6789    504.15121    373.74137   -432.52685    37373.809 
  523400    302.25808   -1527.2539    495.70357     332.5242    165.20842    37373.809 
  523500    303.71281   -1540.9127    509.82945    339.55641   -37.331072    37373.809 
  523600    304.79244   -1558.1772    514.21046    331.54528   -552.37751    37373.809 
  523700    300.21811   -1514.4684    510.77728    351.17715   -86.431584    37373.809 
  523800    289.70796   -1544.8407    500.16628    262.76205    112.50126    37373.809 
  523900    297.94577   -1511.6865    505.51281    338.43959   -20.785263    37373.809 
  524000    298.06315   -1533.3566    492.23541     304.0218   -148.43446    37373.809 
  524100    302.79433   -1503.0294    543.79429    407.25947   -170.66973    37373.809 
  524200    297.10436   -1513.8859    498.71455    325.64467    135.59891    37373.809 
  524300    301.43628   -1543.7064    499.32897    315.98838   -277.58112    37373.809 
  524400    298.09259    -1480.681     510.8806    375.47547    140.03032    37373.809 
  524500    296.09486   -1534.7074    487.98185    289.53469    260.56335    37373.809 
  524600    301.20041    -1544.662    489.40392    304.04326    443.53333    37373.809 
  524700    291.10208   -1498.0705    519.94182    335.59937    191.71175    37373.809 
  524800    313.03272   -1472.8405    508.07073    447.93012    349.74213    37373.809 
  524900    284.62585   -1461.9078    541.28791    363.88136   -227.05545    37373.809 
  525000    299.25776   -1476.8853    517.25554    390.90448   -301.09006    37373.809 
  525100    304.19948   -1491.9256    520.05705    400.96733    79.073632    37373.809 
  525200     295.0511   -1513.5461    519.33382    337.33754    375.11785    37373.809 
  525300    297.35685   -1522.9974    513.60494    332.56309    422.30149    37373.809 
  525400    306.56393   -1519.3765    508.22624    372.35637    254.20467    37373.809 
  525500    303.54345   -1560.9589     489.9522    298.86861   -60.903876    37373.809 
  525600    301.32636   -1551.7259    510.10913    318.25297    -449.2117    37373.809 
  525700    301.78735   -1562.7489    524.04163    323.24283    339.68129    37373.809 
  525800    294.40619   -1553.1458    504.70045      280.194   -88.567723    37373.809 
  525900     301.6039   -1542.3246     502.4649    321.26255   -441.99675    37373.809 
  526000    290.17055    -1518.346    523.46571    314.64379   -824.15782    37373.809 
  526100    297.78616   -1521.6741    506.14158    328.36042   -372.55321    37373.809 
  526200    303.25016    -1561.146    499.91905    307.32474   -351.77805    37373.809 
  526300    300.32503   -1509.6685    513.59801    359.28026   -304.54499    37373.809 
  526400    300.44372    -1491.243    540.56885    405.21224   -335.08297    37373.809 
  526500    289.58754   -1545.9256    519.93997    280.90745   -347.46353    37373.809 
  526600    298.90468   -1497.9134    492.53894    343.56629   -533.40356    37373.809 
  526700    303.03177   -1547.6497    513.32345    333.23985   -495.05136    37373.809 
  526800    302.03496   -1526.2158    530.64665    367.49842    525.54153    37373.809 
  526900    297.49292   -1531.6672    495.21819    306.12058   -35.556491    37373.809 
  527000    306.54614   -1515.1801    547.21211    415.45829    248.10567    37373.809 
  527100    298.51839   -1499.5847    512.63745    360.25026    311.33644    37373.809 
  527200    296.67931    -1534.058    512.91448    317.75435    473.79506    37373.809 
  527300    311.32457   -1540.1603     519.3021    384.13287    231.90314    37373.809 
  527400    290.29045   -1548.0951    521.66933    283.63947    616.54272    37373.809 
  527500    308.91231   -1549.8979    502.19067    346.39752    520.54401    37373.809 
  527600    312.78921    -1566.521    498.81049    343.89039    479.82384    37373.809 
  527700    300.75998   -1514.4552    532.07108    374.92952     406.4477    37373.809 
  527800     290.2925   -1545.6187    507.59944    272.05521   -134.43696    37373.809 
  527900    293.81699   -1568.5654    545.76958    303.18452    36.627276    37373.809 
  528000    306.70568    -1560.308    512.95228    336.79055   -150.24656    37373.809 
  528100    302.26304   -1507.4512    511.47844    368.12415    321.26692    37373.809 
  528200    292.16252    -1621.722    467.31835    164.11016   -277.12035    37373.809 
  528300    306.54182   -1577.7615    523.85716    329.50245    -759.5841    37373.809 
  528400    306.27527    -1522.649    523.39826    382.95313   -224.51706    37373.809 
  528500    297.15939   -1512.2284    539.98215    368.81809   -468.05127    37373.809 
  528600    299.95473   -1589.5688    493.80111    257.91187   -153.32971    37373.809 
  528700    300.65848   -1583.0194    518.01641    291.85261   -433.02013    37373.809 
  528800    300.80138   -1566.6917    533.90643    324.71526    -455.9001    37373.809 
  528900    295.77992   -1594.2925     482.0909    222.63736   -901.82425    37373.809 
  529000    303.10955     -1563.06    466.57214    271.42933    -903.3591    37373.809 
  529100    293.64191   -1582.8762    496.46719    238.78125   -509.97003    37373.809 
  529200    315.60868   -1561.6919    516.73755    379.37067   -333.42344    37373.809 
  529300    292.55119   -1569.7053     488.3499    238.91248   -658.40472    37373.809 
  529400    302.42148   -1600.4343    501.53341    265.91107   -348.85853    37373.809 
  529500    311.74632   -1551.4737    477.87794    333.29863    -476.4306    37373.809 
  529600    300.26869   -1572.4254    495.07516    277.74631   -565.16154    37373.809 
  529700    313.66941   -1580.4469    509.44961    344.57597    396.86752    37373.809 
  529800    303.17468   -1559.3916    529.99703    338.81646   -135.01841    37373.809 
  529900    295.29988   -1574.4326    496.44688    254.68683     53.64466    37373.809 
  530000     297.9551   -1588.7543    555.22434    311.12544   -146.46402    37373.809 
  530100    311.92456   -1608.5988    531.99207    331.09207    428.08275    37373.809 
  530200    300.92794   -1590.8952    506.66376    273.84021    265.37723    37373.809 
  530300    292.59822    -1597.118    510.30319    233.66525   -245.19831    37373.809 
  530400    297.14327   -1554.8004    487.30999    273.50129    12.763189    37373.809 
  530500    304.81773   -1568.6851    522.79917     329.7402     29.80886    37373.809 
  530600    299.48726   -1561.2876    515.25039    305.53271     88.04514    37373.809 
  530700    301.32593   -1568.6073    526.50749    317.76803    399.48012    37373.809 
  530800    306.74743   -1558.0755     505.6175    331.87671    105.09041    37373.809 
  530900    296.31417   -1594.2087    501.92882    244.97012   -255.40986    37373.809 
  531000    304.87936   -1535.2773    527.19966    367.82654    -428.3986    37373.809 
  531100     308.4722   -1552.5492    505.21157    344.78089   -35.045914    37373.809 
  531200    295.25001   -1599.1497      506.558    239.85573   -377.26588    37373.809 
  531300    288.01414   -1596.2085    504.78423    208.36816   -310.93125    37373.809 
  531400    305.50054   -1580.5028    500.41971    298.62445    34.816565    37373.809 
  531500     298.6957   -1618.1803    525.65587    255.47327    84.746463    37373.809 
  531600    298.00803   -1608.4647    495.70126    232.13079    259.15403    37373.809 
  531700    300.48213   -1611.6687    536.73452    281.12553    672.88708    37373.809 
  531800    300.55633   -1607.5491     517.9951    266.84063    195.11522    37373.809 
  531900    292.23367   -1573.7026    518.45537     263.5877    195.83179    37373.809 
  532000    298.11256   -1583.4002    522.49689    284.46273   -331.67279    37373.809 
  532100    301.85942   -1559.3422    522.42202    325.35521   -591.86011    37373.809 
  532200    299.14821   -1593.7784    502.59838    258.85984   -370.51107    37373.809 
  532300    297.52458   -1563.9415    496.13544    274.90641   -527.22678    37373.809 
  532400     286.8722   -1594.8518    491.20492    190.99199    11.380507    37373.809 
  532500    303.51094   -1560.3344     523.3722    332.76638   -512.57494    37373.809 
  532600    303.82179   -1547.9831     532.2021     355.3505   -286.26454    37373.809 
  532700    296.13888   -1534.5356     539.1046    341.02794   -3.5327914    37373.809 
  532800     291.7193   -1549.2927    525.55449    292.77539    -185.1081    37373.809 
  532900    308.24267   -1557.8945    503.23373    336.42181    256.17314    37373.809 
  533000    293.94366   -1519.6916    491.54811    298.40849   -342.68138    37373.809 
  533100    298.15095   -1538.1471    520.54178    327.93395   -242.62556    37373.809 
  533200    304.94063   -1508.3324    524.36984    392.21814    429.30235    37373.809 
  533300    303.51244   -1497.2269     538.8304    411.33889    -62.12177    37373.809 
  533400    303.02267   -1551.0905    495.19502     311.6296   -9.2716412    37373.809 
  533500    305.39853   -1632.3932    503.32514    249.17916    337.16554    37373.809 
  533600    304.98741   -1612.1643      521.025    285.25257    471.63411    37373.809 
  533700    299.39414   -1571.6412    526.57855    306.08703    980.47336    37373.809 
  533800    292.05047   -1573.3918     510.0988    254.71515    71.827953    37373.809 
  533900    295.70029   -1515.2865    513.98564    333.17875   -67.308758    37373.809 
  534000     292.8124   -1552.3974    526.12257    295.17185    133.92342    37373.809 
  534100    303.87547   -1554.1928    510.82283    328.00374     1008.095    37373.809 
  534200    287.37296   -1571.8616    548.21333    273.25049    559.17707    37373.809 
  534300    297.12003   -1501.0982    545.24093    385.02948    507.66526    37373.809 
  534400    298.66471   -1508.9603    530.71763    369.61517   -140.84676    37373.809 
  534500    308.37394   -1519.2823    520.90249    393.29526    335.88541    37373.809 
  534600    298.06912   -1524.5642    524.62092    345.22671    69.636253    37373.809 
  534700    293.66396   -1512.7524    539.66217     352.1995    177.98576    37373.809 
  534800    294.64146   -1517.4459    512.51279    324.76803   -492.78511    37373.809 
  534900    295.78841   -1495.2904    536.33169    375.91854   -534.84536    37373.809 
  535000    290.43315   -1510.8786    537.10722    336.93788    319.33278    37373.809 
  535100    304.21449   -1479.2564     528.2208    421.86809    195.09344    37373.809 
  535200    304.15221   -1500.9346    534.50021    406.18828     423.7193    37373.809 
  535300    296.99635   -1498.5099    536.96647    378.78521    162.51719    37373.809 
  535400    300.90925   -1539.0426    506.64474    325.58948    446.91799    37373.809 
  535500    294.25483   -1584.1561    523.19125    266.99146     485.6558    37373.809 
  535600    295.32868   -1543.9274    522.49132     311.3664    506.50455    37373.809 
  535700    304.94927   -1556.7391    502.58038    322.06103    144.60575    37373.809 
  535800    304.07561   -1538.4819    528.81628    362.61132    380.23787    37373.809 
  535900    302.67514   -1517.3595    509.92768    358.52492    261.79413    37373.809 
  536000    303.05011   -1551.3326    520.28197    336.59829    380.13816    37373.809 
  536100    298.40091   -1542.3555    507.35803    311.66979    439.12044    37373.809 
  536200    303.68242   -1580.5654    509.20853    299.14565    74.666073    37373.809 
  536300    307.53056   -1535.7848    521.45856    373.54266    541.59712    37373.809 
  536400    309.74218   -1581.5886    521.75647    338.01777    76.406718    37373.809 
  536500    297.41081   -1578.2143    488.13943    252.12416    135.38867    37373.809 
  536600    293.45455   -1559.7707    542.27977    306.85373   -500.56206    37373.809 
  536700    300.40177   -1535.3617    536.37726    356.71264   -154.37993    37373.809 
  536800    293.85131   -1537.8352    524.71627    313.01631    140.54848    37373.809 
  536900    310.47958   -1565.2607    505.43806    341.35504    493.34761    37373.809 
  537000    289.91499   -1560.2379    532.47534    280.60823    332.86189    37373.809 
  537100    299.57884   -1571.7051    539.98504    320.26319    106.00552    37373.809 
  537200    301.27551   -1581.5636    493.57519    271.65182    239.18461    37373.809 
  537300    293.10847   -1527.8568    522.70349    317.62949   -184.47796    37373.809 
  537400     302.3967   -1559.0068    526.11414    331.80743   -26.578001    37373.809 
  537500    303.55882   -1573.7722    516.75248      312.925    107.32314    37373.809 
  537600    305.44611    -1544.352    515.96531    350.07525    486.25408    37373.809 
  537700    295.22033   -1533.7487    534.95538    333.52021    169.64876    37373.809 
  537800    304.97611   -1515.5606     524.9322    385.71247    275.90571    37373.809 
  537900    287.59279    -1526.959    547.78636    318.71825    125.49377    37373.809 
  538000    298.06831   -1552.3387    517.66614    310.49381   -228.56137    37373.809 
  538100    300.35236   -1555.0556    491.77596    292.19452    213.56376    37373.809 
  538200    304.42062   -1526.9093    552.82314     399.7478    39.143184    37373.809 
  538300    305.68227      -1541.3    514.94996     353.1777   -364.26489    37373.809 
  538400    306.26529   -1515.3157    542.33485    409.17798     7.732335    37373.809 
  538500     296.6797   -1546.0093     528.6342    321.52444    59.676056    37373.809 
  538600    305.31327   -1539.8196    556.54129     394.5841   -467.67283    37373.809 
  538700    294.36147   -1536.5474    507.93498    299.82507   -914.75865    37373.809 
  538800    297.15597     -1514.79    537.44948     363.7085   -857.84627    37373.809 
  538900    291.84564   -1545.2182    516.34886    288.21437    -521.4189    37373.809 
  539000    303.36028   -1537.8988    520.96842    352.11836    230.01037    37373.809 
  539100    308.65313   -1539.4098    520.22737     373.7526    461.43365    37373.809 
  539200    295.82806   -1576.6239    531.77619     290.2085    311.14587    37373.809 
  539300    300.39309   -1534.8821    519.50353    340.27939    105.60227    37373.809 
  539400     306.8823     -1543.32    512.43992    354.06331    224.81791    37373.809 
  539500    305.97447   -1537.3163    548.96146    392.49156   -237.13291    37373.809 
  539600    307.51962   -1562.0652    502.66086    328.41519    2.5759689    37373.809 
  539700    310.55441   -1539.4473    515.34473    377.41278   -760.98892    37373.809 
  539800    295.06625   -1536.2765     507.2604    302.60212   -560.77855    37373.809 
  539900    293.76852   -1516.9215    495.96742    304.80751    672.21906    37373.809 
  540000    300.57274   -1562.4494    542.10408    336.12335    702.86014    37373.809 
  540100    292.73037   -1579.1297    500.72253    242.66929    68.725048    37373.809 
  540200    304.71051   -1503.9156    544.27498    415.50155    128.96466    37373.809 
  540300     313.9571   -1564.9971    513.70345    365.57792    490.03566    37373.809 
  540400    296.72857   -1571.6268    525.14674    292.64011    2.1575866    37373.809 
  540500    296.87241   -1593.7896    522.26451    268.24419   -35.322309    37373.809 
  540600    299.30916   -1586.7769    490.58746    254.57676    37.686513    37373.809 
  540700    293.81741   -1545.2422    537.68102    318.42102   -253.04973    37373.809 
  540800    295.34568   -1522.1065    514.13269    324.90544   -422.37976    37373.809 
  540900     304.2762   -1494.9926    531.91213    410.10167     48.27143    37373.809 
  541000     288.6636    -1481.523    544.80249    366.00288    125.98064    37373.809 
  541100    297.21007   -1513.2239    518.28672    346.35596    465.68055    37373.809 
  541200    291.29798   -1511.9825    505.98919    308.61888    -0.274812    37373.809 
  541300    294.99016   -1527.8565    505.01166    308.42997   -1.2435048    37373.809 
  541400    299.47832   -1541.7048    539.16638    348.99113   -296.23424    37373.809 
  541500    305.30818    -1565.087    535.83167    348.58416     -26.1647    37373.809 
  541600    294.35081   -1517.9581    535.40394    345.83533   -555.31876    37373.809 
  541700    292.54792   -1530.3509    514.24228    304.14449   -531.26559    37373.809 
  541800    300.00012   -1524.6226    497.29582    326.55772   -91.630043    37373.809 
  541900    296.26264   -1518.7201    508.50482    326.80216    45.490584    37373.809 
  542000    303.22378   -1527.9422    540.09578    380.58621   -131.25025    37373.809 
  542100     310.4867   -1539.2847    503.17098    365.09613    352.44932    37373.809 
  542200    300.91561   -1549.7156    514.69808    322.99844   -224.52429    37373.809 
  542300    301.88862   -1549.9409    523.95726    336.42352    69.945644    37373.809 
  542400    294.81051   -1560.1072    488.14694    258.50378   -61.014177    37373.809 
  542500    302.23346    -1565.299     540.9314     339.5958    -458.9741    37373.809 
  542600    302.35284   -1540.4324    486.74359    310.81335   -414.43464    37373.809 
  542700    289.45507   -1523.2322    508.34184    291.40491   -340.12364    37373.809 
  542800    293.46693   -1517.6595     511.0654    317.80645    357.71813    37373.809 
  542900    301.64533   -1473.5173    513.80021    401.59214   -100.71108    37373.809 
  543000    301.34711   -1510.0057    506.19457    356.15228    43.327943    37373.809 
  543100    305.94473   -1487.4096    482.70199    376.00453   -403.66257    37373.809 
  543200    298.08653   -1452.6879    567.98115     460.5418   -744.14583    37373.809 
  543300    295.45294    -1487.143    487.78554    334.00579   -236.66437    37373.809 
  543400    288.75474   -1486.5036    526.46986    343.10094   -542.03517    37373.809 
  543500    296.87128   -1464.6118    540.94112    416.09354   -380.46963    37373.809 
  543600    302.40984   -1495.5602     551.0611    420.26035   -240.82875    37373.809 
  543700    305.89536   -1483.6245    539.05467    435.91957    365.04999    37373.809 
  543800    295.26478   -1505.0578     501.6568    329.11313   -42.278231    37373.809 
  543900    291.01151   -1494.8414    541.19203    359.66992    708.67402    37373.809 
  544000    303.81015   -1459.2108    526.18527    438.05337   -82.730999    37373.809 
  544100    296.91379   -1457.9947    556.31075    438.27209    31.898404    37373.809 
  544200    290.01513   -1478.3006    525.17162    355.69378   -211.33309    37373.809 
  544300    316.17701   -1451.9598    528.55201    503.48209    307.19977    37373.809 
  544400    304.61225   -1481.4708    515.34399    408.57202    415.89115    37373.809 
  544500    303.26865   -1480.5437    524.69313     412.7846    583.44431    37373.809 
  544600    299.47133   -1508.9328    537.87593    380.44124    493.00783    37373.809 
  544700    306.45845   -1543.4198    492.86078    332.47149   0.38607951    37373.809 
  544800    299.46009   -1553.2026    507.44976    305.69446   -148.53484    37373.809 
  544900    298.84171   -1512.3444     560.9618    397.27399   -26.941707    37373.809 
  545000    298.49697   -1473.3411    491.56932    365.32909   -138.79734    37373.809 
  545100    298.19135   -1493.7836    512.50873    364.44673   -990.63847    37373.809 
  545200    300.38208   -1472.2748    506.42286    389.75631   -528.05025    37373.809 
  545300    286.77407    -1489.573    521.64772    326.27068    -151.0083    37373.809 
  545400    295.98958    -1519.481    494.09302    310.39715    205.87864    37373.809 
  545500    293.40623   -1485.6557     518.7821    357.25298   -184.51298    37373.809 
  545600    297.00263   -1458.8873    509.69327    391.16289    474.19492    37373.809 
  545700    291.91618   -1476.6826    532.17794    372.89744   -82.413904    37373.809 
  545800    306.37255   -1507.4523    511.23352     386.4241    603.85436    37373.809 
  545900    298.64544   -1505.0656    516.08541    358.79066     548.3572    37373.809 
  546000    293.05061   -1518.1274    517.27849    321.67281   -176.21966    37373.809 
  546100    309.26527   -1491.9203    502.95247    406.72981    -399.3917    37373.809 
  546200    300.75258   -1449.3885    515.60908    423.50087   -277.08681    37373.809 
  546300    296.53743   -1485.4991    533.95114    386.70958    77.354389    37373.809 
  546400    305.02301   -1430.6213    525.14484    471.07605    500.65193    37373.809 
  546500    301.17159   -1443.8499    540.54365    455.86504    182.49836    37373.809 
  546600     297.4231   -1480.3322    540.87122    402.79348     130.3301    37373.809 
  546700    298.16112   -1480.2074    514.41171    379.78954   -37.164418    37373.809 
  546800    308.93999   -1487.2011    523.46748    430.49603   -182.24991    37373.809 
  546900    297.72107   -1500.3204    524.14741    367.42624   -268.64162    37373.809 
  547000    292.80862   -1516.8289    527.82409    332.42477    215.88942    37373.809 
  547100    284.64249   -1503.5488     533.2338    314.26137    735.46148    37373.809 
  547200    297.70513   -1534.7742    511.07197    319.82503    509.51052    37373.809 
  547300    309.17986   -1555.9668    511.31664    350.66193    524.60837    37373.809 
  547400    295.50559   -1559.3185    518.72545    293.00783    953.96437    37373.809 
  547500    302.14576   -1566.5538    512.51613       309.53     561.2717    37373.809 
  547600    312.18386   -1556.2713    505.40718    358.00496    831.28485    37373.809 
  547700    302.85116   -1556.7874    492.46049    302.42419    461.55763    37373.809 
  547800    305.31749   -1553.4513    496.03176    320.46195    145.92033    37373.809 
  547900    314.59086   -1527.3005    521.83331     414.2645    125.32528    37373.809 
  548000    306.26375    -1529.917    481.25701    333.49188    341.34468    37373.809 
  548100    298.82215   -1521.6823    525.08037    351.96643   -297.37981    37373.809 
  548200    302.22255   -1497.8786    539.26991    405.30548   -261.35507    37373.809 
  548300    287.30748   -1546.6041    488.95436    238.95351   -5.0653616    37373.809 
  548400    304.31228   -1554.4444    507.01475    325.91538    345.32154    37373.809 
  548500    298.42882   -1488.9252    524.74591    382.61404    526.32989    37373.809 
  548600    287.69225   -1501.6046      505.742    302.47707    536.27835    37373.809 
  548700    297.55574   -1534.1345    517.13578    325.85433    404.43753    37373.809 
  548800     305.0149   -1510.4344    521.45208    387.53353    588.50325    37373.809 
  548900    304.18943   -1505.6881    516.35385    383.45638    173.83565    37373.809 
  549000    300.18172   -1502.8599    511.15399    362.99811    425.35279    37373.809 
  549100    305.95106   -1496.9629    518.91869    402.69649   -259.98661    37373.809 
  549200    297.01583   -1530.0111    509.15054    319.55593   -644.25539    37373.809 
  549300    301.13492   -1509.0824     498.0028    347.92618    77.877463    37373.809 
  549400    300.04291   -1515.0368    535.00414    374.04494    106.52744    37373.809 
  549500    293.88338   -1519.2012    503.87754     310.9563   -429.22025    37373.809 
  549600    298.18716   -1476.3129    509.02746     378.4172    95.058845    37373.809 
  549700    298.62038   -1455.7768    527.71394     419.5949   -874.63699    37373.809 
  549800    293.43773   -1519.9545    510.78363    315.09788   -37.647375    37373.809 
  549900    301.46374   -1507.7752    513.25636    365.97091    259.30305    37373.809 
  550000    301.62182   -1522.8913    502.88833     341.2001   -21.424419    37373.809 
  550100    291.87232   -1526.1177    527.85765    318.94405   -132.97672    37373.809 
  550200     299.8714   -1553.0999    513.20996    313.41359    200.19204    37373.809 
  550300      311.798   -1533.9374     525.5198    398.71004   -48.545841    37373.809 
  550400    309.90053    -1509.603     519.4116    408.37313   -610.38624    37373.809 
  550500    310.28576   -1503.6275    529.71807    426.39356   -189.47979    37373.809 
  550600    299.05151   -1483.0498    507.64626    374.19993   -185.05089    37373.809 
  550700    306.13221   -1523.1455    503.47185    361.88457   -162.97399    37373.809 
  550800    295.29916   -1531.4368    496.64686    297.87929   -605.88254    37373.809 
  550900    295.68167   -1467.2953    514.72327    381.82349   -279.73177    37373.809 
  551000     310.3881   -1439.0896    519.16068    480.83591    314.08279    37373.809 
  551100    309.59756   -1489.6754    511.15665    418.67843    243.20711    37373.809 
  551200    295.44829   -1473.4254    543.06507      402.982    123.06577    37373.809 
  551300     298.3469   -1483.4665    478.32113    341.27818   -43.441752    37373.809 
  551400    300.46222    -1484.531    554.54631     425.9852    92.715441    37373.809 
  551500    303.39269   -1485.0586    516.72507    400.86142    54.151887    37373.809 
  551600    305.93927   -1425.6168    515.87479    470.94555    122.69861    37373.809 
  551700    297.20194   -1457.9645    506.44441    389.73633    230.86097    37373.809 
  551800    304.94353     -1495.99     544.2114    424.41523    276.22706    37373.809 
  551900    304.99706   -1529.3437    506.17058    353.26222    58.804824    37373.809 
  552000     298.7015   -1518.9459    503.98109    333.05907   -351.20144    37373.809 
  552100    304.26737   -1529.1258    520.72503    364.74156   -244.77977    37373.809 
  552200    305.02427   -1517.5212    533.58859    392.62557     -191.232    37373.809 
  552300    312.00102   -1499.6717     497.1862    405.55838    155.28954    37373.809 
  552400    306.64795   -1568.6041    505.41457    320.69626    29.121217    37373.809 
  552500      293.549   -1530.7001    524.53837    318.60919    301.76807    37373.809 
  552600     296.5326   -1529.6598    497.06512    305.64106    6.0008088    37373.809 
  552700    301.61254   -1485.9178    551.37401    426.61742   -602.16669    37373.809 
  552800    297.82538   -1501.7199    473.95808    316.30818   -402.78532    37373.809 
  552900    305.14532    -1523.306     500.0413    353.83981   -901.50311    37373.809 
  553000    292.64328   -1509.7588    526.54917    337.47378   -1069.6901    37373.809 
  553100    306.84609   -1505.3262    520.16089    399.61466   -257.41537    37373.809 
  553200    300.53602    -1474.079    528.91617    411.14008   -596.19383    37373.809 
  553300     298.8784   -1486.0388    516.70223    379.48562   -822.86815    37373.809 
  553400    307.60024   -1523.1974    520.05544    385.04147   -173.91652    37373.809 
  553500    296.91359   -1481.4197    490.22105    348.75644    162.76823    37373.809 
  553600    308.13397   -1562.6091    497.40844    325.39144    248.67088    37373.809 
  553700    307.13643   -1513.9689    506.23588    378.35728   -59.664367    37373.809 
  553800    298.93992   -1463.9633    534.34518    419.48172   -142.38896    37373.809 
  553900    292.42972   -1483.4045    548.00607    384.32125   -352.11807    37373.809 
  554000    303.36641   -1486.3188    511.21048    393.96804    370.72042    37373.809 
  554100     299.5471   -1494.7293    510.05463    367.16536    98.926704    37373.809 
  554200    293.43446   -1459.5142    541.25074    405.99055   -305.45908    37373.809 
  554300    288.57725   -1531.3543    493.65981    264.63917   -717.88787    37373.809 
  554400    302.48752   -1523.3924    472.69111    314.40863    116.35841    37373.809 
  554500    292.92065   -1519.5216    510.23624    312.64989   -394.49931    37373.809 
  554600    301.10476   -1499.5144    503.36197    362.71725    95.926947    37373.809 
  554700    296.74214   -1502.9806    490.41472    326.61551   -151.26059    37373.809 
  554800    304.51223   -1509.3356    518.74603    383.65781    428.14193    37373.809 
  554900    306.92455   -1493.6831    519.34269    410.79361    667.84326    37373.809 
  555000    285.71336   -1456.2258    534.25702    367.44028   -301.43918    37373.809 
  555100    286.69572   -1402.7732    516.65954    407.72876   -612.98719    37373.809 
  555200    305.41467   -1409.9213    540.91401    509.31277     -253.767    37373.809 
  555300    299.33055   -1432.9411    552.04844    469.97011   -482.77692    37373.809 
  555400    299.26935    -1417.916    504.72542    437.39602   -409.64328    37373.809 
  555500     295.3334   -1433.8986    526.21672    425.14195   -566.94542    37373.809 
  555600    288.26654   -1487.0008    535.90532    349.83592   -565.80605    37373.809 
  555700    296.22207   -1457.0452     527.0118    406.80095   -327.69506    37373.809 
  555800    295.19418    -1457.846    508.52352    382.87309   -673.76706    37373.809 
  555900    307.55132   -1477.3247    551.48012    462.11803    -637.7504    37373.809 
  556000    314.68526   -1443.4578    509.80704    486.50696   -453.37305    37373.809 
  556100    295.62008   -1466.4976    521.70673    389.32668   -594.75202    37373.809 
  556200    303.53325   -1523.1162    521.98947    368.70263    -559.8595    37373.809 
  556300    293.78329   -1515.2008    513.82339     324.4508   -441.04635    37373.809 
  556400     304.5311   -1518.8574    519.84158    375.31668   -417.85001    37373.809 
  556500    308.82139   -1519.8234    500.42063    374.29164   -311.74067    37373.809 
  556600    302.72568   -1500.7704    521.04805    386.46241    30.008511    37373.809 
  556700    300.68705   -1553.6573    516.27039    319.59763   -118.64388    37373.809 
  556800    292.62767   -1527.3079    478.34622     271.6513    59.199792    37373.809 
  556900    305.18275   -1558.5151    507.67584    326.43419    189.21503    37373.809 
  557000    296.36609   -1576.1257    481.75162    243.11023    330.67206    37373.809 
  557100    303.70861     -1555.79    509.51227    324.34298    813.22936    37373.809 
  557200    312.70469   -1518.9215    535.18845    427.48647   -23.921633    37373.809 
  557300     307.2509   -1551.3539    508.19779    343.45072    787.67402    37373.809 
  557400    309.74326   -1504.3867    519.16831    412.63632    363.42268    37373.809 
  557500    291.83452   -1515.7892    517.53902    318.78339    465.75585    37373.809 
  557600    310.58149   -1502.7778    488.57817    387.43797     336.9514    37373.809 
  557700    299.95495   -1523.8617    508.45676    338.27568   -182.17124    37373.809 
  557800    299.31407   -1504.1887    504.27808    350.87776   -488.96617    37373.809 
  557900    312.17942   -1525.8901    512.47657    395.43542    239.00399    37373.809 
  558000    292.68526   -1526.5339    502.53086    296.86987    291.78113    37373.809 
  558100    304.12598   -1518.6399    518.84293    372.70729    72.213703    37373.809 
  558200    302.29874   -1523.6243    513.83628    354.46997    727.31782    37373.809 
  558300    294.31899   -1535.5805    508.98097     301.6463   -32.995039    37373.809 
  558400    294.40123   -1500.6998    504.35398    332.27118    32.472574    37373.809 
  558500    311.60467   -1503.0983    514.32236    417.47927    338.25299    37373.809 
  558600    296.01232   -1525.8183    510.64117    320.71057      116.188    37373.809 
  558700    299.56336   -1510.8114    511.17565    352.27767    258.01533    37373.809 
  558800    304.86193   -1519.0305    523.77455    380.56955   -460.53686    37373.809 
  558900    296.10288   -1506.6168    505.68954    335.36915   -146.64299    37373.809 
  559000    307.19001   -1513.4791    522.77747    395.63045   -218.82558    37373.809 
  559100    289.72914   -1471.4773     524.7242    360.77901    -7.190261    37373.809 
  559200     303.7349   -1482.2528    510.40538    398.89187     304.1768    37373.809 
  559300    310.14416   -1466.9545    517.79156    450.50106    8.6630904    37373.809 
  559400     305.9526   -1494.0394    514.00695    400.71522   -656.95531    37373.809 
  559500    297.11042   -1480.0803    517.97136    378.73444    -736.5518    37373.809 
  559600    308.14969   -1513.4438    514.34713    391.56643   -530.78238    37373.809 
  559700     300.0255   -1519.4825    492.71065    327.22722   -270.76625    37373.809 
  559800    303.77148   -1533.5517    488.74119     326.0939   -68.187427    37373.809 
  559900     300.1493   -1542.8835    509.04985    320.72406    278.44043    37373.809 
  560000    296.08012   -1505.2187    500.02591    331.00095   -393.45156    37373.809 
  560100    296.82281   -1504.6137      510.196    345.12773   -465.91908    37373.809 
  560200    300.36027   -1502.5792    499.10841    352.03901   -90.766181    37373.809 
  560300    308.64644   -1492.5598    504.84929    405.19429   -81.770768    37373.809 
  560400     301.0946   -1523.5935     512.3229    347.55321    111.45295    37373.809 
  560500    302.68486   -1543.1981    502.60894    325.41142   -147.48582    37373.809 
  560600    307.67819   -1536.0193     494.4626    346.97848   -364.42939    37373.809 
  560700     295.0694    -1521.752    504.29366    314.17399   -444.60033    37373.809 
  560800    305.64784   -1544.7506    520.40979    355.03153     99.52424    37373.809 
  560900    312.06098   -1484.2009    518.75087    442.86442    97.947684    37373.809 
  561000    299.87052   -1507.6327    544.76881    390.43568    258.10656    37373.809 
  561100    295.85133   -1526.7425    503.19146    311.61016    364.31597    37373.809 
  561200    312.34729   -1530.5229      509.981    389.06468    777.99658    37373.809 
  561300    292.06546   -1499.7901    517.56409    335.84975    173.52409    37373.809 
  561400    289.80302   -1506.8057    506.48749     307.5473   -428.63983    37373.809 
  561500    294.87914    -1527.756    471.34229    274.36008   -268.17709    37373.809 
  561600    305.74984    -1503.918    510.65834    386.57298   -548.56198    37373.809 
  561700    303.86972   -1544.9583    511.57259    337.96206   -472.42448    37373.809 
  561800    304.09342   -1532.1458    503.02731    343.23876   -16.747934    37373.809 
  561900     297.4219   -1510.9495    512.70659    344.00617   -5.0499981    37373.809 
  562000    295.84485   -1513.2301    508.01743    329.91924   -56.130619    37373.809 
  562100    293.33991   -1511.1086    507.94905    320.66774    63.499904    37373.809 
  562200    288.05739   -1489.9787    502.42875    312.43764   -460.58328    37373.809 
  562300    300.02664   -1528.4306    500.00333    325.57692   -381.66306    37373.809 
  562400    298.50111   -1506.8871    497.87823    338.11061   -190.72201    37373.809 
  562500    292.69848   -1517.5941    538.13612    341.47452   -122.51926    37373.809 
  562600    301.67283    -1515.349    518.29953    364.38378   -163.69522    37373.809 
  562700     289.6111   -1562.1849    519.78499    264.59941   -151.97838    37373.809 
  562800    295.25395   -1562.0848    530.09343    300.47389    95.231647    37373.809 
  562900    300.51148   -1502.2789    494.64899    348.56235    293.05355    37373.809 
  563000    301.04268   -1517.8451    535.95632    376.70073    292.49084    37373.809 
  563100    308.81138    -1522.801    499.76015    370.60839    138.95861    37373.809 
  563200     297.9516   -1478.9853    499.98575    365.64006    716.34029    37373.809 
  563300    310.96321   -1510.3161    538.48679    431.53102     48.55075    37373.809 
  563400     307.5449     -1504.32    508.43944    392.05314   -84.429362    37373.809 
  563500    309.15112   -1527.6015    512.43816    380.01907   -51.890795    37373.809 
  563600    299.32681   -1518.0667    527.54648    360.32564    225.86202    37373.809 
  563700    291.28479   -1511.7432    533.08767    335.89714    150.03894    37373.809 
  563800    295.04737   -1490.9194    510.92831    351.54192      170.947    37373.809 
  563900    297.36377   -1529.3977    511.97903    324.56803    292.97291    37373.809 
  564000    302.10241   -1545.6986    507.51065    325.18401    80.813217    37373.809 
  564100    302.74969   -1575.7129    525.11805    315.69829    334.59387    37373.809 
  564200    305.89158   -1571.1392    513.26792    322.60101    132.49621    37373.809 
  564300    304.02248   -1533.8891    488.30826    326.45634   -428.72428    37373.809 
  564400     304.0192   -1499.2297    528.71872    401.51135   -356.11874    37373.809 
  564500    305.59738   -1537.3417    498.63484    340.43776    290.81091    37373.809 
  564600    308.31245   -1538.3745    530.66487    383.68792    208.11732    37373.809 
  564700    297.81735   -1512.2574    519.93992    351.71626    537.00876    37373.809 
  564800    306.55568   -1478.5173    490.61923    395.57126    458.94361    37373.809 
  564900    300.76305   -1522.0296    512.29144    347.58942    116.62642    37373.809 
  565000    292.99228   -1491.6986    503.42158    333.98139    170.80989    37373.809 
  565100    299.68254    -1493.434     487.2686    346.28582    129.13724    37373.809 
  565200    291.77425   -1529.9965    508.29191    295.05697    201.99727    37373.809 
  565300    292.58351   -1528.5192    494.02465    285.91913   -531.70888    37373.809 
  565400    297.61036    -1509.148    517.28827    351.23984    114.39026    37373.809 
  565500    301.02176   -1493.9257    517.81028    382.37968    116.95946    37373.809 
  565600    297.56421   -1489.5823    489.30136    342.61042    189.75544    37373.809 
  565700    301.78704   -1460.4045    507.73822    409.28239   -434.00775    37373.809 
  565800    297.88731   -1481.2565      538.817    401.90997   -4.7783054    37373.809 
  565900    304.87404   -1513.2273    505.44461    368.09757    355.31481    37373.809 
  566000    288.70726   -1484.5248    524.63564    343.03126    649.58245    37373.809 
  566100    304.50112   -1495.7472    518.95342    397.40345    776.12006    37373.809 
  566200    294.57302   -1512.3083     510.3592    327.44319   -16.412212    37373.809 
  566300    303.67665   -1503.8282     501.9756     368.6238    625.04992    37373.809 
  566400    294.29812    -1476.207    541.92804    393.87272    397.65109    37373.809 
  566500    294.69971   -1475.6452    516.77421    371.09298    155.42359    37373.809 
  566600    296.24206   -1461.2054    529.02992    404.74907   -146.89493    37373.809 
  566700    306.72174   -1432.4782    526.70142    478.44197   -242.97148    37373.809 
  566800    298.69579    -1454.822    531.01358    424.18967   -1410.9681    37373.809 
  566900    295.99042   -1478.7388    506.72222    363.77228   -1064.2599    37373.809 
  567000     314.5593   -1465.2431    511.24028    465.58648   -1028.9065    37373.809 
  567100    302.49681   -1437.5777      514.866    442.44017   -673.54783    37373.809 
  567200    296.58185   -1482.8022    510.40864    366.06445    -304.5209    37373.809 
  567300    301.28803    -1460.449    516.71453    415.96226   -48.345321    37373.809 
  567400    297.93818   -1481.3416    527.63181     390.8693   -153.50119    37373.809 
  567500    297.20047   -1518.2814     526.1184    349.08684   -142.52803    37373.809 
  567600    300.19948   -1521.2904    478.13917      311.633   -20.134174    37373.809 
  567700    293.00983   -1499.0048    523.09299    346.42588   -528.67219    37373.809 
  567800    301.40496   -1476.5372    510.76185    394.44906   -151.30642    37373.809 
  567900    299.00393   -1468.5413    504.26925    385.11671   -650.11767    37373.809 
  568000     293.8392   -1468.3369    509.44827    367.19195    339.19662    37373.809 
  568100    304.95124   -1466.6265    537.76522    447.36731    769.93517    37373.809 
  568200    301.46851    -1490.219    529.76822    400.06044    531.26332    37373.809 
  568300    306.42941   -1515.1335    490.27287    358.03889   -186.41412    37373.809 
  568400    301.98786   -1440.6412    521.09287    443.30671   -49.140989    37373.809 
  568500    306.35277   -1478.9066    521.52084    425.16783   -11.980138    37373.809 
  568600    304.50801   -1507.5675    525.95242    392.61323     596.4288    37373.809 
  568700    297.37546   -1519.0777    527.53357    350.49535    521.06157    37373.809 
  568800    302.65647   -1492.4995    524.72241    398.09538    739.37591    37373.809 
  568900     303.7501   -1527.1469    499.07044    342.73141    904.69205    37373.809 
  569000    298.28778   -1508.4198    512.96403    350.70099   -90.741434    37373.809 
  569100    297.44082   -1482.9612    515.13282    374.50611    572.97044    37373.809 
  569200    296.57484   -1526.5452    518.04749    329.92867   -139.42032    37373.809 
  569300    298.43754   -1479.2326    532.01845    399.61844    553.48777    37373.809 
  569400    310.91983   -1487.0099    498.45291    414.60756     103.1566    37373.809 
  569500    293.05378   -1508.9179    494.22013     307.8382   -178.46665    37373.809 
  569600    293.15037   -1474.4637     514.0664    362.57462   -699.25801    37373.809 
  569700    298.42901   -1500.4886    533.04973    379.35529   -364.68207    37373.809 
  569800    304.75218   -1509.0172    499.82151    366.13455   -561.42061    37373.809 
  569900    303.03749   -1534.8392    504.29731    337.05007   -247.64975    37373.809 
  570000    306.51013   -1477.6367    506.73154     412.3586   -24.256239    37373.809 
  570100    301.06265   -1497.3192    497.67496    359.03539   -455.53663    37373.809 
  570200    301.05268   -1517.3535    510.26639    351.54754    442.12891    37373.809 
  570300    297.77076   -1519.6567    503.99215    328.15892     44.13298    37373.809 
  570400    305.29305   -1523.0122     525.7414    380.50033    233.45955    37373.809 
  570500    304.91661   -1498.6185    496.19728    373.65115    521.67147    37373.809 
  570600    308.27974    -1542.417    497.18209    346.01503    339.83275    37373.809 
  570700    301.36459    -1554.354    492.96401    298.65225    28.467227    37373.809 
  570800    298.28522   -1524.5501    504.51106    326.10617   -423.55964    37373.809 
  570900    299.48596   -1459.5861    523.27165    415.24958   -689.34483    37373.809 
  571000    296.41541   -1486.2073    502.60929    354.10891   -623.03874    37373.809 
  571100    300.56849   -1480.0172    507.79043    384.22271   -451.79233    37373.809 
  571200    307.84761   -1507.3051    505.59541    387.59002   -112.67107    37373.809 
  571300    298.19042   -1510.0346    513.77885    349.46167   -612.23714    37373.809 
  571400    300.37185   -1494.2237    521.35967    382.69803    104.22364    37373.809 
  571500    292.41591   -1495.9218    510.97298    334.70851    405.94197    37373.809 
  571600    300.49884   -1511.7349    491.96096     336.3612    290.36765    37373.809 
  571700      300.748   -1505.4328    540.04247    391.86923    173.81093    37373.809 
  571800    296.82701   -1494.3422    516.64864    361.87081    402.33647    37373.809 
  571900    303.98729   -1476.1304    516.99453    412.74246    147.72329    37373.809 
  572000     306.5347   -1492.3159    511.35105    402.40979   -397.32196    37373.809 
  572100    303.77116   -1469.8727    507.43648    408.46673   -195.54955    37373.809 
  572200    302.74419    -1466.654    503.04197    402.65626    102.50527    37373.809 
  572300    302.27525   -1448.8488    522.08173    437.38491    83.627229    37373.809 
  572400    295.12314   -1475.2642    520.30753    376.91829    493.39873    37373.809 
  572500     300.9488   -1462.4661     521.8559    417.55563    648.69366    37373.809 
  572600     314.3893   -1455.3451    488.23376    451.71072     284.5513    37373.809 
  572700    299.08969   -1485.1336    511.00293    375.64511   -363.13693    37373.809 
  572800    301.74385    -1500.264    506.03983    367.52969   -15.377745    37373.809 
  572900    295.25343   -1516.8322    500.85895    316.48963   -28.963196    37373.809 
  573000    297.87799   -1533.9661    484.92715    295.26844   -211.99514    37373.809 
  573100    291.79471    -1491.703    486.63911    311.79002    98.193919    37373.809 
  573200    284.22611   -1471.9549    497.64496     308.3873    650.50206    37373.809 
  573300    302.29648   -1519.1285    499.94656    345.06588    543.58588    37373.809 
  573400    300.87385    -1507.628    485.35412    335.55368   -24.527456    37373.809 
  573500    301.27911   -1507.8646    480.97757    332.76946    129.66594    37373.809 
  573600    304.59885   -1471.0414    508.05142    411.64834    269.22174    37373.809 
  573700    298.96264   -1486.2186     502.6214    365.60521    126.83688    37373.809 
  573800    301.75315   -1492.5938    499.12342    368.32538    3.9882067    37373.809 
  573900    299.00366   -1485.5369    500.30137    364.15203    308.46129    37373.809 
  574000     299.6166   -1489.7396    471.02483    333.43889    201.58346    37373.809 
  574100    300.05593   -1470.9471    504.93538    388.12464   -165.11425    37373.809 
  574200     309.3672   -1519.6687    508.14537    384.63427   -621.28467    37373.809 
  574300    303.70204   -1515.3093    502.39348    357.67527   -63.012816    37373.809 
  574400    306.46377   -1536.8433    492.64343    338.85466   -99.691544    37373.809 
  574500    301.70694   -1477.8248    487.63043     371.3929    131.07139    37373.809 
  574600    294.11428   -1493.7503    499.79638    333.36805   -143.85276    37373.809 
  574700    288.19874   -1481.9231    517.69021    336.39254   -225.09019    37373.809 
  574800    310.37285   -1474.2552    509.63232    436.07313    127.96284    37373.809 
  574900     314.4855   -1490.6026    506.72494    435.37853   -188.45763    37373.809 
  575000     291.3588   -1524.5576    530.35607    320.68509   -631.90233    37373.809 
  575100     305.1152   -1515.3589    522.14066    383.75028   -337.93063    37373.809 
  575200     296.8139   -1483.0258    516.43622    372.91571   -488.30993    37373.809 
  575300    307.71364   -1500.4334    488.34645    376.60824   -135.26537    37373.809 
  575400    301.11131   -1516.1951    518.18396    360.88809   -243.21364    37373.809 
  575500    294.76572   -1486.6247    518.23658    361.87374   -429.33468    37373.809 
  575600    309.26098    -1488.047    487.48109    395.11225   -986.34164    37373.809 
  575700    297.46674   -1446.4534    517.38969    413.38777   -588.58368    37373.809 
  575800    308.93342   -1483.8495    500.51987    410.87034   -513.49034    37373.809 
  575900    299.94502   -1498.0652    522.13319    377.70379    -424.2498    37373.809 
  576000    296.88979    -1511.283    515.23064    343.79536    229.74227    37373.809 
  576100    304.25506   -1517.6581    479.42327    334.85194    539.81763    37373.809 
  576200    289.42022   -1515.1419    517.89972    308.89581     148.8197    37373.809 
  576300    303.32333   -1543.8058    518.76319     343.8393    37.427209    37373.809 
  576400    300.89836   -1510.6231     511.1234    358.43845    588.13062    37373.809 
  576500    303.73214   -1553.2873    499.18652     316.6261    400.17522    37373.809 
  576600    306.52469   -1524.4139    500.02431    358.93989    611.16324    37373.809 
  576700    303.12917   -1487.7788    507.49834    387.72526    278.66113    37373.809 
  576800    302.68039   -1551.0636    501.83733    316.75407    325.31427    37373.809 
  576900    307.06492   -1496.8988    515.53675    404.40548    62.736225    37373.809 
  577000    295.43541    -1528.631    503.86824    308.52139   -64.502328    37373.809 
  577100    303.57246   -1523.6393    509.05481    355.42179    494.55639    37373.809 
  577200     308.3473    -1492.411    525.76765    424.91154    424.51732    37373.809 
  577300    291.99879   -1510.1201    479.29414     286.9489    133.08373    37373.809 
  577400    295.24788   -1505.2903    526.54367    353.69124    101.52838    37373.809 
  577500    285.72668   -1515.4704    496.10579    270.10452    584.28436    37373.809 
  577600    300.73618   -1537.3622    507.17471    327.01872     442.6395    37373.809 
  577700    301.67714   -1552.1099    492.81178    302.15465   -156.16118    37373.809 
  577800    303.22725   -1527.0555    503.32381    344.71664    263.14198    37373.809 
  577900    295.34873   -1542.5731    508.08301     298.4029   -114.83718    37373.809 
  578000      297.225   -1551.4442    469.37258    259.28885    311.07934    37373.809 
  578100    302.52674   -1532.8338    503.79719    336.25036    462.43368    37373.809 
  578200    280.31901   -1504.2445    525.57998    286.40017   -227.66128    37373.809 
  578300    305.19219   -1519.5112    503.23657    361.04137   -487.68743    37373.809 
  578400    302.62814   -1538.9994     514.2557    341.00092   -127.92264    37373.809 
  578500    295.77407   -1568.0364    511.44629    278.22242    182.00705    37373.809 
  578600    314.71162   -1489.6145    526.70846    457.37067   -418.14179    37373.809 
  578700    292.26646   -1524.6032    512.79587    307.17553   -107.97769    37373.809 
  578800    290.86001   -1527.4221    493.01527    278.22887   -268.18461    37373.809 
  578900    298.82357   -1509.4356      557.942    397.08117   -61.481861    37373.809 
  579000    298.56013    -1486.749    485.63537     346.2722    -285.7355    37373.809 
  579100    304.38762   -1476.5564    524.57502    421.70361    419.85885    37373.809 
  579200    303.90963   -1480.8349    545.80212    436.49508    350.32357    37373.809 
  579300     306.4625   -1459.6636    505.74801    429.13328    627.33342    37373.809 
  579400    305.70723   -1460.2848    521.95765    441.31323    743.99734    37373.809 
  579500    302.42273    -1470.933    523.36536     417.2499    500.16109    37373.809 
  579600    307.99132   -1478.2659    510.37654    422.05899    533.17233    37373.809 
  579700    293.24726   -1498.7904    524.55433    349.17311    78.458044    37373.809 
  579800    297.66111   -1474.1534     499.6336    368.80883    380.14452    37373.809 
  579900    286.44565   -1484.8386    517.92854    325.80379    41.006161    37373.809 
  580000    300.84426   -1516.0632     488.2745    329.90534    69.008644    37373.809 
  580100     295.6333   -1502.9936    511.59084    342.77449    407.24772    37373.809 
  580200     301.8992   -1550.4445    527.13275    339.14316   -622.55341    37373.809 
  580300    297.81056   -1506.5685    515.65344    353.08803    32.370272    37373.809 
  580400    295.20916   -1522.0267    499.25398    309.49039   -369.97438    37373.809 
  580500     290.1914   -1530.6551    509.89022     288.8534   -327.95333    37373.809 
  580600    302.98215   -1532.6453    501.65474    336.35162    8.8328041    37373.809 
  580700    305.41009   -1531.7777    496.65433    343.17597    235.12738    37373.809 
  580800    304.24673   -1493.9983    504.13957    383.19044   -250.31582    37373.809 
  580900    309.44079   -1511.0622    501.70219    387.12974    49.234342    37373.809 
  581000    295.06601   -1481.5893    531.40056    381.42835   -100.91578    37373.809 
  581100    298.48854   -1518.6803    504.14189    332.52441    80.152602    37373.809 
  581200    298.32946   -1489.3391      509.141    366.14681   -230.42307    37373.809 
  581300     294.9942   -1503.3458    497.60179    325.54898   -79.184175    37373.809 
  581400    299.52059   -1521.6812    517.64335    347.68258   -20.560822    37373.809 
  581500    302.73568   -1550.6935    502.54996    318.08635    217.71354    37373.809 
  581600    290.03483   -1544.8802    491.38472    255.41615    551.17468    37373.809 
  581700    304.10538   -1499.9457    516.34405    388.80964    149.86845    37373.809 
  581800    302.58406   -1482.5027     475.6131    358.65606    129.41912    37373.809 
  581900    294.63491   -1506.9679    509.76652    332.47016   -66.211571    37373.809 
  582000    299.41751    -1494.962    516.47004    372.76325   -42.642599    37373.809 
  582100    298.35195   -1509.7105      515.165    351.90086   -76.907722    37373.809 
  582200    297.84879   -1505.2964    506.18231     345.0615   -205.97146    37373.809 
  582300    287.47453   -1495.8667    516.78362    318.27407   -347.98643    37373.809 
  582400     293.8686   -1483.3576    500.19684    343.05249     100.3893    37373.809 
  582500    301.94009   -1516.4235    500.92564    347.14157   -53.635379    37373.809 
  582600    299.96304   -1559.0676    497.69575    292.34532   -577.55042    37373.809 
  582700    300.58913   -1533.1704    515.72438    339.09657   -268.46574    37373.809 
  582800    303.60379    -1556.739    511.48149    324.89013    78.944529    37373.809 
  582900    287.33109   -1576.7028     513.5439    233.55093    186.58784    37373.809 
  583000    305.35695   -1545.9078    490.90219     323.0539   -162.20254    37373.809 
  583100    293.90225   -1499.6021     507.9247    334.68771    434.68843    37373.809 
  583200    286.48689   -1515.2471     518.0678    295.72067   -698.15119    37373.809 
  583300    295.30886   -1524.0589    504.13172    312.78592   -331.94175    37373.809 
  583400    303.55643   -1521.1743    506.03518    354.79484   -442.80176    37373.809 
  583500    293.94247   -1545.9842    513.53255    294.09496   -995.57732    37373.809 
  583600    287.73946   -1514.2103     484.9736    269.31613   -1037.0542    37373.809 
  583700    301.21915   -1486.8532    513.97169    386.50439   -11.158763    37373.809 
  583800    309.70907   -1478.9346    543.77743     462.5433    -340.4615    37373.809 
  583900    303.60327   -1543.0798    528.20766    355.27317    49.489124    37373.809 
  584000    303.14646   -1528.5445    503.20259    342.74177    262.52048    37373.809 
  584100    291.91468   -1513.0313    501.28275     305.6468     360.7911    37373.809 
  584200    293.78775   -1520.5667    530.28699    335.56869    506.75421    37373.809 
  584300    298.84755   -1515.8807    507.44282    340.24511    760.18597    37373.809 
  584400    294.16947    -1562.943    514.24189    278.86993    624.25578    37373.809 
  584500    296.02165   -1523.1742    522.50763    335.26328    506.32187    37373.809 
  584600    294.72464   -1544.4847    522.62489    308.21667   -57.499918    37373.809 
  584700     299.0678   -1538.3387    510.22791    321.56615    239.16007    37373.809 
  584800    300.50669   -1565.6127    492.15979    282.71773   -505.12665    37373.809 
  584900    298.09847    -1528.628    504.97826    321.65268    -168.7197    37373.809 
  585000     302.4561   -1535.0515    506.59287    336.50958   -70.530446    37373.809 
  585100    302.92293   -1562.2224    505.58029    310.43286   -357.03491    37373.809 
  585200    309.40533   -1558.6963     505.8001    343.43351    296.28735    37373.809 
  585300    300.89291   -1556.9485    506.49608    307.46117    212.48322    37373.809 
  585400    295.10274   -1543.3858    496.36316    284.76023   -315.04018    37373.809 
  585500    296.47019   -1499.7208    505.17555    343.40883   -171.03977    37373.809 
  585600    301.00299   -1521.3915    480.86995    317.88875   -147.95383    37373.809 
  585700    302.69603     -1548.93    508.11508    325.23606   -270.65668    37373.809 
  585800    299.73667   -1498.4385    518.59048    372.84755     316.6858    37373.809 
  585900    294.55128   -1504.9416    526.48404    350.83661   -219.36182    37373.809 
  586000    291.37486   -1487.2186    495.25008    322.99062    553.45326    37373.809 
  586100    289.86794   -1498.9273    519.73737    328.96849    373.66416    37373.809 
  586200     304.6966   -1505.3625    556.81268    426.52965    1112.2028    37373.809 
  586300    298.29102    -1530.704    503.81536    319.28271    1101.4139    37373.809 
  586400     283.3038   -1488.9343    526.20557    315.80617    859.22007    37373.809 
  586500    293.82397   -1550.4098    502.77702    278.37907    29.872433    37373.809 
  586600    300.25875   -1518.6348    511.70573    348.12263   -529.10039    37373.809 
  586700    298.61149   -1499.5969    514.82051    362.84122   -514.68799    37373.809 
  586800    294.56359   -1498.7112    517.55948    348.19798    73.467316    37373.809 
  586900     295.3462   -1558.6336    507.06724    281.31524   -125.81017    37373.809 
  587000    292.64958   -1523.3948    500.29252    297.60963   -422.25282    37373.809 
  587100    305.04058   -1552.4275    526.25223    350.45655    60.827794    37373.809 
  587200    293.75973   -1505.6799    489.83835    309.88041    135.75424    37373.809 
  587300    306.06117   -1500.8785    505.93612    386.29532   -42.492185    37373.809 
  587400    302.88052   -1507.0948    525.86757    385.65628    -59.05891    37373.809 
  587500    299.03159   -1534.4168    467.99901     283.0957   -302.88947    37373.809 
  587600    285.28267   -1490.7427    510.61706     307.3398   -41.818119    37373.809 
  587700    293.18529   -1515.6036    501.68776    309.21362   -345.57564    37373.809 
  587800    302.65002   -1561.9169      488.727    292.65339   -152.30967    37373.809 
  587900    305.53536   -1582.2672    487.26239    283.85989    -185.7127    37373.809 
  588000    302.52269    -1480.359    520.31202    405.22175   -413.41014    37373.809 
  588100    291.05115   -1503.9405    499.23369     308.7914   -74.461728    37373.809 
  588200    307.94065   -1520.8985    516.06909    384.89027   -654.99754    37373.809 
  588300    292.15931   -1486.4547    483.98233    316.02692   -559.31463    37373.809 
  588400    300.23119   -1497.1545     517.7144    375.48718   -97.748565    37373.809 
  588500    295.52522   -1494.7666    488.33095    327.25387   -81.581928    37373.809 
  588600     300.7191   -1509.0924    504.86127    352.89807    -325.6864    37373.809 
  588700    296.36066   -1500.2092    522.61183     359.8624   -179.55268    37373.809 
  588800    310.50192   -1465.7571    495.35231    430.87372     55.39001    37373.809 
  588900     305.3385   -1464.4582    505.27211    418.79015   -163.38978    37373.809 
  589000    310.38708   -1485.2443    503.03832    418.55423    312.83087    37373.809 
  589100    299.13468   -1480.6164    502.21255    371.57495    781.30554    37373.809 
  589200    295.21528   -1479.4552    517.71016    370.54569    794.77858    37373.809 
  589300    289.10502   -1466.5926    506.62641    344.74928    1362.5435    37373.809 
  589400    305.71139   -1471.1421    503.25003    411.76701    596.25739    37373.809 
  589500     300.4905   -1493.1394    541.34655     404.3047    465.42532    37373.809 
  589600    287.67084   -1520.9758    527.14906    304.41633    293.76434    37373.809 
  589700    299.50662   -1501.1263     491.8452    342.37621   -234.40705    37373.809 
  589800    303.50362   -1528.7942    505.64177    346.54308   -298.11449    37373.809 
  589900    303.47379   -1504.9108    486.20671    350.85688   -145.21458    37373.809 
  590000    298.84464   -1494.3724    491.31905    345.61654    54.233571    37373.809 
  590100    306.76534   -1559.1586    494.88108    320.13806   -294.34119    37373.809 
  590200    286.21097   -1542.0896    487.96466    237.52989   -254.21936    37373.809 
  590300    299.24977   -1551.0541     504.4465    303.89059    -169.0129    37373.809 
  590400    295.38277   -1542.0848    488.92151    279.88333    -5.947196    37373.809 
  590500    298.16332   -1530.5148    498.12993    313.21022    -278.3742    37373.809 
  590600    301.28245   -1559.0534    491.74641    292.36455   -102.49842    37373.809 
  590700     301.7787   -1527.7621    495.71118    329.86022   -534.76932    37373.809 
  590800    291.87204   -1503.7428     511.7623    325.22241   -360.66129    37373.809 
  590900    295.23443   -1509.1167    510.29491    333.55538    -49.90149    37373.809 
  591000    299.80392   -1507.9592    520.46534    365.50521   -379.80323    37373.809 
  591100    307.40159   -1496.9296    523.52304    413.88036    178.62323    37373.809 
  591200    293.46458   -1502.4553    515.47664    337.41127    420.77114    37373.809 
  591300    304.54233   -1461.9029    497.46503    409.94533    506.07936    37373.809 
  591400    300.33783   -1510.4189    520.06853    365.05814   -450.26742    37373.809 
  591500    296.75216   -1506.6196    495.89541    328.50241    167.20254    37373.809 
  591600    303.89281   -1546.7352    526.82071    351.53751    49.895161    37373.809 
  591700    298.51072   -1525.1676    536.98465    358.97994    153.26911    37373.809 
  591800     293.9928   -1567.2504     493.1282    252.65156    -48.65136    37373.809 
  591900    298.70936   -1542.2072    514.37055    320.22265    715.00252    37373.809 
  592000    309.55959   -1545.9801    535.86315    386.90886    541.20842    37373.809 
  592100    294.47816   -1545.9602    512.30339    295.30735    726.25227    37373.809 
  592200    303.82751   -1559.2087    527.98278    339.93137    605.15834    37373.809 
  592300    301.51843   -1556.8357    548.13736    352.03819    1016.5087    37373.809 
  592400    303.49333   -1551.3812    509.17304    327.44095    825.13062    37373.809 
  592500    293.66621   -1563.4084    516.18456      278.076    616.76511    37373.809 
  592600    309.59146    -1553.108    527.13501    371.19668    290.12705    37373.809 
  592700    291.56763   -1544.0904    516.64322    288.38192    244.67139    37373.809 
  592800     316.9917   -1530.7134    549.35292    449.20601    775.15205    37373.809 
  592900    293.70516   -1586.5913    496.79123    235.67559   -24.921778    37373.809 
  593000    296.01128    -1537.699    546.76449    344.94855    239.37132    37373.809 
  593100    309.52612   -1531.1405     513.9265    379.66081    -577.5517    37373.809 
  593200    300.47468   -1558.1249    507.04604    304.94725   -549.18945    37373.809 
  593300    298.89759    -1557.223    539.11412    330.79992   -27.552529    37373.809 
  593400    309.88692   -1580.2239    493.65296    311.93212    204.44264    37373.809 
  593500    293.48075   -1581.8619    518.99937    261.60035    206.51103    37373.809 
  593600    308.28803   -1529.6748    540.89349    402.50608     33.67146    37373.809 
  593700     295.0176   -1538.4266    522.88738    315.85938    243.61433    37373.809 
  593800    313.16801   -1538.8373    508.60917    383.08232    210.12885    37373.809 
  593900    297.64089   -1541.7166    530.80582    332.32664   -254.96839    37373.809 
  594000    308.90641   -1463.6673    542.84574    473.25654    72.700105    37373.809 
  594100    292.00566   -1539.4705    506.52026    284.85571   -45.985164    37373.809 
  594200    305.42132   -1515.8469    505.59015    368.09328    161.43717    37373.809 
  594300    299.24502   -1509.0595    525.00517    366.42239   -259.14331    37373.809 
  594400    303.98658   -1555.7255    515.90525    332.05486    737.95651    37373.809 
  594500    296.44351   -1559.2834     506.6757    285.22599    135.12159    37373.809 
  594600    288.60546   -1537.2268    542.32553    307.55966    640.30157    37373.809 
  594700    305.75441   -1548.0759    521.16246    352.93982    545.21784    37373.809 
  594800     301.5772   -1541.8493    521.12651    340.27892   -30.983704    37373.809 
  594900    306.69277   -1496.0897    501.46772    389.46602   -250.23234    37373.809 
  595000     292.4655    -1527.861    538.73261    330.75272   -549.18483    37373.809 
  595100    293.75865   -1545.9339    515.91871    295.70187   -455.55978    37373.809 
  595200    289.91074   -1540.1318    490.70243    258.92229   -431.62159    37373.809 
  595300    304.23327   -1507.7049    531.69998    396.98354    -1259.946    37373.809 
  595400    299.98882   -1538.7799    508.71042    323.76398   -850.08989    37373.809 
  595500    293.57659   -1537.9941    535.71187     322.6132   -663.02383    37373.809 
  595600    290.97467   -1512.3428    514.23745    315.04775   -631.32048    37373.809 
  595700    294.24627    -1517.375    518.14224    328.68485   -395.60246    37373.809 
  595800    309.66993   -1520.7614    518.64753    395.40991    469.62484    37373.809 
  595900    291.00032   -1535.8082    528.41264     305.8733    956.74527    37373.809 
  596000     292.8631   -1552.7772     518.1643    287.06253    738.17435    37373.809 
  596100    300.97101   -1511.1828    533.49882    380.58209    116.69992    37373.809 
  596200    298.58188   -1490.3454    523.92378    381.06239    236.88914    37373.809 
  596300    308.24765   -1524.4058    507.23237    373.93166    15.597035    37373.809 
  596400    293.37702   -1523.7446    545.01179    345.26198   -117.15233    37373.809 
  596500    301.52596   -1463.1762    534.47424    432.06855    84.948951    37373.809 
  596600    299.96884   -1505.5877    513.57511    361.73073   -31.751095    37373.809 
  596700    298.82423   -1505.5269    544.03621    387.08704    271.74127    37373.809 
  596800    303.16552   -1456.3828    501.06621    412.85319    85.855223    37373.809 
  596900    304.93394   -1484.3755    535.77439    427.54941    4.6095143    37373.809 
  597000    303.40222   -1506.5128    532.00214    394.72735    129.79085    37373.809 
  597100    309.84932   -1491.6256    516.47901    423.18676    455.25074    37373.809 
  597200    301.75166   -1525.8126    543.01556    378.99206    660.20433    37373.809 
  597300    294.96287   -1530.6304    542.01612    342.53741    239.60688    37373.809 
  597400     311.1244   -1488.2341    519.47121    435.32484   -232.28579    37373.809 
  597500    297.68782    -1493.165    526.91296    377.19714   -304.19628    37373.809 
  597600    297.49212   -1472.2098    535.73336    406.08959   -620.61222    37373.809 
  597700    306.22703   -1470.1393     546.5007    458.34752   -266.39637    37373.809 
  597800    291.22335   -1498.2114    514.24104    330.30505   -608.04683    37373.809 
  597900    300.25062   -1498.5574    513.15545    369.61301   -259.55878    37373.809 
  598000    299.95627   -1511.9553    515.84698    357.57824   -357.20196    37373.809 
  598100    297.70177   -1518.3454    523.22629    348.39299   -420.35085    37373.809 
  598200     305.1208   -1475.4795    528.11862    429.63298   -414.19941    37373.809 
  598300    304.84721   -1482.2148    521.80239    415.34668   0.51287336    37373.809 
  598400    297.89906   -1515.4926    540.92764    369.83749    160.82148    37373.809 
  598500    306.01124   -1528.3578    510.07079     362.7253    519.75968    37373.809 
  598600    300.77689   -1518.4457    535.39014    374.33442    959.71501    37373.809 
  598700    301.21409   -1556.3908    527.92622    330.89843    384.40138    37373.809 
  598800    291.21475   -1547.7253    511.77854    278.28975    191.62991    37373.809 
  598900    293.23202   -1556.6026    523.84451    290.58225    835.78312    37373.809 
  599000     290.9358    -1545.731    535.44128    302.68801    576.63696    37373.809 
  599100    302.23683   -1521.6701    506.56559    348.87409    167.62711    37373.809 
  599200    306.43856   -1519.3953    544.33039    407.87587   -124.45112    37373.809 
  599300    311.02755   -1502.1363    519.70308    421.21743   -180.35512    37373.809 
  599400    297.67641   -1512.1085    522.22674    353.51591     461.6131    37373.809 
  599500    304.04963   -1486.7444    533.72604    419.14129    586.53143    37373.809 
  599600    304.32493   -1511.5855    519.14614    380.96279   -203.33313    37373.809 
  599700    307.30341    -1497.681    519.38638    408.54919   -115.83362    37373.809 
  599800     282.5528   -1521.8717    524.83705    278.11098   -252.21627    37373.809 
  599900    288.75429   -1536.3916    528.94205    295.68311   -379.90392    37373.809 
  600000    302.27616   -1491.1313    504.62047    377.64527   -383.03302    37373.809 
  600100     307.3232   -1467.3687    516.20392    435.76833   -285.46762    37373.809 
  600200    304.14752    -1501.632    514.76542    385.73489    244.69554    37373.809 
  600300    300.97301   -1518.8525    521.40067     360.8233    140.83685    37373.809 
  600400    307.46223   -1557.4907    520.71249    350.78233    642.65884    37373.809 
  600500    303.61727    -1515.796    514.25657    368.66899    441.02529    37373.809 
  600600    298.27799   -1486.1057    532.02424    392.03111    564.39359    37373.809 
  600700    294.15811   -1538.4288    508.73389    297.82488    130.77099    37373.809 
  600800    294.84476   -1514.6779    519.13429    335.07501    15.782501    37373.809 
  600900    306.24951   -1542.6903    506.05605    345.45334    505.78293    37373.809 
  601000    292.42608   -1536.5652    531.74972    314.88777    474.25043    37373.809 
  601100    304.89815   -1533.5535    551.78492    394.22039    47.790125    37373.809 
  601200    302.76018   -1519.3072    514.57247    361.60571   -59.769022    37373.809 
  601300    289.72701   -1489.5217    536.83388    354.83469   -115.12484    37373.809 
  601400    301.04137    -1514.524    510.45574    354.51529   -76.896965    37373.809 
  601500    301.90012   -1505.4096    564.67107    421.72056    174.93733    37373.809 
  601600    305.99621   -1551.2196    487.39541    317.12028    305.29489    37373.809 
  601700    296.56957   -1554.0131    513.09891     297.4884   -180.51856    37373.809 
  601800     294.5981   -1511.4874    507.11555    325.13363   -124.68627    37373.809 
  601900    293.91665   -1519.5848    522.97268    329.81802   -490.90418    37373.809 
  602000    292.38249   -1512.6726     514.1656    320.99949   -689.07235    37373.809 
  602100    291.03216   -1548.5797    509.02279    273.85569    -485.0763    37373.809 
  602200    300.23268   -1545.8242    511.41936    320.52916    35.618146    37373.809 
  602300    302.26496   -1569.1525    499.84101    294.79406   -52.471808    37373.809 
  602400     305.1167   -1573.6642    487.76898    291.08004    688.64618    37373.809 
  602500    316.55821   -1566.6405    490.56889    352.53866    1413.6877    37373.809 
  602600    307.89776   -1533.3571    530.67082    386.83978    1066.0579    37373.809 
  602700     297.6483   -1504.7085    497.96323    336.52562    540.25299    37373.809 
  602800    297.57298   -1538.9585    516.40798    320.38039    674.92436    37373.809 
  602900    301.24641   -1496.2512    547.19861    410.45634    464.59315    37373.809 
  603000    293.07592   -1551.3632    510.92351     282.1962   -238.41171    37373.809 
  603100    294.14469   -1581.0793    514.53781    260.91777    237.40941    37373.809 
  603200    305.79212   -1523.6933     525.2798       381.61    13.335768    37373.809 
  603300    282.20254   -1513.5177     503.8259    263.87318   -611.91512    37373.809 
  603400    296.21112   -1476.1109    499.19926    359.87325    149.18111    37373.809 
  603500    309.72018   -1496.2804    510.67126    412.14137    14.542107    37373.809 
  603600    301.52368   -1489.0848    538.21373    409.88913    286.35914    37373.809 
  603700    292.13683   -1489.6906    526.19427     354.9015    325.84288    37373.809 
  603800    298.59993   -1498.7924    523.70831    372.48138     184.7695    37373.809 
  603900    309.53802   -1515.6356     502.8611    384.15395    191.03389    37373.809 
  604000    301.06767   -1461.3798    537.23486    434.55732    261.63474    37373.809 
  604100    292.71179   -1456.4715    497.90377    362.42493   -196.89157    37373.809 
  604200    293.64263   -1488.1181    499.56006     336.6354   -25.552781    37373.809 
  604300    291.37775   -1533.6812     498.7769     280.0679    108.90088    37373.809 
  604400    292.58845   -1550.8582    493.66981     263.2476   -112.88046    37373.809 
  604500    308.98901   -1500.8412    517.67366    411.28333    45.653132    37373.809 
  604600    303.43824   -1552.2313    500.69493    317.86411   -425.73855    37373.809 
  604700    297.63728   -1531.9003    516.96754    328.28838    142.77126    37373.809 
  604800    297.23324   -1557.0751    518.42785    302.75047    357.84322    37373.809 
  604900    296.08433   -1599.2406    500.42363    237.39578    402.68647    37373.809 
  605000     298.1025   -1584.7228    477.89037    238.48815    834.98617    37373.809 
  605100     309.9894   -1557.2693      494.965    336.66128    27.033324    37373.809 
  605200    312.13764   -1553.0915    518.34929    373.91818    255.06296    37373.809 
  605300    297.60714   -1532.4123    506.35677    317.02956    -87.24789    37373.809 
  605400    300.12365   -1587.4536    474.29616    241.28449    13.553422    37373.809 
  605500    318.43653   -1553.5243    523.10327    406.66601     386.7563    37373.809 
  605600    293.04817   -1543.8135    529.17076    307.86798    141.07643    37373.809 
  605700    306.76999   -1551.4502    484.44817    317.43447    724.94119    37373.809 
  605800     311.9107   -1569.1535     482.3615    320.84423    670.38758    37373.809 
  605900    305.42223   -1532.7894    506.98911    352.55389    809.56582    37373.809 
  606000    294.74673   -1527.6358    516.26389    318.80429    210.77877    37373.809 
  606100     298.1385   -1517.9201    503.95379    331.51676    -171.7791    37373.809 
  606200     301.8367   -1517.3067    501.95938    346.82547   -486.13767    37373.809 
  606300    301.64531   -1504.9766    491.34556    347.67806    225.29517    37373.809 
  606400    288.07688   -1578.8208    506.61192    227.86668   -28.966844    37373.809 
  606500     299.5772   -1531.4683    495.13092     315.6385   -105.65534    37373.809 
  606600    313.11757   -1527.6069    506.33923    391.81517    13.341685    37373.809 
  606700    303.10044   -1539.3678    482.60858    311.11686   -129.34446    37373.809 
  606800    305.82202   -1527.4898    493.86504    346.53365   -78.585972    37373.809 
  606900    303.55501   -1528.0083    515.53317    357.45237    126.79134    37373.809 
  607000    299.05324   -1544.9336    502.45441    307.13209    153.10382    37373.809 
  607100    298.70359   -1547.6362    483.83872    284.23584   -121.34901    37373.809 
  607200    295.42803   -1514.7119       539.96    358.49898   -288.19936    37373.809 
  607300    295.98785   -1534.5221    512.26216     313.5174   -178.46581    37373.809 
  607400    301.40815   -1471.9221    513.37065    401.68741    519.52244    37373.809 
  607500    297.68737   -1531.4125    485.48744    297.52215      303.705    37373.809 
  607600    298.34161   -1488.6377    497.47752    355.23951   -81.807194    37373.809 
  607700    301.40141   -1499.6181    479.75655    340.34686    94.847731    37373.809 
  607800     300.6282   -1495.2177    504.26956    365.77084   -410.07778    37373.809 
  607900    301.86513   -1484.7732    488.06598    365.59395   -165.21574    37373.809 
  608000    304.72307   -1462.5447     490.1401     402.7943   -317.24984    37373.809 
  608100    295.72654   -1508.5189    510.57392    336.65308    31.225388    37373.809 
  608200    315.25525   -1534.5111    507.05714    395.27604    103.09519    37373.809 
  608300    299.86031   -1482.8522    529.00353    399.40485    456.24873    37373.809 
  608400    290.11256   -1468.7591    511.64711    352.15043     332.0203    37373.809 
  608500    290.88366   -1464.9995    512.33108    360.07401    523.71396    37373.809 
  608600    298.64282   -1489.6008    503.81401     361.9723    353.90322    37373.809 
  608700    295.57009   -1516.9352      500.234    317.19074    330.33196    37373.809 
  608800    294.98394   -1528.7744    506.77682    309.24912    282.16508    37373.809 
  608900    295.70383   -1521.5411    496.72918    309.68369    234.56569    37373.809 
  609000    294.87435    -1506.351    518.19171    342.59284    731.14599    37373.809 
  609100    295.04089   -1509.8723    529.37096    351.00245    374.60289    37373.809 
  609200    297.17973   -1471.4578    510.10821    379.80661     532.9745    37373.809 
  609300    294.44113   -1474.4446    526.77957    381.13206    199.56272    37373.809 
  609400    305.01583   -1500.5958    493.40055    369.32481    152.16702    37373.809 
  609500      300.679   -1498.3953    518.41233    376.96529   -235.55906    37373.809 
  609600    293.16721   -1489.8571    526.91531    360.10612    180.31572    37373.809 
  609700    297.26759   -1505.7144    489.35795    325.19624    205.35039    37373.809 
  609800    303.94679   -1517.3434    501.53561    355.88775   -184.01216    37373.809 
  609900    301.04444    -1470.792    522.18596    409.99142    170.40838    37373.809 
  610000    288.69947   -1506.5694    505.59953    301.91532   -188.08225    37373.809 
  610100     306.0198   -1497.1982    503.97925    387.83201   -247.88819    37373.809 
  610200    308.66148   -1541.5072    497.90775    349.37322   -321.18364    37373.809 
  610300     298.9067   -1542.9229    510.10229    316.12934    431.44833    37373.809 
  610400    294.31722   -1558.7024    516.95459    286.48998   -306.13957    37373.809 
  610500    299.49881   -1548.1138     482.7223    286.23055   -33.152592    37373.809 
  610600    304.42883   -1561.5235     517.8157    330.16321    270.12394    37373.809 
  610700    300.17796   -1504.9434    506.86826    356.61194   -131.30524    37373.809 
  610800    304.70304   -1495.5917    502.70913    382.22592   -394.19982    37373.809 
  610900     297.1891   -1473.4576    531.32499    399.06585    121.26889    37373.809 
  611000    306.72793   -1477.5514    535.20073      441.896   -8.8053477    37373.809 
  611100    299.69391   -1463.7557      517.225    405.97187   -314.44221    37373.809 
  611200    296.86451   -1485.5593    508.08835    362.26264    39.082478    37373.809 
  611300    299.26717   -1478.9341     518.8686    390.51124   -5.9809468    37373.809 
  611400    304.04217   -1505.5611    510.28364    376.84856    215.51354    37373.809 
  611500    297.61593   -1479.8328    519.55798    382.84997    158.71998    37373.809 
  611600    291.60112   -1494.3199    517.18353    338.84383   -301.74614    37373.809 
  611700    296.44956   -1496.7976    511.00599     352.0694   -439.75231    37373.809 
  611800    299.30704   -1509.0364    487.18944    328.90968   -1028.6178    37373.809 
  611900    302.55591   -1502.9333    485.38218    347.86753   -453.68076    37373.809 
  612000    300.82817   -1474.5151    509.56255    392.66882   -147.78627    37373.809 
  612100    293.26611   -1456.7573    536.08998    402.82695   -393.36593    37373.809 
  612200    299.52255   -1442.5236    531.23386    440.43949   -60.422591    37373.809 
  612300    290.54626   -1437.1175    531.40941    405.51164   -712.53218    37373.809 
  612400     298.5656   -1465.5116    535.75797    417.65691   -610.71382    37373.809 
  612500    303.09882   -1445.5638    514.58661    436.89152    108.03445    37373.809 
  612600    300.36739   -1476.9667    523.57022    402.14546    206.15365    37373.809 
  612700    306.58947   -1478.1694    536.11878    441.57125    466.84684    37373.809 
  612800    300.26652   -1525.1328    500.22696     330.1809    600.24417    37373.809 
  612900    311.90973   -1541.9553    502.85092    368.52757    752.36411    37373.809 
  613000    303.10041   -1509.7537    503.26295    361.38518    528.87158    37373.809 
  613100    303.50192   -1537.8412    503.82417     335.6709    328.96725    37373.809 
  613200    294.64063   -1494.7028    504.12775    339.12235    216.44732    37373.809 
  613300    315.94713   -1489.9718    520.59978    456.48048    201.13614    37373.809 
  613400    302.99508   -1519.8227    509.01578    356.59366    234.61362    37373.809 
  613500       296.17   -1559.2715    476.66026    253.98811   -139.35804    37373.809 
  613600    307.99891   -1530.9682    485.07404    344.08841    90.218213    37373.809 
  613700    298.82491    -1495.217    515.67335    369.03713   -956.62152    37373.809 
  613800    297.86096   -1524.5525    508.14617    327.82424   -915.47981    37373.809 
  613900      293.074   -1532.1464    510.93954    301.42038   -527.54779    37373.809 
  614000    294.91033   -1507.6658    542.04945    365.29818   -66.580028    37373.809 
  614100    294.77735   -1518.9644    509.67709    321.02701   -18.436104    37373.809 
  614200    310.34273   -1558.6642    496.33468    338.23062    342.59598    37373.809 
  614300    304.04067   -1523.2166    538.06641    386.96909    530.88369    37373.809 
  614400    299.40982   -1496.6041    500.07449    354.69089    609.07298    37373.809 
  614500    309.51299   -1536.5818    533.50125    393.73506    911.15672    37373.809 
  614600    297.30403   -1546.6196    495.26176    290.35928    439.42953    37373.809 
  614700    294.67485   -1527.9729    507.98775    309.86666   -386.48547    37373.809 
  614800    286.28217   -1538.4385    519.25242    272.79003    438.86473    37373.809 
  614900    297.98505   -1529.7853    513.40696    328.41217   -88.240706    37373.809 
  615000    307.99829   -1537.5394    507.95934    360.39973    21.781642    37373.809 
  615100       296.69   -1531.1521    530.45069    338.24465      168.127    37373.809 
  615200    304.47888   -1523.0913    506.97055    357.97607    36.174335    37373.809 
  615300    302.03414   -1533.8475     528.8907    358.10709    381.07735    37373.809 
  615400    302.96222   -1536.4546     520.4673    351.26502    311.67149    37373.809 
  615500    302.72339   -1556.5689    490.71376    300.31925   -308.43844    37373.809 
  615600    296.91068   -1512.3107    536.47595    364.10724   -733.21908    37373.809 
  615700    295.69079   -1510.9086    487.22106    310.74913   -577.34694    37373.809 
  615800    294.94298   -1521.8014    506.30289    315.56339    -365.6342    37373.809 
  615900    288.22535   -1539.9197    529.08133    289.90716   -253.85159    37373.809 
  616000    308.71515   -1572.4548    508.96677    329.72687    224.99058    37373.809 
  616100    308.10406   -1591.3224    493.30573    292.44041    389.00598    37373.809 
  616200     290.9119   -1540.1557    507.19516    279.90925   -233.57979    37373.809 
  616300    301.40675   -1476.4931    499.73583    383.47527    325.34024    37373.809 
  616400    300.36528   -1537.3993    498.01821    316.15127    161.72069    37373.809 
  616500     306.8494   -1539.6433    493.62629    338.77787   -13.326084    37373.809 
  616600    296.22233   -1507.4621    497.78988    327.16329    -404.4315    37373.809 
  616700    307.88899   -1529.9287    545.52438    405.08216     181.2873    37373.809 
  616800    304.17921   -1536.1733    475.15348    311.72469    327.96776    37373.809 
  616900    307.05666   -1546.6316    500.34723    339.44585    308.26336    37373.809 
  617000    299.56564   -1517.0771    510.15486    345.00141    247.03179    37373.809 
  617100    297.55541   -1552.0778    488.83505    279.60883   -345.83803    37373.809 
  617200    309.17588   -1509.5612    511.19582    396.92883   -173.68361    37373.809 
  617300    299.25316   -1511.0522    492.01943    331.48064   -586.16052    37373.809 
  617400    294.10394   -1545.8196    501.69071    283.14645    79.924134    37373.809 
  617500    296.01549   -1510.8867    516.64361    341.65894   -150.96641    37373.809 
  617600    301.27199   -1505.2351    523.11456    377.50378    -460.0043    37373.809 
  617700    311.51244    -1481.528    511.37587    435.68681   -493.98334    37373.809 
  617800    301.23562   -1515.3123    493.68826    337.83618   -402.98008    37373.809 
  617900    294.87316    -1544.037    512.97087    299.68067    417.37637    37373.809 
  618000    302.34545   -1487.7085    528.41401    405.17434    41.978135    37373.809 
  618100    310.94748   -1510.2752    496.56325    389.57735   -222.44614    37373.809 
  618200    303.67013   -1503.2385    494.46035    361.66889   -531.03946    37373.809 
  618300    299.29773   -1518.3998    498.46943    330.78429    8.7135491    37373.809 
  618400    305.28562   -1540.8652    520.39391    357.26638    230.27455    37373.809 
  618500    307.33377   -1506.0006    527.00199    407.98224    107.73579    37373.809 
  618600    310.77949   -1485.9406    522.72578     439.3164    16.769746    37373.809 
  618700    290.09596   -1515.0614    500.64449     294.7706   -628.63194    37373.809 
  618800    298.62538   -1523.5053    514.93775    339.11283   -550.86164    37373.809 
  618900    293.91201   -1501.2153    507.14767    332.34149   -115.37017    37373.809 
  619000    295.68856    -1487.065    501.60699    348.96861    -103.1652    37373.809 
  619100     286.7243   -1510.3261    505.23343    288.87878    213.19177    37373.809 
  619200    296.53507   -1513.3768    500.82878    325.69892    539.04277    37373.809 
  619300    300.56223   -1551.4601    486.32162     291.2828   -46.044843    37373.809 
  619400     292.5862   -1541.4364    516.03486    295.02433   -204.82757    37373.809 
  619500    297.07513   -1513.6983    503.05889    330.04478   -670.13479    37373.809 
  619600    295.84298   -1515.8577    517.65678    336.92264    448.84651    37373.809 
  619700    287.96166   -1554.3557    515.62956    260.82939    317.97337    37373.809 
  619800     296.4019   -1499.0923     491.8173    330.37088   -95.090472    37373.809 
  619900    301.57775   -1505.0995    513.93285    369.83752    -185.8619    37373.809 
  620000    292.02896   -1520.8118    509.94379    307.04305   -9.5629858    37373.809 
  620100    300.85474   -1461.8666    544.12529    440.00005    459.11531    37373.809 
  620200    289.40714    -1475.527    529.64062    360.19255   -193.76867    37373.809 
  620300    305.12629   -1521.0874    507.96062    363.89178   -132.86921    37373.809 
  620400     303.7301   -1521.2086    525.80905    375.31816   -316.62429    37373.809 
  620500    298.98706   -1509.6007    496.18998    335.90189    68.305362    37373.809 
  620600    283.37433   -1503.3237    503.32026    278.84967   -281.51723    37373.809 
  620700    301.35173   -1519.7266    503.51707    343.77469    44.422839    37373.809 
  620800    289.47809   -1484.9073    525.93384    347.42564   -234.09224    37373.809 
  620900    302.17344   -1496.1984    485.38875    352.88286    128.46283    37373.809 
  621000    300.01123   -1440.3436    530.87694      444.468     440.0146    37373.809 
  621100    307.87993   -1445.9842    498.49447    441.95589     219.0978    37373.809 
  621200    309.92262   -1460.0783     534.3956    472.98144    306.72906    37373.809 
  621300    298.90008   -1476.1906    491.30366    364.03306   -147.74042    37373.809 
  621400    294.09839   -1469.1288    509.51437    367.63578    -167.3637    37373.809 
  621500    295.94463   -1502.6073    487.76085    320.73578   -671.43774    37373.809 
  621600    307.79506   -1545.0527    507.09774    351.10769   -301.41019    37373.809 
  621700    300.35689   -1483.8641    513.01676    384.64719    173.11613    37373.809 
  621800    294.76183   -1509.4397    467.26407    288.06867    165.39286    37373.809 
  621900    306.08438   -1507.8457    489.97323    363.46994    601.76769    37373.809 
  622000    292.05596   -1512.7582     514.7066    319.98135    81.472311    37373.809 
  622100    294.17769   -1449.1894    504.55694     382.9757    695.22804    37373.809 
  622200    296.62174   -1451.8406    511.38601     398.1834    300.28557    37373.809 
  622300    302.38773   -1465.3923    528.37887    427.64618    660.65831    37373.809 
  622400     291.4158   -1492.3334    530.41277    353.22322    236.97609    37373.809 
  622500    301.08586   -1529.3173    513.25947    342.72655     162.7069    37373.809 
  622600    316.14168   -1535.3153    483.65598    375.07116    66.352565    37373.809 
  622700    289.19072   -1528.2695    490.70726    267.53995    17.745461    37373.809 
  622800     302.6718   -1488.7677    492.66093    369.83486   -880.36588    37373.809 
  622900    296.98179   -1507.4589    492.58797    325.39196   -765.43065    37373.809 
  623000    298.19716    -1489.109     509.3046    365.94342   -242.22464    37373.809 
  623100    301.63362   -1522.0853    473.57263    312.74367   -510.72535    37373.809 
  623200    292.93449   -1512.4741    480.68918    290.21271    133.93618    37373.809 
  623300    301.09078    -1563.571    476.76997    272.00554    91.264618    37373.809 
  623400    292.71655   -1524.4125    497.94641      294.548   -33.098113    37373.809 
  623500    305.93275   -1539.6838    513.93272    354.90702   -62.757474    37373.809 
  623600    301.68726    -1518.849    474.04887    316.69834    371.89291    37373.809 
  623700    307.41026   -1539.0832    517.60467    365.84751   -99.349916    37373.809 
  623800    302.66347   -1566.7939    487.98617     287.0963   -103.24708    37373.809 
  623900    300.58877   -1564.3161    487.01331    279.23827   -779.48541    37373.809 
  624000    291.73514   -1557.5424    484.52806    243.57066   -28.917324    37373.809 
  624100    302.31138   -1540.8238    495.69154    319.18283    236.43092    37373.809 
  624200     298.6813    -1551.679    517.28727      313.541   -25.521276    37373.809 
  624300    307.39064   -1550.8981    494.62991     330.9693    373.33013    37373.809 
  624400    293.84644   -1552.2494    490.96689    264.83069    219.55365    37373.809 
  624500     306.9407   -1521.9325    489.51445    352.78889    174.24478    37373.809 
  624600    307.50136   -1508.1132    498.68159    378.30549    419.83083    37373.809 
  624700    300.46461   -1506.8903    520.91952     370.0099    152.09383    37373.809 
  624800    295.53163   -1532.9082    516.11283    316.92302    50.732694    37373.809 
  624900    308.13133   -1545.7425    503.41159    348.24927   -580.26251    37373.809 
  625000    296.15032   -1538.5175    482.34018    280.33315   -398.27385    37373.809 
  625100    307.44709   -1505.5416    502.19257    384.14319   -450.63222    37373.809 
  625200    288.66708   -1492.9115    520.86011    330.68763   -128.63427    37373.809 
  625300    291.65505   -1483.2242    509.94199    342.94144   -170.98345    37373.809 
  625400    303.42983   -1514.0751    511.70572    366.99323   -424.32303    37373.809 
  625500    296.05655   -1501.9803    503.06377    337.17083   -414.71658    37373.809 
  625600    301.48156   -1505.7559    533.14172    387.95595   -594.13015    37373.809 
  625700    298.90016   -1504.9364    536.35464    380.33867   -1087.9922    37373.809 
  625800    292.55013   -1503.3167    524.17071    341.11705   -616.54154    37373.809 
  625900    299.18757   -1499.0992    535.45735    386.57563   -391.64124    37373.809 
  626000    288.97177   -1514.1953    504.94022      294.859   -551.10248    37373.809 
  626100     301.0687   -1505.2787    497.51741    350.94558    -256.2785    37373.809 
  626200    302.91389   -1531.6517    488.52501    323.90743   -478.19569    37373.809 
  626300    305.12091   -1507.1094    520.08914    389.97403   -451.11647    37373.809 
  626400     292.9434   -1510.5239    526.90227    338.41625   -509.98205    37373.809 
  626500    311.24294   -1489.2036    524.70766    440.12682   -259.17551    37373.809 
  626600    298.85835   -1533.1989    489.61245    305.14523    265.01972    37373.809 
  626700    299.42038   -1519.0188    510.72055    342.96988   -261.80005    37373.809 
  626800    298.46717   -1492.7736    515.13846    369.33121   -467.08262    37373.809 
  626900     291.0612   -1495.0867    507.01812    325.47505   -402.07002    37373.809 
  627000    302.40489   -1499.0764    516.42853    382.08913   -471.68608    37373.809 
  627100     307.8465   -1514.5792    534.00078    408.71637   -160.65476    37373.809 
  627200    293.48664   -1500.6113    536.78302    360.66122   -176.10265    37373.809 
  627300    296.70418   -1529.7723    502.83801    312.07578     339.4531    37373.809 
  627400    293.73617   -1530.1289    516.16578    311.65245    235.04069    37373.809 
  627500    306.26344   -1530.0364    515.62473    367.73884    -70.64832    37373.809 
  627600    308.28367   -1492.9348      527.915    426.24795    382.75663    37373.809 
  627700    308.68542   -1534.5408    492.29969    350.83964      38.8376    37373.809 
  627800    296.43311   -1521.1938    525.34554    341.93854    278.79847    37373.809 
  627900     299.6553   -1506.1274    531.27228    377.47321    3.1190863    37373.809 
  628000    301.31001   -1554.7018     504.0186    309.11272    20.416185    37373.809 
  628100     292.5647   -1509.6551    516.38233    327.05601   -403.00282    37373.809 
  628200    302.49844   -1541.0363    489.12718    313.25013    -152.2714    37373.809 
  628300    290.63346   -1528.1238    524.71548    308.20497   -352.69976    37373.809 
  628400    293.13121   -1526.9871    510.03781    305.93616   -202.08751    37373.809 
  628500    294.23588   -1551.1485    510.83105    287.55326   -122.74786    37373.809 
  628600    297.39741   -1540.7941    530.56175    331.90626   -118.49504    37373.809 
  628700    293.27297   -1548.1347    524.13186     299.5224   -846.16959    37373.809 
  628800    309.27372   -1546.5622    491.01931    340.19284   -453.17258    37373.809 
  628900    292.35154   -1566.3373    494.51519    247.54471   -789.37295    37373.809 
  629000    314.41752   -1532.3683    508.79676    395.37792   -137.76814    37373.809 
  629100    290.49795   -1564.6302    491.15065    237.52212    483.02121    37373.809 
  629200    309.96074   -1550.1858    508.77637    357.42677    296.02205    37373.809 
  629300    311.97658    -1556.111    507.09921    358.92174    47.161221    37373.809 
  629400    291.18034   -1507.8253    531.56879    337.82472   -161.22123    37373.809 
  629500    297.16991   -1520.1705    533.21876    354.16011    166.74496    37373.809 
  629600    290.40025   -1488.7504    539.80766    361.61802   -133.44779    37373.809 
  629700    308.27909   -1470.1366    493.02233    414.13271   -89.403831    37373.809 
  629800    304.26427   -1482.8685    511.81961    402.07946    467.25795    37373.809 
  629900    285.09027   -1487.4178    494.42938    293.60862   -273.65282    37373.809 
  630000    310.08941   -1476.8297    507.20696    429.79414    153.17645    37373.809 
  630100    300.94853    -1514.718    506.64261    350.08917    703.88158    37373.809 
  630200    301.85579   -1539.7404    505.51314    328.03178     625.5102    37373.809 
  630300    300.75213   -1546.8397    511.39704    321.83561   -178.90497    37373.809 
  630400    297.26777   -1551.5354    510.13212    300.15025   -723.82104    37373.809 
  630500    290.10137   -1518.4428    529.53866     320.3078   -638.28117    37373.809 
  630600    293.79181   -1546.9203    523.54351    302.48989   -800.45877    37373.809 
  630700    295.60319   -1493.2248    491.23379    332.05037   -706.07912    37373.809 
  630800     295.8039   -1515.2596    512.46983    332.15744   -981.43553    37373.809 
  630900    294.23948    -1467.524    505.58241    365.94539   -221.90303    37373.809 
  631000    315.93431   -1510.1746    505.34268    420.96269    -1161.236    37373.809 
  631100    299.48119    -1572.658    505.48028    284.36481    -950.8756    37373.809 
  631200    304.68938   -1521.1668    509.31198    363.19206   -1328.8602    37373.809 
  631300    296.40431   -1485.4774    501.57087    353.75018   -1323.3011    37373.809 
  631400     302.9989   -1487.5535    507.95195    387.81627   -726.30056    37373.809 
  631500     302.9779   -1480.7363     539.3446    425.93128   -961.91391    37373.809 
  631600    307.64003   -1461.6268    535.25822    461.99444   -407.02086    37373.809 
  631700    306.49604   -1535.5772    516.16854    363.79153    341.25918    37373.809 
  631800    294.44876   -1488.9071    521.46709    361.39146    262.76703    37373.809 
  631900    288.80534   -1515.2177    541.93665    330.08196    432.10044    37373.809 
  632000    293.82344   -1513.8308    509.03249    321.21116   -75.614677    37373.809 
  632100    308.76483   -1485.3837      526.245    434.30046    233.01666    37373.809 
  632200    305.86167   -1520.4709    502.16888    362.03527     110.4649    37373.809 
  632300    298.83185   -1483.4042    519.13558    384.34355     184.6222    37373.809 
  632400    300.96385     -1464.59    523.38835    417.03204    80.143097    37373.809 
  632500    295.14193   -1432.8628    526.35407    425.45096   -8.5374472    37373.809 
  632600    299.58234   -1485.5084    501.51197    368.00262    85.603505    37373.809 
  632700    305.69824   -1470.2236    520.51222    429.88835    442.77811    37373.809 
  632800    291.44458   -1498.0024    535.17736    352.44876   -91.898274    37373.809 
  632900    307.68676   -1536.8545    498.10641    349.82578   -243.05979    37373.809 
  633000    289.48873   -1517.2801    519.89323    309.06029   -822.93629    37373.809 
  633100    301.12552    -1529.439    508.98443    338.50877   -96.707643    37373.809 
  633200    304.84956   -1496.7041    492.20479    371.27044   -182.40416    37373.809 
  633300    301.36499   -1528.0658    549.56373    381.54198   -225.84586    37373.809 
  633400    310.79642   -1506.5883    495.10769      391.127    23.181388    37373.809 
  633500    299.49911   -1509.4131    539.07276    381.28307    596.32495    37373.809 
  633600    304.60244    -1546.511    514.23151    342.37495    149.69862    37373.809 
  633700    303.13442    -1530.618    514.64694    352.05839    467.36412    37373.809 
  633800    307.99262   -1519.5303    499.50599    369.92985    399.64134    37373.809 
  633900    301.46937   -1552.3388     510.9492    319.12554     163.9944    37373.809 
  634000    297.96482    -1543.512    526.03164    327.21894    170.25433    37373.809 
  634100    296.70518   -1542.8636    537.81394    333.96497   -111.92598    37373.809 
  634200    311.30468   -1562.2798    512.30036    354.92189    135.67963    37373.809 
  634300    304.06879   -1563.4391    511.65067    320.45768    152.37918    37373.809 
  634400    305.92597   -1482.5555    522.64463    420.71663    79.817895    37373.809 
  634500    301.35961   -1514.9618    526.81006    371.86803    35.759743    37373.809 
  634600    307.11947   -1516.4518    503.89323    373.45518   -170.97364    37373.809 
  634700    308.74336   -1528.2232    505.06985    370.18894    48.489687    37373.809 
  634800    308.18803   -1532.4175    510.05454    368.47306     498.7939    37373.809 
  634900    305.52456   -1506.5061    528.53969    400.84952     110.8978    37373.809 
  635000    300.51674   -1504.6884    521.22881    372.75637    272.32917    37373.809 
  635100    298.98233   -1520.3477    546.85623    375.79979    131.98708    37373.809 
  635200    311.41056    -1518.994    531.79375    418.17893   -220.66329    37373.809 
  635300    306.69194   -1531.5124    508.47385    361.04572    373.01189    37373.809 
  635400    294.14671   -1533.1731    507.30646    301.60176   -213.57423    37373.809 
  635500    310.12335    -1512.021    541.63577    429.18486    11.393435    37373.809 
  635600    304.10132   -1522.6614    516.41239    366.14391   -231.22505    37373.809 
  635700     298.1828   -1498.8764    532.35489    379.16153   -261.62846    37373.809 
  635800    308.10977   -1493.4215    504.94714    402.00855    78.525854    37373.809 
  635900    295.83874   -1556.8914    526.39064    304.60364   -99.819825    37373.809 
  636000    309.33069   -1522.3288    522.83365    396.49767    507.29539    37373.809 
  636100     311.2233   -1517.8669    525.01403    411.68121    890.28209    37373.809 
  636200    312.31945   -1516.7976    514.07889    406.76217     679.6248    37373.809 
  636300    303.29693   -1535.7001    510.93082    343.99355     43.28692    37373.809 
  636400    297.16264   -1515.7284    485.05744    310.40815    258.70309    37373.809 
  636500     311.1117   -1522.8434    533.53946    414.72645    338.43607    37373.809 
  636600    294.43921   -1518.7096    516.82709    326.90583    522.59053    37373.809 
  636700    290.75591   -1511.8969    530.73273    331.00172    433.86567    37373.809 
  636800    306.93629    -1522.552    520.94842    383.58344    164.37975    37373.809 
  636900    296.22134   -1501.4239    547.34082    382.74794    543.41368    37373.809 
  637000    307.56847   -1505.3335    478.11219    360.81867    237.54531    37373.809 
  637100    298.32531   -1504.1742    530.09251     372.2445   -337.53905    37373.809 
  637200    301.77833   -1540.8068    462.17416    283.27679   -373.78852    37373.809 
  637300     302.7233   -1518.1055    519.28771    367.35622   -479.53185    37373.809 
  637400    300.46343   -1512.2484    541.26677    384.99378   -231.25334    37373.809 
  637500    293.55221   -1532.2232    498.70212    291.26432    -168.2535    37373.809 
  637600    294.35959   -1509.5953    520.26189    339.09564   -259.18262    37373.809 
  637700    288.34093   -1498.8474    523.67705    326.09683    -132.2619    37373.809 
  637800    303.47437   -1535.6246    490.15426     324.0932   -42.047338    37373.809 
  637900     297.8785   -1520.0194    503.78277    328.07303    611.48246    37373.809 
  638000    289.67198    -1539.475    523.17698    290.97614     143.0162    37373.809 
  638100    300.39273   -1543.5242    495.57784    307.70999   -10.944959    37373.809 
  638200    296.97053   -1557.6842    503.21327    285.74114   -254.54209    37373.809 
  638300    298.71894   -1507.0286    513.34099    354.41499   -178.55704    37373.809 
  638400    276.67267   -1537.2881    521.99842    233.31923    -293.4872    37373.809 
  638500    307.66512   -1535.5567    495.04102    347.96051   -133.98068    37373.809 
  638600    301.09475   -1495.5137    525.53663    388.84743   -583.48837    37373.809 
  638700    310.73757   -1476.4507    515.50036    441.39167    402.26708    37373.809 
  638800    297.80252   -1496.1719    558.92123    406.71611    384.58517    37373.809 
  638900    299.92906   -1528.8072    514.69377    339.45035    225.47723    37373.809 
  639000    288.37997   -1507.3398    521.29014     315.3937   -204.04882    37373.809 
  639100    297.67165   -1483.5573    529.43423    389.25311   -53.090807    37373.809 
  639200    300.65933   -1527.4498    526.04745    355.45709    155.42754    37373.809 
  639300    295.24167   -1509.4852    518.66246    341.58712    625.07544    37373.809 
  639400    300.70365   -1504.6657    546.32963     398.7234    388.08012    37373.809 
  639500    302.73046   -1500.7332    513.37225    378.84538    81.034807    37373.809 
  639600     294.7096   -1518.5339    481.30968    292.78445   -414.25051    37373.809 
  639700    311.65675   -1532.3632    513.11467    387.24165   -786.21435    37373.809 
  639800    296.27982   -1534.1482    517.73754    320.68428   -502.53248    37373.809 
  639900    299.15345   -1546.0906    483.80808    287.78097   -545.08023    37373.809 
  640000    298.32837   -1527.5293    507.03822    325.84884   -166.76224    37373.809 
  640100    296.81287   -1476.9223     528.0395    390.61774   -485.69541    37373.809 
  640200    296.32681   -1482.6986    495.13066    349.73911   -597.70543    37373.809 
  640300    301.74462    -1517.068    503.67021    348.35946   -46.131805    37373.809 
  640400    303.90112   -1497.7557     521.5738    395.30759    250.99272    37373.809 
  640500    290.30627   -1493.4817    511.35827    328.01322   -182.01686    37373.809 
  640600    290.34659   -1501.2777    530.01585    339.05672   -399.47769    37373.809 
  640700     294.9343   -1473.9977    503.47376    360.49874   -859.59045    37373.809 
  640800    291.47979   -1497.1474    512.38596    330.67118   -397.78529    37373.809 
  640900    303.54038   -1491.7705    521.85576    399.94672    297.65796    37373.809 
  641000    292.21354   -1479.7296    523.86805    362.88246    545.64883    37373.809 
  641100    294.99259   -1523.2857    514.25891    322.25893   -47.861159    37373.809 
  641200    306.16188   -1515.0398    507.27317     373.9255    151.53212    37373.809 
  641300    296.51771   -1504.4186    497.76172    331.51161    -691.9334    37373.809 
  641400    297.52069   -1538.8758    511.19995     315.0191   -280.56103    37373.809 
  641500     286.6372   -1499.5011    537.97823    332.05543    413.03258    37373.809 
  641600    308.82703   -1511.5368     515.1738    397.35681    274.34976    37373.809 
  641700    305.26904   -1514.7849    524.13015    387.00803    110.20221    37373.809 
  641800    308.74767   -1482.2954    496.94693    408.01318    371.34865    37373.809 
  641900    305.59737   -1522.9505    513.92662    370.12071   -66.355442    37373.809 
  642000      306.945   -1520.0988    524.77093    389.89852    630.90391    37373.809 
  642100     294.0837   -1520.2413    516.96499    323.90763   -39.573222    37373.809 
  642200    307.01832   -1520.7847     506.3692    371.14177   -176.66566    37373.809 
  642300    294.95526   -1442.8626    511.06207    399.31674   -381.61476    37373.809 
  642400    292.38397   -1463.2534    513.03052    369.29032   -269.25332    37373.809 
  642500     282.3489     -1473.51    534.16712    334.88257    -109.4066    37373.809 
  642600    298.89018    -1464.843    514.28487    398.31721   -28.074685    37373.809 
  642700     308.6332   -1483.6732    508.40021    417.57209    116.56038    37373.809 
  642800    312.11167   -1508.0949    540.88568    441.33401    387.81554    37373.809 
  642900    297.12321   -1448.5013    521.09884    413.49869    93.023069    37373.809 
  643000    309.05619   -1462.4796    492.86856    425.14295    29.752869    37373.809 
  643100    284.37014   -1460.0984    526.96282    350.21162    401.81582    37373.809 
  643200    299.18573   -1474.2597    526.98591    402.93533    564.89104    37373.809 
  643300    305.60184   -1503.1021    517.48055    393.54321    179.69373    37373.809 
  643400    296.95506   -1545.6876    472.74259     267.1973    8.2057577    37373.809 
  643500    300.94893   -1490.1039    526.95587    395.01836    39.545849    37373.809 
  643600    298.05807   -1530.3917     491.0478    305.77621   -601.63947    37373.809 
  643700    308.17421   -1545.3203     526.9534    372.40685   -43.201221    37373.809 
  643800    297.44813   -1517.9762     500.5085    324.89973    225.72698    37373.809 
  643900    314.59176   -1490.6867    521.21422     450.2633   -99.036317    37373.809 
  644000    301.81394   -1518.2793    489.77893    333.56972    297.21622    37373.809 
  644100    304.39819   -1504.4718    515.81052    385.07139    734.46709    37373.809 
  644200    306.77143   -1498.1302    505.64379    391.95658    248.16705    37373.809 
  644300    301.63969   -1550.2385    507.22641     318.2717    -355.1391    37373.809 
  644400    288.85324   -1527.4187    524.04691    300.20742    516.97229    37373.809 
  644500    296.26858   -1542.9632    534.02324    328.10427    485.37528    37373.809 
  644600     301.8093   -1479.6161     558.4915    440.92458    1199.4509    37373.809 
  644700    298.25489   -1452.8786     517.9822    411.11191    736.01838    37373.809 
  644800    297.73406   -1527.4321    521.03368    337.25948     1095.891    37373.809 
  644900    302.06146   -1531.5824    510.98151    342.58623    244.75813    37373.809 
  645000     304.8432   -1483.7204    546.86547    438.88604    150.32861    37373.809 
  645100     298.4611   -1464.3878    496.23635    378.78754   -468.61268    37373.809 
  645200    286.62951   -1495.5966    507.79085    305.73793   -494.28247    37373.809 
  645300    310.55947    -1513.355     486.7498    374.93302   -416.30151    37373.809 
  645400    301.43738   -1513.5606    497.57356    344.38374    43.748083    37373.809 
  645500    301.06308   -1491.4503    510.14513    377.37634    39.250285    37373.809 
  645600    292.74671   -1501.4478    518.65637    338.35879   -65.009819    37373.809 
  645700    302.60192    -1531.312     484.2563    318.57059    469.90337    37373.809 
  645800    302.56318    -1549.965    517.63784    333.12421    336.09397    37373.809 
  645900    296.51794    -1550.035     518.1181    306.25263    507.36475    37373.809 
  646000    305.20281   -1519.6238     512.1818    369.92194    393.21442    37373.809 
  646100    305.33786   -1561.2156    520.34475     337.1025    201.43901    37373.809 
  646200     292.4927   -1533.2621    525.00252    311.74433   -163.97705    37373.809 
  646300    300.84975   -1518.3089    506.13322    345.54316   -200.66415    37373.809 
  646400    289.31595    -1529.402    493.81434    270.07978    169.81682    37373.809 
  646500    304.03295     -1532.47    491.58314    331.19754     359.8465    37373.809 
  646600    303.69599   -1522.4285    515.59154    363.72678    173.14805    37373.809 
  646700    298.00898   -1508.0502    519.62675    356.47511    439.22801    37373.809 
  646800    290.51809   -1501.3968    499.09179    308.78758    730.34648    37373.809 
  646900    303.56761   -1508.2617    516.65734    378.38001    498.79676    37373.809 
  647000    315.57352   -1476.2811    523.48174      471.367    283.35027    37373.809 
  647100    292.08016   -1486.1561    501.73102    333.71701    433.09816    37373.809 
  647200    299.41061    -1479.634    524.91854    396.50855    463.37035    37373.809 
  647300    289.45219   -1486.1494    504.78939    324.92224    83.209059    37373.809 
  647400    308.74492   -1491.3854    527.50812    429.47203    309.10759    37373.809 
  647500    298.16224   -1461.6137    491.40029    375.37677    530.23365    37373.809 
  647600    293.66721    -1455.565     528.3503    398.08966    103.17661    37373.809 
  647700    285.78732   -1487.3425    520.71497    323.11532     257.4273    37373.809 
  647800    294.32293   -1447.9927    503.86866    384.13954    188.65707    37373.809 
  647900    304.99441   -1455.4764    552.04809    472.99515   -58.238891    37373.809 
  648000    295.19161   -1456.0207    488.82836    364.99153   -163.33635    37373.809 
  648100    303.86683   -1485.5851    509.08939    394.83903   -30.821626    37373.809 
  648200    300.67198   -1486.5486     515.6744    386.04237    37.244788    37373.809 
  648300    303.47242   -1474.3795    519.62551    414.80074   -97.912508    37373.809 
  648400    298.36305   -1483.3154    519.52252    382.70361   -13.675903    37373.809 
  648500    294.76092   -1462.0763    516.24881    384.41278    946.78836    37373.809 
  648600    294.93807   -1449.5166    527.73713    409.26022    815.29893    37373.809 
  648700     308.8621   -1449.8844    534.21566    478.20935    634.14772    37373.809 
  648800    302.39504   -1428.1942    501.91761    438.41608    128.54118    37373.809 
  648900    298.31614   -1477.8607    494.00331    362.42741    374.48771    37373.809 
  649000     298.1465   -1474.6331    525.24685    396.13295   -119.33545    37373.809 
  649100    307.60935   -1498.1782    516.34482    406.39114     495.5139    37373.809 
  649200    308.34366   -1490.0424    513.36891    414.86491    751.43377    37373.809 
  649300    306.26136   -1468.5483    510.68766    424.28042   -51.481393    37373.809 
  649400    303.34587   -1477.5709    515.85562    407.26839    795.44623    37373.809 
  649500    301.82502   -1495.1339    488.03651    355.02277    32.719258    37373.809 
  649600    298.11585   -1491.5411    511.73803    365.57776    10.374077    37373.809 
  649700    303.05383   -1511.0659    489.86561    346.46537   -498.68198    37373.809 
  649800    301.09322   -1520.7204    510.28869    348.38581   -911.96745    37373.809 
  649900    300.61931   -1519.4388    512.30497      349.545   -640.15309    37373.809 
  650000    302.24676   -1501.3504    484.42583    347.09883   -533.48159    37373.809 
  650100    295.06497   -1492.8421    521.70624    360.47651    150.13381    37373.809 
  650200    303.66961    -1470.681    502.33579    402.09944    190.99167    37373.809 
  650300    310.22276   -1516.8794    508.18062    391.31995      515.839    37373.809 
  650400    294.04745    -1495.303    511.83757    343.55492    629.01862    37373.809 
  650500    301.98618   -1524.1436     489.5206    328.22446    74.464949    37373.809 
  650600     304.3619   -1479.8417    534.87215    428.59935   -529.21203    37373.809 
  650700    295.83869   -1488.5517     508.7697    355.32218   -192.31278    37373.809 
  650800      297.825   -1456.8425    531.23462    418.46041   -866.17386    37373.809 
  650900    313.30597    -1505.081    518.54641    427.39841   -319.85745    37373.809 
  651000    306.85564   -1522.3648    499.61566    362.07394    361.68688    37373.809 
  651100    301.67028   -1523.3855    544.82251    382.85879   -548.37456    37373.809 
  651200    298.02839   -1474.9152     502.5779    372.64883   -10.014053    37373.809 
  651300    299.90224    -1463.184     520.8353    411.09401   -168.02162    37373.809 
  651400    299.14696   -1496.5254    518.69933     372.2082   -363.41773    37373.809 
  651500    307.99425    -1507.638    509.63032    391.95381    94.978071    37373.809 
  651600    293.83396   -1481.3828    511.28296    355.95705   -427.01793    37373.809 
  651700    296.69233   -1522.8006    502.21721    318.37315    276.04946    37373.809 
  651800    302.42919   -1538.9767    518.24566    344.11568    133.86148    37373.809 
  651900    309.72472   -1523.7898    499.86376    373.84501    222.44885    37373.809 
  652000    295.13218   -1540.8329    501.65064    292.73346    71.053958    37373.809 
  652100    308.92714   -1520.9392    483.83351    357.06593     408.2436    37373.809 
  652200    303.62104   -1470.8013    494.61846    394.04259   -17.686312    37373.809 
  652300    285.30078   -1485.3598    510.36724     312.5546   -222.16432    37373.809 
  652400    303.70644    -1518.506    523.57311    375.67795   -599.47613    37373.809 
  652500    301.73555    -1499.502    519.90205    382.11644   -18.043177    37373.809 
  652600    306.41241   -1488.0317    479.88835    374.67943    -10.35507    37373.809 
  652700    294.83697   -1490.4108    498.08895    338.26158   -510.99813    37373.809 
  652800    306.24999   -1464.1301    510.10342    428.06316   -801.91936    37373.809 
  652900    283.07117   -1498.0221    489.96128    269.42423   -1057.1866    37373.809 
  653000    296.72184    -1491.074    493.22064    341.23636   -628.65144    37373.809 
  653100    288.04272   -1496.2535    518.47884    322.14664   -692.63589    37373.809 
  653200    288.68629   -1489.5572    536.81928    350.08781    118.98465    37373.809 
  653300    308.99245   -1537.8487    505.98337    362.60107    400.62414    37373.809 
  653400    306.49867   -1532.8201    515.64703    366.03904    509.97926    37373.809 
  653500    297.08733   -1498.6402     530.4173    372.51629    596.78538    37373.809 
  653600    293.45032   -1507.2922    505.96677    323.00019    293.19759    37373.809 
  653700    292.25567    -1452.924    518.34052    384.35063    236.49368    37373.809 
  653800    303.82327   -1473.0463    486.64383    384.73564    253.52659    37373.809 
  653900    292.07115   -1462.6093    537.33637    392.82849   -11.773715    37373.809 
  654000    309.12344   -1438.1707    516.14117    473.02795    159.16772    37373.809 
  654100    294.05385   -1454.9651    532.65668    404.74086   -124.26772    37373.809 
  654200    299.62599   -1474.4686    502.19592    379.92334   -339.81005    37373.809 
  654300    302.42853   -1523.0416    505.61364    347.41578    -598.8136    37373.809 
  654400    305.15175   -1506.0417    495.08829    366.18004   -343.26027    37373.809 
  654500    301.99451   -1481.9935    486.46915    367.36076   -837.38122    37373.809 
  654600    308.40353   -1513.4021    519.37717    397.78367   -926.83002    37373.809 
  654700    301.13618   -1490.0582    501.10749    370.06072   -682.90244    37373.809 
  654800    311.78055   -1494.9009    490.16952    402.31756   -124.55866    37373.809 
  654900    300.24505   -1470.9535    509.46737    393.50371    230.68498    37373.809 
  655000    302.88848   -1477.3417     538.6829    428.26071   -139.87474    37373.809 
  655100    298.27937   -1488.9932    514.76159    371.88717    72.024343    37373.809 
  655200    287.56327    -1442.378    509.70427    365.08393    478.60353    37373.809 
  655300    297.70544   -1472.5998    517.37056     388.2995    256.57867    37373.809 
  655400    290.09313   -1499.5835    527.04082    336.63206   -380.16427    37373.809 
  655500    301.86298   -1430.9468    522.74237    454.08705    71.583363    37373.809 
  655600    303.94022   -1464.5348    500.19458    407.32565    451.28703    37373.809 
  655700    298.12888   -1453.9991    531.75038    423.19092    303.85201    37373.809 
  655800    297.73239   -1450.7919     545.7369    438.59534    230.67124    37373.809 
  655900    301.33895    -1424.598    532.94439    468.27295    568.32471    37373.809 
  656000    294.93179   -1435.2492     527.6393    423.40149    125.21556    37373.809 
  656100    302.94086   -1495.0126    529.22906    401.37233      101.568    37373.809 
  656200    294.26991   -1504.0872    511.27341    335.21056    136.84996    37373.809 
  656300    296.88618   -1449.4776    522.13613    412.48991    350.55339    37373.809 
  656400    286.29914   -1447.6147     511.3833    355.82128   -377.30326    37373.809 
  656500    304.17278   -1479.3832    535.76298    429.09523     -368.456    37373.809 
  656600    305.84663   -1491.8134    505.95034    394.40644   -54.161786    37373.809 
  656700     301.1361   -1530.3398    512.12801    340.79929   -687.18784    37373.809 
  656800    305.40418   -1499.2447    514.02125    393.04923   -545.11557    37373.809 
  656900    295.01609   -1472.6704      513.785    372.50641   -365.02446    37373.809 
  657000    302.05021   -1506.2963    500.50291    357.34299   -537.58272    37373.809 
  657100     301.5253   -1483.7953    514.19357    391.16577   -368.62238    37373.809 
  657200    298.47724   -1471.7267    513.53182    388.81688   -519.30069    37373.809 
  657300    307.35824   -1479.3761    528.08395    435.79914   -306.89142    37373.809 
  657400    293.86341   -1517.1568     501.5466    310.57959   -26.351454    37373.809 
  657500    302.74884   -1501.1683    515.55369    380.67465   -265.62681    37373.809 
  657600    300.77485   -1490.9655    517.31415    383.72948   -902.27972    37373.809 
  657700    296.71648   -1520.7843    511.28614    329.56741   -604.05864    37373.809 
  657800    303.66537   -1502.8796    520.59995    388.14592   -470.46385    37373.809 
  657900    302.48032   -1504.2344    505.37559     366.2187   -442.80461    37373.809 
  658000    295.91111   -1522.3917    517.87464    330.91393   -865.70288    37373.809 
  658100    296.66081   -1530.1642    508.49326    317.14339   -608.56898    37373.809 
  658200    288.59852   -1478.9805    508.61418    332.06329    -399.4109    37373.809 
  658300    288.60051   -1505.7085    517.49273    314.22289    -868.2363    37373.809 
  658400    300.30186   -1511.9553    504.95225    348.24316    -594.7236    37373.809 
  658500     300.1402   -1458.1049    531.06078    427.47258   -537.54189    37373.809 
  658600    299.20667   -1525.3996    480.35237    305.25643   -378.55328    37373.809 
  658700     301.5666   -1512.8961     536.9198    384.97757    -231.8393    37373.809 
  658800     314.0428   -1490.7543    492.02885     418.5329   -100.09685    37373.809 
  658900    288.01723   -1542.4439    515.95452    273.31692   -450.98451    37373.809 
  659000    293.30023   -1521.8492    496.36517    298.16421   -434.55444    37373.809 
  659100    296.97996   -1535.6509    549.62369    354.22747   -337.52345    37373.809 
  659200    298.10185   -1529.4539    529.59968    345.46342    -345.7572    37373.809 
  659300     300.7448   -1508.4378    517.31578    366.12313   -304.57897    37373.809 
  659400    304.13794   -1529.0935    507.93125    351.39596     24.28088    37373.809 
  659500    298.41664   -1451.2728    530.83403    426.29949    330.44581    37373.809 
  659600    291.35851   -1488.0093    514.70977    341.58579   -110.93139    37373.809 
  659700     298.0403   -1578.9102     539.4962    305.62585    844.22577    37373.809 
  659800    300.98158   -1538.1199    528.00452    348.19833    1237.0659    37373.809 
  659900    309.10825   -1551.6897    499.64186    342.94108    945.12381    37373.809 
  660000    303.50924   -1548.1686    515.24484    336.79722    772.31127    37373.809 
  660100    294.13879    -1568.571    494.95026    253.81184    394.11851    37373.809 
  660200    299.60983   -1556.9496     519.8673     315.0408   -195.76544    37373.809 
  660300    307.73059   -1528.2687    504.19026    364.69317    132.06867    37373.809 
  660400    303.90504   -1521.8026    493.96063     343.6652    453.73993    37373.809 
  660500    308.64417   -1506.0748    538.43765    425.25743    -160.5225    37373.809 
  660600    303.14877   -1495.8994    512.47029    384.66505    -113.5288    37373.809 
  660700     299.7134   -1578.4234     523.2755     297.4426   -664.65204    37373.809 
  660800    302.68553   -1514.1251    527.11987     378.9983   -396.88237    37373.809 
  660900    298.10321   -1506.4862     518.9665    357.80417   -418.25926    37373.809 
  661000    300.64751   -1521.2177    545.08496    380.67335   -371.21646    37373.809 
  661100    297.23931   -1504.9572    533.34667    369.81455   -274.93844    37373.809 
  661200     289.6966   -1492.7993    535.27305    349.85895     277.4513    37373.809 
  661300    306.90155   -1519.5745    498.36669    363.82243    151.69332    37373.809 
  661400    293.00052   -1518.8989    527.69652    331.09326    240.93315    37373.809 
  661500    305.28137   -1518.3865     498.9835    358.31543     121.4281    37373.809 
  661600    298.37001    -1557.646    515.19423    304.07609   -204.81506    37373.809 
  661700    300.43753   -1523.6164    526.08097    358.32303   -189.64347    37373.809 
  661800    298.77232   -1468.5948     542.2787    422.02737   -471.64153    37373.809 
  661900    286.13558    -1513.342    494.94505    272.91759   -1179.1276    37373.809 
  662000    295.70825   -1540.8317    502.36239    296.04621   -576.41937    37373.809 
  662100    297.17709   -1519.4043    522.72427     344.4643    134.61233    37373.809 
  662200    303.77881   -1491.1669     542.9276    422.69814    907.72313    37373.809 
  662300    296.83887   -1526.2203    523.62406    337.02165    1038.7858    37373.809 
  662400    307.64594   -1542.9908    544.46693    389.86578    667.88423    37373.809 
  662500     303.8576   -1514.5036    520.13194    376.92136    349.13685    37373.809 
  662600    299.02211   -1561.5229    534.66647    322.61434    351.91207    37373.809 
  662700    309.85747   -1549.1295    523.79655    373.03722    752.91696    37373.809 
  662800    301.39606    -1514.914     526.7389    372.00918    43.154059    37373.809 
  662900    290.26186   -1477.1954    526.28306    359.02383    108.90951    37373.809 
  663000    312.83242   -1512.3323    497.17351    396.63717    248.14426    37373.809 
  663100    300.06183   -1508.6721    521.90664    367.39752    240.08765    37373.809 
  663200    308.19419   -1492.9453    517.55589    415.47451    314.44168    37373.809 
  663300    296.21051   -1484.5899    528.69439    380.88665    464.06681    37373.809 
  663400    306.80487   -1464.7016    532.30173    452.19403    437.84151    37373.809 
  663500    294.49528   -1433.0968    521.43942    417.38402    540.35085    37373.809 
  663600    308.10978   -1447.8535    537.80391    480.43333    638.31978    37373.809 
  663700    296.48641    -1481.345    525.96953    382.65183    280.93259    37373.809 
  663800    306.27872   -1438.1618    532.27036    476.32796    244.03128    37373.809 
  663900    297.02491   -1443.3402    510.32906    407.44633   -4.8525628    37373.809 
  664000    308.81556   -1465.6356    520.25609    448.28852   -48.537106    37373.809 
  664100    293.09907   -1484.8759    523.36711    361.23158    8.2180739    37373.809 
  664200    300.95297   -1498.8966    521.62954    380.91755    185.02721    37373.809 
  664300    301.66995   -1483.5482    515.68016    393.55232     86.11368    37373.809 
  664400    303.92286   -1478.8842    516.96334    409.66671    702.42312    37373.809 
  664500    301.36915   -1475.0441    549.37071    434.38943    581.65677    37373.809 
  664600     289.8658   -1469.0186    512.37153    351.50176    1217.4403    37373.809 
  664700    294.42865   -1487.0824    509.22266    350.88099    948.73238    37373.809 
  664800    306.27025   -1469.8842    510.35735    422.65438    793.30022    37373.809 
  664900    298.13991   -1461.6748    517.61015    401.42479    759.48103    37373.809 
  665000    291.39988   -1494.6466    500.84114    321.26663    358.59455    37373.809 
  665100    289.90503   -1475.0413    485.95266    319.23718    473.70773    37373.809 
  665200    299.37435   -1483.3448    513.78822    381.50381   -100.84196    37373.809 
  665300    304.45615   -1468.2319    525.31747    431.07985    189.12343    37373.809 
  665400    300.18483    -1499.859    529.33718    384.19626    147.08062    37373.809 
  665500    290.69005   -1502.7938     513.4885    322.56329    392.43933    37373.809 
  665600    294.80625   -1490.3715    501.45465    341.52796    -280.9084    37373.809 
  665700    307.77941   -1461.3052    505.02248    432.70931   -737.56898    37373.809 
  665800    298.45779   -1460.5391    518.73375    405.11861   -1223.5718    37373.809 
  665900    290.22263   -1500.7997    523.63309    332.59257   -404.42527    37373.809 
  666000    296.39416   -1492.1676    527.20543     372.6488    -167.8506    37373.809 
  666100    309.56784   -1506.2526    536.78545     427.5959    879.43293    37373.809 
  666200    310.99778   -1476.0029    520.82438    448.33776    381.46598    37373.809 
  666300    306.75686   -1512.6229    528.14467    399.89905    1009.8327    37373.809 
  666400    300.35122     -1484.36    522.35335    393.46226    494.83234    37373.809 
  666500    302.95062   -1528.9247    515.76877    354.04399    446.32721    37373.809 
  666600    299.85319   -1525.7267    511.65896    339.15367   -97.004893    37373.809 
  666700    302.31472   -1500.6766    501.26949      364.923   -304.75669    37373.809 
  666800    306.40335   -1493.4254    500.96917    390.32563   -359.19346    37373.809 
  666900    297.93897   -1499.6747    496.44767    341.35563   -397.29138    37373.809 
  667000    300.68935   -1508.5343    511.66577    360.12641   -336.60534    37373.809 
  667100    301.33364   -1519.0987    494.78657    335.59045   -188.97139    37373.809 
  667200    310.11732    -1480.712    518.51535    437.34619    223.72885    37373.809 
  667300    308.09351   -1468.8664    515.95916    437.50226    247.99896    37373.809 
  667400    296.26058   -1542.0905     512.4682    307.38582     502.7064    37373.809 
  667500    304.31986   -1520.7181    507.04454    359.70567    626.03109    37373.809 
  667600    298.24342   -1502.2202    514.45481    358.19119    173.01339    37373.809 
  667700    294.11078   -1495.3914    496.18513    328.09988    212.29388    37373.809 
  667800    304.25551   -1523.5379    520.17067    369.72158    716.11291    37373.809 
  667900    295.53007    -1516.757    523.69419    340.64858   -18.875613    37373.809 
  668000    306.34403   -1505.1546    507.56407    384.92362    96.135414    37373.809 
  668100    286.47868   -1486.7759    521.54379     327.6308   -295.10094    37373.809 
  668200    298.13322   -1476.3595    526.67655     395.7763   -290.33022    37373.809 
  668300    304.24042   -1535.0369    485.20705    323.19082    11.954006    37373.809 
  668400    296.70415    -1499.631    512.06153    351.44046    117.69055    37373.809 
  668500    297.69449   -1524.0919    514.13894    333.52638   -157.77812    37373.809 
  668600    294.96335   -1517.4301    512.30068    326.02436   -405.24929    37373.809 
  668700    292.92907   -1496.9317    500.93692    325.97839    450.56314    37373.809 
  668800    299.06716   -1511.7828    514.24662    352.13784    488.12094    37373.809 
  668900    292.58562   -1496.3201    506.05816    330.16123    358.89513    37373.809 
  669000    313.84884   -1499.3981    520.05721    437.04213    246.83055    37373.809 
  669100    298.10094   -1507.8124    490.62089    328.12209    -388.3162    37373.809 
  669200    304.42567   -1525.5038    505.34457     353.6975   -362.50069    37373.809 
  669300    294.85894   -1501.3496    469.94822    299.28119   -1037.1717    37373.809 
  669400    308.06321   -1470.4631    499.52686    419.33655   -813.54062    37373.809 
  669500    289.24218   -1436.7878     521.7948    390.34145    -484.5532    37373.809 
  669600    299.68295   -1474.4274    525.54184    403.56749   -105.21676    37373.809 
  669700    304.14833   -1454.8105    514.58496    432.37952     107.0085    37373.809 
  669800     281.0119   -1499.5444    493.38846    262.03567   -238.60088    37373.809 
  669900    301.29803   -1514.6882    514.46646    359.52012    237.45534    37373.809 
  670000    298.14374   -1475.1325    526.54417    396.91843    380.31578    37373.809 
  670100    300.19524   -1527.0285    492.44161    320.17813    255.40027    37373.809 
  670200    283.52602   -1504.4418    517.06755    292.16345    253.87879    37373.809 
  670300    301.27827   -1513.8847    494.79185    340.55985    761.87795    37373.809 
  670400    304.14046    -1487.353    526.06391    411.28048     76.92525    37373.809 
  670500    291.06266   -1511.9321    498.41548    300.03357   -104.34452    37373.809 
  670600    307.58416    -1516.199    515.87992     387.7917     40.63339    37373.809 
  670700    305.29521    -1491.307    495.14688    381.62084   -126.69601    37373.809 
  670800    294.21899   -1455.9673     537.0154    408.84261   -507.58023    37373.809 
  670900    300.08104   -1472.8296    498.79099     380.2111   -526.63707    37373.809 
  671000     306.2399   -1484.3306    463.41517    361.12883   -75.111688    37373.809 
  671100    291.91235   -1493.2905    494.14641    318.24066    153.26259    37373.809 
  671200    291.63619   -1500.4527    528.82723    344.51301   -129.57323    37373.809 
  671300    295.91606   -1516.2648    468.34241    287.53098    309.44688    37373.809 
  671400      305.018   -1545.8639    516.94671    347.61267    357.07794    37373.809 
  671500     296.4487   -1486.7103    520.31059    371.45735    233.23924    37373.809 
  671600    305.61586   -1487.5449    520.99746    412.68056    341.68225    37373.809 
  671700    300.80759   -1526.1502    494.85763    326.23594    524.59784    37373.809 
  671800    302.89901   -1512.1374    516.77192     371.6015    533.68896    37373.809 
  671900    297.69042   -1515.2436    481.19086    309.40813    1017.5127    37373.809 
  672000    299.95779   -1532.3853    525.68545    346.99361    329.49119    37373.809 
  672100    299.25454   -1506.4531    499.50164    343.56825    278.20549    37373.809 
  672200      298.802   -1489.7041    490.80412     349.5775   -332.67092    37373.809 
  672300    300.18828   -1537.5268    531.51494    348.72181    153.16492    37373.809 
  672400    294.23352   -1519.7453    505.86957    313.98431     636.8931    37373.809 
  672500    302.63372   -1516.1619     536.4893    386.09718    824.13194    37373.809 
  672600    303.90375   -1487.0125    515.86819    400.35701    428.53356    37373.809 
  672700    315.24346   -1510.4702    519.02154    431.22824    160.32842    37373.809 
  672800    307.15698   -1498.6399    491.72092    379.26405    701.43669    37373.809 
  672900    296.73722   -1533.0493    501.80254    307.91241    772.63234    37373.809 
  673000    298.39423   -1531.2888     523.9553    339.30369    373.51264    37373.809 
  673100    295.06176   -1505.5311    514.53839    340.60516    236.74388    37373.809 
  673200    303.89422   -1505.9377     501.7707    367.29136   -104.69374    37373.809 
  673300    303.03758   -1546.4332    516.15072     337.3099   -380.51545    37373.809 
  673400    296.54154   -1513.7654    500.34707    324.85769    112.99391    37373.809 
  673500    294.71815   -1513.8726    530.25623    346.43086    252.82722    37373.809 
  673600    302.59657   -1546.5291    508.82946    327.90246   -213.56582    37373.809 
  673700    293.26165   -1536.6795    505.84975    292.64437    249.07084    37373.809 
  673800    286.60222   -1508.0305    510.84354    296.23351    3.5369878    37373.809 
  673900    309.33845   -1498.5514    492.41122    389.88764   -352.90319    37373.809 
  674000    305.63026   -1471.4459    468.99818    376.84526   -420.02137    37373.809 
  674100    306.60861   -1483.7233    528.43009    428.41496   -218.68238    37373.809 
  674200    305.77388   -1518.1664     501.2802    363.05494   -350.20684    37373.809 
  674300    298.42482   -1495.6262    501.41499    352.56405   -544.31351    37373.809 
  674400    301.71889   -1505.3997    513.89364    370.13517    -212.4033    37373.809 
  674500    310.62105   -1503.3264    511.49644    409.98623    152.62288    37373.809 
  674600    297.65351   -1495.1201    525.50033    373.67457    129.57371    37373.809 
  674700    294.74892   -1511.2877    489.02991    307.92829   -185.51618    37373.809 
  674800    299.10561   -1502.7706    509.25348    356.33044    277.22242    37373.809 
  674900    296.32155   -1495.4576    523.06895    364.89457    452.56352    37373.809 
  675000    299.82806    -1510.723    510.44331    352.82827    18.881562    37373.809 
  675100    294.17274   -1523.3946     494.3582    298.54938   -174.88812    37373.809 
  675200    292.27982   -1497.3051    501.06535    322.80345   -122.81161    37373.809 
  675300    305.82203   -1514.7134    505.51058     370.9556  -0.93463102    37373.809 
  675400    294.86759   -1508.6595    499.36673    321.42881    101.08697    37373.809 
  675500    296.23807   -1540.2315    522.37354    319.04862    350.94368    37373.809 
  675600    294.17125   -1513.6836    507.07696    320.97244   -89.087284    37373.809 
  675700    303.83155   -1471.0665    509.51778    409.62678    107.28979    37373.809 
  675800    300.24974   -1531.5647    495.11912    318.56542   -250.49764    37373.809 
  675900    299.05921   -1507.8222    525.68646    367.50244   -28.956302    37373.809 
  676000    302.57708   -1464.9665    509.29941    409.84707   -325.20158    37373.809 
  676100    307.55383   -1489.0492    510.17446    409.09917   -323.75317    37373.809 
  676200    290.32548   -1462.9837    526.45433    373.69401   -775.72458    37373.809 
  676300    299.57501   -1549.3576    508.16129     310.7696    100.79859    37373.809 
  676400    298.03713   -1556.9904    503.77211    291.80727   -332.84419    37373.809 
  676500    296.23008   -1548.7968    494.50485    282.57851   -127.15981    37373.809 
  676600    298.22638     -1503.42    495.61401    338.07366   -267.88235    37373.809 
  676700    304.32657    -1517.214    501.11303    357.30856   -224.03794    37373.809 
  676800    311.04954   -1533.0621    519.40366    390.09152    627.85313    37373.809 
  676900    295.41521   -1544.8478    510.77231    299.11754    568.26664    37373.809 
  677000    297.58083   -1516.7506    500.40237    326.61811    491.37043    37373.809 
  677100     303.1597   -1520.1709    512.57072    360.54334    465.60947    37373.809 
  677200    303.30671   -1501.4934    510.17847      377.492    163.61126    37373.809 
  677300    288.60528   -1528.6037    524.73826    298.59479    484.43107    37373.809 
  677400    309.50482   -1552.7867    515.46203    359.45401    486.21492    37373.809 
  677500    287.07038    -1551.871    492.74769    236.40993    562.16948    37373.809 
  677600    302.84552   -1526.0626    503.12914    343.79213    56.082923    37373.809 
  677700    299.54098   -1542.7976    511.43299    320.44779    698.70063    37373.809 
  677800    304.60455   -1532.9429    520.77759    362.49874    -94.49204    37373.809 
  677900    296.93672   -1507.5448    503.50846    336.02312   -68.019023    37373.809 
  678000    305.89329   -1573.3718    484.95691    292.06514    210.45692    37373.809 
  678100    291.25182   -1553.8243    497.76589    258.34544   -34.232919    37373.809 
  678200    302.87495   -1555.1041    484.97575    296.73012    125.83881    37373.809 
  678300    307.24832   -1550.5503     519.9374    355.98229    384.28558    37373.809 
  678400    304.00269   -1570.1091    505.80567    307.64438   -358.30676    37373.809 
  678500    285.63288   -1573.0812    514.25667    230.22133   -420.85971    37373.809 
  678600    290.28729   -1582.0021     491.6912    219.74014   -470.24496    37373.809 
  678700    293.73554   -1551.1135    475.39555    249.89481   -407.29821    37373.809 
  678800    306.60533    -1561.281    502.58956    325.00199   -828.60358    37373.809 
  678900    293.18814   -1609.1873    502.84692    216.80201   -505.09521    37373.809 
  679000    301.47014   -1600.9931    529.73327    289.25875   -1.2903263    37373.809 
  679100    299.25183   -1576.0457    534.38963    308.85139    165.36016    37373.809 
  679200    308.69588   -1539.0349    489.96819     344.0613    195.91573    37373.809 
  679300     287.1797   -1521.8598    541.27355    315.44036   -174.00895    37373.809 
  679400    297.39332   -1583.3202    502.23963    261.03952    509.83266    37373.809 
  679500    303.58863   -1540.1208    510.01592    339.97431    457.74529    37373.809 
  679600    303.33315   -1591.9021    511.69202    288.71615    227.55273    37373.809 
  679700    298.57395   -1574.0206    486.75698    260.18461   -40.307274    37373.809 
  679800    293.52096   -1536.5654    544.98339     333.0623   -881.14271    37373.809 
  679900    305.60704   -1510.5419       502.51    371.15628   -519.70169    37373.809 
  680000    296.05627   -1563.5553    519.28575    291.81651   -157.79375    37373.809 
  680100    294.03446   -1558.8841    517.01673    285.09437   -591.36504    37373.809 
  680200    294.75398   -1500.1245    505.31111    335.39549    137.22122    37373.809 
  680300     311.6052   -1464.9908    539.43801    480.70481   -584.45952    37373.809 
  680400    302.96303   -1497.3445    532.65991    402.57131   -932.99035    37373.809 
  680500    310.59281   -1463.7851    495.85471    433.75828   -564.40356    37373.809 
  680600    310.43059   -1498.2084      528.208    430.95625   -568.77188    37373.809 
  680700    293.35627   -1488.5049    539.50039    374.89666   -480.25536    37373.809 
  680800    300.36596   -1509.4833    498.46121    344.51335    -137.9988    37373.809 
  680900    304.82065   -1492.0108    536.53027    420.15874    251.48669    37373.809 
  681000    308.19741   -1544.7153    510.59243    356.75554   -156.33982    37373.809 
  681100    294.90168   -1516.3019     534.0455    348.61905    68.775404    37373.809 
  681200    308.26451   -1530.4982    528.02796    388.71096   -270.67286    37373.809 
  681300    306.44001   -1544.8525    496.08416      334.179   -12.660574    37373.809 
  681400    303.64834    -1565.431    497.38889    302.30653    287.91185    37373.809 
  681500    294.08397   -1557.0903    509.95617    280.05109    16.151438    37373.809 
  681600    286.42046   -1539.2472    491.87896    245.23197   -302.39181    37373.809 
  681700     300.2626   -1530.7296    514.58759    338.92707    51.480663    37373.809 
  681800    311.35542   -1511.4734    531.70727    425.36422    302.12516    37373.809 
  681900    305.54944   -1505.4239    528.11797    401.62232    57.432949    37373.809 
  682000    301.93832    -1515.677    493.47383    340.42826    634.78545    37373.809 
  682100    297.47531   -1508.4819    523.03833    357.04651     453.8289    37373.809 
  682200    302.46366   -1500.6584    534.84182    399.18572    843.27222    37373.809 
  682300    291.28393   -1517.1605    518.02745    315.41566    364.88387    37373.809 
  682400    293.17741   -1528.7503    531.77088    326.11453    488.16902    37373.809 
  682500    305.26083   -1524.6037    499.86611    352.88824    130.37748    37373.809 
  682600    311.90582   -1521.3961    517.77872    403.99683    262.53678    37373.809 
  682700    297.17199   -1505.8128    554.71179    390.02025   -78.286197    37373.809 
  682800    293.51235   -1518.8643     539.0671    344.80835    70.230982    37373.809 
  682900    292.34047   -1518.2463    511.74372    312.81426   -302.03939    37373.809 
  683000    306.46176   -1523.7404     494.1422    353.44725   -479.28573    37373.809 
  683100    314.93441    -1520.784    512.42329     412.9214   -20.643422    37373.809 
  683200    292.70228   -1482.1399    516.07951    354.88932   -557.47416    37373.809 
  683300    309.77825   -1517.3777    488.31915    368.95412    13.402944    37373.809 
  683400    306.64264    -1505.559    500.43812    378.74089    83.533133    37373.809 
  683500     298.9881   -1574.9606    484.73153    259.08817   -330.06346    37373.809 
  683600     296.2989   -1511.9503     514.7915    340.02223    78.724938    37373.809 
  683700    301.65483   -1501.7518     525.8137    385.41396   -177.38755    37373.809 
  683800     301.4065   -1520.9208    491.36904    330.67965   -36.950401    37373.809 
  683900    304.20431   -1518.9659     503.9435    357.83539   -4.0343145    37373.809 
  684000    297.88939   -1527.1619    513.96786    331.16481    141.31645    37373.809 
  684100    303.38645   -1504.4674    522.86441    387.56382    513.08847    37373.809 
  684200    298.39823   -1514.7427    511.13419    343.04675   -53.925133    37373.809 
  684300    292.85078    -1511.021    537.20365    347.80252    128.30737    37373.809 
  684400    288.89384   -1552.4478    524.50346    275.81815    377.25882    37373.809 
  684500    308.35379   -1574.9904    511.45803    328.05179   -82.117571    37373.809 
  684600    303.80937    -1530.676    488.98305    329.38249    188.55109    37373.809 
  684700    304.59414   -1507.2059    556.43928    423.85039    527.26605    37373.809 
  684800    305.75061   -1521.9431    517.18264    375.07566    1029.2093    37373.809 
  684900    310.51008    -1545.256    513.77864    369.83801    648.18709    37373.809 
  685000    295.70405   -1532.3804    514.49435    316.61047    521.31148    37373.809 
  685100    298.06379   -1552.7067    520.29038    312.72963  -0.87744877    37373.809 
  685200    309.88394   -1517.4847    502.84024    383.84509   -122.27569    37373.809 
  685300     301.2005   -1520.8684    489.26596    327.69923    19.023198    37373.809 
  685400    304.19555   -1488.0334    535.01257    419.79739    48.491973    37373.809 
  685500    294.93952   -1513.2111    495.02431    312.85949    251.46285    37373.809 
  685600    306.00282     -1494.25    513.05583    399.78013   -14.531974    37373.809 
  685700    293.06758   -1477.9413     510.9265     355.5835    385.70429    37373.809 
  685800     297.6818   -1549.5022    505.24376    299.16359    81.256736    37373.809 
  685900    299.96567   -1494.4184    510.92649    370.23706    531.60888    37373.809 
  686000    291.23274   -1518.2329    507.78576    303.87058   -345.52617    37373.809 
  686100    301.21956   -1503.0489    535.93192    392.27074   -84.014652    37373.809 
  686200    302.04487   -1533.4507    523.90028    353.56188   -143.19283    37373.809 
  686300    300.39696   -1523.4973    495.50337    327.68146   -179.72301    37373.809 
  686400    309.10498   -1522.5816    489.35145    361.74409   -198.89032    37373.809 
  686500    292.94679   -1486.6654    532.01786    367.40561   -504.85854    37373.809 
  686600    310.30128    -1457.932    522.12513    464.56621    -707.9265    37373.809 
  686700     300.8965   -1471.1641    532.23943    419.00517   -596.61756    37373.809 
  686800    299.69693    -1477.853    531.74287    406.40611   -216.91812    37373.809 
  686900    291.65656   -1480.7917    523.53387    358.97262   -382.37993    37373.809 
  687000    295.48461   -1511.4294    537.00668    359.08349   -275.62638    37373.809 
  687100    303.72121    -1475.035    514.58799    410.23049   -156.20507    37373.809 
  687200    301.41683   -1467.4368    538.17283    431.01399    59.885817    37373.809 
  687300    296.76385   -1474.5339    509.02627    373.77175    272.61754    37373.809 
  687400    300.60678   -1524.3162    492.67122    324.97734    188.93278    37373.809 
  687500    289.45444   -1485.4852    513.63149    334.43869    70.451289    37373.809 
  687600    304.96179    -1535.122    525.35279    366.50701   -24.462793    37373.809 
  687700     298.8549   -1521.3689    508.51073    335.85795    123.09782    37373.809 
  687800    294.84407   -1528.7091    497.41306    299.31949   -37.361109    37373.809 
  687900    298.43943   -1550.1216    532.42841    329.14798    601.39835    37373.809 
  688000    292.65174   -1552.4281     501.9412    270.23468    106.02816    37373.809 
  688100    303.55162   -1470.8256    528.90575    427.99241    134.91606    37373.809 
  688200    300.55572   -1524.6042    507.70017    339.48786   -105.74192    37373.809 
  688300    311.50045   -1509.6831    520.20395    416.30567   -34.858345    37373.809 
  688400    285.70989   -1459.2121     532.3065    362.48785   -330.87872    37373.809 
  688500    314.22422   -1502.4532    508.07269    423.69657   -101.78959    37373.809 
  688600    313.11544   -1507.8318    504.44744    409.68883   -1067.6283    37373.809 
  688700    291.51379   -1505.3398    490.33203    300.57838   -559.29684    37373.809 
  688800    302.47691   -1478.3776    516.33303    403.01748   -322.55514    37373.809 
  688900    300.35007   -1479.5743     506.7429    382.63237   -94.325656    37373.809 
  689000    302.67585   -1443.4033    519.57543    442.13204   -212.03874    37373.809 
  689100    291.23173   -1480.3866    533.04481    366.97143   -814.16597    37373.809 
  689200    303.48032   -1513.6034    494.37599      350.363   -66.886291    37373.809 
  689300    300.66456    -1494.747    499.97676    362.11285   -1054.3555    37373.809 
  689400    287.26955   -1479.7162    508.59207    325.30802   -295.23077    37373.809 
  689500     292.1706   -1510.5227    511.55235    319.57988   -146.36697    37373.809 
  689600    299.84745   -1559.2893    515.08554    308.99179     219.0167    37373.809 
  689700     304.8214   -1544.0663    500.67182    332.24815    568.46305    37373.809 
  689800    292.72963   -1559.2087    500.68071    262.54518    190.02867    37373.809 
  689900    294.08699   -1496.9778    524.07407    354.29509    62.269571    37373.809 
  690000    300.31418    -1547.249     524.3718    332.42464    40.015486    37373.809 
  690100    304.53027   -1513.7572    507.80896    368.38057    117.35759    37373.809 
  690200    301.59197   -1522.9114    513.84073     351.9977    394.33648    37373.809 
  690300    305.39606   -1488.3926    520.77514    410.61863    690.08558    37373.809 
  690400    312.96653   -1489.0282    565.73509    489.10806    503.97523    37373.809 
  690500    299.68765   -1510.1116    492.21403    334.57669   -175.00657    37373.809 
  690600    300.35474   -1503.0983    532.17799     384.5645   -152.59402    37373.809 
  690700    297.18454   -1511.7928    517.91284    347.29795    172.85742    37373.809 
  690800    311.29908   -1516.6489    515.52268    403.74983    196.34499    37373.809 
  690900    287.81228   -1504.3623     523.5475    318.06656   -189.62849    37373.809 
  691000    297.86478   -1463.4034    538.93757    419.78197     633.1248    37373.809 
  691100    305.04168     -1480.21    558.00375    454.43048    162.04662    37373.809 
  691200    303.29808   -1489.5228    515.55862    394.80381     710.1798    37373.809 
  691300    299.23847   -1511.6194    583.42633    422.25411    537.67364    37373.809 
  691400    301.58075   -1449.8155    512.65649    423.85873    185.06237    37373.809 
  691500    308.11411     -1490.81    549.10711    448.79963   -557.99578    37373.809 
  691600    306.18685   -1457.0909    529.46225    454.17624   -397.35365    37373.809 
  691700    303.69643   -1463.1131    535.35177    442.80441   -447.42313    37373.809 
  691800    292.02382   -1458.4089    539.91401    399.39297   -342.15295    37373.809 
  691900    299.79241    -1469.732    539.67411    422.88916   -110.04648    37373.809 
  692000    304.09625   -1519.9541    518.95362    371.36954   -18.164596    37373.809 
  692100    305.16689   -1534.4816    509.04387    351.76403    242.38118    37373.809 
  692200    291.85623   -1541.6049    527.18944    302.71607    341.67615    37373.809 
  692300    304.67758   -1539.9525    508.78115    343.82226    395.11509    37373.809 
  692400    306.33655   -1540.5302    524.61708    366.56732    528.16584    37373.809 
  692500    298.36717   -1546.9395     515.7413    315.31685   -70.839503    37373.809 
  692600    294.40056   -1519.0701    516.61013    326.15395    298.97937    37373.809 
  692700    304.83573   -1523.3474    528.78121    381.14115    313.41439    37373.809 
  692800    296.41539   -1497.4182    557.67692    397.96551    176.10588    37373.809 
  692900    298.02889   -1511.6853    498.96366    332.26674    287.46021    37373.809 
  693000    289.94237   -1514.2508    522.93054     317.1741    128.10334    37373.809 
  693100    298.11185   -1520.3184    517.78167    342.82604   -302.31078    37373.809 
  693200    313.00672   -1515.2885    510.95672    408.25081   -226.64654    37373.809 
  693300    305.32326    -1519.025    498.06174    356.94428   -180.57993    37373.809 
  693400    316.37364   -1542.6139    506.33177    391.49517   -597.71019    37373.809 
  693500    299.03118   -1511.2249    518.33111    356.61796   -179.32073    37373.809 
  693600    298.12992   -1510.7847    507.35273    342.01242      270.971    37373.809 
  693700    299.25435   -1533.5656    516.70073    333.65396    -647.6808    37373.809 
  693800    295.96127   -1511.9831    506.48596    330.16021   -415.78176    37373.809 
  693900    291.03137   -1451.1095    529.34642    391.64593   -765.96873    37373.809 
  694000    297.59317   -1503.6609    537.94769    377.30884   -502.26731    37373.809 
  694100    292.94378   -1540.1023     513.8029    295.74022    49.092503    37373.809 
  694200    300.36746   -1514.3254    536.55477    377.77164    232.68461    37373.809 
  694300    300.85949   -1515.9725    523.45111    365.24132    -254.9525    37373.809 
  694400    306.19446   -1500.6901     519.4338    400.58289   -185.34033    37373.809 
  694500    291.79094   -1501.1205     521.2103    336.92669   -434.68507    37373.809 
  694600     297.0673   -1503.8488    516.27078    353.07076   -364.40345    37373.809 
  694700    296.22524   -1484.0619     523.0077    375.79442   -108.58798    37373.809 
  694800    292.53251   -1499.1473    521.37067    342.40694    201.22839    37373.809 
  694900    313.18243   -1534.7311    510.96251    389.60695    331.80525    37373.809 
  695000    292.09615   -1498.4546    543.38507    363.14471    389.47464    37373.809 
  695100    300.97046   -1484.6424    537.20878    410.82991    278.42311    37373.809 
  695200    291.10534   -1486.5025    557.34465    384.58491   -26.234262    37373.809 
  695300    296.79219   -1518.8203    535.51679    356.10372     239.6976    37373.809 
  695400    310.29805   -1482.9958    500.59365    417.95627   -392.07308    37373.809 
  695500    311.24434   -1498.4914      534.346    440.48368    -84.53926    37373.809 
  695600    300.86119   -1501.5942    508.75922    364.93541   -836.65584    37373.809 
  695700    310.47555   -1474.1209    521.93538    448.97401   -760.03933    37373.809 
  695800    306.18969   -1495.7752    530.79997    416.84249   -203.88163    37373.809 
  695900    296.67606   -1558.1534    510.82314    291.55292   -80.109483    37373.809 
  696000    308.79438    -1498.681    527.15851    422.04998   -214.32237    37373.809 
  696100    305.91461   -1508.8561    523.14668    394.86679   -272.45791    37373.809 
  696200    293.57912   -1531.0667    516.75639    310.59651   -479.91236    37373.809 
  696300    298.55547   -1518.4408    539.50997    368.43398   -133.22983    37373.809 
  696400    299.38654   -1545.3629    546.71194    352.46452     557.2719    37373.809 
  696500    297.09951   -1531.7626    498.19847    307.23007    300.18569    37373.809 
  696600    291.86859   -1538.6397    515.89797    294.44559    5.6581661    37373.809 
  696700    302.36235   -1537.1117     505.5479    332.98127   -394.09585    37373.809 
  696800    298.54008    -1518.282    543.98621    372.99954   -349.89422    37373.809 
  696900    299.38657   -1538.0711    524.20435    337.24881   -279.81642    37373.809 
  697000     286.2004   -1494.0185    510.44643    308.03497   -56.912102    37373.809 
  697100    299.81513   -1518.0782    489.26098     324.2324   -665.68212    37373.809 
  697200    307.79998   -1495.6643    519.22212    412.64268   -336.79007    37373.809 
  697300    306.61304   -1503.7107    517.15425    397.17177    168.47339    37373.809 
  697400    293.80056   -1476.9241    510.35376    359.33584    186.62584    37373.809 
  697500     303.7877   -1517.3688    509.60755    363.21634    17.641189    37373.809 
  697600    302.78307   -1499.0746    507.88086    375.25004   -463.50098    37373.809 
  697700    300.72497   -1471.4392    533.61535    419.33181    168.83236    37373.809 
  697800    291.90019   -1485.3822    510.51488     342.4626   -247.58792    37373.809 
  697900    317.08991   -1496.2121    536.36058    471.15825   -649.74911    37373.809 
  698000    305.51652   -1476.6269    522.10154    424.25436   -530.94526    37373.809 
  698100    304.98589   -1520.8862    522.27069    377.76943   -409.72153    37373.809 
  698200    301.06424   -1474.9595    522.66991    406.39715    325.41006    37373.809 
  698300    309.46229   -1492.0515    555.85144    460.38673    503.92981    37373.809 
  698400    312.19137   -1504.5568    521.58123    425.92732    304.25731    37373.809 
  698500    298.48278   -1490.3315     510.7629     367.4682   -5.9924064    37373.809 
  698600    296.93282   -1490.9565    541.36445    390.44983    433.89192    37373.809 
  698700    301.94606   -1509.1106    516.94756    370.50335    140.39178    37373.809 
  698800    305.33312    -1473.601     529.5518    433.90282    796.77455    37373.809 
  698900    295.45326   -1507.0872    534.78681    361.06433    974.84558    37373.809 
  699000    301.87015    -1492.663    545.67425    415.33507     764.2989    37373.809 
  699100     307.3029   -1512.1269    527.83327    402.54791    206.46153    37373.809 
  699200    302.39503   -1516.3738    504.08297    352.40176    180.29163    37373.809 
  699300    305.94527   -1550.3781    528.58622    358.92269    314.57756    37373.809 
  699400    306.96377   -1509.4319    540.84722     416.7264   -283.40864    37373.809 
  699500     304.8192   -1525.3155    511.87095     362.1882   -38.972005    37373.809 
  699600    301.00425   -1542.4187    507.91644    323.91383    291.16941    37373.809 
  699700    305.51872   -1532.8305    548.76206    394.72116   -61.414233    37373.809 
  699800    307.92889   -1539.9196    519.06273    368.80971    865.47675    37373.809 
  699900    307.20845   -1518.0651    548.48226    416.83247    456.39219    37373.809 
  700000    299.01813   -1515.1463    515.64327    349.94978    217.00259    37373.809 
  700100     296.9035   -1508.8604    569.25946    400.30865    282.49996    37373.809 
  700200    300.55953   -1532.9369    534.36301    357.83518    87.291823    37373.809 
  700300     287.6126   -1519.6074    543.42577    321.79867   -115.38182    37373.809 
  700400    297.91702   -1551.6772    529.51593    322.32232    98.420639    37373.809 
  700500    309.40317    -1551.842    525.72275    370.20073    328.23939    37373.809 
  700600    294.47093   -1559.4279    523.97927    293.48295     255.7381    37373.809 
  700700    304.11908   -1512.9694    533.96417    393.46783    276.38031    37373.809 
  700800    287.96399   -1549.5021    516.56701    266.63093    346.03659    37373.809 
  700900    301.38267   -1524.0045    539.18138    375.30077    430.60494    37373.809 
  701000    308.74392   -1546.9146     518.8918    365.32198    626.44118    37373.809 
  701100    294.67063   -1542.4905    537.59919    324.94145    375.86336    37373.809 
  701200    300.02382    -1531.212    514.92473    337.70413   -231.22663    37373.809 
  701300    302.71403   -1539.6389    515.86625    342.35959   -204.18499    37373.809 
  701400    292.53506   -1559.6622    528.31288    288.84577   -23.233297    37373.809 
  701500    304.32542   -1562.1003    503.41567    314.71964    -426.4499    37373.809 
  701600    295.90154   -1522.9309    528.25849    340.71538   -314.95907    37373.809 
  701700    300.68064   -1485.0382    547.01778    418.93525   -75.818899    37373.809 
  701800    294.71227   -1518.0005    500.58268    312.60289   -270.22821    37373.809 
  701900    304.17569    -1525.259      545.059    392.52864    26.431323    37373.809 
  702000    289.18939   -1494.4999    533.81298    344.40934    304.85089    37373.809 
  702100    307.64275   -1496.6875    525.29099    416.97877   -107.14933    37373.809 
  702200    303.94733   -1526.1777    521.81685    367.33715   -148.45048    37373.809 
  702300    300.82738   -1492.7505    536.51954    401.38687   -811.50338    37373.809 
  702400    300.55966   -1514.6125     532.8979    374.69508   -344.87723    37373.809 
  702500    290.58475   -1505.1729      525.941    332.16148   -895.79315    37373.809 
  702600     290.1671   -1486.6533    537.40131    360.25662   -400.96575    37373.809 
  702700    293.58997   -1507.3165    512.72317     330.3625   -639.60596    37373.809 
  702800    304.88105    -1487.938    525.68529    413.65914   -692.24121    37373.809 
  702900    299.08763    -1564.012    494.82973    280.58419    -356.0552    37373.809 
  703000    296.39404   -1526.1469    565.53438    376.99788   -75.174562    37373.809 
  703100    297.99027   -1540.3275    508.62836    313.11493   -41.521627    37373.809 
  703200    317.09625   -1571.1885    500.23435    360.08425    338.49437    37373.809 
  703300    301.31625   -1542.1953    515.74033    333.36915     115.6875    37373.809 
  703400    302.76073   -1587.5044    500.07181    278.91036    28.783486    37373.809 
  703500    299.34052   -1557.4986    515.51706    308.92622   -200.51797    37373.809 
  703600    312.62417   -1572.6791    519.68234    357.85939    343.28852    37373.809 
  703700     294.5553     -1533.87    542.42469    337.86696   -60.218659    37373.809 
  703800    299.02914   -1568.9542    527.11234    307.66058   -212.30648    37373.809 
  703900    302.30734   -1573.9184     540.4418    330.82018    86.811884    37373.809 
  704000    301.46609    -1565.153      504.441    299.78827    91.555484    37373.809 
  704100    310.06995   -1578.0638    505.45867    326.72391    175.66341    37373.809 
  704200    300.50118   -1608.2266    517.61307    265.53223    514.56732    37373.809 
  704300    295.51827   -1599.8916    527.60449    261.37107    784.67796    37373.809 
  704400    294.34821   -1575.3494    501.81754    254.84585    358.95635    37373.809 
  704500    302.62052   -1587.3804    514.97964    293.30939    528.98221    37373.809 
  704600     312.4671   -1571.6771    477.20293    315.67318    772.78793    37373.809 
  704700    295.13518   -1625.4582    521.80343    228.27448    -58.94929    37373.809 
  704800    292.01146    -1579.596    522.34766    260.58375    168.91208    37373.809 
  704900    291.61125   -1577.5762    517.70926    256.15901    451.34021    37373.809 
  705000    309.23912   -1553.6952     536.7163    378.60063   -377.57055    37373.809 
  705100    314.70772   -1601.3066    513.69688    332.64934    142.98331    37373.809 
  705200    283.51621    -1566.448    508.51497    221.56041    114.20104    37373.809 
  705300    294.47407   -1588.1677    530.77236    271.55039    113.71194    37373.809 
  705400    309.15628   -1543.1225    503.76552    355.84876    214.24865    37373.809 
  705500    298.97623   -1582.1338    507.89736    275.02731    42.474767    37373.809 
  705600    289.28006   -1526.3996    526.58888    305.69474    386.82904    37373.809 
  705700    299.81098   -1570.8828    506.11022    288.25832    356.09704    37373.809 
  705800     296.1757   -1594.1475     500.7684    243.24591    531.64928    37373.809 
  705900     299.7842   -1607.0803    549.29533    295.12502   -81.997824    37373.809 
  706000    290.95893   -1588.1354    511.50296    236.44963    68.308119    37373.809 
  706100    307.47048   -1564.0242    513.70515    337.27872   -731.37752    37373.809 
  706200    288.74306   -1523.4436     522.2999    301.93826   -586.00333    37373.809 
  706300    301.87377   -1516.4648    547.76174    393.63706   -38.730104    37373.809 
  706400    302.79647   -1546.1123    484.05809    304.45003    302.76242    37373.809 
  706500    302.74541   -1533.6693    569.58938     402.1939    496.76339    37373.809 
  706600    295.15262   -1573.4689    509.59584    268.13489    322.00153    37373.809 
  706700    305.96819   -1581.2437    520.57993    320.15422    562.59976    37373.809 
  706800    293.73861   -1631.3543    526.93809    221.21039    311.78963    37373.809 
  706900    311.15763   -1571.5999    523.20364    355.84148    347.06499    37373.809 
  707000    296.52899   -1572.3148    524.32954    290.23421   -110.55794    37373.809 
  707100    295.11201    -1555.898    507.22886    283.15555   -168.55673    37373.809 
  707200    300.26846   -1593.6699    537.32656    298.75214    350.90099    37373.809 
  707300    301.31646   -1570.3406     503.8453    293.32974    1252.7013    37373.809 
  707400    287.82818   -1610.9913     503.6256    191.58743    168.88222    37373.809 
  707500    290.94176   -1594.3176    528.79903      247.486    347.41582    37373.809 
  707600    296.03066   -1561.3491     517.7286    292.34998   -13.050575    37373.809 
  707700    302.41042   -1550.8802    529.80681    343.68863   -108.27199    37373.809 
  707800    303.23036   -1575.1027     519.4356    312.79526   -204.39708    37373.809 
  707900    293.92437   -1585.1673     495.7307    237.02838    81.670521    37373.809 
  708000    296.37736   -1570.7179    501.52953    268.34674   -278.96163    37373.809 
  708100    306.06221   -1557.1945     530.3285    354.37632   -219.24043    37373.809 
  708200    304.58075    -1559.992    506.92593    321.49049    138.51428    37373.809 
  708300    304.67087   -1556.5225    511.61598    330.05682    909.27551    37373.809 
  708400    297.14032   -1571.2693    529.94157    299.65063    525.47085    37373.809 
  708500    299.25423   -1528.8919    510.20432    331.83074    1026.8299    37373.809 
  708600    306.26649   -1549.3736    510.31599    343.10664    421.55903    37373.809 
  708700    306.48394   -1568.8272    530.19354    344.51189   -113.17028    37373.809 
  708800    291.14714    -1575.305    537.97939    276.60582   -435.57867    37373.809 
  708900    294.01511   -1512.8001    522.58422     336.6585    89.499302    37373.809 
  709000    295.53324   -1527.3225    525.50463    331.90778    -485.3714    37373.809 
  709100     299.4147   -1533.5348    479.43429    297.14196   -191.65234    37373.809 
  709200    304.35816   -1538.8239    541.87085    376.59899   -874.02905    37373.809 
  709300    284.89615   -1546.4113    514.06557    253.37535   -1026.3122    37373.809 
  709400    293.14644   -1555.3525    542.19292    309.79459   -492.17324    37373.809 
  709500    304.23259    -1577.758     506.0551    301.28252   -407.34026    37373.809 
  709600    293.82718   -1551.9011    531.03867    305.16389   -15.866144    37373.809 
  709700    307.60844   -1570.3814    500.40069    318.23974    180.41013    37373.809 
  709800    297.72572   -1564.2618    500.64767     280.0061    202.41372    37373.809 
  709900    290.57685   -1552.9743    532.18487    290.56833    867.72827    37373.809 
  710000    315.16583   -1557.1169    506.08855    371.29816    711.47912    37373.809 
  710100    293.12327   -1599.6586    520.85531    244.04628    231.81191    37373.809 
  710200    291.42643    -1548.286    525.23494    292.14083    475.11673    37373.809 
  710300    301.49968   -1557.0157    509.99302    313.62923     60.27028    37373.809 
  710400    297.36343   -1508.1853    546.91031    380.71027    23.028762    37373.809 
  710500    280.18049   -1512.0037    512.33181    264.76762    390.41409    37373.809 
  710600    295.11867   -1526.5558    527.50729    332.80622    809.97526    37373.809 
  710700    306.82072   -1524.6878    545.93124    405.90888    835.20323    37373.809 
  710800    297.84052   -1543.8192    508.18679    308.50594    403.35205    37373.809 
  710900    299.11665   -1508.9676    531.36305    372.29282    287.55144    37373.809 
  711000    297.51601   -1480.0046    513.76577    376.43491   -232.14584    37373.809 
  711100     304.2983   -1509.3317    496.51061    360.46089   -773.48757    37373.809 
  711200    303.68439   -1491.5793    537.29861    416.23068   -146.10302    37373.809 
  711300    299.80515   -1506.6361    524.06053    370.42907   -173.57999    37373.809 
  711400    296.95994   -1501.0177    519.46946    358.61609    21.807443    37373.809 
  711500    306.43123   -1512.6846    524.61115    394.83433    68.291338    37373.809 
  711600    291.24309   -1481.5575    531.25992    364.06688    343.50055    37373.809 
  711700    301.09043   -1491.7491    511.30641    378.36226    344.33079    37373.809 
  711800    305.35648   -1497.4997    520.68093    401.23869    256.28679    37373.809 
  711900    308.90644   -1483.0542    521.80966    432.83368    222.03445    37373.809 
  712000    300.27373   -1523.6919    505.29239    336.71976   -283.02377    37373.809 
  712100    299.60066   -1522.2521    541.42965    371.25928    326.46029    37373.809 
  712200    306.36592   -1518.2096    523.50409    387.90749    320.43706    37373.809 
  712300    295.32599   -1543.7239     521.8611    310.92762    43.540769    37373.809 
  712400    295.60134   -1515.6006    520.39194    338.82431   -177.90329    37373.809 
  712500    294.07746   -1483.4633    520.95843    364.65092    259.04779    37373.809 
  712600    290.74516   -1526.1158    513.93531    299.93682    194.31432    37373.809 
  712700    290.62079   -1498.2943    507.48074    320.74248    396.28507    37373.809 
  712800    295.83148   -1492.8224    496.64097     338.8902    335.75053    37373.809 
  712900    304.25308   -1542.0565    506.88035    337.90172   -18.274768    37373.809 
  713000    307.08773   -1565.7673    514.64257     334.7458    261.33177    37373.809 
  713100    304.67314   -1549.9574    517.20896    342.22511    862.53686    37373.809 
  713200    302.49387   -1536.4548    521.83419    350.51798    179.99784    37373.809 
  713300    304.27021   -1497.6162    527.82849    403.36748    715.09617    37373.809 
  713400     309.4245   -1547.7636    533.96965    382.62223    322.26686    37373.809 
  713500     305.3524   -1579.2172    515.36444    314.18628   -106.81228    37373.809 
  713600    295.93657    -1540.161    532.07767    327.46252   -495.19293    37373.809 
  713700    300.51953   -1528.8056    502.23204    329.65502    351.41658    37373.809 
  713800    302.99223   -1538.9537    511.90174     340.3357    519.58952    37373.809 
  713900    308.79631   -1518.2913    541.93407    417.22393    24.100532    37373.809 
  714000    312.65324   -1489.3922    540.01936     461.6145    421.12451    37373.809 
  714100    299.81902   -1496.6903    516.45173    372.82855    887.77219    37373.809 
  714200    299.58735   -1481.2726    525.74791      396.497   -115.82122    37373.809 
  714300    309.80786   -1513.0025    530.39586    415.53957    227.35733    37373.809 
  714400    297.27016   -1497.5218    495.93053    339.97307    8.3977514    37373.809 
  714500    292.40955   -1477.7822    513.16902    355.01542   -68.501504    37373.809 
  714600    302.80153   -1512.9925    544.46933    398.00391   -267.11866    37373.809 
  714700    306.66922    -1548.963    510.31896    345.33772    386.49405    37373.809 
  714800    298.77424   -1585.4858    511.86845    274.73476    764.07613    37373.809 
  714900    301.18987   -1521.3137    535.80585    373.74586   -18.212566    37373.809 
  715000    314.20256   -1573.0968    535.41877    380.30126   -81.248487    37373.809 
  715100    298.47665   -1554.4767    498.60934    291.14183   -371.10246    37373.809 
  715200      309.933   -1535.7824    531.63097     394.5596   -84.605199    37373.809 
  715300    297.27814   -1566.2316    503.03291    278.40162   -461.28602    37373.809 
  715400    299.69942   -1545.7619     504.3595    311.12505   -651.48881    37373.809 
  715500    291.65993   -1533.4087    487.98136    270.81824   -149.08198    37373.809 
  715600    298.04324   -1543.3324    512.05559    313.77636   -621.19492    37373.809 
  715700    305.15833   -1540.1559    524.17771    361.18503     89.77001    37373.809 
  715800    309.77704   -1509.6716    515.84053    404.17608    527.13293    37373.809 
  715900    304.90077   -1598.3155    526.80573    304.49107   -134.21435    37373.809 
  716000    299.69162    -1592.262    529.58651    289.81672     38.65194    37373.809 
  716100    289.70667   -1594.6823    519.95155     232.6999    730.80604    37373.809 
  716200    288.09815   -1536.5829    526.68175    290.27037    450.41672    37373.809 
  716300    292.76839   -1543.6339    541.42059    319.03475    396.02083    37373.809 
  716400    299.60536   -1522.4475    524.53203    354.18746    224.62069    37373.809 
  716500     297.0898   -1563.5271    501.21638    278.43966    178.67494    37373.809 
  716600    300.40215   -1581.9153    513.63013    287.41361    316.32798    37373.809 
  716700    302.57702   -1562.9741    513.95219    316.49197     542.5188    37373.809 
  716800    308.76572   -1541.4183    538.26161    390.28643    251.45785    37373.809 
  716900    298.63233   -1545.7319    510.17125    312.15108    155.45857    37373.809 
  717000    292.24514   -1524.0954    537.60936    332.40066    485.77797    37373.809 
  717100    292.69051   -1562.4695    518.82919    277.25627   -303.45977    37373.809 
  717200    288.08012   -1587.0847    508.81961    221.82505   -264.05914    37373.809 
  717300    303.93007    -1535.334    517.36343    353.64956   -263.28907    37373.809 
  717400    273.04065   -1547.8757    519.61581    203.95798   -144.52929    37373.809 
  717500    292.91852    -1570.058    523.32455    275.19218   -538.89381    37373.809 
  717600    299.78963   -1566.2979     506.8295    293.46613    309.96596    37373.809 
  717700    290.85226   -1557.4298    515.50781    270.67863    287.71209    37373.809 
  717800    297.99709   -1557.8265    509.78762      296.806    257.44123    37373.809 
  717900    306.56494   -1550.9223    516.61569    349.20458    128.99322    37373.809 
  718000    291.70451   -1529.3807     504.9027    291.96884    534.04932    37373.809 
  718100    308.34925   -1534.8466    524.61382    381.33086    288.45025    37373.809 
  718200    305.22317   -1553.4459    515.65329    339.66325   -335.97616    37373.809 
  718300    304.85832   -1528.9349    528.72936    375.60368   -200.38511    37373.809 
  718400    305.80321     -1497.84    538.09984     420.3333   -53.213685    37373.809 
  718500    296.31891   -1536.8729    523.86704    324.26554   -7.0346458    37373.809 
  718600    296.93366   -1487.0305    531.34979    384.36495    298.70994    37373.809 
  718700    310.68839   -1507.1704    528.55474    423.50437    214.06724    37373.809 
  718800    293.53769   -1504.0946    529.96703    350.59232   -52.103368    37373.809 
  718900    296.96377   -1498.5264    531.95663    373.61182    403.00896    37373.809 
  719000    298.19078   -1506.9857    503.12472    341.85801   -234.97876    37373.809 
  719100    298.70773   -1541.6084    526.55165     332.9952   -48.650278    37373.809 
  719200    300.95896   -1530.7827     514.7184    342.14736    29.613926    37373.809 
  719300    296.93899     -1512.76    542.87539    370.18512    -493.3059    37373.809 
  719400    293.22307   -1550.2256    528.36192    301.43631   -159.24723    37373.809 
  719500    301.48474   -1537.0811    532.77086    356.27419   -44.325759    37373.809 
  719600    304.82032   -1478.8706    563.39024    460.15741    343.68139    37373.809 
  719700    300.35367   -1520.3439    502.80853    337.94464    207.46717    37373.809 
  719800    304.44444   -1527.7019    524.06089    370.30038    861.32459    37373.809 
  719900    305.70523    -1513.261    532.83722     399.2076   -206.20609    37373.809 
  720000    301.78003   -1522.3639    519.42519    358.97841   -59.347315    37373.809 
  720100    295.78563   -1528.2075    506.26153    312.91873   -529.37834    37373.809 
  720200    312.89007   -1532.6082    496.09192    375.53984    304.98015    37373.809 
  720300    310.44965   -1562.9289    530.12391    368.23759    163.62649    37373.809 
  720400    292.36579   -1568.0078    520.72549    272.14887    352.53064    37373.809 
  720500    299.76346   -1523.3934    519.01989    348.44289     206.1837    37373.809 
  720600    301.93001   -1532.9964    536.26782    365.86536   -94.482366    37373.809 
  720700     305.8484    -1555.295    522.75988    347.74231   -516.98617    37373.809 
  720800     302.2062   -1548.4563    503.15975    318.54382   -22.706198    37373.809 
  720900    308.96447   -1569.5717    507.73053    332.49891    303.39533    37373.809 
  721000    311.85615   -1565.1337     512.6555    354.91189    230.44943    37373.809 
  721100     296.7653   -1533.5503    545.88995    351.62558    431.34226    37373.809 
  721200    302.96256   -1541.0696    544.67252    370.85671   -5.3453266    37373.809 
  721300    303.73528   -1542.4075    495.24587    323.57943     302.1567    37373.809 
  721400    309.80933   -1489.2661    526.40899    435.29581    -210.6823    37373.809 
  721500    298.30561    -1508.338    517.24192    355.14118   -626.23301    37373.809 
  721600     285.2574   -1538.5117    494.65516    243.49482   -380.67181    37373.809 
  721700    301.77872   -1568.6227    509.98313    303.27161   -843.27238    37373.809 
  721800     307.0658   -1562.5955    520.73337    343.90941   -240.73495    37373.809 
  721900    306.55254   -1611.1214    476.58631    248.92012   -645.96246    37373.809 
  722000     287.5393   -1588.9193     534.3183    243.04842   -188.12278    37373.809 
  722100    302.93209   -1568.3399    504.23779    303.01414    102.36831    37373.809 
  722200    300.33257   -1586.4683      534.229    303.14545   -54.888333    37373.809 
  722300    297.95125   -1526.2074    539.41476     357.8454    410.65311    37373.809 
  722400    300.16665    -1519.101    506.24408    341.77906    413.06097    37373.809 
  722500    300.11148   -1528.8784    548.97544    374.48406    456.09345    37373.809 
  722600    299.66089   -1530.8229    521.37961    342.91021    638.52804    37373.809 
  722700    300.48248   -1516.5668    522.74111    362.23569    455.31952    37373.809 
  722800    300.05921   -1534.7405    524.72458    344.13521    294.44567    37373.809 
  722900    296.99983   -1494.1943    531.70472    377.85476     79.83324    37373.809 
  723000    303.60176   -1494.1351    540.47704    416.48042   -15.823717    37373.809 
  723100    304.59796   -1497.3113     525.1307    402.45364   -643.33533    37373.809 
  723200    292.91276   -1506.8876    541.51197    356.52398   -320.14574    37373.809 
  723300    308.28982   -1510.2847    512.68661    393.69734    107.07482    37373.809 
  723400    306.57838   -1522.6227    523.66697     384.6161    458.13905    37373.809 
  723500    293.10708   -1529.5744    541.84827    335.05046    614.61077    37373.809 
  723600    301.46739   -1548.7589     512.6821    324.42937    248.41159    37373.809 
  723700    293.74222   -1534.2583    518.07853    309.46316    389.84725    37373.809 
  723800    301.59229   -1549.1904    532.42171    344.30114   -145.11476    37373.809 
  723900    300.36218   -1544.2921    530.70013    341.92649     -157.741    37373.809 
  724000    296.84562   -1548.1739    501.43992    292.91444   -263.56836    37373.809 
  724100    303.65088     -1522.23    518.48656    366.61674    -494.9495    37373.809 
  724200    302.57534   -1503.2934    528.28817    390.50109   -232.80973    37373.809 
  724300    304.31637   -1516.6757    535.49026      392.178    93.051429    37373.809 
  724400    301.15729   -1517.7229     519.8039    361.18772    164.43723    37373.809 
  724500    288.50853   -1532.4512    538.65451    308.22685   -259.34773    37373.809 
  724600    290.87673   -1470.6984    548.34416    390.35687    427.70886    37373.809 
  724700    294.75936   -1484.5162    547.78987    393.50683    142.07404    37373.809 
  724800    299.23725   -1502.5246     526.3363    374.25342     489.7919    37373.809 
  724900     287.8576   -1534.2056    503.42542    268.30575   -654.20009    37373.809 
  725000    313.05614   -1523.2285    532.30001    421.87715    307.95379    37373.809 
  725100    301.97651   -1535.6081    527.25468    354.45037   -457.66951    37373.809 
  725200    292.90124   -1543.1504    534.17027    312.86751   -392.21575    37373.809 
  725300    289.84512   -1526.6509    489.22231    270.62689   -626.30374    37373.809 
  725400    297.53723   -1546.5842    527.21859    323.40395   -525.91553    37373.809 
  725500    305.66795   -1555.5983    501.86108    325.72583    221.06775    37373.809 
  725600     288.6154   -1562.8119    519.52662     259.2206   -377.55319    37373.809 
  725700    291.54371   -1546.7631    502.73129    271.68935   -283.81794    37373.809 
  725800    302.31615   -1537.5128    513.42453     340.2483   -376.61528    37373.809 
  725900    291.49282    -1500.079    546.13599    361.54852     163.6049    37373.809 
  726000    308.14138   -1512.5785    547.11855    425.16563    687.06188    37373.809 
  726100    304.50031   -1548.8071    533.62584    359.01233    235.00358    37373.809 
  726200    292.26706    -1538.739    502.33923    282.58581   -78.154673    37373.809 
  726300      297.714   -1511.2787    519.22424    351.51285   -131.04434    37373.809 
  726400     307.9317   -1509.0833    522.30264    402.89861    120.81826    37373.809 
  726500    294.74981   -1565.8917    525.17861    289.47703    38.863032    37373.809 
  726600    296.77644     -1553.77    510.22236    295.78852    568.10783    37373.809 
  726700    305.46608   -1522.3145    518.52634    374.76387     261.4278    37373.809 
  726800     302.6343   -1543.0576    537.84904    360.56377    775.04715    37373.809 
  726900    299.21505   -1519.2988    523.55789    354.60059    814.32852    37373.809 
  727000    302.27696   -1519.1864    505.50186    350.47521    917.41102    37373.809 
  727100    293.68804   -1566.8946    580.32955     338.8333    851.92524    37373.809 
  727200    305.24577   -1548.4668    531.07474    360.16574    822.73452    37373.809 
  727300    302.90998   -1592.4001     540.9464    315.56278     492.0646    37373.809 
  727400    301.93599   -1580.2069    503.01984    285.43391    311.44448    37373.809 
  727500    300.86995   -1569.2137     522.4798    311.07601    427.07622    37373.809 
  727600    308.10129   -1539.0921    509.46323    360.81577   -106.27189    37373.809 
  727700    289.49161   -1530.3031    511.79114    287.94811   -1276.6898    37373.809 
  727800    296.48902    -1572.961    529.71447    294.79255   -546.87984    37373.809 
  727900    306.14141   -1584.1248    497.12584    294.60079    -297.1784    37373.809 
  728000     300.0637   -1579.8309    520.32719    294.66768   -823.09529    37373.809 
  728100    298.24741   -1588.4495    517.66191    275.18703   -272.50233    37373.809 
  728200    291.56993    -1558.394    527.04895    284.49439   -149.49514    37373.809 
  728300     295.0539   -1565.2157    525.17659    291.52334    16.363933    37373.809 
  728400    296.42817   -1605.5474    503.95373    236.17079    757.78636    37373.809 
  728500    305.27403   -1569.5125    519.33695    327.50978    208.70165    37373.809 
  728600    300.05528   -1571.9719    516.95947    299.12094   -501.32959    37373.809 
  728700    310.03746    -1538.527    497.81421    358.46969    78.741072    37373.809 
  728800    308.96347   -1541.8135     508.1057    360.62774   -110.15365    37373.809 
  728900    310.67257   -1497.9291    551.86898    455.98854   -533.75412    37373.809 
  729000    309.51464   -1525.7167    502.98855    374.09483    153.70027    37373.809 
  729100    309.63802   -1582.1955    517.92549    333.10976    266.13123    37373.809 
  729200    286.77052   -1568.5199    530.14403    255.80409    71.958172    37373.809 
  729300     301.9118   -1582.9192    527.21047    306.80306    664.43938    37373.809 
  729400    306.35732   -1540.5872    531.73354    373.72054    182.73924    37373.809 
  729500    288.12414   -1545.3138     529.1702    284.14521    125.65215    37373.809 
  729600     301.7087    -1595.157    512.54827    278.98649   -4.7151814    37373.809 
  729700     300.5736   -1597.6837    529.39575    288.18466    584.98517    37373.809 
  729800    304.64641   -1578.5791    523.08041     319.3542    300.62062    37373.809 
  729900    297.35208   -1571.7745    538.15302    308.31255    567.65501    37373.809 
  730000    295.37452   -1552.4494    521.00603    301.56598    348.16443    37373.809 
  730100    297.04823   -1548.3702    519.77032    311.96289    205.53097    37373.809 
  730200     301.4295   -1549.6531    541.18941    351.87148   -547.40213    37373.809 
  730300    303.23769   -1562.8253    520.43673    326.10684    -168.0491    37373.809 
  730400    309.02852   -1549.7777    515.30119    360.15267    341.55524    37373.809 
  730500    299.69142   -1556.9885    541.16223    336.66501     795.8196    37373.809 
  730600    300.73784   -1533.1919    533.76588    357.78769    854.54561    37373.809 
  730700    293.79083   -1552.1725    511.99981    285.68962    151.08055    37373.809 
  730800    304.72908   -1571.5074    532.07442    335.79299    292.06047    37373.809 
  730900     293.2124    -1571.181    502.88964    254.96048    436.37443    37373.809 
  731000    302.56478   -1572.6449     527.7995    320.61327    727.39114    37373.809 
  731100    294.66272   -1554.3199     541.3869    316.86406   -84.519968    37373.809 
  731200    320.67859   -1560.7215    520.03316    406.51697    707.23211    37373.809 
  731300    305.72757   -1554.6416     540.6291    365.71963    191.83718    37373.809 
  731400     303.6776   -1563.8111    500.04041    306.71003   -372.94125    37373.809 
  731500    301.17606   -1519.1287     543.7676    383.83031   -534.77355    37373.809 
  731600    302.18887   -1581.2172     495.4158    277.96076   -227.58937    37373.809 
  731700    300.34449   -1582.3297    478.48372    251.59257   -45.992321    37373.809 
  731800    293.40652   -1607.6496    531.73907    248.21735    21.976926    37373.809 
  731900    305.37268   -1568.5443    532.33776    341.92399   -20.294005    37373.809 
  732000    303.70705   -1617.3565    507.92256    261.17971   -384.68007    37373.809 
  732100    302.38099   -1547.4235    523.35712    340.56281   -343.01963    37373.809 
  732200    306.60213     -1583.37    497.70008    298.00909   -628.75676    37373.809 
  732300    303.30185   -1603.1756    490.83154    256.44096   -582.07774    37373.809 
  732400    291.40701   -1558.3488    519.43129    276.18665   -508.66783    37373.809 
  732500    303.24443   -1568.6917    502.50498    302.33913    288.47023    37373.809 
  732600    288.86329   -1572.2598    515.40732    246.77206    -661.1369    37373.809 
  732700    298.15736    -1551.943    527.79031    321.41548   -561.50536    37373.809 
  732800    299.77954   -1533.6011    533.42089    352.70874   -27.237349    37373.809 
  732900    296.79501   -1582.4132    519.71744    276.72426    -835.9672    37373.809 
  733000    305.87862   -1575.8813    514.42585    318.95834   -163.95354    37373.809 
  733100    289.48644   -1549.2984    523.14265    280.28098    479.68681    37373.809 
  733200    295.44595   -1580.7604    527.31101    279.88231    389.26558    37373.809 
  733300    302.13338   -1564.1461    498.15233    297.51793    790.44832    37373.809 
  733400    304.06995   -1526.4682    537.57145    383.35461    821.99256    37373.809 
  733500    304.72573   -1537.4368    499.33553    337.10965   -545.15521    37373.809 
  733600    307.36594   -1548.3459    516.69303     355.4731   -859.46661    37373.809 
  733700    304.56202   -1545.7836    504.79146    333.47993   -348.39273    37373.809 
  733800    294.53796   -1568.7122    534.41585    294.93766   -153.15106    37373.809 
  733900    292.61134   -1552.2306     526.8032    295.11194    51.627089    37373.809 
  734000    294.83671   -1544.5777     535.0833    321.08791    386.20492    37373.809 
  734100      308.798    -1538.774    516.88384    371.69862    520.38146    37373.809 
  734200    296.53279   -1537.3172    516.92501     317.8444    164.45363    37373.809 
  734300    298.97337   -1501.2006    523.12659    371.17682   -52.615493    37373.809 
  734400    293.01564   -1540.6105     506.0881     287.8415   -3.0899764    37373.809 
  734500     298.8289   -1509.3605    535.63678    374.87507   -248.96941    37373.809 
  734600    295.90515   -1518.4306     526.7704    343.74384   -88.685763    37373.809 
  734700    299.89816   -1529.5323    524.73378    348.62585    149.70556    37373.809 
  734800    304.22553   -1536.8427    524.88897    360.99973    282.25198    37373.809 
  734900    302.20548   -1485.8953    518.54901    396.49079    630.25807    37373.809 
  735000     292.8527   -1480.2515    531.96617    373.34324    375.08447    37373.809 
  735100    315.42338   -1528.2405    529.75159    424.99992   -106.81516    37373.809 
  735200    307.88965   -1505.4416      544.906    428.95386    115.80743    37373.809 
  735300    299.90314   -1522.6946    498.53059    329.28281    57.004106    37373.809 
  735400    305.79287   -1501.5693    528.65839    407.11588   -304.39139    37373.809 
  735500    312.28491   -1518.6693    539.26452    429.92026   -809.20837    37373.809 
  735600    308.11952    -1543.711    490.38151    337.19737    283.89162    37373.809 
  735700    291.59438   -1537.5302    541.63007    320.04965    468.13125    37373.809 
  735800    298.10621   -1544.5739    524.22828    324.99174    263.93337    37373.809 
  735900     298.0525    -1540.832    537.76362    342.02656    681.85941    37373.809 
  736000    294.30772   -1552.6024    528.42221    304.01484    433.84738    37373.809 
  736100    305.88163   -1579.5305    525.36908    326.26603    355.54887    37373.809 
  736200    298.76848   -1563.6522    521.08068    305.75466    352.10858    37373.809 
  736300    304.38649   -1559.0639    531.84952    346.46555   -49.420899    37373.809 
  736400    305.48214   -1515.3793    543.36969    406.61494    -271.0879    37373.809 
  736500    303.26513   -1532.6249    532.35496    368.34935   -432.55933    37373.809 
  736600    298.09755   -1514.1399    535.13152    366.28989    698.72462    37373.809 
  736700    304.81345   -1512.6774    511.48305    374.41242    288.10252    37373.809 
  736800     289.3401   -1522.1058    535.25323    318.92381    241.34644    37373.809 
  736900    296.47796   -1512.8141    502.20725    327.38225   -60.410709    37373.809 
  737000    303.58643   -1527.9733    526.87581    368.97175   -144.93394    37373.809 
  737100    301.00968   -1507.9275    508.86714     359.3802   -1230.3136    37373.809 
  737200    296.02158   -1529.7774    533.61027    339.76243    -1134.625    37373.809 
  737300    303.54566   -1503.5512    521.29012    387.62423   -181.73517    37373.809 
  737400    306.12846    -1501.123    527.65992     408.0783    195.71409    37373.809 
  737500    300.40362   -1510.4803    529.35226    374.57738   -451.67719    37373.809 
  737600    298.64594   -1493.6661    520.25799    374.36498   -133.29577    37373.809 
  737700    305.12621   -1539.6114    503.79816    341.20502    38.492957    37373.809 
  737800     292.9289   -1542.8176    563.86514       343.02    -313.7073    37373.809 
  737900    297.37136   -1515.5085    511.81449    338.32701   -434.15502    37373.809 
  738000     305.6045    -1511.039    508.89352    377.03122    -381.0648    37373.809 
  738100    312.18298   -1531.4637    530.21452     407.6159    185.85505    37373.809 
  738200    292.09446    -1564.986    534.76689    287.98751   -70.676675    37373.809 
  738300    299.23763   -1529.3773    503.82564     324.8917    192.56161    37373.809 
  738400    303.48165   -1509.3286    543.56022    403.82809    314.05154    37373.809 
  738500    310.91588   -1525.9803    521.54858    398.71504    389.62645    37373.809 
  738600    300.02178   -1488.2646    524.83829    390.55588    572.47885    37373.809 
  738700    301.46602   -1491.9788    524.76852    393.28973    108.54147    37373.809 
  738800    294.90871   -1479.0818    537.37449    389.19994   -523.19951    37373.809 
  738900    304.12832   -1482.0702    541.51928    431.96393    140.49492    37373.809 
  739000    290.74073   -1455.1665    524.87692    381.80773   -499.77808    37373.809 
  739100    309.25581   -1473.3834     532.4949    454.76646   -243.93869    37373.809 
  739200     300.6203   -1454.4954     545.0984    447.28636   -211.38374    37373.809 
  739300    296.53605    -1466.495    527.63221    399.38854   -405.56988    37373.809 
  739400    295.18654   -1488.0465    500.55737    344.67195   -495.97222    37373.809 
  739500    298.74449   -1507.5338    543.41858    384.10268   -235.43688    37373.809 
  739600    289.30611   -1491.4188    502.02571    316.22992   -178.66202    37373.809 
  739700    296.58141   -1547.3925    510.95148    302.01499    59.146837    37373.809 
  739800    306.06701   -1567.3141    535.34992    349.29985    133.71813    37373.809 
  739900    311.92801   -1507.4646    483.05068    383.30044   -415.71171    37373.809 
  740000    292.91079    -1533.041    503.71146    292.56111    -446.5229    37373.809 
  740100    302.84114   -1529.3562    504.67651    342.02616   -311.42063    37373.809 
  740200    303.31292   -1551.4518    522.60902    339.99214   -124.58356    37373.809 
  740300    301.67442   -1475.4726     533.0685    419.03643   -34.171557    37373.809 
  740400    293.40655   -1501.1287    539.63058    362.62992   -183.72374    37373.809 
  740500    294.92447   -1506.0875    519.02592    343.91671    164.29842    37373.809 
  740600     299.5259   -1539.9829     519.2729    331.03432     85.84796    37373.809 
  740700    284.60937   -1498.1126     516.0543    302.36851    -238.4471    37373.809 
  740800    302.38377   -1477.9766    532.09239    418.75753    477.16044    37373.809 
  740900    305.92121   -1518.1303     531.9935    394.46926    285.51723    37373.809 
  741000    298.41261   -1498.3492    472.33588    320.70678    331.03877    37373.809 
  741100    315.54671   -1495.4097    557.78238    486.41812    -421.4497    37373.809 
  741200    300.95183   -1519.4714     529.4332    368.14131   -154.19537    37373.809 
  741300    301.85126   -1513.6765    512.31637    360.87842    -582.3408    37373.809 
  741400    296.52685   -1516.4842    504.81392    326.53954   -147.62614    37373.809 
  741500    301.43562   -1510.6305    522.68967      372.422    435.17099    37373.809 
  741600    298.70732   -1544.7246    504.14171    307.46724   -191.61596    37373.809 
  741700    306.67213   -1569.6149    517.13214     331.5121    76.320722    37373.809 
  741800    301.66156   -1545.3769    516.99063    332.99625   -40.842545    37373.809 
  741900    299.60311   -1519.9727    520.41793    352.53798   -18.271018    37373.809 
  742000    293.59659   -1555.0434    533.80847    303.75075   -392.04458    37373.809 
  742100    289.37866   -1555.2493     519.4071    270.10819   -205.64398    37373.809 
  742200    296.59547   -1535.6494    499.30664     302.1767   -406.10641    37373.809 
  742300    311.80211   -1547.6289     518.4115    377.92878    86.754059    37373.809 
  742400     291.1856    -1516.991    538.15138    335.26536    -427.3378    37373.809 
  742500    294.01504   -1538.7856    570.84002    358.92858   -175.31607    37373.809 
  742600    304.80716   -1583.4454     500.0429    292.17583    398.33544    37373.809 
  742700     293.8181   -1542.9429    529.96232    313.00478   -275.74512    37373.809 
  742800    307.93986   -1526.9103     524.2109    387.01667    176.53011    37373.809 
  742900    294.00041   -1573.6062    489.06434    242.26618    54.272783    37373.809 
  743000    306.30395   -1544.1905    536.20717    374.34999   -39.074364    37373.809 
  743100    298.06139   -1563.0464    509.22153    291.31026   -680.61276    37373.809 
  743200    298.06811   -1517.2322    499.02744    326.96069    -234.6466    37373.809 
  743300    295.78472   -1523.6674    517.81046    329.00364   -937.06824    37373.809 
  743400    304.75195   -1528.7151    493.17966     339.7938   -608.17521    37373.809 
  743500    294.17473   -1492.5787    532.43958    367.45572   -653.97477    37373.809 
  743600    299.58707   -1471.9364    534.65533    414.73929   -173.27797    37373.809 
  743700    311.64436   -1503.5162    518.72753    421.64559   -345.11342    37373.809 
  743800    300.85097   -1528.1668     539.2402    368.79773   -481.10344    37373.809 
  743900    292.93387   -1513.7731    505.99416     314.2159   -241.99285    37373.809 
  744000    302.65054   -1455.1332    549.00187    459.71439   -254.11839    37373.809 
  744100    307.27891   -1501.3851    504.50599    389.85417   -74.649534    37373.809 
  744200    299.00549   -1493.5847    558.56229    414.37331   -613.81817    37373.809 
  744300    296.58268   -1517.0887    529.01011    350.38312   -176.64997    37373.809 
  744400    296.15221    -1485.081    523.99718    375.43526    74.366346    37373.809 
  744500    296.87366    -1502.911    522.67468    359.53862    510.58753    37373.809 
  744600    300.16662   -1488.8418    540.90723    406.70133    275.81893    37373.809 
  744700    304.30869   -1504.8704    509.64755    378.10594     198.7231    37373.809 
  744800    308.88704   -1467.0771    538.86758    465.78117   -98.568271    37373.809 
  744900    305.52177   -1499.4176    507.38182    386.76762    -195.1848    37373.809 
  745000    302.80639   -1521.4162    501.24538    346.37824     93.45511    37373.809 
  745100    298.64499   -1485.4622    511.95435    374.26102   -483.27797    37373.809 
  745200    308.63309   -1489.8398    515.11336     418.1182   -537.08786    37373.809 
  745300    300.11636   -1497.5599    516.60741    373.45651   -59.057736    37373.809 
  745400    298.38623   -1547.7404    506.57784    305.43849     260.5865    37373.809 
  745500    306.45804   -1543.5639     521.2216    360.68644   -377.61678    37373.809 
  745600    296.63106   -1511.0503    483.20822    310.83795   -489.91663    37373.809 
  745700    299.92113   -1512.2494    507.36361    348.64215   -141.66961    37373.809 
  745800    295.76343   -1512.8949    511.36674    333.23638   -717.35064    37373.809 
  745900    304.13982   -1542.2813    524.28869     354.5741   -387.90406    37373.809 
  746000    297.88234    -1465.355    504.74409    383.71612   -173.71091    37373.809 
  746100    298.08705   -1507.6426    509.47019    347.07842   -477.67214    37373.809 
  746200    308.31423    -1478.914    515.11372    427.60529   -73.165831    37373.809 
  746300    314.95511   -1504.9579    515.91688    432.33452    391.50298    37373.809 
  746400    297.63838   -1500.8415    540.73772    383.12224    234.02526    37373.809 
  746500    299.19844   -1483.7666    518.34638     384.8463     51.21934    37373.809 
  746600    294.54882   -1501.6145    517.82061    345.48921   -199.10083    37373.809 
  746700    297.07451   -1505.2021    524.59412    360.07338    282.84111    37373.809 
  746800    297.56091   -1532.1196    519.46676    330.22364    20.189156    37373.809 
  746900    299.56296   -1483.7666     534.0696    402.21462   -64.738086    37373.809 
  747000    302.06657   -1469.5891    510.35241    403.97355   -155.87043    37373.809 
  747100    300.21637   -1471.3482    523.28873    406.80089   -44.941041    37373.809 
  747200    297.78362   -1518.7088    484.26308    309.43576   -239.07016    37373.809 
  747300    305.65041   -1506.8892    547.05695    419.55166   -147.06619    37373.809 
  747400    295.50181   -1513.5258    490.06115    310.11915   -236.57788    37373.809 
  747500    296.94321   -1549.0388    489.95545    281.00547   -530.41195    37373.809 
  747600    305.27001   -1536.7653    523.34213    364.24403   -719.45887    37373.809 
  747700    298.93424   -1522.7597    506.47464    332.78909   -141.52432    37373.809 
  747800    308.21204   -1526.2502    509.46178      374.156   -118.50059    37373.809 
  747900    301.66777   -1528.5714    532.66329     365.5024   -405.14215    37373.809 
  748000    305.84898   -1474.6975    510.94832    416.53086    18.194367    37373.809 
  748100    293.24149   -1472.5116    537.00098    387.87253     429.0831    37373.809 
  748200    295.73046    -1509.293    535.39253     360.7153    66.394719    37373.809 
  748300    300.11118   -1504.8708    534.31278    383.82765   -246.06028    37373.809 
  748400    313.38292   -1488.9321    515.21251    440.56068    -252.0897    37373.809 
  748500    299.33431   -1536.7988    513.63695    327.71787    409.50173    37373.809 
  748600     307.8042   -1505.5815    543.65738    427.17969   -44.242936    37373.809 
  748700    306.14334   -1480.8649    507.53398    408.27757    87.120522    37373.809 
  748800    299.47352   -1517.2704    521.65519     355.8928    592.38058    37373.809 
  748900    294.12819   -1499.9385    540.27228    367.71855    670.05673    37373.809 
  749000    298.95854   -1527.6828    520.14113    341.64224    48.600604    37373.809 
  749100    297.74343   -1551.3385    509.95085    302.31247    465.96051    37373.809 
  749200    289.66117   -1555.9529    519.80978    271.08223    421.08114    37373.809 
  749300    306.00576   -1587.8868    520.53242    313.63324    44.374816    37373.809 
  749400    300.37562   -1566.2154     515.9289     305.2926    370.52785    37373.809 
  749500    301.15371   -1549.6496    535.96413    345.40508    363.30587    37373.809 
  749600     304.6695   -1543.9442    507.71541    338.72835     469.1515    37373.809 
  749700    303.46776   -1571.4407    493.15464    291.24768    1028.3721    37373.809 
  749800    309.64937   -1565.5914      515.443    347.28268    357.16041    37373.809 
  749900    300.56448   -1592.3576    496.40301    260.47682   -293.19382    37373.809 
  750000    292.95652   -1542.5363    510.96455    290.52531   -111.73248    37373.809 
  750100    307.01731   -1616.2664    506.38252    275.66876   -32.768077    37373.809 
  750200    286.08933   -1582.9104    490.97563    199.17103   -163.49637    37373.809 
  750300    305.48264   -1576.4668    535.02095    337.18093    355.18818    37373.809 
  750400     292.6093   -1559.2629    527.66713    288.93432    389.75576    37373.809 
  750500    292.57984   -1540.0002    522.55442    302.95131    347.07654    37373.809 
  750600    295.91804   -1582.5841     488.5841    241.46229   -539.19703    37373.809 
  750700    294.61587   -1565.8126    536.29452    300.06758   -393.90112    37373.809 
  750800    299.09768   -1538.9631    536.73081    347.57954     110.4527    37373.809 
  750900    300.39765   -1545.9344    507.90092    317.64498    82.233692    37373.809 
  751000    307.64778   -1564.6809    504.76498    328.48209    191.90079    37373.809 
  751100    291.99516   -1538.7802    509.26039    288.23874   -20.913162    37373.809 
  751200    305.55348   -1517.6413    496.81021    358.11541   -221.05679    37373.809 
  751300    296.97831   -1489.6399    534.64702    385.25432    -252.7044    37373.809 
  751400    296.10588   -1540.9531    517.23865    312.59551   -515.93667    37373.809 
  751500    302.35718   -1537.6149    521.83777    348.74464    -917.7056    37373.809 
  751600    312.68424   -1538.8295    498.11681    370.41453   -37.065823    37373.809 
  751700    295.84664   -1519.5546    516.16895    331.75443    285.96282    37373.809 
  751800    302.43058   -1509.5974    496.10196    351.35759    224.22353    37373.809 
  751900    298.33279   -1506.9757    543.89346    383.27763   -97.629093    37373.809 
  752000      305.762   -1518.5695     523.2476     384.5656    111.48975    37373.809 
  752100    299.31946   -1509.3919    521.88171    363.30246    331.02116    37373.809 
  752200    302.73075    -1550.301    478.92302    294.82962    222.60314    37373.809 
  752300    302.83514   -1536.5858    541.26242    371.35535    427.12553    37373.809 
  752400    288.67519   -1510.4566    542.02219    334.34124    215.66232    37373.809 
  752500    307.17017   -1483.2285    509.04574    412.05972    237.50593    37373.809 
  752600    303.84484   -1539.4158    523.33935      355.159    396.59291    37373.809 
  752700    296.46616   -1566.2629    505.93411    277.60708   -688.68474    37373.809 
  752800    305.95094   -1502.3219    500.53635    378.95466    133.79329    37373.809 
  752900    305.79449   -1532.4349    524.31833     371.9176    90.558456    37373.809 
  753000    296.06068     -1568.09    517.86979    285.88579   -482.79389    37373.809 
  753100    292.15474   -1542.6375    515.49874    291.33995    68.423516    37373.809 
  753200    298.07822   -1521.3071    502.29203    326.19599    52.053579    37373.809 
  753300     300.7893   -1523.0984    515.52026    349.86781    242.55712    37373.809 
  753400    291.89854   -1508.6845    530.31766    338.95559   -715.91242    37373.809 
  753500    307.42658   -1566.0842    521.46905    342.78456   -540.82528    37373.809 
  753600    300.62639   -1552.9533    484.66381    288.42134   -330.61546    37373.809 
  753700    302.44539   -1540.1168    538.92709    363.73015   -346.78417    37373.809 
  753800    315.93731   -1583.7476    525.42473    367.48528   -315.66987    37373.809 
  753900    296.75563   -1519.7009    520.09246     339.6338   -138.84723    37373.809 
  754000    290.25814   -1492.2587    523.40587    341.06655   -111.89444    37373.809 
  754100    296.63739    -1492.751    506.97432      352.932    12.820216    37373.809 
  754200    303.66521   -1534.8928    521.19422    356.72628     36.68918    37373.809 
  754300    295.79377   -1533.5434    542.69905    344.05708    420.76948    37373.809 
  754400    295.03677   -1491.4672    541.85297     381.8709    100.42779    37373.809 
  754500    309.55159   -1520.1458    535.50658    412.35056     586.0038    37373.809 
  754600    298.35443   -1511.9896    520.91565    355.38358    436.32387    37373.809 
  754700    304.27238   -1529.2497    536.50286    380.41808    50.445549    37373.809 
  754800    301.35383   -1532.0481    510.80038    338.74599    -259.5368    37373.809 
  754900    295.70163   -1523.8406    512.70584    323.35082    71.506173    37373.809 
  755000    298.37065   -1541.1291      506.935     312.3367   -171.25744    37373.809 
  755100    289.62999   -1548.0852    488.97371    247.97317   -285.41737    37373.809 
  755200    305.65711   -1536.4395    551.70782    394.68245    454.25211    37373.809 
  755300    303.72086    -1547.981    521.31884    344.01379    546.29123    37373.809 
  755400     301.0718   -1523.6734     511.6383    346.68578    289.65073    37373.809 
  755500    297.60461   -1577.2141    513.93418    279.79376    602.73569    37373.809 
  755600    296.69664   -1572.4851     505.5055    271.99648    176.18338    37373.809 
  755700    303.46405   -1538.6135    523.63384    354.53729    224.97328    37373.809 
  755800    299.22017   -1561.4377    504.80215    293.72905     158.0805    37373.809 
  755900    312.77578   -1547.1484    523.59514    387.98708    979.41233    37373.809 
  756000     288.9921   -1508.9986    508.80447    304.01175    334.63168    37373.809 
  756100    292.99038   -1476.1671    540.68011    386.76291    1.1553181    37373.809 
  756200    295.19895   -1529.4987    529.22649    331.94483    343.30771    37373.809 
  756300    304.45646    -1494.122    551.89949    431.77316    262.82034    37373.809 
  756400    301.63159   -1521.6836    511.78163    351.34522    393.24588    37373.809 
  756500    289.22491   -1530.3085    538.04609    312.99413   -192.92362    37373.809 
  756600     301.6833   -1528.0309    511.83935    345.28903    53.144796    37373.809 
  756700    310.61979   -1541.8679    545.43141    405.37394    248.59136    37373.809 
  756800    300.51329   -1489.9859    530.41608     396.6305        19.17    37373.809 
  756900    297.40029   -1517.7109    500.63805    325.07871   -518.06608    37373.809 
  757000    302.45288   -1544.9795    522.96415    342.93829   -369.49757    37373.809 
  757100    295.28486   -1492.9893    513.57348    353.18892   -366.98402    37373.809 
  757200     301.3657   -1505.6116    540.35223    394.78787   -740.11163    37373.809 
  757300    305.86053   -1469.5554    510.80028    421.57712   -1001.5193    37373.809 
  757400    294.44546   -1477.0513    531.92382    383.68911   -20.219879    37373.809 
  757500    294.21888   -1526.9787    510.77275    311.58813   -183.58848    37373.809 
  757600    306.75353   -1543.9913    514.07067    354.44166   -76.116739    37373.809 
  757700    295.00182   -1554.9882    522.28049    298.61972    540.26364    37373.809 
  757800    290.90599   -1543.8045    528.21796    297.25667    396.25145    37373.809 
  757900    301.04323   -1528.9624     509.3134    338.94297   -162.16221    37373.809 
  758000    296.95886   -1515.9752     513.2072    337.39147    269.19966    37373.809 
  758100     309.1117   -1506.7991    525.80405    414.00948    477.35926    37373.809 
  758200    312.48927   -1486.0467    521.43258    445.63322    220.68842    37373.809 
  758300    307.09816   -1537.9915    511.34677     359.2728    585.39566    37373.809 
  758400    290.88199   -1566.5036    521.79597    268.02722   -275.36076    37373.809 
  758500    299.34319   -1533.4779    551.15458    368.59651    73.731377    37373.809 
  758600    313.06442   -1513.8067    538.64951    437.68579   -508.69856    37373.809 
  758700    316.54346   -1513.9179    524.88937    439.51518   -153.69179    37373.809 
  758800    309.23423    -1523.887    487.92397    359.59445    192.00284    37373.809 
  758900    311.11963   -1522.1608    551.65444    433.55991   -205.47925    37373.809 
  759000    300.33782   -1514.5313    523.79954    364.67669    251.96065    37373.809 
  759100    295.73832   -1590.7455    515.26871    259.17438    181.94216    37373.809 
  759200    303.74166   -1598.3011     510.1609    282.62967    987.39935    37373.809 
  759300    292.61743   -1577.5619    529.41045    272.41532    915.88691    37373.809 
  759400    288.61346   -1564.4258    509.90617    247.97744    833.87191    37373.809 
  759500    309.75872   -1556.1561    514.19943    355.96786    1171.3425    37373.809 
  759600    289.23992   -1565.2897    507.69485    247.72939    779.10577    37373.809 
  759700    296.49464   -1555.6996    534.38486    316.74972    981.55273    37373.809 
  759800    295.42745   -1525.8121    521.21286    328.64902    579.82213    37373.809 
  759900    294.00977   -1519.8368    520.55981    327.57339    777.77395    37373.809 
  760000    313.89885   -1541.4039    478.21616    353.42094    134.74239    37373.809 
  760100    294.36374    -1515.481    535.00425    347.97099   -232.04901    37373.809 
  760200    308.06105   -1549.4189    549.62761    390.47169   -716.71833    37373.809 
  760300    298.19509   -1525.4117    500.17294    320.49972   -157.25926    37373.809 
  760400    303.95706    -1446.856    540.14969    465.03566   -335.11706    37373.809 
  760500    287.09736   -1450.6582    516.81543    361.81228   -560.28403    37373.809 
  760600    297.77083   -1480.0284    519.86895    383.66434    90.780641    37373.809 
  760700    293.74112   -1484.6681    540.59623    381.56609    151.29283    37373.809 
  760800    302.86381   -1460.2273    534.21272    440.79356     342.1832    37373.809 
  760900    303.55667   -1500.4736    496.98756    366.44897      670.552    37373.809 
  761000    302.41452    -1543.162    520.79065    342.40923    309.30771    37373.809 
  761100    302.59529    -1536.642    501.61031     330.5647   -334.15593    37373.809 
  761200    302.25296   -1531.0067    505.34312    338.38781    299.67866    37373.809 
  761300    295.07117   -1528.4187    506.36903    309.59067   -228.67445    37373.809 
  761400    302.15502   -1541.3131    528.05781    350.35419    185.83832    37373.809 
  761500    300.76914    -1564.935    502.39557    294.81561    553.29355    37373.809 
  761600    302.44709   -1548.3166    529.94165    346.55256    374.95911    37373.809 
  761700    297.15397   -1590.2478    520.64505    271.43724    4.9776933    37373.809 
  761800    290.26278   -1550.8133    528.01395    287.14103   -257.71608    37373.809 
  761900    302.14323   -1576.5394    514.99415    302.01095   -256.85835    37373.809 
  762000    310.05503   -1561.4172    484.87992    322.72449   -359.23889    37373.809 
  762100    300.16143   -1571.1454    497.97615    281.44315   -733.78728    37373.809 
  762200    307.09405   -1566.2291    488.88407    308.55399   -141.74935    37373.809 
  762300    295.51016   -1572.4988    516.48583    277.60853   -340.56205    37373.809 
  762400     292.9712    -1574.771    510.85065    258.24298    299.60979    37373.809 
  762500    303.82265    -1514.402    523.55743    380.29076    586.63472    37373.809 
  762600    305.80227   -1521.5755    503.25796    361.75174    145.69148    37373.809 
  762700    314.91475   -1531.8851    505.92454    395.23287   -32.761158    37373.809 
  762800    295.36714   -1534.8385     528.1754      326.313    391.35238    37373.809 
  762900    299.85904   -1586.8408    506.16104    272.56798   -66.246645    37373.809 
  763000    297.13817   -1547.6767    531.99576    325.28768    154.89569    37373.809 
  763100     298.9798   -1553.1581    534.68987    330.81159    389.04837    37373.809 
  763200    300.90357    -1559.104    517.45565    316.31336    253.49659    37373.809 
  763300    294.72956   -1558.5782     537.3191    308.83956   -54.768864    37373.809 
  763400    303.05793    -1575.785    514.18423    306.08346   -121.55104    37373.809 
  763500    298.45305    -1597.357    516.18579    265.73143     -299.791    37373.809 
  763600    303.41757   -1597.1658    545.71879    317.86028    50.286267    37373.809 
  763700    286.33926    -1603.209     500.9102    189.93496     82.84555    37373.809 
  763800    297.42934    -1543.933    505.99469     304.3444    95.564508    37373.809 
  763900      297.612   -1550.1869    535.83007    328.75015    455.04968    37373.809 
  764000    293.91143   -1534.5238    534.36612     326.2488    302.47578    37373.809 
  764100    311.43459   -1529.6646    540.31262    416.13567    580.09621    37373.809 
  764200    295.00725   -1573.3577    557.45007    315.44429    378.90648    37373.809 
  764300    308.74894   -1509.0444     526.7793    411.10235    196.72344    37373.809 
  764400    292.65636   -1544.5232    521.43947    297.65877     204.3001    37373.809 
  764500     297.6208   -1546.8417    511.58919     307.8942    277.23016    37373.809 
  764600    307.34234   -1514.2283    513.34598    386.13718      288.567    37373.809 
  764700    294.33102    -1522.656    531.21258    336.85673   -389.55511    37373.809 
  764800    291.12592   -1543.7121    513.42899    283.55254    218.61539    37373.809 
  764900    297.53716    -1510.834    522.50136     354.4366     307.3558    37373.809 
  765000    294.30043   -1547.1659    523.78443     304.7806   -357.62057    37373.809 
  765100    295.09114   -1497.9079    538.98996    372.81255    389.16018    37373.809 
  765200    294.02604     -1532.54    521.81068    316.19449    491.37745    37373.809 
  765300    309.70064   -1563.2124    527.78551     362.2355    207.41035    37373.809 
  765400    292.55408   -1551.5262    536.73914    305.49381   -395.55853    37373.809 
  765500    298.87553   -1502.6783     523.6879    369.81883    241.92156    37373.809 
  765600    293.38758   -1555.2455    523.08085    291.87779   -505.42676    37373.809 
  765700     308.3506   -1518.5545    511.14391     384.1591   -1018.3336    37373.809 
  765800    301.97381   -1512.9912    526.12053    375.92095   -583.05114    37373.809 
  765900    300.91909   -1503.9957    509.80177    363.83784   -634.81592    37373.809 
  766000    299.25523   -1540.4228    515.74055    325.84059   -1143.7501    37373.809 
  766100    293.92421   -1538.3976    535.65568    323.72224   -789.19892    37373.809 
  766200    300.64592   -1569.6448    550.23134    337.38542   -556.59139    37373.809 
  766300     295.1425   -1519.2651    527.58746    340.28461   -40.309346    37373.809 
  766400     302.1762    -1529.617    500.76024    334.84829   -201.20357    37373.809 
  766500    300.40216   -1528.8896    512.69665    339.50591    17.564107    37373.809 
  766600    284.87841   -1538.0195    514.84154    262.46303   -606.03811    37373.809 
  766700     312.6759    -1531.634    517.34517    396.80073    185.43121    37373.809 
  766800    302.10451   -1523.5239    504.01868    343.87622    313.01831    37373.809 
  766900    308.11425   -1516.9196    534.92293    408.50642    301.80969    37373.809 
  767000    294.05264   -1548.6602    517.84402    296.22764    45.560425    37373.809 
  767100    292.69112    -1516.008     533.8208    338.71219     346.8611    37373.809 
  767200    302.91036   -1513.9994    514.35857    367.37743    164.67568    37373.809 
  767300    297.53332   -1524.9813    547.33196    365.10256   -187.55672    37373.809 
  767400    307.48704   -1517.1405    542.45608    412.98808   -46.342253    37373.809 
  767500    294.03145   -1528.9592    491.20387    289.19288   -147.47972    37373.809 
  767600    296.94341   -1523.3219    556.70171    373.46946   -113.99057    37373.809 
  767700    291.50184   -1550.5438    532.73874    297.72709   -103.34216    37373.809 
  767800    305.68785   -1557.8089     522.0633    343.80728    376.02313    37373.809 
  767900    296.74523   -1566.3009    520.93871    293.83307    55.204992    37373.809 
  768000     291.6343   -1498.2142    528.24963    346.16541     83.39299    37373.809 
  768100    303.51674   -1440.7762    523.00936    451.98793   -236.11346    37373.809 
  768200    307.88502   -1485.5182     520.1269    424.07736   -330.18094    37373.809 
  768300    304.16574   -1481.7775    537.34773    428.25389    270.85628    37373.809 
  768400    312.32241   -1500.9956    527.58276    436.08144    681.71055    37373.809 
  768500    288.64925   -1498.5397    519.88489    324.00381    267.54827    37373.809 
  768600    293.02423    -1549.342    490.56924    263.62991   -248.18663    37373.809 
  768700    295.72019   -1539.5849     525.5697    320.55419   -275.05896    37373.809 
  768800    313.25794   -1507.2112    516.13554    422.64064     -365.404    37373.809 
  768900     295.1259   -1503.1631    527.79972    356.52405   -209.08075    37373.809 
  769000    298.60082   -1494.4751    504.60571    357.70015   -598.20533    37373.809 
  769100    295.44841   -1526.7334    537.57667     344.1861   -582.02815    37373.809 
  769200    304.79324   -1475.5185    497.46234    397.45944     -366.125    37373.809 
  769300    306.97609   -1593.4507    510.35376     302.2697   -266.18728    37373.809 
  769400    302.79361   -1590.6902    503.18934    278.99044   -303.67876    37373.809 
  769500    316.96424   -1538.7863    480.02553    371.68188   -477.23748    37373.809 
  769600    292.80878   -1520.2094    528.86038    330.08126   -498.20413    37373.809 
  769700     290.5468   -1552.9641    522.39178    280.64987    449.96398    37373.809 
  769800    292.12493   -1566.8897    508.68492    260.13942   -138.18924    37373.809 
  769900    307.12248   -1550.9116    509.09521    344.21089    329.91809    37373.809 
  770000     288.3702   -1561.1535    525.43852    265.68424    358.26327    37373.809 
  770100    301.54358   -1564.6177    492.69225     288.9246   -41.094893    37373.809 
  770200    297.78773   -1580.3159    508.66622    272.25036    -17.93111    37373.809 
  770300    301.46339   -1581.8889    514.09325    292.69251    291.89866    37373.809 
  770400    303.95348    -1556.292    520.40644    335.84019    259.13047    37373.809 
  770500    307.51338   -1568.6443    523.26451    342.41163    713.76949    37373.809 
  770600    305.45667   -1580.7948    497.38233    295.09716    99.946145    37373.809 
  770700    308.00193   -1553.2561    537.05298    373.79306    354.99879    37373.809 
  770800    299.81525   -1514.7915    523.67093    361.92957     87.80898    37373.809 
  770900    297.83094    -1509.131     493.2832    328.24728   -185.52772    37373.809 
  771000    297.75674   -1544.7222     563.7648    362.80285    259.61704    37373.809 
  771100    290.92701   -1546.5153    523.19218    289.61488    395.11655    37373.809 
  771200    300.62366   -1524.6307     540.3625    372.43022    503.13868    37373.809 
  771300    301.61309    -1557.362    525.21103    329.01272    119.10122    37373.809 
  771400    298.54942   -1534.4919    517.71854    330.56422   -92.230236    37373.809 
  771500    298.05474   -1519.7369    503.96887    329.33703    296.46961    37373.809 
  771600    298.39288   -1539.9293    512.66562    319.36738    103.82337    37373.809 
  771700    287.55597   -1541.6067    514.47216     270.5901    21.675779    37373.809 
  771800    291.40593   -1525.8619    518.47909    307.71657    399.22669    37373.809 
  771900     310.8096   -1563.9547    514.64162    353.35396    345.03404    37373.809 
  772000     312.1206   -1594.2009    518.06291    332.44557   -61.169329    37373.809 
  772100    298.00639   -1540.0805    509.38517    314.19149   -228.03432    37373.809 
  772200    293.47592   -1542.7003    488.85681    270.59759   -150.99586    37373.809 
  772300    289.13426   -1502.1244    500.43016    303.15318   -445.35547    37373.809 
  772400    299.21695   -1520.9127    521.53408    350.97148   -203.98507    37373.809 
  772500    295.53634   -1530.0369    486.59958    290.30232   -444.79173    37373.809 
  772600    301.72502   -1552.8611    508.83533     317.6431   -1021.7689    37373.809 
  772700    299.32464   -1522.4071    516.75361    345.18256   -643.43142    37373.809 
  772800    293.17191   -1543.4632    526.76978    306.37572   -362.95112    37373.809 
  772900    300.64086   -1539.7129    499.99696    317.06015   -153.74225    37373.809 
  773000    295.49314   -1559.9211    506.59842    280.22202    234.45187    37373.809 
  773100    300.98383   -1556.2053    528.34034    330.45899      220.884    37373.809 
  773200    310.20099    -1575.075    504.28096    329.12638    214.24479    37373.809 
  773300    304.04765   -1536.8392    491.64864    326.96023    891.49748    37373.809 
  773400    304.76606   -1530.3605    549.88464    394.91709    1058.4244    37373.809 
  773500    297.95264   -1566.6643    515.75308    293.73308    835.66884    37373.809 
  773600    304.33826   -1508.0345     524.4114    389.83919    689.88716    37373.809 
  773700    302.47543   -1538.5472    531.08476    357.59292    496.65162    37373.809 
  773800    291.66622   -1523.8008    483.96879      276.442    364.25894    37373.809 
  773900    294.27895   -1525.6509    535.87466    338.28884   -628.23946    37373.809 
  774000    289.37061   -1515.6252     507.0001    297.28895   -330.28372    37373.809 
  774100    297.98104   -1527.6485    504.59185    321.71583   -756.02422    37373.809 
  774200    291.39784   -1491.3684    499.10586    322.80025   -977.38345    37373.809 
  774300    305.26379   -1496.1717    484.77641    366.24384   -947.04106    37373.809 
  774400    300.87185   -1510.1653    514.22202    361.87529   -751.87317    37373.809 
  774500    305.33959   -1491.5907    543.02153    429.41202   -463.32955    37373.809 
  774600    305.44964   -1519.4778    508.86479    367.86482   -513.25519    37373.809 
  774700    305.54319   -1529.9887    505.51765    354.42902    325.80729    37373.809 
  774800    283.66241   -1512.0549     551.3916    319.48996    225.50178    37373.809 
  774900     303.0027   -1513.7307    521.20381    374.90804    588.45355    37373.809 
  775000     293.8867   -1521.2075    496.86645    301.95384    -31.08314    37373.809 
  775100     303.5115    -1576.778    524.50398    317.45716    400.45343    37373.809 
  775200    300.29417   -1555.3592    516.72188    316.57419    86.646279    37373.809 
  775300    292.30999   -1530.7297    506.25237    294.70197   -265.58336    37373.809 
  775400    299.04662   -1536.8947    507.08042    319.76707   -476.65621    37373.809 
  775500    293.43506   -1519.5908    505.59066    310.25654    198.06418    37373.809 
  775600    299.76392   -1531.5687    498.59783    319.84759    426.80252    37373.809 
  775700    306.43149   -1560.5152    507.72944    330.12319    602.39415    37373.809 
  775800    293.51393   -1579.6194    504.16751    249.16077    718.41386    37373.809 
  775900    310.33916   -1542.3711    506.11336    364.28629   -121.58783    37373.809 
  776000    301.90721   -1535.2663    483.87603    311.10081    104.84097    37373.809 
  776100    304.44639   -1567.9595    477.79702    283.78782   -534.02216    37373.809 
  776200    306.62347    -1551.961    485.44302    317.25732   -409.78491    37373.809 
  776300      302.163   -1575.9959    486.80267    274.45223    -66.23616    37373.809 
  776400    293.86241   -1523.7339    516.42284    318.87431    -712.6716    37373.809 
  776500    308.96358   -1581.8904    493.70131    306.14702   -168.93371    37373.809 
  776600    299.92052   -1539.6933    516.33289    330.16484   -451.41193    37373.809 
  776700    296.14144   -1529.8906    500.01272     306.5926   -183.99725    37373.809 
  776800    303.71392   -1562.4619    504.73301    312.91576    291.16364    37373.809 
  776900    298.25035   -1558.3309    533.23884    320.89582    47.521625    37373.809 
  777000    302.53878   -1590.7736    483.09321    257.66089    290.77795    37373.809 
  777100    298.39391   -1571.3692     521.8278    297.09438    277.54477    37373.809 
  777200    306.94867   -1610.0472    506.70414    281.89984    262.13191    37373.809 
  777300    297.06969   -1611.8505    479.94727    208.75631   -192.65319    37373.809 
  777400    306.03746   -1616.7968    502.95436    267.28819   -78.577055    37373.809 
  777500    308.71028   -1590.2213    504.28548    307.25719    911.66984    37373.809 
  777600    313.98745   -1564.7425    498.21948    350.48549   -227.87478    37373.809 
  777700    309.46524   -1562.1419    506.02836    340.48648    113.41815    37373.809 
  777800    306.08937   -1514.9816    512.38854     378.7718    239.23963    37373.809 
  777900    306.03913   -1560.0982     520.4824    341.52239    53.261807    37373.809 
  778000    301.82621   -1585.3234    513.37752    290.17964    252.57485    37373.809 
  778100    316.85966   -1539.8675    515.90235     406.0055    220.80694    37373.809 
  778200    303.90629   -1555.6341    513.25236      329.131    186.95702    37373.809 
  778300    292.99318   -1564.9122    498.07911    255.42939     262.5348    37373.809 
  778400    302.56813   -1569.5399    516.83348    312.76737    180.67501    37373.809 
  778500    290.62708   -1517.3633    507.16669    301.38784   -57.891407    37373.809 
  778600    292.79798   -1540.1093    528.85559    310.12791    417.70606    37373.809 
  778700    301.69056   -1543.4608    519.25341    337.30588     926.1814    37373.809 
  778800    297.35164   -1560.2097    489.49338     271.2157    577.63091    37373.809 
  778900    298.09584   -1572.6416    512.97313    285.62206   -19.054275    37373.809 
  779000    301.47488    -1579.317    489.83091     271.0539   -377.70216    37373.809 
  779100    296.11252   -1567.4192    521.99272    290.91351    354.83658    37373.809 
  779200     302.4233   -1591.8737    509.40329    282.34968   -831.29113    37373.809 
  779300     300.5493   -1528.3269     505.7755    333.81152   -365.10888    37373.809 
  779400    310.30745   -1525.4923    528.64382    403.55235   -264.85111    37373.809 
  779500    296.92504   -1507.7931     517.6276     349.8413   -343.23238    37373.809 
  779600    291.81065   -1504.0936    496.62626    309.45846    258.04466    37373.809 
  779700    303.29223   -1524.2336    520.81008     365.3181   -2.9227422    37373.809 
  779800    307.46703   -1505.3041    520.65946    402.93757    649.61221    37373.809 
  779900    307.60018   -1487.9934    498.06894    398.25862    548.63787    37373.809 
  780000    297.68263   -1522.1545     507.2716    328.54285   -41.600599    37373.809 
  780100    288.60257   -1512.8657    511.80573    301.38792     462.1972    37373.809 
  780200    304.85691    -1498.043    510.49798     388.2579   -297.84386    37373.809 
  780300    307.07395   -1485.7471    544.14167    444.20289   -584.88267    37373.809 
  780400    304.83534   -1497.5479    499.38125    377.53888   -607.45195    37373.809 
  780500    293.65428   -1541.8157    510.81274    294.24305   -524.59494    37373.809 
  780600    293.88854   -1579.8642    534.54081    280.97988   -30.497497    37373.809 
  780700    294.00148   -1570.3142    483.89216    240.39083   -49.513022    37373.809 
  780800    304.53851   -1559.7533    516.71853    331.33125   -117.43269    37373.809 
  780900    302.94525   -1579.3542    503.62166    291.44312   -494.08909    37373.809 
  781000    295.38578   -1527.3462    505.09669    310.81074    160.43127    37373.809 
  781100    302.67546   -1565.5818    505.91096    306.28728   -246.71552    37373.809 
  781200    283.33979   -1531.8198    498.51595    245.39346    410.45671    37373.809 
  781300    300.01658   -1542.0826    509.32147    321.19765   -160.39295    37373.809 
  781400     306.3239   -1536.9013    511.28051    356.80258   -294.46462    37373.809 
  781500    290.18491   -1496.4705    520.87785    333.99633   -358.94997    37373.809 
  781600    311.58884   -1511.0861    504.91778    400.01548    223.47407    37373.809 
  781700    298.12203   -1482.8153    532.01408    394.60759    315.16122    37373.809 
  781800    307.66528   -1495.4676    517.68295    410.69223    1062.9298    37373.809 
  781900    296.39559   -1510.7756    502.39757    329.23944    646.06826    37373.809 
  782000    307.41075   -1530.4825    517.03032    373.87612    57.373435    37373.809 
  782100    314.12627   -1537.4224    524.30996    404.52263   -628.97265    37373.809 
  782200    285.68318   -1506.8635    519.14358    301.55299   -502.78153    37373.809 
  782300    295.47425   -1522.6043    535.66161    346.51679   -715.10272    37373.809 
  782400    296.51606   -1524.9828    495.80651    308.98477   -1043.8424    37373.809 
  782500    302.49272   -1569.0187    512.96421    309.07894   -970.01017    37373.809 
  782600    305.91224   -1549.8437    515.69678    346.41866   -298.84489    37373.809 
  782700     307.1482   -1562.1218    495.16374    319.18535     288.1625    37373.809 
  782800    299.70133   -1572.0314    542.95737    323.46198    57.924024    37373.809 
  782900     301.2081   -1590.5474    481.34655    250.13519   -42.494918    37373.809 
  783000     302.8588   -1534.7235     531.3079    363.36994    353.46564    37373.809 
  783100    299.80482   -1573.1565    508.04337    287.89001    261.46063    37373.809 
  783200    300.05433   -1542.8315    520.33464    331.63223   -296.41209    37373.809 
  783300    291.07207   -1553.5052    516.52086    276.60835   -487.78579    37373.809 
  783400    287.19376   -1507.8776    499.38352      287.596   -59.117481    37373.809 
  783500    302.92098   -1475.7709    549.36353    440.65879   -583.52842    37373.809 
  783600    311.79458   -1488.1613     504.4827    423.43362    178.64063    37373.809 
  783700    311.76048   -1494.9071     511.1459    423.19713     635.3655    37373.809 
  783800    309.42865   -1524.2028    539.23139    411.46348    288.62605    37373.809 
  783900    305.55772   -1539.9886     501.9727    340.94971    577.49669    37373.809 
  784000     297.6197     -1468.69    506.53617    380.98795    457.92875    37373.809 
  784100    300.80932   -1462.1005    511.65641    407.09228    341.27374    37373.809 
  784200    311.97416   -1511.7094    530.82997    427.04321    619.90245    37373.809 
  784300    291.83408   -1509.2044    528.59219     336.4194    280.94211    37373.809 
  784400    304.77212   -1535.1919    506.73453    346.96288    164.06222    37373.809 
  784500    293.73139   -1498.5661    533.05142    360.07937    496.30602    37373.809 
  784600    305.15555   -1497.6177    499.47276    379.00577    87.221081    37373.809 
  784700    303.46674   -1479.5299    526.89051    416.88968    179.89002    37373.809 
  784800    300.03052   -1515.4898    532.98296     371.5148   -406.14128    37373.809 
  784900    304.87827   -1506.8603    479.74208    348.78105    363.92422    37373.809 
  785000    307.06663   -1490.1811    495.69062    391.28472    653.30907    37373.809 
  785100    299.89479   -1517.4265    513.82446    349.80705    558.44978    37373.809 
  785200    299.69235   -1485.7504     484.7642    351.50933    195.87358    37373.809 
  785300    304.98963   -1456.0371    538.79293     459.1577    530.10545    37373.809 
  785400    300.25372   -1484.6017    523.75525    394.18252   -85.680018    37373.809 
  785500    291.66674   -1509.5557    520.66474    327.38542    337.29429    37373.809 
  785600    310.13659   -1494.5722    498.05097    403.10858    302.86407    37373.809 
  785700    296.88674   -1496.5933    512.70697    355.94768   -368.83558    37373.809 
  785800    307.52722   -1488.1335    523.21411    422.93447   -669.12884    37373.809 
  785900    294.34951   -1481.5784    498.54727    345.35244   -252.42602    37373.809 
  786000    299.05933   -1508.2012    499.70495    341.14248   -302.03371    37373.809 
  786100    302.40411   -1496.7541    509.44333    377.42281   -358.59292    37373.809 
  786200     307.7004   -1488.4646    532.78033    432.95119   -413.46038    37373.809 
  786300    295.07438   -1503.5917    509.17459    337.23773    -196.7703    37373.809 
  786400     293.9476   -1456.5187      505.207    375.25812   -669.70136    37373.809 
  786500    305.31185   -1487.7206    498.36952    388.50495   -455.62569    37373.809 
  786600     304.4227   -1520.5067    509.34093    362.67755   -422.92723    37373.809 
  786700     303.2454   -1508.5815    519.32548    379.27423   -35.402916    37373.809 
  786800    297.98871   -1516.7853    530.59681    358.61861    123.36727    37373.809 
  786900    303.75436     -1528.32    513.98105    356.48824    362.55816    37373.809 
  787000     294.3292   -1506.3999    495.83477    317.72681   -237.67138    37373.809 
  787100    298.54657   -1558.1069    507.24097    296.45874    -12.82985    37373.809 
  787200    306.73444   -1541.9633    499.91585    342.22862    371.74431    37373.809 
  787300    297.84275    -1516.779    531.55824    358.92757    377.01043    37373.809 
  787400    296.33396   -1530.8506    508.45643    314.94509    195.67854    37373.809 
  787500    288.29126   -1585.3568    519.72229    235.40855     -12.4948    37373.809 
  787600    293.85926   -1545.8183    512.79137    293.14414    1051.8077    37373.809 
  787700    299.85666   -1537.7802    524.27307    339.72996    649.72885    37373.809 
  787800    300.19641   -1539.9403    508.41713    323.24716    146.21435    37373.809 
  787900    302.80105   -1574.7152    488.26173    280.07148  -0.42703543    37373.809 
  788000    305.79741   -1539.0518    506.80021    347.79566    170.44705    37373.809 
  788100    301.13008   -1548.7563     529.3031    339.53076    512.87078    37373.809 
  788200    301.58195   -1482.7778    525.90526    404.15067    700.62103    37373.809 
  788300    289.21255   -1537.6771    511.06062    278.58421    39.381943    37373.809 
  788400    298.16994   -1526.0595    519.04218    338.60761   -48.250359    37373.809 
  788500    288.11165   -1552.9651    471.33907    218.60637    132.63303    37373.809 
  788600    299.32229    -1483.332    536.36935     403.8628   -96.395196    37373.809 
  788700    302.40708   -1510.9703    479.15647    332.93308   -479.25581    37373.809 
  788800    300.27528   -1514.2861    532.25443    373.09462   -560.69656    37373.809 
  788900    311.55674   -1506.7844    496.29083    395.54533   -512.77658    37373.809 
  789000    294.15928   -1494.6752    482.83243    315.68229   -479.40033    37373.809 
  789100    288.79633   -1513.2346    535.56484    325.65257   -397.49029    37373.809 
  789200    293.92317   -1491.8548    523.29354    357.89823   -438.89967    37373.809 
  789300    299.74341   -1506.2434    500.36758    346.85006   -496.57723    37373.809 
  789400    297.75372   -1538.3626    507.14608    312.53011   -866.42355    37373.809 
  789500    289.55716   -1534.4177    501.73731    274.07552   -459.60805    37373.809 
  789600    305.16646   -1511.2964    505.55813     371.4616   -582.65082    37373.809 
  789700    288.47007   -1481.3566    491.21723    311.71061   -434.18554    37373.809 
  789800    315.43696   -1516.2147    494.89704     402.2325    -360.9091    37373.809 
  789900    309.71911    -1470.548     503.9058    431.10355   -140.24603    37373.809 
  790000    301.23092    -1450.502    542.07548    451.01248   -382.90557    37373.809 
  790100    300.62139   -1508.2425    503.66579    352.11148    -160.0559    37373.809 
  790200    296.54804   -1498.7606    481.78407    321.32888   -14.209312    37373.809 
  790300    306.95584   -1480.0734    521.17176    426.37358   -428.86488    37373.809 
  790400    299.07574   -1479.6024    499.88447    369.99486   -602.79981    37373.809 
  790500    301.00659   -1466.1257    508.95422     401.2551   -890.54429    37373.809 
  790600    300.92297   -1514.5376    513.51112    357.02274   -219.11211    37373.809 
  790700    297.99976   -1521.1795    504.60106    328.27856    86.951051    37373.809 
  790800    309.84453   -1494.7242    531.22862    434.81623    657.76132    37373.809 
  790900     308.2523   -1468.9634    523.81623     445.9789    783.09235    37373.809 
  791000    294.75258   -1501.5748    482.57795    311.20575     532.7064    37373.809 
  791100    299.37243   -1467.8899    515.93283    399.09469   -62.163917    37373.809 
  791200    298.64294   -1483.8542    514.69689    378.60225   -380.98587    37373.809 
  791300    306.46782    -1478.492    516.53365    421.11449   -444.75679    37373.809 
  791400     295.7685   -1458.1871    517.43383    394.03405    -123.7937    37373.809 
  791500    302.35036   -1505.6553    518.77091    377.60665   -372.42706    37373.809 
  791600    288.61545   -1468.0141    502.63563    337.12764   -416.22419    37373.809 
  791700    301.27453   -1508.1443    502.84616    354.33771   -676.54717    37373.809 
  791800    299.75006   -1426.4977    488.44453    414.70276    -892.0847    37373.809 
  791900    291.37151    -1465.911    512.61346    361.64645   -855.58451    37373.809 
  792000    305.97598   -1484.9609    489.45517    385.34749    90.982787    37373.809 
  792100    294.33808   -1527.1614     509.5083    310.67891   -328.11178    37373.809 
  792200    311.19704   -1457.2103     539.2783    486.48354   -62.394783    37373.809 
  792300    301.33632   -1478.5873    509.35462    390.68199   -279.88852    37373.809 
  792400    301.98549   -1455.9178    503.37909    410.30557   -630.22659    37373.809 
  792500     300.2568   -1477.5257    491.41593     368.9331   -456.65764    37373.809 
  792600    285.38627   -1489.4407    515.22906    313.72132   -508.13251    37373.809 
  792700     285.9122   -1517.1978    504.84186    277.95049   -105.52769    37373.809 
  792800     304.0982   -1469.9602    516.94909    419.36773   -124.12257    37373.809 
  792900    301.27693   -1483.8525    506.53085    382.32497   -77.809087    37373.809 
  793000    293.64034   -1536.6456    516.10616    304.64373   -659.49337    37373.809 
  793100    301.28572   -1524.1857    464.19765    299.69822   -506.88494    37373.809 
  793200    298.65327   -1531.8842    509.38219    325.30421    -959.1734    37373.809 
  793300    293.05279   -1526.1446    502.52777    298.91467    -391.3396    37373.809 
  793400    306.92799   -1535.0734    511.25336    361.32951    110.40783    37373.809 
  793500    291.95991   -1525.3087    524.32802    316.61872    287.18765    37373.809 
  793600    307.53039   -1525.6009    510.66415    372.93139    67.948649    37373.809 
  793700     300.9029   -1521.7929    533.31955    369.48537    146.84419    37373.809 
  793800    300.16214   -1532.8327    495.97825    317.76126    342.65791    37373.809 
  793900    294.67094   -1552.9017    502.67587    279.60832    21.791793    37373.809 
  794000    292.21202   -1561.8654    504.42817    261.29995   -471.26678    37373.809 
  794100    304.61367   -1563.7762    484.82802    295.75698   -447.85541    37373.809 
  794200    307.25768   -1541.6271    487.61576    332.62611    92.549152    37373.809 
  794300     304.6542    -1544.683    528.67993    358.88504    505.02998    37373.809 
  794400    299.61086   -1534.7227      492.297    309.70205    411.81787    37373.809 
  794500    291.25298   -1540.2694    511.58781     285.7275   -187.87804    37373.809 
  794600    291.47168   -1556.0636    505.31577    264.64823   -269.24131    37373.809 
  794700     297.3295   -1558.1528     493.2727    276.95201   -208.81242    37373.809 
  794800    297.73074    -1581.435    482.35329    244.56115   -178.50733    37373.809 
  794900    301.77913   -1547.9262    478.68562    292.67245   -27.212186    37373.809 
  795000    306.27793   -1568.2934    507.36021    321.28269   -291.92159    37373.809 
  795100    305.36189   -1556.5992    488.04875    309.53145   -296.53343    37373.809 
  795200    295.63103   -1593.1274    494.44415    235.48376    3.5036472    37373.809 
  795300    297.32894   -1566.8515    525.25429    300.23239   -83.424682    37373.809 
  795400    309.65759   -1510.2689    527.00829    414.20751    444.15577    37373.809 
  795500    297.24816   -1541.7309    481.87251    281.60662   -393.26387    37373.809 
  795600    291.18461    -1543.149     510.4516    281.40312   -670.24185    37373.809 
  795700    306.38546   -1509.9024    513.48511    386.28386   -709.45377    37373.809 
  795800    293.47113   -1494.0123    490.93568    321.34284   -590.25642    37373.809 
  795900    306.84434   -1514.6598    521.97714    392.08946   -1006.8169    37373.809 
  796000    307.27045   -1533.5116    481.57398    334.75748   -752.99649    37373.809 
  796100    287.32599   -1552.0369     498.5794    243.22933   -647.93121    37373.809 
  796200    300.46924   -1530.2342    482.39271    308.16011   -373.36247    37373.809 
  796300    303.06686   -1591.2023    517.09258     293.6148   -346.63158    37373.809 
  796400    304.68728    -1551.208    514.70369    338.53309   -305.01243    37373.809 
  796500    295.39927   -1530.3464    489.57023    292.34487   -72.852165    37373.809 
  796600    303.63826   -1519.4472    513.33015    364.18612    250.62628    37373.809 
  796700    296.69029   -1537.9913    501.23835    302.19441   -452.27231    37373.809 
  796800    292.33456   -1587.0475    506.38762    238.63031    -652.8082    37373.809 
  796900    303.40686   -1568.2729    494.75872     295.7447    -744.8033    37373.809 
  797000    291.93348   -1563.3165    532.13426    286.29786   -942.12736    37373.809 
  797100     305.8265   -1559.1922    507.90247     328.8889    315.75694    37373.809 
  797200    298.36694   -1584.5641    530.85899    292.80893    268.75127    37373.809 
  797300    301.29297   -1581.3917    480.04627    258.37361    197.06369    37373.809 
  797400    300.64017   -1558.1676    522.74014    321.34551    117.56321    37373.809 
  797500    293.65066   -1546.0257    519.75184    298.95578   -46.319877    37373.809 
  797600    293.46602   -1561.1276    476.69787    239.96676    -298.6853    37373.809 
  797700    291.06237   -1524.4798    507.31216    296.38126     63.64564    37373.809 
  797800    294.25806   -1560.5851    524.81596    292.20174    17.609449    37373.809 
  797900    303.24208   -1527.6493    521.05351    361.91945   -181.43818    37373.809 
  798000    289.51289   -1535.1521    477.18036     248.5844   -36.402693    37373.809 
  798100    303.35685   -1545.0837    536.99215    360.94162    242.33964    37373.809 
  798200    286.65702   -1556.1587    486.66285    224.17194   -16.300574    37373.809 
  798300    307.95012   -1536.8884    529.76656    382.64057   -433.16025    37373.809 
  798400    304.22944   -1550.9731    468.05961    290.05768   -312.96535    37373.809 
  798500    301.75028   -1609.0791    515.21914    267.92284   -423.96047    37373.809 
  798600    304.04497   -1558.7813    537.14495    350.50232    -51.64475    37373.809 
  798700    298.86966   -1564.4394    487.04056    271.38389   -102.51906    37373.809 
  798800    301.58649   -1551.8166    507.62057    316.84767   -664.88741    37373.809 
  798900    304.48495   -1560.6974    516.20738    329.63428   -769.88462    37373.809 
  799000    300.00525   -1581.3952    506.88194    279.39441   -122.52929    37373.809 
  799100    312.07049    -1552.018    488.17371    344.51314    140.32784    37373.809 
  799200     296.3652   -1572.0861    518.29841    283.69259    535.98787    37373.809 
  799300    291.67516   -1590.6203    521.06535    246.75939   -247.93723    37373.809 
  799400    310.04703   -1616.1997    482.90604    265.93194     4.482719    37373.809 
  799500    289.55723   -1590.8245    502.55975    218.49145   -384.01231    37373.809 
  799600    311.24489   -1584.8105    526.66338    346.48441    -210.9347    37373.809 
  799700     300.0793   -1560.2682    514.86627    308.83985   -394.46355    37373.809 
  799800    310.02697    -1544.465    516.56772    371.23783   -59.692751    37373.809 
  799900    300.47382   -1553.2067    519.03212    321.84766    286.74764    37373.809 
  800000    295.95571   -1581.0243    520.00675    274.61475   -7.7432276    37373.809 
  800100    314.39598    -1551.257    498.47432    366.06952   -474.11925    37373.809 
  800200    295.83167   -1546.3597    490.18917    278.90197    116.59152    37373.809 
  800300    298.44159   -1559.6927    494.18983    281.34802   -122.92367    37373.809 
  800400    312.60895     -1540.61    511.13123    381.30863   -448.94169    37373.809 
  800500    302.49984   -1575.0012    507.04033    297.20465   -436.97189    37373.809 
  800600    292.48068   -1575.8707    518.68743    262.76632    414.94201    37373.809 
  800700    308.65866   -1519.2679    500.75869    374.45076    70.589941    37373.809 
  800800     298.4121   -1501.1055    514.65607    360.26836   -480.93768    37373.809 
  800900    292.29697   -1516.1142    514.52082    317.52714   -404.54473    37373.809 
  801000    300.73952   -1523.3087    499.07756    332.99018   -33.789261    37373.809 
  801100    303.67333   -1519.0558    497.55542    348.96113   -218.48472    37373.809 
  801200    304.99835   -1548.1153    514.14701    342.47297    113.31316    37373.809 
  801300     305.9866   -1536.5707    524.57366    368.90412   -21.840421    37373.809 
  801400    315.22792   -1522.2568     500.1016     400.4515     -270.555    37373.809 
  801500    295.59081   -1524.2572    495.26135     304.9896   -418.92458    37373.809 
  801600    295.21687   -1496.9585    538.31072    373.65016   -494.37588    37373.809 
  801700    305.01231   -1491.9534    496.84116    381.39196    50.258572    37373.809 
  801800    297.46367   -1523.1839    502.00551    321.25926   -109.22372    37373.809 
  801900    308.99192   -1544.3577    508.94022    359.04648   -19.147967    37373.809 
  802000      296.015   -1515.3452    517.34605    337.90066    439.51034    37373.809 
  802100     307.9441     -1516.57     515.0945    388.25975   -439.08538    37373.809 
  802200    308.61374   -1541.1015    484.53227    336.18805   -844.39287    37373.809 
  802300    307.93744   -1497.9546    485.73152    377.48207    -827.3342    37373.809 
  802400     302.2495   -1517.7163    508.87877    355.19821   -339.48147    37373.809 
  802500    294.19904   -1526.5249    503.82123    305.00078    29.461651    37373.809 
  802600    292.63112   -1509.6367      494.636    305.62792   -134.10421    37373.809 
  802700    305.79172   -1481.5354    521.35247    419.83871    405.92726    37373.809 
  802800    298.69627   -1505.0012    499.05129    342.05038    492.92267    37373.809 
  802900    293.50101   -1493.7607     511.4433    342.23696    558.20272    37373.809 
  803000    304.09637   -1496.4997    478.41205    354.28294     595.3531    37373.809 
  803100    291.19044   -1499.8918     536.3114    350.54646    23.931895    37373.809 
  803200    296.67667   -1547.5847    477.75213    269.05337    220.30164    37373.809 
  803300     312.2393    -1497.393    541.39051    453.11672    89.806142    37373.809 
  803400    302.93656   -1480.0762    508.41521    395.47543    50.145495    37373.809 
  803500    301.43921   -1483.7564    516.53006    393.15261   -243.40729    37373.809 
  803600    295.32358   -1509.6215    517.70359    340.86158   -927.48867    37373.809 
  803700    291.46739   -1489.4746    516.96621    342.86836    -512.6308    37373.809 
  803800     306.7495    -1486.658    469.52069    367.20673   -383.54941    37373.809 
  803900    306.48132   -1526.0579     528.1341    385.20997   -635.23125    37373.809 
  804000    300.89932   -1511.1044    500.54128     347.3794   -448.27484    37373.809 
  804100     289.7611    -1503.611     491.5899    295.65526    88.757031    37373.809 
  804200    304.59809   -1514.2465    519.05811    379.44651    343.23948    37373.809 
  804300    293.84499   -1533.3498    470.99858     263.7555    1040.9087    37373.809 
  804400     288.5577    -1492.747    513.52737     323.0258    254.39253    37373.809 
  804500     300.8301   -1473.9451    520.01986     403.7049    721.86632    37373.809 
  804600    297.85509   -1485.9175    485.14242    343.42902    232.40726    37373.809 
  804700    302.74787   -1461.4411    511.86608    416.70993    35.393677    37373.809 
  804800    294.10592   -1441.7214     512.3694    397.93229   -130.51235    37373.809 
  804900    301.67073   -1446.4806    487.66288    402.60611   -231.32712    37373.809 
  805000    293.14536   -1489.8586    499.28691     332.3776    -321.7416    37373.809 
  805100    309.17074   -1504.0977    481.06716    372.24044   -571.38965    37373.809 
  805200    297.97671   -1494.9282    485.16515     334.9899   -556.37663    37373.809 
  805300    296.08365   -1476.7271     517.9293    377.41191   -525.78931    37373.809 
  805400    299.54505   -1480.6648    503.50392    374.66988   -62.857815    37373.809 
  805500    293.03263   -1498.7884    495.24371    318.89589     90.75806    37373.809 
  805600    298.68801   -1488.0543    503.63746    363.54613     273.4487    37373.809 
  805700    298.93077    -1515.531    508.21919     341.7467    671.32516    37373.809 
  805800    290.70208   -1548.7062    520.04162    283.25835    942.90403    37373.809 
  805900    288.31197   -1510.4834    489.25056    279.90362    348.07562    37373.809 
  806000    303.79341   -1552.0611    511.41442    330.35667    193.80341    37373.809 
  806100    296.23745   -1520.9589    469.27994     285.2248    89.203811    37373.809 
  806200    301.30647   -1514.5598    523.77813    368.99832    34.490738    37373.809 
  806300    300.06289   -1476.3052    504.57326    382.43577   -440.34119    37373.809 
  806400    301.73456   -1450.9937    505.33656    416.05477     552.6492    37373.809 
  806500    314.34798   -1486.0127    476.66794    409.29086   -335.26854    37373.809 
  806600    306.02789   -1489.4666    504.16699    395.78789   -240.46734    37373.809 
  806700    292.41131   -1482.1711    504.72281     342.1883   -200.68248    37373.809 
  806800     293.8039   -1494.5239    513.57167    344.96904    22.679957    37373.809 
  806900     296.2433   -1477.4595    487.91177    347.38235   -476.15968    37373.809 
  807000    302.17102   -1465.0326    530.16932    428.81834    26.549454    37373.809 
  807100    299.20283   -1451.2129    529.15965    428.23309    302.60017    37373.809 
  807200    299.94313   -1476.8569    516.06962    392.83996    701.39815    37373.809 
  807300    296.19682   -1494.8493    520.61613    362.48722   -483.08532    37373.809 
  807400    286.76569   -1469.0276    492.38853    317.51918   -247.28676    37373.809 
  807500    286.27603   -1455.2448    495.14284    331.84636    296.97052    37373.809 
  807600    291.44021   -1458.3577    505.42961    362.32594    92.281892    37373.809 
  807700     316.8623   -1476.1998    519.19165    472.97446    -125.5462    37373.809 
  807800    300.60076   -1441.1833    470.24201    385.65383   -6.2079503    37373.809 
  807900    300.69222    -1435.092    502.64027    424.55614   -281.77273    37373.809 
  808000    311.77129     -1459.18    513.82514    461.65228   -371.30912    37373.809 
  808100    293.99593    -1465.433    482.07823    343.43309   -248.07157    37373.809 
  808200    303.54713   -1492.9972    507.50549    384.40018     87.48989    37373.809 
  808300    308.67456   -1469.2055    490.37386    414.20005    79.077783    37373.809 
  808400    300.16007   -1484.5112    485.81495    355.91012   -258.62289    37373.809 
  808500    265.61603    -1530.784    515.51383    183.44071   -567.90987    37373.809 
  808600    313.17446   -1533.9549    481.79758     361.1822   -156.73288    37373.809 
  808700    296.72211   -1526.3057    491.46326     304.2486   -304.20538    37373.809 
  808800    297.01257   -1533.6353    518.09455    324.86109   -1.5940685    37373.809 
  808900    297.44658    -1468.827    487.76033    361.29387    277.79695    37373.809 
  809000    299.67908   -1521.0428    476.13704    307.52982    314.83312    37373.809 
  809100     296.1477    -1523.516    479.83876    292.82152   -378.32481    37373.809 
  809200    293.58956   -1526.0062    506.46696    305.41475   -414.62403    37373.809 
  809300    295.85261   -1514.9315    474.81021    295.04565   -396.50143    37373.809 
  809400    295.86147   -1487.5396    485.62556    333.29288    180.83542    37373.809 
  809500    308.23289   -1506.1272    502.69237    387.60371     116.7328    37373.809 
  809600    297.13822   -1507.2301    507.58971    341.32847   -34.976877    37373.809 
  809700    294.26727   -1497.1026    498.31356    329.22337   -214.40225    37373.809 
  809800    302.82614   -1514.1282    501.34541    353.85533   -109.32497    37373.809 
  809900     301.8978   -1465.8668    482.21427    378.79607   -246.31313    37373.809 
  810000    304.79257   -1482.4074    483.39769    376.50281   -552.11778    37373.809 
  810100    294.52751   -1474.3006    517.32978    372.21602     -282.687    37373.809 
  810200    300.79328   -1450.4422    484.98545    392.00726   -449.36807    37373.809 
  810300    297.90302      -1454.4    504.17443    394.19479   -165.12675    37373.809 
  810400     300.6863   -1452.7893    497.66548    401.85738    475.97569    37373.809 
  810500    294.91145   -1415.5393    520.02785    435.40814   -102.56948    37373.809 
  810600    298.79274   -1444.2096    521.47025    425.69625    569.51563    37373.809 
  810700    298.92617   -1470.0812    495.97975    374.93632    479.64924    37373.809 
  810800    300.25359    -1444.446    516.91231     427.4947    469.99211    37373.809 
  810900    297.84262   -1472.9377    479.35671    350.56679   -35.882749    37373.809 
  811000    292.07138   -1472.3975    511.96278    357.66781     363.7224    37373.809 
  811100     290.9728   -1457.4704    506.62588    362.30019    346.68171    37373.809 
  811200    295.42955   -1469.6243    518.16411    381.79751      580.518    37373.809 
  811300    303.18879   -1449.5711    515.56823    434.27188    726.73861    37373.809 
  811400     300.6069   -1427.0132    528.66396    458.27361    99.565445    37373.809 
  811500    304.84467   -1480.5379    482.89762    378.10736    -579.0153    37373.809 
  811600    304.75656   -1444.5289    510.92927    441.75037   -498.10599    37373.809 
  811700    295.83234   -1484.7814    482.93193    333.22601   -989.69207    37373.809 
  811800    305.23465   -1480.6006    502.99274    399.89976   -45.489309    37373.809 
  811900    297.20769   -1487.1055    489.08747    343.26433    70.279856    37373.809 
  812000    289.93295   -1539.3654    518.24163    287.32804    637.11906    37373.809 
  812100    299.42634   -1522.3558    499.68469    328.62389    263.85056    37373.809 
  812200    297.50035   -1506.6657    471.24142    307.17885   -272.63561    37373.809 
  812300    305.66398    -1519.712    494.65964    354.39283   -493.56915    37373.809 
  812400    295.90327   -1536.9049    494.96069    293.45142   -200.41504    37373.809 
  812500     297.3564   -1521.5135    491.18314    311.62313   -284.94332    37373.809 
  812600    297.82814   -1499.1588     502.6987    347.62237   -451.71333    37373.809 
  812700    297.16079   -1511.7806    512.64233    341.93245   -530.23334    37373.809 
  812800    301.00998   -1565.4276    477.40167    270.41599   -481.46886    37373.809 
  812900    293.52157   -1528.0028    509.41998    306.06434   -128.56201    37373.809 
  813000      284.571   -1524.6345    490.76629    250.38541    60.250242    37373.809 
  813100    295.47473   -1538.7445    525.87567    320.59277   -27.648756    37373.809 
  813200     303.4397   -1501.8651    512.16372    379.70575    480.14826    37373.809 
  813300    311.51422   -1543.1799    500.53643    363.20358   -109.38683    37373.809 
  813400    299.71242   -1483.4287    516.37768    385.53514    9.5171641    37373.809 
  813500    309.64149   -1505.5938    506.93699    398.73865   -76.078285    37373.809 
  813600    301.74743   -1498.1092    486.45096    350.11176    89.035508    37373.809 
  813700    309.26235   -1505.1276     500.5038    391.06061   -297.23248    37373.809 
  813800    293.73434   -1503.0863    487.09003     309.6111   -437.05184    37373.809 
  813900    308.09865   -1472.1562    518.68466    436.96112    -131.9136    37373.809 
  814000    304.66936   -1438.5942    504.77385    441.13609   -13.716186    37373.809 
  814100    297.44117   -1501.5817    533.30979    374.06415   -461.31084    37373.809 
  814200     282.6274   -1535.2497    518.13275    258.36538     177.7384    37373.809 
  814300    297.77727   -1532.8015     469.6957    280.74701    132.80109    37373.809 
  814400    290.31834   -1490.6472    512.19106      331.735    177.25339    37373.809 
  814500    306.80831   -1467.0086    492.96146    410.56236    592.81744    37373.809 
  814600    305.11232   -1507.5046    512.80655    382.25752    -324.1916    37373.809 
  814700    307.52433   -1479.2788    504.26827    412.83027   -376.22409    37373.809 
  814800    296.06792   -1507.5841    507.80631    336.36082   -257.44499    37373.809 
  814900    318.81923   -1516.2569    513.57644    436.13365   -27.207707    37373.809 
  815000    305.03488   -1463.4733     501.0641    414.19683    102.25329    37373.809 
  815100    301.77995   -1536.4398    498.89813    324.37508   -83.818247    37373.809 
  815200    309.50894   -1530.4948    485.09738     351.3999   -102.20597    37373.809 
  815300    299.37973   -1513.2946    483.60461    321.39466   -26.531794    37373.809 
  815400    306.95104    -1534.187     515.2448    366.31142    241.80211    37373.809 
  815500    295.76397   -1479.3834    527.26213    382.64569    579.40593    37373.809 
  815600    308.12999   -1496.5237    494.47397    388.52446    157.29005    37373.809 
  815700    297.78424   -1484.2681    515.05878    374.67497    401.09554    37373.809 
  815800     302.9869   -1482.6938    511.79136    396.46116    91.157933    37373.809 
  815900    309.10118     -1523.07    517.30755    389.19467    670.55592    37373.809 
  816000     288.5189   -1504.0415    507.50491    305.53369   -156.02302    37373.809 
  816100     298.4479   -1517.2644     497.6489    327.26388    396.89866    37373.809 
  816200    303.59919   -1505.1294    496.75983    361.75728    239.50044    37373.809 
  816300    305.48537   -1534.3543    487.99941    332.28426    576.66092    37373.809 
  816400    303.37093    -1491.489    516.25386    393.86155     106.8454    37373.809 
  816500    309.73783   -1474.8818    520.02766    442.97608   -141.52926    37373.809 
  816600    298.21485   -1473.6912    499.73188    371.86826   -322.24101    37373.809 
  816700    294.42298   -1433.3001    515.54946    410.96454    361.53599    37373.809 
  816800    292.61234   -1485.5456    497.29411     332.2923     343.6643    37373.809 
  816900    295.09597   -1468.0466    502.59272    366.29843    645.80821    37373.809 
  817000    301.68267   -1429.0528    505.31712     437.7421   -331.66494    37373.809 
  817100    290.48004   -1436.2523    509.73435    384.40289   -299.54182    37373.809 
  817200    303.65946   -1453.0554    508.67679    426.02029   -305.01843    37373.809 
  817300    288.58292   -1463.6872    498.30125    336.97336   -723.89848    37373.809 
  817400    300.27044   -1434.1575    511.45159    432.39846   -516.71168    37373.809 
  817500    299.08318   -1467.0908    516.38338    399.03897   -561.58377    37373.809 
  817600    312.44868   -1460.0464    493.29215     443.3099    179.45789    37373.809 
  817700    312.75033   -1407.1362    490.34515    494.63438    115.62184    37373.809 
  817800    295.17439   -1472.4586    524.44553     384.0931    215.87898    37373.809 
  817900    301.64509   -1467.6433    519.94833     413.6131    408.92735    37373.809 
  818000    303.02986   -1487.4065    501.95924     382.1103    402.89935    37373.809 
  818100    291.03837   -1502.3632    469.23894    280.31637   -214.39771    37373.809 
  818200    302.36393   -1512.4641    503.08647    355.17456   -668.39407    37373.809 
  818300    294.93083   -1473.2598    496.40028    354.14752   -1.9816868    37373.809 
  818400    288.37228   -1476.3745    523.69762    348.73179    202.18034    37373.809 
  818500    298.05089   -1508.4656     529.1988    365.82088    5.0544243    37373.809 
  818600    302.28489   -1514.0947    501.22823    351.32903    41.537605    37373.809 
  818700    298.40207   -1539.6347    504.08001    311.11784   -216.31608    37373.809 
  818800    298.70791   -1546.9956    511.55075    312.60788   -135.09085    37373.809 
  818900    294.20085   -1522.9422    507.21483    311.98526    138.07728    37373.809 
  819000     306.0811    -1580.143    480.50074    281.68535    -251.4606    37373.809 
  819100     301.7136   -1528.3362    470.25009    303.53124   -269.49174    37373.809 
  819200    304.07598   -1514.6638    495.39787    353.01262   -130.57539    37373.809 
  819300    295.64607   -1547.5198    497.79296    284.50803   -472.95331    37373.809 
  819400    298.53816   -1527.0118    487.83485    308.10976   -588.76519    37373.809 
  819500    300.75716   -1486.3448    503.78444    374.74057   -331.72567    37373.809 
  819600    302.55975   -1517.3738    502.87007    350.93216   -778.10715    37373.809 
  819700    301.64092   -1537.7147    498.64061     322.2152    -476.7387    37373.809 
  819800    298.23415   -1525.9703    481.98402     301.9285    20.486852    37373.809 
  819900    297.61721   -1491.7597    513.36544    364.73621   -94.869766    37373.809 
  820000    300.14019   -1513.4647    518.62323    359.67515    10.626247    37373.809 
  820100    290.42811   -1524.1547    484.14164    270.67341    16.833016    37373.809 
  820200     290.5048   -1489.8498    498.66414    319.84688    261.15455    37373.809 
  820300    292.95647   -1505.3107    490.58652    307.37264    5.9306477    37373.809 
  820400    294.08974   -1527.8224    491.98605    291.37491    443.99932    37373.809 
  820500    291.92722   -1473.7975    520.15272    363.80717    368.46923    37373.809 
  820600    297.32659   -1486.4862    517.24844    372.58125   -293.79409    37373.809 
  820700     307.3106   -1520.5473    481.50027    347.82921   -374.81828    37373.809 
  820800    296.74967   -1469.2539    480.65385    350.61526   -466.41154    37373.809 
  820900    306.70265   -1505.6452    495.41521    373.90264    39.688415    37373.809 
  821000    304.80486   -1525.1654    507.15629    357.55883    46.121602    37373.809 
  821100    311.26211   -1484.9763     514.5035    434.23643     466.7409    37373.809 
  821200     317.8932   -1478.9433    497.69447    453.38616    14.684129    37373.809 
  821300    298.43998   -1513.2376    493.72017    327.32614    72.022137    37373.809 
  821400    300.65361   -1506.2778    536.31039    386.86627     438.9111    37373.809 
  821500    301.23647   -1491.0549    478.80573    347.21482    251.24175    37373.809 
  821600    303.74597   -1495.7632    513.27495    388.30101   -88.268471    37373.809 
  821700    291.72121   -1502.4854    515.19844    329.23523   -632.01765    37373.809 
  821800    308.57076   -1514.6901    491.17143    369.04463   -220.19887    37373.809 
  821900    298.07574   -1499.3628     486.3643    332.20135    -572.6317    37373.809 
  822000    297.81461   -1503.0216    481.65171    322.65147   -96.058966    37373.809 
  822100    295.51347   -1493.0347    484.24756    324.84928   -313.28971    37373.809 
  822200    297.37349   -1465.4757    504.63663     381.1915    54.458431    37373.809 
  822300    305.79176   -1460.0989    490.05878    409.98169     419.3085    37373.809 
  822400    303.58502   -1495.3324    489.89382    364.62438    105.34765    37373.809 
  822500    312.94371   -1503.4839    523.27186    432.08619    376.95655    37373.809 
  822600     302.7076   -1504.1727    470.58412    332.51457    626.96728    37373.809 
  822700    295.78911     -1530.62    501.13797    305.39839   -108.68527    37373.809 
  822800    300.41661   -1500.5284    501.95924    357.19493   -199.09206    37373.809 
  822900    304.26854   -1518.9408    467.71717    321.92402   -124.97109    37373.809 
  823000    285.82722   -1531.0414    515.22618    274.10773    79.600577    37373.809 
  823100    292.73966   -1505.8014    485.68886    301.00589   -71.716537    37373.809 
  823200    305.89791   -1504.3136    483.92349    360.11075   -48.037672    37373.809 
  823300    294.21553   -1517.9064    457.88242    267.75493    23.728718    37373.809 
  823400    301.79585   -1519.2398    503.35856    346.10726    351.07822    37373.809 
  823500    298.14216    -1544.083     498.8315    300.24813    105.80509    37373.809 
  823600    305.01409   -1531.5367    495.65019    340.62573    360.67597    37373.809 
  823700    294.68875   -1488.6243    473.72437    315.01462    2.9363207    37373.809 
  823800    306.43087   -1491.6337     484.5677    375.84009   -88.587258    37373.809 
  823900    298.64646   -1477.6275    497.11799    367.26599   -742.25737    37373.809 
  824000    300.67112   -1485.3784    496.08903     367.6233   -821.78872    37373.809 
  824100    294.91225   -1497.0107    459.17733    293.08977   -1063.9203    37373.809 
  824200    293.09915   -1483.2742     517.6905    357.15708   -350.12852    37373.809 
  824300    289.51449   -1491.9014    487.29433    301.95626    146.32168    37373.809 
  824400    308.71967   -1482.0135     463.8892    375.11099    684.77828    37373.809 
  824500    300.85766     -1489.84    497.74962     365.6641    594.00557    37373.809 
  824600    292.05687   -1447.9399    467.47491    337.57206    911.67404    37373.809 
  824700    300.93245   -1461.1914    466.91344    363.81409    295.49107    37373.809 
  824800      303.111   -1466.1497    521.08055    422.85459    522.31963    37373.809 
  824900    301.09097   -1481.8607    490.33082    367.27749    484.60298    37373.809 
  825000    298.43785   -1503.9313    473.10587    316.00855    330.83846    37373.809 
  825100    302.49819   -1480.5491    515.76226    400.37126    599.48673    37373.809 
  825200    298.34937   -1498.0992    488.88535    337.22092    155.75363    37373.809 
  825300    312.52918   -1481.3348    484.95962     414.0522    617.30155    37373.809 
  825400    308.26403   -1480.0475    493.10368     404.2352    235.78659    37373.809 
  825500    298.90773   -1521.8285     483.8154    310.94144    223.97849    37373.809 
  825600    294.60721   -1485.7177    482.46996    326.29877    104.80085    37373.809 
  825700     313.3205   -1491.7939    487.48844    409.69319     126.3573    37373.809 
  825800    294.96283    -1511.339     463.3647    283.17712    27.866346    37373.809 
  825900    293.94108   -1496.8108    505.66405    335.39354    694.18456    37373.809 
  826000    302.27153   -1548.0526    450.77213    266.85478   -1.0781697    37373.809 
  826100    305.28385   -1517.9555    473.84835    333.62255    220.88873    37373.809 
  826200    313.29109   -1527.6443    468.65524    354.87686   -292.94314    37373.809 
  826300    297.89618   -1489.7076    465.02968    319.71154     46.49389    37373.809 
  826400    304.14047   -1465.6293    487.59887     394.5392   -302.41562    37373.809 
  826500    296.02678   -1473.7346    493.11293    355.33131     178.5016    37373.809 
  826600    299.00931   -1491.7245    486.05905    343.74754    798.43191    37373.809 
  826700    299.45013   -1498.9093     472.3279    324.82095    1141.8276    37373.809 
  826800    294.04972   -1482.1288    456.07467    300.97657    458.25276    37373.809 
  826900     291.0461   -1465.9662    490.80435    338.31365    520.00454    37373.809 
  827000    295.65498   -1453.7104    481.60605     362.1707    1095.7816    37373.809 
  827100    294.53506   -1422.8354    507.25561    413.64113    969.52367    37373.809 
  827200    304.88817   -1449.0895    474.46378    401.31829     735.9855    37373.809 
  827300    294.17498   -1466.5607    486.89389    347.92913    412.24113    37373.809 
  827400    288.91873   -1437.0654    509.98254    376.79186    254.66577    37373.809 
  827500    304.31636   -1490.6063    474.67001    357.42717    251.79485    37373.809 
  827600     304.9071   -1490.9528    491.42077    376.49741    618.58346    37373.809 
  827700    296.52201   -1477.4491    479.62574    340.36459     624.8458    37373.809 
  827800    307.16025    -1492.695    471.98268     365.4854    835.19009    37373.809 
  827900    308.44246   -1441.6179     490.1321    440.49853    382.27198    37373.809 
  828000    291.10735   -1418.3992    495.39798    390.75063     665.6672    37373.809 
  828100    311.70714   -1477.0988    484.59173    414.21053   -57.891324    37373.809 
  828200    299.18392   -1467.4948    452.64594     335.3521   -144.38187    37373.809 
  828300    303.99665   -1406.2715    488.52673    454.17583   -828.67383    37373.809 
  828400    302.48159   -1405.3137    488.80377    448.57331   -555.88271    37373.809 
  828500    291.31506   -1375.2601    464.26443    403.69364   -219.78505    37373.809 
  828600    297.26002   -1455.2791    474.35141    360.59088    176.51479    37373.809 
  828700    307.15817   -1462.2537    460.78623    384.72091    206.24971    37373.809 
  828800    301.62483    -1442.758    482.08213    400.54085    156.99562    37373.809 
  828900    311.97495   -1449.8993    482.77407    440.80103    227.71123    37373.809 
  829000    306.79192   -1460.0557    462.04018    386.51998   -128.59358    37373.809 
  829100    301.13851   -1410.0709    476.44032    425.39135    715.24609    37373.809 
  829200    299.84791   -1429.6976    478.87984    402.37981    411.43348    37373.809 
  829300      292.763   -1448.0295    461.62276      334.817    160.60216    37373.809 
  829400    302.06412   -1437.7104    466.10804    391.59684    198.56105    37373.809 
  829500    293.18908    -1450.825    466.93921    339.26085    94.180704    37373.809 
  829600     294.4835   -1432.6412    485.87621    382.22325    433.85321    37373.809 
  829700    309.13984   -1461.9977    474.78288     407.9167    176.26864    37373.809 
  829800    300.22654   -1465.7499    481.13068    370.28706   -644.68555    37373.809 
  829900     295.8574   -1416.8368    467.77359    386.12541    6.0261044    37373.809 
  830000    304.78878   -1418.2245    459.83916    417.11012   -38.802582    37373.809 
  830100    301.18501     -1405.83    490.79014    444.19197   -172.38138    37373.809 
  830200    282.10867   -1452.5421    456.24359    276.84282    32.287585    37373.809 
  830300    297.16545   -1413.5151    463.45433    391.03098    231.13714    37373.809 
  830400    303.20072   -1431.8438    501.83034    438.31513    520.44139    37373.809 
  830500    303.89417   -1488.7954    487.96589    370.62861    353.99153    37373.809 
  830600    293.77752    -1449.863    451.78033    327.71954   -130.59538    37373.809 
  830700    296.63185   -1479.2713    484.08893    343.50123   -261.00674    37373.809 
  830800    306.12823   -1465.5207    455.36595    371.38554    147.34015    37373.809 
  830900    299.37294   -1444.6204    456.93511    363.36872    629.34047    37373.809 
  831000    296.34752   -1431.9931    490.75565    396.16304    129.70034    37373.809 
  831100     306.4352   -1457.1467    460.01134    385.79027    200.40458    37373.809 
  831200    292.71886   -1414.7962    464.00244    370.23079   -69.661362    37373.809 
  831300    307.15416   -1483.0782    486.95851    390.05059    247.21914    37373.809 
  831400     303.9821   -1446.9443    451.32579    376.23637   -188.31427    37373.809 
  831500    294.95113   -1447.2277    469.42086    353.29178   -712.73037    37373.809 
  831600    295.36363   -1422.8328    488.07362    398.20109   -747.25823    37373.809 
  831700    303.11359   -1429.9401    468.60772      406.603   -603.18764    37373.809 
  831800    298.40595   -1462.3624    489.38189    373.70957   -267.70519    37373.809 
  831900    295.69712     -1427.91     452.1714    358.72668   -233.83172    37373.809 
  832000    298.29465   -1452.0087     501.5694    395.74848   -10.766243    37373.809 
  832100    292.67427   -1444.1214    469.55582    346.25775    11.066947    37373.809 
  832200    308.96642   -1448.3826    456.06869      402.035   -320.20974    37373.809 
  832300    300.09386   -1425.0055    509.56225    438.86427   -95.869654    37373.809 
  832400    296.96267    -1421.591    478.75092    397.33653    303.16917    37373.809 
  832500     288.4094   -1451.9084    494.69611     344.3639   -19.347355    37373.809 
  832600    296.71237   -1480.3597    480.11148    338.79875    -73.38188    37373.809 
  832700     294.1608   -1444.0622    473.44978    356.91948    69.682905    37373.809 
  832800    293.40933   -1404.3195    486.52923    406.35034    302.97041    37373.809 
  832900    308.73618   -1430.5114    492.76731    455.56573   -87.339239    37373.809 
  833000    302.11741    -1426.492    467.95232    404.90001   -149.45961    37373.809 
  833100    322.49631   -1426.4162     481.2737     510.2661    316.10507    37373.809 
  833200    272.80499   -1442.7354    473.40022    261.81914     343.4124    37373.809 
  833300     303.7424   -1477.1725    480.67126      374.272    344.87397    37373.809 
  833400    294.61844   -1445.2073    480.73285    365.12275    682.43182    37373.809 
  833500    309.28615   -1450.5676    475.11228    420.33651     785.5973    37373.809 
  833600    300.08311   -1455.2024    504.83011    403.88671    649.64296    37373.809 
  833700    300.60831   -1447.7166    482.96612    391.87879    674.00733    37373.809 
  833800    307.19344   -1418.3919    473.22354    441.17916    342.54464    37373.809 
  833900    309.77447   -1431.8593    464.63273    430.76899  -0.59939553    37373.809 
  834000    295.37119   -1466.3201    455.63861    322.31288    464.65505    37373.809 
  834100    300.54704   -1423.0149    454.40631    387.74411    89.643564    37373.809 
  834200    293.54089   -1430.9146    482.05599    375.87565   -60.860119    37373.809 
  834300    292.79398   -1453.0642     488.9607    357.26006   -106.34176    37373.809 
  834400     296.7008   -1444.1362    473.99715    368.85572    319.15697    37373.809 
  834500    299.92604   -1428.9325    488.08762    412.70532   -577.09708    37373.809 
  834600    293.23835   -1463.5879    471.50493      331.286   -314.81659    37373.809 
  834700    294.48187   -1470.1515     482.4588    341.28821    287.36469    37373.809 
  834800    302.73579   -1495.2931    453.93721    324.87446    82.546562    37373.809 
  834900     306.5529   -1450.2422    470.46419    403.67877   -75.521606    37373.809 
  835000     291.9136   -1428.3644    496.34244    385.36846   -411.14528    37373.809 
  835100     311.5412   -1431.5322     464.0386    438.47507   -601.32008    37373.809 
  835200    308.03215   -1458.2803    461.94165    393.79397   -460.82382    37373.809 
  835300    302.38723   -1401.1101    482.17014     445.7174    -493.7125    37373.809 
  835400     289.7467   -1433.9592    451.60562    325.25779   -813.80287    37373.809 
  835500    305.41164   -1458.6365    476.35023    396.02014   -435.59619    37373.809 
  835600    291.62008   -1414.8874    446.65423    347.83265   -476.33839    37373.809 
  835700    298.24009   -1437.7841    471.90192    380.05935   -304.11583    37373.809 
  835800    305.04955   -1483.8592    443.72086    336.53392   -518.62847    37373.809 
  835900    297.47096   -1430.3264    463.45525    375.59941   -523.56486    37373.809 
  836000    298.70862   -1417.7501    490.51153    420.81746   -307.93921    37373.809 
  836100    304.80975   -1413.0978    468.91604    431.40832   -63.959817    37373.809 
  836200     296.5486   -1423.5185    483.14944    397.93883    289.83608    37373.809 
  836300    295.92028   -1457.9549    477.56171    355.07919    211.55463    37373.809 
  836400    301.53506   -1459.9198    467.24932    368.14109     402.4358    37373.809 
  836500    303.49647   -1443.8521    468.30396    394.11521    140.53485    37373.809 
  836600     299.3016   -1403.5624    489.90901    437.07871   -40.676362    37373.809 
  836700     300.8632   -1425.8687    465.92367    397.83451   -85.750218    37373.809 
  836800     301.9495   -1406.6134    474.82584     430.8943    278.44633    37373.809 
  836900    303.94004   -1434.5803    453.75426    390.83905    113.88217    37373.809 
  837000    299.31454   -1398.8328    484.56064    436.51833    54.711333    37373.809 
  837100    308.05784    -1372.108    467.18715    485.32764    402.97214    37373.809 
  837200    304.90554   -1411.5458    475.80765    440.28426    21.375569    37373.809 
  837300    303.58187   -1431.5612    492.15933    430.64686   -490.50189    37373.809 
  837400    305.01753   -1403.2518    471.93308    445.20907     398.9068    37373.809 
  837500    304.28696   -1426.4282    470.76355    417.56615    -12.33113    37373.809 
  837600    294.35249   -1409.8505    503.49482    422.04133   -800.17425    37373.809 
  837700     302.4288   -1432.9829     470.8497    402.71178   -832.29857    37373.809 
  837800    304.13505   -1408.7742    444.19942     407.9704   -756.04019    37373.809 
  837900    309.03375   -1433.1942    478.39936    439.85793   -585.14927    37373.809 
  838000    298.63747   -1393.1729    479.85944     434.4215   -534.69112    37373.809 
  838100    307.10229    -1399.179     505.1863    491.94347   -19.128868    37373.809 
  838200    307.44225   -1443.7837    458.57391    402.26062    208.50727    37373.809 
  838300    301.48969   -1429.4553    478.31153    409.46307    694.14806    37373.809 
  838400    306.20439   -1434.9211    482.22638    429.18931    556.23616    37373.809 
  838500    299.66524   -1370.2683    481.16466    463.26951    824.10697    37373.809 
  838600    296.21185   -1413.7873    487.88696    410.88789    289.56913    37373.809 
  838700     301.4421   -1403.6282    492.24273    449.00652    450.79219    37373.809 
  838800    297.95894    -1419.395    492.70184    417.97955    316.82267    37373.809 
  838900    303.09244   -1433.2345    479.78213    414.38763    265.14124    37373.809 
  839000    300.99978   -1428.3165    498.81121    428.89056     346.0485    37373.809 
  839100    293.43536   -1409.9076    477.56953    391.91998   -37.266401    37373.809 
  839200    309.71111   -1435.7438    469.40423    431.37008     -324.625    37373.809 
  839300    300.08283   -1426.8971    481.93041      409.291   -170.07756    37373.809 
  839400    298.24526   -1426.9995    481.76056    400.72597   -814.50965    37373.809 
  839500    296.06333   -1428.6264    468.26496    375.75653   -1231.1284    37373.809 
  839600    298.06851   -1379.6232    466.10164    431.64568   -830.80105    37373.809 
  839700     297.9291   -1418.4478     465.7024    391.79273    -697.9038    37373.809 
  839800     302.7628   -1423.6783    448.41287    391.08688   -15.747841    37373.809 
  839900    305.20094   -1404.0682    478.48248    451.76979    649.16751    37373.809 
  840000    300.70783   -1374.5431    505.82315    488.35839     389.5198    37373.809 
  840100    300.47464   -1419.5397    463.30173    399.78801    142.97821    37373.809 
  840200    295.71289   -1419.4449    465.33525    380.42684   -17.717444    37373.809 
  840300    309.02108   -1460.1522     454.9331    389.37653   -346.61685    37373.809 
  840400    301.78103   -1428.8394    468.74323    401.82551   -348.34573    37373.809 
  840500    294.07831   -1441.6346    472.41691    357.94196    -296.1916    37373.809 
  840600    303.55147   -1434.2385    444.16174    379.83479   -591.26706    37373.809 
  840700    308.13865    -1388.686    478.62655    480.55378   -287.20651    37373.809 
  840800    295.31942   -1429.3019    486.74801    390.20677    42.641531    37373.809 
  840900    303.78439   -1433.6157    466.48156    403.82849    259.81701    37373.809 
  841000    302.78122   -1434.8909    467.12123    398.66576    -150.9968    37373.809 
  841100    314.10525   -1469.6997    464.34814    412.18863    292.68036    37373.809 
  841200    294.85797   -1432.2739    476.85672    375.26108    54.350462    37373.809 
  841300    293.18911   -1448.7852    469.76797    344.12948   -70.761965    37373.809 
  841400     305.5894   -1435.1434    464.96161    408.92684    237.76553    37373.809 
  841500    302.72057   -1455.0251    456.53011    367.66675    317.72555    37373.809 
  841600    298.14513   -1405.2491    460.56859    400.83244    509.47814    37373.809 
  841700    306.75987   -1393.4126    472.14298    463.12121    454.22359    37373.809 
  841800    298.04349   -1401.2484    475.58714    419.39301    454.45333    37373.809 
  841900    305.10717   -1441.8448    455.45224    390.53974     380.9325    37373.809 
  842000    284.53627   -1435.7158    453.43162    301.81276    105.38254    37373.809 
  842100    306.58303   -1431.5347    488.58441    440.64251    899.43733    37373.809 
  842200    285.43265   -1414.2327    474.21355    348.12316    543.48013    37373.809 
  842300    295.36572   -1480.8702     471.1717    323.27121   -1.3431265    37373.809 
  842400    306.15078   -1476.1899     471.3829    376.83511    331.55738    37373.809 
  842500    304.91174   -1404.1211    482.52642    454.45571    275.94437    37373.809 
  842600    297.77485   -1438.1893    470.78787    376.44051    665.23538    37373.809 
  842700    305.07248   -1456.7052    455.03443    375.10497     886.1848    37373.809 
  842800    306.84442   -1446.0092    478.79832     417.5615    516.42262    37373.809 
  842900    303.15439   -1414.3199    452.35693     406.1565    366.36542    37373.809 
  843000    307.94858   -1427.4573    479.58592    441.88404    247.36145    37373.809 
  843100     306.7094   -1435.8611    472.84583    421.14781    193.44957    37373.809 
  843200    293.58238   -1435.2683     463.4108      353.064   -204.51889    37373.809 
  843300    310.23226   -1427.1384    450.66915    423.59229    480.41341    37373.809 
  843400    295.57194   -1425.8148    467.27412    375.35962    412.57515    37373.809 
  843500    293.10457    -1445.305    485.49865    362.95893    506.74602    37373.809 
  843600    293.42889   -1469.1682    480.86515    335.92579       205.54    37373.809 
  843700    302.44385   -1456.4842    482.92987    391.35862    554.26482    37373.809 
  843800    297.03323   -1459.9258     456.4479    337.01712    249.26093    37373.809 
  843900     296.9964   -1399.5308     487.4007    428.19875    340.55407    37373.809 
  844000    309.42472   -1411.2555    472.83625    457.99798   -65.902417    37373.809 
  844100    304.96241   -1432.1144    478.02073    422.18539    -358.9301    37373.809 
  844200    305.55479   -1419.4271    476.28193    435.80723   -920.76428    37373.809 
  844300    298.12278   -1407.3013    456.36562    394.47642   -666.44667    37373.809 
  844400    302.37665   -1381.3761    482.51785    465.75136   -259.57063    37373.809 
  844500    296.56718    -1429.692    463.58057    372.28038   -304.60019    37373.809 
  844600    301.44265   -1376.2944    480.07694    464.17706   -999.22778    37373.809 
  844700    294.26473   -1364.4765     456.7567    420.28112   -117.19541    37373.809 
  844800    295.83668   -1376.8743    463.26862    421.48943    338.02402    37373.809 
  844900    296.69529   -1355.4896     486.4985    469.97882    221.56926    37373.809 
  845000    294.55517   -1404.4477    476.58412    401.44808    377.77119    37373.809 
  845100    305.81346   -1369.5244    466.32071    476.91609    970.86052    37373.809 
  845200     293.2499   -1411.3109    489.13513     401.2453    135.33005    37373.809 
  845300    310.17263   -1461.1381     467.7541    406.40843    176.73042    37373.809 
  845400    299.47009   -1433.0501     472.2721    390.71444   -12.917502    37373.809 
  845500    289.51931   -1430.3564    443.28452    319.51329   -159.93346    37373.809 
  845600    305.80513   -1423.2384    488.07604    444.91979    -254.1294    37373.809 
  845700    309.18336   -1375.7745    466.84989    486.40338    379.40167    37373.809 
  845800    298.45859   -1442.0941    441.33062     346.1642    419.52255    37373.809 
  845900    295.93967     -1418.02    486.77474    404.31467   -106.31057    37373.809 
  846000    303.37705   -1433.4237    464.49509    400.19574    79.521614    37373.809 
  846100    291.67079   -1399.2231     470.5448    387.61629   -156.90512    37373.809 
  846200    299.56109   -1430.5223     490.8288    412.20964    480.07855    37373.809 
  846300    310.31187   -1455.8279    463.74943    408.34241   -425.32297    37373.809 
  846400    294.35018   -1452.3603    454.32623    330.35254    -38.43221    37373.809 
  846500    306.02891   -1434.9968     451.2934    397.38865    390.38016    37373.809 
  846600    303.99646   -1422.5183    493.73585    443.13725    356.26096    37373.809 
  846700    300.51722   -1457.2732    470.38254     369.3275    226.69359    37373.809 
  846800    296.50066   -1470.8876    447.90977    315.11379    259.30175    37373.809 
  846900     304.7861   -1455.1258    479.15465    399.51217    -39.20643    37373.809 
  847000    288.30449    -1446.897    458.95296    313.15863   -545.35387    37373.809 
  847100    300.78593   -1455.2582     493.8806    396.05322   -297.39953    37373.809 
  847200    292.47994   -1414.4865    481.74691    387.20669   -225.53812    37373.809 
  847300    305.17542   -1414.6604    476.02229    438.60224    -441.9375    37373.809 
  847400    301.75112   -1411.1578    473.93975    424.56862    83.248451    37373.809 
  847500     297.5536    -1448.173    454.13924    348.80969   -55.936695    37373.809 
  847600    299.30257   -1435.6551    478.89861    393.97994   -153.78515    37373.809 
  847700    300.93874   -1468.8041    505.41582    394.73211    -197.3822    37373.809 
  847800    310.62263   -1439.1596    477.07271    439.73639   -340.35186    37373.809 
  847900    307.35542   -1442.4131    462.82156    407.48697   -489.44784    37373.809 
  848000    299.78365    -1429.267     447.2059    370.84646   -173.20716    37373.809 
  848100    298.95069   -1409.8573    476.03248    415.32364   -92.963423    37373.809 
  848200    290.35373   -1432.9133    494.86009    372.29763    -184.2141    37373.809 
  848300    298.17132   -1456.1783    448.65235    338.10529    337.04798    37373.809 
  848400     297.1374   -1459.0688    465.66326    347.55957    282.42889    37373.809 
  848500     286.5812   -1433.0273    477.09081    337.38913   -381.07932    37373.809 
  848600    303.20421   -1456.3295    473.54539    385.56026    475.46787    37373.809 
  848700    298.88339   -1425.7995    481.17137    404.21658    483.63927    37373.809 
  848800    310.53592   -1429.0082    467.65612    440.07986    924.68386    37373.809 
  848900    296.01658   -1473.6786    459.42074     321.6491    184.11688    37373.809 
  849000    300.30103   -1442.4061    474.48517    387.32156    322.89292    37373.809 
  849100    300.99886   -1473.0835    480.29692    365.60515    752.98128    37373.809 
  849200    301.56794   -1448.9964    448.85444    360.81803    540.51235    37373.809 
  849300     311.6695   -1445.6587    478.48884     439.3779     252.6506    37373.809 
  849400    298.77234   -1445.4839    489.66547    392.52519    419.17646    37373.809 
  849500    295.10017   -1363.6844    453.98004    422.06683   -42.812968    37373.809 
  849600    304.84219   -1375.0519    497.53218    498.21673    125.40062    37373.809 
  849700    301.95935   -1394.7566    482.66066     450.6304    119.33007    37373.809 
  849800     291.2184   -1407.0748    507.98439    415.16267   -299.52442    37373.809 
  849900    288.78107    -1460.878    476.74061    319.11611   -173.08342    37373.809 
  850000    306.93761   -1396.5181    477.03255    465.70742    415.82953    37373.809 
  850100    312.63638   -1446.7728    453.68547    417.82392   -237.28017    37373.809 
  850200    296.48166   -1410.6061    473.03086    400.43063   -240.01643    37373.809 
  850300    307.52468   -1425.3037    451.67584    414.21458     166.9899    37373.809 
  850400    300.57844   -1407.5883    476.64166    425.54771    -308.8272    37373.809 
  850500    303.17757   -1440.0441    465.37084    393.55085    246.49989    37373.809 
  850600    305.05911   -1437.2312    469.28938    408.77354     61.76866    37373.809 
  850700    294.13049   -1426.3977    485.13168    386.12909   -128.22078    37373.809 
  850800    291.22418   -1420.6096    463.65644    357.32599     431.3611    37373.809 
  850900    305.59486   -1403.7447     497.6367    473.02522    694.68256    37373.809 
  851000    307.85948   -1384.2026    472.12041    477.27118    536.13736    37373.809 
  851100     308.8435   -1410.3569    488.02979    471.46708     609.9028    37373.809 
  851200    301.40962   -1417.5984    471.89395    414.54105    475.44736    37373.809 
  851300    307.09095   -1417.0192    463.11239    431.97823     499.4908    37373.809 
  851400    307.09698    -1393.933    518.72284    510.70202   -44.136452    37373.809 
  851500    297.25579   -1399.3527    480.66285     422.8096    173.12117    37373.809 
  851600    297.39781   -1420.0533    481.27164    403.35878    408.12786    37373.809 
  851700    304.14518   -1438.1381    472.99264    407.44539    477.08038    37373.809 
  851800    291.55117    -1470.922    463.30647     308.1393    713.69695    37373.809 
  851900    299.36044   -1455.2393    462.70871      358.467    38.058144    37373.809 
  852000    292.41988   -1449.4225       473.45    343.70274     266.7395    37373.809 
  852100    303.73019   -1457.1393    485.42053    398.99936   -724.54892    37373.809 
  852200      309.299   -1438.3737     476.3094    433.78552   -598.22871    37373.809 
  852300    291.42769   -1410.1277    480.57899    385.64881   -334.21919    37373.809 
  852400    295.89634   -1373.9519    479.16864    440.58107    296.22579    37373.809 
  852500    308.11073   -1409.5316    487.26491    468.22047   -581.31394    37373.809 
  852600    292.21455   -1411.4532    501.07165    408.36707   -453.88217    37373.809 
  852700    300.98046    -1439.249    462.77111    381.83082   -223.31381    37373.809 
  852800    302.20163   -1460.7071    460.17206    363.28473      60.7237    37373.809 
  852900    302.47181   -1413.5829    471.24762    422.70375   -458.29323    37373.809 
  853000    297.10472   -1434.3731    478.71729    385.16192    157.92679    37373.809 
  853100    294.40772   -1399.3411    489.57238    418.87749     249.2387    37373.809 
  853200    295.52207   -1414.7858    506.52391    425.41342    138.30451    37373.809 
  853300    290.50883   -1404.9485     502.6954    408.79766     821.4191    37373.809 
  853400     303.2909   -1442.3906    491.39941    417.74445    550.07205    37373.809 
  853500    298.09925   -1398.1668    491.16671    438.30585    452.73558    37373.809 
  853600    300.49054   -1409.8841    496.31773    442.53135    162.25178    37373.809 
  853700    303.06036   -1417.9662    484.79121    434.52016   -305.71497    37373.809 
  853800    298.59099   -1376.1083    493.89165    465.30845   -265.59659    37373.809 
  853900    288.74171   -1413.8998    503.90724    393.08334    258.16012    37373.809 
  854000    297.00467   -1432.9698    464.20072    371.59703    156.19424    37373.809 
  854100      302.665   -1376.3728    489.62029    479.15838   -159.06492    37373.809 
  854200    296.69506   -1411.0157    505.88926    433.84245   -400.03762    37373.809 
  854300    285.78191   -1419.9388    514.37967    384.15931   -577.56662    37373.809 
  854400     305.4534   -1415.2546    499.09189    462.33208   -13.984861    37373.809 
  854500    295.94588   -1377.7974    489.90237    447.69285    85.102794    37373.809 
  854600    303.21144   -1378.6053    525.57391    515.34557   -168.89322    37373.809 
  854700    294.01425   -1383.2233     465.0183    408.66553   -264.85815    37373.809 
  854800    299.61143   -1369.7441      505.398    487.78425    96.185114    37373.809 
  854900    303.80128   -1384.9661    508.04611    494.11889    103.75173    37373.809 
  855000     297.2255   -1403.1443    487.35334    425.57184    82.556286    37373.809 
  855100    301.03923   -1384.5083    476.77332    450.83896     412.9851    37373.809 
  855200    301.85333   -1353.6967    523.72793    532.27907    669.21479    37373.809 
  855300    290.47937   -1368.7204    468.67251     410.8699   -2.8908019    37373.809 
  855400    301.64264   -1373.2222    476.22695    464.30178    31.369534    37373.809 
  855500    289.80758   -1387.8884    531.08252    451.08019     774.6608    37373.809 
  855600    307.24189   -1405.4844     500.5831    481.66493    409.38665    37373.809 
  855700    306.13897   -1430.7498    482.51666    433.35564   -162.44748    37373.809 
  855800    301.78942   -1432.2887    480.12789    409.79864     233.3647    37373.809 
  855900    292.10515   -1430.2112    481.21184    369.25553    217.25899    37373.809 
  856000    299.82672   -1425.5218    499.48593    427.06599    39.833336    37373.809 
  856100    296.08604   -1438.7226    490.65844    388.15624   -578.54843    37373.809 
  856200    308.03992   -1409.3781    470.96197    451.75155   -405.45357    37373.809 
  856300    300.62994   -1451.2724    492.10795    397.56232    70.160645    37373.809 
  856400    306.00988   -1414.4746    484.51352    451.04515   -568.89158    37373.809 
  856500    292.11259   -1404.3767    477.56491    391.47665   -635.98994    37373.809 
  856600    308.14617   -1396.0975    493.39601    487.94562    196.06677    37373.809 
  856700    293.67979   -1391.1424    453.87537     388.0941    269.78677    37373.809 
  856800    304.07324   -1374.3847    486.87165    484.75317       235.21    37373.809 
  856900    292.07572   -1409.2076      496.769    405.68346    38.012575    37373.809 
  857000     305.4098   -1400.4904    469.34521    447.15291   -96.313899    37373.809 
  857100    301.42059   -1413.6494    504.63429    451.27982    249.86805    37373.809 
  857200    292.38604   -1444.3548    484.53333    359.70108    27.749951    37373.809 
  857300    301.98449   -1429.4589    448.29737    381.67835    800.82673    37373.809 
  857400    293.54057    -1419.927    484.31755    389.12341     518.6084    37373.809 
  857500    303.47049   -1460.6917    495.19676    404.05109    202.55698    37373.809 
  857600    308.53936   -1424.9146     492.2513    459.75829    455.13299    37373.809 
  857700    307.56879   -1504.5475    452.33571    335.82969   -401.85984    37373.809 
  857800    306.39844   -1502.3764    467.54289    347.92621    -1023.522    37373.809 
  857900    306.36754   -1439.7624      476.615    419.47286   -380.03587    37373.809 
  858000    301.47249   -1439.6447    469.57195     390.4564   -279.21275    37373.809 
  858100     298.1429   -1449.0203    478.04596    374.52863   -465.91986    37373.809 
  858200    295.84453    -1436.683    483.48274     381.9303   -109.56928    37373.809 
  858300    295.30704     -1452.11    502.05359    382.64846    17.094348    37373.809 
  858400    293.17266   -1451.4278    470.49919    342.14394   -378.19814    37373.809 
  858500    304.47246   -1479.6291    475.51808    369.95684   -486.85621    37373.809 
  858600     301.9591   -1437.9616    477.94995    402.71355    531.66673    37373.809 
  858700    295.99268   -1465.7974    481.30516    351.30685   -230.65657    37373.809 
  858800    297.63247   -1445.3698    512.60905    410.43862   -188.91215    37373.809 
  858900    293.72114   -1463.8902    478.10764     339.7652   -377.65328    37373.809 
  859000    308.29319   -1485.2267    483.62478    389.70873    94.738277    37373.809 
  859100    292.89393   -1440.7652    472.64239    353.69176   -455.86514    37373.809 
  859200    307.41621   -1466.1451    474.00581    395.21359   -86.844906    37373.809 
  859300    297.25705    -1485.419    462.83533    318.92142   -59.904211    37373.809 
  859400    300.98515   -1479.4112    475.72099    354.63964   -185.97457    37373.809 
  859500    282.19187   -1454.7238    487.01702    305.81003    363.52352    37373.809 
  859600    294.56576   -1477.5325    497.83369    349.66069   -208.76909    37373.809 
  859700    302.78508   -1479.9644    516.03887    402.52733    78.836997    37373.809 
  859800    284.60021   -1426.1826    497.05674    355.25959    476.64032    37373.809 
  859900    291.94378   -1452.2679    476.76631    342.02508    135.30122    37373.809 
  860000    302.59326   -1474.3366    490.72815    381.97873   -758.58639    37373.809 
  860100    302.58041   -1457.8764    516.30504    423.95783   -35.126074    37373.809 
  860200     301.4509   -1474.0846    486.21244    372.55963   -340.43687    37373.809 
  860300    299.06833   -1528.9162    463.35992    284.12308    178.24528    37373.809 
  860400    306.02516   -1512.6362    453.96028    322.39929      403.978    37373.809 
  860500    299.16915   -1539.3111    457.50302    268.32624    490.29743    37373.809 
  860600    303.49677   -1485.2383    501.09587    385.52225    409.46969    37373.809 
  860700    288.10179    -1470.693    494.33081    323.82581    82.611324    37373.809 
  860800    301.98693   -1473.3398    473.80432    363.31534    -382.4184    37373.809 
  860900    304.41463    -1454.113    505.56311    425.25704    -263.7506    37373.809 
  861000    309.20453   -1497.0039    487.13286    385.55244    20.652297    37373.809 
  861100    289.72147   -1472.9279     485.4029    319.97248   -374.24002    37373.809 
  861200    308.51021   -1460.5468    453.03859    384.78186   -465.22735    37373.809 
  861300    299.87531   -1412.2113    470.92287    412.03279   -790.33162    37373.809 
  861400    318.26435    -1514.961    471.08645    392.43542    12.025994    37373.809 
  861500    301.29361   -1478.4008    474.04676    355.36789    310.51214    37373.809 
  861600    295.91272   -1512.6421    494.06925    316.86542    9.0298271    37373.809 
  861700    304.44897   -1474.8814    505.64181     404.7223    266.28232    37373.809 
  861800    301.49495   -1461.5033     478.4657    377.59294   -54.139865    37373.809 
  861900    290.87511   -1434.9282    480.39696    358.17249    -201.1582    37373.809 
  862000    297.10274   -1438.0533    495.33562    398.09107   -171.88809    37373.809 
  862100    303.41595   -1400.7845    500.22163    468.73704   -329.50746    37373.809 
  862200    299.86771   -1433.7838    484.59749    404.10062    -506.5489    37373.809 
  862300    295.28741   -1444.6417    451.87618    339.85072   -301.62264    37373.809 
  862400    302.83598   -1438.4769    501.43475    429.64045    213.92649    37373.809 
  862500    303.96696   -1439.2487    504.18125    436.71917    687.20029    37373.809 
  862600    300.18946   -1478.0794    503.01717     379.6767    435.78582    37373.809 
  862700    291.06805   -1454.6082    475.83301    334.79929    385.10548    37373.809 
  862800    297.71085   -1450.5534    466.34854    359.34822    789.11981    37373.809 
  862900    300.22356   -1430.9815    508.16678    432.07807    404.51382    37373.809 
  863000    306.93759   -1461.8618    481.60454     404.9356    285.72902    37373.809 
  863100    303.53705   -1409.9713    476.10274    435.97785    83.077248    37373.809 
  863200    294.09409   -1413.5147    474.14536    387.86157   -359.38314    37373.809 
  863300    296.00642   -1454.8883    471.22835    352.20119   -330.64893    37373.809 
  863400    304.54352   -1453.2049      495.557    416.74071   -557.72404    37373.809 
  863500    299.17014   -1448.9239    468.72579    369.94065   -298.68857    37373.809 
  863600    308.68791    -1462.482    499.19919    429.80914    66.289679    37373.809 
  863700    295.92561   -1437.7246    481.57852    379.35028   -663.43478    37373.809 
  863800     300.9932   -1420.3425    483.58796    421.61166   -58.005196    37373.809 
  863900    298.91885   -1451.3483    489.12634    386.78277    309.84107    37373.809 
  864000    310.00476    -1469.015    476.93208    406.95194    319.99043    37373.809 
  864100    275.39779   -1467.1987    496.39127    272.04802   -131.03735    37373.809 
  864200    302.46733   -1486.1941    490.97163    369.79639   -147.25017    37373.809 
  864300    295.47297   -1500.7001    478.15404    310.90756    196.65546    37373.809 
  864400    302.49121   -1471.2805     476.9733    370.81941    169.80314    37373.809 
  864500    304.71302    -1493.594    462.23812    343.79764    430.09848    37373.809 
  864600    310.42513   -1490.3076    483.08865    393.71301    40.936088    37373.809 
  864700    292.84463   -1431.4477    477.82447    367.96886    -813.8826    37373.809 
  864800    291.44302   -1419.3058    472.29978    368.26073   -538.06354    37373.809 
  864900    296.02011   -1443.6738    474.65469    366.90376   -536.23217    37373.809 
  865000    298.06333    -1468.471    502.18452    378.85736    5.3816791    37373.809 
  865100    296.60192   -1438.4178    497.33697    397.46776    384.32436    37373.809 
  865200    293.15965   -1410.8409    491.23767    403.41058    65.338401    37373.809 
  865300    300.76715   -1450.0448    511.07377    418.37498    32.142181    37373.809 
  865400    300.12014   -1405.7784     499.9695    448.61718    568.68558    37373.809 
  865500    294.73752   -1399.4286    476.48973    407.19575    219.71208    37373.809 
  865600    301.27607    -1394.105    517.44758    482.98532   -100.96626    37373.809 
  865700    302.55488   -1417.1451    481.25448    429.52336    114.21805    37373.809 
  865800    292.58729   -1459.5293    483.79675    344.69826   -55.338886    37373.809 
  865900    304.99752   -1438.7241    476.37835    414.09167     34.89057    37373.809 
  866000    297.18781   -1447.6344     483.5808    377.13904    352.25947    37373.809 
  866100    302.20888    -1420.783    520.24867    463.31813     150.5341    37373.809 
  866200    309.80432   -1416.5846    489.35524    470.90093   -245.44364    37373.809 
  866300    308.84371   -1439.3512    485.92755    440.37147   -490.67124    37373.809 
  866400    297.29452   -1476.0056    505.93136    371.60001    304.00239    37373.809 
  866500    295.32899   -1450.7472    503.57218    385.62886    267.09206    37373.809 
  866600    301.44336   -1452.2944    503.32427    411.42758    369.07338    37373.809 
  866700    301.05258   -1477.0121    473.92747    355.54948    670.00743    37373.809 
  866800      294.797   -1471.2431    485.53756     344.6975     396.6538    37373.809 
  866900    309.89287   -1483.2691    485.67374    400.93456    585.54238    37373.809 
  867000    308.29653   -1485.3363    469.73843    375.72788    272.50708    37373.809 
  867100    303.19816   -1513.6976    459.05061    313.67006    17.080523    37373.809 
  867200    302.96535   -1432.5767     482.3934    417.08312   -510.40826    37373.809 
  867300    304.19135    -1459.148    500.76666    414.41785    63.840403    37373.809 
  867400    301.14416   -1502.1224    464.19744    321.12252   -111.39589    37373.809 
  867500    298.70172   -1512.8787    510.37138    345.51749    86.430644    37373.809 
  867600    298.79715   -1474.9113    502.93265    376.47692    767.75325    37373.809 
  867700    298.94456   -1456.8658    506.08282    398.33777    764.90674    37373.809 
  867800    297.65536   -1458.8673    471.13079    355.56614    567.26327    37373.809 
  867900    300.36014   -1494.4515    483.85464    344.91238    716.21717    37373.809 
  868000    295.64992   -1493.1151    479.75439    320.89153     679.4512    37373.809 
  868100    299.36359   -1529.9013    504.78966    325.90025    160.51084    37373.809 
  868200    304.40989   -1473.9261    483.54955    383.40902   -124.50669    37373.809 
  868300    304.54756   -1489.8031    478.46615    363.06985   -3.4633834    37373.809 
  868400    290.01009   -1481.0301    520.86041    348.63036    125.21877    37373.809 
  868500     307.0441   -1422.5432    512.98944    476.11984   -448.41643    37373.809 
  868600    305.20664   -1424.0387    475.47354    428.81603    -681.5017    37373.809 
  868700     304.5429   -1469.3642    485.09861    390.12015    114.59382    37373.809 
  868800    307.83719   -1457.7854    477.93727    409.40457   -313.97056    37373.809 
  868900    308.01896   -1437.1481    481.68484    434.60976   -554.71864    37373.809 
  869000    297.01994   -1469.8996    514.79759    385.33307   -475.34327    37373.809 
  869100    296.00903   -1468.7851    474.89346    341.98127   -431.63379    37373.809 
  869200     297.9289   -1437.0409    485.04973    392.54595   -252.79744    37373.809 
  869300    297.49175   -1452.5558    488.98775     378.9963   -294.51522    37373.809 
  869400    295.20463   -1416.1645    515.86054    431.93871    93.716235    37373.809 
  869500    299.26053   -1432.6791    490.68825    408.55583    -279.8542    37373.809 
  869600    291.62646   -1436.2461    490.92936     370.7779   -108.28835    37373.809 
  869700    298.91741   -1441.1687    486.30236    394.13189    83.118184    37373.809 
  869800    307.61051   -1420.0519    497.97177     466.1496    20.251324    37373.809 
  869900    309.28838   -1461.8529    472.72731     406.6763    432.90765    37373.809 
  870000    301.94468   -1453.8219    495.69123    404.52948    47.635696    37373.809 
  870100     299.8919   -1400.8661    489.72969     442.2597    -57.68354    37373.809 
  870200    298.11596   -1419.3161    504.35547    430.42073    138.15214    37373.809 
  870300    301.06496    -1464.628    496.01901    390.08098    704.51621    37373.809 
  870400    299.71808   -1440.8305    495.69308    407.47419    274.06263    37373.809 
  870500    303.88389   -1432.9018    490.95396    429.46388    17.868568    37373.809 
  870600    307.31798   -1417.8517    471.30842    440.36624    79.951906    37373.809 
  870700    304.99523   -1443.4236    492.52051    425.52408   -432.67777    37373.809 
  870800    292.25229   -1459.5194    480.88938     340.2889   -10.812428    37373.809 
  870900    300.37425   -1475.8242    480.42837    360.17707    124.83904    37373.809 
  871000    289.40281   -1457.8948    498.51056    346.67513   -237.75283    37373.809 
  871100    299.77466   -1438.5194     473.0803    387.42784    133.74867    37373.809 
  871200    294.11633   -1423.5589    496.27443    400.04676    447.44983    37373.809 
  871300    305.36096   -1442.3351     512.9027     448.6452    695.45393    37373.809 
  871400    297.14793     -1457.41    513.95062    397.55334    588.80603    37373.809 
  871500    296.99995   -1438.9913    490.62069    391.97425    451.99229    37373.809 
  871600    298.05181   -1442.5521    467.95191    370.49164   -55.469076    37373.809 
  871700    305.14334   -1431.5203    492.86042     438.4356    45.879958    37373.809 
  871800    288.02201   -1430.4801    458.13735    327.48516   -454.82135    37373.809 
  871900    292.70668   -1428.7968    489.50861    381.68136   -275.06607    37373.809 
  872000    291.04238   -1459.9365     477.5912    331.11342    46.319644    37373.809 
  872100     307.4463    -1481.457    499.67367    405.70534   -112.07886    37373.809 
  872200    296.56449   -1435.6932    487.85173    390.53821   -782.20763    37373.809 
  872300    301.01718   -1472.4878    496.40093    382.38754     12.26924    37373.809 
  872400    296.48337    -1497.139    478.54504    319.41955    151.69325    37373.809 
  872500    293.34254    -1485.948    479.65478      317.546    220.76929    37373.809 
  872600    304.17471   -1468.3376    494.40761    398.79418    622.48233    37373.809 
  872700    303.57549   -1498.5267    489.41213    360.90537    292.98643    37373.809 
  872800    294.59543   -1474.7899    477.25672    331.96015    177.78879    37373.809 
  872900    295.45131   -1453.2384    503.43944    383.55699   -35.029202    37373.809 
  873000     301.0823    -1459.248    487.72821    387.24843   -118.93659    37373.809 
  873100    296.32001   -1465.9267    506.65786    378.00748    73.649284    37373.809 
  873200    307.82216   -1451.2785    493.53077    431.43717    292.94964    37373.809 
  873300    297.11585   -1435.6157    496.21052    401.46276    324.94784    37373.809 
  873400    304.07713   -1444.7225    500.01485    427.57617    152.04125    37373.809 
  873500    300.45752   -1466.4657    510.23567    399.71869    442.86501    37373.809 
  873600    311.62153   -1484.7204      505.151    426.76188    173.71753    37373.809 
  873700    299.04515   -1420.6525    500.05046    428.97272    410.25014    37373.809 
  873800    299.00167   -1454.0469    486.00951    381.34109   -62.027499    37373.809 
  873900    295.02358   -1472.6886    487.13519    345.87223   -447.74186    37373.809 
  874000    303.99202   -1464.2438    475.41824    383.07419   -605.27359    37373.809 
  874100    304.64202   -1418.5548    490.30018    446.57848   -735.78728    37373.809 
  874200    295.47151   -1433.2107    494.98607    395.22247   -747.62199    37373.809 
  874300    304.94655   -1447.3969    490.15843    418.96898    37.727312    37373.809 
  874400    300.84671   -1471.4349    502.97049     389.2406   -209.62737    37373.809 
  874500    297.02016   -1435.3721    467.29659    372.36052   -343.35758    37373.809 
  874600    293.29956   -1473.5184    483.84127    333.96807   -436.09158    37373.809 
  874700    289.51284   -1492.5122    510.97336    325.01708    165.07213    37373.809 
  874800    303.95311   -1466.5232    481.31985     386.5207    265.68165    37373.809 
  874900    300.55148   -1453.4518    480.40458    383.32553   -55.675678    37373.809 
  875000    303.10978   -1452.1865    504.90181    420.63345   -63.282644    37373.809 
  875100    301.86118   -1441.8845    494.17091    414.56975   -188.95764    37373.809 
  875200    307.60226   -1478.5058    471.03101    380.71777   -77.974627    37373.809 
  875300    308.67433   -1442.9414     496.6338    446.72316   -121.07325    37373.809 
  875400     308.8807   -1480.3847    492.73331     406.3106   -561.71303    37373.809 
  875500     298.9193   -1519.5348    486.96261    316.43456   -461.55599    37373.809 
  875600    309.60622   -1530.8989     498.6782    365.01558   -1015.8314    37373.809 
  875700    289.74079   -1520.1563    495.71661    283.14494    -831.2863    37373.809 
  875800    306.83361   -1497.2556    483.49094    370.95904   -761.11961    37373.809 
  875900    292.98585   -1494.6348     480.7306    308.32519   -756.04778    37373.809 
  876000    295.93549   -1488.4975    497.97691    345.02043   -738.56591    37373.809 
  876100    312.38434    -1448.123    487.52735    449.17818   -508.79585    37373.809 
  876200    297.31874   -1467.7732    491.70338    365.71373   -709.42577    37373.809 
  876300    303.19609   -1438.2009     524.3247    454.43153   -49.739319    37373.809 
  876400    296.78105   -1438.8905    501.84544    402.31189    148.15618    37373.809 
  876500    309.53272   -1423.0523    497.06668      470.919    494.18578    37373.809 
  876600    293.40024   -1467.3007    512.17582    368.97472   -348.04632    37373.809 
  876700    302.93097   -1530.9779    505.78816    341.92153    411.20376    37373.809 
  876800    303.40182   -1523.7823    472.73222    318.18605    814.33869    37373.809 
  876900    305.97206   -1500.5339    501.83556    382.13715    376.11894    37373.809 
  877000    310.63932   -1454.3322    494.56563    442.13198    464.82538    37373.809 
  877100    297.71566   -1478.2506    479.21785    344.54206    52.087417    37373.809 
  877200    301.56703   -1440.1522    498.17452    418.97821    368.13629    37373.809 
  877300    311.05069   -1485.3941    488.15224    406.51323    144.21562    37373.809 
  877400    301.02568   -1492.3351    481.79238    347.97005    225.06768    37373.809 
  877500    290.59463   -1472.9224    493.87182    332.38737   -219.60034    37373.809 
  877600    292.86324    -1475.152    487.51604    334.04012   -304.69239    37373.809 
  877700     302.3435   -1453.9652    486.85459     397.3494   -505.86496    37373.809 
  877800    301.93783   -1485.8301    520.20596    397.00512   -130.08369    37373.809 
  877900    304.38761   -1511.1079     481.7639      344.341    167.63005    37373.809 
  878000    307.57658   -1495.1462    496.83007    389.76051   -347.22768    37373.809 
  878100    302.36221   -1463.0268    475.81566    377.33325   -212.39861    37373.809 
  878200    308.40013   -1490.6078    521.22036    422.40581   -717.67327    37373.809 
  878300    295.01417   -1484.4329    493.22828    340.17858   -422.04173    37373.809 
  878400    292.81542    -1448.072    496.50185     369.8902   -349.06444    37373.809 
  878500     307.5553   -1475.3133    493.52928    406.19656   -695.00476    37373.809 
  878600    290.59962   -1430.1352    494.61626    375.94158   -165.06807    37373.809 
  878700      297.122   -1452.3846    505.42529    393.93634    -89.11607    37373.809 
  878800    292.21909   -1447.7695    501.80764    372.80726   -161.45333    37373.809 
  878900    289.24535   -1406.1353    496.29079    395.50426   -320.10106    37373.809 
  879000     300.8246   -1463.4383    513.01559    407.18257   -48.720921    37373.809 
  879100     299.5719   -1426.9126    528.15137    453.19065   -178.25144    37373.809 
  879200    312.25188    -1448.903    489.65912    449.93216    177.25173    37373.809 
  879300    298.03253   -1493.5656    490.12304    341.56231   -101.69122    37373.809 
  879400    303.36563   -1445.9036    486.71482    409.88404    466.74057    37373.809 
  879500     297.9911   -1431.5584    494.37642    407.63591     494.1797    37373.809 
  879600    298.91927   -1473.2113    502.24703    378.04242   -129.32742    37373.809 
  879700    295.48369   -1500.2171    515.16448    348.44949   -392.79741    37373.809 
  879800    310.50948   -1501.4906    463.94225    363.76427   -314.83347    37373.809 
  879900    289.75448   -1510.2348    459.40359    256.81525      -544.35    37373.809 
  880000    297.43405   -1489.0089    516.42943     369.7245    246.01624    37373.809 
  880100    299.64862   -1480.6319    466.85103    338.51729    11.150709    37373.809 
  880200    297.46405   -1495.1643    489.10699    336.38195    284.63277    37373.809 
  880300    291.33374   -1470.6457      476.825    320.95285    310.03478    37373.809 
  880400    299.90346   -1447.9884    484.22875    389.68861      64.5187    37373.809 
  880500    296.01637   -1452.7729    508.99975    392.13288    175.46831    37373.809 
  880600    302.27334   -1479.0461    518.79418    403.89146    584.71057    37373.809 
  880700    299.27728   -1501.1031    483.23222    332.75141    654.62927    37373.809 
  880800    297.09485   -1469.2635    491.99453    363.50417    710.69044    37373.809 
  880900    292.69806   -1464.4013    516.48694    373.01636     544.7007    37373.809 
  881000    301.75305   -1513.3907    484.26851    332.67313   -109.51761    37373.809 
  881100    304.18126   -1474.1304    483.41718    382.04052    273.69978    37373.809 
  881200    296.54814   -1505.1932    486.02766    319.14036   -462.23274    37373.809 
  881300    291.64452   -1470.3474     487.0181    332.84674   -632.81644    37373.809 
  881400     294.0273   -1497.5091    483.04648    312.46682   -300.89579    37373.809 
  881500    300.89711   -1553.2699    498.92825    303.59092   -665.73562    37373.809 
  881600    298.72036   -1485.6937    480.80701    343.22224    238.00267    37373.809 
  881700    297.74038   -1477.5029    471.94318    338.12667    161.81216    37373.809 
  881800    309.05755   -1440.5366    467.23467     421.4582    991.73099    37373.809 
  881900    292.81516   -1474.1267    493.40002    340.73243    1014.2825    37373.809 
  882000    301.51648   -1491.2152    507.61415    377.12667    944.35391    37373.809 
  882100    290.37444   -1508.8443    464.74981    266.34985    426.35569    37373.809 
  882200    304.07052   -1478.9073    499.16338    392.51002    499.14454    37373.809 
  882300    299.87571   -1432.7969    510.73259    431.25874    618.36817    37373.809 
  882400    296.01217   -1478.6935    497.22084    354.41441    498.34187    37373.809 
  882500    301.16588   -1493.9347    471.73075    336.94154    231.58461    37373.809 
  882600      303.843    -1447.939    506.92428    430.21245    98.712758    37373.809 
  882700     312.4722   -1432.1162     487.1096    465.16373    -306.9469    37373.809 
  882800    298.16173   -1387.6643    507.84961    465.77321     34.85351    37373.809 
  882900    296.91775   -1393.4389    498.96623    445.50123   -92.682694    37373.809 
  883000    293.78042   -1422.4103    475.97141    379.37639   -357.50704    37373.809 
  883100     298.3408   -1464.2939    499.92476    382.02691     45.94981    37373.809 
  883200    308.11601    -1457.791    480.15939    412.87945    465.85871    37373.809 
  883300     302.9122   -1453.1044    486.11149    400.03357    68.240712    37373.809 
  883400    297.31509   -1465.3827    499.17978    375.56412   -300.23518    37373.809 
  883500     298.3159   -1504.4987    479.72083    321.50581    88.546514    37373.809 
  883600    305.66312   -1548.2817    460.12636    291.28597   -275.87565    37373.809 
  883700    311.35842   -1528.3801    463.53506    340.29887   -535.27274    37373.809 
  883800    302.33437    -1524.673    495.92966    335.67545   -120.73493    37373.809 
  883900    297.18855    -1539.069    481.85623    283.98326   -450.44802    37373.809 
  884000    309.96556   -1503.9653     468.1031    362.99579   -447.58204    37373.809 
  884100    295.25887   -1461.5318    492.63314     363.5888    148.40813    37373.809 
  884200    293.70984   -1458.0191    476.69475    344.17243   -162.26142    37373.809 
  884300    300.51524   -1476.7961    492.73836    372.15142   -207.06944    37373.809 
  884400    294.78054   -1435.9129    499.56655    393.98242   -578.29537    37373.809 
  884500    302.92955   -1454.7088    503.18992    415.58592    118.57017    37373.809 
  884600    299.61235   -1477.7177    471.70767    346.12443    41.486946    37373.809 
  884700    285.24063   -1421.7971    488.24139    353.71999   -645.94132    37373.809 
  884800    295.86313   -1504.5194    469.10012    299.79518   -1062.9398    37373.809 
  884900    295.93944   -1454.5472     483.8942    364.90579   -791.71233    37373.809 
  885000    297.92878   -1435.9536    482.50602    391.08901   -396.89512    37373.809 
  885100    299.43323   -1414.6043    487.49589    424.21773    210.84576    37373.809 
  885200     309.0246   -1467.2714    485.77897    413.11907   -285.72091    37373.809 
  885300    313.05695   -1447.2533    481.45146     447.0074    280.52684    37373.809 
  885400     290.9487   -1425.5989    496.19239    383.62935    -228.8802    37373.809 
  885500    297.89043   -1471.3285    479.49765    352.53273   -606.77739    37373.809 
  885600    307.01627   -1455.8026    487.45733    417.20271   -513.33254    37373.809 
  885700    295.99944   -1449.6106    489.73726     375.9563   -92.185356    37373.809 
  885800    303.57141    -1452.629    516.28766    433.66012    41.415632    37373.809 
  885900    287.32627   -1407.7509    476.95348    365.89062    157.00291    37373.809 
  886000    290.49154   -1449.8941    485.39607    346.47471    535.40077    37373.809 
  886100    298.23615   -1409.9453    469.90079     405.8793    25.482003    37373.809 
  886200    294.66771   -1454.1336    475.41098    351.09703   -198.31945    37373.809 
  886300    304.72921   -1426.1536     513.6687    462.74176    73.952673    37373.809 
  886400    299.87919   -1455.3223    475.10215    373.11853   -366.68046    37373.809 
  886500    297.21418   -1463.7471    499.00111    376.56563    -420.2773    37373.809 
  886600    296.21072   -1460.2921    499.40451    375.89558   -142.82681    37373.809 
  886700    301.84955   -1478.8068     473.7945    357.21852    66.965223    37373.809 
  886800    305.45385   -1478.6725    496.03013    395.85444   -697.88229    37373.809 
  886900    289.46968   -1446.6889     493.0954    352.76769   -530.22563    37373.809 
  887000    302.80162   -1457.7701    484.83045    393.58783      -584.93    37373.809 
  887100    299.72851   -1457.7666    503.64404     398.5362   -611.04678    37373.809 
  887200    287.83066   -1462.0376    492.33772    329.26444   -50.062485    37373.809 
  887300     306.4689   -1456.6167    504.70951    431.17051   -756.62505    37373.809 
  887400    303.38646   -1482.7587    458.51228    344.92047   -646.20682    37373.809 
  887500     296.6577   -1448.1996    491.27503    381.87571   -630.84669    37373.809 
  887600    303.35202      -1445.7    486.88648    410.19784   -344.75863    37373.809 
  887700    300.44358   -1424.0848    510.25312    442.05417   -653.37525    37373.809 
  887800    295.11074   -1419.9953     497.2584    409.08205   -592.80898    37373.809 
  887900     303.4896   -1458.5292    492.39414    403.49726   -626.95029    37373.809 
  888000     299.3084    -1485.125    472.15691    337.79464   -1170.2457    37373.809 
  888100    295.18283   -1437.0061    477.87619    373.01436   -1055.7403    37373.809 
  888200    295.03306   -1403.1793    488.49358    416.78267   -1153.7372    37373.809 
  888300      298.602   -1446.7606    497.46218     398.2764   -496.28693    37373.809 
  888400     299.9025   -1486.5012    483.86522    350.80788   -94.540053    37373.809 
  888500    298.16679   -1464.1913    481.28013    362.69964   -426.65353    37373.809 
  888600    306.90164   -1486.6594    492.63512    391.00642    120.67163    37373.809 
  888700    304.66153   -1486.0763    488.18958    377.03444    116.93413    37373.809 
  888800    303.38434   -1474.8688    500.26682    394.55527    515.96661    37373.809 
  888900     312.3118   -1474.1675    482.34217    417.62111    105.69443    37373.809 
  889000    306.01354   -1463.0133    484.23627    402.24567   -395.82929    37373.809 
  889100    305.10892   -1447.9549    472.95158    401.93685   -505.10408    37373.809 
  889200    296.82077   -1451.2989    492.08966    380.32695   -735.81775    37373.809 
  889300    303.71636   -1457.1073    499.13262    412.68098   -836.21253    37373.809 
  889400    290.87413   -1460.7123    515.80753    367.79463   -584.51128    37373.809 
  889500    302.89663   -1480.2725    473.80024    360.48406   -132.15804    37373.809 
  889600    293.72908   -1483.2347     489.5115    331.86039   -651.40269    37373.809 
  889700     298.0309    -1470.321    482.89685    357.57335    232.94876    37373.809 
  889800    297.32069   -1495.7832    499.26303    345.27222    313.64943    37373.809 
  889900    303.01898   -1502.7961    482.79511    347.50739    493.26986    37373.809 
  890000     309.2419   -1465.1593    486.23727     416.6701   -12.128226    37373.809 
  890100    305.99847   -1509.8207     465.5394    336.67338    51.432923    37373.809 
  890200    306.47335    -1480.779    485.59919    387.91804    20.192633    37373.809 
  890300    288.84305   -1521.9747    503.75363     285.3121    357.18043    37373.809 
  890400    297.98514   -1511.7827    487.24435    320.25257    239.66112    37373.809 
  890500    289.49931   -1492.3384    495.73571    309.89214    466.03958    37373.809 
  890600    291.30717   -1503.1041    499.65597    311.20552    27.632695    37373.809 
  890700    301.15044   -1492.4477    480.75489    347.38297   -151.86241    37373.809 
  890800    305.15252   -1460.3536    496.04098    412.82435    332.66279    37373.809 
  890900    307.50703   -1452.8674     513.3337    448.22901    3.7143001    37373.809 
  891000    311.99852   -1484.9608    509.96142    433.03321   -43.930169    37373.809 
  891100    303.10074   -1504.9235    483.98036    346.93428   -339.17867    37373.809 
  891200    292.01531   -1502.0249    493.52376    309.34835   -535.54749    37373.809 
  891300    296.70503   -1468.6997    509.11316    379.42736   -674.51361    37373.809 
  891400    299.45745   -1478.6249    480.13369    352.94423   -513.46308    37373.809 
  891500    289.91383   -1477.9487    499.90139    330.31823   -633.69555    37373.809 
  891600    297.93122   -1480.0899    474.51451    338.97221   -76.197293    37373.809 
  891700    295.82435   -1500.4869    470.03239    304.58489   -82.094155    37373.809 
  891800    290.91528   -1512.7724    476.90768    277.02032     130.8504    37373.809 
  891900    299.35547   -1480.7753    481.58991    351.78982    245.37009    37373.809 
  892000    297.12197   -1476.6928    484.58146     348.7842    220.39003    37373.809 
  892100    300.11824   -1478.6389    477.35259    353.13118    235.89983    37373.809 
  892200        308.8   -1459.9025    503.76334    437.45873    217.96587    37373.809 
  892300     313.6348     -1491.86    475.96817    399.52518   -267.54732    37373.809 
  892400    307.21139   -1430.2881    476.58954    432.73002   -593.09837    37373.809 
  892500    305.50605   -1442.0826    470.01279    406.66264   -551.37066    37373.809 
  892600    302.44646   -1446.7476    492.06098    410.23807   -193.64036    37373.809 
  892700    300.35742   -1419.8674    489.94844    425.57802   -420.12034    37373.809 
  892800    300.91156   -1442.6468    498.77627    414.12723    83.072207    37373.809 
  892900    300.10624   -1365.4822    500.05348    488.93466    90.992358    37373.809 
  893000    308.69409   -1364.1563    483.28248    512.24605    -161.8909    37373.809 
  893100    288.94365   -1398.2664    485.03024    390.75103    -552.9532    37373.809 
  893200    288.94371   -1433.0854    485.47771    356.37973   -502.88437    37373.809 
  893300    301.33872   -1392.6488    508.28883    475.56556   -368.18583    37373.809 
  893400    303.48275    -1432.158    496.85387    434.29725    61.274428    37373.809 
  893500    295.72687   -1435.9003    493.21291    391.91214   -143.78092    37373.809 
  893600    297.30875   -1460.8131    483.20517    364.13053   -273.51036    37373.809 
  893700    305.37897   -1432.9908    477.02879    422.19694   -253.44877    37373.809 
  893800    294.97016   -1464.9619    482.10735    348.32997   -454.05258    37373.809 
  893900    292.75073   -1474.0613    480.74835    327.85539   -376.42034    37373.809 
  894000    304.86893   -1425.5303    479.22491    429.55175    548.12216    37373.809 
  894100    290.92664   -1440.6985    484.19907    356.43688   -371.48602    37373.809 
  894200    304.83765   -1429.2168    498.71269     445.2119   -494.17665    37373.809 
  894300    305.88057    -1456.591    491.26749    415.09911    277.91625    37373.809 
  894400    294.69026   -1449.3055     486.2534    366.86928    579.48679    37373.809 
  894500    290.51724    -1449.222    459.45821    321.32493    414.09446    37373.809 
  894600    308.31085   -1459.2019     473.7386    405.92701   -99.191612    37373.809 
  894700    305.61616   -1442.5457    484.46719    421.15081   -320.47035    37373.809 
  894800    307.94172    -1461.492    464.60367     392.8362   -403.29247    37373.809 
  894900    308.12593   -1450.0882    487.58382    428.05141   -290.57023    37373.809 
  895000    294.48391   -1519.0035    481.01094    290.99757   -795.44917    37373.809 
  895100    303.19944   -1494.7387    480.72881    354.31297    -159.3414    37373.809 
  895200     289.6071   -1488.4267    475.82107    294.37575   -575.23602    37373.809 
  895300     308.8315   -1495.6026    494.61751    392.75487   -731.93995    37373.809 
  895400    302.24073    -1475.368    466.32308    354.95132    159.33076    37373.809 
  895500    293.23706   -1457.6725    490.82565     356.5163    159.21812    37373.809 
  895600    290.72995   -1462.7089    484.75125    334.09105    -690.7974    37373.809 
  895700    296.46592   -1487.1436    483.38828    334.17951   -92.950412    37373.809 
  895800    303.15138     -1479.79    491.49541     379.8113    208.66023    37373.809 
  895900    299.57056   -1448.6578    486.56776    389.85586    1197.6203    37373.809 
  896000    304.02075   -1519.8807    487.48692    339.63562    977.91379    37373.809 
  896100    295.39737   -1401.4405    488.32392    419.99591    367.40525    37373.809 
  896200    307.93172   -1422.5553    502.96601    470.09004    1131.5704    37373.809 
  896300    299.36753   -1435.6724    481.50339    396.86058    157.79477    37373.809 
  896400    291.07555   -1445.5036    485.44888    353.55366   -137.67886    37373.809 
  896500    298.63957   -1484.4817    487.50608    350.76875   -391.62084    37373.809 
  896600    294.24819   -1446.3327    464.40826    346.00191   -440.69576    37373.809 
  896700    305.40783   -1425.1231    492.20441    445.37045   -391.06768    37373.809 
  896800    301.56148   -1427.4257    472.21853    405.72366   -467.73744    37373.809 
  896900    295.23605   -1429.0917    479.88976    383.18256     348.8327    37373.809 
  897000    303.49658   -1412.1761     487.5721     445.0598    7.2642734    37373.809 
  897100    294.96676    -1423.003     493.9343    402.10046    216.68963    37373.809 
  897200    295.83111   -1450.1481    473.52521    358.44702    102.95857    37373.809 
  897300    304.26601   -1455.1495    475.78902    393.77577    45.295675    37373.809 
  897400      303.516   -1441.7678    475.14217    403.12584   -1089.2795    37373.809 
  897500    304.76609    -1430.174    498.15862    443.37766   -1018.5732    37373.809 
  897600    296.47289    -1434.751    500.61005    403.82534   -285.52101    37373.809 
  897700    295.97937   -1432.1815    499.95391    403.51147   -431.09045    37373.809 
  897800    312.07904   -1443.6024    491.07433    455.86792   -281.33723    37373.809 
  897900    299.14288   -1433.1711    486.29309    403.13781   -154.26618    37373.809 
  898000    301.29539   -1438.1036    480.71721    402.34357   -538.27073    37373.809 
  898100    296.67428    -1391.873    482.37145    429.37359   -249.45489    37373.809 
  898200    299.73141   -1403.6685    469.11824    418.12157   -36.142989    37373.809 
  898300    294.35031   -1411.0701     501.4547    418.77178   -766.16822    37373.809 
  898400    289.55872   -1424.8443    488.30791     370.2266   -707.29209    37373.809 
  898500    300.48235    -1408.406    482.72213    430.37693   -442.93946    37373.809 
  898600    298.75454   -1403.2333    485.91976    430.94974   -515.08455    37373.809 
  898700    312.27613   -1415.5001     465.5949    459.38021   -276.58623    37373.809 
  898800    292.60981   -1464.2279    488.07269    344.37722   -46.847129    37373.809 
  898900    304.26833   -1458.2784    477.23428    392.10258    355.45607    37373.809 
  899000    295.39498   -1459.1352    506.54475    380.51125    900.03012    37373.809 
  899100    308.03243    -1454.056    479.21748    415.29534    102.00349    37373.809 
  899200    304.66656   -1435.7463    487.19002    426.38752    238.78378    37373.809 
  899300     300.8306   -1465.2564    479.92491    372.30085    298.49624    37373.809 
  899400    294.38046   -1442.1896    485.00859    371.34223    435.49342    37373.809 
  899500    297.12761   -1466.9104    487.58764    361.59825    1084.5541    37373.809 
  899600     297.0721   -1467.5017    480.23946    353.40821     -255.758    37373.809 
  899700    333.63251   -1460.3754    442.69885    487.98912   -235.82827    37373.809 
  899800    306.82603   -1430.6491    498.98343    453.02375   -198.98534    37373.809 
  899900    303.08892   -1448.7527    500.55776    419.62909   -384.92588    37373.809 
  900000    312.43196   -1432.4332    496.42687    473.98235   -190.43699    37373.809 
  900100    301.30257   -1452.4313    494.63857    401.96967     209.0288    37373.809 
  900200     300.1553   -1447.6314    459.94174    366.89512    187.45466    37373.809 
  900300    297.22138   -1479.2699    460.55771      322.632    571.12422    37373.809 
  900400    301.44698   -1470.5675    499.25512    389.10169    302.26393    37373.809 
  900500    291.30957   -1471.4739    490.62058    333.81113    492.94975    37373.809 
  900600    294.07908   -1473.9579     486.1889    339.39415    499.97963    37373.809 
  900700    295.93369   -1451.6996    490.71137    374.54468   -189.19911    37373.809 
  900800    304.36666   -1423.4933    487.18358    437.28073    1033.2828    37373.809 
  900900    304.29764   -1474.9994    483.00383    381.28334    463.52859    37373.809 
  901000    305.45115   -1459.2435    484.29272    403.53384    128.63813    37373.809 
  901100    302.90908   -1463.5385    493.58531    397.05928    357.44961    37373.809 
  901200    282.79864   -1456.8813    473.53842    292.91219    163.48042    37373.809 
  901300     302.1206   -1453.3571    463.75635    373.85337    136.27576    37373.809 
  901400    295.54466    -1427.207    458.79371    365.36391    608.15528    37373.809 
  901500    293.62082    -1419.622    489.95589    395.42892   0.44959778    37373.809 
  901600    299.83519   -1446.2178    485.07725    391.99957    572.15917    37373.809 
  901700    302.51842   -1436.7919    490.41497    418.87252    767.50983    37373.809 
  901800    290.55287    -1467.261    507.17978    351.16835    754.66234    37373.809 
  901900    299.58206   -1501.6637    480.19259    330.52671    201.44183    37373.809 
  902000    305.93824   -1477.4734    491.36824    394.57768    554.16521    37373.809 
  902100    291.47043   -1467.3501    496.56394    344.60424    342.62217    37373.809 
  902200     300.9997   -1468.4537    496.39494     386.3368   -73.251114    37373.809 
  902300    314.43965   -1436.4138    479.76468    462.40021    333.09855    37373.809 
  902400    294.71578   -1483.4346     497.9357    344.53765    58.598847    37373.809 
  902500    308.07401   -1462.0615     490.0396    418.29961    481.86334    37373.809 
  902600    294.51334    -1456.835    498.48551    370.77343    356.58262    37373.809 
  902700     301.7226   -1432.0788    513.72077    443.29989    426.25686    37373.809 
  902800    311.48722   -1491.5581    501.87774    416.04478    141.37052    37373.809 
  902900    304.54765   -1479.0668    502.37933    397.71979   -7.6233063    37373.809 
  903000    299.81549   -1458.5299    497.37038    391.89178    686.09744    37373.809 
  903100    309.06463   -1454.7281    483.86838    423.93239    102.73739    37373.809 
  903200    304.39081   -1444.6646    509.16642    438.20128     199.0709    37373.809 
  903300    295.46139    -1410.087    492.22359    415.53801    566.67671    37373.809 
  903400    301.59066    -1439.749    507.27394    428.58742    826.10608    37373.809 
  903500     293.1021   -1440.4896    509.25301    391.51746    320.92474    37373.809 
  903600    307.43078   -1465.3486    485.65724    407.72731    8.9004714    37373.809 
  903700     298.0491   -1490.2303    492.00999    346.85929    148.60413    37373.809 
  903800    296.47067   -1452.9019    495.70671     380.7611   -573.69865    37373.809 
  903900    292.31133   -1490.5324    478.40694    307.05993   -492.03653    37373.809 
  904000    297.70699   -1466.8319    485.74358    362.44739   -384.23816    37373.809 
  904100    303.49755   -1462.7572    487.89137     394.8024   -561.19924    37373.809 
  904200    304.72226   -1484.6502    487.98669    378.53167    -386.1451    37373.809 
  904300    303.58424    -1493.304    491.42949    368.18486      -175.34    37373.809 
  904400    302.72516   -1479.5746    458.44012     345.0479   -119.37899    37373.809 
  904500    303.52838   -1512.4622    481.01051    338.35559   -296.91508    37373.809 
  904600    300.10778   -1506.7225    485.72306    333.37086    40.710754    37373.809 
  904700    300.32185   -1504.9532    497.39231    347.77557    201.27077    37373.809 
  904800    303.26336   -1521.2162     483.0516    330.44669   -226.08714    37373.809 
  904900    305.27778   -1491.0525    493.81103    380.46073    92.934474    37373.809 
  905000    304.83498   -1478.2824    477.20545    374.62705    519.74935    37373.809 
  905100    292.40018   -1511.7175    502.93791    310.80676    319.87619    37373.809 
  905200    300.97922   -1516.2814    484.29904    326.32076    478.63647    37373.809 
  905300    298.67954   -1488.8999    496.07592    355.10079    475.51315    37373.809 
  905400    308.80524   -1475.9552     497.7802    415.44651    54.970627    37373.809 
  905500    298.77933   -1480.7802    470.71843    338.31331    258.37612    37373.809 
  905600    309.38365    -1476.913    516.79281    436.11162    610.44921    37373.809 
  905700    295.62447   -1462.9378    499.67926    370.87882    180.43374    37373.809 
  905800    294.58741   -1515.1911    496.46674    310.73284   -50.087676    37373.809 
  905900    299.04628   -1488.0673    495.17584    356.68838   -18.014482    37373.809 
  906000    301.68917   -1475.7929     491.0542    376.76838     206.2389    37373.809 
  906100    303.98338   -1466.1108    508.20072    413.95064    383.61982    37373.809 
  906200    293.76959   -1493.7648    485.07229    317.07388    502.29129    37373.809 
  906300    299.81287   -1456.5289     482.9352    379.44572    611.27218    37373.809 
  906400    312.50253   -1473.1062    494.51123    431.71222   -84.477278    37373.809 
  906500    292.42108   -1429.2355    491.06104    381.50626   -305.12439    37373.809 
  906600    302.88747   -1433.1071    498.61452    432.42233    764.25788    37373.809 
  906700    301.87871   -1467.0066    491.57652    386.93234    -232.9434    37373.809 
  906800    295.66804   -1485.5914    497.43508    346.17774    713.32449    37373.809 
  906900    301.51751   -1469.8612    492.91458    383.78574    49.584203    37373.809 
  907000    304.41502   -1477.8128    484.80965    380.80551    295.67934    37373.809 
  907100    302.13635   -1474.1516    493.70157    383.07518    346.69495    37373.809 
  907200    308.95091   -1428.6019    480.80469    446.48164    64.247199    37373.809 
  907300    305.54633   -1440.3036    470.14581    408.75643    30.642537    37373.809 
  907400    297.58784   -1438.4185    504.11639     408.6959   -48.388373    37373.809 
  907500    290.53072   -1419.0693    467.87382    359.95412   -78.119285    37373.809 
  907600    305.71744   -1462.0291     495.0298    412.68708    204.97309    37373.809 
  907700    293.20454   -1463.7483    504.19711    363.66521   -137.15496    37373.809 
  907800    295.47793   -1421.8648    499.67388    411.28512   -461.06261    37373.809 
  907900    287.17694   -1486.6049    497.90881    307.31804   -899.18698    37373.809 
  908000    297.86842   -1459.5747     506.9621    391.65162   -79.825682    37373.809 
  908100    306.23994   -1474.2375    476.13881    383.94575    76.917815    37373.809 
  908200    302.76508   -1470.3837    494.59574     390.5746    157.08593    37373.809 
  908300    299.71082   -1473.0228    497.82448     377.3805    342.76548    37373.809 
  908400    296.55236   -1502.3263    500.27145    336.27004    67.690411    37373.809 
  908500    296.65358   -1476.8578    510.20186     372.1257   -761.16683    37373.809 
  908600    301.40163   -1493.4875    463.63254    330.35447   -655.21756    37373.809 
  908700    292.91731   -1476.7654    498.47532    343.63007   -1116.7538    37373.809 
  908800    309.64856   -1489.1871    473.18476    381.42501   -674.54851    37373.809 
  908900     310.6531   -1507.8076    506.27795    400.43117    47.020831    37373.809 
  909000     305.7764   -1537.9637    483.68411    325.67291   -7.0750122    37373.809 
  909100    294.44553   -1508.6716    479.27142     299.4167    -37.97437    37373.809 
  909200    300.41471   -1518.8506    452.98353    289.88841   -240.15035    37373.809 
  909300    310.46611   -1522.9959    494.82364    372.94465   -496.18417    37373.809 
  909400     291.7438   -1527.9443    467.25209    255.93194   -789.27047    37373.809 
  909500    309.57025   -1558.5541    451.48411    290.00396   -1016.3118    37373.809 
  909600    299.23317     -1551.78    493.87111    292.51437   -314.30867    37373.809 
  909700    293.89619   -1525.4468    471.81812    272.70903   -441.49474    37373.809 
  909800    302.33324   -1509.9205    475.51908     330.0123   -462.04116    37373.809 
  909900     297.9342   -1533.2629    476.06486    287.36308   -258.94826    37373.809 
  910000    303.30229   -1530.0876    516.40164    355.10105   -360.31483    37373.809 
  910100    302.78883   -1494.2799    496.95812    369.14801    395.12754    37373.809 
  910200    309.93863   -1539.2394    497.88645    357.38348    216.87915    37373.809 
  910300    284.93451   -1546.5994    492.46749    231.76226   -60.995508    37373.809 
  910400    304.26972   -1531.9843    481.40637    322.57502    4.3701532    37373.809 
  910500    301.62166   -1518.1477    464.81188    307.86653   -489.97413    37373.809 
  910600    301.58899   -1540.4988    501.76683    322.32302     316.6378    37373.809 
  910700    311.98348   -1511.9052    502.50926    398.56881    473.80167    37373.809 
  910800     295.7747   -1501.6299    497.00486    330.19036    381.37786    37373.809 
  910900    305.85747   -1496.0226    507.51821    391.81401    538.74982    37373.809 
  911000    306.46819   -1519.5874    476.94967    340.43679    575.84637    37373.809 
  911100    307.53078   -1530.5112    503.44628    360.80498    116.16912    37373.809 
  911200       287.87   -1531.2028    518.47607    286.41519    183.44148    37373.809 
  911300    311.98199   -1477.7088    486.64462    416.89381    591.90571    37373.809 
  911400    294.37518   -1501.7075    479.36407    306.15601   -500.06678    37373.809 
  911500    304.43303   -1456.7319    509.38006    426.53811   -657.29516    37373.809 
  911600    302.85371    -1464.157    467.32376    369.92932    -304.7719    37373.809 
  911700    303.61932   -1454.1391    481.06712    397.14572   -270.45656    37373.809 
  911800    292.89558   -1451.7723    513.97298    384.02275   -418.00248    37373.809 
  911900    310.72752   -1427.2301    494.18987    469.25641   -111.65045    37373.809 
  912000    300.56034   -1445.3805    503.20901    414.24121   -212.35773    37373.809 
  912100     300.0199   -1491.3579    516.25928    378.87513   -506.05891    37373.809 
  912200    296.32002   -1495.9983    486.38126     327.6593   -420.66317    37373.809 
  912300    304.14265    -1513.247    511.84605    371.17856   -88.854444    37373.809 
  912400    304.48972   -1546.1738    471.96837    299.94031   -391.81561    37373.809 
  912500    316.92934   -1482.6939    487.41407    435.00528   -175.63244    37373.809 
  912600    301.92606   -1494.8058     479.6015    347.37182      -993.64    37373.809 
  912700    291.07092    -1493.071    506.90906    327.42553   -238.46329    37373.809 
  912800    291.74242   -1487.9977    509.78544     338.4056    125.19717    37373.809 
  912900    304.53964   -1494.6544    512.55946    392.27611    409.18756    37373.809 
  913000    305.86427   -1466.1916    516.57057      430.728    464.62046    37373.809 
  913100    289.17343   -1509.1099    520.43045    316.34474    718.72634    37373.809 
  913200    301.19333   -1533.3658    535.60339    361.50692    1082.5022    37373.809 
  913300    316.39123   -1557.3285    464.51814    335.04633     529.0972    37373.809 
  913400    303.52484   -1511.9074    492.82457    350.70853    193.93795    37373.809 
  913500    312.67469   -1469.9502    493.15873    434.29268   -378.95257    37373.809 
  913600    299.31665   -1463.5114    507.28947    394.57802   -286.15531    37373.809 
  913700    301.89251   -1477.8018    529.32367    413.94657   -330.32024    37373.809 
  913800    299.11873   -1508.7245    492.79573    333.97803   -16.547117    37373.809 
  913900      295.114   -1496.6679    497.47388    332.63962     152.3148    37373.809 
  914000    301.31503   -1527.0596    490.90105    323.65999   -364.72549    37373.809 
  914100    301.20524   -1528.8172    482.73861    313.24448   -228.36193    37373.809 
  914200    293.15411   -1527.1158    486.78908    282.66206   -379.46284    37373.809 
  914300    294.32896   -1570.6277    470.23537    227.89843    -31.61237    37373.809 
  914400    295.85726   -1517.5768    508.15187    325.76301     -571.494    37373.809 
  914500    295.16174   -1513.4908    498.04331    316.60163    -149.3819    37373.809 
  914600    295.91353    -1524.269    510.69154    321.86441    355.45144    37373.809 
  914700    304.16607    -1532.441    480.11179    320.35599    165.26282    37373.809 
  914800    303.84603   -1521.6484    481.42074    331.01323     -200.282    37373.809 
  914900    299.23937   -1517.5171    490.68514    323.61932   -431.57973    37373.809 
  915000    299.50776   -1488.0071     510.0914    373.74678   -641.96443    37373.809 
  915100    293.95666   -1494.7298      497.116    328.99686    -1008.271    37373.809 
  915200    297.50157   -1528.9532    514.78473    328.44023   -894.00709    37373.809 
  915300    295.24389   -1521.6961    463.38567    274.10941   -760.53058    37373.809 
  915400    292.38501   -1491.3042    507.57199    335.78563    17.343662    37373.809 
  915500    306.95379   -1494.0005    505.53143     396.7969    40.128458    37373.809 
  915600    285.55873    -1503.561     493.3854    278.53561     25.69685    37373.809 
  915700    305.66305   -1504.0029    498.83905    374.27708    61.437945    37373.809 
  915800    302.04295   -1498.1395    493.23003    358.19417     78.90948    37373.809 
  915900     305.9745   -1511.6115    506.36708    375.60207   -172.61723    37373.809 
  916000    302.27228   -1528.1868    518.20395    354.15577   -16.190532    37373.809 
  916100    314.42401   -1492.2394    497.06796    423.80729    424.58405    37373.809 
  916200    291.43692   -1489.1049    508.43671    334.57102   -69.287369    37373.809 
  916300    299.99779   -1493.3988    509.31131     369.7864   -89.181685    37373.809 
  916400    295.35879   -1469.4827    494.15598    357.61169    129.45218    37373.809 
  916500    308.89928   -1514.5704    526.05161    405.52706   -531.67453    37373.809 
  916600    299.29207   -1446.8023    511.45586    415.34267   -133.87836    37373.809 
  916700    297.62961   -1479.0663    488.16677    352.28693    -258.3433    37373.809 
  916800    303.29395   -1479.9412    490.77295    379.58113   -369.12064    37373.809 
  916900    309.23496   -1438.4513    505.70655    462.81607   -256.28322    37373.809 
  917000    310.26961   -1446.3123    491.86309     445.7809   -430.10672    37373.809 
  917100    298.53959   -1471.2625    504.49918    380.52987   -275.43383    37373.809 
  917200    291.34409   -1437.8155    517.34565    394.35043    43.254855    37373.809 
  917300    296.93914   -1474.5423    512.88498    378.41308   -354.37156    37373.809 
  917400    297.59443   -1474.8515    523.95827     392.1345    219.41643    37373.809 
  917500    308.61625   -1493.8105    499.60791    398.56607   -83.473329    37373.809 
  917600     306.6726   -1461.8129    484.95673    407.14089   -163.48256    37373.809 
  917700    302.89539   -1469.1971    488.63195    386.38553   -22.242111    37373.809 
  917800     302.5386   -1495.3803    477.29615    347.25634   -438.78428    37373.809 
  917900    304.11788   -1506.7188     504.3711    370.12002   -328.20543    37373.809 
  918000    288.82616    -1547.025    487.47457    243.90659   -693.40711    37373.809 
  918100    313.04794   -1523.1641    490.10343    379.70792    24.334211    37373.809 
  918200    298.52462   -1491.7054    502.10763    357.62789    666.16671    37373.809 
  918300    286.72359   -1481.0743    486.12563    299.01958    102.84944    37373.809 
  918400     304.2595   -1504.1481    482.83146    351.79018   -496.88406    37373.809 
  918500    301.90235   -1486.4621    479.57655    355.58362   -605.84429    37373.809 
  918600     309.4562   -1467.0596    492.51918    422.01882   -320.28414    37373.809 
  918700    296.88891   -1468.5604    493.45561    364.73896   -28.755749    37373.809 
  918800    286.98437   -1450.0148    496.99943    342.12971    58.497541    37373.809 
  918900    304.94827   -1515.7836    515.13502    375.56659     22.16137    37373.809 
  919000    290.13143   -1512.9288    511.99598    308.41474    160.61024    37373.809 
  919100    302.00275   -1534.9408    483.04746    311.02891   -331.09283    37373.809 
  919200    301.94027   -1538.7483    487.41653    311.30847    362.42171    37373.809 
  919300    308.30252   -1512.3236    499.50248    378.53166   -631.44463    37373.809 
  919400    298.54289   -1529.0802     520.9068    339.13461   -1013.6198    37373.809 
  919500    302.29834   -1538.3054    481.16221    307.11298    -635.2509    37373.809 
  919600     292.6342   -1538.6282    474.32254    256.33677   -803.90105    37373.809 
  919700    309.75327   -1508.1679    491.28351    381.01549   -650.98567    37373.809 
  919800    299.63364   -1556.3901    483.40332    279.24377   -851.70464    37373.809 
  919900    294.33529   -1529.7038    466.32279    264.93836   -581.14128    37373.809 
  920000    289.47176   -1559.2137    491.62838    238.78528   -345.88566    37373.809 
  920100    302.94804    -1545.239    495.23543    317.18466   -510.60126    37373.809 
  920200    295.11645   -1506.7246    491.56708    316.68716   -387.35878    37373.809 
  920300    298.68389   -1488.8205    493.19112    352.31502    391.74342    37373.809 
  920400    305.23392    -1512.863    511.17818    375.81954    763.26085    37373.809 
  920500    299.64318    -1519.496    494.17159    326.94913    321.88613    37373.809 
  920600    293.04554   -1544.8316    512.97962    290.64686    55.937563    37373.809 
  920700    298.20659   -1577.9087    506.90636    274.78807    220.02993    37373.809 
  920800    305.12182   -1561.0801    494.62662    310.54495    230.53829    37373.809 
  920900    303.83872   -1550.0262    507.98663    329.16835    86.838285    37373.809 
  921000    298.58459   -1588.4532    506.33709    265.38017   -32.814601    37373.809 
  921100    299.97076   -1548.0512    479.59597    285.29674    311.38739    37373.809 
  921200    300.03821   -1503.0418    505.59484    356.60943   -306.63955    37373.809 
  921300    294.07638    -1543.874    498.18496    281.46192   -283.47199    37373.809 
  921400    294.58668   -1578.8484    508.78696    259.39243   -126.81686    37373.809 
  921500    298.84194   -1533.3029    488.44963    303.80435    488.21318    37373.809 
  921600    292.31284   -1559.1667    518.85039    278.87591   -32.894521    37373.809 
  921700     292.0167   -1546.5191    471.98551    243.32219   -213.44237    37373.809 
  921800    293.63956   -1520.8764    494.39256    298.69577   -485.78729    37373.809 
  921900    307.28221   -1505.4394    528.51766    409.82643    -759.0077    37373.809 
  922000    304.36038   -1479.4684    474.44396    368.53766   -42.338436    37373.809 
  922100     309.2756   -1536.9412    503.72164    362.52467    18.752154    37373.809 
  922200    299.28894   -1520.4306    500.38807    330.63236   -54.761921    37373.809 
  922300    290.15206   -1556.4781    486.04679    239.00936    229.14152    37373.809 
  922400     306.3119   -1533.0382    515.07675    364.40776   -280.86828    37373.809 
  922500      306.564   -1537.0116    497.33413    343.82946   -103.76385    37373.809 
  922600    300.58583   -1548.7156    495.09537    302.90745     158.4404    37373.809 
  922700    295.36841   -1572.2199    520.51714    281.27902    174.09307    37373.809 
  922800    291.92849   -1588.3456    529.51269    258.62474    759.90482    37373.809 
  922900    288.93945   -1545.1078    499.12269    257.98314    563.01632    37373.809 
  923000    296.85282   -1583.4248    481.83485    238.09097   -142.94003    37373.809 
  923100     304.5858   -1536.5272    530.24497    368.29719   -1.2961399    37373.809 
  923200    300.26481   -1532.9026      474.006    296.18242   -208.27629    37373.809 
  923300    306.21006   -1513.2148    516.80812    385.50291    35.027377    37373.809 
  923400      296.679   -1527.5738      509.545    320.86765    413.28629    37373.809 
  923500    299.03809   -1581.6737    501.20701    269.07616    519.15909    37373.809 
  923600    305.91925   -1547.1602    505.78206    339.21907    1256.0765    37373.809 
  923700     304.0443   -1518.7648    513.91622    367.28711    546.10776    37373.809 
  923800    302.71428    -1557.043    505.07712    314.16746   -201.11493    37373.809 
  923900    304.24876   -1547.3119    496.38088    322.12734    261.48952    37373.809 
  924000    308.92037   -1534.9965    498.37709    357.52165   -455.40918    37373.809 
  924100    297.78032   -1495.0129    525.17547    374.02919   -649.24365    37373.809 
  924200    292.31832   -1501.8087    541.04232     358.4505   -1187.8458    37373.809 
  924300    303.68486   -1457.6772    488.07017    400.90651    -280.1342    37373.809 
  924400    288.64421   -1473.7922    517.11995    345.96356   -272.08795    37373.809 
  924500    299.53793   -1455.0763    503.73778    400.46008      227.296    37373.809 
  924600    297.28947   -1470.0944    518.25038    389.80742   -195.93365    37373.809 
  924700    300.63498   -1442.2231    510.76737    425.29379    347.08394    37373.809 
  924800     301.6714   -1487.1803    503.29827    377.54482    212.10284    37373.809 
  924900    291.49534    -1479.526    516.76409    352.74094    57.802184    37373.809 
  925000    302.93453   -1499.3935    489.05641    356.79018    442.23006    37373.809 
  925100    303.63974   -1526.7581    539.94827    383.50003    528.51362    37373.809 
  925200    302.82198   -1513.8616    510.93417     363.6919    206.00322    37373.809 
  925300     314.9165    -1461.368    491.78564    451.61896    836.90185    37373.809 
  925400    295.82795   -1475.8741    511.53605    370.71767    267.82977    37373.809 
  925500    293.98484   -1484.7869    537.31673     379.2677   -186.15865    37373.809 
  925600    304.04371   -1501.7749    495.99271    366.35078    205.45075    37373.809 
  925700    299.69982   -1533.3734    502.27749    321.43331    558.05955    37373.809 
  925800    303.02212   -1502.7673    511.56638    376.32169    12.803536    37373.809 
  925900    300.82581   -1515.0875    499.50408    342.02734    242.86646    37373.809 
  926000    314.47348   -1476.9139    500.31938    442.60739    279.82829    37373.809 
  926100    311.26288   -1484.9758    513.76169    433.49854     106.1055    37373.809 
  926200    285.76822    -1432.808    503.47502    360.32371   -527.95941    37373.809 
  926300    298.16151   -1443.8636    514.48857     416.2119    -339.6192    37373.809 
  926400    309.43034   -1463.7729    492.01857    424.68827   -63.958079    37373.809 
  926500    314.22767   -1445.4526    501.47303    474.11303   -67.748101    37373.809 
  926600    297.62285   -1531.7713    520.82762    332.21233   -56.436254    37373.809 
  926700     292.0238   -1502.4812    509.38097    324.78752    845.89244    37373.809 
  926800    289.86922    -1495.665    508.35087    320.85015    428.17059    37373.809 
  926900    296.97855   -1503.7174     513.5654    350.09633   -19.682533    37373.809 
  927000    301.67117   -1466.6175    504.47179    399.28008    62.643539    37373.809 
  927100    309.97022   -1469.3725    517.70542    447.21196    4.1031151    37373.809 
  927200    291.97236   -1473.5313    494.87755    339.00188    398.65865    37373.809 
  927300    300.43261    -1440.365    535.52525    450.99647      -10.348    37373.809 
  927400    295.33322    -1494.839    537.83758    375.82164     3.020929    37373.809 
  927500    297.27106   -1514.4714    471.22956    298.32647      95.6915    37373.809 
  927600     295.6064   -1443.4507    504.07169    394.67684   -190.82547    37373.809 
  927700    309.60425   -1476.2524    499.14997    420.12501   -431.09523    37373.809 
  927800    298.22009   -1501.5571    512.87247    357.16666   -497.37718    37373.809 
  927900    294.58189   -1461.7291    488.11769    355.82085   -60.914761    37373.809 
  928000    297.81596   -1471.1329    510.99212    383.88668    -105.7562    37373.809 
  928100    298.55194   -1427.6051    501.31618       421.06    350.86501    37373.809 
  928200    299.86124   -1444.2353    523.69677    432.71916    675.03725    37373.809 
  928300    301.35419   -1449.9108    526.01878    436.10331    189.94403    37373.809 
  928400    301.89731   -1480.8391    498.16671    379.77396   -270.47066    37373.809 
  928500     299.4524   -1496.5031    492.39342    347.30291    -125.6269    37373.809 
  928600    298.45944   -1468.7817    541.28812    419.43787   -800.22621    37373.809 
  928700    305.18272   -1478.0663    495.02546    394.23242   -389.24642    37373.809 
  928800    296.77749   -1517.0417    498.42653    320.72576   -457.49022    37373.809 
  928900    304.74243   -1497.7863     499.4531    376.95304   -138.17118    37373.809 
  929000    291.23322     -1459.72    492.44946    347.04935   -287.48293    37373.809 
  929100    288.91389   -1457.6883    522.03822    368.20278    63.555807    37373.809 
  929200    302.19482   -1483.0816    501.80744    382.51486    43.441189    37373.809 
  929300    304.68313   -1522.7111    501.77187     354.0794     266.8877    37373.809 
  929400    297.53432   -1481.0764    474.67058    336.35057   -119.67344    37373.809 
  929500    306.18419   -1513.2323    499.72509    368.28558   -34.743107    37373.809 
  929600    287.20883   -1509.1566    505.23982    292.24133    257.14285    37373.809 
  929700    305.00269   -1545.2187    460.90351    292.14564    359.68171    37373.809 
  929800    305.83797   -1533.1088     493.3107    340.43231    27.373892    37373.809 
  929900    305.77916   -1513.4075    498.51975    365.07722    442.62485    37373.809 
  930000    292.44049   -1497.6717    508.54494    330.64153    146.30212    37373.809 
  930100    304.50917   -1483.7277    494.24437     384.7502   -96.131862    37373.809 
  930200    307.83635   -1479.0135    521.77043    432.00595    366.81607    37373.809 
  930300     305.5699   -1470.4962    499.86645    408.39082    375.06397    37373.809 
  930400    294.91549   -1505.5142    542.08355    367.50717    541.65865    37373.809 
  930500    300.64348    -1552.014    522.93851    327.71243    398.44877    37373.809 
  930600    297.08087   -1498.4901    507.75227    349.97226    390.94232    37373.809 
  930700    294.61108   -1511.9214    496.68443    314.32702   -333.33359    37373.809 
  930800    298.49364   -1471.7581    522.80544    398.13315    -589.5814    37373.809 
  930900    309.44023   -1502.5825    495.50144    389.40607   -177.86338    37373.809 
  931000    300.65798   -1483.6228    510.62791     383.8585   -604.18937    37373.809 
  931100    302.24911   -1427.9975    523.34744    459.38398   -23.515645    37373.809 
  931200    302.35074   -1467.0443    508.08268    405.53101   -676.70863    37373.809 
  931300    296.92515     -1478.09     490.2091    352.12639   -438.59354    37373.809 
  931400    307.57985   -1516.1587    523.57723    395.50992   -562.57514    37373.809 
  931500    287.61032   -1490.6427    495.46893    302.79623   -471.58487    37373.809 
  931600    300.68811   -1500.2902    526.04051    382.73958   -986.14688    37373.809 
  931700     294.5806   -1495.6854    497.70278    331.44389   -800.76774    37373.809 
  931800    299.53196   -1479.8874    498.80052    370.68481   -442.30671    37373.809 
  931900    294.43235   -1506.9671    513.49552    335.28588   -482.35276    37373.809 
  932000    296.13287   -1463.1152    518.90601    392.22259   -73.208087    37373.809 
  932100    306.78704   -1484.4709    515.63029    415.67281    406.24837    37373.809 
  932200    309.94586   -1476.0739    506.38994    429.08507    32.205377    37373.809 
  932300    291.87837   -1448.7727    510.83733    379.29608    18.968615    37373.809 
  932400    302.39785   -1464.6335    528.29709    428.36892   -27.334871    37373.809 
  932500    298.22459   -1448.2484    536.35666    433.97985    276.93288    37373.809 
  932600    307.42758   -1438.3348    523.56068    472.63012    239.70205    37373.809 
  932700     293.2517   -1447.0648    475.73003    352.09449    83.851676    37373.809 
  932800    292.76552   -1445.0541    508.60644     384.7875    444.04514    37373.809 
  932900    297.74832   -1461.5639    508.80465    390.96297    535.67502    37373.809 
  933000    304.37969   -1519.3807    516.98177    371.25034    468.50556    37373.809 
  933100    292.64431   -1482.8332    527.12055    364.97544    481.39678    37373.809 
  933200    309.32489   -1512.1812     496.7601    380.54552    776.49822    37373.809 
  933300    298.97282   -1471.8839    531.74017    409.10458    742.88908    37373.809 
  933400    292.14027   -1508.7694    485.98577    295.62978    576.07551    37373.809 
  933500    294.11178   -1526.3899    529.99717    330.91801    448.43819    37373.809 
  933600    300.19964   -1503.3544    497.30877    348.73927    339.53027    37373.809 
  933700    303.52225   -1533.0327    487.48346    324.23038     120.3183    37373.809 
  933800    298.44154   -1552.4493    485.75281    280.15419    285.95958    37373.809 
  933900    317.14366   -1511.1628    519.71284    439.80239    364.28502    37373.809 
  934000    301.98402   -1522.1906    490.38296    331.03006    -402.3645    37373.809 
  934100    294.04586   -1544.0191    477.56463    260.55874   -265.04297    37373.809 
  934200    301.62403   -1516.9803    519.07014    363.30287    174.41138    37373.809 
  934300    300.74185   -1507.4211    514.01205    363.82276   -560.39459    37373.809 
  934400     291.5363   -1472.4481    525.13122    368.37086   -184.86034    37373.809 
  934500    300.25276   -1502.3588    520.92992     373.5957     338.5566    37373.809 
  934600    301.96723    -1499.047    512.25545    375.97042    96.849798    37373.809 
  934700    293.59211   -1501.8314    523.31574    346.44983    312.23759    37373.809 
  934800    289.52647   -1516.0582    531.15152     321.7107    176.40004    37373.809 
  934900    299.59469   -1488.1814    504.72689    368.60028    74.810153    37373.809 
  935000    304.18269   -1518.5586    501.56604    355.76763    408.12422    37373.809 
  935100    302.02821     -1508.48    504.90988    359.46702    738.76508    37373.809 
  935200    310.42036   -1529.9369    474.21981    345.19335    443.47843    37373.809 
  935300    295.82413   -1538.8261    486.39404    282.60641     143.5258    37373.809 
  935400    297.02591   -1589.2659    483.10285    234.29901    113.87401    37373.809 
  935500    297.32103   -1547.9212    486.00473    279.87741   -5.8812691    37373.809 
  935600    307.25221    -1568.778    495.31681    313.15156    259.99373    37373.809 
  935700     305.0669   -1566.4667    482.67099    292.95482    156.02317    37373.809 
  935800    301.41093   -1531.6484    482.76669    311.36968    521.71251    37373.809 
  935900    300.28383   -1543.9381    490.41907    301.64582    225.93003    37373.809 
  936000    292.32988   -1576.6593    489.05104    231.66086    120.25962    37373.809 
  936100    291.58304   -1536.4703    499.75123    279.17953    302.39288    37373.809 
  936200    299.45943   -1570.5208    477.88371    258.80729    62.556875    37373.809 
  936300     297.8103    -1620.837    500.70484    223.86976    187.73882    37373.809 
  936400    308.00661   -1623.4087    473.55601    240.16463    22.619203    37373.809 
  936500    301.04188   -1569.9395    496.19462    284.84098   -560.85605    37373.809 
  936600    304.28357   -1572.8723    482.80625    283.14935    -542.9336    37373.809 
  936700    298.88143   -1535.0339     475.6296    289.43161   -227.99163    37373.809 
  936800    295.40285   -1525.2589    508.39447    316.27283   -298.94273    37373.809 
  936900    300.83437   -1527.5822    508.17127    338.23842    352.40048    37373.809 
  937000    291.33285    -1582.129    481.78638    214.42686    245.18211    37373.809 
  937100    303.74531   -1552.9954    509.34406    327.13493    683.61045    37373.809 
  937200    301.87114    -1522.556      481.219    320.99127    493.50167    37373.809 
  937300    302.31821   -1564.6107    486.66499    286.40014    299.24562    37373.809 
  937400    302.53213   -1525.8075     482.6711    322.17492    505.21905    37373.809 
  937500    296.82164   -1543.8694    475.88643    271.55719    -98.44212    37373.809 
  937600    307.24966   -1483.5945    519.87881    422.88554    16.596634    37373.809 
  937700    300.07718   -1501.6734    506.14595     358.7048    823.12649    37373.809 
  937800    296.10165   -1536.6394    486.87797    286.52941    150.83533    37373.809 
  937900    301.78693   -1549.7713    496.94973     309.1267    322.33168    37373.809 
  938000    297.46019   -1567.7977    507.92113    282.54536     380.1083    37373.809 
  938100     291.1721   -1546.3585    524.36703    292.05263    331.89659    37373.809 
  938200    298.71149   -1549.3562    498.32608    297.03882    342.52941    37373.809 
  938300     303.0964   -1548.1992    458.87005    278.52869    274.47437    37373.809 
  938400    310.80553   -1579.8111    475.99691    298.83453    84.998186    37373.809 
  938500    305.19583   -1562.3144     470.1791    285.19709    198.55994    37373.809 
  938600    308.77609   -1517.0477    476.92572    353.36802    366.54568    37373.809 
  938700    300.67628   -1515.4368    513.40288    354.90202   -373.96961    37373.809 
  938800    293.22552   -1531.2503    511.54646    303.60723    241.14541    37373.809 
  938900    289.37733   -1500.7284    509.87937     315.0953   -32.836352    37373.809 
  939000    291.99542   -1530.2962    505.54426    293.00777   -198.77688    37373.809 
  939100     304.1929   -1534.6335    463.80013    301.97288   -166.28005    37373.809 
  939200     301.6914   -1486.7619    480.25818    355.01339   -278.11027    37373.809 
  939300    298.44168    -1531.947    482.93393    297.83819   -123.45996    37373.809 
  939400    303.72012   -1514.5781    517.46848      373.563    146.51313    37373.809 
  939500    292.11647   -1573.2066    512.72873    257.82808   -133.90326    37373.809 
  939600    296.79362   -1542.9271    489.99086    286.47746    424.83872    37373.809 
  939700     301.1845   -1571.2531     500.3101    288.28647    19.046243    37373.809 
  939800    304.91057   -1539.5965    494.62197    331.07052    556.04075    37373.809 
  939900    302.62955   -1537.7054    479.13303    307.17852    426.70791    37373.809 
  940000    302.88445    -1516.528    502.83611    353.20943    887.82859    37373.809 
  940100    301.12694   -1490.6605    504.69393    373.00316    285.83054    37373.809 
  940200    290.93419   -1497.0617    520.10658    336.01531    386.84424    37373.809 
  940300    294.53732   -1524.0148    530.46281    335.67918    59.081267    37373.809 
  940400    289.97449    -1525.009    485.68143    269.31174    -365.1141    37373.809 
  940500    307.04939   -1535.0761    518.34551    368.96686   -511.96024    37373.809 
  940600    292.71425   -1545.6181    473.88915    249.27479   -89.030811    37373.809 
  940700    302.94525   -1537.7577     503.0969    332.51491    107.07414    37373.809 
  940800    295.01201   -1535.6973    498.02342    293.69954    150.15771    37373.809 
  940900    304.19284   -1517.9762    513.81885    368.64867    475.20994    37373.809 
  941000    296.03687   -1529.3856    482.74226    289.35515    686.64028    37373.809 
  941100    303.43334   -1560.9266    493.33367    301.78545    443.34122    37373.809 
  941200    295.74505   -1540.8413    502.96317    296.80348    506.12029    37373.809 
  941300    293.67389   -1543.1114    487.34425    269.56742    -535.0565    37373.809 
  941400     300.5325   -1480.9545    496.55122    371.88377   -262.00129    37373.809 
  941500    299.99939   -1492.2536    496.23377    357.86136   -61.366022    37373.809 
  941600    301.76608    -1552.385    483.81269    293.28186    254.93049    37373.809 
  941700    305.15315   -1512.0203    497.77212    362.89161    55.754443    37373.809 
  941800    304.63549   -1536.9721    479.54479    317.37634    -439.4844    37373.809 
  941900    303.15307   -1537.6104    481.15355    311.65671    -719.0701    37373.809 
  942000    304.20764   -1506.3603    484.13838    350.65088   -329.53035    37373.809 
  942100    301.59835   -1511.0203    512.29602    362.37296   -59.023636    37373.809 
  942200    299.93817   -1486.2879    507.03439    374.35142    454.28762    37373.809 
  942300    299.69044   -1500.6823    507.46332    359.26795   -354.21509    37373.809 
  942400    297.51561   -1496.0963    490.73831      337.314   -74.403414    37373.809 
  942500    305.96167   -1482.6455    501.14705    399.29024   -132.01681    37373.809 
  942600     306.9715   -1458.7592    491.34162    417.92833   -952.13046    37373.809 
  942700    291.48513   -1490.9033    502.00872    326.56218   -932.16993    37373.809 
  942800     297.4172    -1477.529    523.94931    388.64817   -649.82046    37373.809 
  942900    298.49058   -1478.3171    484.67635    353.43121   -148.02126    37373.809 
  943000    292.03254   -1499.6804    531.32151    349.56833   -440.85655    37373.809 
  943100    293.42492   -1474.4496    490.18212    339.94353   -114.18509    37373.809 
  943200    303.04671   -1479.5871    519.10405    407.15054    284.85437    37373.809 
  943300    291.29758   -1485.5639    492.89856    321.94501    542.55676    37373.809 
  943400    307.61921   -1459.8076    507.62186     436.0833    178.69455    37373.809 
  943500     306.5745   -1463.2076     499.7933    420.13998    138.08197    37373.809 
  943600    299.01797   -1507.7093    482.94108    324.68389    398.83751    37373.809 
  943700    299.43838   -1452.8563    492.12889    390.62202    679.39949    37373.809 
  943800    295.85148   -1478.5894    512.38854      368.961    876.89338    37373.809 
  943900    300.85721   -1461.0348    507.25572    403.97339    667.65848    37373.809 
  944000    308.34353   -1496.9908    497.63502    392.18206    818.11911    37373.809 
  944100    292.96281    -1503.077    493.94911    312.99754    301.28044    37373.809 
  944200    296.76003   -1478.9441    497.70274    358.02076    528.92306    37373.809 
  944300     311.7008   -1483.7277    503.63062    426.59193    778.53735    37373.809 
  944400    300.14119   -1459.6574    501.69337     396.5571     718.1189    37373.809 
  944500    299.38048   -1457.2634    486.73076     380.5554    724.37334    37373.809 
  944600    291.05276    -1423.067    494.45721    384.89567    294.75414    37373.809 
  944700    307.45983   -1481.0819    506.75737    413.22522    841.15662    37373.809 
  944800    306.74633   -1451.0796    533.80912    467.05927    698.23049    37373.809 
  944900    295.90029   -1492.8997    529.81244    372.29491     62.07184    37373.809 
  945000    293.54123   -1474.0583    477.36936    328.04693   -80.820847    37373.809 
  945100    307.43157   -1446.0094    488.71309     430.1259    75.167669    37373.809 
  945200    294.07274   -1483.2855    536.27432    380.12338   -406.93753    37373.809 
  945300    294.48656   -1475.3661    478.79493    332.43094    289.33407    37373.809 
  945400    294.39431   -1505.7828    494.99584    317.79872   -443.76153    37373.809 
  945500      308.037   -1481.3363    501.04121    409.85936   -534.81157    37373.809 
  945600     299.6333     -1500.49    469.35727    321.09627   -231.28615    37373.809 
  945700    308.16925   -1519.2909     473.5252    344.98564   -82.597153    37373.809 
  945800    290.12877   -1472.2639    499.50629    336.57797   -244.35374    37373.809 
  945900    285.87604    -1424.376    493.82098    359.58823    77.549902    37373.809 
  946000    310.51829   -1497.9586    519.97149    423.36525     586.8047    37373.809 
  946100    298.11002   -1455.0493    478.46803    368.77323    408.11617    37373.809 
  946200    305.25993   -1468.7992    524.60499     433.4275    876.06693    37373.809 
  946300    302.91715   -1427.6273    532.04369    471.46526    778.86327    37373.809 
  946400    310.09491   -1472.1056    509.00669    436.34283    231.74752    37373.809 
  946500    310.42073   -1457.1009    519.63901    463.45023    306.09916    37373.809 
  946600    298.72121    -1467.985    472.76055    352.88839    254.34274    37373.809 
  946700    303.10953   -1500.5263    523.91455    391.30533   -324.90164    37373.809 
  946800    298.21015   -1439.7308    519.98139    426.05708    -244.6369    37373.809 
  946900    308.11429    -1517.412    513.45761    386.54891    324.15939    37373.809 
  947000    298.55157   -1484.1644    512.37878    375.56161    239.27193    37373.809 
  947100    298.90994   -1492.9227    498.65004    354.69188    301.09928    37373.809 
  947200    300.57874   -1468.5813    497.32057    385.23497   -137.52418    37373.809 
  947300    306.19193   -1514.4449    498.52161    365.90443    229.00096    37373.809 
  947400    293.86798   -1458.7622    514.27222    381.72049   -28.880006    37373.809 
  947500    290.25395   -1494.4008    489.44127      304.941   -108.64393    37373.809 
  947600    293.83756   -1521.8224    492.94759    297.19836   -340.79012    37373.809 
  947700    299.47179   -1513.7853    495.17256    332.88737    6.0918015    37373.809 
  947800    298.25306   -1527.4343    509.45946    328.02528    686.87856    37373.809 
  947900    293.03035   -1554.1317    505.77725    274.07576    257.95627    37373.809 
  948000     306.3038   -1533.9457    504.28129    352.66821   -106.48317    37373.809 
  948100    299.84389   -1542.1196    483.86566    294.92552   -396.45226    37373.809 
  948200     295.9558   -1539.5248    490.00902    286.11692   -7.4020203    37373.809 
  948300    305.53206   -1542.1389    489.67262     326.3835   -125.01136    37373.809 
  948400    306.57861   -1514.4929    473.25222     342.3322    37.052096    37373.809 
  948500    295.39602   -1502.3473    514.61784    345.37696    153.13516    37373.809 
  948600    307.58392    -1485.853    483.65499    385.91171   -362.16566    37373.809 
  948700    302.89507   -1475.5576    496.03454     387.4262    516.88858    37373.809 
  948800    305.13271   -1464.8656    508.90183    421.08382    198.25928    37373.809 
  948900    295.23925   -1498.4196    511.72102    345.70032   -157.97902    37373.809 
  949000    300.58064   -1509.0847    500.21604    347.63571    37.534544    37373.809 
  949100    292.61381   -1460.2488    493.31591    353.61756    723.96371    37373.809 
  949200     301.1551   -1486.2089    509.09303    381.98098    351.51478    37373.809 
  949300    301.40042   -1478.3576    500.45601    382.30239    417.84626    37373.809 
  949400    304.51469   -1503.2935    488.57611     359.5411    774.36645    37373.809 
  949500    295.81559   -1509.9967    509.11586    334.11909    370.35636    37373.809 
  949600    301.16323   -1493.9842    499.55919    364.70852    889.54732    37373.809 
  949700    303.50906   -1502.7856    515.52601    382.46057   -15.131852    37373.809 
  949800    308.31357   -1467.8507    498.04868     421.6006    462.90778    37373.809 
  949900    295.99848   -1461.1045    489.08525      363.806   -27.613149    37373.809 
  950000    297.92279   -1495.2607    522.64274    371.89169    497.01964    37373.809 
  950100    312.61673   -1509.7981    441.73077    342.75525    604.44531    37373.809 
  950200    294.61328   -1521.3664    494.63262     302.8402    819.12725    37373.809 
  950300    285.67014   -1458.8829    511.54347    341.87465    884.43739    37373.809 
  950400    294.40315   -1493.8754    520.66585    355.41609    851.54262    37373.809 
  950500     294.6591   -1492.3184    461.80432    299.26661    931.37053    37373.809 
  950600    300.35457   -1435.7038     471.1967    390.97699    604.07012    37373.809 
  950700    299.42067   -1505.9861    523.29438    368.57769    53.632523    37373.809 
  950800     303.3594   -1483.0097    488.48882    374.52386    569.61014    37373.809 
  950900    312.57368   -1470.4687    516.81337    456.97294   -57.008543    37373.809 
  951000    303.66704   -1438.1442    517.47875    449.76765    162.14541    37373.809 
  951100    297.37626   -1450.5783     497.2732    388.73802    479.88784    37373.809 
  951200    297.69091   -1459.4716     495.2489    379.24048    352.11737    37373.809 
  951300    294.27394    -1457.833    480.26558    350.47516   -225.90346    37373.809 
  951400    303.21663   -1450.3004    505.28921    423.38916   -71.425752    37373.809 
  951500    297.74817   -1491.9228    485.64924    337.44798   -167.21043    37373.809 
  951600    309.37999   -1521.2564    526.82178    401.78071   -433.04518    37373.809 
  951700    308.11417    -1504.022    484.97672    371.45752   -132.54293    37373.809 
  951800    305.24981   -1495.6281    473.93629    355.88423    275.42453    37373.809 
  951900     300.2753   -1432.4816     544.9529    467.59762     357.6434    37373.809 
  952000    293.41703    -1452.106    501.82619    373.89553    624.00023    37373.809 
  952100     307.1454   -1482.1476    484.77354    388.75667    330.76691    37373.809 
  952200    290.10525    -1439.402    506.33395    376.16136   -258.88498    37373.809 
  952300    295.37299   -1442.9674    509.13634    399.17144   -367.59134    37373.809 
  952400    303.82524   -1462.8581    488.23581    396.52471     -107.257    37373.809 
  952500    305.19373   -1454.2455    485.46763    408.54511   -60.454895    37373.809 
  952600    306.41834   -1466.2158    488.63945    405.27318   -293.83676    37373.809 
  952700    315.41737   -1447.7701    498.94404    474.63559   -277.10693    37373.809 
  952800    309.39164   -1445.8672    513.07618    463.47684    348.53993    37373.809 
  952900    306.03235    -1486.101    482.77422    377.78079    545.70614    37373.809 
  953000    299.01786   -1516.4462    473.04869    306.05413   -127.45205    37373.809 
  953100    294.83331   -1449.3261    525.88474    407.12551   -279.60017    37373.809 
  953200    289.36385   -1418.8753    502.15061    389.15889   -306.84337    37373.809 
  953300    300.15429   -1483.1789    499.73059    371.13186   -578.11695    37373.809 
  953400    303.72937   -1423.9071    520.34012    467.14738   -549.37441    37373.809 
  953500     297.8257   -1457.7668    486.00341    372.30804   -40.934548    37373.809 
  953600    308.26159   -1488.0575    522.15612    425.26672   -187.82839    37373.809 
  953700    284.58396   -1466.4988    515.83473    333.64809   -257.72841    37373.809 
  953800    300.57048   -1480.5566    480.53374    356.43556    274.64603    37373.809 
  953900    307.63161   -1460.5089    505.78276    433.59884    564.30365    37373.809 
  954000     301.6801   -1457.4847     479.2803     383.2617     424.8985    37373.809 
  954100    303.87985   -1472.1374    533.12504    432.38109   -23.799702    37373.809 
  954200     296.4453    -1468.669    489.86908     359.0419    205.16438    37373.809 
  954300    305.30324   -1453.1039     506.0394     430.7527    356.32375    37373.809 
  954400    299.07333   -1536.3873    513.01291    326.32756    70.848219    37373.809 
  954500    301.75825   -1493.5745    505.74854    373.99285    152.11062    37373.809 
  954600    301.28768   -1533.6107    526.43781    352.52228    273.03229    37373.809 
  954700    301.29702   -1493.0531    507.95571    374.63989    277.66436    37373.809 
  954800    304.17562    -1494.907    482.33572    360.15697    198.38871    37373.809 
  954900    294.43294   -1564.9979     507.6483    271.41047   -32.315101    37373.809 
  955000    302.80351   -1509.7316    494.09921    350.90367    930.79688    37373.809 
  955100    289.53244   -1523.9155     497.2877    280.01662    794.61578    37373.809 
  955200    308.06242   -1525.8897    500.86444    365.24389    581.81946    37373.809 
  955300    303.86314   -1493.3683    519.46373    397.41349    67.730601    37373.809 
  955400    307.95136   -1511.7695    490.06924    368.06774    465.14598    37373.809 
  955500    304.48427   -1469.5718    491.48902    396.03843   -205.80079    37373.809 
  955600    295.70286   -1475.4122    521.79161    380.87052   -800.76139    37373.809 
  955700     309.5794   -1461.9814    497.47525    432.60909   -634.15871    37373.809 
  955800    286.22177   -1476.3203    511.76715     327.1504   -523.29567    37373.809 
  955900    310.51971    -1500.969    503.74236    404.13223   -252.79519    37373.809 
  956000    299.19898   -1494.3518    511.93339     367.8506    111.23623    37373.809 
  956100    298.69809   -1473.2983    474.36616    349.07633   -106.75608    37373.809 
  956200    310.47273   -1445.8918    516.92237    472.17735   -796.82571    37373.809 
  956300    296.62358    -1468.142    485.95161    356.45598   -23.079593    37373.809 
  956400     295.2305   -1466.6571    500.66981    366.37214    49.857406    37373.809 
  956500    291.12209   -1511.8108    533.44232    335.44992   -331.85858    37373.809 
  956600    294.23267   -1497.0758    527.90013    358.68056    538.93382    37373.809 
  956700     287.8425   -1511.4989    500.95525    288.47419    416.23948    37373.809 
  956800    294.02648   -1506.6268    496.04837    316.34734   -104.95858    37373.809 
  956900    306.83727   -1518.2369    512.04165    378.54498    59.487009    37373.809 
  957000    296.93412   -1484.0463    496.64629    352.64781    422.94648    37373.809 
  957100    296.80214   -1499.6735    510.68786    350.46647    156.28666    37373.809 
  957200    291.69054   -1487.7851     521.0562    349.65484    716.18675    37373.809 
  957300    284.24972   -1501.9181    480.50103    261.38667    487.78182    37373.809 
  957400    305.68514   -1487.6062    508.28418    400.21861    392.11395    37373.809 
  957500    295.32593   -1447.4382    473.72183    359.07376     340.1841    37373.809 
  957600    295.69261   -1448.5065    517.47257    403.41099   -144.89531    37373.809 
  957700    300.87475   -1464.6495    502.25252    395.43461    355.15007    37373.809 
  957800    300.90367   -1493.1275    537.06166    401.89631   -308.07473    37373.809 
  957900    310.05398   -1491.8476    512.87058       420.28    435.12416    37373.809 
  958000    292.22693   -1471.0002     504.6726     352.4769   -121.61351    37373.809 
  958100    315.38239   -1491.9349    527.56636    458.93526    170.59996    37373.809 
  958200    317.26759   -1425.7401     497.1361    503.20757    223.55186    37373.809 
  958300    314.86632   -1456.9674    520.94164    484.94908    -28.67465    37373.809 
  958400    304.11698    -1507.111    492.51028    357.86295    747.23564    37373.809 
  958500    300.52012   -1460.4073    498.00422     393.8281    343.34506    37373.809 
  958600    310.08043   -1460.3896    505.14918    444.13599    96.352388    37373.809 
  958700    298.30457   -1445.8778    544.95676    445.31149    -89.25634    37373.809 
  958800    297.90097   -1426.5546    513.52332    431.37978   -381.97684    37373.809 
  958900    303.30929   -1455.9725    514.72144    427.56748   -579.35706    37373.809 
  959000     288.8163   -1451.9511    506.46672    357.92808   -687.22613    37373.809 
  959100    297.01622   -1426.2432     519.4077    433.58276   -1076.7919    37373.809 
  959200    291.78057   -1456.0593    484.15773    344.88854   -828.29326    37373.809 
  959300    295.28687   -1427.0967    534.09735    439.61443   -805.97399    37373.809 
  959400    302.48813   -1454.9466    490.20157    400.36766   -649.45877    37373.809 
  959500    293.19947   -1478.7202    511.88798    356.36127   -265.82483    37373.809 
  959600    300.14295   -1505.8392    514.43628    363.12613     30.79552    37373.809 
  959700    292.07949   -1463.2355    523.31787    378.22141    609.71989    37373.809 
  959800    292.81264   -1478.3681    505.37068    348.45029     954.5411    37373.809 
  959900    299.78206   -1453.5043    533.72838    433.12445    1287.2486    37373.809 
  960000    289.75332   -1468.5291    505.62201    344.73415    769.01418    37373.809 
  960100    294.07103   -1423.0287     540.1147    444.21279    408.60281    37373.809 
  960200    296.77113   -1435.9827    516.61696    419.94644    309.49524    37373.809 
  960300    304.07979   -1422.4471    505.85175    455.70044    80.129736    37373.809 
  960400    293.95096   -1460.6637    487.26138     353.1826   -203.02337    37373.809 
  960500    299.71249   -1469.9576    519.96752    402.59637   -133.42328    37373.809 
  960600    282.96063   -1448.8695    502.90775     331.0244   -149.20668    37373.809 
  960700    302.74271   -1429.8126    500.62042    437.06947    413.85515    37373.809 
  960800    296.68824   -1456.1065    509.37231     392.2039    -414.8469    37373.809 
  960900    288.35139   -1482.7816    495.29137    313.82416   -382.54661    37373.809 
  961000    298.47929   -1438.2698    498.29736    407.04863    117.76553    37373.809 
  961100    306.20643    -1482.288    537.00654    436.61178   -142.71916    37373.809 
  961200    305.15483   -1542.3512    494.48775    329.28396    758.66419    37373.809 
  961300    293.43658   -1504.1274    511.52129    331.65749     347.6101    37373.809 
  961400    298.53169   -1507.2209    521.63933    361.67592    445.28432    37373.809 
  961500    298.87649   -1508.8608    517.03636    356.98914    668.23174    37373.809 
  961600    291.19919   -1479.1917    502.51363    337.48833    247.57176    37373.809 
  961700    291.76863   -1466.3808    514.09301    364.44836   -5.3522561    37373.809 
  961800    289.90049   -1470.3681     495.5704    333.50768   -86.352542    37373.809 
  961900    306.18778   -1489.0207    504.21716     397.0055    272.73551    37373.809 
  962000    301.98471   -1474.1118    495.55968    384.28874    -156.4391    37373.809 
  962100    298.18453   -1478.3657    505.42489    372.74995     -632.057    37373.809 
  962200     313.6905   -1468.4249    506.75547      453.999   -435.50089    37373.809 
  962300     312.5805    -1445.927     494.8595    459.59154    146.63306    37373.809 
  962400    313.90103   -1506.1375    518.58571    429.06668    377.27737    37373.809 
  962500    308.87703    -1476.709    494.92064     412.1571    91.986511    37373.809 
  962600     294.7311   -1478.3114    514.84264    366.63689   -109.67713    37373.809 
  962700    300.39576   -1520.0954    506.78533    342.35988   -270.45924    37373.809 
  962800    296.71542   -1559.1539    504.43554     284.3424    515.93996    37373.809 
  962900    307.14564   -1543.7537    470.37992    312.75803    1000.0457    37373.809 
  963000    297.72215   -1493.8878    526.91425    376.63053    159.08211    37373.809 
  963100    295.28387   -1488.6782    500.62771    344.54983   -339.50114    37373.809 
  963200     297.9935   -1480.3801       503.79    368.23858   -340.33488    37373.809 
  963300    303.08911   -1495.1022    524.46378    397.18649   -288.10845    37373.809 
  963400    301.37055   -1489.1279    509.38858    380.32986   -90.964344    37373.809 
  963500    297.48374   -1496.3904     511.1155    357.25322   -63.138413    37373.809 
  963600    299.16004   -1497.8254    513.60721    365.87503    -33.86197    37373.809 
  963700    290.85771   -1469.5572    519.31636    362.38448    133.16283    37373.809 
  963800    302.27019   -1492.4277    513.13148    384.83297    236.71954    37373.809 
  963900    304.79912   -1464.6491    496.96582    407.85883   -358.81446    37373.809 
  964000    299.02408    -1457.391    518.71026    410.79893   -432.56539    37373.809 
  964100    308.91165   -1457.1849    503.51442    440.43128   -387.21012    37373.809 
  964200     292.6187   -1478.0098    495.25111    337.81375    204.67365    37373.809 
  964300    293.28884   -1469.7682    505.91416    359.74283   -5.5145156    37373.809 
  964400    313.09594   -1466.3923    507.52421    454.11708    71.625735    37373.809 
  964500    308.54733   -1489.9025    507.65654    410.21163   -180.61719    37373.809 
  964600     294.3616   -1482.3772    525.14837    371.20928    -195.5525    37373.809 
  964700    308.51062   -1502.9206    487.91294    377.28422   -443.00526    37373.809 
  964800    294.42518   -1463.7089    509.19297    374.20916   -592.44199    37373.809 
  964900    298.51922   -1478.2875    498.56639    367.48016   -79.894474    37373.809 
  965000     292.5628   -1506.5086     490.2408    304.05247   -634.37946    37373.809 
  965100    291.93361   -1571.3204     509.5821     255.7424   -102.61686    37373.809 
  965200    307.43903   -1541.2615    511.80922    358.00357    383.44062    37373.809 
  965300    297.70916   -1541.3584    473.10336    275.29044    83.572542    37373.809 
  965400    306.03194   -1512.4043    500.89051      369.592    267.07785    37373.809 
  965500    298.41974   -1502.6201     503.8477    347.97988    5.8105637    37373.809 
  965600    301.40436   -1512.1859    508.85926    356.89508   -653.34008    37373.809 
  965700    299.64381   -1509.9328    512.90824    355.25188   -131.86977    37373.809 
  965800    299.85798   -1520.1574    497.85912    330.94469    143.31643    37373.809 
  965900    300.60529   -1490.6612    500.59089    366.54523    285.76152    37373.809 
  966000    291.26725    -1468.326    528.63743     374.7849   -87.466803    37373.809 
  966100    301.30313   -1513.2052    504.00251    350.56219    49.919357    37373.809 
  966200     296.1302    -1509.107    484.54149    311.85422    55.554109    37373.809 
  966300    302.28928   -1536.6876    501.51872    329.04642   -119.50874    37373.809 
  966400    288.10804   -1510.0502    497.94881    288.11476   -143.23715    37373.809 
  966500    298.26889   -1508.3458    497.60958    335.33533   -436.62413    37373.809 
  966600    298.67229   -1518.5523      501.675    331.01473   -200.74796    37373.809 
  966700     306.6538   -1498.5332    501.08595    386.46489   -794.10356    37373.809 
  966800    306.44643   -1530.5639    508.55278    360.96515   -470.79791    37373.809 
  966900    306.43846   -1512.9722    511.27971    381.24791   -397.96371    37373.809 
  967000    297.62551   -1509.9209    512.86622    346.11329   -268.65743    37373.809 
  967100    302.26031    -1530.026     519.3772    353.43579   -496.13362    37373.809 
  967200    295.52229   -1486.5273    517.48821    364.63719   -440.76303    37373.809 
  967300    302.33405    -1511.573    520.97593    373.82028   -12.978046    37373.809 
  967400    291.37107    -1486.519    512.04489    340.46792    138.83116    37373.809 
  967500    302.26506   -1501.6129    518.70934    381.20245   -379.66858    37373.809 
  967600    295.71587   -1496.8782    528.60757    366.27925    209.87699    37373.809 
  967700    306.32342   -1523.9177    521.12034    379.62383   -390.10537    37373.809 
  967800    303.71784   -1472.3424     517.1206    415.44057   -5.2389856    37373.809 
  967900    289.01864   -1483.5365     538.2645    359.05366   -149.42598    37373.809 
  968000    300.37808   -1499.6659       505.78    361.70433   -279.92441    37373.809 
  968100    302.78733   -1475.0486    523.04926    414.46362   -76.631138    37373.809 
  968200    297.73096   -1478.5568    496.64355    361.73059    -438.0585    37373.809 
  968300    306.27969   -1492.6524    497.09837    386.66982   -69.259619    37373.809 
  968400    292.35058   -1473.3604    535.65626    381.65836   -784.40921    37373.809 
  968500    293.76366   -1539.3742    510.86739    297.23283   -79.572223    37373.809 
  968600    306.03163   -1481.3402    518.05039    417.81457    137.41263    37373.809 
  968700    289.27074   -1458.5744    544.06054    390.94948    34.412385    37373.809 
  968800    307.79322   -1464.3978    510.68629    435.34278    104.04888    37373.809 
  968900    299.54662   -1501.8475    506.87423    356.86454    189.68266    37373.809 
  969000    311.36925   -1491.2258    518.83419    432.80115    140.45748    37373.809 
  969100    298.73762    -1461.543    521.03048    407.67438    254.87317    37373.809 
  969200    303.89915   -1503.2646    499.31612    367.53207    326.33262    37373.809 
  969300    305.72355   -1530.8973    536.55384    385.37054    215.52328    37373.809 
  969400    294.57654   -1528.4653    519.25469    320.19747    242.05846    37373.809 
  969500    306.73378   -1491.8742    550.35466    442.75359   -53.432473    37373.809 
  969600    308.26649    -1491.037    504.85871    405.01186    130.84975    37373.809 
  969700    297.93534   -1480.5822    521.16758    385.15159   -48.372147    37373.809 
  969800    301.06496   -1519.7682    507.14914    346.07099   -152.33984    37373.809 
  969900    296.90521   -1517.6798    520.43776    342.67526   -252.56703    37373.809 
  970000    297.81414   -1503.6868    522.79959    363.13205   -91.738205    37373.809 
  970100    298.13652    -1521.136    509.46052    333.79863    252.17033    37373.809 
  970200    296.80407   -1494.6798    500.22762    345.00871     111.8407    37373.809 
  970300    301.00782   -1443.9824    522.92965    437.37941   -123.85242    37373.809 
  970400    308.11442   -1495.6693    514.02282    408.85735   -436.31573    37373.809 
  970500    296.46403   -1502.7988    504.52244    339.64993   -32.910937    37373.809 
  970600    296.28697   -1478.7142    508.15777    366.57079   -61.473726    37373.809 
  970700    300.32993   -1469.3595    488.99312    375.00646   -152.02855    37373.809 
  970800    297.14304   -1493.7636    518.83562    366.06261    93.155955    37373.809 
  970900    306.96702     -1487.21    509.98462    408.10029    -182.1625    37373.809 
  971000     300.7413   -1516.5566    489.35489     330.0276    -233.9106    37373.809 
  971100    286.17531   -1522.6299    507.75408    276.61796   -72.191524    37373.809 
  971200    307.43924   -1516.9798    528.99614    399.47321     -116.694    37373.809 
  971300    302.15406   -1519.4299    516.94552    361.12069   -182.20359    37373.809 
  971400    298.63951   -1497.0215    511.40158    362.12416   -325.67574    37373.809 
  971500    302.54393    -1499.212    497.03049    363.18302   -735.30469    37373.809 
  971600    303.35329   -1522.8667    518.92288    365.07331   -64.875872    37373.809 
  971700    304.72052   -1500.8916    519.62506    393.92084   -91.504413    37373.809 
  971800    302.38911   -1517.1793     515.9199    363.40648    199.13134    37373.809 
  971900    299.28629   -1477.3621    497.98265    371.28354   -900.49621    37373.809 
  972000    304.84322   -1479.9326    497.32106    393.12956   -548.63335    37373.809 
  972100    297.20965   -1510.7161    514.69214    345.26731    58.936843    37373.809 
  972200    303.23881   -1503.3246    504.96036     370.1363   -145.96433    37373.809 
  972300    298.89655   -1515.8115     515.4882    348.58077   -586.78744    37373.809 
  972400    289.17929   -1515.1079    491.27262    281.21534   -602.97507    37373.809 
  972500    298.44319   -1519.0989    484.94764    312.70684   -709.67202    37373.809 
  972600     305.2015   -1556.1421    502.21237    323.42829   -76.315347    37373.809 
  972700    297.40491   -1501.9802    517.24666    357.43884    240.72499    37373.809 
  972800    298.72594    -1561.445     499.3436    286.03275    171.55083    37373.809 
  972900    294.20527   -1578.7946    484.79672    233.73476   -530.90176    37373.809 
  973000    301.11432   -1544.2057    484.12808    298.83515   -121.34004    37373.809 
  973100    303.47687   -1490.5966    498.26523    377.24353   -488.33323    37373.809 
  973200    291.50783   -1496.2301    519.32507    338.65415   -803.13424    37373.809 
  973300    292.00246   -1532.7295      490.275    275.33694   -615.99736    37373.809 
  973400    295.05903   -1576.1006    489.66427    245.14926    36.806427    37373.809 
  973500    295.67422   -1548.9521    485.34802    270.75783     321.0412    37373.809 
  973600    296.92668   -1542.2131    523.07026    320.87136    73.893145    37373.809 
  973700    297.57345   -1514.2213    508.14201    336.85376    175.86127    37373.809 
  973800    301.30775    -1481.808    488.67973    366.65748    549.45249    37373.809 
  973900    310.63309    -1477.942    525.30278    449.23122    185.67892    37373.809 
  974000    296.79162   -1511.4348     499.4277    327.39756    854.53129    37373.809 
  974100    294.57475   -1507.3307    535.12994    357.19928    399.05613    37373.809 
  974200    304.35202   -1511.1465    506.63785    369.01572    472.23154    37373.809 
  974300    307.16174     -1465.32    523.19307    444.07757    141.87848    37373.809 
  974400    300.80449   -1506.5541    502.72817     353.6886   -58.158522    37373.809 
  974500    291.75929   -1491.7852    519.40689     344.3157   -282.94182    37373.809 
  974600    301.49183   -1473.1646    524.84306    412.29499   -351.07096    37373.809 
  974700    301.90828   -1482.0685    488.29901    368.72641    8.3759581    37373.809 
  974800    299.71531   -1534.0265    486.30906    304.88173    339.60906    37373.809 
  974900    293.45735   -1499.3719    547.29118    372.27662    227.29517    37373.809 
  975000    302.76681   -1489.1521      515.848    393.06626   -330.55134    37373.809 
  975100    315.93361   -1452.5596     526.8436     500.0755    -732.1456    37373.809 
  975200    301.99561   -1518.8785    518.24377    362.25527    338.00712    37373.809 
  975300    290.59061   -1515.6145    512.42607    308.23145   -141.49767    37373.809 
  975400    300.77057    -1507.364      511.675    361.67246    106.88974    37373.809 
  975500     307.3554    -1533.815     478.4061    331.66955    168.33671    37373.809 
  975600    302.66313    -1509.544     491.2722    347.63074   -247.37385    37373.809 
  975700    300.59958   -1495.7446    507.37318    368.21842   -7.1528148    37373.809 
  975800    302.17775   -1482.7636     498.1464    379.09478    157.67461    37373.809 
  975900    297.41413   -1476.5183    518.87612    384.57183    437.41103    37373.809 
  976000    291.38364   -1491.1863    534.28927    358.10171    295.77819    37373.809 
  976100    301.56043   -1511.5921    510.17582    359.50979    203.58633    37373.809 
  976200    296.99721   -1505.5482    510.20215    344.98649    630.44627    37373.809 
  976300     286.9361    -1535.841    506.51396    265.60015     377.3178    37373.809 
  976400    306.68537   -1456.8451     535.6774    462.88692    696.40131    37373.809 
  976500    301.84001   -1459.4511    514.33087    417.06758    21.272678    37373.809 
  976600    294.41619   -1465.6607     530.0972    393.12096   -473.36742    37373.809 
  976700    304.13218   -1473.7032    537.76772    436.59679    -319.9021    37373.809 
  976800    307.61866   -1506.5371    504.42006    386.14945   -530.85285    37373.809 
  976900    293.34306   -1502.6189    525.41573     346.6384   -582.79328    37373.809 
  977000    295.59841   -1486.6811    515.03791    362.37656    -165.0441    37373.809 
  977100    307.60014   -1469.2988    549.96538    468.84951    319.04239    37373.809 
  977200    302.14878   -1512.6477    506.77617    357.70977    328.69841    37373.809 
  977300    297.21624    -1488.233    539.02566    392.11364    253.54462    37373.809 
  977400    300.04853   -1485.9846     497.3198    365.43809    74.580678    37373.809 
  977500    306.37082    -1481.093    523.13001     424.6721    210.24674    37373.809 
  977600    301.40669   -1512.8845    498.22153    345.56923    495.55605    37373.809 
  977700    294.65234   -1484.7035    517.19974    362.24652    364.63968    37373.809 
  977800    296.38003   -1514.4315    502.56455    325.68025    308.87903    37373.809 
  977900    297.93528   -1506.5951    524.52763    362.49853    201.83359    37373.809 
  978000    297.17379   -1516.8941    525.48584     349.7211   -37.714778    37373.809 
  978100    303.17221   -1504.7532    519.12115    382.56787    637.92432    37373.809 
  978200    300.17282   -1494.4039    536.27239    396.53231   -72.607273    37373.809 
  978300    291.76672   -1498.8049    529.36573    347.28839    340.51406    37373.809 
  978400    292.08913   -1540.3219    535.26417    313.12481     153.0302    37373.809 
  978500    300.74971   -1534.9173    513.20527    335.55534    37.663896    37373.809 
  978600    299.21383   -1512.1301    501.99785    340.20375   -300.79128    37373.809 
  978700    307.59624   -1500.0208    518.60058     406.7451   -763.16073    37373.809 
  978800    307.08048   -1493.8519    516.37516    408.36103   -567.19099    37373.809 
  978900    298.15777    -1533.787    534.73478    346.51779   -227.31816    37373.809 
  979000     295.4348   -1517.2876     498.2408    314.23466   -569.50287    37373.809 
  979100    305.15399    -1513.342    503.36162    367.16322   -333.56427    37373.809 
  979200    291.30479   -1516.8674    514.30021    312.07574   -512.47312    37373.809 
  979300    299.78238   -1485.6918    491.02568    358.23565    -355.4594    37373.809 
  979400    301.45762   -1464.9641    538.69337    434.19134   -541.95296    37373.809 
  979500    289.48708   -1483.4152    522.48461    345.50911   -254.90027    37373.809 
  979600    306.58212   -1500.1163     528.6976    412.16993   -869.19629    37373.809 
  979700    303.59592   -1522.3834    481.97661     329.7053   -626.31391    37373.809 
  979800    306.44417   -1504.6802    519.03224    397.31817   -559.05857    37373.809 
  979900    303.87603   -1539.7266     506.3801    338.02979   -238.54342    37373.809 
  980000     298.4793   -1510.2156    527.77813    364.58366   -398.27112    37373.809 
  980100    300.21277    -1506.413    512.25121    360.68235    311.02625    37373.809 
  980200    291.00849   -1503.9358    509.85021    319.22013     172.2176    37373.809 
  980300    299.87623   -1539.7561    540.80764    354.37693    109.62805    37373.809 
  980400    291.15607   -1482.2217    532.57889    364.32898   -380.51759    37373.809 
  980500    300.87073    -1511.746    531.86434    377.93181   -602.61669    37373.809 
  980600    287.62825    -1461.622    527.15262     363.5815   -176.88316    37373.809 
  980700    294.89104   -1469.8733    502.85505    363.80917   -333.55135    37373.809 
  980800    303.44038   -1433.9874    501.10103    436.52379   -143.34718    37373.809 
  980900    290.93099   -1419.9088    523.12501    416.17216   -98.370366    37373.809 
  981000    302.20426    -1454.402    524.85135    434.28101    346.04088    37373.809 
  981100    304.91735    -1461.811    537.27434    451.53895    41.256791    37373.809 
  981200     293.1423   -1488.4213    514.67072    349.18489   -311.53174    37373.809 
  981300    301.04922   -1493.6892     526.4753    391.40512    446.54188    37373.809 
  981400    292.21422   -1508.0163    490.76675    301.49761   -32.058305    37373.809 
  981500    305.45951   -1542.7432    517.81091    353.59016    193.65222    37373.809 
  981600    289.37442   -1462.0629    543.15876    387.02714    168.02039    37373.809 
  981700    301.25365   -1514.9204    529.02791    373.64906   -57.600432    37373.809 
  981800    301.68008   -1461.5462     518.2729    418.19269   -197.34835    37373.809 
  981900    302.27247   -1500.0254    518.41098    382.52501   -306.05265    37373.809 
  982000    291.58392   -1473.4199    497.30213    339.78486   -680.93461    37373.809 
  982100    291.68975   -1514.6511    530.18455    331.91363   -335.47327    37373.809 
  982200    302.55686   -1528.1284    501.12457    338.41904    -297.2973    37373.809 
  982300    301.25035   -1490.2672    511.22947    380.48889    -277.7785    37373.809 
  982400    301.94659   -1477.0944    513.43553    399.00993   -67.905308    37373.809 
  982500    315.05361   -1522.1246    509.67442    409.36983     176.6496    37373.809 
  982600    301.67139   -1528.0555    506.87135    340.24263    88.450607    37373.809 
  982700    310.76268   -1527.8103    542.63413     417.2792    146.39851    37373.809 
  982800    295.20805   -1513.4372    497.43743    316.25831   -85.188044    37373.809 
  982900    300.14834   -1500.7251    514.64181    368.47007    104.58172    37373.809 
  983000    298.87691    -1470.833    491.83816    369.82063   -190.53725    37373.809 
  983100     295.6642   -1519.6248    519.71246    334.40441   -447.12563    37373.809 
  983200    307.64717   -1497.4613    490.72832    381.66224    279.14516    37373.809 
  983300    294.86937   -1486.7173    534.88421    378.89658    298.35368    37373.809 
  983400    301.27061   -1504.8261    507.36275    362.15483    203.23488    37373.809 
  983500    304.00726   -1480.7411     527.5135    418.74093    550.63518    37373.809 
  983600    295.06788   -1498.1662    508.66497    342.12432     -449.692    37373.809 
  983700    293.14668   -1509.1942    519.93393    333.69496    53.991604    37373.809 
  983800    308.65865   -1516.6495    527.74395    404.05443    138.01136    37373.809 
  983900    302.49832   -1501.9809    481.39112    344.56892    218.33554    37373.809 
  984000    309.48287   -1553.2466    494.02761    337.46062    386.77312    37373.809 
  984100    303.01979   -1556.5966    513.02327     323.9388    449.95524    37373.809 
  984200     304.5864   -1496.4495    535.86624    413.99881    328.84935    37373.809 
  984300    296.15374   -1524.6353    528.48945    340.38011    535.88745    37373.809 
  984400    286.30738   -1516.6717    502.19843    277.61663     875.5675    37373.809 
  984500    302.82089   -1469.0699    549.09514    446.63974    567.59812    37373.809 
  984600    288.26487   -1475.7909    509.12557    334.25861    -277.6533    37373.809 
  984700    309.63066   -1521.9254    501.37325    376.79445    201.48796    37373.809 
  984800    296.38688   -1491.3505    549.34481    395.57244   -367.76448    37373.809 
  984900    289.86835   -1532.1952    493.70414    269.66925   -228.60573    37373.809 
  985000    302.57094   -1468.2548    525.71555    422.94724    75.664018    37373.809 
  985100    303.60548   -1463.5985    534.43079    440.98752    -10.63371    37373.809 
  985200    300.71648   -1501.3409    518.10863     373.8851   -312.87163    37373.809 
  985300    306.54628   -1513.8638    542.88721    412.45032    91.419038    37373.809 
  985400    299.20172   -1511.0744    529.15609    368.36297   -38.317772    37373.809 
  985500    302.74902   -1486.0201    528.12681    408.39677    313.86927    37373.809 
  985600    288.71025   -1484.9668     544.0733     362.0404    487.38582    37373.809 
  985700    308.88979   -1493.0116    505.04973    406.04114    398.18874    37373.809 
  985800    295.49075   -1498.4541    547.74795    382.82774    535.98763    37373.809 
  985900    291.61114   -1526.3086      515.506    305.22281     411.1528    37373.809 
  986000    296.78165   -1599.4045    507.36506    247.32027     596.5038    37373.809 
  986100    297.85775   -1567.3004    534.41626    311.33193   -234.96061    37373.809 
  986200    307.86515   -1563.5496    517.94375    343.77308    302.90332    37373.809 
  986300    293.81406   -1537.5559    552.23138    340.64261    124.21678    37373.809 
  986400    299.31601   -1544.9685    514.44096    320.26957    399.82505    37373.809 
  986500    298.96923   -1564.4041      513.541    298.36906    285.37451    37373.809 
  986600    293.87093   -1551.7723     537.3443    311.79573    257.94574    37373.809 
  986700    302.17993   -1565.5443    526.10054    324.27805    111.69193    37373.809 
  986800    303.77199        -1513    541.00029    398.90705   -5.9006264    37373.809 
  986900    305.06404   -1590.5514    506.91201    293.09833    162.42112    37373.809 
  987000    295.72321   -1592.0987     514.4021    256.88646   -103.98972    37373.809 
  987100    301.24001   -1617.8548    508.09779    249.72302    439.03923    37373.809 
  987200    296.07486   -1574.2437    515.94874    277.87496     781.5447    37373.809 
  987300    300.70691   -1552.5968    512.65261    317.12992    477.39933    37373.809 
  987400    301.57941   -1559.1311     506.7023    308.58291    813.50467    37373.809 
  987500    300.73573   -1548.0953    507.59903    316.70796    560.89165    37373.809 
  987600    309.00906   -1541.8096     526.4724    379.20417    298.05898    37373.809 
  987700    290.82804   -1556.2341    504.22853    260.48584   -146.94319    37373.809 
  987800    301.09462   -1583.4051    499.40955    274.82837    46.361057    37373.809 
  987900    292.02128   -1555.9758    534.46397    296.36452    159.74572    37373.809 
  988000    307.19799   -1600.7819    502.73397    288.32011     123.1768    37373.809 
  988100    299.58294   -1583.4476    498.36212    266.91628   -399.67971    37373.809 
  988200    291.71375   -1551.2592    527.01719     292.2465   -380.23696    37373.809 
  988300    304.31004   -1553.6822    522.98041    342.63317   -529.71587    37373.809 
  988400    302.12029   -1535.2719    501.82487    330.00569    69.895323    37373.809 
  988500    299.16964   -1549.4211     506.5526    307.26802   -234.75925    37373.809 
  988600    298.52673   -1560.7096    514.45796    300.98347    -338.4896    37373.809 
  988700    298.91837   -1613.1803    498.77812    234.60044   -305.06643    37373.809 
  988800    301.53062   -1559.2324    509.36751     310.9267   -119.24413    37373.809 
  988900    297.89652   -1584.5815     483.8634      243.673   -243.62245    37373.809 
  989000    308.51273   -1564.5722    513.75762    341.48688   -630.18325    37373.809 
  989100    292.14299   -1574.5207    499.20083     243.1058   -835.30669    37373.809 
  989200    305.10639   -1546.7361     498.7293    328.92201   -896.33529    37373.809 
  989300    306.98101   -1596.4334    512.44407    301.39955   -508.74074    37373.809 
  989400    298.95997    -1559.971    504.85933     294.0787    182.37791    37373.809 
  989500    307.41291   -1541.0242    529.45391    375.76773    354.65281    37373.809 
  989600    302.50185   -1575.7152     511.9857    301.44512    653.00584    37373.809 
  989700    294.75837   -1544.0687     513.6282    299.78821    483.15385    37373.809 
  989800     297.0649   -1508.6681    538.56951     370.5394    297.13344    37373.809 
  989900    305.38662   -1560.9121    516.34742    333.62873   -20.397356    37373.809 
  990000    294.42732   -1538.5728    513.80332    303.96524    418.97149    37373.809 
  990100    309.77247   -1534.4283    522.56292    386.12117    480.12941    37373.809 
  990200    299.93789   -1506.0899    519.66175    367.17543    233.75831    37373.809 
  990300    303.55051   -1537.9488    535.19084    367.14925    166.41162    37373.809 
  990400    292.42393   -1562.6551    551.09011    308.12848    361.91866    37373.809 
  990500     300.4844   -1534.3277    505.67367    327.41594   -81.359264    37373.809 
  990600    306.57483   -1523.9807    519.05826    378.63333   -474.41015    37373.809 
  990700     294.3529   -1531.5202    541.83693    338.71556   -236.53372    37373.809 
  990800    292.93572   -1524.4728    510.06423     307.5946   -283.42057    37373.809 
  990900    303.03692   -1508.5861    506.15847    365.16175    -290.6732    37373.809 
  991000    297.44938    -1547.509    494.67431    289.53842    82.072845    37373.809 
  991100    291.74043   -1568.2293    511.19932     259.5789   -214.26928    37373.809 
  991200    302.12682   -1503.9178    529.45229    389.01668   -100.16317    37373.809 
  991300    298.43729   -1491.4343    520.99237    376.38955    -477.7775    37373.809 
  991400    296.60481   -1517.0309    505.22007    326.75076   -120.44462    37373.809 
  991500    293.51138   -1552.1535    478.58681    251.03446    168.11403    37373.809 
  991600    297.50085   -1572.7198    511.26951    281.15514    258.90991    37373.809 
  991700    287.33334   -1507.6989    488.35622    277.37734   -83.115116    37373.809 
  991800    305.26277   -1557.7249    526.33356    346.24319    332.53684    37373.809 
  991900    295.49494     -1556.06    518.90782    296.40063    452.09998    37373.809 
  992000    308.49739    -1541.867     508.2241    358.58928     585.1951    37373.809 
  992100    286.63296   -1548.3544    518.84393    264.04869    55.569272    37373.809 
  992200    290.31466   -1525.5891    528.40765    312.99307    668.80064    37373.809 
  992300    292.56384   -1543.2134    516.39326    293.50484    707.58975    37373.809 
  992400    294.78427    -1534.682     516.1321    311.79568    741.80105    37373.809 
  992500    302.78957   -1529.2775    499.89307    337.08868    948.04644    37373.809 
  992600    302.72092   -1527.6846    516.14438    354.62311    427.01959    37373.809 
  992700    299.40392   -1554.2903    514.03548    310.93906    382.30141    37373.809 
  992800    292.62742   -1578.6762    496.52699     238.4627     463.3085    37373.809 
  992900    300.62426   -1566.6745    495.84603    285.87269    523.02634    37373.809 
  993000    299.66607   -1513.5965    514.45326    353.23368    141.05414    37373.809 
  993100    294.49615    -1532.736    519.83567      316.145   -146.24291    37373.809 
  993200    299.19171   -1549.3388    495.58948    296.48687     55.63944    37373.809 
  993300    292.88304   -1568.8906    532.50767    285.38254   -661.56634    37373.809 
  993400     296.1683   -1570.2055    504.60355    270.98971   -235.97249    37373.809 
  993500    307.49787   -1525.3085    525.04442    387.45734    451.59739    37373.809 
  993600    296.97687   -1527.4736     517.6777    330.44474    261.32722    37373.809 
  993700    293.85082    -1523.219    521.45286    324.36684    491.15485    37373.809 
  993800    300.15179   -1558.9267     514.0969     309.7391     632.0592    37373.809 
  993900    299.90065   -1528.0867    516.94222    342.29103   -162.95697    37373.809 
  994000    298.54615   -1497.3609    521.81314    371.77502     37.70069    37373.809 
  994100    288.72098   -1544.0523    514.89056    273.82064   -608.77714    37373.809 
  994200    302.66803   -1505.2096    525.81687    386.53187   -399.80472    37373.809 
  994300     298.1702   -1512.0778    540.33388    373.88218    165.59409    37373.809 
  994400    301.68784   -1486.5682    538.32605    413.25888   -120.46238    37373.809 
  994500    308.72671   -1521.9821    503.95825    375.24327    615.57711    37373.809 
  994600    293.81915   -1481.5091    535.08579    379.56676    734.52872    37373.809 
  994700    310.02118   -1515.7283    539.60989    422.99059    192.87263    37373.809 
  994800    287.68717   -1510.2147    507.23161    295.33374    295.23049    37373.809 
  994900    301.49704   -1541.0586    529.42731    349.00864    239.65716    37373.809 
  995000    300.02438   -1527.4332    519.16182     345.7226   -387.28057    37373.809 
  995100     297.8436   -1533.3236    542.41343      353.242   -145.50817    37373.809 
  995200    309.53334   -1481.0958    529.68463     445.4962    240.82207    37373.809 
  995300    295.32277     -1514.92    519.71594    337.57173   -173.81878    37373.809 
  995400     302.3943   -1487.9719    521.86374    398.58114   -139.45295    37373.809 
  995500    300.92179   -1510.7457    523.87012    371.16836    -122.4806    37373.809 
  995600    301.46784   -1492.7896    492.58448    360.30313    184.18249    37373.809 
  995700    303.08735   -1504.5498    539.75009    403.01733   -458.41332    37373.809 
  995800    296.28583   -1514.9917    515.84736     337.9777   -167.73465    37373.809 
  995900    307.22649   -1565.8665    504.16999    324.80022    188.64184    37373.809 
  996000    308.87017   -1570.5834    520.11112    343.44221   -317.22736    37373.809 
  996100    290.99049    -1562.402    539.17686    289.99929    389.45235    37373.809 
  996200    293.98053   -1564.2609    545.76274    308.22019    147.88587    37373.809 
  996300    293.41979    -1533.435    520.66072    311.41351    235.60624    37373.809 
  996400    300.43266   -1568.4861    483.39278    270.74314    267.33288    37373.809 
  996500    297.58992   -1539.2275    533.59763    337.37748   -77.022869    37373.809 
  996600    299.13679    -1504.081    483.64584    329.55311   -28.869278    37373.809 
  996700     297.0423   -1586.7688    512.24435    266.01153    -415.0316    37373.809 
  996800    300.37563   -1527.8568    502.31919    330.04153   -248.95748    37373.809 
  996900    302.86294   -1544.0171    541.12986    363.91696    191.57286    37373.809 
  997000    293.15226   -1534.4104    520.91535     309.4854    288.36791    37373.809 
  997100    297.22853   -1536.3225    511.36196    316.41589    114.39299    37373.809 
  997200     300.8045   -1536.8343     514.0237    334.70396    815.21716    37373.809 
  997300     303.2463   -1533.4706    524.45332    359.51704    1028.8617    37373.809 
  997400    296.65234   -1521.7512    524.99784    342.02272    476.95891    37373.809 
  997500     302.0272   -1545.4277     507.5096     325.1145     86.12808    37373.809 
  997600    302.51219   -1521.2915    543.67485    387.60468    349.15922    37373.809 
  997700    294.14498   -1520.3289     523.2265    330.35814   -70.947833    37373.809 
  997800    297.86665   -1533.1374    510.99166    322.11054   -54.035195    37373.809 
  997900    299.13763   -1506.6771    504.55126    347.86623   -511.87213    37373.809 
  998000    305.75077   -1520.1376    527.01918    386.71844    185.42888    37373.809 
  998100    289.77277    -1536.904    510.25026    281.07527   -17.509036    37373.809 
  998200    292.71482   -1511.2608    506.84134    316.58686    192.83188    37373.809 
  998300    304.30041    -1527.529    494.67866    340.44106    16.032001    37373.809 
  998400    301.16542   -1499.5951    543.65058    403.19886   -115.83312    37373.809 
  998500    299.87052   -1510.0671    508.63044    351.86296   -430.07433    37373.809 
  998600    301.52133   -1515.6759    504.03454    349.10827   -2.5967122    37373.809 
  998700    296.88973   -1531.4216    525.32487    333.75073   -428.45451    37373.809 
  998800    296.43847    -1498.754    534.83146    373.88836   -2.7212908    37373.809 
  998900    290.27732   -1499.5716    520.59117     331.0256   -65.079763    37373.809 
  999000    300.42675   -1553.7465    508.45466    310.51799    398.58105    37373.809 
  999100     291.4693   -1575.3342    497.46888    237.52003    218.42983    37373.809 
  999200     303.1906   -1535.2816    486.87713     319.8785    62.523065    37373.809 
  999300    298.11001   -1521.7161    538.34535    361.98375    423.68555    37373.809 
  999400    307.67595   -1529.2257    518.51057    377.80996    817.99758    37373.809 
  999500    294.47053   -1584.0311    503.24013    248.13877    918.51993    37373.809 
  999600    298.83738   -1542.9241     519.1774    324.89035    244.23888    37373.809 
  999700    292.72344   -1520.4949    506.60244    307.15273   -163.07274    37373.809 
  999800    306.95065    -1525.269    504.76149    364.74434    47.117646    37373.809 
  999900    294.40524    -1556.555      500.905    272.98502    75.563291    37373.809 
 1000000    301.19045   -1562.3139     480.9507    277.89315   -9.4677379    37373.809 
 1000100    304.48947   -1535.3955    486.07972    324.82892    48.058247    37373.809 
 1000200    296.99656   -1547.0093    523.65839    316.97869     66.40747    37373.809 
 1000300    303.79759   -1521.8288    535.65245    384.84586   -132.41673    37373.809 
 1000400    303.84565    -1505.452    547.83225    413.61939   -70.237433    37373.809 
 1000500    294.68887   -1536.8153    502.78002    295.87982   -422.72308    37373.809 
 1000600     298.2433    -1518.597    503.85553    331.21454   -81.810505    37373.809 
 1000700    300.31523    -1551.607    495.70101    299.40051    62.342853    37373.809 
 1000800    291.89633   -1513.5887    542.64428    346.36808    122.57799    37373.809 
 1000900    299.62244   -1546.0655    527.30567    333.42019    712.33387    37373.809 
 1001000    299.06502    -1558.831    514.74828    305.58175    50.304491    37373.809 
 1001100    308.14804   -1515.4882    510.70715    385.87458     85.97174    37373.809 
 1001200    295.59984   -1538.6272    530.97651    326.37557    443.70255    37373.809 
 1001300    305.21575   -1547.6262     525.0688    354.86488    350.62359    37373.809 
 1001400    295.96072   -1558.8722    524.15459    300.93731    184.61526    37373.809 
 1001500     309.2237   -1487.6202    547.24384    455.13364    146.39582    37373.809 
 1001600    293.12615   -1483.4267    533.14156    372.57746   -86.565067    37373.809 
 1001700    299.42143   -1460.9839    517.12188    407.41089   -375.94227    37373.809 
 1001800     292.6501    -1524.167    517.05725    313.60445   -670.17612    37373.809 
 1001900    297.05827   -1545.4898    516.41333    311.53159    45.517126    37373.809 
 1002000    297.11155   -1533.6132     539.2916    346.52692   -281.03797    37373.809 
 1002100     301.2247   -1529.4485    491.69374    321.65614   -91.949413    37373.809 
 1002200    299.03134   -1474.1357    521.01309    396.38976    64.526835    37373.809 
 1002300    292.73285   -1543.4045    518.86764    296.55078   -498.29708    37373.809 
 1002400    305.49233   -1509.3871    525.76252    395.04596   -190.01808    37373.809 
 1002500    304.56278   -1517.1697     524.9772    382.28302   -370.92689    37373.809 
 1002600    292.98051   -1571.0581    498.72757    249.87481   -549.94484    37373.809 
 1002700    310.44334   -1545.0532    496.92423    352.88518   -164.92559    37373.809 
 1002800    297.01658    -1482.539    524.73535    382.61621   -984.87908    37373.809 
 1002900    306.39315   -1465.7662    528.31454    445.28424   -651.95662    37373.809 
 1003000    294.26606   -1480.8933    526.28578    373.39941   -528.88704    37373.809 
 1003100    295.94605   -1469.9892    558.36258    423.96206   -1002.6319    37373.809 
 1003200    302.93849   -1534.7609    509.89573    342.27997   -454.66712    37373.809 
 1003300    301.83348   -1527.5524    546.97064    381.57655   -500.64909    37373.809 
 1003400    292.38787   -1573.0074    531.96383     278.4872   -301.76118    37373.809 
 1003500    299.94562   -1507.8831    518.21239    363.96781   -82.004951    37373.809 
 1003600    303.81152   -1511.9928     502.7329    361.82517   -72.824746    37373.809 
 1003700    302.50955   -1493.6683    524.50269    396.04378     -22.8324    37373.809 
 1003800    306.52922   -1502.3678    501.83913    382.82127    125.01843    37373.809 
 1003900    307.62348   -1497.1879    540.08261    431.18294    719.42798    37373.809 
 1004000    295.44695   -1484.3629    513.55458    362.52793    560.03243    37373.809 
 1004100    301.07254   -1522.3634    511.92962    348.29048    536.27268    37373.809 
 1004200    299.98226   -1497.5297    561.44284    417.71696    551.04823    37373.809 
 1004300     295.1167    -1532.826    504.59973    303.61957    500.80265    37373.809 
 1004400    305.77655   -1500.6976     504.9623    384.21786   -4.5909506    37373.809 
 1004500    305.02852   -1451.9433    537.05867    461.69273    -27.08579    37373.809 
 1004600    297.06762   -1494.8345    529.95432    375.77006   -282.03047    37373.809 
 1004700    300.40696   -1515.6212    518.07839    358.17775   -571.97477    37373.809 
 1004800    297.31526   -1479.8013    520.85204    382.81854   -761.89929    37373.809 
 1004900    304.77874     -1489.58    518.22227    404.09237    -347.9126    37373.809 
 1005000    302.66079   -1497.9182    515.71419    383.68793   -506.15809    37373.809 
 1005100    299.31276   -1502.1957    496.20613    344.79287   -684.09913    37373.809 
 1005155    303.54408    -1479.936    522.81475     412.7569   -639.28614    37373.809 
Loop time of 599.562 on 32 procs for 1000000 steps with 1515 atoms

Performance: 144.105 ns/day, 0.167 hours/ns, 1667.885 timesteps/s
100.0% CPU use with 32 MPI tasks x no OpenMP threads

MPI task timing breakdown:
Section |  min time  |  avg time  |  max time  |%varavg| %total
---------------------------------------------------------------
Pair    | 236.35     | 275.64     | 305.02     |  97.7 | 45.97
Bond    | 1.464      | 1.5965     | 1.7815     |   6.4 |  0.27
Neigh   | 38.708     | 38.823     | 38.924     |   1.4 |  6.48
Comm    | 241.15     | 270.68     | 310.07     |  99.1 | 45.15
Output  | 0.39033    | 0.40773    | 0.83333    |  12.0 |  0.07
Modify  | 9.0194     | 9.3064     | 9.4959     |   4.2 |  1.55
Other   |            | 3.111      |            |       |  0.52

Nlocal:        47.3438 ave          73 max          23 min
Histogram: 4 2 2 4 5 2 5 3 2 3
Nghost:        1944.38 ave        2041 max        1874 min
Histogram: 3 4 6 3 2 3 6 4 0 1
Neighs:        5198.81 ave       10590 max        2179 min
Histogram: 5 4 7 4 1 4 5 1 0 1

Total # of neighbors = 166362
Ave neighs/atom = 109.80990
Ave special neighs/atom = 2.0369637
Neighbor list builds = 49530
Dangerous builds = 0

# Output the system volume
variable v equal vol
print 'The system volume is $v'
The system volume is 37373.8087200066

# Outputs
variable A equal xhi-xlo
variable B equal yhi-ylo
variable C equal zhi-zlo
variable D equal xy
variable E equal xz
variable F equal yz
print 'Lattice vectors'
Lattice vectors
print '$A 0 0'
33.4340601548579 0 0
print '$D $B 0'
0 33.4340601548579 0
print '$E $F $C'
0 0 33.4340601548579
Total wall time: 0:10:04
