LAMMPS (29 Sep 2021 - Update 1)
# Test LAMMPS input file for single DeFDe

# Initialize simulation

clear

units real
atom_style full
boundary p p p
dielectric 1
special_bonds dreiding

bond_style harmonic
angle_style harmonic
dihedral_style harmonic
improper_style umbrella
pair_style hybrid/overlay hbond/dreiding/lj 4 9.0 11.0 90 lj/cut 8.50000

# Read data file
read_data frag5.dat
Reading data file ...
  triclinic box = (0.0000000 0.0000000 0.0000000) to (15.000000 15.000000 15.000000) with tilt (0.0000000 0.0000000 0.0000000)
  2 by 4 by 4 MPI processor grid
  reading atoms ...
  1518 atoms
  scanning bonds ...
  4 = max bonds/atom
  scanning angles ...
  6 = max angles/atom
  scanning dihedrals ...
  18 = max dihedrals/atom
  scanning impropers ...
  1 = max impropers/atom
  reading bonds ...
  1017 bonds
  reading angles ...
  530 angles
  reading dihedrals ...
  37 dihedrals
  reading impropers ...
  2 impropers
Finding 1-2 1-3 1-4 neighbors ...
  special bond factors lj:    0        0        1       
  special bond factors coul:  0        0        1       
     4 = max # of 1-2 neighbors
     6 = max # of 1-3 neighbors
    10 = max # of special neighbors
  special bonds CPU = 0.002 seconds
  read_data CPU = 0.017 seconds

# Dreiding potential information

bond_coeff 1 350 1.53
bond_coeff 2 350 1.09
bond_coeff 3 700 1.275
bond_coeff 4 350 1.375
bond_coeff 5 350 0.935
bond_coeff 6 700 1.22
bond_coeff 7 350 0.99
bond_coeff 8 350 0.98

angle_coeff 1 50 109.471
angle_coeff 2 50 120
angle_coeff 3 50 120
angle_coeff 4 50 104.51

dihedral_coeff 1 0.111111111111111 -1 3
dihedral_coeff 2 5.625 -1 2
dihedral_coeff 3 0.0833333333333333 -1 6

improper_coeff 1 40 0

pair_coeff 1 1 lj/cut 0.0951 3.8983
pair_coeff 1 2 lj/cut 0.0857947550844456 3.77835472527395
pair_coeff 1 3 lj/cut 0.0951 3.8983
pair_coeff 1 4 lj/cut 0.0953995283007206 3.64309650983885
pair_coeff 1 5 lj/cut 0.0380199947396104 3.52917391183829
pair_coeff 1 6 lj/cut 0.00308382878902186 3.52806914614779
pair_coeff 1 7 lj/cut 0.0953995283007206 3.64309650983885
pair_coeff 2 2 lj/cut 0.0774 3.6621
pair_coeff 2 3 lj/cut 0.0857947550844456 3.77835472527395
pair_coeff 2 4 lj/cut 0.0860649754545948 3.53100349192691
pair_coeff 2 5 lj/cut 0.0342998542270955 3.42058613398347
pair_coeff 2 6 lj/cut 0.00278208554864871 3.41951536039831
pair_coeff 2 7 lj/cut 0.0860649754545948 3.53100349192691
pair_coeff 3 3 lj/cut 0.0951 3.8983
pair_coeff 3 4 lj/cut 0.0953995283007206 3.64309650983885
pair_coeff 3 5 lj/cut 0.0380199947396104 3.52917391183829
pair_coeff 3 6 lj/cut 0.00308382878902186 3.52806914614779
pair_coeff 3 7 lj/cut 0.0953995283007206 3.64309650983885
pair_coeff 4 4 lj/cut 0.0957 3.4046
pair_coeff 4 5 lj/cut 0.0381397430510485 3.29813538230316
pair_coeff 4 6 lj/cut 0.0030935416596516 3.29710294046152
pair_coeff 4 7 lj/cut 0.0957 3.4046
pair_coeff 5 5 lj/cut 0.0152 3.195
pair_coeff 5 6 lj/cut 0.0012328828005938 3.19399984345648
pair_coeff 5 7 lj/cut 0.0381397430510485 3.29813538230316
pair_coeff 6 6 lj/cut 1e-04 3.193
pair_coeff 6 7 lj/cut 0.0030935416596516 3.29710294046152
pair_coeff 7 7 lj/cut 0.0957 3.4046
pair_coeff 2 2 hbond/dreiding/lj 6 j 9.50 2.75 4 9.0 11.0 90
pair_coeff 2 4 hbond/dreiding/lj 6 i 9.50 2.75 4 9.0 11.0 90
pair_coeff 2 7 hbond/dreiding/lj 6 i 9.50 2.75 4 9.0 11.0 90
pair_coeff 2 7 hbond/dreiding/lj 6 j 9.50 2.75 4 9.0 11.0 90
pair_coeff 4 7 hbond/dreiding/lj 6 j 9.50 2.75 4 9.0 11.0 90
pair_coeff 7 7 hbond/dreiding/lj 6 j 9.50 2.75 4 9.0 11.0 90

neighbor 2 bin
neigh_modify every 2 one 10000

# Gemoetric relaxation
fix 1 all box/relax iso 1.0 vmax 0.001
minimize 1.0e-4 1.0e-6 10000 10000
WARNING: Using 'neigh_modify every 1 delay 0 check yes' setting during minimization (../min.cpp:188)
Neighbor list info ...
  update every 1 steps, delay 0 steps, check yes
  max neighbors/atom: 10000, page size: 100000
  master list distance cutoff = 13
  ghost atom cutoff = 13
  binsize = 6.5, bins = 3 3 3
  3 neighbor lists, perpetual/occasional/extra = 3 0 0
  (1) pair hbond/dreiding/lj, perpetual, skip from (3)
      attributes: full, newton on
      pair build: skip
      stencil: none
      bin: none
  (2) pair lj/cut, perpetual, half/full from (3)
      attributes: half, newton on
      pair build: halffull/newton
      stencil: none
      bin: none
  (3) neighbor class addition, perpetual
      attributes: full, newton on
      pair build: full/bin
      stencil: full/bin/3d
      bin: standard
Per MPI rank memory allocation (min/avg/max) = 17.28 | 17.62 | 18.13 Mbytes
Step Temp E_pair E_mol TotEng Press Volume 
       0            0 4.7758132e+16    216.31524 4.7758132e+16 3.8811253e+18         3375 
    5343            0   -1015.2714    38.350505   -976.92086    103.46066    36341.856 
Loop time of 5.02581 on 32 procs for 5343 steps with 1518 atoms

100.0% CPU use with 32 MPI tasks x no OpenMP threads

Minimization stats:
  Stopping criterion = energy tolerance
  Energy initial, next-to-last, final = 
    4.77581323179083e+16  -976.363520524608   -976.44007056343
  Force two-norm initial, final = 6.2151996e+18 103.83685
  Force max component initial, final = 4.1488287e+18 73.776314
  Final line search alpha, max atom move = 1.4163953e-05 0.0010449642
  Iterations, force evaluations = 5343 5344

MPI task timing breakdown:
Section |  min time  |  avg time  |  max time  |%varavg| %total
---------------------------------------------------------------
Pair    | 1.0378     | 2.6119     | 4.2619     |  44.0 | 51.97
Bond    | 0.0055177  | 0.01148    | 0.030508   |   3.9 |  0.23
Neigh   | 0.10067    | 0.10107    | 0.10143    |   0.1 |  2.01
Comm    | 0.29935    | 1.9477     | 3.5225     |  51.0 | 38.75
Output  | 0          | 0          | 0          |   0.0 |  0.00
Modify  | 0          | 0          | 0          |   0.0 |  0.00
Other   |            | 0.3536     |            |       |  7.04

Nlocal:        47.4375 ave          76 max          25 min
Histogram: 1 2 6 7 3 8 1 2 1 1
Nghost:        2010.06 ave        2061 max        1952 min
Histogram: 3 2 4 6 1 2 1 3 6 4
Neighs:        5104.91 ave        8851 max        2485 min
Histogram: 2 1 8 7 4 5 0 4 0 1

Total # of neighbors = 163357
Ave neighs/atom = 107.61331
Ave special neighs/atom = 2.0382082
Neighbor list builds = 91
Dangerous builds = 0

# MD simulation
velocity all create 300.0 12345 rot yes dist gaussian
timestep 1.0
fix 2 all nvt temp 300.0 300.0 1

# Compute interaction energy
group WAT molecule <> 2 501
1500 atoms in group WAT
group MOL molecule 1
18 atoms in group MOL

compute w WAT group/group MOL pair yes
fix 3 all ave/time 10 5 100 c_w file outa

# Outputs
thermo 100 # Output thermodynamic data every nth step
#dump mf1 all xyz 10000 mol_*.xyz

# Run
run 1000000
Neighbor list info ...
  update every 2 steps, delay 10 steps, check yes
  max neighbors/atom: 10000, page size: 100000
  master list distance cutoff = 13
  ghost atom cutoff = 13
  binsize = 6.5, bins = 6 6 6
  4 neighbor lists, perpetual/occasional/extra = 3 1 0
  (1) pair hbond/dreiding/lj, perpetual, skip from (4)
      attributes: full, newton on
      pair build: skip
      stencil: none
      bin: none
  (2) pair lj/cut, perpetual, half/full from (4)
      attributes: half, newton on
      pair build: halffull/newton
      stencil: none
      bin: none
  (3) compute group/group, occasional, copy from (2)
      attributes: half, newton on
      pair build: copy
      stencil: none
      bin: none
  (4) neighbor class addition, perpetual
      attributes: full, newton on
      pair build: full/bin
      stencil: full/bin/3d
      bin: standard
Per MPI rank memory allocation (min/avg/max) = 16.13 | 16.19 | 16.60 Mbytes
Step Temp E_pair E_mol TotEng Press Volume 
    5343          300   -1015.2714    38.350505     379.6458    1809.8058    36341.856 
    5400    295.73949   -1047.3071     234.7814    524.77542    1655.7567    36341.856 
    5500    304.59013   -1106.1366    209.12023    480.30633    925.35548    36341.856 
    5600    302.16599   -1134.9158    172.77898    404.22425    1338.7903    36341.856 
    5700     297.2696   -1118.0575     187.7357    413.89834    664.62247    36341.856 
    5800     306.4562   -1131.4213    190.85832    445.19793     415.8133    36341.856 
    5900     295.9088   -1115.4453     195.5003    418.12174    697.80545    36341.856 
    6000    296.63565   -1142.3682    198.54414    397.52937    161.93478    36341.856 
    6100    301.49945    -1151.682    194.34921    406.01418    464.67418    36341.856 
    6200    308.55577   -1094.8079    208.04576    508.49275    473.55396    36341.856 
    6300      305.848   -1163.5787    204.02133    423.45328     216.2968    36341.856 
    6400    306.43425    -1135.028    198.56068    449.19433    684.37662    36341.856 
    6500     305.1505   -1122.7342    201.44558    458.56805    598.40739    36341.856 
    6600    312.87989   -1125.4405    214.30862    503.67622    722.16106    36341.856 
    6700    300.27886    -1128.481    213.05746    442.40412    233.36663    36341.856 
    6800     308.0102   -1180.7537    214.81005    426.84425    423.74438    36341.856 
    6900    306.86154   -1120.6886    207.80798    474.71312    312.22509    36341.856 
    7000    297.64351   -1149.6779    219.96606    416.19903     388.1723    36341.856 
    7100    298.40443    -1141.599    209.29997    417.05263    583.86916    36341.856 
    7200     297.7509   -1171.0809    218.58197     393.8976    235.29085    36341.856 
    7300    302.34683   -1157.1383     220.1993    430.23977    377.83868    36341.856 
    7400     295.0455   -1119.2742    207.25594    422.14467     440.6009    36341.856 
    7500    303.31902   -1154.4465    214.34612    431.47453     482.0987    36341.856 
    7600    296.37141   -1118.1403    222.99989    445.01813    158.36283    36341.856 
    7700    283.75992    -1142.906    211.63588    351.86064    248.04054    36341.856 
    7800    293.56189   -1193.4339    214.87177    348.89214    248.30442    36341.856 
    7900    298.44235   -1169.7766    218.82129    398.56777    368.70249    36341.856 
    8000    310.45772   -1105.2443      216.306    514.91696    475.05066    36341.856 
    8100    300.38146    -1118.459    221.84344    461.67599    472.28112    36341.856 
    8200    303.11658   -1147.8989    227.52575    450.28633    649.00298    36341.856 
    8300     300.2393   -1121.9026       227.76    463.50617    452.08125    36341.856 
    8400    290.07455   -1124.0082    216.75686    404.43357    364.52928    36341.856 
    8500    295.49514   -1123.8104    236.71124    449.09701   -47.507186    36341.856 
    8600    299.70314    -1116.349    230.08523    468.96056    303.66834    36341.856 
    8700     296.7481   -1116.5545    239.91859      465.226    553.74168    36341.856 
    8800    309.70244   -1128.8005    210.08348    481.72301    441.50454    36341.856 
    8900    294.68879   -1162.2827     222.2557    392.52294    676.17883    36341.856 
    9000    305.14896   -1130.2862    247.26419    496.82763    817.35925    36341.856 
    9100    295.71821   -1163.1537    231.53431    405.58546    349.36981    36341.856 
    9200    295.78753   -1172.2121    239.68772    404.99398    386.68645    36341.856 
    9300    303.90224   -1137.0426    237.60916    474.77867    153.11029    36341.856 
    9400    292.09626   -1103.9483    242.23756    459.11612   -184.07513    36341.856 
    9500    294.82001   -1151.1287    237.47636    419.49093    190.78798    36341.856 
    9600    306.32468   -1154.2069    239.23294    470.19224    361.70607    36341.856 
    9700    296.71414   -1189.8819    233.26156      385.088    274.94827    36341.856 
    9800    312.28251   -1137.1652    244.79295    519.73453    127.78324    36341.856 
    9900    307.56582   -1151.7651    248.33103    487.34439    377.49511    36341.856 
   10000    299.98313   -1166.0345     250.8726     441.3285    9.2455065    36341.856 
   10100    289.34078   -1167.0429    250.77668     392.1006    301.03244    36341.856 
   10200    304.18453   -1124.0551    247.70197    499.13552     590.9602    36341.856 
   10300    306.78575   -1120.7778    255.53336    522.00662    355.94958    36341.856 
   10400    300.78241   -1139.2367    250.89324    471.76116    109.96212    36341.856 
   10500    292.60072   -1097.4134    257.41323    483.10774   -203.52706    36341.856 
   10600    304.49693   -1122.4944    255.87127    510.27811    60.149798    36341.856 
   10700    298.37202    -1147.261    267.76157     469.7057    337.32347    36341.856 
   10800    289.99025   -1123.8663     261.9509    449.38827    712.96335    36341.856 
   10900    294.44934   -1104.8956    262.96301    489.53464    448.97771    36341.856 
   11000    300.68617    -1142.932    252.42476    469.16223    27.553996    36341.856 
   11100    301.31414   -1148.0346    244.66083    459.13533    364.99538    36341.856 
   11200     303.7749   -1156.5657    258.07704     475.1477    300.80412    36341.856 
   11300    302.03746    -1119.238    260.86001    507.40183    367.85897    36341.856 
   11400    308.07242   -1192.2724    261.45555    462.25237    55.852143    36341.856 
   11500    300.82697   -1133.9411    254.53416    480.89915    454.11498    36341.856 
   11600    294.17939   -1142.6165    264.74116    452.37119     211.6289    36341.856 
   11700    295.58219   -1135.9762    263.83623    464.44986   -31.801113    36341.856 
   11800    307.13042   -1174.8585    259.57925    473.53037   -32.273441    36341.856 
   11900    304.84703   -1148.0165     273.5281    503.99593   -116.67429    36341.856 
   12000    308.47477    -1155.724    279.74575    518.91042   -197.58831    36341.856 
   12100    303.01863   -1155.8028     285.7666    500.18031    73.376454    36341.856 
   12200    311.38704   -1150.7261    256.12183    513.45331    126.13988    36341.856 
   12300    308.94092   -1176.9664     283.8872    503.91725   -183.08652    36341.856 
   12400    306.37192   -1151.7365    266.69824    500.34153    516.01595    36341.856 
   12500    295.66859   -1199.4422    275.67199     413.2103      85.0988    36341.856 
   12600    296.59165   -1176.5378    292.34823    456.96489    638.23539    36341.856 
   12700    289.87416   -1242.7455    271.58731    339.62054    243.25148    36341.856 
   12800    300.98807   -1165.9722    283.10011    478.16252      578.942    36341.856 
   12900    296.12611   -1199.7604    281.84595     421.1349    553.68037    36341.856 
   13000    300.79668   -1166.1497    284.10864    478.12804    378.44722    36341.856 
   13100    298.07227   -1201.4874    280.62898    426.99121    482.23638    36341.856 
   13200    291.24458    -1137.946    293.86312     472.8927    547.64506    36341.856 
   13300      299.201   -1183.9782     294.1162    463.09172    327.26001    36341.856 
   13400    303.52099   -1106.8203    287.11783    552.78573    489.46509    36341.856 
   13500    295.86432   -1149.9811    298.82135    486.70579    403.39463    36341.856 
   13600    292.93181   -1145.1333    305.85041    485.32219    395.20339    36341.856 
   13700    295.99487   -1167.3261    292.76573    463.89555    12.551864    36341.856 
   13800    289.99502   -1131.5193    286.30738    466.11328    346.78532    36341.856 
   13900      305.675    -1136.305    289.31962    535.24298   -22.704089    36341.856 
   14000    301.26674   -1113.5483    288.39635    537.14275    695.38867    36341.856 
   14100    295.56071   -1131.3476    293.75637    498.90142    6.8205127    36341.856 
   14200     294.5594   -1163.0197    315.25616    484.20133    369.22615    36341.856 
   14300    303.91197   -1161.5427    287.72348    500.43695    482.22014    36341.856 
   14400    299.24017    -1171.677     289.4665    470.92025    103.16423    36341.856 
   14500    292.70591   -1233.3035    300.47128    390.75138    -347.3041    36341.856 
   14600    292.68504   -1152.5135    296.83775    467.81349    200.32567    36341.856 
   14700    302.84926   -1159.4491    307.35278    517.35431    341.60007    36341.856 
   14800    308.70409   -1153.9058    295.76706    537.78682     171.9397    36341.856 
   14900    302.61446   -1152.6378    300.07699    515.82812   -152.34483    36341.856 
   15000     301.5503   -1175.6328    305.12847    493.07262   -120.61665    36341.856 
   15100    305.98893   -1178.8825    291.01263    495.77801    127.13753    36341.856 
   15200    300.18675    -1173.815    314.43601    498.03212    187.76292    36341.856 
   15300    307.21617   -1196.7014    314.93744    507.43345    221.50431    36341.856 
   15400    306.22594   -1163.7595    303.78345    524.74358    393.00845    36341.856 
   15500    299.10855   -1233.4556     294.4382    413.51816    552.40167    36341.856 
   15600    304.96763   -1241.4094    297.38985    435.01017      241.957    36341.856 
   15700    293.47531    -1226.145    322.04536    422.96314    325.29567    36341.856 
   15800    306.14812   -1226.7045    300.57162    458.23494    523.05432    36341.856 
   15900    301.22893   -1191.6157    317.20041    487.70849    782.92389    36341.856 
   16000    303.16539    -1191.474    324.87339    504.27963    385.19907    36341.856 
   16100    307.17903     -1207.44    291.91073    473.50018    117.44367    36341.856 
   16200    303.52285   -1187.2942    305.38081    490.58317    266.50022    36341.856 
   16300     307.2601   -1209.5679    301.52171    481.34982    242.27578    36341.856 
   16400    300.65861   -1195.0311    310.76786    475.28162    63.744455    36341.856 
   16500    294.19006   -1240.5611    324.92752     414.6612   -303.70332    36341.856 
   16600    289.63057   -1222.3183    321.51893    408.87789    46.717368    36341.856 
   16700    309.24287   -1249.8619    316.34699      464.847   -188.96697    36341.856 
   16800    296.87091   -1232.8265     314.2834    423.87417    545.83906    36341.856 
   16900    288.26127   -1228.0276    324.06259    399.52039   -0.8495535    36341.856 
   17000    293.20846   -1226.7649    317.64351    416.73465    115.10235    36341.856 
   17100    298.82945   -1239.7763    317.57315    429.07042   -82.869329    36341.856 
   17200    296.46652   -1212.5613    309.93654    437.96388    204.53289    36341.856 
   17300    294.73682   -1230.6937    311.96896    414.04247    229.99507    36341.856 
   17400    294.15694   -1198.7867    322.54232    453.90061    330.35247    36341.856 
   17500    291.97661   -1204.9674    322.93947    438.25787     234.3876    36341.856 
   17600    302.53597   -1255.1474    323.45813    436.34475    305.32015    36341.856 
   17700    299.40191   -1236.2272    330.16707    447.80205   -36.508303    36341.856 
   17800    298.54726   -1244.8654     313.9366    419.06876    334.75866    36341.856 
   17900    307.28503   -1241.4808    310.12856     458.1565    177.65131    36341.856 
   18000    298.96945   -1250.6837    333.62955    434.85242    398.39377    36341.856 
   18100    296.14258   -1230.0094    335.13473    444.24917    49.691396    36341.856 
   18200    297.87254   -1214.3542    307.68461    440.27688   -175.40053    36341.856 
   18300    294.70632   -1201.2157    351.80849    483.22198   -368.28992    36341.856 
   18400     298.2454    -1189.045    305.50547    465.09299     60.07817    36341.856 
   18500    292.51296   -1175.2403    333.09656    480.56732   -8.6224348    36341.856 
   18600    294.29928   -1170.3229    344.31745     504.7832    49.733658    36341.856 
   18700    287.14904     -1159.74    347.48983    486.20591   -202.88817    36341.856 
   18800    306.51465   -1212.9132    349.23898    522.35101    388.02307    36341.856 
   18900     297.1049   -1202.2026    315.84502    457.11772     239.3709    36341.856 
   19000    298.35878   -1195.3677    352.72974     506.5073   -170.83167    36341.856 
   19100    295.70713   -1206.3252    328.68626    459.51586    219.97994    36341.856 
   19200    311.05669   -1188.7493    329.55262     547.3671    355.32408    36341.856 
   19300    306.96366   -1197.2423    352.99222    543.80546    810.27521    36341.856 
   19400    301.67554   -1213.6118    337.96095    488.49242    1001.7521    36341.856 
   19500    292.09221    -1195.771    339.95786    464.99535    570.89538    36341.856 
   19600    300.01647   -1179.8932    345.05246    521.80036    211.66963    36341.856 
   19700    298.99753   -1193.9054    351.19818    509.32643    45.592897    36341.856 
   19800     292.1342   -1150.9198    350.27632    520.35489    131.14228    36341.856 
   19900    301.90572   -1208.3704    341.42699    498.24067    115.85169    36341.856 
   20000     299.9424   -1178.2814    346.21642    524.24124    525.00661    36341.856 
   20100    297.66655    -1193.239    348.55432    501.33038    351.28658    36341.856 
   20200    317.18313   -1176.9204    366.05977    623.40621    138.47611    36341.856 
   20300    297.87895   -1202.6783    338.18257    482.47982    486.30189    36341.856 
   20400    308.16107   -1210.6904    326.07075    508.85042    368.81891    36341.856 
   20500    305.80067   -1247.1111     349.4906    485.17616    212.45549    36341.856 
   20600    303.89732   -1261.6367    357.08664    469.63986    571.46477    36341.856 
   20700     296.2039   -1262.4122    322.17988    399.16879    439.85266    36341.856 
   20800    307.51812   -1283.3924    352.65239     459.8227    635.57314    36341.856 
   20900    307.80609   -1228.8009     339.3872     502.4512    689.44925    36341.856 
   21000    302.55021   -1248.8701    354.04656    473.27492    1294.7047    36341.856 
   21100    301.33682   -1249.6965    353.31237    466.22752    1034.0853    36341.856 
   21200    313.88188    -1248.668    349.54909    520.22004    485.31402    36341.856 
   21300    296.44231   -1227.1287    347.13651    460.48695     432.4234    36341.856 
   21400    305.26341   -1258.1037      342.365    464.62852    219.58186    36341.856 
   21500    302.12703   -1247.9468    330.09742    448.33551    384.58825    36341.856 
   21600    298.79638   -1267.1746     341.6364    425.58583   -53.090622    36341.856 
   21700    307.52857   -1253.2837    340.90849    478.23478   -263.37412    36341.856 
   21800    315.40151   -1236.3933    345.67554     535.4928   -49.730958    36341.856 
   21900    296.93902   -1257.7733    345.89544    430.84738    230.59794    36341.856 
   22000    295.18851   -1288.7397    358.44583    404.51577    106.88084    36341.856 
   22100     309.2522   -1283.0533    348.25499    463.60572    375.68373    36341.856 
   22200    292.79637   -1273.1229    362.39797    413.26771    70.958386    36341.856 
   22300    296.78562   -1268.2276    341.41297    415.21698    27.010684    36341.856 
   22400    300.83653    -1262.602    344.41683    442.16416    -108.3572    36341.856 
   22500    304.18685   -1235.2397    355.95489     496.2143   -99.015047    36341.856 
   22600    293.64985    -1258.585    342.39074    411.65771   -68.315061    36341.856 
   22700    303.18696   -1274.8665    346.51921    442.63038    212.74567    36341.856 
   22800    304.84447    -1278.277    355.91984    456.11563   -49.334564    36341.856 
   22900    298.48201   -1264.1151    351.65474    437.24211    64.414397    36341.856 
   23000    299.59576   -1251.1551    349.79295    453.37658    97.618434    36341.856 
   23100    298.31972   -1243.1172    350.90831    456.75978   -67.193232    36341.856 
   23200    296.90241   -1261.7294    334.34457    415.17488    234.98682    36341.856 
   23300    303.12929   -1242.3022    355.33651    483.75126     497.0721    36341.856 
   23400     301.4131   -1217.6259    358.21329    503.54389    366.47776    36341.856 
   23500     301.2938   -1263.6753    367.96846    466.71028    295.47718    36341.856 
   23600    295.81396   -1268.0524    356.54328    426.12872    100.74003    36341.856 
   23700     300.4341    -1278.518    351.13287    431.14445    95.746422    36341.856 
   23800    291.75342   -1269.9971    354.20615    403.48564     280.7961    36341.856 
   23900    303.05436   -1224.0268    353.28337    499.63467    73.077527    36341.856 
   24000     297.5391   -1291.5301    354.55278    408.46138    344.50723    36341.856 
   24100    300.23799    -1280.305    366.20445    443.54226    404.68777    36341.856 
   24200    287.21422   -1274.7505     359.0449    383.04514    44.280611    36341.856 
   24300    305.28948     -1267.46    343.70693    456.73202    270.15446    36341.856 
   24400    295.57938   -1289.5973    367.20358    414.18336   -136.09656    36341.856 
   24500    306.22466    -1272.096    359.60288     472.2208    194.83202    36341.856 
   24600    302.76401    -1304.503    360.88162    425.44386    54.118805    36341.856 
   24700    295.31828   -1257.9327    369.22342     446.6872    241.51206    36341.856 
   24800    310.10838   -1284.5377    374.07427    491.81223    468.87793    36341.856 
   24900    294.93613   -1264.3676    375.99331    445.29404    462.54949    36341.856 
   25000    304.01339   -1259.9668    360.26433     475.0123    887.15012    36341.856 
   25100    288.61061   -1315.7606     365.7421    355.04663    674.86642    36341.856 
   25200    294.95011   -1306.4576    368.10104     395.3751    463.41441    36341.856 
   25300    315.84158   -1256.1215    379.85657     551.9356   -135.17922    36341.856 
   25400     302.8388   -1262.6505    380.55401    487.30689    -520.9892    36341.856 
   25500    304.03916   -1262.8145    363.98367     476.0005   -317.35322    36341.856 
   25600    299.57728   -1244.6306    357.76955    467.79415   -501.04722    36341.856 
   25700    299.84392    -1255.328    349.28244    449.81528    271.99695    36341.856 
   25800    294.86469   -1259.2497    377.68919    451.78487   -255.12514    36341.856 
   25900    292.23878    -1245.184    382.12955    458.41683   -151.14513    36341.856 
   26000    291.64088   -1244.3053    389.32364    463.78599   -32.799768    36341.856 
   26100    297.17248   -1267.9953    361.10286    436.88845    419.09977    36341.856 
   26200    303.21854   -1249.6767    372.38602    493.82986    519.08895    36341.856 
   26300    305.22423   -1265.8627    378.86355    493.19091    366.73198    36341.856 
   26400    299.01153   -1259.8351    378.30332    470.56514    403.42321    36341.856 
   26500    297.37914    -1259.666    371.71213    456.76155    132.87605    36341.856 
   26600    296.88543   -1243.9239    375.83983    474.39887    418.17903    36341.856 
   26700    310.43723   -1256.2831    369.21302     516.6926    -6.525491    36341.856 
   26800    307.73326   -1301.1609    373.23707    463.61175    241.70811    36341.856 
   26900    301.52004   -1291.8593    378.12475    449.70555    432.01424    36341.856 
   27000    301.08806   -1258.3112    365.04578    468.22127    9.0209939    36341.856 
   27100    307.47039   -1238.6866     372.2242    523.88454    378.90274    36341.856 
   27200    301.91666   -1258.9903    385.85985    492.10317    637.79169    36341.856 
   27300    301.39337    -1212.358    384.74715    535.25647    825.27676    36341.856 
   27400    298.27872   -1276.4043     371.1606    443.53948     629.2053    36341.856 
   27500    294.88982   -1258.0425    369.99339    445.40993     261.1532    36341.856 
   27600    300.05224   -1242.5158     371.9559    486.24293    31.505171    36341.856 
   27700    295.64074   -1273.8039    371.89544    434.94614    187.19024    36341.856 
   27800    309.86427   -1226.1938     381.6726    556.65063    200.93096    36341.856 
   27900    299.75354    -1296.226    344.56237    403.78856   -148.33091    36341.856 
   28000    305.68088   -1280.8804    381.49453    482.86912    106.01271    36341.856 
   28100    301.13557   -1269.1772    375.08911    467.61353   -31.359235    36341.856 
   28200    299.94492   -1284.8043     367.0738    438.58706    1.0912143    36341.856 
   28300    287.90147   -1253.0735    372.05432    420.83927   -665.38974    36341.856 
   28400    290.14317   -1280.1639    360.81458    392.64586   -574.15404    36341.856 
   28500    300.45943   -1251.6914    365.97324    472.92599   -60.140969    36341.856 
   28600    302.56159   -1337.8354    361.70162    392.01613    -187.2548    36341.856 
   28700    309.56355   -1322.7978    365.52401    442.53813   -191.12589    36341.856 
   28800    309.42758   -1324.1141    368.36736    443.45039   -416.57252    36341.856 
   28900    306.78029   -1292.6374    359.59862     454.1876   -101.41315    36341.856 
   29000    294.36797   -1315.5261     383.4971    399.07026   -102.73914    36341.856 
   29100    308.73928    -1306.829    372.24079    461.49648   -43.817958    36341.856 
   29200    292.77886   -1317.8059    386.27429    392.38188    41.128543    36341.856 
   29300    301.03768   -1328.4879    344.38263    377.15369     176.5284    36341.856 
   29400    300.44032   -1339.7733    377.22016    396.00457    519.63801    36341.856 
   29500    297.16342   -1334.0323    374.57016    384.27778    908.23588    36341.856 
   29600    307.12848   -1317.5314    362.35373    433.62313    762.97702    36341.856 
   29700    307.31724   -1318.0369    368.16023    439.77773    362.43793    36341.856 
   29800    295.59565   -1292.8578    374.09053    417.88343    41.366554    36341.856 
   29900    307.30491   -1275.7625     363.8335    477.66965    256.56463    36341.856 
   30000     294.3695   -1289.8565      367.656    408.90567    96.863328    36341.856 
   30100    302.57203   -1272.5101    385.60127    481.28831   -245.53255    36341.856 
   30200    295.04924   -1285.6797    376.96205    425.46227    139.51828    36341.856 
   30300    303.09772   -1309.0479     385.7657    447.29204    128.40394    36341.856 
   30400    302.66787   -1294.2276    371.79224    446.19513    4.1281547    36341.856 
   30500    304.41373   -1301.3695    361.80559    436.96108    128.42454    36341.856 
   30600    302.63114   -1234.2641    392.10226    526.30253    470.38981    36341.856 
   30700    303.34178   -1341.6091    366.54289    396.61161    340.45441    36341.856 
   30800    300.22801   -1329.3046    377.89677    406.18987   -106.75078    36341.856 
   30900    293.95658   -1321.1272    379.47957    387.59136    171.32657    36341.856 
   31000    297.86137   -1304.0433    397.20505    440.05777   -201.52659    36341.856 
   31100    306.48957    -1297.563     381.6954    470.04419   -248.12274    36341.856 
   31200    301.36231   -1288.6511    374.69067    448.76641   -42.655156    36341.856 
   31300    295.71506   -1253.4702    370.59274    454.31319   -215.86293    36341.856 
   31400    304.37421   -1340.9665    377.90436    413.28422    -527.6404    36341.856 
   31500    303.96704   -1294.0266    383.16636    463.64499    278.33405    36341.856 
   31600     305.5853   -1347.5098    368.29027     402.6032    53.782906    36341.856 
   31700    309.80344   -1308.0013    362.53468    455.43013   -90.390215    36341.856 
   31800    303.20021   -1317.0766    376.73037    430.69144     106.9668    36341.856 
   31900    301.06613   -1326.7726    389.98598    424.60098    364.47923    36341.856 
   32000    306.58467   -1327.2257    376.54543    435.66151    527.57985    36341.856 
   32100    293.08844   -1279.5026    375.38932     421.2001    506.81975    36341.856 
   32200    297.56234   -1278.8546    389.93119    456.62038    129.40116    36341.856 
   32300    308.55561     -1294.85    398.64764    499.05174    149.75269    36341.856 
   32400    296.38654   -1305.0419    400.06076    435.24581   -329.61749    36341.856 
   32500    295.24097   -1276.5627    387.45923     445.9434   -56.661633    36341.856 
   32600    292.90499   -1282.6544    383.48157    425.31096   -492.41484    36341.856 
   32700    296.81296   -1304.8145     404.0902    441.43085   -1.2470121    36341.856 
   32800    302.11204   -1331.4489     373.7187    408.38686    80.981948    36341.856 
   32900    298.39833   -1267.3786    388.61472    470.56017    456.21302    36341.856 
   33000    298.42286   -1322.3971    391.73279    418.77066    287.69668    36341.856 
   33100    313.06214   -1250.1533    392.17123    557.65018    637.32707    36341.856 
   33200    299.26885   -1246.5552    384.85473    491.55998    739.01251    36341.856 
   33300    300.54264   -1293.1286    393.53844    459.43026    452.74473    36341.856 
   33400    289.32587   -1250.6906    421.58924    479.19802    392.49255    36341.856 
   33500    289.13549   -1281.7949    391.31985    416.96351    254.32207    36341.856 
   33600    304.85261   -1316.8871    409.13665    470.75922    505.51227    36341.856 
   33700    289.87576   -1293.0972    377.28993    394.97873    378.65236    36341.856 
   33800    290.77454   -1297.3681    392.04855    409.53067    684.38224    36341.856 
   33900    293.95179   -1273.0708    402.58896    458.73551    141.31327    36341.856 
   34000    301.66456   -1280.6381    399.13195    482.58744    31.648023    36341.856 
   34100    306.71507   -1228.5556    403.75592    562.13179     2.944324    36341.856 
   34200    304.81235   -1271.9926    413.48941    519.82441    304.74492    36341.856 
   34300    299.58168   -1314.4517    384.05908     424.2824    75.421289    36341.856 
   34400    297.52222   -1312.1176    377.39081    410.63565    -51.68465    36341.856 
   34500    300.58816   -1322.0118    404.38449    441.59894    396.24691    36341.856 
   34600    305.21342   -1326.1728    387.62176    441.59012      192.538    36341.856 
   34700    311.79759   -1326.1277    370.26583     454.0522    -20.44641    36341.856 
   34800    294.05133   -1307.7866    391.50291     413.3838    19.623447    36341.856 
   34900    300.91839   -1281.4314    391.70284    470.99101    269.86524    36341.856 
   35000     305.1252   -1274.9776     407.7754    512.54002    239.97321    36341.856 
   35100    286.57236   -1318.6157     423.8213    401.05397    184.68761    36341.856 
   35200    303.98098   -1296.3925     392.1491    470.32479    45.761257    36341.856 
   35300    297.41372   -1330.2207    386.84095    401.49203   -424.81355    36341.856 
   35400    306.86823   -1328.1905     409.0425    468.47598   -415.68296    36341.856 
   35500    303.73496   -1345.3817    399.80949    427.88351      442.428    36341.856 
   35600    304.79582    -1324.669    405.02328    458.60709    340.58117    36341.856 
   35700    309.39882   -1315.6178     404.8798    488.32903     116.5523    36341.856 
   35800    298.15339   -1311.6288    411.31693    447.90463    406.40195    36341.856 
   35900    302.81154   -1316.8513    409.50075    461.92953     337.8423    36341.856 
   36000    309.45352   -1295.4028    400.92142    504.83301    123.50725    36341.856 
   36100    297.37814   -1275.2644    395.69742    465.14391    99.170408    36341.856 
   36200     290.9538   -1310.3519    400.38046    405.68929   -36.126337    36341.856 
   36300    294.20706   -1314.0552    410.54063    426.85702    127.88925    36341.856 
   36400    298.25743   -1323.1332     384.5301     410.0839    32.261185    36341.856 
   36500    311.83505   -1339.4866    389.13232    459.72915  -0.82104002    36341.856 
   36600    305.19566   -1301.4834    403.95762    482.53507    243.97457    36341.856 
   36700    295.72103   -1313.8546    403.74065    427.10364   -139.17609    36341.856 
   36800    298.59753   -1299.0012    394.07856    445.30222   -207.18695    36341.856 
   36900    295.98997   -1300.1559    379.21721    417.49502    -82.92607    36341.856 
   37000    302.82902   -1353.3295    396.65089    412.68055   -148.40028    36341.856 
   37100    287.72333   -1336.7183    410.41076    374.74531   -231.34688    36341.856 
   37200    293.01746    -1327.566    386.51163    383.93802    72.309898    36341.856 
   37300    295.10312   -1340.8295    394.57776    388.17173    200.06832    36341.856 
   37400    295.16415   -1316.5561    377.21448    395.35782    233.19235    36341.856 
   37500    292.11786   -1297.0337    403.85152     427.7423    432.14966    36341.856 
   37600    292.25464   -1326.7534    391.50532    386.29488    165.39847    36341.856 
   37700    298.70298   -1336.3552    378.90755    393.25402    130.28199    36341.856 
   37800    297.75499   -1349.0668    400.95133    398.29947    636.23908    36341.856 
   37900    299.97604    -1334.304    395.06974     417.2241    541.98571    36341.856 
   38000    318.03165   -1311.5463    415.64541    542.20286    448.82287    36341.856 
   38100    309.40056   -1341.0026    405.89714    463.96952    440.38313    36341.856 
   38200    303.39083   -1330.7988    409.39944    450.50031     102.6972    36341.856 
   38300     310.3012    -1274.013    398.52631    527.66081    709.97759    36341.856 
   38400    309.27654   -1305.4476    401.56508    494.63166    571.87668    36341.856 
   38500     297.6274   -1308.8838    401.95977    438.91404    203.50653    36341.856 
   38600    301.92456   -1291.2412    405.16945    479.19752    212.41693    36341.856 
   38700    308.37585   -1338.5669     407.9839    463.85829     88.90002    36341.856 
   38800    307.69318   -1369.9159     405.8381     427.2766    354.49216    36341.856 
   38900    298.16119   -1365.5201    414.89435    397.62601    -214.0648    36341.856 
   39000    298.27882   -1310.5001    432.33319    470.61681   -80.072774    36341.856 
   39100    291.96068    -1307.648    398.88163    411.44742    57.703025    36341.856 
   39200    304.81945    -1316.499    379.35409    441.21477   -170.81976    36341.856 
   39300    299.53331   -1347.9981    391.80138    398.25958    43.241974    36341.856 
   39400    301.62541    -1351.089    385.11058     397.9382    173.59429    36341.856 
   39500    296.75113   -1341.8587    401.91187     401.9288   -79.040893    36341.856 
   39600    300.16417   -1313.2104    415.15232    459.25094    239.12531    36341.856 
   39700    294.62033   -1293.3997    414.48622    453.32696    318.72717    36341.856 
   39800    294.05622   -1359.2147    413.09968     383.5745    143.41603    36341.856 
   39900    308.80024    -1377.512    413.67132    432.51965    341.26487    36341.856 
   40000    297.16594    -1354.999    420.91396    409.66636    368.19784    36341.856 
   40100    292.90928   -1329.2802     404.9311    400.15411    312.43451    36341.856 
   40200    297.46002   -1346.8901    402.46466    400.65566   -22.053198    36341.856 
   40300    292.68734   -1332.3905    381.30395    372.41306    332.24531    36341.856 
   40400    304.67453   -1330.4763    413.10545    460.33349   -354.42098    36341.856 
   40500    294.26436   -1352.0983    403.96852    382.50099   -396.91066    36341.856 
   40600    306.15615   -1335.8655    393.15821    441.69676   -321.26882    36341.856 
   40700    300.40634   -1326.7951    393.11814    424.72706   -68.590508    36341.856 
   40800    288.85869   -1335.6456    419.79449    390.33581    -199.0146    36341.856 
   40900    301.18423   -1324.0571    415.37812    453.24265    311.09312    36341.856 
   41000    309.79929   -1290.6245    415.14597    525.39938    214.49429    36341.856 
   41100    293.74066   -1315.6701    412.42235    425.01487   -418.27686    36341.856 
   41200    299.83692   -1365.8284    399.71954    389.72037    200.11146    36341.856 
   41300    308.17252   -1349.2688    398.37083    442.62392   -314.59981    36341.856 
   41400    306.45964    -1305.867    405.67308    485.58247   -543.18248    36341.856 
   41500    300.45645   -1304.9893    417.11244    470.75376    139.68996    36341.856 
   41600    295.50525   -1345.0436    413.93815    405.13642   -178.19556    36341.856 
   41700    298.89304   -1353.6093    413.01925    410.97107    239.62675    36341.856 
   41800    287.26612   -1373.1052    393.80217    319.68241   -185.90295    36341.856 
   41900    299.66279   -1357.0017    398.58928    396.62942    36.269214    36341.856 
   42000    286.90506   -1355.3844    407.21024    349.17862    137.66661    36341.856 
   42100    311.50285   -1341.0042    401.88523    469.46225    43.285258    36341.856 
   42200    296.79704   -1339.6705     414.0577    416.47046   -242.07339    36341.856 
   42300    299.35874   -1325.9478     415.2953    443.01443   -25.620454    36341.856 
   42400    307.67464   -1378.1375    402.94418    416.07723    351.53262    36341.856 
   42500    285.98775   -1381.5791    395.27295     306.8987    -387.0626    36341.856 
   42600    310.55205    -1326.207    405.60927    483.68414    53.026226    36341.856 
   42700    299.67215   -1350.9297    391.52501    395.67947    156.93872    36341.856 
   42800    287.25219   -1329.4119     409.2421    378.75271    322.88329    36341.856 
   42900    302.59976   -1325.1164    418.67382    461.87994    346.34498    36341.856 
   43000    300.89383   -1332.3769     424.8686    453.10017    773.53908    36341.856 
   43100    291.60977   -1334.9207    450.21728    433.92355    752.28304    36341.856 
   43200    302.36591   -1301.4342    406.94579    472.77663    350.52173    36341.856 
   43300    299.33503   -1356.4785    419.70501    416.78621    -300.3886    36341.856 
   43400    310.06406    -1349.121    401.35328    454.30746    527.85756    36341.856 
   43500    309.66558   -1381.0541    430.97745    450.19674    370.97504    36341.856 
   43600    301.21511   -1303.7845     448.8526    507.12938    399.47176    36341.856 
   43700    295.69753   -1376.6886    417.30184     377.7246    48.259197    36341.856 
   43800    296.74946   -1378.3078    413.45199    377.01226   -87.958145    36341.856 
   43900    301.26851    -1312.036    405.19434    455.46102    379.19965    36341.856 
   44000    295.15928    -1354.198    421.71729    402.19672    630.97306    36341.856 
   44100    298.53496   -1345.1437     404.9746    409.77279    425.28519    36341.856 
   44200    303.04141   -1360.7798    429.49693    439.03673    613.10249    36341.856 
   44300    306.06847   -1390.8681    426.60675    419.74629    57.639625    36341.856 
   44400    307.23879    -1351.712    439.26414     476.8518    434.44243    36341.856 
   44500    306.62358   -1368.2448    423.98197    442.25489    683.74461    36341.856 
   44600     300.4819   -1364.3295    445.05358    439.46985    663.69009    36341.856 
   44700    296.84323   -1343.7642     411.1856    409.71349     232.4071    36341.856 
   44800    303.69472   -1372.9277    418.79084    419.13686    498.88447    36341.856 
   44900    308.34554   -1400.9545    412.42776    405.77753    176.70218    36341.856 
   45000    304.50888   -1437.6346    399.80195    339.12265   -175.76088    36341.856 
   45100    286.04982   -1397.8936    419.41018    315.00201   -497.99721    36341.856 
   45200    296.21796   -1373.0971    415.65689    382.02445    52.616391    36341.856 
   45300    304.33248   -1382.9979    400.60644    393.76621   -133.01131    36341.856 
   45400    303.30478    -1385.549    418.46258     404.4241    164.28198    36341.856 
   45500    296.89288   -1329.5456    449.06203    462.03302   -239.02506    36341.856 
   45600    300.56528   -1335.7606    407.90034    431.26251    -306.8495    36341.856 
   45700    293.18286   -1317.8883    418.72353    426.57558    116.56857    36341.856 
   45800    298.11486   -1346.6608    434.90601    436.28751    -51.46178    36341.856 
   45900    305.71026   -1383.6575    414.29449    413.02477    330.78383    36341.856 
   46000    295.07724   -1351.1933    440.48758    423.60079    82.392315    36341.856 
   46100    295.04736   -1376.7162    417.11795    374.57316    87.273528    36341.856 
   46200    299.43176   -1295.1819    415.46649    474.28172   -234.13497    36341.856 
   46300     304.1728   -1289.0229    438.69694    525.10965    -1042.233    36341.856 
   46400    303.77692   -1318.4643    420.58371    475.76487   -311.68358    36341.856 
   46500    302.55629   -1346.8592    434.19903    455.46575   -255.22442    36341.856 
   46600    291.28195   -1360.4018    446.33017    403.07299   -63.066725    36341.856 
   46700    315.96037   -1350.2828    427.90664    506.36151    -753.3673    36341.856 
   46800    300.42715    -1359.278    425.35392    424.57408   -596.48052    36341.856 
   46900    300.71508   -1354.2046    432.15523    437.75078   -211.34682    36341.856 
   47000    308.65525   -1346.6966    434.72835    483.73646   -1221.0978    36341.856 
   47100    286.79042   -1329.6054    437.56706    404.79612   -743.68101    36341.856 
   47200    306.65373   -1355.7424    424.81563    455.72734   -56.860203    36341.856 
   47300    302.51573   -1327.3434    435.69549    476.29459    -29.63376    36341.856 
   47400    298.94233   -1321.8062     441.7817    471.75947    163.40688    36341.856 
   47500    317.37258    -1347.843    421.87172    509.15218     622.2034    36341.856 
   47600    305.01845   -1314.7275    437.41909    501.95106    18.848432    36341.856 
   47700    297.78082   -1352.7855    415.67034    409.41664    177.26672    36341.856 
   47800    312.18432   -1340.9429    447.76168    518.48157    578.97073    36341.856 
   47900    306.23452   -1354.7816    414.73519     444.7121    365.96386    36341.856 
   48000    300.01208   -1331.9582    445.60146     470.2646    183.64649    36341.856 
   48100    295.95228   -1329.6214    424.59747    433.23943    438.48952    36341.856 
   48200    294.35714   -1352.3857    408.48647    387.15109    22.493825    36341.856 
   48300    301.09863   -1361.4448    431.00374    431.09348   -158.79183    36341.856 
   48400    300.53475   -1307.0955    457.64037    509.52964    -120.2577    36341.856 
   48500    313.36153   -1336.6145    426.89018    507.26164   -117.85135    36341.856 
   48600    314.69595   -1377.4609    412.79759    458.35675   -73.428108    36341.856 
   48700    302.71306   -1295.7041    434.98934    508.12008    292.65674    36341.856 
   48800    299.04838    -1372.777    431.17315    410.65973    445.55187    36341.856 
   48900    306.25907   -1340.9357    441.20893    485.14273    551.86433    36341.856 
   49000    311.40585   -1376.1495    419.94893    451.94203   -139.97699    36341.856 
   49100    309.87716   -1371.7862    422.20771    451.65157    479.01393    36341.856 
   49200    309.40109   -1408.8263    425.94892    416.19995    633.97146    36341.856 
   49300    305.43736   -1433.2913    415.80116    363.66366     507.2972    36341.856 
   49400     295.1644   -1396.5476      433.324    371.47697    973.80709    36341.856 
   49500    300.48643   -1400.0404    439.42822    398.15406    751.00058    36341.856 
   49600    291.17518   -1375.6843    444.21978    385.19722    760.27045    36341.856 
   49700    293.28115   -1387.5849    426.58803    365.18789    214.42775    36341.856 
   49800    312.09262   -1390.3172    420.37648    441.30746    546.55821    36341.856 
   49900    310.86851   -1370.2701    425.74481    461.18751    304.67894    36341.856 
   50000    300.92247   -1395.0459    419.07604    384.76809    65.696967    36341.856 
   50100    301.31677   -1408.7805     421.4814    375.22188   -153.90058    36341.856 
   50200    293.98944   -1370.5172    413.21404    372.08444   -615.01048    36341.856 
   50300    302.42474   -1375.9556     423.2786    414.85406    120.45988    36341.856 
   50400    301.00714   -1387.8239    432.69165    405.98863    55.615413    36341.856 
   50500     304.7103   -1344.8713    422.24166    455.23646    44.181175    36341.856 
   50600    297.97257   -1340.2788    443.02073    450.14075    64.877809    36341.856 
   50700    302.53301   -1370.7504    427.75691    425.02716   -192.62264    36341.856 
   50800    302.06846   -1352.9627    428.75553    441.71284    409.59361    36341.856 
   50900    306.52574     -1360.01    422.16448    448.22981    476.34269    36341.856 
   51000    307.65715   -1380.4336    430.13831     440.8962    58.563146    36341.856 
   51100    302.20301   -1364.8162    446.48792    448.20011    680.73373    36341.856 
   51200    294.96341   -1378.5872    416.86851    372.07306    552.82062    36341.856 
   51300    298.84305   -1378.4778    442.56133     415.4186    534.68343    36341.856 
   51400    302.76881   -1375.6013    444.44131    437.92696    56.530398    36341.856 
   51500    301.55755   -1374.6623    452.75281    441.70025    180.92806    36341.856 
   51600    297.58108   -1409.2241    427.89335    364.29786    59.080315    36341.856 
   51700    301.91714   -1401.9852    439.96304     403.2136    418.32555    36341.856 
   51800    308.94988   -1372.1961    446.20513      471.046   -26.556971    36341.856 
   51900    296.21224   -1354.4601    467.05713    452.03583   -37.462597    36341.856 
   52000    297.82639   -1355.0907    455.24736    446.89453    -351.7393    36341.856 
   52100    304.61315   -1350.6754    467.37387    494.12527   -36.616819    36341.856 
   52200    292.88019   -1331.9453    452.04521    444.47158   -184.07579    36341.856 
   52300    295.43978     -1336.81    459.19065    458.32648    50.983342    36341.856 
   52400    295.93024   -1392.0055    446.03116    392.18933    296.12919    36341.856 
   52500    307.44444   -1372.3917    425.12994    442.96789    295.21664    36341.856 
   52600    303.35991   -1344.5951    428.57513     455.7398    458.95727    36341.856 
   52700    301.04526   -1324.7792    458.37082    494.88483    -415.3451    36341.856 
   52800    314.11897   -1323.5755    450.48823    547.32378   -453.26454    36341.856 
   52900    310.59405   -1346.1561    442.83958    501.15524   -654.56306    36341.856 
   53000    296.94438   -1368.7924    444.06854    418.02567   -484.73487    36341.856 
   53100    293.16938   -1357.9126    442.14812     409.9149   -95.019531    36341.856 
   53200     289.0504   -1374.2681    441.50828    374.29394   -241.41432    36341.856 
   53300    305.57847   -1410.3654     425.6956    397.12206   -106.81308    36341.856 
   53400    312.08858   -1375.2282    433.05831    469.05997    285.52236    36341.856 
   53500     306.9676   -1343.7969    452.45932    496.73576   -506.38782    36341.856 
   53600     308.2219   -1347.0187    430.03136    476.75782   -289.14006    36341.856 
   53700    301.09654   -1311.0288    439.11895    489.61524    229.86557    36341.856 
   53800    297.91788   -1350.8473    457.28344    453.58774    585.03203    36341.856 
   53900    297.11467   -1337.6822    482.01593    487.85321    541.56178    36341.856 
   54000    296.04061   -1338.0498     459.6142    460.22714     357.9445    36341.856 
   54100    310.32256   -1352.5939    439.62063    490.27082     249.6934    36341.856 
   54200    295.12582    -1354.077    433.15784    413.60702    66.789427    36341.856 
   54300     302.7625   -1369.4974    425.44398    425.00499    123.29579    36341.856 
   54400    298.25769   -1341.6485    433.83139    440.87106    461.80956    36341.856 
   54500    298.72804   -1339.4788    434.14696    445.48316    428.77334    36341.856 
   54600    295.29258   -1333.0803    438.83798    441.03788    172.87785    36341.856 
   54700    300.48502   -1364.0312    423.16529    417.89396    488.51488    36341.856 
   54800    305.97234   -1376.3768    446.79484    453.99097    609.80519    36341.856 
   54900    302.97514   -1366.5896     434.8746     438.3049    346.41579    36341.856 
   55000    298.04214   -1385.0439    431.36726    394.03678    86.367376    36341.856 
   55100    296.70294   -1399.8067    444.86066    386.71162    452.77697    36341.856 
   55200    288.93552   -1379.6257     431.7729    358.68154    252.94151    36341.856 
   55300    300.93712   -1356.5553    444.34311      448.592    469.46146    36341.856 
   55400    293.97663   -1382.7248    433.45109    380.05595    444.16348    36341.856 
   55500    299.53922   -1356.7797    427.56903    425.27243    53.297609    36341.856 
   55600    293.03007   -1354.9702     443.9328    414.01203   -36.344119    36341.856 
   55700    300.19737   -1332.9772    457.90027    482.38219    -134.3036    36341.856 
   55800    293.09421   -1356.6809    461.73028    430.38881   -198.04129    36341.856 
   55900     314.0131   -1388.1713    445.29416    477.05522   -274.47702    36341.856 
   56000    302.37756   -1394.8795    422.80743    395.24562   -7.6236685    36341.856 
   56100    295.30874   -1363.2757    443.18394    415.26158   -237.86631    36341.856 
   56200    302.26021   -1343.3442    431.90977    455.35268    391.62754    36341.856 
   56300    290.93271    -1342.189    432.44274    405.81914    164.80731    36341.856 
   56400    297.31082   -1376.3641    450.26257    418.30495    573.52033    36341.856 
   56500    309.11548   -1398.1129    441.48718    441.16013    146.65829    36341.856 
   56600     296.4842   -1396.0947    452.65615    397.23004    759.61812    36341.856 
   56700    310.90173   -1370.3169    454.17832    489.72442    801.76394    36341.856 
   56800    304.18979   -1357.2682    477.80091    496.04515    435.99087    36341.856 
   56900     299.6706    -1367.472    458.13109    445.73626    268.15922    36341.856 
   57000     312.6234   -1386.5364    431.67159    458.78345    369.90287    36341.856 
   57100    311.48272   -1391.7173    444.00355    460.77647    231.44237    36341.856 
   57200    297.09472   -1378.6138    447.29585    412.11139   -29.371272    36341.856 
   57300    291.82064   -1340.3613    445.80426     425.0235    194.14632    36341.856 
   57400     294.3827   -1452.7536    411.59628    290.00854    507.93303    36341.856 
   57500    302.10049   -1454.1575    430.66477    342.57211    269.43923    36341.856 
   57600    300.75505   -1453.3477    439.13783    345.77109     801.7866    36341.856 
   57700    297.22616   -1414.4408    454.98273    384.56554     502.5822    36341.856 
   57800    295.48444   -1420.2988    419.30242    335.15139   -50.058908    36341.856 
   57900    295.73156   -1417.9913    432.82802    352.10192    9.3982946    36341.856 
   58000    299.77445   -1469.1823    425.16808     311.5325    375.32081    36341.856 
   58100    300.21436   -1437.2254    433.59655    353.90715     584.2166    36341.856 
   58200    297.67711   -1428.3349    448.61314    366.34107    450.50548    36341.856 
   58300    294.79072   -1400.5249    474.71586     407.2018    420.13461    36341.856 
   58400    293.69579   -1413.7402    413.02157    327.34104    176.83062    36341.856 
   58500    298.97517   -1393.9377    440.94739    398.94222    390.43855    36341.856 
   58600    303.52851   -1379.0653    463.14521    456.60211   -423.49855    36341.856 
   58700    299.76988   -1434.9666    442.58724    363.14676   -92.942449    36341.856 
   58800    304.02066   -1427.1504    458.59626    406.19349   -711.88753    36341.856 
   58900    293.24152   -1410.4693    435.02261    350.55886   -983.05356    36341.856 
   59000    292.46711   -1353.4035    477.39672      446.497   -115.36442    36341.856 
   59100    291.11211   -1354.7406    441.18418    402.82022   -606.42073    36341.856 
   59200    300.95307   -1356.9894    438.90142    442.78835   -227.01364    36341.856 
   59300    310.32412    -1327.497    469.09126    544.84547   -220.99971    36341.856 
   59400    310.43962   -1358.5763    455.87867    501.07587   -153.13711    36341.856 
   59500    302.77294   -1430.8455    457.98936    396.24943   -247.86165    36341.856 
   59600    303.52114   -1374.1162    453.68184    452.05452    145.61979    36341.856 
   59700    307.86734    -1389.905    426.24516    428.48202   -318.03191    36341.856 
   59800    296.10055   -1363.5289    401.28266    376.68751   -76.519728    36341.856 
   59900    305.69763   -1348.6155    470.35092    504.06607   -384.73807    36341.856 
   60000    292.97503   -1372.1132    449.57442    402.26175   -36.364306    36341.856 
   60100    292.23657   -1390.4734    442.29571    373.28365   -563.86248    36341.856 
   60200    303.15167   -1368.7186    444.38293     446.4825   -620.12604    36341.856 
   60300    304.61296   -1342.6623    467.32868    502.09227    -797.2375    36341.856 
   60400    297.24609   -1371.1571    459.24291    432.19956   -485.10556    36341.856 
   60500    301.32476   -1384.7241    462.65166    440.48467   -312.23916    36341.856 
   60600    287.49572   -1317.7923    471.30292    453.53427   -91.547183    36341.856 
   60700     293.5596   -1332.4019    471.05718    466.09914   -292.19761    36341.856 
   60800    303.72532   -1354.2464    429.27057    448.43631    151.37948    36341.856 
   60900    300.80716   -1397.5934    448.80276    411.42593   -179.59521    36341.856 
   61000    303.93974      -1397.8    447.82562    424.40736   -103.59271    36341.856 
   61100    299.67343   -1429.1079    425.59078    351.57283    50.028056    36341.856 
   61200     295.6333   -1403.3422      459.161    392.63967   -290.83006    36341.856 
   61300    304.37919   -1380.0171    458.25911    454.61086   -157.95488    36341.856 
   61400    307.59976   -1383.2769    456.04129    463.69634   -429.52492    36341.856 
   61500    290.44847   -1329.9014    490.11401    473.58832   -246.94869    36341.856 
   61600    290.13824   -1383.6489    448.62062    376.94457   -174.27822    36341.856 
   61700    299.61476   -1410.5262    437.46678    381.76525    437.12964    36341.856 
   61800    308.75903   -1381.6288    467.57566    482.12086   -367.52233    36341.856 
   61900    299.56037   -1377.1966    448.36498    425.74709   -161.80327    36341.856 
   62000    294.94382   -1370.0626    458.63583    422.27645    -226.0761    36341.856 
   62100    306.31305   -1358.3877    452.39283    479.11871    -363.0745    36341.856 
   62200    296.09384   -1369.0556    466.72819    436.57599   -390.76343    36341.856 
   62300    302.29355   -1372.1146    461.78312    456.60634   -325.23281    36341.856 
   62400    294.82237   -1359.5072    448.38701    422.03382    369.49477    36341.856 
   62500    305.17435   -1336.6806    459.25239    502.53626    -10.54075    36341.856 
   62600    299.72907   -1376.3652    478.94431    457.92066   -78.768972    36341.856 
   62700    296.43401   -1346.3914     451.2146    445.26481    233.21101    36341.856 
   62800    298.89348   -1391.1452    462.30723    422.72515    -309.9999    36341.856 
   62900    313.21128   -1406.0907    460.65751    470.87337    218.70723    36341.856 
   63000    296.48945   -1341.1948    450.29916    449.79664    244.28903    36341.856 
   63100    301.75767   -1347.1116    431.39094    448.79401    676.14014    36341.856 
   63200    304.55072   -1354.8753    458.23877    480.50799    323.63559    36341.856 
   63300    302.52252    -1378.636    456.59431    445.93156   -100.48741    36341.856 
   63400    287.26809   -1361.6193    450.05227     387.4273     220.0427    36341.856 
   63500    307.96514   -1414.9586    454.09045    431.71603    -110.3178    36341.856 
   63600    287.42035   -1406.5406    458.37945    351.52176   -482.40153    36341.856 
   63700    299.98662   -1348.1322    428.90063    437.27462   -250.55037    36341.856 
   63800    296.75156    -1353.907    445.84225    433.81278   -569.01751    36341.856 
   63900    295.29342   -1377.2259    454.72107    412.77921   -793.35379    36341.856 
   64000     308.2313   -1359.9077    458.83855    492.71847   -876.77211    36341.856 
   64100    299.50234   -1401.7942     433.1138    385.63586   -289.31175    36341.856 
   64200    291.87978   -1433.8809    459.14625    345.11329    118.08597    36341.856 
   64300    295.62992   -1427.1748     436.5081    346.13889    446.40766    36341.856 
   64400    309.99366   -1382.6483    437.90493    457.01347    792.38132    36341.856 
   64500    297.46207   -1388.1214    443.82067    400.78966    783.01825    36341.856 
   64600    305.55483   -1397.2452    457.30513    441.74493    904.48097    36341.856 
   64700    302.92275   -1398.8898    478.34888    449.24211    1159.5821    36341.856 
   64800    299.50899   -1371.4716    457.27383    440.14862    360.89706    36341.856 
   64900    300.15985   -1381.2083    444.11956    420.20073    577.33296    36341.856 
   65000    303.17004   -1397.5775    445.58159    418.90533   -225.97717    36341.856 
   65100     301.5111    -1391.144    472.05175    444.30738    186.40006    36341.856 
   65200     290.9064   -1385.8199    478.11165    407.73815    582.08808    36341.856 
   65300    302.54471   -1408.9592     451.2107    410.32503    826.99365    36341.856 
   65400    310.70824   -1384.8371    446.14625    466.29723    180.12154    36341.856 
   65500    302.07936   -1401.0574    473.67653    438.58842    281.07732    36341.856 
   65600    298.05543   -1373.8873    452.16874    426.05494     466.4719    36341.856 
   65700    303.56204   -1443.0815    446.41604    376.00835    206.73328    36341.856 
   65800    303.41249   -1408.0936    433.31876    397.22273   -309.30198    36341.856 
   65900    294.22194   -1426.2273    467.44297    371.65454   -260.16539    36341.856 
   66000    307.44089   -1403.3874    452.73899    439.56516    131.91468    36341.856 
   66100    301.56779    -1407.968    434.78159     390.4696    377.41387    36341.856 
   66200    291.79783   -1432.6812    433.71307    320.50925    240.78611    36341.856 
   66300    296.62882   -1421.6346    436.13176    355.81972    116.76515    36341.856 
   66400    311.89815   -1445.2253    428.16758    393.31105    385.30205    36341.856 
   66500    298.86588   -1438.6891    459.56355    372.31271    489.94393    36341.856 
   66600     308.3579   -1397.4783    451.54981    448.43172    284.86132    36341.856 
   66700    293.34058   -1341.2476    456.91542    442.12131    242.84637    36341.856 
   66800    304.30134   -1434.8237    434.90015    376.09328   -292.48877    36341.856 
   66900    292.31761   -1421.1421    473.06563    373.75122   -42.869283    36341.856 
   67000    302.79919   -1394.3302     465.0366    439.93067    514.14552    36341.856 
   67100    288.13928    -1408.772    469.82367     363.9854    356.32298    36341.856 
   67200    307.42702   -1421.2032    447.11354    416.06114   -25.560757    36341.856 
   67300    302.51147     -1410.84    457.09746     414.1807    95.693762    36341.856 
   67400    285.62931    -1363.755    440.71598    368.54495   -157.06682    36341.856 
   67500    287.45968   -1399.7618    466.85105       366.95   -288.79442    36341.856 
   67600    297.05555    -1412.992    461.49536    391.75555    468.71752    36341.856 
   67700    295.16471   -1425.0573    454.32173    363.96643    131.17147    36341.856 
   67800    305.80104     -1410.44     443.1536    415.51192    210.13155    36341.856 
   67900    297.87766   -1367.0663    460.18336    440.08669    17.412833    36341.856 
   68000    287.75398   -1387.2411    453.04118    366.99158    62.665307    36341.856 
   68100    310.49877   -1413.4552    447.26971    437.85539    312.40762    36341.856 
   68200    305.36265   -1388.8894    459.15681    451.08331   -50.526379    36341.856 
   68300    295.90597   -1356.4656    449.40669    430.99498   -377.17164    36341.856 
   68400    298.25351   -1396.8721    459.86523    411.66233   -464.91986    36341.856 
   68500    299.90505   -1363.2913    460.25293    453.09896   -489.83261    36341.856 
   68600    296.82569   -1393.6514    447.46963    396.03104   -561.74017    36341.856 
   68700     298.5142   -1372.6916     473.0919    450.24833   -435.76917    36341.856 
   68800    297.16045   -1440.9403    442.66394    345.45019   -142.80377    36341.856 
   68900    307.27831   -1361.3659    456.21107    484.32357    379.60911    36341.856 
   69000    301.80207   -1359.2183    451.27003    456.76716   -102.59526    36341.856 
   69100    309.37665   -1363.4516    464.65897     500.1742   -573.65264    36341.856 
   69200    295.67758   -1415.3894    455.43503    377.06678   -785.20057    36341.856 
   69300    302.65076   -1336.4273    457.05157    489.17736   -324.13186    36341.856 
   69400    306.96194   -1382.2682     469.6193    475.39887    524.26252    36341.856 
   69500     303.1303   -1359.1923     461.6814    473.21057    291.53962    36341.856 
   69600    298.71789   -1389.9317    447.88755    408.72489   -5.6420231    36341.856 
   69700    293.51641   -1337.3621    452.54638    442.43283    71.508158    36341.856 
   69800    291.99175   -1406.2372    453.24613    367.36313    98.950958    36341.856 
   69900    295.69157   -1400.3701    465.14039    401.85469    293.87073    36341.856 
   70000    303.10533   -1405.0398    463.83032    429.39913    679.32467    36341.856 
   70100    299.60052   -1365.0331    470.62706    460.35425    260.73004    36341.856 
   70200    292.45689   -1393.6616    453.07824    381.87421    372.46121    36341.856 
   70300    300.45942   -1353.3078     469.7478    475.08406    273.03949    36341.856 
   70400    289.99027    -1364.026    486.56204    433.83986    226.73081    36341.856 
   70500    302.66364   -1372.7452    470.68821    466.55429    163.58027    36341.856 
   70600    294.23028   -1392.3908    475.09613    413.18201    100.76428    36341.856 
   70700     297.9802   -1360.7384    460.61285    447.30783   -247.16753    36341.856 
   70800    309.11215   -1355.0923    452.19234    494.87084   -723.69104    36341.856 
   70900    296.17032   -1387.1265    467.03339    419.15616   -1145.6512    36341.856 
   71000    312.72744    -1368.303    456.89394     502.7097     -487.319    36341.856 
   71100    297.44684   -1410.3993    473.37088     407.9931   -1135.1476    36341.856 
   71200    307.97378    -1402.308    453.89402     444.2092   -736.49262    36341.856 
   71300    293.11918   -1367.4735    477.93406     435.9129   -599.60712    36341.856 
   71400    290.70658   -1376.4694    473.04633    411.11975    98.580068    36341.856 
   71500    295.78481   -1459.6392    444.75278    322.61966   -177.26464    36341.856 
   71600    297.91115   -1419.9064    430.38108    357.59576    577.17649    36341.856 
   71700    311.14849   -1409.6441    458.03853    455.37329    800.43415    36341.856 
   71800    303.76555   -1426.5668      460.917    407.94428    547.55029    36341.856 
   71900    293.45982   -1404.9934    454.09337    376.09264    470.61908    36341.856 
   72000     296.5959   -1372.8011    455.86383    424.23638   -110.56597    36341.856 
   72100    304.97415   -1416.5484    469.27479    431.78558   -380.80416    36341.856 
   72200    297.13056   -1454.5685    437.91273    326.93563   -397.78961    36341.856 
   72300    290.57516    -1399.703    478.08946    392.33509   -510.24258    36341.856 
   72400    297.17695   -1442.8303    465.97317    366.94396   -366.93186    36341.856 
   72500      301.806   -1428.8097    430.68916    366.61266   -595.47833    36341.856 
   72600    305.06427   -1391.0646    445.18621    433.58838   -215.31035    36341.856 
   72700    291.61064   -1387.0264    468.63028    400.23483   -302.44528    36341.856 
   72800    298.87566   -1420.1918    440.83309    372.12379    91.949776    36341.856 
   72900    302.10311   -1433.2626    438.50179    371.31588    20.999132    36341.856 
   73000    301.12514   -1366.3363    455.75582    451.07397    390.11699    36341.856 
   73100    293.04636   -1421.9233    474.48186    377.68159   -238.80494    36341.856 
   73200    294.88071   -1389.4126     487.1781    431.18332    47.172816    36341.856 
   73300    294.48744   -1379.4739    487.00414    439.16974   -157.28022    36341.856 
   73400    304.71407   -1418.4649    467.25459    426.67281    281.01049    36341.856 
   73500    309.85254   -1439.6065    457.60023    419.11253    7.4679787    36341.856 
   73600    302.85261    -1444.425    461.17507    386.21591   -769.71257    36341.856 
   73700    298.88772   -1398.0602     499.9056    453.38243    124.36505    36341.856 
   73800    294.54851   -1431.4939     475.4162    375.83794     443.3399    36341.856 
   73900    293.52674   -1430.6827    472.19448    368.80706   -214.52173    36341.856 
   74000    297.17082   -1430.3653    479.54559    392.95368    13.373944    36341.856 
   74100    307.46045   -1402.1855    463.54185     451.6583    210.98598    36341.856 
   74200    301.39816   -1446.1741     485.1184    401.83326  -0.98336629    36341.856 
   74300    294.96837   -1453.0053    458.26392    339.07282    -337.7601    36341.856 
   74400     293.1865   -1438.0838    460.96223    348.63516   -17.534884    36341.856 
   74500    317.63433   -1446.3058    441.01297     431.0143   -182.37879    36341.856 
   74600    293.81058   -1405.5895    484.26455    407.25379   -221.11469    36341.856 
   74700    289.48458    -1429.145    493.26369    373.13574    250.59935    36341.856 
   74800    302.44699   -1439.8703    438.49435    366.25569    348.92202    36341.856 
   74900    308.12582   -1453.5937    486.90725    426.62432   -110.84355    36341.856 
   75000     295.6062   -1455.3639    468.21939    349.55384    116.25365    36341.856 
   75100    305.83324   -1425.3268     466.7853    424.40243    512.50014    36341.856 
   75200     293.1463   -1433.4827    470.09581    362.18811     210.3285    36341.856 
   75300    299.82832   -1386.0742    473.66427    443.38037    552.06293    36341.856 
   75400    306.52114   -1393.4987    467.77368     460.3295    546.25873    36341.856 
   75500    314.27076   -1401.5095    480.92695    500.51495    424.75578    36341.856 
   75600    295.39466   -1381.5644    485.00159    439.17896    190.62795    36341.856 
   75700    306.31786   -1409.1477    480.53454    456.52215    303.90307    36341.856 
   75800    291.26733   -1420.5673    454.25228    350.76344   -83.517196    36341.856 
   75900    300.58151   -1365.8763    478.89552    472.21542    138.86289    36341.856 
   76000    298.58492    -1389.354     480.7016     441.5154    160.44507    36341.856 
   76100    308.35362   -1418.0934    502.34399     478.5914    819.88988    36341.856 
   76200    301.34751   -1409.9793    484.05078    436.73139   -5.3028621    36341.856 
   76300    301.71474   -1397.3249    463.27579    430.27143   -92.149327    36341.856 
   76400    295.36983   -1419.9954    467.42035     383.0545   -351.14836    36341.856 
   76500    296.91863    -1440.518    483.46813    385.58317    36.607945    36341.856 
   76600    297.29616   -1441.2782    466.95562    370.01763     76.99444    36341.856 
   76700     288.3775   -1426.9165    474.34345      351.438    293.62329    36341.856 
   76800    293.50277    -1408.528    489.32862    407.98753    -264.8329    36341.856 
   76900    297.82109   -1396.1049    504.82031    455.42928   -94.332948    36341.856 
   77000    289.82059   -1408.2711    454.62701    356.89238   -737.77801    36341.856 
   77100    303.45523   -1426.0941    475.51523    421.61193   -913.40266    36341.856 
   77200    299.53072   -1437.0565    476.68461    394.07271   -549.67884    36341.856 
   77300    297.19005   -1452.2394    464.44226    356.06327   -1263.1111    36341.856 
   77400    305.05203   -1453.0489      442.822    369.18445   -553.27793    36341.856 
   77500    298.70519   -1489.2945    434.62883    296.04598   -645.78002    36341.856 
   77600    292.06079   -1436.9605    466.90549    350.61146    -1159.205    36341.856 
   77700    300.00044   -1479.6753    457.78664    334.68002   -534.40114    36341.856 
   77800     313.0444   -1491.3291    460.35691     384.5798    220.95743    36341.856 
   77900    307.68964   -1502.4926    445.85219    334.69798    -517.8853    36341.856 
   78000    302.06959   -1520.4714    466.52341    311.97707   0.77316096    36341.856 
   78100    295.45139   -1488.9952     460.0817    307.08489    -340.5565    36341.856 
   78200     304.6479    -1432.443    472.07069    417.21161   -53.216327    36341.856 
   78300    292.71342   -1418.0693    480.63541    386.18372   -56.417982    36341.856 
   78400    310.30072   -1447.8741    484.15798    439.42921    461.87985    36341.856 
   78500    293.42935   -1473.3006    478.70384    332.25819     36.97959    36341.856 
   78600    296.59292   -1462.5808    469.91091    348.49036   -110.15963    36341.856 
   78700    309.22431   -1445.1929    472.66406    425.74914     475.7013    36341.856 
   78800    301.31966   -1450.0495    506.71769    419.20217    215.24663    36341.856 
   78900    295.07763   -1415.4512    475.13506    393.99214    314.56341    36341.856 
   79000    286.05069   -1386.7626    494.47243    401.19928    224.12127    36341.856 
   79100     305.1645   -1419.1439    486.71901     447.4951    37.525294    36341.856 
   79200    303.70547   -1399.7128    473.97977    447.58933   -42.555545    36341.856 
   79300    283.90951   -1439.3207    482.82523    327.31177      20.0249    36341.856 
   79400    295.49071    -1450.552     485.5331    371.15722     -54.6859    36341.856 
   79500    302.69554   -1398.9408    467.51558    437.33036     102.0429    36341.856 
   79600    295.44999   -1423.8835    493.97047    406.07895    387.73934    36341.856 
   79700    290.73102   -1402.0389    463.12208     375.7365    55.606362    36341.856 
   79800    305.57539   -1373.8213    483.65094    491.60755     46.91834    36341.856 
   79900    299.72135   -1386.4078    475.14463    444.04348    228.38934    36341.856 
   80000    291.37454   -1411.1755     477.5876    383.97536    212.54664    36341.856 
   80100    302.61951   -1411.1288    469.81458    427.09757    233.11484    36341.856 
   80200    299.47192   -1429.0839    477.45222    402.54701    481.51517    36341.856 
   80300     292.4534   -1415.5085    473.49176    380.42501     265.7351    36341.856 
   80400    295.73031   -1468.1972    459.90524    328.96766    187.04549    36341.856 
   80500    307.58187   -1451.7666    456.91058    395.99499    106.27432    36341.856 
   80600    294.40772   -1440.2363    469.53865    360.58135    252.12652    36341.856 
   80700    305.43319    -1427.934    496.14774    449.34869    765.71935    36341.856 
   80800    301.63858   -1417.9329    481.34939    427.39259     731.8628    36341.856 
   80900    299.44567   -1448.8738    468.59037    373.77659    525.75881    36341.856 
   81000    297.59676   -1479.3192    488.44258    354.82286    671.95077    36341.856 
   81100     310.3484    -1467.797    472.37754    407.94148    492.26169    36341.856 
   81200    311.05202   -1466.0861    468.99117    409.44776    186.97183    36341.856 
   81300    289.28679   -1453.8053    464.54519    318.86259     143.6866    36341.856 
   81400    311.70043   -1472.3326    441.03397    378.17605    227.39196    36341.856 
   81500    305.98091   -1454.3181    478.53664    407.83026    439.53112    36341.856 
   81600    290.83927   -1435.3555    466.40983    346.19713    98.102181    36341.856 
   81700     305.9748   -1410.5975    501.48993    474.47647   -42.269218    36341.856 
   81800    295.60976   -1434.0515    498.24111    400.90412    164.19608    36341.856 
   81900    310.63225    -1424.394    471.71083    451.96139   -278.84677    36341.856 
   82000    309.31748   -1466.1671    467.34336    399.87559    -952.1871    36341.856 
   82100    299.46626   -1467.0018    486.59254    373.74387   -424.53315    36341.856 
   82200    303.89024   -1484.5179    457.26022    346.90023   -22.523323    36341.856 
   82300    289.20935   -1501.1079    464.36446    271.02906   -238.28647    36341.856 
   82400    299.25814   -1474.3083    481.78749    360.69125   -535.75679    36341.856 
   82500    300.26006   -1439.9236    450.16012     367.9791   -574.05134    36341.856 
   82600    306.26689   -1501.0511    449.31386    333.16758   -317.61543    36341.856 
   82700      289.065   -1499.7904    473.49208    280.82145   -377.28662    36341.856 
   82800    307.95112   -1482.5787    458.49319    368.43519   -359.39158    36341.856 
   82900    293.37898   -1435.5697    469.55154    360.60904   -60.862026    36341.856 
   83000    296.90061   -1443.8439    471.91118    370.61888    304.84564    36341.856 
   83100    303.16142   -1450.0117    511.67789    432.52842   -349.88571    36341.856 
   83200    296.85667   -1445.0884    468.14996    365.41441    48.503092    36341.856 
   83300    309.52717   -1438.7911    483.15605    444.01237   -194.89294    36341.856 
   83400    299.79936   -1474.8607    476.70772    357.50645    199.05709    36341.856 
   83500    302.64244   -1460.3482    471.27899    379.44625    177.87871    36341.856 
   83600    288.39325   -1471.2507    487.80634     320.6378    508.92928    36341.856 
   83700     298.5064   -1459.4353    467.91418    358.29163    291.21712    36341.856 
   83800    299.73472   -1455.5311    463.31533    363.15134   -160.33462    36341.856 
   83900    295.79135   -1461.3056    489.31293    365.54291    683.89957    36341.856 
   84000     304.5557   -1450.7279    483.81594    410.25508     150.3498    36341.856 
   84100    305.68148   -1469.2496    489.05571    402.06381   -479.43148    36341.856 
   84200    296.58672   -1491.2894    470.08972    319.93248   -76.666211    36341.856 
   84300    300.08877   -1452.2901    467.60641    372.28441   -31.679191    36341.856 
   84400    299.24873   -1478.0574    489.60913    364.72122    17.147055    36341.856 
   84500    312.57455   -1468.2599    483.79776    428.96522    56.471116    36341.856 
   84600    290.26335   -1438.0156    481.76469    356.28766   -314.35974    36341.856 
   84700    301.39299   -1463.6051    448.57574    347.83622     104.4319    36341.856 
   84800    295.83499   -1448.1134    493.01188    382.63139     157.3468    36341.856 
   84900    291.97251   -1489.1661    474.73882    305.83993    -265.9033    36341.856 
   85000    304.08024   -1485.5904    466.95728    356.38393    417.88071    36341.856 
   85100    304.18524   -1476.7149    470.72986    369.50686    358.42168    36341.856 
   85200    300.42541   -1498.6503    474.65664    334.49669    340.89021    36341.856 
   85300    286.79577    -1485.537    466.35644      277.678    495.35275    36341.856 
   85400    305.48011    -1480.134    497.87724     399.0903    420.45032    36341.856 
   85500    295.40209   -1483.3353    488.58681    341.02695    905.32602    36341.856 
   85600     308.7375   -1456.3643    472.24952    411.96186   -241.60687    36341.856 
   85700    298.01603     -1428.92    476.85307     395.5284   -172.30352    36341.856 
   85800    305.14897   -1484.3063    460.10912     355.6525   -42.627228    36341.856 
   85900    296.00963   -1437.1566    507.30716    408.67321    272.86012    36341.856 
   86000    292.66154   -1466.8283    465.53382    322.08846    54.531867    36341.856 
   86100    300.45478    -1451.836     485.6053    392.39248     400.7446    36341.856 
   86200    298.58168   -1470.0111    492.52227    372.66434    241.69248    36341.856 
   86300      297.362   -1505.1764      449.051    288.51246    335.30398    36341.856 
   86400    312.65693   -1518.6209    494.74515    389.92414    275.88652    36341.856 
   86500    297.48919     -1503.17    486.48822    328.53133   -371.26932    36341.856 
   86600    294.24688    -1480.769    481.35759    331.14028    50.116848    36341.856 
   86700    297.98203   -1454.6157    492.10876    384.93468   -398.20088    36341.856 
   86800    303.24714   -1469.9608    478.49231    379.78138   -527.91387    36341.856 
   86900    300.79155   -1489.4207    467.32849    338.05372   -614.60221    36341.856 
   87000    297.30369   -1453.7324    474.20385    364.84567   -785.74099    36341.856 
   87100    295.51376   -1433.2486    495.62933    398.66108   -187.53898    36341.856 
   87200    293.88909   -1468.3068    474.10066    334.72765    233.16274    36341.856 
   87300    306.36887   -1437.8871    503.23943    450.71834    589.31476    36341.856 
   87400    307.70961   -1451.9712    480.94589    420.40333    352.81859    36341.856 
   87500    297.20924   -1464.1913    484.22392    363.97979    881.90237    36341.856 
   87600    297.62957   -1474.8843    477.04243    348.00594    1168.1002    36341.856 
   87700      295.823   -1454.4147    472.00522    355.26927    1307.0563    36341.856 
   87800    296.74364   -1486.2649    463.66283    319.23967    487.99291    36341.856 
   87900    308.64401   -1553.3979     460.1648     302.4208    336.58913    36341.856 
   88000    298.01177   -1536.6926     467.5355    278.41896    167.59842    36341.856 
   88100    301.89573   -1493.9242    462.40177    333.61646    474.36726    36341.856 
   88200    312.16854   -1478.0381    464.75091    398.30427    304.03787    36341.856 
   88300    288.20853   -1462.0418    483.40694    324.61209    232.85972    36341.856 
   88400    296.48478   -1517.4907    493.10491    316.28546   -107.46732    36341.856 
   88500     294.1067     -1469.61    451.86466    312.17246   -218.56158    36341.856 
   88600    292.35773   -1484.6351    489.53854     326.9126     254.2418    36341.856 
   88700    294.12771   -1475.6825    470.32562    324.65593    140.54591    36341.856 
   88800    300.23085   -1465.3811    451.88521    344.11461    2.4727858    36341.856 
   88900     294.0854   -1480.9266     465.1573    314.05218   -152.21697    36341.856 
   89000    301.33894   -1412.4955    491.53756    441.66328    487.46006    36341.856 
   89100    304.91804   -1475.0871     472.6636    376.38195   -700.25705    36341.856 
   89200    303.56742   -1433.9839    473.36994     412.0842    39.817181    36341.856 
   89300    299.19618   -1417.0768    499.14063     434.9957   -228.91338    36341.856 
   89400    291.48776   -1432.4556    491.85913    377.47878   -217.06109    36341.856 
   89500    295.57596    -1434.096    473.72445    376.19007   -260.56603    36341.856 
   89600    306.77581   -1454.2252     496.5267    429.50764   -388.73938    36341.856 
   89700    311.00362   -1447.7984    484.62825     443.1537   -391.88204    36341.856 
   89800    308.38877   -1443.2006    464.12518    415.42428   -557.25314    36341.856 
   89900    286.22376   -1458.9393    477.23406    312.56682   -998.24404    36341.856 
   90000    288.86902   -1439.7314    497.30652    363.80871   -984.08998    36341.856 
   90100    297.36388   -1415.5513    505.62294    434.71808   -685.39531    36341.856 
   90200      307.086   -1453.7458    468.58477    403.44779   -229.15341    36341.856 
   90300    301.75477    -1482.998    480.63835    362.14192    -469.1526    36341.856 
   90400    311.82862   -1460.3408    482.57764    432.29126    247.69397    36341.856 
   90500    290.77135   -1460.1469    482.63934     337.3281    282.26655    36341.856 
   90600    300.50964   -1493.6413    507.46059    372.69052   -615.74014    36341.856 
   90700    307.65308   -1474.9849    490.63365    406.82179    276.67691    36341.856 
   90800    295.45855   -1478.7463       456.92    314.20446    64.026119    36341.856 
   90900    296.20867    -1451.854    506.97608    394.54476    73.900424    36341.856 
   91000    305.19099   -1465.4674     483.6947    398.26702   -25.662121    36341.856 
   91100    299.57866   -1480.6727    481.08417    355.07284   -401.07081    36341.856 
   91200    297.50752   -1480.6782    494.57727    359.19503   -1082.6859    36341.856 
   91300     297.3257   -1464.4168    469.58928     349.6462   -351.41932    36341.856 
   91400    303.45009   -1439.3643    500.97496    433.77826    -366.1099    36341.856 
   91500    302.08054   -1454.7593    466.65694    377.87232    -486.1099    36341.856 
   91600     296.1453   -1455.4448    492.33223    376.02359   -446.45261    36341.856 
   91700    299.65272   -1486.9945     473.5449    341.54675    316.10296    36341.856 
   91800    295.77262   -1438.1655    478.99239    378.27779    300.90472    36341.856 
   91900    296.00718   -1448.8054    494.03284    383.73895    -18.62392    36341.856 
   92000    301.41096   -1445.0049    505.30944    423.25142   -53.584525    36341.856 
   92100     289.2041   -1449.4881    492.16875    350.42945    281.57703    36341.856 
   92200    302.78386   -1447.1417    480.86598    402.87923    476.26964    36341.856 
   92300     305.2588    -1419.895    492.13058     452.5819    836.04432    36341.856 
   92400    300.14094    -1460.175    503.52686    400.55588   -214.14891    36341.856 
   92500    295.91781   -1457.8953    487.52105    367.73325    108.11511    36341.856 
   92600    301.84074   -1477.5627    497.44114    384.76873    439.93712    36341.856 
   92700    308.56075   -1500.0898    493.21516    388.40277    65.914487    36341.856 
   92800     296.8415   -1451.4135    486.91335    377.78409   -100.10626    36341.856 
   92900    297.03423   -1475.4516    479.21046    346.91461    181.06163    36341.856 
   93000    308.72897   -1446.3999     513.8799    463.51803    598.21017    36341.856 
   93100    299.77377   -1472.3766    465.17056    348.33765    114.27837    36341.856 
   93200    302.54427   -1481.0179    487.31056    374.36423   -20.074338    36341.856 
   93300    303.87658   -1462.1151    489.49991    401.48091   -115.60555    36341.856 
   93400    311.68604   -1429.3961       498.04    478.05354   -56.399213    36341.856 
   93500    304.16694   -1452.2722    456.01882    379.15575    284.66084    36341.856 
   93600    297.54776   -1474.5051    491.29684    362.26961    401.53013    36341.856 
   93700     296.4953   -1462.5025    501.85551    380.07179    1196.2982    36341.856 
   93800     304.1237   -1463.7648    451.33133    362.78011    397.22278    36341.856 
   93900     301.9643   -1431.7551    488.73517    422.42909    198.11607    36341.856 
   94000    285.45046    -1437.281    504.10235    357.59662    -70.48393    36341.856 
   94100    298.12521   -1450.1044    502.44329    400.42793    -352.0502    36341.856 
   94200    305.06383   -1462.6466    481.28213    398.10024   -640.98101    36341.856 
   94300    292.10113   -1432.2353     485.1552    373.76871   -246.55568    36341.856 
   94400    300.20503   -1456.4974    464.64406    365.64044    324.00764    36341.856 
   94500     301.4844   -1465.7368    461.14712    358.68926    161.14132    36341.856 
   94600    295.96147   -1485.3823    508.32824    361.25084    558.20541    36341.856 
   94700    299.19169   -1466.2597    491.04712    377.69904    250.92637    36341.856 
   94800    304.41215    -1444.923    505.45243    437.04733   -164.54341    36341.856 
   94900    304.08384   -1479.9817    494.12185    389.17348    592.98478    36341.856 
   95000    311.50452   -1493.3901    457.48036    372.67907    386.97727    36341.856 
   95100    296.01961   -1491.1734    496.04203    343.43643    193.80203    36341.856 
   95200     304.3369   -1473.5845    479.28267    381.87577    468.81427    36341.856 
   95300    301.61414   -1512.8385    502.93816    353.96528    596.45945    36341.856 
   95400    296.32025   -1504.0169    491.78739     327.6977    51.215386    36341.856 
   95500    297.25308   -1505.1792      452.666    291.63216     38.16377    36341.856 
   95600    302.27739   -1498.0449    487.55256    356.37243   -105.29628    36341.856 
   95700    296.55181   -1452.0526    499.19613     388.1179    -129.2302    36341.856 
   95800    298.33725   -1462.9094    470.98471    357.12325    -140.8286    36341.856 
   95900    303.65661   -1470.8773    501.75996    403.98414    480.08803    36341.856 
   96000    301.31418   -1443.2031    505.24363    424.54972    542.34526    36341.856 
   96100    302.21775   -1460.9806    485.22965    390.84412   -153.80423    36341.856 
   96200    308.68823   -1463.2957    491.45641    424.01454   -367.11295    36341.856 
   96300    293.91362   -1474.2096    489.13728    343.97241   -211.12208    36341.856 
   96400    311.33086   -1486.6228    507.65123    428.83192   -427.05631    36341.856 
   96500    299.50011   -1467.7384    477.42616    363.99396   -731.73871    36341.856 
   96600    296.23946   -1461.9678    484.40909    362.00323   -1252.5092    36341.856 
   96700    294.80168   -1438.5865     472.0727    366.54668   -866.35252    36341.856 
   96800    301.63943   -1487.5756    485.07243     361.4768    -737.8195    36341.856 
   96900    303.65605   -1468.6393    475.66381    380.12344    84.299448    36341.856 
   97000    297.70387   -1469.6303    493.19021    369.74375    195.83589    36341.856 
   97100    305.33924   -1453.8854    492.18955    419.01422    175.34187    36341.856 
   97200    298.63318   -1471.6675    478.29142    357.00994    351.08586    36341.856 
   97300    288.86996   -1476.3955    490.43741    320.27976    652.82841    36341.856 
   97400    302.61113   -1456.2059    487.33667    399.50466    444.96259    36341.856 
   97500    292.01593   -1454.8924    506.35941    371.93059    420.19454    36341.856 
   97600    292.26594    -1467.915     476.4873     330.1664    -20.33969    36341.856 
   97700    307.63848   -1474.8951    493.52986    409.74176    551.71969    36341.856 
   97800    299.49217   -1477.2018    452.80725    329.87574    316.33422    36341.856 
   97900    297.78868   -1476.2467    476.25361    346.57421    306.64181    36341.856 
   98000    290.01582   -1485.3038    473.76201    299.87753    248.37475    36341.856 
   98100    294.09591   -1472.8373    440.14669    297.17838    262.40412    36341.856 
   98200    295.97044   -1453.6736    465.73902    350.41088   -187.39751    36341.856 
   98300    304.72891   -1499.7102      474.978    353.21803   -202.12462    36341.856 
   98400    300.20077   -1492.2642    499.46577    364.67607   -245.57361    36341.856 
   98500    305.03079   -1476.1519     466.3008    369.46425   -13.837003    36341.856 
   98600    299.18355     -1466.84     468.7417    354.77649    768.42981    36341.856 
   98700     292.2408   -1438.1296    514.89234     398.2431    196.65829    36341.856 
   98800    298.78412   -1431.1066    480.68524    400.64727   -796.34003    36341.856 
   98900    311.09801   -1454.4953    486.07802    438.33328   -215.65009    36341.856 
   99000      300.559   -1456.4249    500.22007    402.88961    184.10941    36341.856 
   99100    306.00635   -1473.2738    469.68887     380.1418    218.12173    36341.856 
   99200    298.13393   -1479.8597    501.81392    370.08274    362.37557    36341.856 
   99300    294.13927    -1511.555    479.76055    298.27063    706.11045    36341.856 
   99400    293.51471   -1502.9474    462.19195    286.48551    78.298594    36341.856 
   99500    295.68014   -1531.2047     482.1022    287.93026   -102.43079    36341.856 
   99600    298.92571   -1520.0425    478.13985    309.80614   -268.76843    36341.856 
   99700    306.64432   -1466.8408    477.15648    396.92724    38.524172    36341.856 
   99800    299.20677    -1488.038    475.62286    340.56468   -120.74427    36341.856 
   99900    306.74784   -1480.6949    480.06796    386.45271    179.10584    36341.856 
  100000    298.65443   -1474.0667    502.96601    379.38146    201.79062    36341.856 
  100100    297.27129   -1501.3581    498.94252    341.81211   -15.523376    36341.856 
  100200    301.86575   -1450.9805    460.54545    374.56827    -48.37757    36341.856 
  100300    297.47123   -1485.8658    490.63037    349.89644     138.8809    36341.856 
  100400    297.58797   -1456.3004    474.28577    363.64512    124.20368    36341.856 
  100500    287.53507   -1447.3963    508.09274    360.89807    771.58701    36341.856 
  100600    295.82016   -1482.0853    487.95404    343.53462    40.104402    36341.856 
  100700    302.92663   -1444.7031    469.72117     394.8186    40.853893    36341.856 
  100800    294.54703   -1472.7888    470.64638    329.76649    -283.0307    36341.856 
  100900    305.96044    -1539.924    466.48987    310.08495   -362.93148    36341.856 
  101000    291.14679   -1489.1484    472.15447     299.5395   -134.33234    36341.856 
  101100    293.67077   -1463.8364    461.36097     325.4712   -303.74177    36341.856 
  101200    297.71211   -1487.9873    453.48551    311.71925   -520.09082    36341.856 
  101300    297.90992   -1483.0139     483.5646     347.6663   -102.38438    36341.856 
  101400    293.42458   -1459.7915     480.4153    347.45716     -772.976    36341.856 
  101500    297.13454   -1473.7333    458.17106    328.04714   -461.89988    36341.856 
  101600    305.17025   -1446.7307    493.13558    426.35082   -104.50664    36341.856 
  101700    305.50261    -1493.059    470.30071    358.69053    305.05429    36341.856 
  101800    299.99357   -1470.5428    500.65371    386.64846    337.16444    36341.856 
  101900    299.57649   -1454.0849     480.6522    381.21882   -83.252092    36341.856 
  102000    306.82855     -1508.46     495.8854    374.86996   -481.43066    36341.856 
  102100    298.87205   -1499.3623    472.24984    324.35373   -234.49675    36341.856 
  102200    301.47227   -1482.3673    480.13612    360.99287   -210.04099    36341.856 
  102300    299.54509   -1490.0939    483.70404    348.11979   -665.53781    36341.856 
  102400    303.61037   -1473.3092     489.7642    389.34735   -870.29314    36341.856 
  102500    296.62157   -1465.6247    489.59337    365.25837   -743.01451    36341.856 
  102600    295.33904   -1511.6084     478.0861    301.96804   -463.17848    36341.856 
  102700    294.60473   -1473.4926    494.48452    353.16178   -149.42334    36341.856 
  102800    303.49444   -1464.0794    482.70983    390.99857   -86.532708    36341.856 
  102900    287.02347   -1431.1926     477.0156    343.71126   -115.68615    36341.856 
  103000    290.52867   -1478.8428    455.88492    290.78049    166.59692    36341.856 
  103100    306.16208    -1533.759    489.12122    339.79309   -294.40062    36341.856 
  103200     294.4052   -1488.4164    459.74019    302.59136   -323.22286    36341.856 
  103300    297.72778   -1448.2779    490.82609    388.84013   -178.62512    36341.856 
  103400    308.66542   -1460.4433     452.2506    387.55802     82.28402    36341.856 
  103500    304.28544   -1470.0069    462.31838    368.25642    -912.5432    36341.856 
  103600     295.0598   -1439.0698    475.53016      370.688   -634.31214    36341.856 
  103700    294.29631    -1463.202    492.31419    359.88739   -75.248808    36341.856 
  103800    291.51341   -1493.6288     483.5318    308.09425   -338.05712    36341.856 
  103900    300.16964    -1479.564    467.46807    345.23783    268.38083    36341.856 
  104000    294.15161   -1505.8808    470.39416    294.63427   -153.09535    36341.856 
  104100    295.35598   -1497.8846    473.92718    311.60949   -496.48408    36341.856 
  104200    312.28612   -1480.8188    470.87821    402.18258    390.34686    36341.856 
  104300    302.25223    -1484.229    474.48459    357.00661    335.74673    36341.856 
  104400    308.26733   -1449.7121    497.38687    441.62536   -153.16048    36341.856 
  104500    302.57401   -1465.0073    486.49971    389.69851    332.38153    36341.856 
  104600    300.28945   -1466.8886     467.9272     358.9141   -18.618774    36341.856 
  104700    299.63242   -1447.7045      473.701    380.90098   -301.66503    36341.856 
  104800    297.86718   -1476.5412     478.1095     348.4906   -565.35974    36341.856 
  104900    296.89584   -1446.0399     483.7216    380.21173   -22.800535    36341.856 
  105000    300.61349   -1446.7081    476.29407    388.92675    298.87257    36341.856 
  105100    295.69691    -1453.364    492.12886    375.87347    430.85914    36341.856 
  105200    290.68995   -1480.4022    481.92162      315.987    501.96273    36341.856 
  105300    301.37254   -1463.0547     495.0322     394.7506    10.209372    36341.856 
  105400    298.83511   -1444.3191    455.12642    362.10641   -47.440117    36341.856 
  105500    298.81394   -1496.9737    484.30372    338.53348    313.19579    36341.856 
  105600    291.86797    -1468.213    481.03309    332.61468    205.96036    36341.856 
  105700    303.52933   -1457.0613    475.28396    390.74858   -57.965885    36341.856 
  105800    291.92494   -1442.1957    456.75367    334.61005   -189.18659    36341.856 
  105900    317.83229   -1447.7938    487.73995    477.14842    269.32825    36341.856 
  106000    303.28316   -1417.1374    498.86399    453.13934    672.89909    36341.856 
  106100    299.42744   -1439.4256    462.80124    377.35322    714.48937    36341.856 
  106200     302.7451   -1400.9706     500.7152    468.72427    758.09452    36341.856 
  106300    304.86997   -1415.9926    509.43137     472.0269    434.05544    36341.856 
  106400    299.99984   -1420.5639     484.2251    420.22707     454.7705    36341.856 
  106500    300.08173   -1422.1086    473.60342    408.43105    545.39125    36341.856 
  106600    309.37355   -1440.8151    510.02534    468.16303      858.413    36341.856 
  106700    302.40106   -1414.0204    473.71314    427.11675    835.45893    36341.856 
  106800    292.36929   -1412.8068      483.833     393.0876    452.79916    36341.856 
  106900    291.06451   -1437.3322     493.5313    372.36043   -364.13699    36341.856 
  107000    289.77999   -1418.3947    514.15141     406.1096    123.08731    36341.856 
  107100    302.01144   -1416.6874    494.07643    443.05122    518.71224    36341.856 
  107200    300.98583   -1440.4117    502.02366    422.63644    529.31722    36341.856 
  107300    305.36611   -1425.9556    494.66759    449.54365    216.54809    36341.856 
  107400    310.69614   -1462.9697    491.73386    433.69755    31.668698    36341.856 
  107500    291.13657    -1455.274    468.65757    329.87082   -22.541126    36341.856 
  107600    296.85891   -1433.0106    476.24625    385.59866    100.43971    36341.856 
  107700    300.58588   -1469.6803    473.37684    362.91248    107.15204    36341.856 
  107800    291.71622   -1482.9452    472.73724    308.90036   -15.572937    36341.856 
  107900    298.12374   -1496.6383    485.31346     336.7576    605.00126    36341.856 
  108000    303.57782   -1500.6615    483.19648    355.28017    657.51777    36341.856 
  108100    302.63917   -1470.4695    480.33804    378.36928     442.5963    36341.856 
  108200    293.79793   -1469.0032    490.75919     350.2776    338.33798    36341.856 
  108300    299.86394   -1488.1275    495.67141    363.49529   -425.17686    36341.856 
  108400    292.87385   -1476.6696    472.10832    319.78175   -431.80657    36341.856 
  108500    301.60527   -1477.4607    488.80562     375.1704     -133.662    36341.856 
  108600    291.71267   -1470.7087    476.85155    325.23514    123.90402    36341.856 
  108700    303.90829   -1480.0428    500.35834    394.55507     222.6866    36341.856 
  108800    288.93152   -1489.1184     493.8474    311.24521    757.53933    36341.856 
  108900    292.70586   -1454.0322    485.42658    354.97777    196.52019    36341.856 
  109000    307.61535   -1467.5679    466.08663    389.52114     267.7889    36341.856 
  109100    290.79595   -1488.2594    500.66063    327.34824   -367.64871    36341.856 
  109200    293.19982   -1496.2368    449.55302    279.13324   -109.93017    36341.856 
  109300    304.38739    -1465.057    478.86526    390.21416   -120.13719    36341.856 
  109400    304.21024    -1455.009    481.75016    402.34603     266.3077    36341.856 
  109500    296.11727   -1473.3717    487.24758     352.8852    112.90419    36341.856 
  109600    296.55016   -1455.8435    491.90733    377.03065   -268.42319    36341.856 
  109700    299.49754   -1508.1532    460.89081     307.0322   -774.56196    36341.856 
  109800    303.92932   -1446.5339    490.04698    417.84765   -261.36759    36341.856 
  109900    292.93909   -1466.7502    502.92665    360.81447    114.82678    36341.856 
  110000    302.59064   -1499.0968    499.17721    368.36165    -378.2281    36341.856 
  110100    317.25144   -1476.0145    484.06458    442.62578   -245.77183    36341.856 
  110200    298.11526   -1475.8775    460.95862    333.12523   -635.93549    36341.856 
  110300    301.12361    -1439.256    486.48542    408.87694   -725.15953    36341.856 
  110400    310.00441   -1419.7507    477.82107    459.87585   -430.26605    36341.856 
  110500    309.52323   -1442.4113    487.25302    444.47138   -169.91471    36341.856 
  110600    301.17561   -1405.7964    477.15073    433.23699   -188.05353    36341.856 
  110700    305.35023   -1412.1119    474.44187    443.08976    420.35799    36341.856 
  110800    294.25362   -1503.2602    465.08034    292.40228    620.61404    36341.856 
  110900    306.68589   -1429.8392    520.84385    477.80418    308.68872    36341.856 
  111000      304.106   -1464.7942    471.31452    381.65384    158.45241    36341.856 
  111100    293.50406   -1475.5679    497.06434    348.68916    289.81989    36341.856 
  111200    298.28096   -1469.6859    485.45137    364.55885   -253.06309    36341.856 
  111300    297.62122    -1480.468    473.28702    338.62911   -44.330007    36341.856 
  111400    295.69987   -1519.4308    482.64757    300.33866     379.7907    36341.856 
  111500    307.35028   -1480.0578    481.77337    391.51938   -334.09674    36341.856 
  111600    311.46137    -1475.218    490.85635    424.03201     561.2524    36341.856 
  111700    300.17921   -1441.4404    480.58801    396.52461     523.8323    36341.856 
  111800    294.89073   -1478.6052    508.29443    363.15232     349.5154    36341.856 
  111900    306.84536   -1502.4275    463.06974    348.16288    40.762483    36341.856 
  112000    300.65967   -1480.6503    486.22522    365.12457    179.53938    36341.856 
  112100    288.31554   -1485.0167    460.06807    278.78217    26.040887    36341.856 
  112200    310.94957   -1495.0846    487.49527    398.49006    966.35186    36341.856 
  112300    303.82091   -1477.6626    477.29306    373.47479    491.44771    36341.856 
  112400    304.26511   -1509.3884    462.05527    328.51993    636.58089    36341.856 
  112500    304.90562    -1484.858    474.68708     368.5784    400.50339    36341.856 
  112600    304.70808   -1472.5664     500.1691    405.45883   -242.85191    36341.856 
  112700    293.27783   -1506.5088    468.68444    288.34541    -187.5341    36341.856 
  112800    302.39373   -1510.5802    482.19436    339.00495   -381.24891    36341.856 
  112900    310.92659   -1521.8617    471.67996    355.79369    530.14994    36341.856 
  113000    304.40148   -1463.9381    482.85179    395.38335    201.26329    36341.856 
  113100      301.801    -1488.283    465.02199    341.44959    600.82377    36341.856 
  113200    306.76994   -1493.2083    468.23075      362.202   -147.00523    36341.856 
  113300    306.51354   -1476.4584    482.67824    392.24001   -354.90842    36341.856 
  113400     299.8974   -1469.8671    495.23517    381.47076    32.711316    36341.856 
  113500    303.23307   -1491.5302      463.645    343.30108    424.37105    36341.856 
  113600    298.61147   -1470.1237    488.16629    368.33044    318.69337    36341.856 
  113700    307.41055    -1466.411    483.07908    406.74444    251.73087    36341.856 
  113800    289.45114    -1464.299    515.05618    359.62308   -136.87276    36341.856 
  113900    290.08499   -1457.3146    498.12192    352.53937   -589.85243    36341.856 
  114000    299.53377    -1506.306    455.13205    303.28449   -657.10789    36341.856 
  114100    304.59558   -1521.3109     473.4982    329.53466   -618.10226    36341.856 
  114200    296.81724   -1510.8084    479.47861    310.84482   -174.10664    36341.856 
  114300    294.81554   -1521.9918    489.66753    300.79886   -214.48083    36341.856 
  114400     304.6522   -1519.7852     476.9331    334.75128   -27.095336    36341.856 
  114500    310.01708   -1471.8939    487.68909    417.65794    -143.2209    36341.856 
  114600    308.67712   -1508.7804    482.65884    369.68203   -7.6595466    36341.856 
  114700    292.91791   -1494.6649    493.63722    323.51458    221.52854    36341.856 
  114800    300.60227   -1521.3685    487.42382    325.34541   -135.99841    36341.856 
  114900    293.79102   -1516.5236    514.95566     326.9224    186.33852    36341.856 
  115000    290.73452   -1504.3604    479.25312    289.56193   -653.58392    36341.856 
  115100    309.46251   -1486.8721    508.99549    421.47845    121.69379    36341.856 
  115200    270.27424    -1505.312    506.70696    223.54506   -182.16016    36341.856 
  115300    298.48045   -1481.2872    444.51208    312.92031   -64.330287    36341.856 
  115400    301.32078   -1446.7247    482.85112    398.66551    -97.40175    36341.856 
  115500      300.844   -1494.4993    482.37018    348.25404   -65.699863    36341.856 
  115600    286.57012   -1524.6334    472.88977    244.09462   -392.15129    36341.856 
  115700    304.62689   -1475.2582     512.4187    414.64945    297.66585    36341.856 
  115800    310.91852   -1449.9095    463.56328     419.5928   -410.52646    36341.856 
  115900    304.37976   -1400.0059     501.0459     477.4115   -592.86662    36341.856 
  116000    297.99377    -1454.639     501.5542    394.40993   -468.36723    36341.856 
  116100    305.34197   -1511.4314    494.24658    363.53763    320.57984    36341.856 
  116200    303.85746   -1488.9187       489.16    374.25098    206.27423    36341.856 
  116300    294.54692   -1493.3308      488.108    326.68559   -153.27959    36341.856 
  116400     296.7815   -1510.6961    475.25747    306.57429   -199.00505    36341.856 
  116500    304.64259   -1521.6392    474.61457    330.53533    294.27833    36341.856 
  116600    287.02678    -1506.291    498.40482    290.01705   -161.22727    36341.856 
  116700    295.18547   -1522.9024    474.23818    286.13171    195.09452    36341.856 
  116800    303.89186   -1465.8367    486.96787     395.2964    262.14246    36341.856 
  116900    307.75232   -1497.5505    496.99861    391.06993     1125.128    36341.856 
  117000    300.05123    -1447.269    485.31449    394.84377    561.26369    36341.856 
  117100      300.242   -1495.8261    474.27351    336.10835    -254.4672    36341.856 
  117200    287.62279   -1499.1208      484.848    286.32549    372.86894    36341.856 
  117300    309.80391   -1474.1058    497.19705    423.99006    42.157879    36341.856 
  117400    301.99689   -1477.6157    489.32505    377.30571   -12.041563    36341.856 
  117500    302.96998   -1524.5743    475.97123    321.39351   -352.11678    36341.856 
  117600    303.07268   -1516.1367    487.62965    341.95395    211.09378    36341.856 
  117700    294.05594   -1513.1806     459.5348    276.04251     -309.131    36341.856 
  117800    309.44749   -1495.5286    493.61481    397.37334    480.08313    36341.856 
  117900    295.36115    -1498.143    486.86577    324.31305     504.8083    36341.856 
  118000    287.64302   -1507.6857    504.86024    297.86432    617.93499    36341.856 
  118100    297.01249   -1490.8771    488.90516    341.08553    92.991335    36341.856 
  118200    304.12443   -1481.1769    495.09772    389.13764    100.08012    36341.856 
  118300    287.58679   -1456.3997    502.76238    346.79818    234.09706    36341.856 
  118400    306.60512   -1444.3345    478.51902    420.61876    126.37808    36341.856 
  118500    296.96499   -1479.3615    493.93168    357.41288    303.13552    36341.856 
  118600    294.07519   -1482.0896     492.5387    340.22445    1137.9952    36341.856 
  118700    309.62063   -1443.2234     524.2003    481.04699    732.49942    36341.856 
  118800    291.07152   -1458.1005    521.80096    379.89346    545.58516    36341.856 
  118900    303.22277   -1446.5415    493.35907    417.95719    353.66989    36341.856 
  119000    296.30064   -1493.1281    513.76771    360.47818    226.92082    36341.856 
  119100    306.93636   -1463.3466    483.39527    407.98072    177.23872    36341.856 
  119200    297.35914   -1469.8173    496.81462    371.62231    -64.23837    36341.856 
  119300    309.65553   -1417.5606    477.45471    460.12204   -502.57426    36341.856 
  119400    303.10934   -1430.5528    519.66616    459.74014   -1379.8685    36341.856 
  119500    294.42064   -1444.8079    509.11486    395.64433   -1357.0709    36341.856 
  119600    291.98663   -1444.4025    499.66181    375.59044   -510.18982    36341.856 
  119700    295.39757   -1435.7583    516.90828    416.90491    -314.0706    36341.856 
  119800    294.78759   -1433.8982    512.30633     411.4048    329.49462    36341.856 
  119900    287.89949   -1478.8802     517.3976    340.36696   -12.101685    36341.856 
  120000    314.79653   -1430.3262    493.14203    486.29077    76.173402    36341.856 
  120100    287.86496   -1457.9905    501.62118    345.32408    120.60098    36341.856 
  120200    292.62029    -1452.857    494.53192    364.87131    22.763156    36341.856 
  120300    298.79694    -1476.039    498.37189     373.4594     71.48644    36341.856 
  120400    299.00681   -1460.4006    512.62711    404.30202    7.8339023    36341.856 
  120500    307.59636   -1450.2809    512.23796    452.87362    368.92484    36341.856 
  120600    299.41391   -1517.4261    490.73285    327.22314    26.307648    36341.856 
  120700    304.06742   -1493.1337    501.41325    383.23865    39.863857    36341.856 
  120800    294.54477   -1466.6707    508.07895      373.307     346.6788    36341.856 
  120900    298.19856   -1464.6841    496.24536    379.98201    532.06733    36341.856 
  121000    298.03044   -1480.0039    491.01635    358.67302    624.03379    36341.856 
  121100    300.44273   -1454.8612    528.09305     431.8005    210.69428    36341.856 
  121200    299.24677   -1473.3222    482.29203     362.1304  -0.85113043    36341.856 
  121300    301.11282   -1451.2038    481.19763    391.59257    665.79062    36341.856 
  121400    294.85202   -1470.6626    507.85208    370.47758    411.49925    36341.856 
  121500    287.30347   -1471.9258    509.59204    336.82064    293.51223    36341.856 
  121600    301.73339   -1472.5306    481.54812    373.42243    158.41956    36341.856 
  121700    308.20668   -1470.3338    483.93486    407.27739   -300.37993    36341.856 
  121800    305.84604   -1476.0848    489.67733    396.59429     325.9395    36341.856 
  121900    312.08742   -1497.7522    521.11749    434.58991    259.48947    36341.856 
  122000    297.34569   -1472.5298    478.70286    350.73722    266.29243    36341.856 
  122100    303.35038   -1480.8215    510.80001     401.6952   -321.25782    36341.856 
  122200    293.52855    -1467.861    509.88794     369.3304    537.93871    36341.856 
  122300    288.15383   -1516.1986    486.16455    272.96557   -26.682719    36341.856 
  122400    294.10923   -1478.1434      492.136    343.92181   -197.87064    36341.856 
  122500    291.71258   -1510.4356    515.58156    324.23782     375.4824    36341.856 
  122600    294.75278   -1501.5787    484.72725    315.98786    279.63247    36341.856 
  122700    302.83519   -1493.3765    520.36483    396.37538    156.43833    36341.856 
  122800    309.62885   -1488.6192    472.22676    383.71475   -360.37899    36341.856 
  122900    290.89133   -1510.2726    474.73876    279.84442    473.82326    36341.856 
  123000    301.84411   -1510.2341     517.4748    372.14621    926.17927    36341.856 
  123100    309.73294    -1467.202    481.73574    415.11168    191.75393    36341.856 
  123200    290.20554   -1419.1326    489.18105     382.3256    291.69077    36341.856 
  123300    289.95811   -1422.9044    496.28136    384.53528   -331.35146    36341.856 
  123400    291.96508   -1429.4352    510.32539    401.12384    121.18632    36341.856 
  123500    294.25162   -1425.9753    509.20998    413.80779   -196.56047    36341.856 
  123600    298.53227   -1463.7342    483.97126     370.1668   -272.36136    36341.856 
  123700    300.32815   -1468.5746    522.06111      411.537   -187.58585    36341.856 
  123800    307.09206   -1489.6842    491.87058    390.82251   -212.94255    36341.856 
  123900     300.2344   -1489.3234    475.88769     344.1909   -217.95426    36341.856 
  124000     297.3607   -1500.2449    488.57997    332.96711   -334.48265    36341.856 
  124100    308.18034   -1446.6783    487.34734     434.2263    64.766801    36341.856 
  124200    292.64313   -1448.0275    485.60652    360.87871     223.6957    36341.856 
  124300    299.28674   -1447.4543    501.81363    407.70066    260.98236    36341.856 
  124400    295.17683   -1437.4008    501.96612    399.32217   -213.02919    36341.856 
  124500    291.62887    -1452.653    483.02197    349.08231   -211.79175    36341.856 
  124600    303.96992    -1465.934    483.17546    391.75962   -198.01515    36341.856 
  124700    298.01586   -1453.7272     487.9153    381.78269   -633.25741    36341.856 
  124800    300.84955   -1460.9335    483.40115    382.87584    175.00759    36341.856 
  124900    293.73129   -1495.0989    489.76999    322.89135   -889.03409    36341.856 
  125000    306.61879   -1473.8617    488.29357    400.92796   -712.44123    36341.856 
  125100     300.9423   -1485.1162    490.71783    366.42929   -408.94305    36341.856 
  125200    290.90747   -1451.5284    511.79517      375.718   -658.83453    36341.856 
  125300    300.51297   -1457.2642    487.57336    389.19542   -182.93416    36341.856 
  125400    300.69171   -1449.8939    496.68336    406.48394   -673.17166    36341.856 
  125500    306.60779   -1488.5315    469.72726    367.64208   -228.75494    36341.856 
  125600    310.63551   -1476.0176    497.54481    426.18647   -527.82056    36341.856 
  125700     288.4143    -1501.314    494.58838     297.4518   -309.57194    36341.856 
  125800    301.01882    -1502.964    467.25224    325.46185    -133.3636    36341.856 
  125900    304.04056   -1463.7844    476.50148    387.55469   -55.585851    36341.856 
  126000    299.74541   -1468.9601    470.95451    357.40983    308.78685    36341.856 
  126100    305.65744   -1495.5705    488.29072     374.8692    -55.86052    36341.856 
  126200    305.99165   -1464.9124    492.53781    411.28569     98.07255    36341.856 
  126300    298.93473   -1474.7481     502.2867    379.28826    429.27825    36341.856 
  126400    295.93291   -1520.1169    478.65041    296.70927   -1.6855953    36341.856 
  126500    292.62785   -1494.9322    515.15151    343.44991    458.47094    36341.856 
  126600    307.01924   -1484.7518    491.72188    395.27696    427.44801    36341.856 
  126700    310.96308   -1508.8986     494.2655    391.50736    242.66012    36341.856 
  126800    294.26629   -1485.1167    524.50916    370.03189   -249.93823    36341.856 
  126900    300.09855   -1510.8279    491.39029    337.57469   -159.61142    36341.856 
  127000    295.53046   -1492.2686    507.68325     351.7705   -500.52841    36341.856 
  127100    303.33398   -1505.3831    523.05303    389.31247    4.5586065    36341.856 
  127200    309.35532   -1509.9157    452.29061    341.24531   -150.31434    36341.856 
  127300    312.08906   -1516.1286    515.36509    410.46854    347.15251    36341.856 
  127400    288.81628   -1513.7258    489.35612     281.6254    187.33549    36341.856 
  127500    290.10138   -1485.0009    492.52208    319.32737    102.75195    36341.856 
  127600    302.54044   -1495.6217    477.96987    350.40242   -289.66694    36341.856 
  127700     293.8409   -1496.3098    483.42409    315.83021   -380.84789    36341.856 
  127800    300.01274   -1493.7678    480.75565     343.6121   -280.27102    36341.856 
  127900    294.06319   -1489.1629    496.52327    337.08145   -269.47071    36341.856 
  128000    296.09903   -1438.6966    528.45025    428.68053   -310.84402    36341.856 
  128100    303.04535   -1478.6023    487.64085    379.37601   -4.6805285    36341.856 
  128200    299.24997   -1524.8966    464.25284    292.53134    45.551655    36341.856 
  128300    296.90709   -1479.1722    493.27957    356.68823    294.12673    36341.856 
  128400    301.29186   -1500.1176    474.66078    336.95144   -728.80497    36341.856 
  128500    301.15942   -1481.0988    493.93951    374.65014    175.28329    36341.856 
  128600    288.84836   -1466.0133    491.40135    331.52824   -423.86961    36341.856 
  128700     296.6922   -1514.4725    469.62226    296.75887   -326.82712    36341.856 
  128800    292.12498   -1493.8164    486.86989    314.01023   -436.94011    36341.856 
  128900    303.72078   -1489.5222    496.75567    380.62511    730.93341    36341.856 
  129000    293.56946   -1504.8975    502.20349    324.79441    286.19054    36341.856 
  129100    297.69739    -1479.092    481.49452    348.55702    324.69844    36341.856 
  129200    299.29766   -1482.7153    496.24365    366.91913    169.81453    36341.856 
  129300     299.0682   -1497.1278    489.39325    344.61859    96.608861    36341.856 
  129400    304.55421   -1507.1976    482.36478    352.32748    738.50801    36341.856 
  129500    292.18807   -1467.5902    468.79911    322.45093    440.19079    36341.856 
  129600    292.70862   -1485.4412     465.2588    303.41349    331.04403    36341.856 
  129700     287.0071   -1471.0835    488.61319    315.34389    73.735763    36341.856 
  129800     291.2958   -1470.3332    490.25303    337.12711    271.06343    36341.856 
  129900    303.70413   -1418.1884     513.8207    468.94858    148.04328    36341.856 
  130000    310.34043   -1464.7713    478.63641    417.19005   -300.40743    36341.856 
  130100    299.55512   -1472.3971    505.06833    387.22623   -178.39621    36341.856 
  130200    310.94471   -1522.0869    498.02573    381.99619    88.656392    36341.856 
  130300    299.81035   -1488.0282    468.47947    336.16036   -369.26375    36341.856 
  130400    298.47919   -1519.4617    465.72441    295.95246    43.750607    36341.856 
  130500    306.31274   -1506.3453    459.08074    337.84762    103.07473    36341.856 
  130600    298.03277   -1515.4851     470.9322    303.11815   -577.35433    36341.856 
  130700    306.01317   -1501.4869    483.42466    365.69533   -20.661523    36341.856 
  130800    303.10457   -1505.8876    487.25294    351.97057    43.103613    36341.856 
  130900    300.75299   -1460.9365    511.86747    410.90259   -102.68903    36341.856 
  131000    293.49321   -1469.2259    483.74007    341.65786   -247.07502    36341.856 
  131100    297.29278   -1435.8507    478.84777    387.32197   -546.56429    36341.856 
  131200    299.75134   -1475.7628    510.84327    390.52276    -728.7966    36341.856 
  131300    291.05739   -1462.4804    509.74593    363.39474   -1099.6735    36341.856 
  131400     298.8468   -1472.6243    499.65622    378.38394   -1266.3859    36341.856 
  131500    312.96543   -1453.3166    487.06049    448.93871   -916.43101    36341.856 
  131600      299.871   -1464.2585    486.89433    378.61913    60.453398    36341.856 
  131700    304.91064    -1479.658    497.54367    396.65768    -212.1738    36341.856 
  131800    303.93174   -1452.5671    502.41668    424.19507    172.87785    36341.856 
  131900    297.67531   -1469.0979    496.88607    373.84284    18.123595    36341.856 
  132000    308.03022   -1448.3829    484.77249    429.26796    294.05792    36341.856 
  132100    292.42664   -1464.6463    510.90865    368.58307   -2.6627246    36341.856 
  132200    302.23087   -1456.1255    490.37224    400.90112   -21.912057    36341.856 
  132300    293.09028   -1506.4109    509.14161    328.05239      184.715    36341.856 
  132400    305.19761   -1499.4528    510.41695    391.03386    6.9744225    36341.856 
  132500    298.29966   -1523.1012    495.46394    321.24062    -25.97074    36341.856 
  132600    303.11134   -1482.7318    471.41846    359.32244   -151.57243    36341.856 
  132700    304.35293   -1480.6272    478.96252    374.58547   -608.58505    36341.856 
  132800    307.46419   -1504.9846    489.07533    374.40968   -582.40914    36341.856 
  132900    308.44452   -1480.3359    506.77202    421.18792    120.16986    36341.856 
  133000    302.54131   -1500.2668    518.54913    386.34047    60.504427    36341.856 
  133100    300.70356   -1491.0908    489.52062    358.17788    542.16272    36341.856 
  133200    310.93446    -1499.709    522.79978    429.10181     562.0984    36341.856 
  133300    295.91584   -1495.3052    500.16798    342.96135    628.43342    36341.856 
  133400    301.65219   -1494.2792    478.53047    348.28898   -96.919949    36341.856 
  133500    293.81219   -1482.1759    519.20415    365.61436    371.04229    36341.856 
  133600    310.08251   -1486.8972    499.76809    415.02951    589.85975    36341.856 
  133700    313.59312   -1480.5313    510.76431    448.26621    272.37147    36341.856 
  133800     301.8561   -1469.9178    500.50592    395.54782    211.09806    36341.856 
  133900    302.13571   -1496.3349    492.73087     362.6201   -369.30128    36341.856 
  134000    299.46936   -1478.2673    519.08342    394.98325   -492.51121    36341.856 
  134100     299.9619   -1490.0173    467.89981    334.27683   -110.14149    36341.856 
  134200    305.35356   -1495.6326    506.69134     391.8336    250.67518    36341.856 
  134300    304.44569   -1495.0985    525.06704    406.63806    823.26676    36341.856 
  134400     298.6955    -1517.388    487.29955    320.57939    761.97097    36341.856 
  134500    291.16645   -1534.7107    515.06463    296.97624   -118.20863    36341.856 
  134600    300.90495   -1499.9629    495.08958    355.78538    584.78725    36341.856 
  134700    295.63901   -1495.0901    473.73351    315.49014    65.283391    36341.856 
  134800    299.41865   -1490.6376    487.70832    351.00857   -101.21658    36341.856 
  134900    300.57716    -1523.768    509.44782    344.85627   -435.27641    36341.856 
  135000    295.40414   -1509.6756    492.16962    318.27869   -101.34493    36341.856 
  135100    292.11083   -1550.4391    501.96312    272.41676   -394.66287    36341.856 
  135200     295.1883   -1516.6605    498.56801    316.71619    371.88209    36341.856 
  135300    298.81402   -1479.7355    495.46343    366.93167     730.3984    36341.856 
  135400    307.89928   -1495.2296    501.19141    398.24813    478.52032    36341.856 
  135500    302.52155    -1533.793    493.90569    328.08157     180.6745    36341.856 
  135600    303.03803   -1530.9516    504.41875    343.77144   -311.46761    36341.856 
  135700    300.63547   -1536.5694    491.42161    314.29235   -185.23857    36341.856 
  135800    294.16442   -1528.3635    502.91514    304.73049    305.21405    36341.856 
  135900    304.90081   -1561.6088    492.84882    309.96757    228.42406    36341.856 
  136000    310.41085   -1555.4765    494.70023    342.86704     197.6156    36341.856 
  136100    291.35118   -1559.7426    487.03909    244.75408    265.40141    36341.856 
  136200    292.29937   -1538.7795       474.01    256.97576     -23.0327    36341.856 
  136300    301.96587   -1513.0071    511.55936    364.00833    -429.0287    36341.856 
  136400    307.01789   -1507.0287     484.3081    365.58013   -519.03379    36341.856 
  136500    312.35796   -1517.6605    496.93306    391.72049   -80.700224    36341.856 
  136600     299.1484     -1536.23    503.71199     320.1978   -169.43752    36341.856 
  136700    289.07862   -1502.4902    506.65527    311.34641   -437.32745    36341.856 
  136800    299.90743   -1510.6518    492.98147    338.47776    -24.45833    36341.856 
  136900    297.11983    -1504.304    493.49105    332.72994    423.22683    36341.856 
  137000    293.67715   -1481.2407    504.11581    350.85053     599.6448    36341.856 
  137100    310.90651   -1467.0346    484.11182    422.96193    488.76446    36341.856 
  137200     306.1909   -1456.3852    513.77011    441.94608   -157.91689    36341.856 
  137300    293.05495   -1462.7853    500.21091     362.5875   -335.97339    36341.856 
  137400    286.13347   -1494.9048     514.8702     313.8291   -212.24947    36341.856 
  137500    297.06162   -1456.6891     495.7468    382.33728    190.99774    36341.856 
  137600    294.35906   -1482.2415    473.80336    322.62083   -916.62813    36341.856 
  137700    301.16556   -1472.7115    485.33422     374.4599   -170.94055    36341.856 
  137800    295.21738   -1534.0243     487.0394    287.95531   -512.76389    36341.856 
  137900    303.54545   -1538.7115    491.34727    325.23456   -45.544632    36341.856 
  138000    299.54492   -1528.8431     485.3451    311.01084   -708.97097    36341.856 
  138100    314.70821   -1537.5024    436.65586    322.22899   -207.69341    36341.856 
  138200     311.4163    -1499.416    476.19972     384.9736   -346.18123    36341.856 
  138300    309.51785   -1530.5111    481.73884    350.83312   -119.26637    36341.856 
  138400     293.5612   -1498.4488    473.44024    302.44254    -476.6814    36341.856 
  138500     295.5678   -1490.0036     470.7052    317.22633   -831.51242    36341.856 
  138600     288.8589   -1494.7996    477.63489    289.02318    -683.3936    36341.856 
  138700    297.62309   -1541.8119    496.48882    300.49544   -542.73798    36341.856 
  138800    302.01071   -1541.1283    512.83938    337.36994   -356.18207    36341.856 
  138900    303.19579   -1545.0971    480.56072    306.48132   -747.56762    36341.856 
  139000    302.92905    -1496.371    490.53562    363.97606   -372.07611    36341.856 
  139100    303.02094   -1513.8187    476.75968    333.16796    37.962474    36341.856 
  139200    299.97645   -1591.7883    501.70095    266.37285    70.287096    36341.856 
  139300     305.9218   -1553.1411    477.91673    308.12006    203.34639    36341.856 
  139400    294.56011   -1538.5048    481.80148    275.26474    325.67442    36341.856 
  139500     296.9847   -1543.5206    493.10204    292.51327      621.052    36341.856 
  139600    297.34832   -1583.0811    510.30644    271.80139    1052.8738    36341.856 
  139700    308.42795   -1551.9204    480.98705    323.74354    959.09803    36341.856 
  139800    303.28736   -1559.1785    486.15314    298.40633    111.55296    36341.856 
  139900    302.57319   -1555.0633    451.71719    264.85628    -430.7041    36341.856 
  140000    303.43385   -1571.6065    484.50437    284.99199   -763.26308    36341.856 
  140100    299.51678   -1541.2378    489.25255    302.39635    -1550.094    36341.856 
  140200    307.05525   -1522.4162    471.08353    337.13707   -1543.0322    36341.856 
  140300    299.23045   -1500.6586    482.54665    334.97483   -1208.6043    36341.856 
  140400    300.08558   -1508.6542    470.43129    318.73076    -1229.616    36341.856 
  140500    308.42803   -1441.3468    503.46188     456.7923   -841.04046    36341.856 
  140600    292.86713   -1523.5886    464.84287     265.5669   -390.74308    36341.856 
  140700    302.55654   -1555.7972    495.60901    307.93883    39.516213    36341.856 
  140800    299.75429   -1546.2565    498.78129    307.98043     62.44384    36341.856 
  140900    298.81906   -1528.2726    500.78714     323.7411    52.157617    36341.856 
  141000    305.02619   -1485.9565    492.88296    386.22095   -414.69177    36341.856 
  141100    308.88534   -1500.1048    516.63416    413.27457   -285.92387    36341.856 
  141200    300.00542   -1471.6801    480.29267    365.20377    92.342097    36341.856 
  141300    303.53322   -1507.4692    504.59771    369.67199   -180.75987    36341.856 
  141400    295.18462   -1502.5589    490.17302    322.40613    65.938803    36341.856 
  141500    297.29797   -1520.6616    506.88752    330.57433   -33.437645    36341.856 
  141600    296.18894   -1502.7732    524.84752    361.40781    769.52329    36341.856 
  141700    293.90637   -1499.6126    514.22942    343.62875    599.74658    36341.856 
  141800    307.74272   -1535.1769    477.44787     333.8494    312.51982    36341.856 
  141900    302.98407     -1502.09    508.02851    375.99886    641.31102    36341.856 
  142000    305.29215   -1528.5084    517.57345    369.56226   -238.38795    36341.856 
  142100    294.02311   -1552.6216    486.97653    263.89473   -542.07677    36341.856 
  142200    297.82109   -1544.5202    501.63002    303.82363   -102.26397    36341.856 
  142300    305.13183   -1523.0702    516.01395    372.71591   -92.949125    36341.856 
  142400    291.67854   -1519.0289    494.67708     294.5861   -243.34676    36341.856 
  142500    301.42987   -1515.1362    492.63174    340.52792    -243.5053    36341.856 
  142600    302.26185   -1558.7639    486.43685     294.4674   -161.93068    36341.856 
  142700    298.02904   -1507.4363    502.73633    342.95418   -463.66765    36341.856 
  142800    297.79555   -1539.6059    525.72058    332.71309   -443.04749    36341.856 
  142900    309.58999   -1545.0796    489.95555    344.80752   -146.34011    36341.856 
  143000    301.65067   -1523.0457    527.02381    368.00894   -141.81887    36341.856 
  143100    308.75302   -1530.1261    486.40877    352.42953    110.25731    36341.856 
  143200    295.89043   -1563.2118    479.43659    254.20843   -479.66898    36341.856 
  143300    298.58589   -1551.9206    507.38494     305.6366    73.004359    36341.856 
  143400    305.94256   -1555.8247     489.1449    316.75846   -54.858525    36341.856 
  143500    300.15548   -1574.0003    481.42781    264.69721   -524.33776    36341.856 
  143600    303.40121   -1536.6462     507.2387    342.53903   -591.38678    36341.856 
  143700    292.64896   -1548.0246    474.05826    249.35972   -115.59514    36341.856 
  143800    308.20411   -1517.6108    487.41216    363.46611   -569.84592    36341.856 
  143900    289.50896   -1566.1599    502.15161    245.11906   -376.33329    36341.856 
  144000    303.74922   -1534.0188    500.20648    339.70783   -128.50022    36341.856 
  144100    296.96205   -1512.4987    534.53347    364.86417   -64.096988    36341.856 
  144200    306.77375    -1498.833    515.50795    403.87171   -346.17314    36341.856 
  144300    301.25246   -1509.1479    514.17079    367.25306   -187.59911    36341.856 
  144400    288.16636   -1518.1876    488.60992    273.47859    623.68759    36341.856 
  144500    296.07957   -1521.1187    483.80397    301.52417    500.13575    36341.856 
  144600    304.51344   -1512.1013     526.8304    391.70505    1400.9762    36341.856 
  144700    300.74141   -1536.8962    505.70542    328.72847    731.57898    36341.856 
  144800    306.38832   -1501.6089    528.08713    411.93219    438.30956    36341.856 
  144900     289.8983   -1489.4851    483.83136    305.23418    195.24797    36341.856 
  145000    303.97272   -1511.0132     496.8995    360.41711    163.79642    36341.856 
  145100    291.76691   -1484.9852    505.79355    340.14586    34.608084    36341.856 
  145200    304.14217   -1523.5863    487.00998    338.72072    75.940065    36341.856 
  145300    294.91451   -1516.3989     506.5814    323.75311   -271.73539    36341.856 
  145400    294.95675   -1541.1788    503.69377    296.27657   -69.387257    36341.856 
  145500    304.96204   -1533.3847    504.89698     350.5167   -168.36366    36341.856 
  145600     294.5214   -1530.9885    507.56512    308.36966   -450.39259    36341.856 
  145700    292.11053   -1523.8626    493.62263     290.6514   -782.55044    36341.856 
  145800    296.73721    -1526.767    500.83565    315.88135   -618.93644    36341.856 
  145900    289.63959   -1547.5777     492.4577    254.59799   -144.20785    36341.856 
  146000    291.18251   -1516.8394    496.28359    296.13916    145.70025    36341.856 
  146100    304.88413   -1521.2981    523.79014    381.14423    781.65392    36341.856 
  146200    301.18206    -1525.179    493.83361     330.5664    183.26324    36341.856 
  146300    311.98199   -1508.0172    493.43085    396.16151    198.64056    36341.856 
  146400    297.19621   -1544.2757     507.1323    306.74485   -486.06277    36341.856 
  146500    300.37345   -1531.1419    526.76389    353.87736   -46.960329    36341.856 
  146600    304.70212   -1507.6016    473.80128    344.02875   -576.68265    36341.856 
  146700    286.76216   -1522.1258    498.01187    272.59266   -991.59296    36341.856 
  146800    304.40865   -1517.3722    488.38932    347.51914   -766.28254    36341.856 
  146900    295.28602   -1541.5327    491.68976    285.40765    -314.6753    36341.856 
  147000    301.83115    -1534.159    496.74611    327.43405   -278.93796    36341.856 
  147100    304.43153   -1514.1866       499.81    362.22895    259.47259    36341.856 
  147200    310.98063   -1529.9418     513.0452    389.32327    820.55792    36341.856 
  147300    307.50971   -1507.1587    514.24921    397.61524    1154.4726    36341.856 
  147400    301.59431   -1507.2558    492.14289    348.66305    502.43051    36341.856 
  147500    297.71189   -1548.1907    493.05026    291.07962    184.23138    36341.856 
  147600    301.98816   -1539.7008    505.01029    330.86638   -40.816152    36341.856 
  147700    292.54941   -1522.0782    489.17868    289.97635    -806.8441    36341.856 
  147800    302.53863    -1564.246    473.10154    276.90157     148.0053    36341.856 
  147900    298.18608   -1548.3961    486.69369    286.66186   -372.87763    36341.856 
  148000    309.56541   -1542.2072    485.14888    342.76204   -222.24942    36341.856 
  148100    304.89321   -1518.3183    510.85877     371.2337     440.6034    36341.856 
  148200    305.59816   -1527.6603     503.3159    357.53649    424.83686    36341.856 
  148300    293.09336   -1541.0186     514.6887    299.00565    478.17088    36341.856 
  148400    300.91138   -1497.3781    510.76328    374.07303     635.8802    36341.856 
  148500     299.1498   -1516.8909    490.81555    326.64675    371.44793    36341.856 
  148600    291.25387   -1479.0609    495.45367     333.4104    182.21159    36341.856 
  148700    293.28301   -1520.2741    503.45532    309.37441    486.77036    36341.856 
  148800    304.16664   -1499.3393    491.95154    368.02004    381.62831    36341.856 
  148900    308.70161   -1493.2993    479.71909    382.33418   -105.78428    36341.856 
  149000    306.70285   -1546.2025    496.64301    337.31672    -303.3696    36341.856 
  149100    305.09931   -1511.8648    472.42981    340.19013   -362.50168    36341.856 
  149200    296.16163   -1547.0613    484.15747    276.30613   -415.57279    36341.856 
  149300    302.36289   -1527.3319    506.75966     346.6792    -132.3678    36341.856 
  149400    292.95393   -1538.3259    495.57268    281.95192   -441.39306    36341.856 
  149500    296.12251   -1513.0604    469.98395    295.95666   -1049.3912    36341.856 
  149600    300.00373      -1506.8    473.83547    323.61897   -646.70669    36341.856 
  149700    301.75199   -1496.0247    481.72585    350.19009   -957.57096    36341.856 
  149800    299.41713   -1439.3629    529.58968    444.15772   -369.52539    36341.856 
  149900    296.08596   -1454.8115    465.96339    350.01971   -108.32307    36341.856 
  150000    300.90464   -1461.0077    519.00568    418.65537   -519.17464    36341.856 
  150100    306.23491   -1477.9176    492.78646    399.62907   -225.05131    36341.856 
  150200    297.10131   -1455.4673    528.91347    416.90524   -247.14054    36341.856 
  150300       293.03   -1514.9017    489.92242     300.0698   -462.76341    36341.856 
  150400    301.27475   -1536.8628    496.96664    322.43474   -238.16797    36341.856 
  150500    296.03868   -1581.1425    471.16311    228.67467   -237.63661    36341.856 
  150600    304.26107   -1550.3025    502.59875    328.13094   -54.192238    36341.856 
  150700    288.87799   -1527.1505    449.11389    228.23756   -159.55476    36341.856 
  150800    290.11158   -1550.3629    476.86667    238.35605    33.979576    36341.856 
  150900    296.59256   -1545.2064    507.39302    303.34516    502.92388    36341.856 
  151000     299.0899   -1548.9483    496.33411    299.83711    83.603892    36341.856 
  151100    304.18997   -1566.2552     486.2386     295.4966    992.98368    36341.856 
  151200    293.13484   -1538.1817    482.19417    269.53568   -467.69769    36341.856 
  151300    314.28179   -1520.4734    484.21171    384.88558   -116.04639    36341.856 
  151400     297.9671   -1528.5123    498.67778    317.53958   -454.68471    36341.856 
  151500     306.0604   -1524.6008    502.02776    361.39806    -71.59807    36341.856 
  151600    306.71583   -1525.9288     479.2058    340.21186    55.437557    36341.856 
  151700     300.6864   -1516.3575    475.93373    319.24672   -159.45691    36341.856 
  151800    304.66087   -1461.3895    468.52577    384.77888    -190.0525    36341.856 
  151900    304.73951   -1530.9672    490.58463    337.61563   -45.663297    36341.856 
  152000    300.33028   -1484.0208     514.8661    388.90548    331.12048    36341.856 
  152100    300.15738   -1447.2697    477.86158    387.87016    613.87253    36341.856 
  152200    294.45109   -1456.5996    487.40426    362.27976    165.34491    36341.856 
  152300    303.46959   -1521.6735    489.60857    340.19086    175.74318    36341.856 
  152400    291.47053   -1510.8613    501.76198      308.898   -500.83605    36341.856 
  152500    302.10269   -1508.3173    504.52418    362.28173    23.824642    36341.856 
  152600    293.95741   -1480.5619    499.95123    348.63209   -248.59534    36341.856 
  152700    296.38856   -1420.2674    522.71638    442.68516    89.429676    36341.856 
  152800     296.0411   -1413.1689    496.17615    421.67221    232.53719    36341.856 
  152900    293.59524   -1412.9492    506.81865    421.47447    263.10314    36341.856 
  153000    298.22846   -1439.9023    525.77292    434.42651   -152.16373    36341.856 
  153100    292.34902   -1459.0699    498.97999    361.87983   -67.663521    36341.856 
  153200    300.69132   -1447.2575    493.92842     406.3637    320.66436    36341.856 
  153300    302.37695   -1492.8845    507.39154    381.82197    358.99396    36341.856 
  153400    297.80087   -1464.1469    499.83562    382.31115   -243.17977    36341.856 
  153500    291.57387   -1506.6625    490.19276    301.99485    361.44775    36341.856 
  153600    314.60721   -1477.8014    492.65226    437.46971    913.18482    36341.856 
  153700    290.83764   -1458.9274    513.46211    369.67021    295.83868    36341.856 
  153800    292.28212   -1493.2753    507.39339    335.78534    61.782898    36341.856 
  153900    293.23596   -1507.4314     478.8654    297.41445    133.90756    36341.856 
  154000    296.63914   -1460.8943    494.66092    375.13585     221.0431    36341.856 
  154100    297.56509   -1510.6604    496.09532    330.99116    243.83664    36341.856 
  154200    294.90939   -1482.0585    503.95565    355.44462   -54.195914    36341.856 
  154300    294.47285   -1548.2923    468.77049    252.05171   -129.79395    36341.856 
  154400      291.204   -1498.8685    468.31098    286.23457   -592.40609    36341.856 
  154500    291.51478   -1511.3646    487.14738    293.98015   -776.03524    36341.856 
  154600    297.63214   -1504.6434    495.15588     336.3719    -474.7663    36341.856 
  154700     306.5027   -1523.6224    471.24204    333.59078   -689.93865    36341.856 
  154800    307.29403   -1491.3645    482.18771     380.3727    222.22445    36341.856 
  154900    292.88529   -1530.5802     503.6383    297.45283    247.78998    36341.856 
  155000    293.58921    -1482.706      498.413    343.28479    444.26953    36341.856 
  155100    307.36146   -1530.7334    506.06177    365.18271    425.86549    36341.856 
  155200    294.06798   -1519.5619     508.0513    318.23213    22.560775    36341.856 
  155300    298.27495   -1532.3371    487.83789    304.26699     110.1022    36341.856 
  155400    293.35804   -1472.2408    511.28801    365.57967   -17.791294    36341.856 
  155500    293.55541   -1543.1616    502.93675    287.20015   -264.26496    36341.856 
  155600    304.06559   -1504.8258    487.46258    357.58757    322.57754    36341.856 
  155700     306.3032   -1483.9889    509.86228    410.94241   -8.8028802    36341.856 
  155800    293.42587    -1445.801     510.8052    391.84337    245.76445    36341.856 
  155900    295.65235   -1508.4097    502.86498    331.36236   -123.69468    36341.856 
  156000     299.1472   -1483.4208     499.6469    368.93648    -251.3444    36341.856 
  156100    298.02112   -1510.1852    485.90464    323.33781    120.68492    36341.856 
  156200    294.93266   -1548.6755    471.40545     256.3826    360.00393    36341.856 
  156300    307.68094   -1540.5678    498.43433    349.16559   -30.851387    36341.856 
  156400    313.96444   -1484.2753    502.68056    438.11756    113.48132    36341.856 
  156500    299.98862   -1503.9187    504.37945    356.97598    409.47122    36341.856 
  156600    300.72517   -1527.9241    483.12367    315.04539    799.17217    36341.856 
  156700    311.07766    -1504.229    497.37702    399.80663   -187.70157    36341.856 
  156800    300.29538   -1481.5446    518.50526    394.86302    389.68156    36341.856 
  156900     296.8955   -1456.3773    497.87064    384.02184    407.27049    36341.856 
  157000    303.77391   -1483.1575    521.29136    411.76571    438.62991    36341.856 
  157100    288.44571   -1482.9836    510.98124    332.31709   -451.53443    36341.856 
  157200    296.67474   -1437.6642    495.21638    399.08231   -313.71181    36341.856 
  157300    311.14409   -1476.4207    484.42265    414.96094   -436.80888    36341.856 
  157400    291.96325   -1516.5749    515.04616     318.6966   -29.127011    36341.856 
  157500    302.70912   -1501.3653    517.77701    385.22873    13.611361    36341.856 
  157600    302.35698   -1500.1794    506.09204    373.13726    12.806576    36341.856 
  157700    302.61968   -1492.0654    511.58801    387.93512    401.87283    36341.856 
  157800    293.17344   -1510.5527    495.77727    310.92231    785.44869    36341.856 
  157900    297.04107   -1469.4985    505.85634     379.5445    973.21715    36341.856 
  158000    298.88982   -1491.0854    517.65779    378.11899    885.07718    36341.856 
  158100    298.09849   -1444.5504    511.67142    415.08925    597.56725    36341.856 
  158200    314.43067   -1441.6158    509.78126    489.98596    959.83709    36341.856 
  158300    293.93627   -1485.7258    524.25653     367.6779    256.59502    36341.856 
  158400    297.17144   -1494.4049    510.36477    359.73607     127.9873    36341.856 
  158500    302.68352   -1501.3893    526.17183     393.4837    533.33211    36341.856 
  158600    298.62502   -1471.4826     517.7499    396.61643    445.32676    36341.856 
  158700    308.18105   -1492.0452      488.361    389.87628    20.754349    36341.856 
  158800    287.27131   -1510.4239    487.58599    276.17098    -77.38973    36341.856 
  158900     295.7669   -1526.2719    504.09578    315.24892     190.6728    36341.856 
  159000    304.97999   -1501.6337    514.36825    391.82017    397.68423    36341.856 
  159100    309.82699   -1463.1721    512.88436    450.71549   -8.7870514    36341.856 
  159200    302.55957   -1503.5407    492.86062    357.46073    190.38248    36341.856 
  159300      302.101    -1437.079    498.92078    427.90891   -337.75753    36341.856 
  159400    308.11714   -1453.6653    484.68883    424.29498   -71.860816    36341.856 
  159500    301.15281   -1438.3215      511.097    434.55502    32.344369    36341.856 
  159600    297.87402   -1440.6681    509.70419    415.98929   -360.96447    36341.856 
  159700    285.41216   -1472.1389    487.95194    306.41505   -71.807891    36341.856 
  159800    296.21554   -1479.7612    499.64365    359.33619    297.33503    36341.856 
  159900    298.33928   -1489.2885    516.47097     376.2395    431.79983    36341.856 
  160000    298.85436   -1512.9891    501.43786    339.83491    308.05887    36341.856 
  160100    302.78163    -1497.645    508.12707     379.6269    370.75907    36341.856 
  160200    304.33413    -1491.011    492.11786    377.27201    919.08512    36341.856 
  160300    308.77582   -1455.4438    489.68831     430.4944    970.09746    36341.856 
  160400    297.65947   -1488.4463    483.91497    341.45174    426.82775    36341.856 
  160500    304.84659   -1504.3483    492.74853    366.88265    947.72951    36341.856 
  160600    293.96405   -1466.9035    508.27279    370.64204    691.75564    36341.856 
  160700    314.69169   -1449.7982    474.65275    447.85544    1218.0079    36341.856 
  160800    299.34487   -1466.6071      500.503    387.50012    579.86979    36341.856 
  160900    301.64787   -1506.1854    505.18836    363.02115    316.00473    36341.856 
  161000    300.01442   -1488.8782    489.54545    357.29916    415.33699    36341.856 
  161100     304.3695   -1482.3483    496.25813    390.23488      553.295    36341.856 
  161200    306.38231   -1451.2592    475.53144    409.69896    566.51313    36341.856 
  161300     296.5221   -1475.3133    490.80167    356.32831    -9.375102    36341.856 
  161400    306.33281   -1473.7217    492.19838    403.67963     554.4461    36341.856 
  161500    295.84733   -1539.9028    471.07124    268.95717    191.53113    36341.856 
  161600    304.53693   -1503.6222    474.39582    347.85577    -130.6796    36341.856 
  161700    307.52052   -1509.6827    499.09968    379.99063      97.1488    36341.856 
  161800    303.41929   -1537.8053    487.18364    321.40659   -28.226811    36341.856 
  161900    295.44524   -1518.4366    499.75038    317.28427    130.15987    36341.856 
  162000    297.40695   -1456.6059    468.91192    357.14718   -445.81761    36341.856 
  162100    316.50848   -1466.2483    485.47406    450.44195   -48.466059    36341.856 
  162200    298.12087   -1463.2642    510.32413    395.12936   -160.11619    36341.856 
  162300    300.35494   -1472.9685    509.49336    394.69647   -141.02881    36341.856 
  162400    300.42119   -1451.3981    523.11087    430.18401    239.75206    36341.856 
  162500    276.09416   -1496.7188    490.32156    242.06982   -20.058309    36341.856 
  162600    298.80198   -1486.7921     503.1245     367.4818     4.977576    36341.856 
  162700    301.14234   -1514.1983    503.74924    351.28308   -751.65534    36341.856 
  162800    296.32348   -1489.8118    486.04309    336.17309   -580.12332    36341.856 
  162900    283.40375   -1486.7159    501.20924    296.01354   -95.839029    36341.856 
  163000    298.62007   -1493.2512    529.60621    386.68174   -175.32493    36341.856 
  163100    290.35913   -1512.6045    487.87426     288.2415   -11.989851    36341.856 
  163200    298.72532   -1544.3764    515.62422    322.05049    191.28747    36341.856 
  163300    294.52442   -1538.1052    519.24189    312.94335    746.91487    36341.856 
  163400    303.18785    -1507.505    513.61209    377.08884     587.0157    36341.856 
  163500    306.42102   -1488.2846    495.84738    393.16456    1316.9836    36341.856 
  163600    310.08473   -1505.8471    504.28215    400.60376     1025.936    36341.856 
  163700    313.73825   -1513.8233    504.32484    409.19102    610.05745    36341.856 
  163800     292.8088   -1541.1507    476.74511    259.64321   -342.76768    36341.856 
  163900    295.51422   -1504.8715    500.42123    331.83219   -429.09699    36341.856 
  164000     303.2866   -1498.8338    484.22404    356.81851     -191.216    36341.856 
  164100    301.52824   -1486.2236    480.09834    357.35195    471.13666    36341.856 
  164200    291.48114   -1517.0994    483.63779    284.58368    115.41763    36341.856 
  164300    305.09759   -1498.5474    504.61499    385.68502    182.09703    36341.856 
  164400    295.45659   -1497.2979    509.41095    348.13497    464.01845    36341.856 
  164500    295.33782   -1480.8307    505.66673    360.32081    76.841736    36341.856 
  164600    293.40535    -1488.404    502.67273    341.01511    278.22862    36341.856 
  164700    295.11779   -1518.8207    513.54252    329.21161   -221.39248    36341.856 
  164800    293.31464   -1485.4454    502.74945    343.64023    333.93351    36341.856 
  164900    304.79261   -1472.5903    488.09371    393.74169    3.0149823    36341.856 
  165000    300.87224     -1460.12    530.31478    430.70562   -159.21303    36341.856 
  165100    293.95651   -1468.0011    487.84948    349.08705    638.03988    36341.856 
  165200    305.99151   -1493.6509    507.24564    397.25429   -665.94235    36341.856 
  165300    308.06243    -1453.825    521.98589    461.18496   -500.32148    36341.856 
  165400    297.83878   -1477.9369    498.82831    367.68529   -40.834194    36341.856 
  165500    300.43894   -1515.8292      502.642    345.36432   -69.852508    36341.856 
  165600    298.41469   -1476.4287    520.29997    393.26928     376.7451    36341.856 
  165700    307.34999   -1505.3612    496.59154    381.03283     341.2938    36341.856 
  165800    296.95012   -1556.9357    475.92868    261.76838    433.60616    36341.856 
  165900    300.07449    -1538.742    504.88055    323.04199    664.36484    36341.856 
  166000    298.25877   -1504.4764    517.40243    361.61906    254.27931    36341.856 
  166100    300.06598   -1489.2236     487.6315    355.27294    111.77136    36341.856 
  166200    302.36139   -1550.4646     475.5082    292.28822    106.76655    36341.856 
  166300    292.00837    -1536.091     515.3475    299.68587    197.11258    36341.856 
  166400     308.9096   -1531.5916    483.45637    348.71968    196.12289    36341.856 
  166500    298.30164   -1547.2598    476.32249    277.94952   -223.05731    36341.856 
  166600    295.58012   -1560.2968     505.9564    282.24008    586.60451    36341.856 
  166700    291.42635    -1544.217    503.50738    277.08793    157.86696    36341.856 
  166800    298.42782   -1529.4429     482.7511    302.76568   -262.98197    36341.856 
  166900    313.82313   -1514.8341    474.35351    378.59272   -435.93704    36341.856 
  167000    308.19543   -1502.8496    499.79758    390.57344   -530.03803    36341.856 
  167100    300.63357   -1508.1285     481.5061    332.80922    -671.8405    36341.856 
  167200     306.0699   -1482.1137    512.12828    414.02861   -189.11107    36341.856 
  167300    293.03508   -1511.3008    507.95009    321.72136   -904.35275    36341.856 
  167400    303.22973   -1503.9221    452.72473    319.97381   -423.69726    36341.856 
  167500    300.60906   -1496.3887    526.67065    389.60268    70.318846    36341.856 
  167600    286.40291   -1519.1921    487.32125    263.21131   -392.03435    36341.856 
  167700    299.31948    -1503.908    496.63094    346.21232   -205.47825    36341.856 
  167800    309.88102   -1506.7343    480.76028    375.27352    441.78041    36341.856 
  167900    299.03407   -1521.2593    493.18408    324.12367    938.62808    36341.856 
  168000    295.23425   -1501.8956    505.87985    339.00068    775.26096    36341.856 
  168100    306.02163   -1494.7193    513.37719    402.45365    370.35465    36341.856 
  168200    290.17596   -1513.1961    516.02767    314.97501    15.417985    36341.856 
  168300    307.59019   -1489.2795    495.77621    397.38535    305.57188    36341.856 
  168400    309.34269   -1443.9364     509.7837    464.66057   -424.11624    36341.856 
  168500    290.24276   -1469.1186    509.14824    352.47515    -290.3158    36341.856 
  168600       286.86   -1489.7968    506.48151    313.83374   -79.988054    36341.856 
  168700    304.69562   -1458.8631    495.01697    413.95361   -164.63593    36341.856 
  168800    289.30017    -1445.294    520.20959    383.09876   -240.23043    36341.856 
  168900    304.76742   -1463.0639    484.97952       400.04    -276.6909    36341.856 
  169000    307.11282   -1459.0427    510.02063    439.70797   -656.39139    36341.856 
  169100    301.57161   -1440.3572    523.84922    447.16532    414.79051    36341.856 
  169200    297.53526   -1431.1228    508.73114    423.02976    539.27919    36341.856 
  169300    302.32157   -1449.3027    512.63386    430.39568    318.55609    36341.856 
  169400    310.30141   -1463.2473    510.96328    450.86445     53.95333    36341.856 
  169500    302.99145   -1483.7739    492.88285    379.20264   -124.03839    36341.856 
  169600    304.01915   -1470.7452    496.58595    400.58156    280.63416    36341.856 
  169700    293.78447   -1445.1529    489.90935    373.21717    199.29196    36341.856 
  169800    284.09779   -1475.6396    535.61459    344.63363    11.245852    36341.856 
  169900    294.13811    -1482.719    501.75314    349.09397    632.77077    36341.856 
  170000    302.45354   -1466.4124     499.2165    400.46538      497.975    36341.856 
  170100    304.56385   -1503.2893     513.0656    386.98014   -129.60569    36341.856 
  170200     305.0684   -1528.0266    499.52653    350.98536   -246.72096    36341.856 
  170300    295.27684   -1538.5058    482.89526    279.59849   -236.70649    36341.856 
  170400    300.96602   -1533.1263    520.90096    348.70952   -180.10116    36341.856 
  170500    292.31491   -1552.0387    511.90299    281.67987   -590.51736    36341.856 
  170600    291.97546   -1535.9493    503.54458    287.87592   -93.945203    36341.856 
  170700    285.66794   -1553.7242    532.98402    271.01852    678.29249    36341.856 
  170800    299.25978   -1552.0836    505.00344    306.13926    524.99228    36341.856 
  170900    303.39879   -1541.5652    482.47125    312.84161    -99.30833    36341.856 
  171000    301.13598   -1499.3264    494.92601    357.30301   -321.80882    36341.856 
  171100      298.722    -1475.183    523.39598    399.00059    65.050145    36341.856 
  171200    290.86316   -1526.4894    508.74067     297.5021   -50.731872    36341.856 
  171300    298.13458   -1513.5031    511.37259    346.00092    373.46186    36341.856 
  171400    301.92876   -1536.3816    526.32748    355.23418     398.1606    36341.856 
  171500    294.53614   -1512.5342    492.40698    311.73245   -281.99359    36341.856 
  171600    294.80856   -1504.5549    504.53525    333.07189   -197.70253    36341.856 
  171700    301.50851   -1521.5954    510.22691     352.0195   -16.031245    36341.856 
  171800    293.03901    -1520.538    491.75857    296.31038   -264.26818    36341.856 
  171900    305.86192   -1545.4748    525.67325    363.27206   -58.109874    36341.856 
  172000    301.93992   -1553.2676    507.91428    319.98541   -109.79393    36341.856 
  172100    298.60199   -1536.9484    507.90332    321.19992   -350.14586    36341.856 
  172200    299.12094    -1523.076    498.28958    327.80522   -145.63278    36341.856 
  172300    308.65992   -1526.7607    544.22985    413.19493    748.34778    36341.856 
  172400    295.78774   -1561.6378    480.64369    256.52521   -181.98177    36341.856 
  172500     304.8857   -1529.0248    509.90016    359.53463   -14.464613    36341.856 
  172600    287.64975   -1489.8225    526.19609    337.09376   -291.00379    36341.856 
  172700    295.05312   -1475.3815    523.71187    382.52776      112.368    36341.856 
  172800    308.38786   -1482.8285    520.03006    431.69722    158.67957    36341.856 
  172900    305.35542   -1483.5379    531.84736     429.0927    237.34518    36341.856 
  173000    303.03339   -1461.6986    523.19645    431.78112     479.0528    36341.856 
  173100     297.6624   -1472.9043    521.36482    394.45677     204.0803    36341.856 
  173200    290.43016   -1472.4309    544.55971    385.42169   -238.54876    36341.856 
  173300    303.35472   -1455.6442    523.75884    439.85092   -326.85071    36341.856 
  173400    305.21094   -1486.3648    504.59193    398.35706     434.2556    36341.856 
  173500    303.44714   -1464.9136    522.98066    430.22125    117.30536    36341.856 
  173600    298.65728    -1458.921    507.92318    399.49723    595.45461    36341.856 
  173700    299.68507   -1440.0383    510.35916    425.46338   -218.59961    36341.856 
  173800    291.89603   -1451.8667     497.7489    365.80355   -467.95444    36341.856 
  173900    308.79369   -1473.6663    535.03906    457.70349   -299.43677    36341.856 
  174000    290.53557   -1514.7845    491.55211    290.53716   -722.23615    36341.856 
  174100    292.19098   -1504.4099    486.54109    303.38629   -839.82281    36341.856 
  174200    302.77116   -1457.6137    522.31785    433.80167   -704.61789    36341.856 
  174300    294.29975   -1496.9664    518.22251    352.04687   -399.29461    36341.856 
  174400    302.42767    -1475.499    498.94587    390.99118   -322.34433    36341.856 
  174500    301.97236   -1516.3673    509.74857    358.86664     816.8781    36341.856 
  174600    303.85588   -1518.2551    489.38588    345.13325    504.27232    36341.856 
  174700    303.17308   -1492.5442    530.07294     408.4437    113.50948    36341.856 
  174800    289.90719   -1497.4896    503.80619    317.24471    -495.0645    36341.856 
  174900    287.02925   -1492.9734     515.7509    320.69191     49.61703    36341.856 
  175000    295.81182   -1480.5963    518.30134    375.33318   -194.74122    36341.856 
  175100    300.66959   -1513.7651    474.94529    320.77462    614.89617    36341.856 
  175200    295.04088   -1548.9753    523.38558    308.55229    295.20222    36341.856 
  175300    295.54068   -1500.2484    497.62316    333.77687    321.13837    36341.856 
  175400    308.71927   -1470.9613    528.08793    453.12088   -132.76269    36341.856 
  175500    302.79521   -1492.0917    498.96462    376.07919   -20.553456    36341.856 
  175600    308.47287   -1464.4751    497.44155    427.84646    137.80946    36341.856 
  175700    291.25136   -1464.3277    510.59181    363.27036   -718.94207    36341.856 
  175800    299.34518   -1446.3655     517.2039    424.44405   -163.20479    36341.856 
  175900    295.02786   -1490.9101    501.66399    344.83712    275.77524    36341.856 
  176000    299.47002   -1491.5851    510.67899    373.26406    504.47658    36341.856 
  176100     295.6483   -1498.8083    530.44694    368.52736    448.55195    36341.856 
  176200    298.16766    -1503.174    517.46553    362.57253    199.91695    36341.856 
  176300    297.05686   -1537.9122    501.66166    307.00759    508.89304    36341.856 
  176400    293.15411   -1487.0458    514.79516    353.35964   -145.46834    36341.856 
  176500    294.74568   -1483.8385    505.02493     353.9936   -315.37959    36341.856 
  176600    298.28263   -1463.9888    507.65144    392.46352   -333.10752    36341.856 
  176700    305.35954   -1498.0466    514.24637    397.00165   -328.60814    36341.856 
  176800     301.3052   -1499.1079    501.00566    364.36638   -281.70298    36341.856 
  176900    292.97318   -1528.5489    504.12357    300.36679   -96.504631    36341.856 
  177000    301.20857   -1515.0742    497.41728    344.37481   -251.76387    36341.856 
  177100    297.36637   -1490.6471      511.208     365.2186    486.95427    36341.856 
  177200    295.40295   -1476.1736    519.89755    379.50319   -473.85306    36341.856 
  177300    288.65105   -1466.2722    520.53839    359.51417   -132.28694    36341.856 
  177400    303.53563    -1463.784    503.94405     412.7144     74.54051    36341.856 
  177500    301.25711   -1524.4428    528.05737    365.86578     102.9806    36341.856 
  177600    297.00712   -1508.5051    488.57577    323.10387   -326.90917    36341.856 
  177700    293.68762   -1500.4191     513.6005    341.20417    286.32734    36341.856 
  177800    306.33654   -1508.1343    493.88702     370.9725    554.10137    36341.856 
  177900    299.85522   -1540.7034    515.49748    330.70601    415.03619    36341.856 
  178000    303.88087   -1542.3292    485.96548    317.75181    125.18967    36341.856 
  178100    304.55412   -1557.9465    482.47114    301.68456   -372.20387    36341.856 
  178200    303.84806   -1498.9268    510.08572    385.12605   -164.59545    36341.856 
  178300    292.18879    -1477.805    484.29366    327.73392   -400.22202    36341.856 
  178400     301.5938   -1516.3639    492.10907     339.5188    -284.5974    36341.856 
  178500    290.34397   -1521.3252    488.70261    280.28054    -139.9473    36341.856 
  178600    298.53752   -1518.8901    536.38045    367.44381    613.61682    36341.856 
  178700    293.06544   -1525.0275    497.83049    298.01234    171.04329    36341.856 
  178800    301.83878   -1526.3792    499.61028    338.11246     205.1887    36341.856 
  178900    310.63798   -1503.8339    498.56923    399.40578    463.14759    36341.856 
  179000    300.35542   -1500.6436    508.45607    365.98626    37.277092    36341.856 
  179100     306.6734   -1526.9362    510.86064    370.66743   -264.10159    36341.856 
  179200    296.14965   -1493.1173    493.55823    339.59679   -269.30302    36341.856 
  179300    305.99484   -1512.4518    472.20435    343.42721   -205.13896    36341.856 
  179400    288.11819   -1501.6118    495.99349    297.22012   -63.312448    36341.856 
  179500    294.36878   -1584.4666    467.78829    214.42461   -173.02837    36341.856 
  179600    293.57437    -1520.594    494.66348    301.58019   -145.62667    36341.856 
  179700    293.17695   -1508.9161    491.27088    308.06833   -108.27293    36341.856 
  179800    303.13912     -1558.25    470.63969    283.15105    226.03642    36341.856 
  179900    295.54257    -1556.236    503.54752    283.72221   -58.386636    36341.856 
  180000    289.10206   -1531.4533    495.11075     270.9448    198.07868    36341.856 
  180100    298.46729   -1536.5297    502.67254    315.77876      -193.27    36341.856 
  180200     297.6774   -1513.7511     494.0812    326.39416   -389.88138    36341.856 
  180300    290.85052    -1475.804    508.55016    347.93989    495.37596    36341.856 
  180400    306.77542   -1550.2925    506.58191    343.49376    233.88722    36341.856 
  180500    300.07938   -1506.4497    497.64658    348.12243     129.8861    36341.856 
  180600    299.87966   -1495.2709    521.74431    382.49594    175.85809    36341.856 
  180700    298.16943   -1482.8132    483.43474    348.91052    217.52961    36341.856 
  180800    295.26086   -1460.1032    510.97323    386.00679    400.23367    36341.856 
  180900    306.82959   -1481.1878    505.79106     412.0525    333.99881    36341.856 
  181000    295.81524   -1474.3988    500.62708    363.87187    283.54903    36341.856 
  181100    294.63678   -1527.9203     450.6272    255.02161   -132.17463    36341.856 
  181200    299.32512   -1491.8552    491.28966    352.94937    225.23385    36341.856 
  181300    303.51873   -1501.5877    505.04342    375.93363    203.47314    36341.856 
  181400    304.17826   -1526.8701    508.94246     357.5327    297.77837    36341.856 
  181500    293.40278   -1497.0122    498.44046    328.16304     289.3556    36341.856 
  181600    303.68517   -1485.6029    505.83947    393.46718    622.57041    36341.856 
  181700    293.34713   -1508.3551    526.33421     344.4622    581.04716    36341.856 
  181800    291.50457   -1408.9206    490.69606    399.92676    459.38586    36341.856 
  181900    293.46998    -1501.964    512.45546    337.53014     150.1414    36341.856 
  182000    300.51171   -1461.6919    522.86371    420.05234   -32.549492    36341.856 
  182100     289.9188    -1498.582    512.49451    324.89312   -206.04904    36341.856 
  182200    291.78408    -1437.773    524.39104    406.03315   -316.31189    36341.856 
  182300    298.04917   -1458.7138    492.79397    381.82543    378.28606    36341.856 
  182400    290.94531   -1481.3848    527.05671    361.29424   -203.43107    36341.856 
  182500    295.93818   -1489.4945    484.33362    333.03869    52.564934    36341.856 
  182600    298.22623   -1472.1537    470.99236    347.38457    254.85741    36341.856 
  182700    305.98754   -1514.5075     504.3732    373.50733    493.71725    36341.856 
  182800    299.69783   -1525.8619    495.01305    324.35143     324.6068    36341.856 
  182900    297.22198   -1534.0869    480.04105    289.95887    213.39711    36341.856 
  183000     294.2352   -1544.9471    490.05762     275.6094   -203.85818    36341.856 
  183100    291.92979   -1494.3637    483.94864    309.65899   -725.80227    36341.856 
  183200    289.44852   -1529.1641    498.63797    278.32786   -48.371558    36341.856 
  183300    291.50574   -1501.2826     494.7924    311.66638    99.623421    36341.856 
  183400    293.62438   -1525.0182    477.09675    279.81542   -91.822963    36341.856 
  183500    307.31101   -1544.1656    487.58801    333.04859    181.78483    36341.856 
  183600    305.80428   -1551.7178    474.67918    305.77434   -882.41916    36341.856 
  183700    299.97807    -1508.066    471.98039    320.38193    -977.0318    36341.856 
  183800    301.82088   -1509.2517    523.23113    378.77993    -970.3709    36341.856 
  183900    298.70284   -1499.7016    465.66443    316.66383   -1235.5208    36341.856 
  184000    299.22818   -1450.3083     497.5187    400.28699   -795.36781    36341.856 
  184100     300.8449   -1476.5601    499.73755    383.56462   -1000.4623    36341.856 
  184200    294.37474   -1438.1191    506.40523    399.41602    -480.9532    36341.856 
  184300    307.18574   -1475.6452    492.81853    406.23305   -426.55011    36341.856 
  184400    298.87496   -1466.7433    518.41923    403.15532    -454.7554    36341.856 
  184500    297.15798   -1477.4483    523.22069    389.48777    115.82631    36341.856 
  184600     299.1748   -1491.6364    493.35444    354.55321    178.97105    36341.856 
  184700    293.76388   -1519.3299    498.95103    307.98876    361.47837    36341.856 
  184800    300.50353   -1556.9025    497.94157    299.88264   -426.54113    36341.856 
  184900    296.75343   -1490.4546     487.6485    339.07998   -314.13233    36341.856 
  185000    291.56224   -1479.2995     492.1219    331.23445    8.9409985    36341.856 
  185100    307.38144   -1534.8207    480.17603    335.30002    116.35028    36341.856 
  185200    293.71907   -1520.0806    488.92449    297.00887    170.82422    36341.856 
  185300    313.29253   -1494.2165    518.16867    440.62617    200.68897    36341.856 
  185400    299.83822   -1534.0542    517.91641    339.69728    183.27015    36341.856 
  185500    298.03329   -1491.3224    522.88866    379.23962   -85.707558    36341.856 
  185600     301.5612   -1480.0205    501.03192    384.63765   -81.556485    36341.856 
  185700    299.39337   -1492.6398    480.37502    341.55875   -841.92175    36341.856 
  185800    301.12208   -1491.6335    498.07334    368.08041    -999.0157    36341.856 
  185900    302.06985   -1514.6097    507.73884    359.05545   -282.35528    36341.856 
  186000    297.39398   -1547.0084    482.65263     280.4268   -611.01029    36341.856 
  186100    299.44201   -1481.5232    503.67673    376.19707   -494.33892    36341.856 
  186200    292.04774   -1503.8726    517.03324    333.76803   -412.35755    36341.856 
  186300    295.77749    -1520.398    514.98482    332.05978   -150.47942    36341.856 
  186400     310.3474   -1546.1892     492.9222     350.0894   -281.24862    36341.856 
  186500    292.79194   -1522.4075    523.28953    324.85467   -723.27587    36341.856 
  186600    294.51079   -1518.8689    501.53373     314.4099   -164.80656    36341.856 
  186700    303.18668   -1557.2534    500.85139    314.57441    19.030044    36341.856 
  186800     293.3757   -1532.4979    478.70608    272.82048    110.44781    36341.856 
  186900    288.53972   -1509.8515    542.04305    336.93606   -172.05066    36341.856 
  187000    300.80399   -1463.0828    518.45258    415.57198   -279.15594    36341.856 
  187100    300.32679   -1484.6681    483.84294    357.21922    -102.1302    36341.856 
  187200    307.30626    -1481.992    511.85306    419.46581    453.91128    36341.856 
  187300    295.77706   -1501.9384    512.50007    348.03269    267.32915    36341.856 
  187400    289.88037   -1541.6154    517.47734    286.66879   -310.94142    36341.856 
  187500     302.4442   -1458.3908    512.35548     421.5837    178.89821    36341.856 
  187600    304.30862   -1468.5394    502.17055    409.68091    106.87361    36341.856 
  187700    293.27019   -1515.2321    506.72883     317.6319   -268.03984    36341.856 
  187800    297.64937   -1513.3794    493.44128    325.99928   -243.15816    36341.856 
  187900    298.88299    -1515.598    490.65847    326.57616   -326.49381    36341.856 
  188000    308.40972   -1528.0423    479.30288    345.85505     470.1726    36341.856 
  188100    298.38313   -1462.8479    535.23315    421.64059   -366.80423    36341.856 
  188200    298.89726   -1446.0138    477.01863    382.58497   -137.97244    36341.856 
  188300    292.62642   -1426.4978    522.44081    419.16712   -227.40701    36341.856 
  188400     298.0541   -1482.3374    485.24887    350.67903   -63.002548    36341.856 
  188500    311.05687   -1475.0735    506.25957    437.75062    495.95679    36341.856 
  188600    304.05509   -1512.1107    493.98067    356.77326     567.0567    36341.856 
  188700    313.56125   -1516.3352    503.98588    405.53973    371.31095    36341.856 
  188800    300.32072   -1486.2093    486.68338    358.49095   -169.51278    36341.856 
  188900    295.14872   -1490.1834    505.78178    350.22806    772.99115    36341.856 
  189000    306.95812   -1496.9716     505.9456    397.00445    89.623461    36341.856 
  189100    293.16984   -1504.1392    532.71912     354.2613    -19.31929    36341.856 
  189200    289.20449   -1493.4452    496.28605    310.59146   -66.385934    36341.856 
  189300      293.009   -1467.9181    483.96261    340.99866    264.22505    36341.856 
  189400    299.39763   -1432.0292    514.00269    435.81625   -94.972889    36341.856 
  189500    303.09632   -1482.7613    505.85414    393.66069   -545.08783    36341.856 
  189600    298.43855   -1463.5906    509.73059    395.64588   -504.56081    36341.856 
  189700    298.58538   -1475.3819    530.05715    404.84517   -402.98727    36341.856 
  189800    303.99079   -1486.6565    501.55834    389.51441   -9.8875619    36341.856 
  189900    302.66463   -1501.4242    491.08942    358.28103    501.83897    36341.856 
  190000    293.98353   -1448.6188    473.04312    353.78516   -567.63524    36341.856 
  190100    305.42265   -1479.1415    499.57998    401.52579   -291.43458    36341.856 
  190200    297.30278    -1486.009     512.3472    370.70833   -592.13454    36341.856 
  190300    315.07641   -1540.6583    484.07294    368.15512    472.15395    36341.856 
  190400    288.33721   -1526.1397     508.3708    286.05997    190.22226    36341.856 
  190500    298.38136   -1489.1019    506.72474    366.87019    47.171324    36341.856 
  190600    304.30781   -1507.3407     485.9968    354.70215   -791.27665    36341.856 
  190700    288.64154   -1460.8555    527.92898    372.27843   -478.24846    36341.856 
  190800    296.33208   -1505.0617    497.95693    332.87597   -344.01226    36341.856 
  190900    309.66822    -1470.107    497.24652    427.42474   -565.76893    36341.856 
  191000    299.76834   -1483.8605    488.56813    360.22674   -457.62736    36341.856 
  191100    303.06448   -1489.4175    482.45078    363.45719   -516.99609    36341.856 
  191200    304.72805   -1486.2107    509.80103    401.53673    325.64825    36341.856 
  191300    293.67529   -1465.6037     503.4981    365.86138    155.65674    36341.856 
  191400    291.80078    -1413.519    480.69014    386.66187   -202.75403    36341.856 
  191500    293.48643   -1398.5938    513.69378    442.21305   -227.30865    36341.856 
  191600    304.53899   -1437.8141    490.74811    430.02544   -551.90339    36341.856 
  191700    301.23351   -1455.0436    508.47995    415.58086    208.24276    36341.856 
  191800    305.65016    -1437.668    493.63877     438.0868   -159.87819    36341.856 
  191900    295.10221   -1448.3399    514.65975    400.73924   -91.650805    36341.856 
  192000    303.13638   -1426.8301    512.76382    456.68272    18.394203    36341.856 
  192100    303.99426   -1483.1652    493.77839    385.24149   -228.31855    36341.856 
  192200    302.14309   -1463.5451    503.12389    405.83625   -468.24351    36341.856 
  192300    321.47984   -1499.5751    523.80363    477.92462     276.2254    36341.856 
  192400    304.81217   -1496.5276    487.51719    369.31633    -86.45106    36341.856 
  192500    297.86235   -1460.7148    528.03695    414.22261    72.720398    36341.856 
  192600    305.55859   -1453.1897    505.74223    434.25456   -281.75951    36341.856 
  192700    306.19535   -1516.2314    490.26739    358.61738    56.183118    36341.856 
  192800    302.94553    -1521.862    497.52656    345.55063     182.0619    36341.856 
  192900    303.30214   -1467.0831    505.06312    409.47853     532.3921    36341.856 
  193000    298.06821   -1469.8328    504.12898    382.12754    868.54002    36341.856 
  193100    306.99443   -1467.2366    512.69248    433.65052    421.07793    36341.856 
  193200    305.57935    -1476.523     497.1651    402.43799    -8.099768    36341.856 
  193300    293.50277   -1484.1456    488.12453    331.16583   -289.09898    36341.856 
  193400    304.32324   -1521.8085    491.80748    346.11479   -459.94741    36341.856 
  193500    303.59539    -1472.151    506.41044    407.08405   -263.97253    36341.856 
  193600    305.58896   -1469.2343     515.8048    428.40986   -336.88835    36341.856 
  193700    299.39837   -1478.2787    500.06286    375.63037   -533.53706    36341.856 
  193800     302.4756   -1482.3307    522.28046    407.71086   -258.94946    36341.856 
  193900    312.94665    -1454.577    507.69272    468.22566    261.12835    36341.856 
  194000    300.66382   -1482.1534     498.3007    375.71561   -185.65473    36341.856 
  194100     293.2909   -1489.9973    512.31438    348.54594   -64.827767    36341.856 
  194200    307.79726   -1500.9237    497.60858    388.50993   -343.62073    36341.856 
  194300    296.45161   -1471.2174    502.65012    371.95398   -99.420774    36341.856 
  194400    309.79602   -1489.5394    503.08737    414.41112    171.57851    36341.856 
  194500    315.00014    -1469.004    508.95526    464.34692   -387.40354    36341.856 
  194600    300.35744   -1490.5833    513.56298    381.16267   -77.174543    36341.856 
  194700    299.08299   -1488.7445    499.69174    363.36727    39.715892    36341.856 
  194800     293.6197   -1474.6208     499.2069    352.30178   -603.14456    36341.856 
  194900    303.15314   -1514.0851    486.45795    343.19759   -285.39711    36341.856 
  195000    296.46454   -1512.9024    509.21331    336.89056   -648.75867    36341.856 
  195100     299.0082   -1489.6799    531.70963    394.11158    -236.4008    36341.856 
  195200     298.3905   -1507.8687    499.48549    340.90542   -513.05828    36341.856 
  195300    297.97405    -1525.207    501.01165     323.2102    580.86413    36341.856 
  195400    303.41571   -1513.4376    516.65594    375.23043    318.29983    36341.856 
  195500    295.55968   -1492.8322    532.23011    375.88595    372.89063    36341.856 
  195600    290.14272   -1504.1473     502.1638    310.00963    325.57753    36341.856 
  195700    302.64499   -1484.7185    513.21784    397.02635    180.94955    36341.856 
  195800    303.65262   -1516.3153    499.85619    356.62425    47.260575    36341.856 
  195900     294.0248    -1538.812    531.34613    322.08159   -56.094925    36341.856 
  196000    304.23331   -1493.6457    524.79144    406.85493    291.38697    36341.856 
  196100    310.65407   -1494.3039    488.98469    399.42399    155.92371    36341.856 
  196200    304.02717   -1491.4578    504.85026    388.16951   -170.91889    36341.856 
  196300    312.52441   -1483.6011    456.24666    385.84626   -7.9837665    36341.856 
  196400     319.3135   -1527.9743    490.18578    406.11162    178.14667    36341.856 
  196500    304.55909   -1540.6497    509.93866    346.47132   -162.02172    36341.856 
  196600    304.30946   -1537.0532    502.81131     341.8116   -222.08902    36341.856 
  196700    289.35056   -1478.8818    493.05771      322.587    99.981767    36341.856 
  196800    298.32775   -1526.7462    516.06665    338.32541    501.56652    36341.856 
  196900    302.22954   -1530.6605     510.7473    346.73515    254.78865    36341.856 
  197000    299.05908   -1532.2811    513.25116    333.28199    616.03613    36341.856 
  197100    304.69068   -1542.9398    530.21401    365.05161    20.147967    36341.856 
  197200    290.97613   -1513.0392    491.82568    294.54819    109.30964    36341.856 
  197300    294.22198   -1502.4292    515.85882    343.86871     266.0153    36341.856 
  197400     311.1169    -1513.575    503.11858    396.37968    592.70107    36341.856 
  197500     308.9121    -1451.457    525.41734    470.82649    619.45787    36341.856 
  197600    302.57458   -1452.9481    514.47468    429.73518    169.48333    36341.856 
  197700    307.50169   -1445.3933     527.4224    472.51758   -470.09762    36341.856 
  197800    306.78662   -1419.8566    517.08674     484.4851   -647.46383    36341.856 
  197900     289.6698   -1492.4197    515.39001      332.825   -953.06949    36341.856 
  198000    298.04158   -1478.1244    504.41597    374.00248    -788.5564    36341.856 
  198100    312.74256     -1467.93    502.49806    448.75517   -788.49651    36341.856 
  198200    305.37619   -1459.6214    491.23069    412.48649   -259.64908    36341.856 
  198300    294.81606   -1433.4927     520.6188    420.25157   -275.09856    36341.856 
  198400    293.86192   -1476.3902    498.33319     350.7539    252.71978    36341.856 
  198500    303.08765    -1434.235    521.89701    458.19073    348.04401    36341.856 
  198600    295.69527   -1487.2204    505.61738    355.49808   -16.398071    36341.856 
  198700    304.67875   -1474.2648    507.33421    410.79286   -171.20638    36341.856 
  198800    302.03387   -1508.2404    507.28171    364.80494    99.823182    36341.856 
  198900    300.22073    -1497.844    503.68562    363.40638    112.76251    36341.856 
  199000    300.39295   -1481.3246    515.02306      392.042   -71.508777    36341.856 
  199100    283.37243   -1479.3803    498.06858    300.06693   -572.87078    36341.856 
  199200    297.64608   -1490.8356    502.46712    357.55403   -307.22174    36341.856 
  199300    301.54325   -1481.7497     509.5027    391.29807   -794.02334    36341.856 
  199400    305.64811   -1477.4071    510.82628    415.52594   -194.67741    36341.856 
  199500    298.89825   -1464.9545    521.46073    408.09086   -659.89393    36341.856 
  199600    300.83466   -1453.4501    489.68791    396.57868    -710.2391    36341.856 
  199700    296.11682   -1501.6955    496.18001    333.49183   -289.40451    36341.856 
  199800    308.48447   -1464.2774    501.53655    432.19158     -76.9346    36341.856 
  199900    297.63724   -1472.7213    517.89263    391.05388    51.288959    36341.856 
  200000    297.23923   -1515.4775    500.70662    329.31192    472.95534    36341.856 
  200100    288.45181   -1478.9152    509.05138    334.48319    406.83937    36341.856 
  200200    298.94808   -1480.4755    509.16589    380.50038   -346.07883    36341.856 
  200300    291.11358   -1446.9836    509.76186    379.16151   -139.87107    36341.856 
  200400    300.10318   -1465.2986    495.66625    387.40087   -85.239102    36341.856 
  200500    296.96631   -1502.6725    485.94872    326.12491   -1102.2283    36341.856 
  200600    289.46551   -1511.3969    518.76897    316.30297   -1022.1097    36341.856 
  200700    298.83959   -1525.8181    490.43902    315.94029   -448.47839    36341.856 
  200800    291.90871   -1542.2311    515.67946    293.42715   -736.55892    36341.856 
  200900    293.30909   -1563.1768    498.66327    261.79762   -157.79304    36341.856 
  201000    303.65254   -1544.7387    488.68817    317.03249   -548.11534    36341.856 
  201100    292.67603   -1524.6125    487.88352    286.71954   -804.75528    36341.856 
  201200    301.97494   -1542.7434    474.86913    297.62282    232.53481    36341.856 
  201300    299.98612   -1515.2282     514.9659    356.24157   -170.28834    36341.856 
  201400     293.4139   -1545.0191    496.65445    278.42042    163.18194    36341.856 
  201500     306.6093   -1536.6768    521.69983    371.47619    249.62467    36341.856 
  201600    300.63341   -1584.7755    458.74711    233.40243    359.79211    36341.856 
  201700    298.66339   -1565.1872    510.98124     296.3167    668.45305    36341.856 
  201800    299.70605   -1583.0382    497.39973    269.59901    666.22928    36341.856 
  201900    298.88917   -1558.0701    496.80704    290.28053   -126.86472    36341.856 
  202000    294.32997    -1538.621    482.95302    275.25936    -597.3017    36341.856 
  202100    288.17775   -1518.0375    494.17182    279.24213   -377.43246    36341.856 
  202200    300.63928   -1557.8265    476.52316     278.1541   -604.27646    36341.856 
  202300     301.5758   -1612.9071    491.49722    242.28243   -210.15633    36341.856 
  202400    294.50452   -1591.3121    484.83331    225.23794   -78.506106    36341.856 
  202500    300.42812   -1533.1742    468.05682    293.38522    285.41469    36341.856 
  202600    296.13927   -1527.1747     527.2326    339.16677    227.21016    36341.856 
  202700    296.60107   -1545.7774    491.99617     287.4158    443.96438    36341.856 
  202800    306.27691    -1499.687    494.17396    379.43712    118.38238    36341.856 
  202900    309.04477   -1467.9502    513.42633    442.94225    82.412402    36341.856 
  203000     302.6521    -1528.753    497.38604    337.19218   -34.167048    36341.856 
  203100    291.74344   -1537.0566    494.89645    277.07121    -164.9613    36341.856 
  203200    296.04894   -1597.0309     533.6967     275.3662   -19.338143    36341.856 
  203300    299.71513   -1571.2551    486.42762    270.45097   -162.35018    36341.856 
  203400    312.37127   -1511.4564    492.95102    394.00283    118.50258    36341.856 
  203500    294.67733   -1496.2516      518.728    354.97455   -282.08208    36341.856 
  203600    300.78676   -1504.1446    513.68272    369.66246    -162.8135    36341.856 
  203700    297.67822   -1527.2409    512.84025    331.66716    77.998848    36341.856 
  203800     296.7924    -1543.649    514.01671    312.42996   -9.5083701    36341.856 
  203900    291.04949   -1495.9377    493.39986    313.55556   -232.86581    36341.856 
  204000    301.63321   -1492.7343    526.12785    397.34539    -80.39011    36341.856 
  204100    297.42461   -1484.7506    512.04143    372.21184   -360.69859    36341.856 
  204200    302.83927   -1492.5802    512.17474    389.00003    155.98926    36341.856 
  204300    307.83408   -1497.2821    504.26466    398.97405   -769.55175    36341.856 
  204400    292.82205   -1478.7366    512.84037    358.21251   -72.182209    36341.856 
  204500    301.77885   -1489.3071     526.1302    401.43355   -504.47541    36341.856 
  204600    296.45036   -1514.1104    521.73869    348.14388   -246.45454    36341.856 
  204700    301.18548   -1484.4367    499.46741      376.958    903.59377    36341.856 
  204800     297.4472   -1524.6545    507.47346    327.84212    17.548087    36341.856 
  204900     304.1115   -1482.0855    502.32925    395.40213    119.20042    36341.856 
  205000    301.61142   -1454.7152    515.18661    424.32475    269.18909    36341.856 
  205100    304.46951   -1494.1926    515.00522    397.58996    987.48334    36341.856 
  205200    301.33663   -1482.2834     526.2397    406.56706    494.00703    36341.856 
  205300    294.26887   -1519.7053    506.01025     316.9561    218.16836    36341.856 
  205400    287.16708   -1494.5807    520.36383    324.32074   -700.55416    36341.856 
  205500    291.23238   -1509.3745    497.70829    305.25429   -1090.3586    36341.856 
  205600    300.22533   -1483.9224    510.92221    384.58536   -568.93629    36341.856 
  205700    305.58891   -1469.2902    508.86725    421.41609   -163.34728    36341.856 
  205800    313.93018   -1542.2179    512.26497    389.60445   -236.19186    36341.856 
  205900    307.89967   -1467.1621    544.72838    469.85434    553.70653    36341.856 
  206000    302.39299   -1507.2128      496.229    356.40373    219.95852    36341.856 
  206100    311.23565   -1492.0023    531.76497     447.1357    82.641864    36341.856 
  206200    302.67194   -1512.2121    512.14792    368.58472    844.82514    36341.856 
  206300    295.12204   -1518.3865    500.03762    316.16014    131.79053    36341.856 
  206400    296.83069   -1495.8239    511.06683    357.47832    415.50614    36341.856 
  206500    301.37333   -1502.5993    493.34704    353.52441    490.41448    36341.856 
  206600     309.2201   -1533.2663    499.16887    364.16147     881.0888    36341.856 
  206700    305.32074   -1488.4194    520.28675    412.49377    528.48341    36341.856 
  206800    301.57894   -1489.0428    488.55271    363.21635   -41.586076    36341.856 
  206900    299.28007   -1490.2117    507.18529    370.28477   -139.29034    36341.856 
  207000     295.9331    -1469.281    523.64678    392.54232    56.900796    36341.856 
  207100    293.88393   -1537.9034    502.01967    293.02672   -269.15265    36341.856 
  207200    306.01994   -1521.9883    532.97514    394.77498    224.91126    36341.856 
  207300    299.36151    -1480.133    502.43023    375.97675    57.676661    36341.856 
  207400    303.29141   -1494.2192    518.80725    396.03813   -235.34959    36341.856 
  207500    288.25092   -1525.6318    517.15308    294.95989   -368.43381    36341.856 
  207600    295.64862   -1490.9566    494.31601    340.24957   -288.11377    36341.856 
  207700     300.6371   -1494.8484    493.30514    357.90428     56.61235    36341.856 
  207800    310.85783   -1495.9212    511.33025    421.07365    315.95311    36341.856 
  207900    298.57136   -1478.2752    513.03754    384.86888    271.05824    36341.856 
  208000    297.44004   -1468.1152    512.29772    389.17332    791.90909    36341.856 
  208100    294.51419   -1516.1446    526.33007    341.94592     147.9201    36341.856 
  208200    293.49909   -1521.0106    526.38861    332.54829    693.47495    36341.856 
  208300    297.94185   -1491.9244    500.90548    356.24102    779.85377    36341.856 
  208400    299.01268   -1508.6948    491.86795    335.27525    353.30102    36341.856 
  208500    301.61277   -1518.1139    541.32816    387.07366   -91.248367    36341.856 
  208600    302.15813   -1514.4403    507.33096     359.2161   -285.33265    36341.856 
  208700    296.50182   -1511.0581    510.55979    340.24999    685.44226    36341.856 
  208800    308.65986   -1516.6742     513.9396    392.99094    229.83909    36341.856 
  208900    292.45405   -1505.0841    499.61075    316.97132   -149.88431    36341.856 
  209000    301.34655   -1492.4328    507.93723    378.16009   -793.49835    36341.856 
  209100    300.57093   -1515.9183    511.55374    354.78381   -578.47833    36341.856 
  209200    307.80295   -1508.0395    532.67077    416.48203   -76.270525    36341.856 
  209300    303.06506   -1514.1981    501.99106    358.21944   -421.86513    36341.856 
  209400    301.22561    -1497.826    518.25279    382.53556    203.22776    36341.856 
  209500     304.2103   -1526.0719     506.1009    355.63419   -121.15446    36341.856 
  209600    299.87829   -1502.5808    511.56273    364.99825    1151.3167    36341.856 
  209700    302.35392   -1566.1706    494.67357    295.71375    577.70651    36341.856 
  209800    310.88087   -1530.9506    505.08169    379.89979    513.08423    36341.856 
  209900    296.69063   -1547.7672    498.48049    292.31535    326.25276    36341.856 
  210000    293.60139   -1505.5653    522.95546    345.02303    249.85301    36341.856 
  210100    294.55772   -1518.4192    490.91512    304.45319    19.743025    36341.856 
  210200    294.25738   -1491.6314    492.91458     331.8824    306.51862    36341.856 
  210300    299.76975   -1518.2722    504.70584    341.95914    274.66055    36341.856 
  210400    294.39851    -1552.877    506.28865    284.64893    762.25072    36341.856 
  210500    300.44175   -1567.3943    505.81248    296.98243    590.47755    36341.856 
  210600    304.69763   -1562.8999    504.27795    319.18682    923.16272    36341.856 
  210700    297.48742   -1571.4081    518.12487    291.92175    1059.3673    36341.856 
  210800    306.36372   -1585.8726     496.9322    296.40231    1006.0937    36341.856 
  210900     295.7935   -1494.5259    505.93061    348.95004    177.98865    36341.856 
  211000    309.34542   -1493.0443    493.42784    399.20914    402.76805    36341.856 
  211100    301.19162   -1515.6493    508.44688    354.75262   -366.53805    36341.856 
  211200     296.7798   -1511.7688    513.52965    343.76616   -179.64309    36341.856 
  211300    302.38614   -1548.0504    509.50446    328.81056   -391.52881    36341.856 
  211400    289.23741   -1507.6243    540.33718    340.61226   -375.96608    36341.856 
  211500    298.20297   -1519.2089    524.32811     353.5599   -703.52805    36341.856 
  211600    311.12604   -1489.0781    501.40754    419.20685   -125.41357    36341.856 
  211700    302.01528    -1527.254    517.17562    355.60115   -497.76304    36341.856 
  211800    297.78525   -1478.3254    515.61533    383.84177    528.86646    36341.856 
  211900    298.92309   -1543.0388    530.52236    339.18055    417.35325    36341.856 
  212000    302.90123   -1505.0495    524.11968     388.7559    697.87032    36341.856 
  212100    298.45052   -1491.4338    515.97705    374.10335    345.37657    36341.856 
  212200    302.52846   -1492.3816    510.36627    385.98469    89.949178    36341.856 
  212300    300.86702    -1506.654    504.22553    358.05878    493.50151    36341.856 
  212400    298.90287   -1464.1951    515.03858    402.44904    127.06296    36341.856 
  212500    304.04645   -1476.6416    517.02637      415.249    350.46701    36341.856 
  212600    295.60015   -1465.0058    504.28541    375.95057   -135.54936    36341.856 
  212700    292.40209   -1430.5991    522.36789    413.97852    -82.85615    36341.856 
  212800    293.72791   -1420.0763    522.84176     430.9704   -294.63935    36341.856 
  212900    286.34953   -1468.1629    498.41839    325.09626   -781.44295    36341.856 
  213000    302.42463   -1455.3158    481.15309    393.36783   -1030.0884    36341.856 
  213100    290.22027   -1463.8233     520.0121    368.53262   -717.07319    36341.856 
  213200    293.09078   -1480.1821    498.04591     343.1877    -187.6798    36341.856 
  213300    294.48332   -1492.2649    500.27562    339.63155   -342.44412    36341.856 
  213400    300.99049   -1536.4284     508.3986    333.01573    108.35811    36341.856 
  213500    295.61808   -1487.9434    516.73649    365.54518     333.2825    36341.856 
  213600    299.32399   -1518.2545    489.12804    324.38338    98.640292    36341.856 
  213700    298.15767   -1510.6257    520.30274    357.91289   -269.58405    36341.856 
  213800    309.83798   -1483.6164    485.13264    402.56911     264.4662    36341.856 
  213900    307.70678   -1498.0247     514.8142    408.20534   -184.56173    36341.856 
  214000    303.84317   -1477.6515     494.6748    390.96836    512.66534    36341.856 
  214100    293.61103   -1520.8766    511.96632    318.76619    501.53013    36341.856 
  214200    308.67605   -1471.4329    493.11501    417.48088    354.81076    36341.856 
  214300    298.65205   -1508.2541    532.76325    374.98055    1026.0778    36341.856 
  214400    305.30117   -1552.1218    493.41306    321.82925   -39.563992    36341.856 
  214500     297.9903   -1524.4293    489.33358    312.38332    408.46324    36341.856 
  214600    297.00493   -1511.6246     505.5682    336.96681    165.47693    36341.856 
  214700    305.82148   -1512.1674     497.7856    368.50898    266.34416    36341.856 
  214800    305.55435   -1540.3932     505.4338    346.72345    609.03673    36341.856 
  214900    295.39537   -1522.2405    524.40897    337.91346    127.23818    36341.856 
  215000    297.05117   -1526.5956    504.45336    321.09017   -165.25964    36341.856 
  215100    294.83732    -1549.142    480.35225    264.43187   -98.639067    36341.856 
  215200    299.81676   -1542.8194    476.24191    289.16056   -323.28241    36341.856 
  215300    297.12973   -1507.5692    521.70618    357.72462   -738.00724    36341.856 
  215400    310.39825   -1537.5818    504.55299    370.55758   -271.04598    36341.856 
  215500     293.4961   -1536.9738    469.86662     260.0496   -67.165918    36341.856 
  215600    301.58776   -1520.9084    499.99454    342.83246    297.04969    36341.856 
  215700    301.34866   -1512.2704    510.98389    361.37864    430.04123    36341.856 
  215800    310.00776   -1513.6818    508.11573    396.25454    74.139183    36341.856 
  215900    291.20958   -1534.0958    505.77108    288.49263    -420.1407    36341.856 
  216000    303.06552   -1543.9497    516.60695    343.08579    254.40224    36341.856 
  216100    298.80117   -1521.6005    491.41806    320.96324    191.56672    36341.856 
  216200    299.09901   -1494.9575    476.15569    333.69069    6.2428021    36341.856 
  216300    305.61354   -1530.2709    510.24187    361.92143   -463.01669    36341.856 
  216400     293.7403   -1539.4544    491.19623     280.0028   -615.34198    36341.856 
  216500    310.48158    -1505.419     499.8139    398.35808   -274.35278    36341.856 
  216600    292.52953   -1507.1388    528.48817    344.13536    33.973035    36341.856 
  216700    297.74717   -1517.4805    483.05842    311.95753   -13.522501    36341.856 
  216800    295.77603   -1539.1052    486.99007    285.35123    382.04582    36341.856 
  216900    299.37897   -1551.2938     487.2826    289.74727   -80.207507    36341.856 
  217000      301.722   -1527.3048    476.54025     313.5888   -209.90076    36341.856 
  217100    296.12524   -1510.3117     507.2691    336.00285   -104.01732    36341.856 
  217200     297.2328   -1517.7909    518.51364    344.77639   -494.20686    36341.856 
  217300    294.72843   -1535.0346    473.22142    270.91601   -480.95745    36341.856 
  217400     305.9753   -1526.3831    505.05323    362.25641   -399.75989    36341.856 
  217500    299.16356   -1541.0782    501.88153    313.58773    245.68483    36341.856 
  217600     305.4811   -1525.7054    490.23803    345.88418     438.7624    36341.856 
  217700    293.13502   -1536.2876    505.53752    294.77391    54.417946    36341.856 
  217800    302.31784   -1505.1661    500.24349    362.12507    264.08543    36341.856 
  217900    298.80014   -1554.9071    500.18561    296.41957   -126.62837    36341.856 
  218000    305.16084   -1530.8802    500.05437    349.07753   -566.15932    36341.856 
  218100    311.03896   -1552.5173    479.74698    333.71326   -720.08444    36341.856 
  218200    296.04086   -1573.2556    509.09322    274.50151   -93.047174    36341.856 
  218300    297.58363   -1529.3176    498.24344     314.5659   -166.87426    36341.856 
  218400    300.79353   -1490.2505      532.873    402.77746    238.53308    36341.856 
  218500    300.11066   -1561.0951    501.19406      297.166    10.423753    36341.856 
  218600    300.68556   -1524.4319    512.66423    347.89895    840.43403    36341.856 
  218700    289.05593   -1556.1838    499.70815    250.60309    498.70442    36341.856 
  218800    297.34233   -1505.8055    497.16044     335.9039    436.24874    36341.856 
  218900    310.40228   -1503.4955    496.88749    396.99657   -424.95371    36341.856 
  219000    298.25095   -1517.6581    517.41922    348.41877   -365.42818    36341.856 
  219100    291.44847    -1514.657    531.73191     334.9725   -189.04756    36341.856 
  219200    309.00093   -1555.1112    501.54221    343.69883   -159.51259    36341.856 
  219300    299.64443   -1555.0469    500.80823    300.72016    85.311147    36341.856 
  219400     287.8344   -1549.3214    508.67305    260.90683    188.26578    36341.856 
  219500    295.28868    -1562.133    506.47829    279.60792    106.39717    36341.856 
  219600    303.97766   -1544.6426    507.74808    337.65861   -594.49576    36341.856 
  219700    299.66408   -1563.9713    490.53036     281.6067   -436.53993    36341.856 
  219800    305.56868   -1540.9559    511.62981    352.42147   -603.67373    36341.856 
  219900    308.78713   -1583.7197     476.9873    289.56868   -399.79294    36341.856 
  220000    307.91864   -1558.1746    495.72672    329.92597    530.04813    36341.856 
  220100    290.82305   -1495.9061    491.28219    310.44562   -165.84182    36341.856 
  220200    303.21469   -1550.8126    514.31226    334.60284   -81.110581    36341.856 
  220300    299.19777   -1528.2287    472.44221    297.15262   -744.55711    36341.856 
  220400     301.1595   -1521.5498    500.80605    341.06605   -656.41293    36341.856 
  220500    303.43854   -1516.1638    499.17242    355.12394   -566.54082    36341.856 
  220600    305.49925   -1533.4511    507.84154    355.82408   -672.75398    36341.856 
  220700    302.76081   -1493.1472    520.59123    396.49471   -817.44996    36341.856 
  220800    297.88465   -1508.4369    486.04105     324.6054   -969.20084    36341.856 
  220900    298.60151   -1523.2003    514.69756    341.74004   -1073.3422    36341.856 
  221000    305.91197   -1452.4133     520.7452    451.63188   -516.60653    36341.856 
  221100    296.37189   -1505.9605    482.24923    316.44949   -597.37788    36341.856 
  221200    307.78262   -1516.0658    511.34982    387.04278   -193.03421    36341.856 
  221300    294.40154   -1496.6023    513.42544    348.07418   -176.78068    36341.856 
  221400    301.42571   -1485.1851    515.54864    393.37708    152.16407    36341.856 
  221500    302.99508   -1493.9947    506.93518    383.05054    16.987571    36341.856 
  221600    301.38271   -1480.0946    505.21736    387.94192   -161.91128    36341.856 
  221700    301.78903   -1514.4489    507.90505    358.11264   -254.26918    36341.856 
  221800    304.74779   -1479.9478    500.23942    398.32721    85.269022    36341.856 
  221900    299.16571   -1532.6338    488.98552    309.14584    -191.3289    36341.856 
  222000     303.9478   -1520.2075    516.50907    370.71967     -129.374    36341.856 
  222100    291.68067   -1460.8744    514.14771    372.22087   -1035.3144    36341.856 
  222200    302.33208    -1493.728    554.01248    427.39656   -882.93704    36341.856 
  222300    296.97014   -1492.3524     513.6474    364.16099   -193.21765    36341.856 
  222400    306.25161   -1516.4309    515.53222    383.93702   -799.32782    36341.856 
  222500    296.91936   -1492.5734    493.59114    343.65406   -317.09422    36341.856 
  222600    301.05401   -1481.6135    530.45455    410.17383   -1.3841091    36341.856 
  222700    292.07067    -1513.941    520.01814    326.78824   -461.20476    36341.856 
  222800    298.75429    -1521.746    515.95782    345.14555    910.68766    36341.856 
  222900    294.87635    -1527.964    510.23887    315.67293    455.91971    36341.856 
  223000    291.68229   -1554.6912    527.87856     292.1422      404.178    36341.856 
  223100    296.81987   -1549.6697    519.98844    312.50519    192.96003    36341.856 
  223200    301.74677   -1508.4154    525.37204    381.42197    673.01612    36341.856 
  223300    302.09807   -1538.4717    488.33077    315.91296   -140.04973    36341.856 
  223400    304.29788   -1565.4881    479.28731    289.80036   -457.29577    36341.856 
  223500    298.32264    -1566.037    529.14651     312.0914   -9.0697088    36341.856 
  223600     302.4965    -1564.349    507.28203    310.78856    166.66844    36341.856 
  223700    304.00992   -1519.8144    498.30762    353.19224    57.828923    36341.856 
  223800    303.82734   -1512.6277    499.08397    360.32978   -212.59098    36341.856 
  223900    311.77058   -1512.4246    504.55616    401.92345   -539.64705    36341.856 
  224000    290.54655   -1512.7282    517.63662    318.72767   -592.07997    36341.856 
  224100    302.24219   -1524.3663    506.26255    348.60183   -432.02362    36341.856 
  224200    301.35566   -1502.8522    535.83251     395.6771    335.36515    36341.856 
  224300    305.34258   -1507.0933    513.37455    387.00643    181.57071    36341.856 
  224400    299.21099   -1561.4635    490.91929    282.45468    404.25737    36341.856 
  224500    301.52742   -1541.7874    510.65177    332.33781    894.33855    36341.856 
  224600    299.94608   -1538.8664    502.67936    320.13573    376.87131    36341.856 
  224700    291.12039    -1517.322    516.58343    315.67552    203.29896    36341.856 
  224800    301.89147     -1517.29    509.53008    357.35976    9.0659924    36341.856 
  224900    297.16618   -1519.9953    520.11699    343.87418    45.983586    36341.856 
  225000    307.47565   -1538.1379    526.69251    378.92532   -184.54063    36341.856 
  225100     301.7314   -1461.2314     531.1585    434.32298    375.67827    36341.856 
  225200    299.70844   -1503.8626    524.88479    376.27043   -107.29733    36341.856 
  225300    298.14593   -1473.8314    539.94773    414.29908   -471.96081    36341.856 
  225400    296.31407   -1490.4981    510.69811    360.09933   -323.21618    36341.856 
  225500    285.17329   -1505.5529    517.12551    301.09452   -221.89057    36341.856 
  225600    297.35608   -1514.0184    531.58638    362.17911   -6.6075798    36341.856 
  225700    304.30501   -1459.6759    519.72591    436.08345    77.831092    36341.856 
  225800    303.54723    -1461.656    510.98643    421.93729    436.94649    36341.856 
  225900    304.38083   -1469.0197    542.36575    449.72227   -317.15035    36341.856 
  226000    290.99536    -1500.171    519.72745    335.40514    -281.0269    36341.856 
  226100    291.05529   -1516.1386    523.06975    323.05084   -202.82172    36341.856 
  226200    286.22984   -1543.4914    535.95428    286.76243    80.711444    36341.856 
  226300    295.24628   -1507.6044    518.82814    346.29464    559.22956    36341.856 
  226400    286.03996    -1529.345     530.7669    294.86275   -33.561709    36341.856 
  226500    297.02887   -1489.8267    505.28517    358.59003   -9.4893229    36341.856 
  226600    305.13133   -1479.3028     524.4295    424.89667    334.07567    36341.856 
  226700    307.66476   -1510.3942    520.68695    401.51862    371.93118    36341.856 
  226800    295.00145   -1545.9448    528.73558    316.75461    341.36124    36341.856 
  226900     284.2614   -1551.3778    516.06267    250.08334   -161.78745    36341.856 
  227000    299.43518   -1546.2037    513.92886    321.73781    161.58557    36341.856 
  227100    307.18131   -1556.9339    505.46405    337.56988   -119.88513    36341.856 
  227200    291.53594   -1533.2493    508.57061    293.61439    608.84078    36341.856 
  227300    297.82158   -1523.9732    531.07642    353.81929    411.52452    36341.856 
  227400    311.98954   -1493.6839    521.37244    438.47057   -308.99239    36341.856 
  227500    302.09125   -1522.2624    502.02256    345.78321    314.16799    36341.856 
  227600    308.37048   -1538.7122      507.379     363.0839     14.82465    36341.856 
  227700    301.65791   -1544.8777    478.56918    297.75501   -17.130083    36341.856 
  227800    299.74698   -1556.2449    531.77626    330.95389   -546.20381    36341.856 
  227900     298.9349   -1528.7863    505.57956    328.54366   -218.53112    36341.856 
  228000    297.58874   -1579.1531    518.16297    284.67305   -436.42478    36341.856 
  228100    305.26367   -1528.7359    518.65845     370.2909    337.07508    36341.856 
  228200     296.2808   -1521.2498    531.48627    349.98536    87.852509    36341.856 
  228300    305.23854   -1537.7496    481.30821    323.81341   -277.49986    36341.856 
  228400    301.31086   -1526.2216    493.48711    329.75978    103.15171    36341.856 
  228500    297.29037   -1545.1991    528.60977    327.72465   -12.935591    36341.856 
  228600    306.37978   -1539.3008    505.34527    351.45975    217.55938    36341.856 
  228700    306.54883   -1494.2634    500.70856     392.6249    283.61636    36341.856 
  228800    307.76587   -1495.8385    546.00334    441.84792    -77.07693    36341.856 
  228900    310.54778   -1492.2886    502.82743    414.80132   -349.79168    36341.856 
  229000    307.94569   -1512.2926      518.322    398.52561    288.07252    36341.856 
  229100    290.23035   -1510.1533     523.6017    325.83779   -156.26101    36341.856 
  229200    300.06258   -1500.0279    522.68717    379.50891   -113.38259    36341.856 
  229300    297.51439   -1500.9948    505.50823    349.84047   -525.51714    36341.856 
  229400    294.03581   -1474.0002    526.96937    382.56644    -802.3288    36341.856 
  229500    306.84177    -1531.165    489.98536    346.32479   -489.40786    36341.856 
  229600     308.0973     -1487.21    521.02897    427.00066   -119.34245    36341.856 
  229700    303.26571   -1508.2973     495.8704    358.90695    310.13376    36341.856 
  229800    316.61574   -1512.0873    509.29999    428.91388    145.28837    36341.856 
  229900     296.0325    -1523.218    510.20707    325.61511    190.39273    36341.856 
  230000     301.4212   -1520.7151    524.78195    367.06004    221.62808    36341.856 
  230100    308.71041   -1528.0573    511.99787    379.89478     419.0883    36341.856 
  230200    296.14571   -1485.0808    500.50959    354.56679    67.885944    36341.856 
  230300    292.63425   -1488.2129    500.98479    336.03147   -153.90649    36341.856 
  230400    306.12398   -1540.7958    513.58766    357.05052   -523.04095    36341.856 
  230500    286.13593   -1548.8163    516.49447    261.55308   -746.53882    36341.856 
  230600    286.48591   -1536.5132    522.93966    281.88394   -1104.7013    36341.856 
  230700    298.51271    -1523.975    494.05446    319.92076   -616.86944    36341.856 
  230800    293.50018   -1513.9292    497.11864     310.3646   -238.06119    36341.856 
  230900    295.22634   -1508.1539    476.96141    303.78822   -497.35252    36341.856 
  231000    301.37383   -1508.0833    501.66689    356.36258    -698.1034    36341.856 
  231100    302.46374   -1501.0164    511.27206    377.96302   -613.71936    36341.856 
  231200     300.3514   -1487.5542    515.81296    386.41443   -272.67288    36341.856 
  231300    296.11749   -1519.5539    515.89325    335.34975   -519.81271    36341.856 
  231400    309.63175    -1535.661    487.38618    351.84556   -238.66318    36341.856 
  231500     297.1486   -1514.0698    533.14284    362.74603   -754.81239    36341.856 
  231600    300.04642   -1469.8794    491.04676     377.9439    -908.4731    36341.856 
  231700    294.13836   -1496.5886    500.05767    333.53004   -404.55859    36341.856 
  231800    299.07887   -1517.2286     502.1501    337.32293    160.31678    36341.856 
  231900     303.3892   -1485.6961    552.22895    438.42507    27.148756    36341.856 
  232000     300.8903   -1503.6732     477.1393    334.05857   -9.8587137    36341.856 
  232100    299.78059   -1513.4226    524.95791    367.10988    165.75823    36341.856 
  232200    296.49236   -1500.7508    530.49156    370.44622    73.106318    36341.856 
  232300    290.88108    -1507.325    511.63293    319.63983   -29.320902    36341.856 
  232400     308.1353   -1508.1997    504.02064    389.17457    111.74407    36341.856 
  232500    289.09036     -1506.24     511.3142    312.30862    202.40977    36341.856 
  232600    293.67931   -1513.8179    522.55181    336.71913    332.67885    36341.856 
  232700    301.78602    -1524.282    513.47687    353.83775    805.30423    36341.856 
  232800    304.40463   -1506.8428    539.88553    409.52662    1164.2995    36341.856 
  232900    298.32851   -1513.2204    522.73964    358.52756    630.00908    36341.856 
  233000    293.75124   -1484.9138    517.13383    360.53044    407.80924    36341.856 
  233100     305.2089   -1511.2061    515.13264    384.04727    381.39113    36341.856 
  233200    296.18218   -1533.2082    540.09634    346.19101    243.72007    36341.856 
  233300    305.43339   -1548.9633    486.94618    319.11877    636.19034    36341.856 
  233400    299.04664   -1551.7705    516.79058    317.27574    359.76864    36341.856 
  233500    303.68101   -1534.0706    507.21366     346.3548    292.21302    36341.856 
  233600    300.95898   -1537.9682    496.84089    319.77578    645.63289    36341.856 
  233700    300.24174   -1534.8464    505.40251    328.21594    238.90589    36341.856 
  233800    298.27202   -1502.4749    512.31539    358.59339    178.60465    36341.856 
  233900    305.64456   -1486.4252    529.14253    424.80803   -296.27978    36341.856 
  234000    296.71295   -1447.4671    503.91579    398.15165   -660.07005    36341.856 
  234100    297.05438   -1434.4358    534.99797    443.80906   -109.44164    36341.856 
  234200    297.94004   -1486.3899    506.80698    367.66881   -1.0209934    36341.856 
  234300     290.4392   -1477.0277    502.23932    338.54545   -348.94941    36341.856 
  234400    301.13369     -1487.38    540.55373    414.86679   -603.69189    36341.856 
  234500     297.0084   -1482.0608    510.57094    371.54906   -997.95351    36341.856 
  234600    302.10098   -1492.1905    513.55252    387.42905   -704.37992    36341.856 
  234700    307.48647   -1497.2642    513.41506    406.57054   -335.76992    36341.856 
  234800    304.02224    -1511.607    508.05598    371.20371   -640.73778    36341.856 
  234900    291.49438   -1495.2755    493.09532      315.925   -936.31041    36341.856 
  235000     310.2853   -1508.1504    522.78317    417.70838   -154.05417    36341.856 
  235100    293.27943   -1534.9346    519.42075    310.66317   -510.81291    36341.856 
  235200    292.62011   -1525.3583    517.25707    315.09437    -105.6917    36341.856 
  235300    292.93717   -1498.6435    502.33948    328.32531   -955.21342    36341.856 
  235400     314.1131    -1549.213    499.36013    370.53162   -1258.2615    36341.856 
  235500    306.50802   -1549.1798    475.45353    312.26897   -592.71019    36341.856 
  235600    300.65614   -1570.7036    524.73196    313.56204   -227.72583    36341.856 
  235700    302.95356   -1537.1332    511.72273    344.51183   -41.272077    36341.856 
  235800    307.32845   -1531.6599    514.61644    372.66163    439.92494    36341.856 
  235900     295.3855   -1515.5667    503.80804    323.94171   -62.215972    36341.856 
  236000     306.4179   -1518.9425     526.3033    392.94847   -287.26622    36341.856 
  236100    306.40386   -1456.6041    540.68423    469.60428    168.63935    36341.856 
  236200    301.65741   -1522.1373    514.04829    355.97228    224.50481    36341.856 
  236300    303.44486   -1570.6304    521.63496    323.14853    437.88543    36341.856 
  236400    299.32498   -1572.7177    496.38155    277.17817   -151.11617    36341.856 
  236500    297.47464   -1546.2259    508.71551     307.6369   -398.99302    36341.856 
  236600    307.11997     -1571.87    525.98252    342.87489   -162.92792    36341.856 
  236700    287.99366   -1509.0102    483.81819    277.08329    -311.6758    36341.856 
  236800    307.37646   -1490.8078    543.09262    442.20699    293.08318    36341.856 
  236900    299.55644     -1482.87     518.3307     390.0216    217.88914    36341.856 
  237000    310.43116   -1509.8109    505.93098    399.85531   -942.22828    36341.856 
  237100    301.49095     -1497.52    533.81545    399.60398    239.56434    36341.856 
  237200    299.90502   -1538.5488    506.20946    323.79781    713.04048    36341.856 
  237300    304.92831   -1519.5718    502.52953    361.80962    803.24202    36341.856 
  237400    296.50845   -1539.5866     521.1852    322.37691    338.60204    36341.856 
  237500    309.17161   -1559.6521    519.65364    358.04125    1088.3787    36341.856 
  237600    309.17697   -1538.5481    522.02299    381.53881    289.58008    36341.856 
  237700    297.29992   -1524.4383    511.66946    331.58834   -79.735563    36341.856 
  237800    304.05969   -1516.5847    510.99804    369.33748    559.92245    36341.856 
  237900    300.84321    -1539.803    519.59727    340.17384    631.19611    36341.856 
  238000    304.01817   -1509.6732     504.4806     369.5438    574.11727    36341.856 
  238100    297.46338   -1521.0439    514.06641    338.11885   -40.989715    36341.856 
  238200    289.25318   -1523.5896    505.38208    289.76318    76.575779    36341.856 
  238300    294.53424   -1481.8721    497.63029    347.60926    60.149654    36341.856 
  238400    302.92892   -1447.8647    514.83578    436.78196    556.95826    36341.856 
  238500    290.20248   -1520.3554    495.92897    287.83689   -410.12071    36341.856 
  238600    301.77341   -1509.0142    560.78719    416.35879    106.86544    36341.856 
  238700    295.24184   -1553.5559    495.14787    276.64278    645.22546    36341.856 
  238800    319.19962   -1498.2309    549.36898    494.52331    651.82887    36341.856 
  238900    305.66959   -1501.7216    497.23706    377.71932    464.69585    36341.856 
  239000    298.82181   -1509.2875    530.46722    372.41871   -87.750528    36341.856 
  239100    291.17681   -1510.7709    516.43116    322.32948    265.57824    36341.856 
  239200    307.99969   -1526.4092    506.23143    372.56263   -165.83747    36341.856 
  239300    306.00936   -1549.4762    512.86195    347.12604    643.59841    36341.856 
  239400    295.76189   -1501.0175    510.64989    347.03478    532.34609    36341.856 
  239500     297.3693   -1519.8128    474.75873    299.61682   -194.11919    36341.856 
  239600    308.13452    -1515.879    541.93681    419.40785   -424.38005    36341.856 
  239700    300.75755   -1569.8086    506.07082    296.25445   -658.10658    36341.856 
  239800    303.96872   -1504.3528    499.96591    370.12584   -324.28509    36341.856 
  239900    301.35764     -1521.51    534.68717    375.88299    552.76229    36341.856 
  240000    301.96432    -1522.867     508.3665    350.94863    984.00395    36341.856 
  240100    293.10458    -1516.657    521.71552    330.44479    490.09797    36341.856 
  240200    292.79894    -1558.969    495.82808    260.86329    259.91057    36341.856 
  240300    300.32002   -1549.8989    529.38352    337.49838    384.37461    36341.856 
  240400    299.08202   -1551.7726    531.22118    331.86421   -45.383275    36341.856 
  240500    296.67056   -1521.7118    516.81956    336.61903   -372.76283    36341.856 
  240600    295.53387   -1514.9404    531.80698    353.23785    72.980948    36341.856 
  240700    297.26821   -1517.7438    503.07093    329.54096   -36.060762    36341.856 
  240800    291.71138   -1497.9247    536.52559    357.68733   -722.75353    36341.856 
  240900    298.87485   -1468.8364    512.33814    394.98058   -482.88155    36341.856 
  241000    296.62552   -1476.0825     526.9527     392.1778   -317.50575    36341.856 
  241100    294.29928    -1521.549     476.8081    286.04768   -562.49204    36341.856 
  241200    304.50663   -1512.2039    514.46886    379.21007    272.65158    36341.856 
  241300    294.58129   -1522.3153    498.50632    308.25488    69.804709    36341.856 
  241400     311.5676   -1555.9518    533.30668    386.22887   -149.19942    36341.856 
  241500    306.78848   -1528.4612    518.40858    377.21077     374.8366    36341.856 
  241600    305.42312    -1538.296    491.48703    334.28045    176.94108    36341.856 
  241700    291.54746   -1551.9898    496.20279    262.55824   -238.67631    36341.856 
  241800    302.76931   -1600.7177    499.14679    267.51821   -431.05007    36341.856 
  241900    300.92179   -1549.5941    500.13686    311.27769   -33.005757    36341.856 
  242000    314.96713   -1565.0998    496.78319    355.92971   -353.70056    36341.856 
  242100    301.34432   -1503.7595    511.00565    369.89164   -286.61606    36341.856 
  242200    291.39498   -1545.5047    521.87961    294.03059   -433.95842    36341.856 
  242300    292.83336   -1509.5278    501.65902    316.29115    35.388635    36341.856 
  242400    307.89077   -1500.9791    512.12438     403.3931    876.64133    36341.856 
  242500    305.77229   -1530.3088    520.57483    372.93434   -144.50856    36341.856 
  242600    300.11191   -1544.0289    486.47116    299.51496    13.923354    36341.856 
  242700    309.66754   -1512.9522    522.06049    409.39049    -120.0026    36341.856 
  242800    299.93909   -1526.2917    501.28707    331.28657   -382.49108    36341.856 
  242900    305.72873    -1520.768    500.86042    362.56372   -77.717577    36341.856 
  243000    295.25628   -1555.4179    494.86351    274.56166   -302.87691    36341.856 
  243100    305.52461   -1562.4225    506.48071    325.60653    106.05072    36341.856 
  243200    301.66302   -1554.2694    485.83905    295.65636   -533.93375    36341.856 
  243300    285.08725   -1524.7234    515.97942    280.38884    351.96178    36341.856 
  243400     303.6111   -1543.8307    501.44158    330.50656    347.45728    36341.856 
  243500    304.40408   -1525.6602    512.09714    362.91841   -417.67797    36341.856 
  243600    304.83081   -1492.3311    520.70096    406.78087      -350.71    36341.856 
  243700    293.54058   -1522.7214    495.96154    300.59801   -295.48312    36341.856 
  243800    294.79326    -1505.591    501.61002    329.04134   -216.45616    36341.856 
  243900    293.45429   -1513.2797    517.18124    330.86925    286.15789    36341.856 
  244000    304.71048   -1520.1565    501.66002     359.3704    364.76941    36341.856 
  244100    304.79114   -1541.0868    502.88208    340.02695    709.98361    36341.856 
  244200    306.24741    -1509.129    498.91761    374.60532   -115.63218    36341.856 
  244300    301.18472   -1549.4245    474.63635    287.13564   -115.26366    36341.856 
  244400      293.671   -1544.5958    509.60142    292.95324   -485.05739    36341.856 
  244500    297.80011   -1570.5216    500.92934    277.02673   -170.89289    36341.856 
  244600    307.77972     -1530.71    488.57365    349.60929   -313.39586    36341.856 
  244700    295.29139   -1511.7934     496.8297    320.31111    161.59821    36341.856 
  244800    299.07256   -1502.1572     508.2693    358.48495   -83.945785    36341.856 
  244900    300.83466   -1501.4978    511.44026     370.2834    112.56886    36341.856 
  245000    306.53496   -1502.1062    517.93616    401.94698    727.38049    36341.856 
  245100    289.06553   -1529.0895    503.69503    281.72771    838.18155    36341.856 
  245200    312.74081   -1513.1394    509.67383    410.71366    1045.6694    36341.856 
  245300      305.487   -1495.2147    523.14016    409.30373      526.618    36341.856 
  245400    292.77003   -1477.6608    511.37658    357.58935    976.83712    36341.856 
  245500    285.63888   -1485.4713    516.14518    322.30112    507.44108    36341.856 
  245600    304.21072   -1476.2057    500.54117    399.94256   -145.57619    36341.856 
  245700    297.59301   -1495.2712    497.78166    348.19295   -172.15318    36341.856 
  245800    300.24794   -1486.4144    511.86567    383.13911    47.141564    36341.856 
  245900    296.20957   -1493.6376    529.29152    375.08071   -329.00675    36341.856 
  246000    294.22779   -1516.3904    513.03628     327.1113    40.087941    36341.856 
  246100    306.46623   -1511.3611    502.97932    377.42449   -378.72197    36341.856 
  246200    300.72147   -1536.5345    505.61096    328.90555    177.07346    36341.856 
  246300    304.85878   -1538.8631    507.36776    347.04213   -154.48553    36341.856 
  246400    300.17357   -1520.0053    512.96416    350.31042    733.56686    36341.856 
  246500    292.89252   -1556.8837    509.12149    276.66519   -993.34974    36341.856 
  246600    303.86923   -1502.9404    515.12272    386.24514   -562.18893    36341.856 
  246700    294.15364    -1508.283    503.74905    325.59615   -613.06255    36341.856 
  246800    305.13497    -1482.615    495.97924    393.15063   -257.35384    36341.856 
  246900    296.07527   -1522.5647    493.76201    310.01679   -700.53037    36341.856 
  247000    302.27641   -1513.1857    536.44565    390.12028   -611.92546    36341.856 
  247100    302.85093   -1489.0153    500.95276    381.39568   -435.35422    36341.856 
  247200    299.56185   -1473.1818    502.26189    383.66546    -337.1048    36341.856 
  247300    299.75908   -1520.6314    504.21948    339.06534    34.033316    36341.856 
  247400    300.90448   -1509.6944    483.62094    334.58312    554.63973    36341.856 
  247500    303.32741   -1507.7343    512.85473    376.73332     1257.263    36341.856 
  247600    300.65386   -1466.5431    500.90637    393.88662    741.08052    36341.856 
  247700       303.14   -1453.2612      500.395    417.89918    770.44935    36341.856 
  247800    289.75239   -1452.9421    522.06916    379.35517   -156.72581    36341.856 
  247900    292.82033   -1473.5233    505.17777    355.75548    457.93426    36341.856 
  248000    306.29299   -1458.6591    512.67446    439.03826     215.1152    36341.856 
  248100    292.89118    -1486.883    552.02278    389.56113    71.913844    36341.856 
  248200     302.7141   -1511.7101    494.48087    351.61022   -54.685738    36341.856 
  248300    305.02013    -1485.933    522.50026    415.83432     594.3888    36341.856 
  248400    297.19546   -1481.7238    519.50137    381.66243   -400.52831    36341.856 
  248500    289.24001   -1446.7817    526.53949      387.669    378.59466    36341.856 
  248600    301.27213   -1500.3479    525.07286    387.04401    55.969795    36341.856 
  248700     299.9782   -1520.9953    498.33162    333.80436    66.755717    36341.856 
  248800    291.87576   -1503.6682    489.32132    305.48286    207.23725    36341.856 
  248900    300.24127   -1536.5876    530.56725    351.63728    461.77259    36341.856 
  249000    310.28867   -1544.2861    487.95985    346.76459    79.311601    36341.856 
  249100    291.76883   -1553.1049     490.0934    256.33469    331.34988    36341.856 
  249200     300.0125   -1514.9396    486.08951    327.77313   -11.663015    36341.856 
  249300    293.54802   -1473.8358    485.69105    339.24682   -264.01658    36341.856 
  249400    302.58402   -1461.9839    511.94785    418.21524   -267.68177    36341.856 
  249500    294.60546   -1448.8423    517.49249    400.82337    47.621187    36341.856 
  249600    307.83995   -1484.2206    505.01634    412.81374    309.36392    36341.856 
  249700    295.91523    -1464.784    502.34664    375.65843   -55.827733    36341.856 
  249800    292.98304   -1483.7694     490.6655    331.73283   -824.43952    36341.856 
  249900    298.02931   -1511.0179     505.2781    341.91561   -312.40123    36341.856 
  250000    290.60554   -1509.5677     500.8655    305.38375   -503.35397    36341.856 
  250100    297.08385    -1482.663     508.3411    369.05828   -504.48669    36341.856 
  250200    292.98368   -1506.8127    505.00749    323.03439   -748.55181    36341.856 
  250300    306.04727   -1474.3451    505.69575     415.2624    291.90294    36341.856 
  250400    303.91209   -1455.5369    522.25866    440.97846   -126.93309    36341.856 
  250500    287.83688   -1488.0541    513.79729     327.3095    234.00989    36341.856 
  250600    299.03033   -1488.1487     495.9079    359.94109    141.75771    36341.856 
  250700    296.38036   -1506.1163    524.69198     358.7747    60.156817    36341.856 
  250800    300.13025   -1553.2067    504.01312    307.96203   -51.983247    36341.856 
  250900     291.4337   -1512.4353    537.20771    342.60316    199.92003    36341.856 
  251000    304.15146   -1522.1318    506.67468    359.88196   -203.85837    36341.856 
  251100    309.52607   -1514.9838    511.16366    395.82237    137.11345    36341.856 
  251200    300.72904   -1502.2886     509.6296    367.20431    -240.3287    36341.856 
  251300    295.45223   -1529.5747    501.54662    307.97409   -433.43648    36341.856 
  251400    316.04193   -1511.8799    492.75012    409.97672    287.07293    36341.856 
  251500    293.54368   -1523.2307    507.93235    312.07357    92.078442    36341.856 
  251600    291.94546   -1500.7229    516.96104    336.38304   -214.45455    36341.856 
  251700    314.45103   -1479.6251    483.80266    426.09018    487.72656    36341.856 
  251800    296.86013   -1493.5828    539.10372    387.88941    121.66615    36341.856 
  251900    315.30751   -1520.3024     480.2868    385.76985    42.041177    36341.856 
  252000    305.08754   -1463.7707    523.08789    438.88912    169.01894    36341.856 
  252100      302.901   -1443.5966     515.9244    442.01252    434.75254    36341.856 
  252200    306.02152     -1491.94    497.27531    389.13058   -36.683866    36341.856 
  252300    292.34268   -1512.7528    516.57465    325.76295   -271.93599    36341.856 
  252400    297.35454   -1488.2542    512.01187    368.36185   -196.36578    36341.856 
  252500    295.15839    -1497.541    497.05792    334.19032   -517.19176    36341.856 
  252600    306.16426   -1450.8556     545.6811    479.26623   -823.86932    36341.856 
  252700    290.64488   -1494.9406    508.26378    327.58696    96.397311    36341.856 
  252800    284.35635   -1517.1059    530.15922     298.8811   -140.78616    36341.856 
  252900    294.83952   -1504.9547    509.87701     338.1538    778.59919    36341.856 
  253000    297.48717   -1504.5325    541.26793    381.93931    88.348076    36341.856 
  253100    307.88761   -1493.2163    517.43083    416.44809    70.295768    36341.856 
  253200    292.16794   -1531.0781    517.77368    307.84653   -244.20687    36341.856 
  253300    304.03927   -1570.2407    535.80609    340.39716    180.29675    36341.856 
  253400    306.47893   -1596.9932    495.71177    284.58225    798.64316    36341.856 
  253500    284.37023   -1569.1824     526.3468    243.05494    172.42399    36341.856 
  253600    292.79414    -1582.665    521.88365    263.20122   -37.960846    36341.856 
  253700    284.85053   -1552.0135    488.59013    224.63908    205.39791    36341.856 
  253800    293.30216   -1569.9771    485.62255    241.92523    405.75736    36341.856 
  253900    306.45474   -1543.1714    532.92727    375.51013    256.73979    36341.856 
  254000    302.77457   -1576.5382    501.48678    294.06158    13.192768    36341.856 
  254100    294.13229   -1542.0235    509.71134    297.72138   -23.335925    36341.856 
  254200    307.62933    -1505.587    520.48362    405.96231   -238.07463    36341.856 
  254300    309.35524   -1570.3939    508.24632    336.72243    146.40691    36341.856 
  254400     302.1562   -1548.4718    482.64274    300.48763   -403.17221    36341.856 
  254500    305.30541   -1524.4232    540.88021    397.01411   -76.624484    36341.856 
  254600     309.6703   -1563.1502    528.22373    365.36821   -564.80681    36341.856 
  254700    305.70756   -1538.1249    527.65202    371.90274    370.62971    36341.856 
  254800    306.06113   -1565.4014    510.22061    328.79365    438.11085    36341.856 
  254900    306.48588   -1589.6884    494.27005    290.47674    319.41305    36341.856 
  255000    299.29195   -1585.1521    497.22364    265.43644   -463.28431    36341.856 
  255100    297.40835   -1531.9415    503.51564    316.42164   -232.15215    36341.856 
  255200    291.67276   -1514.5359    507.28081    311.65672   -364.26983    36341.856 
  255300    307.62903   -1537.6907    499.52694    352.90053    357.71717    36341.856 
  255400    294.87292   -1537.2874    523.74244    319.83758     115.5971    36341.856 
  255500     296.6046    -1511.901    493.96512    323.27712   -234.67424    36341.856 
  255600    303.45822   -1514.6849    504.76432    362.28376    208.80948    36341.856 
  255700    300.05146   -1582.4304    498.70532     273.0743    451.98408    36341.856 
  255800    301.03336   -1553.6268    497.27002    304.88267    94.659193    36341.856 
  255900    293.84753     -1569.81    524.66094    283.59684   -58.076409    36341.856 
  256000    308.38244   -1552.8133    523.29544    364.95329    10.432119    36341.856 
  256100    285.47514   -1555.5695    537.36218    272.67957    505.48083    36341.856 
  256200    291.95444   -1543.7423    536.70383    313.14706    513.46672    36341.856 
  256300    303.26317   -1527.9295    515.51329     358.9061   -40.114991    36341.856 
  256400    310.08027   -1529.1153    512.69456    385.72775    154.80369    36341.856 
  256500    305.74807   -1556.2087    500.93419    327.28422    245.22097    36341.856 
  256600    295.48411   -1546.1057    502.98868    293.02933    317.08872    36341.856 
  256700    293.08906   -1571.8097    524.79316    278.29958    473.77999    36341.856 
  256800    296.08505   -1590.4568    485.25555     233.6625   -54.591186    36341.856 
  256900     293.7724    -1574.164    520.57465    274.81679    179.98303    36341.856 
  257000    309.82976   -1557.5835    518.28444    361.71667    379.46673    36341.856 
  257100    297.82228   -1555.0261    526.77525    318.46841    394.28373    36341.856 
  257200    298.87071   -1589.4602    497.65094    259.65088    541.94743    36341.856 
  257300    300.15397   -1575.6113    512.52757    294.17915   -244.85367    36341.856 
  257400    314.04012   -1584.7383    493.99999    329.31624   -164.13606    36341.856 
  257500    305.17315    -1474.989    535.41111    440.38117    -470.6232    36341.856 
  257600    302.88075    -1540.765    499.75072    328.57886   -213.74168    36341.856 
  257700    307.18147   -1558.9784    486.63131     316.6933   -75.864373    36341.856 
  257800    297.93309   -1553.5628    521.63503    315.29254   -714.58885    36341.856 
  257900    308.19188   -1513.7478    519.07838    398.94003  0.091302633    36341.856 
  258000    295.97584   -1529.4626    497.67808    306.58535   -666.54231    36341.856 
  258100    309.48954   -1565.0995    517.18979    351.56757   -227.44197    36341.856 
  258200    290.24665   -1524.4748    521.25121    309.23951   -78.130639    36341.856 
  258300    298.74988   -1534.7219    516.55297     332.7448    278.37587    36341.856 
  258400    301.26071   -1515.7403    514.43606    360.96327    187.27704    36341.856 
  258500    295.01302   -1514.4929    501.36675    320.88989    296.84033    36341.856 
  258600    297.18968   -1526.3135    499.55528    317.10043   -275.69024    36341.856 
  258700    304.46865   -1549.6293     542.5997    369.74373   -97.260538    36341.856 
  258800    288.90808   -1529.8586    519.06133    295.61293   -106.32891    36341.856 
  258900    298.36624   -1525.9432    478.60732    301.84311    -143.0079    36341.856 
  259000    303.45736   -1490.5845    506.69947    388.31539    704.46633    36341.856 
  259100    300.97003   -1469.7036    517.38521    408.63462    122.31139    36341.856 
  259200    305.78618   -1483.8665    509.73597     408.6006    527.95893    36341.856 
  259300    298.61638   -1518.2407    506.73602     338.8054    766.14259    36341.856 
  259400    305.99559    -1510.398    511.08083    384.36091    1194.1381    36341.856 
  259500    308.17971   -1537.8447    523.94336    379.65306    830.48773    36341.856 
  259600    297.31719     -1497.53    520.21996    367.12518    459.54547    36341.856 
  259700    300.94606   -1480.9425    526.45483    406.35698     521.5823    36341.856 
  259800    299.82426   -1515.4935    515.57166    355.85016   -151.28382    36341.856 
  259900    308.43694   -1505.7157    507.09332    396.09519    38.626541    36341.856 
  260000    303.95257   -1499.0589     526.3617    401.74252   -170.00834    36341.856 
  260100     296.9221   -1458.2358    508.21233    392.62525    -95.07881    36341.856 
  260200    297.15737   -1499.3495    523.14456    367.50764   -99.437372    36341.856 
  260300    301.97173   -1552.7734    536.91001    349.61923    60.883454    36341.856 
  260400    296.51473   -1524.1253    505.97273    322.65409    505.29455    36341.856 
  260500    304.56462   -1562.9133    505.68665    319.98074    393.32629    36341.856 
  260600    301.21593   -1583.6175    506.07219    284.51966    568.56241    36341.856 
  260700    294.19248   -1561.8988     510.2171    278.62397    26.939988    36341.856 
  260800    299.51553   -1567.5251    494.57598    281.42678    104.08308    36341.856 
  260900    297.69917    -1611.723    480.58554    215.02512   -574.55668    36341.856 
  261000    301.98544   -1551.9852    500.51864      314.078   -946.80554    36341.856 
  261100    297.65526   -1519.1552    486.96712    313.77591   -1066.0813    36341.856 
  261200    299.19403   -1501.8847    517.79811    368.83562   -381.61132    36341.856 
  261300     294.8181   -1472.1852    530.47691    391.42635   -681.80636    36341.856 
  261400    305.37395   -1521.8899    535.94094    394.91815   -318.49149    36341.856 
  261500    295.13095   -1477.0895     512.2427    369.70252    136.25315    36341.856 
  261600     299.4974   -1509.1383    529.82565    374.98134   -603.34585    36341.856 
  261700    291.32049    -1512.561    514.19899    318.95684   -423.80002    36341.856 
  261800    295.09806   -1517.1796    507.67019    324.89121    81.837479    36341.856 
  261900    305.20562   -1482.4114    524.17502    421.86948   -440.06607    36341.856 
  262000    310.10088   -1483.4886    532.59838    451.35147   -698.60751    36341.856 
  262100    304.50274   -1534.7172    483.12852    325.33883   -211.93696    36341.856 
  262200    298.23521   -1503.0945    520.51314    366.00512    -319.7325    36341.856 
  262300    293.94324   -1506.2918    529.75366    352.64051    283.24831    36341.856 
  262400    294.95088   -1556.9325    511.20888    288.01147    21.995142    36341.856 
  262500    298.60697   -1546.3826    502.72242    306.60738     103.1526    36341.856 
  262600    294.16118   -1530.6613    503.17295    302.67585    677.78279    36341.856 
  262700     301.7772   -1509.9519    521.04277    375.69383     441.4858    36341.856 
  262800    292.63824   -1475.2593    490.21815    338.23641   -115.34831    36341.856 
  262900    297.73548   -1479.5409     503.3921    370.17793   -691.83086    36341.856 
  263000    293.62512   -1508.1063    489.54167    309.17558   -126.16286    36341.856 
  263100    296.25559   -1555.9056    521.54899     305.2783    643.34962    36341.856 
  263200    301.17533   -1545.8411    519.74329    335.78353    214.40798    36341.856 
  263300    303.63998   -1479.1384    508.10718    401.99503    105.04006    36341.856 
  263400    294.17286   -1531.1718    505.09265    304.13784   -127.37885    36341.856 
  263500    303.48646   -1491.2372    515.06298    396.15782   -238.10553    36341.856 
  263600    291.87574   -1486.7212    518.96067     352.0691    62.835357    36341.856 
  263700    296.56234   -1486.4652    489.48012    344.03688    108.59565    36341.856 
  263800    305.86529   -1535.4471    512.24682    359.88858   -39.510974    36341.856 
  263900    297.43774   -1546.4866    491.09728    289.59109     526.8437    36341.856 
  264000     300.2022   -1497.9975     511.9819    371.46543    533.39641    36341.856 
  264100    303.58839   -1469.5721       524.39    427.61086    572.90785    36341.856 
  264200     299.0403   -1529.4021    503.75357     326.5785    962.89376    36341.856 
  264300     293.7751   -1490.9944    536.78984    374.21381    611.12578    36341.856 
  264400    302.30966   -1519.2562    507.14031    354.89482    350.10779    36341.856 
  264500    317.41615   -1530.2231    499.90612    405.00357   -97.012182    36341.856 
  264600     295.1873   -1506.1648    524.47685    353.11621   -40.213019    36341.856 
  264700    293.09784   -1481.0499    518.90714    363.21316   -931.54175    36341.856 
  264800    291.24422   -1501.9204    504.69082     319.7444   -946.41628    36341.856 
  264900    293.03812   -1524.0996    532.23214    333.21831   -604.96488    36341.856 
  265000    301.21448   -1532.0219    517.09673    347.13319   -70.240488    36341.856 
  265100    295.73432   -1525.8393    533.82312    345.26159   -858.69833    36341.856 
  265200    294.46791   -1525.2645    516.36555    322.65222   -346.29857    36341.856 
  265300    298.42548   -1533.3807    530.43413    346.50028   -245.51623    36341.856 
  265400    298.83906    -1538.186    498.14242    311.27347   -302.86584    36341.856 
  265500    296.99995   -1513.1127    518.53275     348.4208    494.26274    36341.856 
  265600     298.9905   -1542.0419    504.92413    314.88404    62.732582    36341.856 
  265700    306.76439   -1526.6374    513.92339    374.44049    354.35524    36341.856 
  265800     294.5929   -1528.2108    488.64424    292.54983   -51.138625    36341.856 
  265900    300.70482   -1511.1905    483.64984    332.21314   -175.49735    36341.856 
  266000    310.04513   -1556.5562     485.8912    331.32468   -429.62204    36341.856 
  266100    304.98353   -1507.2561    515.55303    387.39853   -481.67543    36341.856 
  266200    297.63602   -1551.7375    498.88836    293.02792   -763.03366    36341.856 
  266300    318.65273   -1550.3499     500.5155    391.07784    -872.7522    36341.856 
  266400     294.2096   -1472.3177     501.1951    359.26054   -827.54133    36341.856 
  266500    302.59807   -1496.6823    525.58874    397.22126   -464.32774    36341.856 
  266600    301.70117   -1535.4851    496.20897    324.98299   -13.450853    36341.856 
  266700    293.76798   -1514.3947    562.23368    376.22509    333.73051    36341.856 
  266800    298.23823   -1520.0896    503.63523    332.14581    114.08653    36341.856 
  266900     297.3039   -1446.5482    530.37835    428.20536   -248.46593    36341.856 
  267000    292.01369   -1517.9268     513.7354    316.26202   -516.81488    36341.856 
  267100    297.26539   -1528.1953     524.6985     340.7043    34.580492    36341.856 
  267200    288.96404   -1508.5885    524.04649    322.12128    780.51471    36341.856 
  267300    295.71135    -1530.879    511.17906    317.47393    881.63803    36341.856 
  267400    304.77483   -1510.6045    523.07555    390.62899     351.8114    36341.856 
  267500    297.93439   -1490.6507    507.12145    363.69692    242.34655    36341.856 
  267600    295.54537   -1493.9826    517.79167    360.23236     12.13341    36341.856 
  267700      308.091   -1544.8382    507.78905     356.1041    50.105465    36341.856 
  267800    298.67093    -1541.749     508.4407    317.24848   -321.33405    36341.856 
  267900    299.62755   -1517.7761    537.79645    374.90286    434.74981    36341.856 
  268000    305.00512   -1533.7861    500.19076    345.60396    28.237154    36341.856 
  268100    292.41199   -1495.5304    527.54633    354.27043    39.665547    36341.856 
  268200    303.42969   -1531.6566    518.80792    359.22663    4.2824136    36341.856 
  268300    302.82481   -1535.4991    504.53564    338.37671    884.36519    36341.856 
  268400    313.21025   -1512.0516    528.06563    432.31598    355.62221    36341.856 
  268500    300.14184   -1525.6799    514.72087    346.24899    511.94317    36341.856 
  268600    290.78103   -1506.9155    520.04409    328.00807    753.43842    36341.856 
  268700    289.12564   -1545.0203    501.76857    264.14232    130.98913    36341.856 
  268800    288.95182   -1556.0355    498.35723    248.92972    409.37287    36341.856 
  268900    293.56947    -1489.496    515.41372    353.40621    175.73873    36341.856 
  269000    301.02243   -1541.9819    512.98785    332.19589    587.88493    36341.856 
  269100    298.23238   -1553.0453    504.83845    300.36679    1043.5936    36341.856 
  269200    288.26456   -1544.3248    547.07271    306.24822    337.23831    36341.856 
  269300    307.59091   -1511.4262    511.53433    391.00005   -41.154795    36341.856 
  269400    307.63109   -1498.3334    515.84029    408.58047    279.42092    36341.856 
  269500    301.89879   -1486.3116    529.09196    407.93309    201.91565    36341.856 
  269600    299.49948   -1434.4327    497.72858    417.59926    565.23512    36341.856 
  269700     295.6156   -1503.3355    527.05102    360.45637   -202.46609    36341.856 
  269800    287.57559   -1515.0757    499.61402    284.92321   -424.45279    36341.856 
  269900    300.09953   -1514.2899     514.5618    357.28856   -447.18511    36341.856 
  270000    301.19869   -1478.8636    521.01492    404.13829   -325.81969    36341.856 
  270100    302.30924   -1497.5736    530.01516     399.4503   -342.46795    36341.856 
  270200    295.20673   -1482.4321    515.60325    368.06319   -539.69781    36341.856 
  270300    298.37262    -1477.121    530.09715    402.18398   -518.50223    36341.856 
  270400    309.55525   -1506.1536    519.17216      412.793   -86.683271    36341.856 
  270500    302.06115   -1501.9537    519.52295    383.45619   -23.632456    36341.856 
  270600    310.83989    -1561.508    525.10493    369.18033    526.91386    36341.856 
  270700    301.04117   -1553.4782    505.42132    313.21784    83.230616    36341.856 
  270800    301.92194   -1553.1492    500.33443    312.44264   -63.951259    36341.856 
  270900    303.95583    -1566.719      490.262    297.99747    280.59901    36341.856 
  271000     305.0331   -1565.1937    496.31778     310.4499     264.1378    36341.856 
  271100     301.5497   -1510.9888    516.76749    369.35291    161.12476    36341.856 
  271200    289.68968   -1526.6937    507.17519    290.42599   -476.87996    36341.856 
  271300    292.54768   -1536.9127    482.93691    268.89228   -605.29794    36341.856 
  271400     307.5648   -1527.0875    501.94516    365.63156    174.22422    36341.856 
  271500    296.25875   -1552.7755    513.32326    300.19693     656.7813    36341.856 
  271600    310.41175    -1550.794    503.16365    356.01705    365.70324    36341.856 
  271700    292.47665   -1530.5412    506.69356    298.69923    274.32618    36341.856 
  271800    295.47067   -1517.8356    530.33411      348.584    176.55432    36341.856 
  271900    296.20974   -1462.8293    505.60718    382.20537    517.90257    36341.856 
  272000    303.11613   -1472.8222    520.15991    417.99519    280.66337    36341.856 
  272100    293.32935   -1483.0199    486.12508    329.50792   -150.51349    36341.856 
  272200    310.71509   -1515.3605    541.55782    431.21636     346.7345    36341.856 
  272300    296.60994   -1483.9874    523.56966    380.81943    693.00216    36341.856 
  272400    296.04343    -1534.088     521.4024    325.98988    572.14388    36341.856 
  272500      309.716   -1512.0466    520.82936    409.28409   -6.3142915    36341.856 
  272600    304.94578   -1510.8885    527.93593    395.97836   -334.83417    36341.856 
  272700      298.054    -1515.146    502.81355     335.4346    320.53693    36341.856 
  272800    294.63769   -1514.0163    504.45113    322.75375    -98.50371    36341.856 
  272900     306.3133   -1504.9246    507.98226    388.17242    667.12624    36341.856 
  273000    312.38025   -1509.5498    502.97165    405.97062      814.815    36341.856 
  273100    302.76039   -1520.8949    510.71725    358.87112     207.1171    36341.856 
  273200      299.783   -1478.1033    537.00697    414.48909   -96.132501    36341.856 
  273300    298.07037   -1508.4667     523.7962    363.17058    116.56855    36341.856 
  273400    306.17164   -1515.4381    516.12765    385.16369   -184.72971    36341.856 
  273500    305.35157   -1499.9547    516.54895     397.3601   -461.58057    36341.856 
  273600    287.84475   -1519.3856    542.90254    325.11891   -639.32031    36341.856 
  273700    292.86862   -1506.3642    492.93947    310.89461   -587.23307    36341.856 
  273800    307.11849   -1523.6716    534.16347    399.24755   -367.46347    36341.856 
  273900    297.11863   -1527.2801    527.12891    343.38625   -510.46901    36341.856 
  274000     293.7941   -1530.9421    521.43004     318.9922   -306.30926    36341.856 
  274100    291.55986   -1511.0716    498.70419    306.03382   -725.02864    36341.856 
  274200    292.39035   -1502.7264    534.75888    354.18914    349.40021    36341.856 
  274300    302.00694   -1562.0327    540.84482    344.45394    17.630207    36341.856 
  274400    302.73385   -1562.7208    506.82893    313.03692    534.17685    36341.856 
  274500    295.20088   -1509.8941     513.4636    338.43507    401.96692    36341.856 
  274600    299.90479   -1508.5881    521.54672    369.09476   -61.210237    36341.856 
  274700    301.51762   -1506.8587    504.66845    361.23893   -22.045208    36341.856 
  274800    303.14179   -1507.5063    515.88118    379.14838   -397.17244    36341.856 
  274900     289.9375   -1481.7406    481.66745    310.99202   -288.18255    36341.856 
  275000    293.88902   -1512.9381    538.83465    354.83003   -260.67915    36341.856 
  275100    297.82534   -1509.6822    526.92618    363.97701   -25.289523    36341.856 
  275200    294.01968   -1504.4472    513.06522    338.14229   -202.75903    36341.856 
  275300    302.23844   -1511.5927    544.04844    399.14436   -424.31626    36341.856 
  275400    299.49849   -1518.8512    515.79694    351.24461    -111.5101    36341.856 
  275500    289.62933   -1485.9246    549.51726    373.26433   -816.90488    36341.856 
  275600    300.64615   -1481.9537    534.92875    412.46349   -1045.6551    36341.856 
  275700    300.48645   -1474.6189    516.67828     400.8257   -399.62272    36341.856 
  275800     302.2206   -1484.4004    499.68332    381.89092   -155.95685    36341.856 
  275900    304.46706   -1517.3557    541.74628    401.15682    165.26996    36341.856 
  276000    297.79024   -1520.4828    519.22954    345.32117    295.78471    36341.856 
  276100    292.53087   -1531.6655    495.79319    286.91977    804.90328    36341.856 
  276200    291.97728   -1542.6933    520.20767    297.80315    959.11007    36341.856 
  276300    307.89821   -1546.8578    539.54481    384.96844    622.61619    36341.856 
  276400     310.0977    -1557.903    504.45416    348.77853    813.07251    36341.856 
  276500    295.90423   -1517.8164    516.85178    337.08143    1122.4671    36341.856 
  276600     298.4365   -1545.2951     523.1021    327.30363    836.33538    36341.856 
  276700    304.98338   -1545.0172    512.23353    346.31729    667.58366    36341.856 
  276800    306.97806   -1607.7888    510.49612    290.82797    431.64524    36341.856 
  276900    303.15821   -1556.5357    500.97965    315.29173   -614.41112    36341.856 
  277000    294.77776   -1542.7482    514.84332    305.04735    160.31894    36341.856 
  277100     301.5352   -1543.2603    520.06254    340.31087   -380.87771    36341.856 
  277200    301.53391     -1529.55    500.76042     334.7133    66.110974    36341.856 
  277300    300.03449   -1514.6751    516.60762    358.65515    91.946949    36341.856 
  277400     297.3276   -1464.2876    506.71589    386.91066    347.18846    36341.856 
  277500    299.30802   -1527.1716    513.02882    339.29485    246.04571    36341.856 
  277600    298.78643   -1513.8534    533.15036    370.37601   -223.82041    36341.856 
  277700    304.58004   -1550.7248    502.69952    329.25181   -1047.3631    36341.856 
  277800    301.36676   -1553.8298    517.28577    326.20295   -808.49847    36341.856 
  277900    301.53639   -1533.8907     517.3911    347.01446   -778.49707    36341.856 
  278000    293.81687   -1537.9302     502.7776    293.45465   -581.06334    36341.856 
  278100    299.96521   -1506.2257    517.09206    367.27567   -412.48604    36341.856 
  278200    300.42889   -1553.6608    512.34114    317.18645   -798.57117    36341.856 
  278300      306.017   -1555.0475    519.40217    348.12957   -1276.4554    36341.856 
  278400    294.55345   -1578.1929    514.45084    268.19589   -562.77865    36341.856 
  278500    299.64229   -1512.5878     519.0722     361.4335   -936.74024    36341.856 
  278600    292.29308    -1521.946     492.6532    292.42408   -795.24892    36341.856 
  278700    294.25307   -1559.3676    538.04602    309.25808   -987.73155    36341.856 
  278800    302.32072   -1556.6674    522.75903    333.15234   -488.92992    36341.856 
  278900    305.27072   -1535.3657    522.41628    367.45085    -1432.799    36341.856 
  279000    303.29322   -1568.7012    508.93298    311.68999   -1049.1009    36341.856 
  279100     294.3189   -1557.0437    491.02638    264.86004   -635.27019    36341.856 
  279200    300.50959   -1548.3392     513.2542    323.78599   -313.67639    36341.856 
  279300    302.44228    -1520.759    525.07948    371.93089    172.23545    36341.856 
  279400    307.84081   -1542.2263    516.47195    366.26754    307.45869    36341.856 
  279500     288.6514   -1596.9527    497.83225    206.12912    92.285446    36341.856 
  279600    291.98534   -1596.4502     506.9027    230.77774    23.400576    36341.856 
  279700    303.11622   -1595.8872    533.54968     308.3203   -10.450077    36341.856 
  279800    300.61513   -1618.1391    497.16476    238.37379      1.33135    36341.856 
  279900    302.85009   -1603.3514    513.37055    279.47362    75.308481    36341.856 
  280000    308.22655   -1554.0743    532.67416     372.3661    293.58496    36341.856 
  280100    295.18862   -1563.2052    538.90304    310.50791   -126.67017    36341.856 
  280200    301.42952   -1562.0586    505.72713    306.69933    410.00198    36341.856 
  280300    307.90678   -1552.7056    513.95208    353.56672   -393.09335    36341.856 
  280400    308.85081   -1537.9739    506.41929    365.03448   -187.15045    36341.856 
  280500    303.31175   -1582.2589    508.76928    298.05238   -231.57334    36341.856 
  280600    292.15626   -1536.4507    543.04016    327.68757    -431.9529    36341.856 
  280700     303.0282   -1537.5628    513.71405    346.41109   -516.81471    36341.856 
  280800    302.83107    -1527.656    523.99243    365.70489   -862.26624    36341.856 
  280900    311.60352   -1544.2395    520.34565    385.14262    54.464392    36341.856 
  281000    310.64442   -1526.7594    524.80778    402.74789     571.6387    36341.856 
  281100    295.36927   -1542.0496    507.68375    301.26111    561.41245    36341.856 
  281200    301.81035   -1506.8542    511.95899    369.85766    414.44556    36341.856 
  281300     304.6708   -1525.6963    531.33097    383.32215   -192.70372    36341.856 
  281400    291.28629   -1503.5185    500.48498    314.13075   -603.13261    36341.856 
  281500    304.06297   -1510.4967    548.59287    413.03516   -116.34228    36341.856 
  281600    299.41295   -1550.5974    528.29257    331.60728   -575.68845    36341.856 
  281700    302.66982   -1533.7802    515.26017    350.11923    421.25142    36341.856 
  281800    300.62861   -1550.5007    519.20712    328.11557     -220.077    36341.856 
  281900    298.58116   -1529.7859    514.15505    334.51994   -285.43677    36341.856 
  282000    309.54137   -1572.0461    553.79605    381.46161    223.66525    36341.856 
  282100    294.10558   -1574.1949    520.73536    276.45323    136.83668    36341.856 
  282200    294.80168   -1571.4505    518.77054    280.38045    6.4247585    36341.856 
  282300    303.91372   -1600.6819    485.35783    258.94004   -333.41196    36341.856 
  282400    304.45484   -1558.4873    504.12622    322.34985   -182.27262    36341.856 
  282500    299.96803   -1580.5676    528.56613    304.42059   -363.99252    36341.856 
  282600    294.43855   -1582.7408    539.23592    287.91347   -722.64463    36341.856 
  282700    298.56847    -1546.537    486.50563    290.06205   -699.85732    36341.856 
  282800    304.70937   -1518.4383    548.24397     407.6676   -256.10303    36341.856 
  282900     296.5341   -1496.0578    526.33231    371.16879   -447.69417    36341.856 
  283000    306.45938   -1545.5197    511.32197    351.57747   -3.6756121    36341.856 
  283100    283.93432    -1534.008    530.10495    280.01642   -754.40631    36341.856 
  283200    298.73543   -1518.5088      519.216    351.55563   -317.62636    36341.856 
  283300    299.74553   -1574.2606    532.79292     313.9483   -750.58413    36341.856 
  283400    292.28814    -1524.058    520.13172    317.76814   -38.849252    36341.856 
  283500    290.98027   -1552.5167    506.66069    269.92442   -157.26744    36341.856 
  283600    309.02977   -1484.8606    526.53407    439.07173   -498.52974    36341.856 
  283700    304.74206   -1497.5979    541.68169    422.09355   -426.46878    36341.856 
  283800    308.08315    -1488.896    527.62345    431.84518    62.902698    36341.856 
  283900    289.32107   -1509.2009    538.11182    337.18867    554.58741    36341.856 
  284000    296.55976   -1552.7367    525.82024    314.09378    622.52061    36341.856 
  284100    310.90099   -1567.4618    547.56277    385.96072    462.22697    36341.856 
  284200    299.63098   -1555.9506    513.91883    312.86622    337.85545    36341.856 
  284300    301.76178   -1549.3798     525.1163    340.26972   -32.479189    36341.856 
  284400    296.83922   -1522.0974    506.51216    326.68875   -272.95398    36341.856 
  284500    295.95547   -1525.7627     531.0622    343.57719    -324.5395    36341.856 
  284600     296.8831   -1507.8019    508.99035    343.66088   -290.11959    36341.856 
  284700    298.61297   -1514.2452    541.23922    377.28871   -327.71685    36341.856 
  284800    292.91673   -1516.3894    513.50567    321.65311   -214.14694    36341.856 
  284900    305.37608    -1542.226    518.66332    357.31399    46.066132    36341.856 
  285000    293.46023    -1563.398    520.76728    284.36377   -111.04871    36341.856 
  285100     296.1278   -1531.1587    527.20383    335.10217    491.58687    36341.856 
  285200     297.7049   -1492.3927    538.13733    391.93305    400.65168    36341.856 
  285300    296.05815   -1543.1073    531.33054    326.96531   -370.55193    36341.856 
  285400    294.15835   -1542.0533    520.24746    308.34556   -7.7645903    36341.856 
  285500      302.438   -1531.6347    513.10977    349.06614   -67.340938    36341.856 
  285600    294.40623   -1501.5541    519.74559    349.46376   -248.11359    36341.856 
  285700    298.23934   -1472.7516    519.03537    394.88895   -527.08215    36341.856 
  285800    303.15338   -1511.6543    515.96546    375.13703   -34.734149    36341.856 
  285900    298.57749   -1529.8773    506.90306    327.15993   -123.31386    36341.856 
  286000    293.58809   -1530.4636    529.14385    326.25297   -252.21668    36341.856 
  286100     293.5065    -1533.606    539.83638    333.43409    212.90227    36341.856 
  286200    304.62582   -1528.7052    481.11236    329.89127    -299.3868    36341.856 
  286300    309.84271   -1541.8221    531.95668    391.20883    -340.7431    36341.856 
  286400    304.44476   -1543.7103    527.24913     360.2042   -168.94425    36341.856 
  286500     296.2788     -1554.81     505.3876     290.3174    270.96664    36341.856 
  286600    301.12417   -1536.4744    542.92502    368.10065   -75.453856    36341.856 
  286700    293.56574   -1551.4624    527.24239    303.25163   -71.634903    36341.856 
  286800    297.21416   -1539.1064    503.53948     308.4025    31.213496    36341.856 
  286900    300.31188   -1548.6445    511.09577    320.42823   -196.80424    36341.856 
  287000    301.23663   -1544.6959    508.72131    326.18396   -309.45081    36341.856 
  287100    291.42027   -1531.7168    523.50972    309.56295    121.24006    36341.856 
  287200    292.83753   -1545.3599    503.52954    282.34843   -272.26909    36341.856 
  287300    292.78458   -1560.9776    525.05118    288.01293   -122.31796    36341.856 
  287400    318.43449   -1526.5994    515.19872    428.52468   -436.44484    36341.856 
  287500    306.36833   -1542.8924    503.81158    346.28273   -800.45338    36341.856 
  287600    309.79647   -1556.2611    507.82584    352.42996   -364.48691    36341.856 
  287700    298.77914   -1545.7123    495.73535    301.06916    -993.6344    36341.856 
  287800    299.17652    -1522.325    501.20105    331.71903   -1156.9056    36341.856 
  287900    298.54161   -1492.2974    520.88931    378.56391   -1245.5502    36341.856 
  288000    291.51108   -1531.8511    522.59596    308.92563   -776.05262    36341.856 
  288100    304.81641   -1498.8509    507.02312    386.51812   -584.85636    36341.856 
  288200    308.49647   -1537.8808    506.60567    363.71157   -98.343579    36341.856 
  288300    304.67744   -1539.8982    527.81653    365.63588   -34.366123    36341.856 
  288400    313.41484   -1535.8901    520.33905    401.67602   -121.32874    36341.856 
  288500    306.99479   -1539.6196    514.41672    362.99344   -629.37642    36341.856 
  288600    303.35422   -1550.4243    499.31484    320.62459    122.90399    36341.856 
  288700    307.69014   -1542.6887    531.24291    379.89484    212.04969    36341.856 
  288800    299.51077   -1535.4244    500.43152    319.36151    2.1619917    36341.856 
  288900    302.53655   -1589.3575    548.14008    326.81923    94.035241    36341.856 
  289000     310.9826   -1586.8096    519.58238    339.00154    599.19048    36341.856 
  289100    290.32189   -1569.2615    531.76072    275.30257    74.548918    36341.856 
  289200    297.93158   -1530.0152     510.0015    327.19977   -749.46481    36341.856 
  289300    295.87656   -1530.7375     526.0338    333.21721   0.39838867    36341.856 
  289400    313.80426   -1516.1158    547.47289    450.34502   -148.84227    36341.856 
  289500    298.75635   -1519.4792    507.84515      339.309   -255.32671    36341.856 
  289600    311.32958    -1537.868    518.99492    388.92468    361.03793    36341.856 
  289700    297.04506   -1534.3055    493.08755    301.98676     278.5419    36341.856 
  289800    303.74891   -1518.8027    541.07448    395.79057   -26.550445    36341.856 
  289900    305.83183   -1553.5782     495.5099    324.86921   -254.31739    36341.856 
  290000    300.38595   -1515.2688    533.02054    376.06359   -9.8427911    36341.856 
  290100     297.4271   -1521.7916    502.13366    325.27436   -478.09096    36341.856 
  290200    300.41579   -1519.1514    543.00167    382.29712   -168.87873    36341.856 
  290300    290.26141   -1556.5574    525.53532    281.50773   -74.793282    36341.856 
  290400    309.97188   -1586.5124    500.02266    315.16863    -210.4972    36341.856 
  290500    304.26414   -1578.3308     525.1871     322.7049     374.1723    36341.856 
  290600    306.57661   -1564.1126    506.05182    328.24454    797.76407    36341.856 
  290700    299.02383   -1614.1898     519.2268    257.18945     205.5031    36341.856 
  290800    295.87792   -1535.1431    523.36351    326.14745   -403.43138    36341.856 
  290900    285.20985   -1502.8262    552.36785    339.22894   -411.95561    36341.856 
  291000    307.66474   -1525.8798     522.1776     387.5235    -552.5847    36341.856 
  291100    292.85774    -1471.341    527.44867    380.37786    169.04879    36341.856 
  291200    304.12259   -1448.8289    513.59381    439.97343   -305.28427    36341.856 
  291300      306.192   -1519.2216    538.71004    404.05467    -322.1621    36341.856 
  291400     300.3419   -1524.6937    535.93709    369.35609     69.43015    36341.856 
  291500     306.3073   -1491.3788    539.62108    433.32982    26.466376    36341.856 
  291600     286.8256   -1526.8272    516.52138    286.68768   -171.65325    36341.856 
  291700    307.13216   -1496.8248    525.64656    417.63929    408.36342    36341.856 
  291800    301.93051   -1549.0435    548.14965    364.40233     361.7149    36341.856 
  291900    304.71569   -1537.9134    517.42377    357.40079   -226.76162    36341.856 
  292000    292.22081   -1462.7061    554.26761    412.95156     -541.456    36341.856 
  292100    295.63778   -1513.3458    490.84548    314.34085   -619.63752    36341.856 
  292200    296.29752   -1546.9496    545.88533    338.76024   -417.83185    36341.856 
  292300    301.56774   -1575.7926    514.64393    302.50716    90.546444    36341.856 
  292400    295.95283   -1583.4797    535.37615    290.16225    207.31947    36341.856 
  292500    289.09012   -1557.9572    537.81125    287.08746    485.03404    36341.856 
  292600    299.30328   -1575.6634    540.74592     318.4987    664.71841    36341.856 
  292700     298.6621   -1552.6149    544.65108    342.55295    1102.9186    36341.856 
  292800    306.01242   -1510.9713    504.43394    377.21677    1106.3328    36341.856 
  292900    310.84034   -1515.4561    515.54249    405.67182    455.88839    36341.856 
  293000    297.29414   -1552.5638    529.54322    321.31047   -248.58811    36341.856 
  293100    298.05123   -1512.5626    528.78668    363.97859   -231.08852    36341.856 
  293200     300.7067   -1520.4533    513.69189    353.00084   -385.41983    36341.856 
  293300    299.48862   -1540.6267    522.44026    336.06782   -456.02882    36341.856 
  293400    297.06099   -1543.2165    510.47781    310.53808   -2.4460765    36341.856 
  293500    301.38336   -1475.4887    555.50358    442.83694    95.793474    36341.856 
  293600    303.55437   -1554.8801    528.57708    346.33613    138.85045    36341.856 
  293700    300.79345   -1540.8706    533.64307    352.92698     392.0718    36341.856 
  293800    298.03765   -1510.0891    526.17879    363.78275    134.47336    36341.856 
  293900    300.94177   -1501.2447    525.75952    385.34003   -280.73427    36341.856 
  294000     296.2113   -1557.7099    522.92659    304.65123   -272.40851    36341.856 
  294100    303.02158   -1483.9113    523.41802    409.73666   -106.66808    36341.856 
  294200    299.24234    -1543.561    528.31379    337.89334   -360.06864    36341.856 
  294300    309.46609   -1576.5988    521.38234    344.15479    -787.8154    36341.856 
  294400    301.33904   -1538.1982    519.61477    344.03824   -573.53087    36341.856 
  294500    299.32569    -1513.473    541.61413    381.65865   -551.72922    36341.856 
  294600     303.4332   -1490.4604    530.20049    411.83133   -4.1937753    36341.856 
  294700     303.7792   -1544.5053    511.60703    340.75753    -137.8533    36341.856 
  294800    306.84206   -1499.8713    524.44881    412.08318   -373.49203    36341.856 
  294900     298.0907   -1488.2538    514.94093    374.62018   -124.81067    36341.856 
  295000    302.75911   -1501.7508    533.63777    400.93002   -231.18996    36341.856 
  295100     295.4737   -1536.6741    529.00228    328.42738   -425.57586    36341.856 
  295200    289.92029   -1535.5309    521.26887    296.72528    9.6055477    36341.856 
  295300    301.02295   -1536.2368    500.24678    325.20226    44.278231    36341.856 
  295400    301.96267   -1547.7572    525.45419    343.13866   -61.065128    36341.856 
  295500    307.64707   -1541.3855    508.21916    357.97954   -350.61782    36341.856 
  295600     297.8591   -1526.1478    499.75799    320.49593   -72.320777    36341.856 
  295700    297.41074   -1514.5322    552.45234    382.77842    77.788745    36341.856 
  295800    302.24645   -1499.1488    518.12018    385.69628    -216.5659    36341.856 
  295900    298.39298    -1523.193    533.27813    359.38504    20.288329    36341.856 
  296000    292.06517   -1504.5941    542.69875    358.79092   -525.30397    36341.856 
  296100    290.56084   -1501.0949    545.50996     358.2989    118.10006    36341.856 
  296200    303.60469   -1521.2249    536.73495    388.37676   -79.081927    36341.856 
  296300    296.89723   -1555.1804    565.81913    353.17499    22.771936    36341.856 
  296400    286.82272   -1507.2123    543.90128    333.66944   -382.82972    36341.856 
  296500    309.36861   -1497.9848    526.69714    427.64283   -405.13959    36341.856 
  296600    289.13639   -1504.4016    544.28863    347.32961   -243.44231    36341.856 
  296700    301.10183   -1527.0163    531.40748    365.94016    682.65632    36341.856 
  296800    301.12238   -1516.8009    541.84994    386.69092     31.10773    36341.856 
  296900    301.55279   -1539.5498      540.538    364.57643    365.58693    36341.856 
  297000    298.24668   -1545.9888    543.44316    346.09268   -170.78237    36341.856 
  297100    298.90279   -1555.4095     556.3899    352.58565    2.7094754    36341.856 
  297200      296.757   -1573.2725    529.60273    298.23234   -613.09893    36341.856 
  297300     294.6402   -1560.9622    509.27608     280.6441   -229.51778    36341.856 
  297400    296.85537   -1558.8524    509.11341    292.60803   -155.06236    36341.856 
  297500    307.47507   -1564.7608    529.02382    354.63108    161.38566    36341.856 
  297600    298.96292    -1602.117    522.78272     272.5428   -13.133114    36341.856 
  297700    298.30855   -1595.7402    541.34562    294.52356   -85.999072    36341.856 
  297800    290.61227   -1583.0143    527.78356    258.88565   -486.96779    36341.856 
  297900     305.7782   -1589.1174     480.5999    274.17759   -186.86667    36341.856 
  298000    293.48944   -1570.3779    524.53805    281.28679    47.172676    36341.856 
  298100    301.85537   -1554.8786    507.82408    317.90196   -20.656607    36341.856 
  298200    305.01102   -1545.7392    499.25934     332.7461     64.04747    36341.856 
  298300    296.77608   -1569.9496    507.23283    279.27169   -440.46038    36341.856 
  298400    296.82402   -1571.8248    494.38769    264.76809    52.243261    36341.856 
  298500    302.85268   -1585.0979     500.1274    284.49561   -912.06997    36341.856 
  298600    308.19842   -1578.9732    538.00038    352.66621   -805.15677    36341.856 
  298700    297.33143   -1568.5845    505.84588      281.761   -903.42098    36341.856 
  298800    298.78957    -1561.751     509.9481     299.2903    31.897308    36341.856 
  298900    294.32753   -1563.4497    521.12038    288.58703   -302.57974    36341.856 
  299000    305.70376    -1566.666    513.22041    328.91289    743.02464    36341.856 
  299100    291.26785   -1555.5872    531.75483    293.24851    495.01395    36341.856 
  299200    308.98559   -1583.4058    548.30333    362.09602    388.99212    36341.856 
  299300    292.33741   -1552.8457    523.90683    292.97844   -182.65672    36341.856 
  299400    308.27508   -1544.9457    520.24937    369.28927    212.25119    36341.856 
  299500    293.38885   -1597.3129    522.05856    251.41746   -36.953004    36341.856 
  299600    298.30224   -1578.2771    546.33788    316.95035   -449.40264    36341.856 
  299700     309.1385   -1551.8731    528.93428    374.95116    15.148324    36341.856 
  299800    298.30047   -1575.8108    545.20357    318.27437   -54.443881    36341.856 
  299900    300.03217   -1535.2779    512.49377    333.92803   -26.049472    36341.856 
  300000    302.98409   -1556.8764    527.99244    341.17644   -201.36285    36341.856 
  300100    297.32295   -1595.5917     513.8074    262.67699   -193.76176    36341.856 
  300200    288.99902   -1577.4372    531.82222    261.20649   -562.14222    36341.856 
  300300    299.76052   -1548.3583    520.67026    327.79567   -581.83839    36341.856 
  300400       303.18   -1549.6145    497.23654    318.56834   -824.39452    36341.856 
  300500    294.71733   -1540.9463    495.98712    287.71979   -737.93251    36341.856 
  300600    296.07175   -1551.3324    541.34547    328.81662   -284.68566    36341.856 
  300700    299.36663   -1615.0234    520.97102    259.65025   -15.287151    36341.856 
  300800     299.9645   -1623.5999    493.98343    226.78966   -119.26434    36341.856 
  300900    295.89002   -1592.2543    544.34724    290.07472    20.618275    36341.856 
  301000     303.3935   -1569.2194    501.74692     304.4392    357.83283    36341.856 
  301100    302.01603   -1574.3443    559.66547    351.00409    577.94955    36341.856 
  301200    299.85912   -1580.7856    529.40796    304.55193    822.09991    36341.856 
  301300     296.2487    -1558.717     528.6445    309.53121    1014.5573    36341.856 
  301400     296.8794   -1592.5189    539.09102    289.02775    1059.9425    36341.856 
  301500      293.469   -1594.1378    537.31599    270.21244    856.03538    36341.856 
  301600     296.0176    -1545.824    494.67008    287.40477    681.76361    36341.856 
  301700    298.47211   -1583.1336    539.85003    306.37412   -113.59708    36341.856 
  301800    299.53801   -1600.9686    503.80233    257.31128    91.460046    36341.856 
  301900    292.02447   -1598.4302     545.3322    267.40423   -712.65382    36341.856 
  302000    286.14299   -1536.7183     541.8993    299.08778    -1226.692    36341.856 
  302100    293.32151   -1556.5673    542.36603    312.16604   -385.13213    36341.856 
  302200    293.30236   -1538.6403    520.07763    307.71797   -104.12522    36341.856 
  302300    306.98002   -1560.3372    538.52974    366.32209   -112.02914    36341.856 
  302400    309.04078   -1606.5025    524.30888    315.25445   -215.68644    36341.856 
  302500    306.51577   -1594.0276    506.87715    298.87983   -474.62148    36341.856 
  302600     295.5262   -1551.6516    547.79873     332.4837   -749.79824    36341.856 
  302700    309.82914   -1575.2096    512.60606    338.40939    491.00304    36341.856 
  302800    300.70214   -1541.0703    542.17951    360.85082   -117.80059    36341.856 
  302900    294.90279   -1529.1062    536.08079    340.49227   -361.55195    36341.856 
  303000    290.07932   -1536.8708    548.14151    322.97715   -570.21783    36341.856 
  303100    298.19506   -1542.1382    513.41106    319.67781   -349.68946    36341.856 
  303200    294.07595   -1582.7609      532.179    279.19689   -231.45466    36341.856 
  303300    297.21505   -1586.6229    528.45619    285.80675   -182.84863    36341.856 
  303400    291.23916   -1633.4087    495.66046    179.20288    412.09482    36341.856 
  303500    312.67821   -1603.7423    515.60703    325.76083    370.88331    36341.856 
  303600    301.96424   -1539.6743    530.49916    356.27358    264.05421    36341.856 
  303700    311.87521   -1541.7165    495.94729    364.49577   -36.781543    36341.856 
  303800    300.47233   -1528.9099    533.20843    363.00098   -492.16033    36341.856 
  303900    302.90386   -1533.2564    515.35219    351.79336   -1583.3339    36341.856 
  304000    292.66678   -1537.5118    526.35345    312.24827   -1530.7806    36341.856 
  304100    303.92023   -1529.2519    519.07295    364.11451   -1184.8836    36341.856 
  304200    300.26478   -1529.8496    523.83688    351.75119    -1310.155    36341.856 
  304300    296.37776   -1502.7283    537.93384    375.39287    -894.7115    36341.856 
  304400    305.75013   -1573.6119    546.32291    355.27906   -230.16785    36341.856 
  304500    294.50909   -1512.3688    531.79405    351.16262    126.16229    36341.856 
  304600    302.23458   -1541.8808    534.14932    358.93967   -129.47688    36341.856 
  304700    288.81711   -1549.4993    557.04379    313.54342    349.66641    36341.856 
  304800    303.76218   -1550.7793    535.22916    358.02871    47.134704    36341.856 
  304900    301.07622   -1532.9768    486.54909    315.00545    197.10251    36341.856 
  305000    308.54461   -1515.9567    558.53484    437.78262   -50.194269    36341.856 
  305100    288.78606   -1534.7864    517.48693    288.55903    510.47322    36341.856 
  305200    303.96075   -1584.3035    548.78375    338.95695    675.96421    36341.856 
  305300    299.86216   -1580.7986    510.26505    285.40982    -22.72522    36341.856 
  305400     306.1553   -1585.0628    522.52682    321.86431   -78.977205    36341.856 
  305500    292.27446   -1560.0937    519.99248     281.5314   -182.29284    36341.856 
  305600    303.30156   -1563.1714    510.61735    318.94193   -385.40983    36341.856 
  305700    311.74627   -1527.4722    507.07117    389.28095   -311.48164    36341.856 
  305800    296.83901   -1545.3788    526.88563     323.7799   -783.54353    36341.856 
  305900    297.16325   -1601.0218    515.12738    257.84479   -33.935216    36341.856 
  306000    300.21935   -1540.1212    514.18892    331.62625    5.6057953    36341.856 
  306100    293.84801   -1543.8996    538.19302     323.0415   -704.52028    36341.856 
  306200    304.35401   -1493.1602    533.37064    416.46542   -452.50435    36341.856 
  306300    296.36588   -1527.3682    529.99586     342.7612    -84.36944    36341.856 
  306400    298.93522   -1571.4358    513.08842    293.40443    132.37486    36341.856 
  306500    290.26646   -1527.9422    514.96705    299.57753   -256.24625    36341.856 
  306600    299.85416   -1529.3354    534.80627    361.37803   -187.66095    36341.856 
  306700    299.13771   -1529.2462    523.80781    347.22911    603.07867    36341.856 
  306800    301.49814   -1544.4167    562.93925    381.86359    1108.7805    36341.856 
  306900    292.84292   -1533.5668    507.37735    298.01372    878.26505    36341.856 
  307000    299.75795   -1566.5838    562.20785     351.0962    723.08908    36341.856 
  307100    302.24373   -1549.2565    517.67585    335.13194    386.97149    36341.856 
  307200    288.11709   -1557.1589    511.62957    257.30411    -166.1497    36341.856 
  307300    306.09297   -1605.0206    514.67131    293.76913    508.46506    36341.856 
  307400    292.62226   -1595.8325    533.25554     260.6284    189.56117    36341.856 
  307500    307.06053   -1604.9924    510.64918    294.15032    191.97755    36341.856 
  307600    292.74312   -1579.3318     532.4789     276.8989    3.0209189    36341.856 
  307700    310.18953   -1574.3924    540.67977    368.92993    347.12893    36341.856 
  307800    292.49042   -1602.7784    519.03726    238.86801    444.92285    36341.856 
  307900    291.24802   -1611.5269     530.4663    235.93061    218.70813    36341.856 
  308000    297.51123   -1608.0395    531.51696    268.79017   -393.77542    36341.856 
  308100    297.43517   -1617.0578     508.1134    236.02431    1.9637365    36341.856 
  308200    306.87002     -1590.53    529.68476    326.78682    402.07507    36341.856 
  308300    306.27307   -1556.5487    492.24968    320.63373   -227.81888    36341.856 
  308400    301.61577   -1551.9814    524.56842    336.45998   -342.76246    36341.856 
  308500    289.23797   -1586.7477    492.50313    213.65732   -608.75089    36341.856 
  308600     310.5876   -1574.1504    496.96018     327.2524   -543.18416    36341.856 
  308700     292.9669   -1581.6594    524.37639    267.48078   -754.58341    36341.856 
  308800    302.54885   -1581.4041    514.08558    300.77375   -838.56214    36341.856 
  308900    295.78549   -1575.9554    505.75874    267.31242    -733.8688    36341.856 
  309000     294.3717   -1560.7724    546.27311    316.61683   -141.14292    36341.856 
  309100    292.40393   -1540.0834      529.772    311.90667   -662.74162    36341.856 
  309200    306.86649   -1540.8637    493.62749    340.37996   -280.42846    36341.856 
  309300    301.24931   -1522.6628    520.89501    360.44808   -484.91785    36341.856 
  309400    308.62767     -1533.56    518.88743    380.90749   -336.28998    36341.856 
  309500    290.73215   -1577.9061    522.79289    259.54529   -527.29534    36341.856 
  309600    307.43289   -1552.9426    512.90618    350.14097   -605.86883    36341.856 
  309700    299.47881   -1568.4292    532.52842    318.30914   -610.90421    36341.856 
  309800    294.71397   -1552.2487    517.88556    298.30071   -772.48248    36341.856 
  309900    301.01408   -1552.0791    549.24135    358.31449   -905.35528    36341.856 
  310000    298.48651   -1586.7596    522.40032    285.36352   -490.35265    36341.856 
  310100    300.43386   -1571.5706    540.35557    327.31347    -234.2432    36341.856 
  310200    295.56864   -1559.0092    516.57809    294.09747    38.824109    36341.856 
  310300    308.53805   -1632.1223    524.93242    287.98489   -58.726697    36341.856 
  310400    298.02605   -1580.3752    526.80654    294.07198   -616.74899    36341.856 
  310500    308.89207   -1601.9471    500.80889    295.63741   -881.11136    36341.856 
  310600    310.18808   -1548.6914    530.02145    383.96604   -413.65767    36341.856 
  310700     305.7797   -1558.4776     521.4302    345.65437   -463.14585    36341.856 
  310800    303.21499   -1579.6135    520.75299    312.24403    256.89678    36341.856 
  310900    304.21765   -1582.3842    537.77452    331.02872    497.08398    36341.856 
  311000    290.34055   -1586.7599    491.72238     217.8502    200.03664    36341.856 
  311100    295.19381   -1559.1918    552.21133    327.85311    295.22969    36341.856 
  311200    296.40147   -1569.0902      536.245     307.4493   -240.07138    36341.856 
  311300    297.93526   -1596.1305    523.44341    274.54307   -105.53849    36341.856 
  311400    299.54029   -1552.1734    507.45391    309.76838   -548.34429    36341.856 
  311500    308.16569   -1566.1461    509.18495    336.52986   -219.14737    36341.856 
  311600    304.49012    -1554.301    480.62143    303.19093   -408.48514    36341.856 
  311700    310.94325   -1553.7845    523.06226    375.32858   -467.99943    36341.856 
  311800    298.29683   -1528.5124    521.19806    341.55074   -422.87817    36341.856 
  311900    297.84649   -1563.2017    503.45965    287.08668   -216.22575    36341.856 
  312000    297.32168   -1555.5604    514.05053    302.94572   -783.43467    36341.856 
  312100    300.15768   -1540.6669    532.97866    349.59143   -124.00838    36341.856 
  312200    304.72089   -1536.3988    544.22376    385.73897     1098.025    36341.856 
  312300    306.35532    -1512.145    539.49109    412.65081    702.56951    36341.856 
  312400     296.7664    -1529.635    498.85896    311.16865    707.36839    36341.856 
  312500    295.14505    -1573.611     558.3661    319.36826    24.946444    36341.856 
  312600    298.32649    -1546.712    527.57212    329.85935    204.66054    36341.856 
  312700    298.20648   -1583.7771     541.5931    306.27257    99.388804    36341.856 
  312800    293.96601   -1592.4557     496.4499    233.27584    880.01322    36341.856 
  312900    299.45059    -1599.897    511.98409    266.16937   -70.259786    36341.856 
  313000    302.22162   -1586.1117     520.1045    300.60534    -235.1966    36341.856 
  313100    303.63762   -1590.8087    520.31093    302.51779   -186.80404    36341.856 
  313200    298.75783   -1595.1587    522.86947    278.66048   -153.16082    36341.856 
  313300    306.85682    -1587.434    525.80136    325.93981   -163.52221    36341.856 
  313400    290.80388   -1547.6373    521.71135     289.0569    -393.9367    36341.856 
  313500    297.90589   -1574.9213    521.57422    293.75019   -385.59346    36341.856 
  313600     296.5129   -1600.2693    502.49452    243.02364   -530.68483    36341.856 
  313700     298.1524   -1579.9083    502.04738    270.35105   -373.59311    36341.856 
  313800    303.49099   -1533.6087    521.73688    360.48068   -863.16629    36341.856 
  313900    309.71843   -1528.0994       519.66    392.07292   -1210.6788    36341.856 
  314000    301.30788   -1562.8002    505.27694    304.95749   -2060.8774    36341.856 
  314100    304.08359    -1548.817    525.41543    351.63064   -890.48796    36341.856 
  314200     300.0946   -1525.3444    520.16207    351.81212   -143.11397    36341.856 
  314300     298.7102   -1539.5905    559.48373    370.62758   -222.33813    36341.856 
  314400    306.73222   -1517.6398    510.71282    380.08201   -391.00315    36341.856 
  314500    292.72233    -1489.895    509.18346    342.94631   -896.47896    36341.856 
  314600    308.89866     -1537.82    517.92483    376.91025   -924.50819    36341.856 
  314700    306.22551   -1552.7974    530.10079    362.02115    251.50642    36341.856 
  314800    295.74068    -1540.525    485.12334    281.90482    310.66188    36341.856 
  314900    301.89209   -1598.0999    525.55484    292.57743   -114.40874    36341.856 
  315000    288.53589   -1591.3991    521.29709    234.62526   -78.743059    36341.856 
  315100    298.73416   -1567.8423    528.86434    311.86473    67.515608    36341.856 
  315200    294.81835   -1542.6376    524.70586      315.204    386.49762    36341.856 
  315300    300.19335   -1529.1075    516.93653    345.26998    815.04369    36341.856 
  315400    298.75578   -1553.6314    542.23605    339.54501    621.03275    36341.856 
  315500    308.86204    -1530.915    525.73427    391.45912    345.26535    36341.856 
  315600    314.77253   -1479.4722      520.777    464.67125    75.699441    36341.856 
  315700    299.99621    -1539.708    505.88413    322.72568   -241.99018    36341.856 
  315800    302.19469   -1538.1665    501.10246    329.42674     90.14937    36341.856 
  315900    303.20312   -1510.4915    529.76457    390.32387    335.43545    36341.856 
  316000    300.09904     -1516.72    516.88812    357.18263   -129.08625    36341.856 
  316100    301.04403   -1511.1294    519.21126    369.36945   -314.90848    36341.856 
  316200    306.01638   -1505.1414     536.0494    414.68004   -198.27322    36341.856 
  316300    301.17961    -1504.284    524.23059    381.84733     40.83351    36341.856 
  316400    292.56604   -1560.0089    526.53773    289.47996   -541.00584    36341.856 
  316500    300.70287    -1569.614     496.2258    286.35678   -440.84271    36341.856 
  316600    310.95925   -1568.7487    506.16792    343.54242   -95.416581    36341.856 
  316700    298.70681   -1564.2116    519.58292    306.09029   -62.784016    36341.856 
  316800    295.48377   -1564.4478    502.50217    274.19911    491.92905    36341.856 
  316900     292.4907   -1551.6125    537.48852     308.4865    84.243594    36341.856 
  317000    303.89253   -1535.4558    526.54726    365.25966    83.566599    36341.856 
  317100     290.4667   -1530.9473    526.33562    308.84648   -681.47014    36341.856 
  317200    295.32695    -1515.105    499.02718     319.3578    -665.6086    36341.856 
  317300    299.05322   -1506.4446    532.95468    378.79551    218.64572    36341.856 
  317400    289.91672   -1510.7703    522.10463    322.30546   -224.26832    36341.856 
  317500    305.25346   -1546.5461    519.70357     353.4797   -124.19159    36341.856 
  317600    293.45288   -1541.3826    495.78062    281.35936   -1044.8956    36341.856 
  317700    303.22869   -1540.8656    526.51532    356.81612   -644.28591    36341.856 
  317800    308.83637   -1485.5205    520.07941    431.08263   -208.77077    36341.856 
  317900    286.56577   -1518.1873     501.7178    279.34899   -176.18845    36341.856 
  318000    300.99532   -1524.8005    525.63796    361.90483   -327.13879    36341.856 
  318100    302.10684   -1502.1976    497.52793    361.42383   -425.13046    36341.856 
  318200    300.60686   -1555.1868    509.11737     313.2414   -357.77394    36341.856 
  318300    298.20135   -1534.4873    527.93965    341.88568    83.606845    36341.856 
  318400    310.45359   -1534.6283    541.48419    410.69255    146.38892    36341.856 
  318500    301.55676   -1539.5448    511.85279    335.91417   -285.96128    36341.856 
  318600    291.48773   -1541.6314    518.27091    294.71459   -654.32714    36341.856 
  318700    303.73019   -1531.4727    497.01836    338.97984   -335.20953    36341.856 
  318800     306.7542   -1553.0685    536.68414    370.72405   -339.72204    36341.856 
  318900    300.33228   -1565.5365     491.5898    284.12251   -98.740428    36341.856 
  319000    298.26128   -1557.5834    527.03242    318.15335    974.98632    36341.856 
  319100     300.5781   -1573.6437    505.22959    290.76666    514.14155    36341.856 
  319200      298.911   -1563.6132    524.84959    312.87872    479.30331    36341.856 
  319300    303.02462   -1591.6829    522.61096    301.17172    69.575556    36341.856 
  319400    302.23052   -1587.8004    499.92989    278.78228   -235.63836    36341.856 
  319500    303.78615   -1587.9322    499.75056     285.5056   -175.36953    36341.856 
  319600    302.17414   -1585.5379    524.24042    305.10037   -149.72982    36341.856 
  319700    299.28649   -1597.6077    523.37673     279.1093   -131.40589    36341.856 
  319800    293.58131   -1541.6883     502.6237     288.4775   -273.66984    36341.856 
  319900    300.34089    -1512.031    489.88508    335.96224   -836.70586    36341.856 
  320000    304.09528   -1527.3427    503.78921    351.53159    14.047294    36341.856 
  320100    300.05014   -1557.1021    528.32565    328.01691   -304.51171    36341.856 
  320200    297.38697   -1531.6034    520.06509    333.21252   -626.70186    36341.856 
  320300    289.90589   -1519.5602    531.18174    322.54371   -278.73008    36341.856 
  320400    291.37626   -1548.5866    497.24494    266.22942   -387.24672    36341.856 
  320500    293.33612   -1578.8724    501.53525    249.09613   -449.94637    36341.856 
  320600    292.85655   -1554.1267    501.80344    271.94147   -157.68199    36341.856 
  320700    310.91613   -1553.7404    505.69557    357.88336   -90.992714    36341.856 
  320800    307.74274   -1585.6279    497.57985    303.53041    491.44606    36341.856 
  320900    312.62703   -1591.3121    516.76448    339.11708   -210.72744    36341.856 
  321000    284.16573   -1578.5338    505.76799    212.20003   -905.99708    36341.856 
  321100    298.54934    -1593.526    501.15895    257.63985   -502.83103    36341.856 
  321200    295.97933   -1566.2412    490.72443    262.86889   -291.88721    36341.856 
  321300    297.10823   -1602.8826     490.7275    231.33527     182.6456    36341.856 
  321400    289.60994   -1601.8953    501.99941     209.6881   -176.80741    36341.856 
  321500    296.62178   -1618.0132    511.05301    234.33052   -52.474885    36341.856 
  321600    294.92398   -1574.9627    485.56263    244.21339   -248.25645    36341.856 
  321700     291.7491   -1560.0667     524.9904    284.18066   -376.25774    36341.856 
  321800    303.49729   -1519.5451     509.5946    362.43047   -893.07715    36341.856 
  321900    292.75773   -1532.6995    501.60937    292.72774    -600.0341    36341.856 
  322000    305.38297   -1558.5719    495.50875     317.8447   -330.51847    36341.856 
  322100    298.36342   -1515.2958    531.55505    365.42545   -432.88939    36341.856 
  322200    291.92288   -1536.4574    519.56443    303.14985   -34.931582    36341.856 
  322300    301.30047   -1523.2946    541.92128    381.07385   -127.20949    36341.856 
  322400    298.32775   -1483.2625    510.60958    376.35206   -108.68085    36341.856 
  322500     304.4988   -1508.8633    538.86928    406.91567    261.14248    36341.856 
  322600    307.33327   -1475.8122    517.02742    430.94212    378.38548    36341.856 
  322700    291.81695   -1516.0216    509.55043    313.09266   -212.60925    36341.856 
  322800    293.34448   -1508.9628    512.18452     329.6929   -195.52082    36341.856 
  322900    299.68731   -1510.6174    514.49302    359.02832    550.91813    36341.856 
  323000    296.84467   -1491.1232    546.31169    397.48706     66.54522    36341.856 
  323100    310.10406   -1542.4145    544.75796    404.59956    207.94494    36341.856 
  323200    296.47709   -1521.2677     513.9822    333.35091   -26.687541    36341.856 
  323300     308.4275   -1504.5386    541.05552    431.19182    77.119188    36341.856 
  323400    299.21919   -1494.9372    545.33428    403.43298   -23.677234    36341.856 
  323500    299.52448   -1490.9288    517.96661    381.45419   -325.03536    36341.856 
  323600    306.88459   -1510.7152    529.63603    406.61885    178.63037    36341.856 
  323700    294.18309    -1548.144    502.77563    284.89486   -32.852594    36341.856 
  323800    301.11435   -1542.2293    505.08304    324.45941    81.987001    36341.856 
  323900    292.30074   -1499.4878    524.01072    346.27444    103.48337    36341.856 
  324000    292.98748   -1484.1365    520.60996    361.33025    -34.12411    36341.856 
  324100    299.32879   -1529.3298    540.48461    364.68632    236.87493    36341.856 
  324200    311.15841   -1574.3371    501.24765    333.93429   -709.84478    36341.856 
  324300    312.77614   -1522.9637    511.23651    402.61174   -366.17755    36341.856 
  324400    302.12522   -1490.5679     543.5529    419.16164    398.69082    36341.856 
  324500    294.46135   -1512.6717     516.3644    335.21413   -592.65888    36341.856 
  324600     295.7898   -1497.0914    538.27265    378.70983   -168.36453    36341.856 
  324700    302.09233   -1513.8016    508.60746    360.83378    290.12421    36341.856 
  324800    305.29793   -1518.3527    544.53399    406.70462   -69.197429    36341.856 
  324900     299.1705   -1508.5969    509.54803    353.76687   -310.36592    36341.856 
  325000     301.9313   -1535.8394    519.46938    348.92974    10.149879    36341.856 
  325100    293.03495   -1544.4047    511.32638    291.99311    183.92389    36341.856 
  325200    304.32471   -1514.9012    526.84685    388.06815   -53.727549    36341.856 
  325300     292.4871   -1521.7359    508.05123    308.90952     870.7391    36341.856 
  325400    303.25914   -1531.5791    526.60222    366.32721    708.07319    36341.856 
  325500    290.71235   -1517.3418     529.8491    327.07622    690.46159    36341.856 
  325600    310.54092   -1521.8517     544.8309    427.21071    634.71624    36341.856 
  325700    295.55945   -1522.6916    526.82966    340.62501   -843.15877    36341.856 
  325800    287.45007   -1541.1877    538.16332    296.79288   -484.33179    36341.856 
  325900    299.67915   -1492.9965    534.44344    396.56269   -124.70885    36341.856 
  326000     302.2673    -1501.062    499.63544    365.39255    -418.6561    36341.856 
  326100    299.36801   -1495.8045    560.09374    417.99806   -932.45796    36341.856 
  326200    299.31826    -1480.864    553.67555    426.29547    -122.6848    36341.856 
  326300    300.27453   -1515.1217    564.69798    407.38426    9.5400858    36341.856 
  326400    291.21279   -1511.9295    533.66752    338.56984   -356.60021    36341.856 
  326500    303.45289   -1504.8917     519.9052    387.19378   -589.92832    36341.856 
  326600    312.93653   -1506.2209     516.3385    425.18186   -157.19209    36341.856 
  326700    306.07922   -1569.4297    534.68211    349.30862    20.935371    36341.856 
  326800    294.37117   -1534.3006    531.68714    328.50027    112.51247    36341.856 
  326900    297.12953   -1510.2648     553.7105    387.03237   -207.61182    36341.856 
  327000    292.31477   -1525.4889    512.99392    309.31997   -249.71353    36341.856 
  327100    287.50731   -1520.6951    533.08925    312.47023    -466.6202    36341.856 
  327200    295.99868   -1517.7959    524.31889    344.99615   -722.61029    36341.856 
  327300    306.95109   -1570.4318    515.23144    332.79835   -129.18419    36341.856 
  327400    287.96346   -1582.2734    526.99212    246.85745   -369.62219    36341.856 
  327500    307.89298   -1564.9418    522.06206    349.37809   -919.34013    36341.856 
  327600    301.14204   -1549.0414    528.85949    341.54892   -482.37916    36341.856 
  327700    302.19732   -1536.5108    501.18387    331.17575   -338.87321    36341.856 
  327800    305.73883    -1512.587    511.15479     381.0848   -252.38489    36341.856 
  327900     299.8876   -1521.8243    527.17049    361.40463   -1045.0126    36341.856 
  328000    294.80575   -1511.8368    501.38976    322.63177   -1055.6642    36341.856 
  328100    305.56968   -1495.6636    508.55348    394.64201    -931.6591    36341.856 
  328200    300.37442   -1504.2937    521.19057    375.15657   -371.47584    36341.856 
  328300    298.56524   -1517.1738    521.14964    354.05464    199.08074    36341.856 
  328400    297.65267   -1510.3816    551.85781    387.42849    633.37819    36341.856 
  328500    296.46879   -1525.0586    525.66191    341.20223    513.18788    36341.856 
  328600    302.50755   -1502.7263    565.96983      431.149    818.39771    36341.856 
  328700    305.06964   -1542.8377    537.14469    373.79795    613.98644    36341.856 
  328800     310.6983   -1531.3306     521.0476    394.66018    321.11819    36341.856 
  328900    298.90939   -1531.8757    523.64965    343.40895   -157.11073    36341.856 
  329000    294.82306   -1523.4984    500.36706    310.02576   -601.41539    36341.856 
  329100    298.04828   -1487.4821     514.7444    375.00352   -260.97627    36341.856 
  329200    306.29324   -1506.1281    519.10123    397.99707   -392.55298    36341.856 
  329300     294.6435   -1550.8295    509.64377    291.15947   -261.90938    36341.856 
  329400    293.35895   -1518.6269    533.35302    341.26266   -529.69737    36341.856 
  329500    305.12662   -1536.7223    530.09558    373.12195   -537.27939    36341.856 
  329600     312.2656   -1541.6762    513.75116    384.10536   -388.08725    36341.856 
  329700    294.58352   -1499.1792    514.53941     347.4341   -242.82185    36341.856 
  329800    297.07356   -1550.1641    521.33181    314.50135    21.830415    36341.856 
  329900    301.26648    -1531.613    517.80084    348.48139    413.18211    36341.856 
  330000    305.59409    -1515.112    518.51216    385.26267    233.96532    36341.856 
  330100    299.51346   -1507.5239    529.31943    376.16207     654.5812    36341.856 
  330200    296.11515   -1478.8576    548.25866    408.40085    595.44444    36341.856 
  330300    302.01642   -1489.1177    536.46613    413.03313   -226.79814    36341.856 
  330400    295.44126   -1517.5017    530.24633    348.69723   -76.000789    36341.856 
  330500    298.08986   -1512.3703    497.35686    332.91579   -630.84804    36341.856 
  330600    303.71205   -1529.9087    493.10871    336.55218   -604.38779    36341.856 
  330700     301.4093   -1515.1458    521.69774    369.49128    515.74107    36341.856 
  330800    295.23356   -1495.7802    528.12954    367.36269   -127.89807    36341.856 
  330900     291.5745   -1499.1103    520.97179    340.32896   -77.401887    36341.856 
  331000    304.02924   -1489.7648    499.62045    384.64205    106.56239    36341.856 
  331100    311.13892   -1493.2225    526.07919    439.79229   -168.43104    36341.856 
  331200    307.26938   -1504.6531     526.8071    411.59194    314.10322    36341.856 
  331300    297.81718   -1517.3229    526.86982    356.24306   -406.84556    36341.856 
  331400    303.67408   -1512.0876    522.29158    383.38439   -176.79205    36341.856 
  331500    295.31129   -1528.7658    501.78341    308.38245   -553.31298    36341.856 
  331600    297.96988   -1499.0297    537.94204    386.29897   -553.17854    36341.856 
  331700    297.32185   -1503.1234    521.47267    362.80565    258.48466    36341.856 
  331800    303.79815   -1549.8222    520.44138    344.36068   -106.04805    36341.856 
  331900    301.80602    -1571.421    491.46932    284.78162    -199.0724    36341.856 
  332000    291.20838   -1542.9302    536.79802    310.67978    -142.1697    36341.856 
  332100    303.11195   -1538.5156    548.07059    380.19353    271.94809    36341.856 
  332200    305.39342   -1536.3142    503.74777    348.38869   -138.68737    36341.856 
  332300    297.99804   -1578.0716    516.24605     285.6885   -548.18395    36341.856 
  332400    291.93752   -1559.0711    499.21449    260.25244    -263.1269    36341.856 
  332500    299.57473    -1554.381    497.69188     297.9545   -312.84209    36341.856 
  332600    296.58266   -1554.2026    521.77808    308.68926   -76.694587    36341.856 
  332700     305.5472   -1557.5029    530.46791    354.61552    414.57117    36341.856 
  332800    307.06213   -1590.2982    495.32754    293.53022    295.99954    36341.856 
  332900    298.52345   -1548.1456    509.35866    311.10288    95.539174    36341.856 
  333000    309.92945   -1571.9441    496.79701    326.31939    576.34589    36341.856 
  333100    303.32242   -1584.4902    532.95014    320.05025    234.86273    36341.856 
  333200    295.13916   -1571.3671    505.18003    268.39942   -85.495281    36341.856 
  333300    294.16169   -1555.3466      527.717    302.53686    137.11444    36341.856 
  333400    301.81532   -1548.2681    512.95707    329.46428    95.701744    36341.856 
  333500    301.02124   -1541.8032    498.82742    318.20884   -151.27237    36341.856 
  333600     305.1353   -1554.3326    504.51208    329.96735    378.30046    36341.856 
  333700    299.17898   -1571.9301    495.07767    276.00165    347.58903    36341.856 
  333800    304.56735   -1554.3043    545.15312     368.0685    773.76613    36341.856 
  333900    292.77846   -1552.8054    513.79045    284.89668    287.78725    36341.856 
  334000    294.40349   -1610.7154     511.5057    232.05009    575.47543    36341.856 
  334100    304.55783   -1551.7848    528.81506     354.2069    623.85986    36341.856 
  334200    298.11197   -1599.2359    538.52279     287.3161    587.52755    36341.856 
  334300    311.96761   -1571.1827    511.32255    350.82268    743.43431    36341.856 
  334400    293.22749   -1544.8919    526.27705    307.32726    719.99192    36341.856 
  334500    300.00955   -1595.5554    530.97325    292.02767    711.75251    36341.856 
  334600    297.87489   -1574.5249    497.45095    269.88321   -65.696575    36341.856 
  334700    305.28696   -1540.7803    500.11701    339.81037   -171.93464    36341.856 
  334800    308.33711   -1539.1533    501.98575    357.09854    -15.10617    36341.856 
  334900    301.64403   -1557.7568    489.91229    296.15628    64.619962    36341.856 
  335000    301.42118   -1596.2053    517.31385     284.1016    133.18161    36341.856 
  335100     293.3263   -1598.1037    480.66118    208.94639    95.909869    36341.856 
  335200    300.91728   -1545.2162    525.22907    340.72733    359.92449    36341.856 
  335300     300.1784   -1528.9332    491.64063    320.08078    473.58455    36341.856 
  335400    294.41734   -1553.3231    558.56396     336.5634    273.59363    36341.856 
  335500    291.68853   -1531.3383    500.59684    288.24169   -109.36244    36341.856 
  335600    295.03964   -1571.2417     527.1759    290.07068    554.36267    36341.856 
  335700    297.18649   -1529.4053    511.96909    326.40811   -128.12847    36341.856 
  335800    308.71397   -1508.1358    546.57007    434.40447   -92.758572    36341.856 
  335900    307.20242     -1578.66    518.61861    329.09386     195.6284    36341.856 
  336000    306.35034   -1551.0794    515.20346     349.4063    297.61163    36341.856 
  336100    296.88986   -1568.5372    549.22477    323.19049   -20.119838    36341.856 
  336200     310.2434   -1591.8634    506.82046    317.84326   -260.12632    36341.856 
  336300    306.43923   -1603.9671     525.1824    306.89946   -229.45454    36341.856 
  336400    308.94204   -1549.5382    526.28138    373.74474    173.20816    36341.856 
  336500    295.09098   -1569.2812    516.43336    281.52076   -257.54534    36341.856 
  336600    293.71023   -1603.5987    515.67681    240.20308   -266.47959    36341.856 
  336700    305.38879   -1570.7253    529.25402    339.46285    108.38305    36341.856 
  336800    302.44274    -1575.464    537.28032    329.42878   -274.93284    36341.856 
  336900    301.29233   -1574.3517    513.78509    301.84379   -716.12224    36341.856 
  337000    289.23884   -1565.3621    526.70997    269.25375   -1183.9025    36341.856 
  337100    296.90078    -1538.647    533.72458    337.62986   -131.01092    36341.856 
  337200    303.62522   -1540.6928     511.4086    343.67531   -576.90331    36341.856 
  337300    306.78383   -1507.7922    528.30064    407.75077   -627.48872    36341.856 
  337400    301.59728   -1546.0899    526.89394    344.59344    321.78382    36341.856 
  337500    303.78917   -1537.7928    519.20119    355.10925    424.68569    36341.856 
  337600      312.482   -1571.6694    519.70963     361.0491    242.06771    36341.856 
  337700    268.89174   -1528.1491    494.68555    182.43496    299.73848    36341.856 
  337800    299.17003   -1570.2032    538.96041     321.5708   -183.78727    36341.856 
  337900     297.8977   -1555.1882       533.08    324.95214     263.0792    36341.856 
  338000    302.95903   -1563.1729    496.45694    303.23109    423.77411    36341.856 
  338100    296.69553   -1545.1453    512.17762    308.65655    306.86889    36341.856 
  338200    297.23489   -1551.4889    507.25362    299.82781    356.34144    36341.856 
  338300    303.79068   -1565.6824    518.66493     326.6902   -11.462543    36341.856 
  338400    291.10801   -1586.6213    503.61304    233.34981    453.91326    36341.856 
  338500    307.72541     -1570.96    512.72865    333.26874    456.05705    36341.856 
  338600     298.7357   -1579.1954    549.07511    320.72936    1091.6789    36341.856 
  338700    295.59433   -1584.9078    522.96506     274.7019    1011.6288    36341.856 
  338800    300.02273   -1593.0608    537.88331    301.49195    625.39657    36341.856 
  338900    301.87607    -1571.526    555.16726     348.6913    586.61344    36341.856 
  339000    288.28989   -1545.3595    499.90168      258.157   -531.48135    36341.856 
  339100    312.10919   -1546.3127    514.08053    379.09086   -65.622443    36341.856 
  339200    312.96907   -1544.9996    516.65294    386.86468    14.973425    36341.856 
  339300    293.69949    -1563.115    511.70596    276.66743   -328.70883    36341.856 
  339400    293.58038   -1571.6184    508.85709     264.7765   -374.68863    36341.856 
  339500    301.73085   -1562.2507    529.55846    331.70111    50.740072    36341.856 
  339600    299.13231   -1565.5654    519.39323    306.47091    341.04306    36341.856 
  339700    302.40699   -1600.0249    522.83968     290.2656    -146.8787    36341.856 
  339800    301.84527   -1582.5769    502.95907    285.29291    10.932482    36341.856 
  339900    302.97505   -1605.4551    496.51287    261.07724   -184.36654    36341.856 
  340000    295.03188   -1578.7123    527.95747    283.34653    346.73194    36341.856 
  340100    293.68954   -1604.0149    540.71661    264.73317   -142.26091    36341.856 
  340200    298.20749   -1551.5271    556.09294    353.02697     11.65331    36341.856 
  340300    303.41151    -1558.956    521.14683    334.18398    157.53777    36341.856 
  340400    310.38585   -1562.7981    523.69939     364.4316   -29.437524    36341.856 
  340500    298.62948   -1574.4971    522.71436    298.58659   -478.89206    36341.856 
  340600    308.24495   -1593.1118     492.1557    292.89331    25.422027    36341.856 
  340700    296.46885   -1593.9088    507.37041    254.06074    89.303199    36341.856 
  340800    301.74955     -1560.64     502.4911    306.32903    48.563397    36341.856 
  340900    292.19852   -1561.9725    497.85102    257.16773   -161.38834    36341.856 
  341000    299.31882   -1563.0295    522.52747    312.98434   -257.86641    36341.856 
  341100    296.14931   -1532.6316    502.95859    309.48127    737.78723    36341.856 
  341200    306.42503    -1529.977    530.44279    386.08578   -241.50419    36341.856 
  341300    290.96672   -1552.9473    484.64011    247.41194   -487.04235    36341.856 
  341400     309.5147   -1525.6957    527.21894    401.11429   -359.56926    36341.856 
  341500    302.98071   -1558.1623    509.39118    321.27396   -374.61164    36341.856 
  341600    301.74335   -1615.0937    527.85223    277.20847   -742.22062    36341.856 
  341700    312.86453   -1573.7363    502.12511    343.12739   -626.56536    36341.856 
  341800    301.30553   -1587.3211    518.05483    293.20387   -86.291896    36341.856 
  341900    308.06492   -1604.8244    527.89686    316.10779   -76.281892    36341.856 
  342000    301.57746   -1581.4333    513.19919    295.46567   -105.67814    36341.856 
  342100    294.08458   -1590.6663    521.42738    260.57882   -739.45563    36341.856 
  342200     292.6584   -1575.2731    517.87111    265.96678    279.29065    36341.856 
  342300    298.93579   -1576.1571    527.86392    303.46123   -60.922183    36341.856 
  342400    309.07577   -1588.6856    503.94379    312.86445    367.50278    36341.856 
  342500    312.69917   -1549.3727    503.97337    368.59155    228.16321    36341.856 
  342600    290.13902   -1561.5551    499.84994    250.27123    143.57886    36341.856 
  342700    293.63055   -1557.1639    534.63777    305.23861    593.45083    36341.856 
  342800    294.07332    -1572.142    535.87054    293.49536    1080.6236    36341.856 
  342900     301.4733   -1588.9979    524.48532    298.71619    927.58144    36341.856 
  343000    302.05295   -1587.3362    519.73369    298.24731    809.34931    36341.856 
  343100    298.19834    -1573.185    506.19083    281.42556    732.47359    36341.856 
  343200    300.34417   -1582.5776     510.2861    285.83148    167.49705    36341.856 
  343300    300.03474   -1554.3967     543.9534    346.28044    52.095332    36341.856 
  343400    287.65813   -1522.0903    494.87439    273.54211   -384.80756    36341.856 
  343500    309.67308   -1526.6014    517.69308     391.3989   -720.77768    36341.856 
  343600    289.26259   -1497.2582    523.48883    334.24394   -999.82542    36341.856 
  343700    304.97276   -1548.0455     522.8876    353.89503   -313.41096    36341.856 
  343800    296.00103   -1526.6793    518.29698    330.10144    -282.5145    36341.856 
  343900    301.02285    -1545.814    545.20922    360.58709   -619.98643    36341.856 
  344000    303.90467   -1541.0395    530.40799    363.59162    520.72771    36341.856 
  344100    291.38798    -1549.815    510.58122    278.39033    61.991159    36341.856 
  344200    301.80057   -1486.7306    523.04101    401.01903    619.19003    36341.856 
  344300    304.23725   -1530.3295    545.35146      390.749    311.09261    36341.856 
  344400    304.33449   -1530.7466    531.83181    377.25193    506.20252    36341.856 
  344500    299.55711   -1531.6265    495.97622    318.91364    254.52647    36341.856 
  344600    302.99942   -1539.6886    523.89406    354.33511   -48.737462    36341.856 
  344700    296.67594   -1560.3448    534.33701    315.52778   -215.58353    36341.856 
  344800    304.99739   -1548.9213     528.4207    358.66373   -517.73194    36341.856 
  344900    303.73653   -1560.1397    498.97128     312.2944   -782.04516    36341.856 
  345000    311.02961   -1531.1663    504.10236    379.37739   -379.58752    36341.856 
  345100    290.78736   -1501.3748    510.03907    323.57242   -589.60108    36341.856 
  345200    295.10085    -1514.368    516.10301     336.1483   -620.98417    36341.856 
  345300     300.4986   -1553.9569    505.95714    310.82155   -281.58673    36341.856 
  345400    298.03125   -1550.9934    508.83282    305.50365   -595.54312    36341.856 
  345500    293.14312   -1518.0475    536.28626    343.79933     -308.635    36341.856 
  345600    307.02832   -1516.5643    520.41088    392.19456    96.520671    36341.856 
  345700    300.21851    -1567.444    492.10159    282.21231    -324.1297    36341.856 
  345800    304.63333   -1548.5948     523.2217    352.14492   -18.462071    36341.856 
  345900    304.37896   -1591.2321    505.83373    290.96942   -182.14017    36341.856 
  346000    309.80157   -1565.1638    513.33609    349.06052   -490.69475    36341.856 
  346100    299.32465   -1509.4573    525.85814    369.91358   -64.346304    36341.856 
  346200    283.46036   -1487.2688    513.17525    307.68266   -476.90209    36341.856 
  346300    295.17531   -1558.4196    512.32803    288.65834    158.48115    36341.856 
  346400    299.00496   -1513.9027    502.32212    340.48657     43.67836    36341.856 
  346500    310.37046   -1515.0709    514.03419    402.42403    329.62416    36341.856 
  346600     297.2746    -1522.818    517.48482    338.90955    172.32277    36341.856 
  346700    296.71198   -1497.5896    529.95212     374.0611    323.76632    36341.856 
  346800    305.46769   -1514.8138    514.98137    381.45855    127.62683    36341.856 
  346900    292.27737   -1519.3743    536.65458    338.92606    325.45942    36341.856 
  347000    291.19584   -1528.8244    507.26027    295.19104    195.67377    36341.856 
  347100    303.20234   -1469.2717    541.33902    443.11456    629.98268    36341.856 
  347200    301.41669   -1494.8411    529.82388     397.9556    193.72005    36341.856 
  347300    294.68246   -1493.0195    519.15069    358.65249   -61.811908    36341.856 
  347400    302.12769   -1529.9352    521.48891    357.74155   -108.21661    36341.856 
  347500    297.20981   -1485.5783    528.46082    386.83225    404.47614    36341.856 
  347600    305.33084   -1460.2371    541.49554     461.9306    128.34427    36341.856 
  347700    309.49111   -1471.4024     524.4226    452.50459   -503.62211    36341.856 
  347800    301.79512   -1498.0391     542.5523     409.1972   -393.40219    36341.856 
  347900     304.7003   -1502.5536     518.4158    393.68308   -74.108734    36341.856 
  348000     310.3965   -1494.6403    492.22177    401.15992    90.482393    36341.856 
  348100    289.32103   -1472.9099    531.88597    367.25362    23.938301    36341.856 
  348200    302.44004   -1486.4149    527.27263    408.45803   -414.59458    36341.856 
  348300    296.50042   -1503.5053    515.33848    352.57516   -810.44267    36341.856 
  348400    300.73947    -1482.545    527.58001    404.94544    -507.3174    36341.856 
  348500    294.75228   -1495.7538    561.75797    398.84117    -1180.137    36341.856 
  348600    300.90691   -1452.6587    515.13838    423.14722   -658.15959    36341.856 
  348700    298.79615   -1506.7448    526.46909    370.84726   -679.33272    36341.856 
  348800    299.71404   -1491.2522    503.28508    367.30644   -799.54312    36341.856 
  348900    302.41229   -1464.7198    502.62498    405.37994   -1214.4139    36341.856 
  349000    312.76302   -1484.9716    538.95734    468.26529   -645.55146    36341.856 
  349100    303.67704   -1503.3525    524.51432    394.35567   -174.82621    36341.856 
  349200    300.30353   -1517.0935     509.7784    350.62404   -97.790403    36341.856 
  349300    292.38193   -1529.6478    516.83072    309.30154    66.653662    36341.856 
  349400     298.2353   -1533.2216    501.12625    316.49152    363.95291    36341.856 
  349500    291.33116   -1535.3899    516.79518    298.77235    533.75723    36341.856 
  349600    295.08437    -1550.233     525.7173    309.82305    301.22377    36341.856 
  349700    303.18377     -1550.92    537.48064    357.52395    620.85122    36341.856 
  349800    298.36782   -1524.7992     496.0811    320.46806    236.29768    36341.856 
  349900    292.11964   -1511.0671    516.57563    326.44105   -583.09215    36341.856 
  350000     294.5761    -1508.178    524.17229    348.03467   -467.02551    36341.856 
  350100    295.23314   -1526.7892    519.74939    327.97165   -91.254068    36341.856 
  350200    287.86498   -1504.8721    508.46485    305.28621   -49.795291    36341.856 
  350300    299.67087   -1523.7802    533.30216    364.60033   -683.32776    36341.856 
  350400    299.16711   -1498.2835    520.62289    375.13979   -414.99512    36341.856 
  350500    307.65146    -1541.578    507.35479    356.94245   -486.15434    36341.856 
  350600    295.01086    -1557.496    504.60747     281.1178   -335.27285    36341.856 
  350700    292.71054   -1551.8775    495.45328    267.18033   -7.7146949    36341.856 
  350800    293.60862   -1558.2396    536.39193     305.8179   -76.520183    36341.856 
  350900    303.71423   -1533.8192    521.57648    361.11931    593.37806    36341.856 
  351000    302.22073   -1543.8718    502.24482    324.98163    363.90779    36341.856 
  351100     298.7445   -1522.2947    551.20915    379.80387   -108.44691    36341.856 
  351200    303.00749    -1499.437    530.03501    400.76422    299.10749    36341.856 
  351300    295.15987   -1482.6423    507.27544    359.31326    423.30698    36341.856 
  351400    301.52626   -1509.2544    509.29492    363.50875   -183.22784    36341.856 
  351500     305.6979   -1489.3736     527.0824    420.04071   -304.58469    36341.856 
  351600    289.49495   -1490.5684    499.02795    317.52356   -619.50726    36341.856 
  351700    303.12615   -1499.1598    518.78596    390.32894   -767.93733    36341.856 
  351800     297.6782   -1517.3277    521.20281    349.94285   -411.48084    36341.856 
  351900     292.3812   -1565.7343    506.03149     262.4125   -682.86801    36341.856 
  352000    290.32903   -1527.3589    509.49265    294.96933   -148.35639    36341.856 
  352100     307.3652   -1511.9556    525.18612    403.10185    197.07762    36341.856 
  352200    303.00684   -1495.9561    519.25437    393.46153   -24.622536    36341.856 
  352300    307.22965   -1535.5132    506.60187    360.34696     290.7674    36341.856 
  352400    310.01724    -1539.932    510.11732    372.04877   -772.27858    36341.856 
  352500    295.75388   -1509.9263     522.0092    349.44903   -429.73837    36341.856 
  352600    295.49929   -1518.8238      531.613    349.00412   -762.03704    36341.856 
  352700    290.41817    -1521.492    492.25919    284.00582   -795.67607    36341.856 
  352800    297.49158   -1518.4184    492.72217    319.52763   -1019.6906    36341.856 
  352900    310.14691   -1499.3953    499.48204    402.53655   -855.65492    36341.856 
  353000     296.9621   -1510.5477    505.83932    338.12119   -919.36287    36341.856 
  353100    296.04476   -1483.5562    513.77913    368.90446   -4.6620407    36341.856 
  353200    302.42114   -1505.7422    515.95779    377.73033    379.40827    36341.856 
  353300    298.02671   -1490.8967    527.10923    383.85619    182.59703    36341.856 
  353400    296.75617   -1473.4163    507.36102    375.84316    658.80071    36341.856 
  353500    291.30206   -1481.9431    568.45035    403.74278    624.09439    36341.856 
  353600    301.57658   -1440.3924    547.05862      470.362   -157.67455    36341.856 
  353700    302.04771   -1477.1787    506.37893    395.02643   -212.21127    36341.856 
  353800    298.15742   -1492.5356    531.04434    386.74345   -235.21213    36341.856 
  353900    301.29696   -1464.1692    538.13048     436.3927    -35.81338    36341.856 
  354000    302.41203   -1493.0552    521.87954    396.29795   -222.70333    36341.856 
  354100    295.45758   -1495.1556    538.38686    379.25758   -452.30731    36341.856 
  354200    285.27721   -1479.1333    526.83792    337.69641   -398.36808    36341.856 
  354300    310.51683   -1492.5948    513.59157    425.11933    174.79807    36341.856 
  354400    303.59793    -1511.024    505.93431    367.74646   -3.1623843    36341.856 
  354500    300.52604   -1516.1625    538.51024    381.29311    596.68915    36341.856 
  354600    306.67226   -1488.6872    507.62472    405.67539    228.76016    36341.856 
  354700    305.07246    -1469.979    526.94738    436.47213    7.2326229    36341.856 
  354800    296.99435   -1518.7898    510.25778    334.44345    -192.8926    36341.856 
  354900    299.90045   -1513.1605    502.66832    345.62433   -215.09953    36341.856 
  355000    305.95361   -1524.3343    516.63782    375.79177   -227.72527    36341.856 
  355100    296.09117   -1528.4851    499.14706    309.55333    94.211508    36341.856 
  355200    301.55918   -1517.8044    508.59403    354.40667   -333.25862    36341.856 
  355300    294.84262   -1466.0832     516.2971    383.45947   -424.57717    36341.856 
  355400     293.6475   -1484.8423    528.97248    371.97158    52.855752    36341.856 
  355500    301.31643   -1514.2505    540.71948    388.98835   -94.426901    36341.856 
  355600    305.70393   -1505.8935    522.84227    399.30795    408.24593    36341.856 
  355700    303.97116   -1472.3844    543.13501    445.27436    556.44738    36341.856 
  355800    297.30766   -1500.4837    512.46125    356.36972    769.50352    36341.856 
  355900    296.58661   -1540.8101    515.69319    316.01481    491.71307    36341.856 
  356000    299.72777   -1531.8196    511.88767    335.40372   -414.91541    36341.856 
  356100    293.02438     -1530.11    535.91252     330.8262   -432.82263    36341.856 
  356200     306.3985   -1549.3668    535.76224    371.89537   -287.02766    36341.856 
  356300    307.53186   -1547.7588    508.68017    351.54621   -600.65502    36341.856 
  356400    294.56135   -1498.8252     504.7907    337.93919   -447.27009    36341.856 
  356500    296.95773   -1493.4822    506.04144    355.36907   -680.07085    36341.856 
  356600    293.98595   -1508.4019    519.97245    340.94232   -789.94418    36341.856 
  356700    296.63357   -1527.8928    501.92954     315.3808    55.479162    36341.856 
  356800    313.46553   -1532.0667    542.96679    428.35638     263.4571    36341.856 
  356900    297.18548   -1537.3785     506.0168    312.47799   -298.02154    36341.856 
  357000    307.93079   -1487.2385    517.84794    423.03823   -46.715187    36341.856 
  357100    304.90618   -1504.2803    507.80295    382.27453    13.171913    36341.856 
  357200    292.50676   -1530.2585    501.44932    293.87384    175.39267    36341.856 
  357300    301.29772   -1510.4047      519.868    371.89813    467.52195    36341.856 
  357400    302.83005    -1508.709    514.77421    375.42905    147.59794    36341.856 
  357500    301.39643   -1514.8821     515.0643    363.06334   -698.41137    36341.856 
  357600    302.07903   -1537.0947    519.73483     348.6079   -561.12589    36341.856 
  357700    296.27639   -1518.5932    493.34746    314.48319   -779.81285    36341.856 
  357800    294.27115   -1505.7552    521.46983    346.37612    539.35459    36341.856 
  357900    293.95588   -1509.1672    507.72988    327.79849   -252.57661    36341.856 
  358000    300.86879   -1495.2699    495.12992    360.35528    202.55334    36341.856 
  358100    301.72127   -1522.3174    520.71246    362.74508    301.69453    36341.856 
  358200    293.64152   -1483.1445    507.07758    351.74742    234.96948    36341.856 
  358300     302.1841    -1514.256    502.19936    354.38623    76.809936    36341.856 
  358400    307.42901   -1524.2555    519.18178    385.08604    526.89027    36341.856 
  358500    302.77796   -1523.7096    539.34637    384.76508    207.51268    36341.856 
  358600    296.63916   -1531.5907    490.85243    300.63108    90.451471    36341.856 
  358700    301.63321   -1501.5455    527.30033    389.70664   -10.298589    36341.856 
  358800    296.05886   -1511.2522    522.37903    349.87207    245.32254    36341.856 
  358900    287.29664   -1509.3821    498.68286    288.42429    419.34493    36341.856 
  359000     298.4955   -1544.9071    524.32471    329.18106    904.15125    36341.856 
  359100    299.00757   -1578.2577    515.57856    289.39981    363.48359    36341.856 
  359200    313.40686   -1561.1109    532.70808     388.7882    686.77613    36341.856 
  359300    306.60803    -1598.735    503.83846    291.55094    262.22916    36341.856 
  359400    297.74451   -1579.8562     507.2902     273.8016    742.93702    36341.856 
  359500    306.93575   -1568.6897    516.29392    335.53351    340.44551    36341.856 
  359600    294.52124   -1517.5425    530.48159     344.7314    150.29703    36341.856 
  359700    296.27046   -1513.9636    534.39737    360.13588    297.64299    36341.856 
  359800    301.80574   -1536.2792    532.85584    361.30862   -651.98953    36341.856 
  359900    294.55575   -1525.9581    485.60913     291.5994   -845.58319    36341.856 
  360000     303.2761   -1543.5622    503.07033      330.889   -852.71341    36341.856 
  360100    294.46487   -1570.0262    506.31469    267.82592   -211.89381    36341.856 
  360200    301.31866   -1541.5573     478.3782    299.35045    67.186238    36341.856 
  360300    293.10014   -1524.3659     519.9395     320.9399    119.58729    36341.856 
  360400    298.71816   -1536.9357    520.28297    334.11757    100.93393    36341.856 
  360500    305.85809   -1552.2704    514.66378    345.44972    263.40851    36341.856 
  360600    292.26472   -1525.3312    501.57039    297.82779   -140.91732    36341.856 
  360700    301.24072   -1539.4579    514.60579    337.32492    98.073871    36341.856 
  360800    305.57489   -1556.8687    504.23208     329.1391    482.12257    36341.856 
  360900    291.68674   -1580.3293    514.48745    253.13312    308.49172    36341.856 
  361000    298.29628   -1538.0129    513.38708    324.23677    231.97801    36341.856 
  361100    299.96174    -1549.177    500.26771    307.48431    97.202179    36341.856 
  361200    289.53928   -1530.1032    496.34629    275.50751   -898.74872    36341.856 
  361300    309.41385   -1523.1157    488.74214    364.76148   -625.15247    36341.856 
  361400    298.78458   -1546.3943    502.35438    307.03069   -307.89126    36341.856 
  361500    291.07419   -1528.4229    500.55846    288.34069   -223.82602    36341.856 
  361600    326.48439   -1524.6622    498.81835    450.48225   -310.69508    36341.856 
  361700    291.67006   -1504.7682    505.30648    319.43788   -249.94424    36341.856 
  361800    296.25575    -1519.424    510.87455    331.08606   -504.32551    36341.856 
  361900    298.82099   -1505.9893    501.47493    346.72093   -659.50544    36341.856 
  362000    301.22842    -1486.481    517.19409     392.8345   -42.780359    36341.856 
  362100    293.63405   -1498.3563    508.12465    337.54885    64.244602    36341.856 
  362200     305.3643   -1512.5927    506.64377    374.87449    387.31371    36341.856 
  362300    302.93654   -1538.8321    470.70323    301.71653    953.03818    36341.856 
  362400    291.82913   -1508.1631    522.32671    333.78251    224.34127    36341.856 
  362500    309.78639   -1561.7287    501.30509    340.39602    746.17273    36341.856 
  362600    306.29992   -1551.3137    494.56209    328.30258    613.64356    36341.856 
  362700    297.40436   -1538.9885    463.14793    268.98885    281.28606    36341.856 
  362800    306.65762   -1508.4005    510.71357    388.98472   -144.93158    36341.856 
  362900    291.62966   -1514.4205     498.3838    302.68023    -197.2967    36341.856 
  363000     292.2291   -1483.5242     513.0485    350.95183    432.34218    36341.856 
  363100    291.50774   -1486.8644    509.19754    340.49872    964.70694    36341.856 
  363200    290.23034   -1482.1821    511.06125    341.26847    133.54282    36341.856 
  363300    301.44237   -1515.1368    488.92032    336.87239   -56.153167    36341.856 
  363400    313.95861   -1497.3531     488.1555    410.48833   -484.39709    36341.856 
  363500    301.98392   -1489.1266    502.16152    378.57266   -266.35472    36341.856 
  363600    295.89404   -1439.3406     524.9734    423.63273   -325.95598    36341.856 
  363700    296.94768    -1447.609    513.44089    408.59631   -121.98545    36341.856 
  363800    294.90455   -1464.4239    514.14047    383.24214   -311.17258    36341.856 
  363900    305.58386    -1465.116    515.37534    432.07556   -289.98541    36341.856 
  364000    292.84686   -1461.2029    481.54241    344.56042     179.8573    36341.856 
  364100    301.03466   -1400.4254    500.69301    461.51285   -194.69057    36341.856 
  364200    291.98891   -1461.9903     493.8135    352.16465   -756.00047    36341.856 
  364300    304.42934   -1512.8486    516.55647    380.30357   -386.61009    36341.856 
  364400    305.99788    -1486.715    491.85761    388.83095    -309.0847    36341.856 
  364500    306.55459   -1499.3283    476.34748    363.22495   -440.41004    36341.856 
  364600    297.34074   -1510.2577    495.70979     329.9939    -263.8509    36341.856 
  364700    293.86352   -1483.5368    488.75724    334.03862     -742.189    36341.856 
  364800    306.51797   -1495.7136    490.40327    380.72989   -722.76946    36341.856 
  364900    303.57169   -1512.8853    486.33674    346.16886    109.38428    36341.856 
  365000     303.7731   -1529.3146    473.82797    318.14155   -122.43088    36341.856 
  365100    298.99394   -1523.4419    499.07978    327.65529    421.80381    36341.856 
  365200    304.84859   -1490.7541    502.42156    390.15894    517.45333    36341.856 
  365300     289.2297   -1457.3936    504.56326    355.03425    738.53448    36341.856 
  365400    295.68161   -1504.0007    479.47859     312.5173     469.8371    36341.856 
  365500    292.49337   -1481.2942    519.09298    360.42131    156.36029    36341.856 
  365600    297.71143   -1509.8093    480.90927    317.31791   -79.864166    36341.856 
  365700    304.20958   -1485.4066    488.27115    378.46645   -100.96737    36341.856 
  365800    306.52141   -1505.4995    494.09915    374.65538   -317.49014    36341.856 
  365900    291.92548   -1462.9664    482.98702    340.07514    -480.0445    36341.856 
  366000    294.55807   -1493.2042     478.0833    316.83795   -46.649045    36341.856 
  366100    297.46817     -1469.32     479.2979    355.09592   -323.73878    36341.856 
  366200    304.00794   -1472.0802    496.13507    398.74501   -171.09113    36341.856 
  366300    293.99784    -1489.814    504.31774    343.92931    129.63096    36341.856 
  366400    309.98674   -1535.1373    489.55658    356.14482    213.86411    36341.856 
  366500    300.04426   -1495.3253    498.66798    360.10949   -94.875451    36341.856 
  366600    292.46654    -1446.104    493.32033    369.71752   -351.69119    36341.856 
  366700    301.81757   -1492.9613    479.36329    351.18747   -12.667623    36341.856 
  366800    307.94623   -1507.8354    472.42335    357.08653   -21.484902    36341.856 
  366900    304.25031   -1486.2018    507.59155     397.1759    379.12554    36341.856 
  367000    302.32297   -1503.3304    519.40261    383.14302    143.86863    36341.856 
  367100    303.97597    -1494.054    475.32159    355.81314     452.5333    36341.856 
  367200    300.64063   -1447.6865     490.2133    401.99028   -545.75306    36341.856 
  367300    298.79236   -1467.6202    491.86926    375.35491    22.485112    36341.856 
  367400    308.26751   -1431.7505    483.32212    445.52302    147.81931    36341.856 
  367500    292.12239   -1468.1224    509.92297    362.74553   -785.06496    36341.856 
  367600    288.97504   -1462.7679    497.25069    341.19573   -539.43011    36341.856 
  367700     302.6986   -1500.6868    477.77788    345.86045   -236.56679    36341.856 
  367800    294.95559    -1476.584    506.69427    363.86662   -59.245685    36341.856 
  367900    296.84707   -1552.7267    471.22448    260.80722   -519.87865    36341.856 
  368000    293.70674   -1514.8966     471.4881    284.70073    212.17009    36341.856 
  368100    307.80206    -1477.745    511.97402     426.0757    415.57316    36341.856 
  368200    291.39133   -1504.5134    506.82204    319.94787   -378.76956    36341.856 
  368300    295.92131   -1478.2802    487.90996    347.75305    504.40857    36341.856 
  368400    307.16142   -1467.4955     514.0389    435.49323   -119.60768    36341.856 
  368500    301.14289    -1523.431    518.68435    356.98805   -449.08905    36341.856 
  368600    292.14339   -1479.1452     501.6414    343.53615   -240.89451    36341.856 
  368700    304.29005   -1494.0774    488.64891     370.5373    113.17349    36341.856 
  368800    299.91558   -1485.8933    487.88871    358.18031    36.239971    36341.856 
  368900    292.00042   -1479.8039    521.67479    362.26437    41.693653    36341.856 
  369000    309.41879   -1473.6937    496.41794    421.88163    159.97207    36341.856 
  369100    296.25249    -1499.015    486.87248    327.47835   -600.39215    36341.856 
  369200    292.45943    -1486.443     485.7995    321.82556    -464.0065    36341.856 
  369300    305.17392   -1481.3301    490.06351    388.69593    101.54014    36341.856 
  369400    301.47632   -1473.6629    492.35496    381.93442   -12.126786    36341.856 
  369500    307.79241   -1490.4407     503.3129    404.67524   -112.26541    36341.856 
  369600    292.66163   -1430.3836    517.99815    410.99793   -54.237854    36341.856 
  369700    296.99253   -1468.9877    510.48548    384.46503    580.60294    36341.856 
  369800    301.36908   -1467.5209    485.37773    380.61432    1056.8768    36341.856 
  369900    296.57091   -1476.0078     486.3627    351.41557    453.97071    36341.856 
  370000    298.79696    -1483.088    510.13642    378.17506    22.820102    36341.856 
  370100    299.89991   -1521.7344    484.17264     318.5523    13.973326    36341.856 
  370200    293.51926   -1508.9896    486.83803     305.1099    10.480386    36341.856 
  370300    301.36831   -1482.9899    510.04515    389.80924     -9.66495    36341.856 
  370400    294.81389   -1465.1013    520.52528    388.53963   -308.95213    36341.856 
  370500    299.68199   -1462.7902    505.59415    397.93263   -709.45477    36341.856 
  370600    297.44737   -1432.3207    486.20077    398.90399   -842.98185    36341.856 
  370700    299.12687   -1449.4476    478.97972    382.15055   -392.70713    36341.856 
  370800    310.45848   -1474.4927     472.8165    402.18252   -426.50124    36341.856 
  370900    307.38591    -1529.346    537.87655    398.49552   -725.31094    36341.856 
  371000    288.56853   -1508.7151    516.80744    312.96716   -561.93079    36341.856 
  371100    293.36809   -1510.1633    529.98599    346.40057   -153.13653    36341.856 
  371200    300.75285   -1509.2692    497.75657    348.45836   -130.63869    36341.856 
  371300    299.10626   -1523.6368    511.72924    340.61772   -361.78426    36341.856 
  371400    295.29469   -1484.3744    493.73795    344.65333   -166.26571    36341.856 
  371500    306.96647   -1516.9994    507.47652    378.54536    102.85313    36341.856 
  371600    301.46149    -1502.425    497.34689    358.09729   -211.96465    36341.856 
  371700    300.92389   -1477.7525     541.3964    424.38826    156.61124    36341.856 
  371800     292.9043    -1514.042    526.38695     336.8257   -496.76583    36341.856 
  371900    290.51658    -1513.999    513.03195    312.71665    -621.5045    36341.856 
  372000    299.26175   -1546.6056     507.4134    314.03611   -532.36318    36341.856 
  372100    302.09033   -1575.4438    484.25507     274.8302   -140.86831    36341.856 
  372200      312.785   -1565.6362    505.51264    354.25546   -219.04003    36341.856 
  372300    304.16961   -1532.7146    482.57419    325.28075   -224.93541    36341.856 
  372400    295.17976   -1550.1824    495.17299    279.76066    225.13859    36341.856 
  372500    302.48834    -1512.097    515.00228    370.72394    80.974726    36341.856 
  372600    289.10236   -1486.9916      521.606    341.90314    261.28754    36341.856 
  372700    296.88928   -1474.6807    500.50498    368.32467   -86.502037    36341.856 
  372800    290.49239   -1510.9261    484.09886    286.74706    67.142457    36341.856 
  372900    296.64689   -1494.7069    522.35209    369.04945    283.56986    36341.856 
  373000    295.07636     -1503.12    487.49795    318.68043     -552.407    36341.856 
  373100    314.90331   -1509.7211    504.08645    418.32311    420.83394    36341.856 
  373200    295.89841   -1462.6932    503.09132    378.41781    353.40251    36341.856 
  373300    300.52237   -1462.9116    536.06325    432.08038    516.67027    36341.856 
  373400    306.36818   -1495.6296    522.02211     411.7554    689.68464    36341.856 
  373500    301.08495   -1491.9793    492.91057    362.40396     659.6532    36341.856 
  373600    298.25978    -1488.533    544.67431    404.83884    629.21662    36341.856 
  373700    308.61929    -1499.542    500.06601    396.06615    311.01739    36341.856 
  373800    299.24189   -1446.0564    495.79453    402.87666    527.86848    36341.856 
  373900    297.90638   -1491.2022     527.4859    383.38321    400.42183    36341.856 
  374000    289.82944   -1458.2768    503.99757    356.29729   -19.733567    36341.856 
  374100    284.68154   -1502.1251    520.13722    305.31036   -62.765145    36341.856 
  374200    299.17623    -1496.431    509.97818    366.38886    86.780348    36341.856 
  374300    308.65118   -1498.1784    506.54723     404.0552   -166.08388    36341.856 
  374400    317.33919   -1493.9676    529.01003    470.01499   -331.25208    36341.856 
  374500    307.98897   -1493.6533    492.61646    391.65506    360.13944    36341.856 
  374600    296.62214   -1431.1877    505.59079    415.69544    57.307778    36341.856 
  374700    296.55452   -1482.8796     508.5652     366.6722   -499.29182    36341.856 
  374800    301.24289   -1463.0126    519.39422    418.56854   -468.99269    36341.856 
  374900    305.00963    -1486.598    503.53907    396.16069   -204.93436    36341.856 
  375000    299.57087    -1522.387     510.3269    342.56614       95.513    36341.856 
  375100    301.55305   -1520.6964    497.42361    340.31658    180.58756    36341.856 
  375200    298.12388   -1495.3634    503.48094    356.20057    305.31256    36341.856 
  375300    297.21918    -1559.445    481.87663     266.4237    379.58195    36341.856 
  375400    309.32968   -1527.9941    539.94852     410.7089    239.30485    36341.856 
  375500    294.71651   -1544.7644    455.31398    243.22494   -33.154034    36341.856 
  375600    297.78825   -1534.1823    513.61654    325.99959   -262.98647    36341.856 
  375700     299.2438   -1517.2931    502.13487    337.98899   -131.32596    36341.856 
  375800      299.544   -1540.6709    527.92827    341.76204    500.68144    36341.856 
  375900    290.43131    -1543.867    492.85924    262.29031    432.13188    36341.856 
  376000    299.66119   -1539.4419    488.49932    304.09199    356.07932    36341.856 
  376100    305.51657   -1537.4581    496.95474    341.00863    157.17205    36341.856 
  376200    305.59451   -1546.5007    501.60705    336.97074    -408.3386    36341.856 
  376300    295.59764   -1549.2636    494.34146    281.73757    110.75688    36341.856 
  376400    295.19145   -1538.7854    499.19939    295.23685    -419.2788    36341.856 
  376500    297.70958   -1499.2347    517.76501    364.73992   -593.74445    36341.856 
  376600      303.369   -1575.1887    489.47479    286.08693   -572.10739    36341.856 
  376700    295.57607    -1549.061    475.48542     262.9866   -721.59317    36341.856 
  376800    302.39883    -1567.948    499.41535    298.88128   -848.29427    36341.856 
  376900    291.98246   -1543.7304    509.84401    286.42582   -769.05739    36341.856 
  377000    301.30591    -1559.215    505.28617    308.54298   -368.41046    36341.856 
  377100     292.2651   -1520.9319    491.01042    291.66888   -445.39678    36341.856 
  377200    299.68816   -1500.6423    498.72691    353.24114    63.830099    36341.856 
  377300    297.90929   -1530.3498    503.76132    320.52423    52.360276    36341.856 
  377400    299.07462   -1543.8455    511.40972    319.94643    468.72288    36341.856 
  377500      293.703   -1535.9279    502.67343    294.83789     373.5654    36341.856 
  377600    291.12032   -1537.1354    500.67063    279.94889    180.19642    36341.856 
  377700    298.37144   -1522.7212    511.01499    337.49626    635.75819    36341.856 
  377800    301.05285   -1504.6457    508.57778    365.25956    480.70697    36341.856 
  377900    307.21546   -1536.9092    465.68538     317.9704   -125.33017    36341.856 
  378000    300.37552   -1543.3161    486.01367    300.96231    196.47042    36341.856 
  378100    292.81652   -1534.5113    490.62584    280.19829   -143.88972    36341.856 
  378200    311.47157     -1581.34    491.68429     318.7841   -358.44746    36341.856 
  378300    299.58556   -1537.1781    494.56565    312.08014   -1035.8787    36341.856 
  378400    310.01837   -1473.8702    489.80161    417.80003   -999.09407    36341.856 
  378500    302.48783   -1525.6328    529.45171    371.63529   -521.93718    36341.856 
  378600    303.24807   -1557.0468    504.49243    318.69967   -576.25499    36341.856 
  378700    308.35414   -1511.9268    503.72563    386.14195   -271.49173    36341.856 
  378800    288.43461   -1507.5408    502.07767    298.80617   -505.94975    36341.856 
  378900    297.47135   -1511.7709    491.98645    325.34793   -144.42135    36341.856 
  379000     300.1884   -1545.1695    493.72083    305.96995   -187.96913    36341.856 
  379100    306.59923   -1478.8524    501.72405    409.27928    116.29639    36341.856 
  379200    301.25951   -1500.3759     479.1963     341.0824   -351.60117    36341.856 
  379300    310.10489   -1483.0998    513.03575    432.19583   -388.68695    36341.856 
  379400    291.69846    -1517.027    493.76686    295.76783    304.18244    36341.856 
  379500    308.22135   -1537.4728    492.98444    349.25434    181.27785    36341.856 
  379600    304.40713   -1525.7919    501.68737    352.39074    150.74222    36341.856 
  379700     300.1318   -1514.0363    503.83122    346.95753   -527.15685    36341.856 
  379800    300.63431     -1529.45    476.59828    306.58315   -553.14079    36341.856 
  379900    295.38398     -1507.37     514.3975    342.72102   -684.26326    36341.856 
  380000    299.27536   -1481.9387    507.09996     378.4512   -384.58802    36341.856 
  380100    294.91563   -1497.2579    530.24553    366.56335   -193.60897    36341.856 
  380200    305.54767   -1473.9738    524.61834     432.2971    -420.8842    36341.856 
  380300    304.04805   -1497.1824    493.09563    370.78474   -464.45636    36341.856 
  380400    310.07502   -1480.9523    507.59092    428.76343   -324.33543    36341.856 
  380500    296.51809   -1479.2056    507.16787    368.78415    154.41193    36341.856 
  380600    307.16943   -1510.8151    524.14019     402.3111   -46.914981    36341.856 
  380700    299.66755   -1519.6018    519.70458    355.16607   -12.947995    36341.856 
  380800    293.71749   -1521.8912    494.36294    300.62955    309.84472    36341.856 
  380900    295.67228   -1545.2259     488.2915     280.0628    558.70625    36341.856 
  381000    300.74696   -1542.5968    512.37792    329.72548    373.80617    36341.856 
  381100    303.76877   -1575.3198    489.07353    287.36234    395.38689    36341.856 
  381200    286.41581   -1580.6452    497.61114    212.10634    72.606764    36341.856 
  381300    296.35294   -1560.1693    507.97565    287.88135    937.47665    36341.856 
  381400    309.27308   -1551.6364     478.5243    325.38636    1043.1611    36341.856 
  381500    298.27646   -1539.7978     506.6138    315.58902    314.48519    36341.856 
  381600    292.36086   -1511.3101     506.3985    317.11165   -452.02455    36341.856 
  381700    309.58959   -1511.9993    502.52244    390.45285   -512.29643    36341.856 
  381800    305.44795   -1497.4395    507.57928    391.34145   -904.44578    36341.856 
  381900    314.35167   -1494.0981    470.41911    397.78427   -326.21853    36341.856 
  382000    307.36103   -1482.0308    500.66322    408.48478   -964.73272    36341.856 
  382100     302.3082   -1496.3012    508.03698    378.73981   -38.336592    36341.856 
  382200    292.70914   -1568.5389    498.32115    253.38044    -327.4265    36341.856 
  382300    293.66012   -1543.5528    495.67533    280.02093   -362.85534    36341.856 
  382400    294.45731   -1524.6542    494.10556    300.95457   -103.09591    36341.856 
  382500      311.066   -1535.2027    508.84736    380.25048    506.78359    36341.856 
  382600    297.32893   -1510.9349    505.36994    338.92347    -186.1801    36341.856 
  382700    302.23386   -1489.8904    465.79181    342.56934    410.68318    36341.856 
  382800    298.12129   -1491.0224    478.23038    335.27932    610.63277    36341.856 
  382900    306.15187   -1508.5003    499.70116    375.58554    345.78425    36341.856 
  383000    291.47886   -1508.9503     524.3962    333.48096    324.71063    36341.856 
  383100     287.4692   -1518.4181    496.53612    278.02178  -0.56937176    36341.856 
  383200    298.53599   -1535.2524    514.56853    329.26276   -224.55125    36341.856 
  383300    303.03301   -1553.1948    501.41759    318.50433   -202.94002    36341.856 
  383400    288.07723   -1553.7757    496.10095    244.97845   -372.28939    36341.856 
  383500    310.30261   -1554.6002    491.83293    340.38668    344.83382    36341.856 
  383600    293.33625   -1590.0063      494.837    231.26463   -109.35852    36341.856 
  383700    297.51095   -1530.0559    501.94682    317.20239   -956.97742    36341.856 
  383800    302.79523   -1562.7163    497.39226    303.88236   -487.70414    36341.856 
  383900     302.3202   -1485.4139    512.25893    393.90339    -349.2714    36341.856 
  384000    301.68197   -1532.5925    494.71898    326.29881   -220.54205    36341.856 
  384100    303.78005   -1529.1876    470.83887    315.31088    110.46479    36341.856 
  384200    293.86946   -1523.4889    516.08482    321.44095   -28.420359    36341.856 
  384300    292.25561    -1538.562    521.43495    304.42028    218.33814    36341.856 
  384400    310.39358    -1508.103    527.68548    423.14775   -13.493412    36341.856 
  384500    297.98454   -1507.8376    515.05046    354.66586    356.27281    36341.856 
  384600    300.31499   -1506.6486    504.00422    355.34659    339.21645    36341.856 
  384700    288.40883   -1490.9975    522.36991    335.52502    433.15926    36341.856 
  384800    288.60906   -1498.8258    499.04508    305.27736    161.66122    36341.856 
  384900    292.80102   -1478.8916    514.37881    359.50084    245.03529    36341.856 
  385000    310.89126   -1472.1798    497.67414    431.31004    551.01775    36341.856 
  385100    299.88588   -1469.8859    511.31848    397.48325    459.82624    36341.856 
  385200    296.75809   -1479.5273    506.96884    369.34865   -13.305055    36341.856 
  385300    295.90222   -1530.1086    496.61117    304.53952    352.73975    36341.856 
  385400    297.48754   -1518.5092    504.35602    331.05237    162.31999    36341.856 
  385500    309.53354   -1511.1968    526.94909    415.42857    237.53995    36341.856 
  385600    303.43479    -1539.804    505.44366    337.73811    9.4306557    36341.856 
  385700    298.24906   -1512.1816    496.88606    333.35359    323.71487    36341.856 
  385800    299.18436   -1530.5783     513.6499       335.95    205.44666    36341.856 
  385900     301.6061   -1488.4107    521.48677    396.90531    2.4680191    36341.856 
  386000    306.92616   -1526.1532    484.80614    346.53894    233.35013    36341.856 
  386100    304.29498   -1475.3016    503.94322    404.62964   -818.20486    36341.856 
  386200    304.54616   -1499.7647    498.66537    376.02459   -291.29946    36341.856 
  386300    296.44048   -1514.0032    485.84834    312.31606   -627.38638    36341.856 
  386400    292.89926   -1473.2237    507.04845    358.28272   -188.33879    36341.856 
  386500    297.18378   -1502.8992    507.18483    348.11769   0.52651507    36341.856 
  386600    298.66948    -1467.047    513.21162    396.71485     564.8778    36341.856 
  386700    294.52579   -1503.7616    505.67145    333.72269   -269.32857    36341.856 
  386800    300.16051   -1454.5836    499.20842    401.91732   -361.76597    36341.856 
  386900    287.50161   -1460.0596    542.95125    382.94195   -339.61456    36341.856 
  387000    301.32983    -1456.623    512.04435    418.00135    112.10131    36341.856 
  387100    303.19207    -1513.199    518.44633    376.24819   -459.75974    36341.856 
  387200    311.11275   -1503.5962     497.0493    400.27037   -633.22654    36341.856 
  387300    307.20872   -1524.2903    507.15346    372.02684   -559.43805    36341.856 
  387400    298.82147   -1496.8626    524.12909    378.50395   -784.23083    36341.856 
  387500    302.21941   -1477.6442    517.13232    406.09065     -340.806    36341.856 
  387600    293.50152   -1486.1562    535.77276    376.79777    292.37474    36341.856 
  387700    300.52999     -1482.69    522.79637    399.06959    134.00937    36341.856 
  387800    295.04548   -1508.8184     537.0433    362.38772   -183.62653    36341.856 
  387900     304.5452   -1494.7829    528.72095    411.05753    87.540259    36341.856 
  388000    304.53985    -1486.357    527.57274    418.31113   -129.45215    36341.856 
  388100     296.3683   -1523.8578    514.95038    331.23715   -411.71563    36341.856 
  388200     294.2095     -1532.14    532.80834    331.05093   -289.89784    36341.856 
  388300    304.45365   -1515.4763    494.76308    355.99235    88.930574    36341.856 
  388400    308.28897   -1527.8456    519.56067    385.76358   -463.74264    36341.856 
  388500    292.33499   -1496.0361    507.28699    333.15723   -454.32162    36341.856 
  388600     301.1871   -1502.2862    526.63337    386.28182   -198.52223    36341.856 
  388700    306.59683   -1488.5138    494.48575    392.36875   -81.697505    36341.856 
  388800    301.76527   -1491.3857    541.68712    414.85048    435.17251    36341.856 
  388900    296.37289   -1461.3936    535.04096    413.81261    263.96595    36341.856 
  389000    292.28744   -1487.6327    542.43673    376.49528   -223.36739    36341.856 
  389100    292.70753   -1468.0684    538.29135    393.81387    -11.36089    36341.856 
  389200     299.1239   -1526.6615    492.66196    318.60541   -673.19276    36341.856 
  389300    301.29578   -1498.5241    475.49557    339.39756    -469.5519    36341.856 
  389400    293.69949   -1506.5229    528.15469    349.70826   -267.74017    36341.856 
  389500    295.03259   -1471.0516    489.10607    352.15901   -154.48204    36341.856 
  389600    307.64218   -1481.6772    509.20964    418.65613     317.4753    36341.856 
  389700    299.34515   -1479.5775    512.62709    386.65511    405.39859    36341.856 
  389800    303.37062   -1494.7679    532.09399    409.13426     131.7212    36341.856 
  389900    289.33012   -1563.3881    515.15521    260.08575     697.3937    36341.856 
  390000    298.53913   -1516.8397    549.12778    382.24883   -72.811079    36341.856 
  390100    301.23235   -1547.1108    489.41195    304.44035   -134.58732    36341.856 
  390200    303.04011   -1546.2497    503.22507    327.28908    275.42553    36341.856 
  390300    299.70093   -1523.8323    505.84876    337.23073   -80.008798    36341.856 
  390400    311.42284   -1512.0757    491.04816     387.1919    322.07756    36341.856 
  390500    300.92012   -1543.7832    495.23626    312.18038    -151.9987    36341.856 
  390600    295.61098   -1547.0523    509.27929    298.94693   -189.94023    36341.856 
  390700    306.14707   -1495.8854    504.54441    393.02205   -169.05817    36341.856 
  390800     301.6959   -1513.7974    488.25484    338.69275    -227.2131    36341.856 
  390900    303.52781   -1511.0163    511.90088    373.40356    181.14853    36341.856 
  391000    293.34665   -1585.7519    496.51227    237.24128   -179.03669    36341.856 
  391100    310.29434   -1595.4136    494.86926    302.57218    152.35301    36341.856 
  391200    292.07459   -1598.6302    512.92953    235.02816   -54.155671    36341.856 
  391300    309.16078   -1520.0889    500.58365    378.48544     538.5944    36341.856 
  391400    302.76607   -1490.0514    505.41107    384.43414    322.78686    36341.856 
  391500    299.98682   -1457.8679    495.64421    394.28341    523.89252    36341.856 
  391600    308.72131    -1507.261    490.18155    378.92404    244.54315    36341.856 
  391700     306.9891     -1502.89    487.81302     373.0936    8.5639619    36341.856 
  391800    302.65429   -1517.9297     503.4529    354.09226    273.60721    36341.856 
  391900    301.97222    -1500.854    486.90876    351.53954    -308.8183    36341.856 
  392000    292.41549   -1539.2663     494.0009    277.00496    84.441639    36341.856 
  392100    297.98956   -1525.4889    505.51991    327.50669   -252.10962    36341.856 
  392200    308.74766   -1536.2963     486.7576    346.58389   -164.37449    36341.856 
  392300    293.95259   -1554.5977    521.17108    295.79428   -89.895526    36341.856 
  392400    290.39742    -1494.236    521.06386    339.97269   -935.90755    36341.856 
  392500    300.11727   -1509.4994    504.95976     352.5573   -473.28068    36341.856 
  392600    289.23591   -1473.2364    514.32228    348.97855    195.24131    36341.856 
  392700    311.66524   -1502.7142     504.8464     411.4478    175.96946    36341.856 
  392800    311.44476   -1500.2164    487.47763    395.57979   -311.34173    36341.856 
  392900    304.60544   -1478.8543    507.43046    405.96811   -2.5403521    36341.856 
  393000    293.32093   -1525.0862     497.1831    298.46149    88.917659    36341.856 
  393100    294.47091   -1525.3304    531.13766    337.37202  -0.92309359    36341.856 
  393200    300.83354   -1525.4725    520.86988    355.73317   -432.67733    36341.856 
  393300    304.08739   -1506.1953    500.10118    368.95525    -46.05997    36341.856 
  393400    303.28428   -1542.7078    513.94546    342.65546   -205.00645    36341.856 
  393500    293.82517    -1531.881    501.56795    298.33166    410.31374    36341.856 
  393600    300.47775   -1530.6121    513.33907    341.45397   -299.62739    36341.856 
  393700    290.16525   -1531.8586    491.67396     271.9104    620.58982    36341.856 
  393800    306.21411   -1493.6295    507.63466    398.67134    783.61225    36341.856 
  393900    304.69627   -1494.4511    494.49663     377.8482    100.94818    36341.856 
  394000    315.69868   -1498.4441    505.67482    434.78507    820.53109    36341.856 
  394100    295.48911   -1496.8245    502.16504    341.50947    570.90334    36341.856 
  394200    302.26609    -1489.195    527.55365    405.17228    715.33973    36341.856 
  394300    307.51579   -1529.6224    500.38099    361.31077     503.1137    36341.856 
  394400    295.14476   -1510.9758    509.51621    333.15216    84.170001    36341.856 
  394500    301.47702   -1487.0412    533.23838    409.44269   -91.911257    36341.856 
  394600    302.87267   -1518.8568    502.42221      353.122   -138.19687    36341.856 
  394700    291.72858   -1466.4851    512.03319    364.71233     722.9999    36341.856 
  394800    301.98862   -1453.5757    524.74595    436.72918    351.57952    36341.856 
  394900    304.94481   -1493.4008      489.579    375.10475   -86.188226    36341.856 
  395000    304.70408   -1468.1799    506.22613    415.88416    70.965144    36341.856 
  395100    310.35875   -1495.7976     515.7484    423.35855   -292.42227    36341.856 
  395200    309.16744   -1461.8868     498.8182    434.95217   -8.1995186    36341.856 
  395300    291.03003   -1476.8348    510.30659     349.4773    5.9172722    36341.856 
  395400    292.66044   -1505.8886    489.98696    307.47636    251.70636    36341.856 
  395500    295.52141   -1502.0772     518.9915     353.2293   -106.92676    36341.856 
  395600    296.54236   -1469.5884    509.49201    380.83519   -30.082492    36341.856 
  395700    291.22691   -1466.6745    503.85368    354.07491   -157.99497    36341.856 
  395800    300.76965   -1477.2374     508.8268    391.63637     239.1162    36341.856 
  395900    301.70078   -1508.0335    505.30263    361.52654    3.5153311    36341.856 
  396000    296.50564   -1518.9967    496.21403    317.98282    291.16691    36341.856 
  396100    307.19103   -1525.3646    530.04261    393.76166   -289.02057    36341.856 
  396200    291.22368   -1509.5726    501.88777    309.19628    20.279681    36341.856 
  396300    306.15928   -1535.3721     485.3659    334.41206     364.6189    36341.856 
  396400    295.77886   -1517.8922    480.04954    299.63647    334.77224    36341.856 
  396500    301.27467    -1574.785    476.96551    264.51106    55.638683    36341.856 
  396600    297.76628   -1534.2851    504.16939    316.35024   -30.641906    36341.856 
  396700    300.60214   -1557.8329    500.19769    301.65422     47.90142    36341.856 
  396800    290.58299   -1529.2186    512.76615    297.53149    58.079643    36341.856 
  396900    304.62312   -1513.7465    509.80501    373.53045    376.63428    36341.856 
  397000    298.93439   -1573.1625     503.5043    282.08985    40.433769    36341.856 
  397100    302.75292   -1542.3719    507.04071    333.68388    269.99882    36341.856 
  397200    301.16847    -1506.388    494.85524    350.31762   -904.01054    36341.856 
  397300    290.77301   -1520.6841    488.08476    282.24386   -446.22691    36341.856 
  397400    295.92609   -1482.7237    535.04113     390.4623    191.72659    36341.856 
  397500    298.34005   -1481.5528    521.64088    389.14857   -17.171734    36341.856 
  397600    300.05002   -1480.4952     488.5056    364.80323   -291.87118    36341.856 
  397700    308.26899   -1471.8523    488.27062    410.37646   -234.20636    36341.856 
  397800    295.73087   -1436.2854    496.39461    397.37137   -475.93086    36341.856 
  397900    308.40429   -1449.1789    499.30997    444.70095   -182.30727    36341.856 
  398000    290.26605    -1499.422     540.9494    354.07827   -19.722583    36341.856 
  398100    299.93744   -1480.0788    520.68542    396.89035    405.56894    36341.856 
  398200    295.75089   -1474.7188    534.03504    396.66887    913.17229    36341.856 
  398300    301.85281    -1457.505    511.18468    418.62452     253.2586    36341.856 
  398400     314.5534   -1453.6448    513.64506    482.37573   -87.437079    36341.856 
  398500    307.75331   -1474.8157    516.86672    433.67729   -63.424914    36341.856 
  398600    301.44061   -1468.2424    512.20328    407.04176      278.556    36341.856 
  398700    294.60112   -1472.6913    513.96553    373.42777    267.00685    36341.856 
  398800    301.53674   -1430.1294    515.93216    449.31834    1041.4934    36341.856 
  398900    296.79098   -1441.2018    503.87257    404.72658    1219.7399    36341.856 
  399000    300.81602   -1492.2832    505.34711    373.32054    1298.0127    36341.856 
  399100    302.63559   -1467.1294    533.60333    434.95837    1243.7722    36341.856 
  399200    302.22771   -1491.5148    491.69503     366.8203    530.98298    36341.856 
  399300    301.64969   -1478.8956    490.94507    376.07578     140.5999    36341.856 
  399400    289.96571   -1487.8047    496.65585     320.0439   -8.1626611    36341.856 
  399500    308.90396   -1519.0039     490.4048    368.23025   -325.96971    36341.856 
  399600    303.71577   -1526.6848    488.63579    335.31989   -214.81384    36341.856 
  399700    296.33098   -1499.9832    495.87382    335.86636   -310.33874    36341.856 
  399800    309.74475   -1510.5545    485.87085    375.94771    200.02616    36341.856 
  399900    295.14953   -1468.2319    519.75073    386.15214     525.1091    36341.856 
  400000    305.77862   -1481.0532    504.47808    406.12183     344.3059    36341.856 
  400100    308.19545   -1464.8809    486.77639    415.52107    21.912965    36341.856 
  400200    293.70653   -1452.7854    496.55751    371.88041   -690.25316    36341.856 
  400300    298.49295   -1471.9326    483.83727    361.65667   -28.080487    36341.856 
  400400    320.74829   -1469.6764    477.90814    458.61985    9.2080126    36341.856 
  400500    302.61738     -1463.74    503.30082    407.96293   -50.254543    36341.856 
  400600    302.85257   -1450.5721    492.53205    411.42559    310.63965    36341.856 
  400700    289.68765   -1458.7392    509.90242    361.09856   -327.40343    36341.856 
  400800    294.78393   -1461.1707    495.26288    367.07234   -623.41359    36341.856 
  400900    309.15625   -1481.3627    513.37717    429.98464    213.28233    36341.856 
  401000    287.81202   -1465.2739    523.96199    360.14203    848.43871    36341.856 
  401100    309.50139   -1461.1103    481.94481    420.36544    374.30937    36341.856 
  401200    296.96562   -1495.9082    497.02255    343.95982   -142.21383    36341.856 
  401300    297.33886   -1505.0075    488.92586    328.45164   -281.67256    36341.856 
  401400    304.49634   -1489.5124    526.31964    413.70588   -413.17573    36341.856 
  401500    306.66565   -1495.4186    476.63484    367.92427   -79.209587    36341.856 
  401600    285.58904   -1526.8794    477.53255    242.05506   -74.833751    36341.856 
  401700    297.47988   -1480.4085    511.83404    376.59652    596.03711    36341.856 
  401800    287.76649   -1491.4858     510.1313     319.8936    912.36451    36341.856 
  401900    300.61537   -1508.0747    484.28964     335.5642     645.4048    36341.856 
  402000    300.29977    -1529.939    509.10485    337.08804    1003.4641    36341.856 
  402100    299.77062   -1492.5973    485.75858    348.69074   -89.718019    36341.856 
  402200    303.73319   -1480.0561    508.14239    401.53397   -756.72489    36341.856 
  402300    305.33116   -1511.4354    504.36929    373.60746   -1483.3614    36341.856 
  402400    295.03218   -1488.4565    492.07816    337.72438   -911.41704    36341.856 
  402500    297.32825   -1468.6677    489.26995    365.08756   -199.69656    36341.856 
  402600    293.07773   -1495.7104    496.41232    325.96682   -216.66126    36341.856 
  402700    304.48778   -1474.0652     519.6732    422.46791   -349.69955    36341.856 
  402800    304.67025   -1515.1501    494.47643    357.01136    149.87078    36341.856 
  402900    300.71597   -1512.1672    497.69879    345.33576    131.19981    36341.856 
  403000    296.64864   -1536.5768    497.96694    302.80228   -256.89639    36341.856 
  403100    295.46945   -1511.7994    509.55508    333.83572    358.70371    36341.856 
  403200    299.90979    -1538.215    522.79487    340.73859    240.17171    36341.856 
  403300    296.50899   -1540.8851     467.4312    267.32677    260.53685    36341.856 
  403400    294.89186   -1524.1683    504.15588    313.45579   -319.29523    36341.856 
  403500    299.49752   -1517.0052      511.301     348.5903    135.11004    36341.856 
  403600     299.3824   -1520.9361     504.4988    337.33667   -92.162429    36341.856 
  403700    293.17526   -1498.4994    479.89347    307.10007   -695.80407    36341.856 
  403800    294.89287   -1534.1462    495.33402    294.66063   -361.94635    36341.856 
  403900    292.98429   -1551.8199    489.12616    262.14869    143.53205    36341.856 
  404000    295.60183   -1518.0558    507.27449    325.89734    54.326917    36341.856 
  404100    302.68378   -1472.1309    542.53962     439.1111    105.86393    36341.856 
  404200     301.3868   -1510.6564    478.07163    330.25281     219.6212    36341.856 
  404300    300.16083   -1505.1946    503.09874    355.19804   -426.54519    36341.856 
  404400    298.92046   -1520.3577    498.49449    329.82188    62.957961    36341.856 
  404500    304.34955   -1532.4876    515.87591    359.62317    149.67654    36341.856 
  404600     312.1566   -1550.4813    506.63482     367.6909   -377.40302    36341.856 
  404700    298.39224   -1510.2383    490.53001    329.58827     150.5622    36341.856 
  404800    303.67947   -1507.7747    501.96798    367.39805   -358.19238    36341.856 
  404900    300.41599   -1504.3672    511.38067    365.46123    171.28544    36341.856 
  405000    300.47142   -1550.7566    505.81243    313.75418    -334.3435    36341.856 
  405100    297.26382   -1500.6284    506.25183    349.81737   -858.43865    36341.856 
  405200    298.48913   -1526.3603    491.24155    314.61593    -148.2238    36341.856 
  405300    306.60809   -1499.3362    526.06638    413.17785   -540.29417    36341.856 
  405400    294.86796   -1538.3575    482.63855    277.64122    181.58459    36341.856 
  405500    299.19549   -1520.7176    487.90067    320.11179   -81.388122    36341.856 
  405600    304.94394   -1504.7081    511.60617    385.82069   -5.4599715    36341.856 
  405700     294.7875   -1499.7063    489.41653    322.70658   -192.55402    36341.856 
  405800    300.85159   -1495.1688     506.4081    371.65671   -411.05525    36341.856 
  405900    302.45914   -1531.7183    495.29623    331.26458    -96.21951    36341.856 
  406000    307.45392   -1524.4176    500.30872    366.16354   -57.384548    36341.856 
  406100    298.31507   -1480.8833    492.73644    360.80073    8.5786341    36341.856 
  406200    305.60337   -1520.6973    516.93934    378.14647   -701.47916    36341.856 
  406300    297.35642    -1525.685    493.23402    312.16166    -677.2119    36341.856 
  406400    313.04499   -1519.1044     486.9706    383.42083    157.66862    36341.856 
  406500    299.82406   -1519.1062    508.00886    344.67372    469.38244    36341.856 
  406600    290.38591    -1522.309    490.13968    280.92352    466.62077    36341.856 
  406700    289.87491   -1531.4816    504.35632    283.65685   -66.471546    36341.856 
  406800    302.86299   -1513.8227    510.57672     366.2668    585.41065    36341.856 
  406900    303.94817   -1508.5313    506.21753    372.10601    354.34453    36341.856 
  407000    296.19108   -1505.2563    491.25406    325.34085    573.78067    36341.856 
  407100    306.98014   -1524.0266    526.03367    390.13719     103.4152    36341.856 
  407200    302.41026   -1502.1594    528.34644    393.65258    195.06424    36341.856 
  407300     296.6538    -1508.101    482.89314    316.22762   -11.341732    36341.856 
  407400     298.4431    -1486.467    503.25712    366.31661    239.76623    36341.856 
  407500    294.68013   -1491.4131    497.64725    338.74494    94.145136    36341.856 
  407600    300.51486   -1469.1793    540.42988    430.14534   -240.27367    36341.856 
  407700    294.32922   -1472.8018    502.99656    361.11885   -91.682727    36341.856 
  407800    304.30935   -1486.9215    477.98168    367.11322   -8.0023219    36341.856 
  407900    304.49417   -1522.2365    507.53403    362.18631     7.777104    36341.856 
  408000    317.61629   -1488.3176     468.1539    416.06188    175.99296    36341.856 
  408100    309.75786   -1506.6619    520.00255    414.03128    361.98936    36341.856 
  408200    299.07969   -1450.5029    512.22729    414.12947    209.30912    36341.856 
  408300    300.85266   -1478.0585    517.70931    400.07314   -112.78529    36341.856 
  408400    299.83356   -1494.9255    523.25039    384.13898    436.86874    36341.856 
  408500     293.2946   -1443.8046    501.96789    384.40887    59.817384    36341.856 
  408600    300.23694   -1489.6221    512.87857    380.89452     93.84967    36341.856 
  408700    301.90954   -1469.2429    509.42823    405.38676   -76.329762    36341.856 
  408800     294.0403   -1472.3362    507.64079    364.92213   -588.82251    36341.856 
  408900    310.90146    -1481.657    522.18387    446.38868   -185.98388    36341.856 
  409000    302.70233   -1505.1638    479.27367    342.89615   -254.91066    36341.856 
  409100    297.79487   -1517.2637    501.30283    330.63442    46.213077    36341.856 
  409200    312.13237   -1509.3526    512.19743    414.27273    555.73892    36341.856 
  409300    295.03491    -1514.257    507.20217    327.06027   -140.68557    36341.856 
  409400    285.38209   -1512.2569    529.71897    307.92814    -575.0275    36341.856 
  409500    296.82198   -1452.7532    476.84811    366.29087   -143.64958    36341.856 
  409600    303.58264   -1487.5304    538.70572    423.94231    755.96396    36341.856 
  409700    299.87764   -1503.2013    497.90516    350.71719    812.58385    36341.856 
  409800    298.15688   -1479.9811    506.14535    374.39654    379.15189    36341.856 
  409900    308.63865   -1528.6559    510.69533     377.6691     991.4452    36341.856 
  410000    301.71012   -1562.0464    487.08368    289.33688    1100.3515    36341.856 
  410100    301.56866   -1516.8641    505.24074    352.03654    996.15648    36341.856 
  410200    298.67298    -1494.432    528.09778    384.23174    65.294753    36341.856 
  410300    304.26037   -1520.1673    495.48176    351.14601   -221.39254    36341.856 
  410400    310.46576   -1507.4711    483.74196    380.16255   -203.03467    36341.856 
  410500    297.96131   -1501.1293    530.62602    376.84469   -13.156282    36341.856 
  410600    300.05966   -1520.6161    502.51529    338.73562   -38.099427    36341.856 
  410700    303.37332   -1515.6453    496.39716    352.57229   -447.54067    36341.856 
  410800    296.06079   -1502.8325    497.55968    333.48119   -452.46783    36341.856 
  410900    297.38384   -1522.6613    477.34275    299.41806    -466.3486    36341.856 
  411000    295.89653   -1512.7291    500.60312    325.88523   -470.17224    36341.856 
  411100    304.47731   -1504.9216     485.6189    357.50988   -100.49112    36341.856 
  411200    293.37882   -1494.0172    495.53915    328.14837    2.6145081    36341.856 
  411300    309.02105     -1505.12    516.19027    408.42906   -302.16753    36341.856 
  411400     294.5837   -1470.9865     508.7407    369.82895   -208.74713    36341.856 
  411500    303.49516   -1489.1462    482.25344     365.4786   -230.79514    36341.856 
  411600    293.11637   -1487.5684    494.05143    331.92265   -738.79361    36341.856 
  411700    297.72046   -1493.6064    510.70555    363.35795   -578.73396    36341.856 
  411800    301.23757   -1496.3108    494.61435    360.46631     -609.181    36341.856 
  411900    292.41455   -1512.6557    486.09768    295.70806   -479.50654    36341.856 
  412000    296.26354   -1487.1389    518.17245    370.70439   -142.64443    36341.856 
  412100    294.78127   -1483.5032    505.10868    354.57362    163.65748    36341.856 
  412200    299.30783   -1477.7023    488.79749    364.53195     365.3719    36341.856 
  412300    295.98355   -1466.8843    490.00952    361.52991    141.74924    36341.856 
  412400     288.7253   -1471.5727    492.44452    326.45548    73.605573    36341.856 
  412500    299.44073   -1510.3672    527.92827    371.59874    386.71858    36341.856 
  412600    289.81395   -1461.6754    483.77945    332.61057     151.4851    36341.856 
  412700     300.7556   -1472.2518    494.84948    382.58104    107.25797    36341.856 
  412800    302.04283   -1471.3259    512.57063    407.04884   -240.79882    36341.856 
  412900    295.45912     -1477.66     461.9955    320.36881   -359.16554    36341.856 
  413000    301.52619   -1460.3426    487.26779    390.39312    218.12023    36341.856 
  413100    304.79954   -1457.2814    521.42723    442.41549    -267.0508    36341.856 
  413200    296.37222   -1446.6848    493.58832    387.06571    34.998704    36341.856 
  413300    295.98919   -1445.9296    491.69353    384.19419     442.5491    36341.856 
  413400    294.11365   -1459.0804    497.69814      368.567    136.71424    36341.856 
  413500    300.44546    -1455.302    507.23661    410.51562    83.039256    36341.856 
  413600    296.35254   -1484.3634     492.8205    348.53036    -416.4591    36341.856 
  413700    306.82161   -1487.0846     509.0791    409.40773    -703.3897    36341.856 
  413800    302.70558   -1468.5345    497.61356     397.8801   -569.16449    36341.856 
  413900    307.22525   -1432.3215    506.09751    463.01447   -418.86411    36341.856 
  414000    305.21214   -1477.8712    497.04457    399.30873    203.76052    36341.856 
  414100    298.32839   -1422.0779    523.87747    450.80742    333.04859    36341.856 
  414200    293.66819   -1443.2205    527.96482    412.67922    64.521529    36341.856 
  414300    293.75708   -1474.8886    489.32337    342.77164    124.93044    36341.856 
  414400    294.06487   -1487.0324    503.50509    346.20136   -123.33602    36341.856 
  414500    294.71488   -1438.0372    493.10742    387.73815   -364.98749    36341.856 
  414600    292.52229   -1431.8394    517.58907    408.50294    525.99699    36341.856 
  414700    309.85134   -1450.2929    505.56828    456.38868    356.72974    36341.856 
  414800    296.04184   -1473.3311    528.24943    393.58666    662.95787    36341.856 
  414900    294.26896   -1481.5348    513.73962    362.85636    314.29482    36341.856 
  415000    297.20306    -1478.893     512.6249    377.65111    558.62643    36341.856 
  415100    311.89162   -1451.0537    485.82025    445.10582    108.57484    36341.856 
  415200    302.81311    -1409.689     535.0234    494.62159    179.78253    36341.856 
  415300    296.44562   -1480.6608     503.3478    363.18111    101.65492    36341.856 
  415400    300.80383   -1455.8927    520.05429    424.36307   -174.70306    36341.856 
  415500    306.20157   -1443.1969    505.27081    446.68334    76.371756    36341.856 
  415600     287.2682   -1471.0756    488.21678    316.13603    -246.7952    36341.856 
  415700    292.45325   -1500.1202    494.76846    317.08931   -202.68543    36341.856 
  415800    309.55889    -1518.833    515.56611    396.52404    -719.2808    36341.856 
  415900    302.35463   -1482.8646    496.65709    381.00648   -200.59673    36341.856 
  416000    312.79179   -1505.8866    494.66414    403.18723   -326.47694    36341.856 
  416100    294.77231   -1497.6824    519.21101    354.45625   -94.014884    36341.856 
  416200    294.45855   -1468.6305    480.63316    343.51151   -543.22017    36341.856 
  416300    294.36244   -1498.9382    493.79615    325.93215   -626.21084    36341.856 
  416400    301.33205   -1507.5743     516.2355    371.25121    -771.6953    36341.856 
  416500    290.72051   -1521.3542    514.32578    307.57745   -496.30949    36341.856 
  416600    304.99694   -1535.6136     498.8654    342.41409   -486.45281    36341.856 
  416700    305.01361   -1549.7903    498.61756    328.06492   -295.68575    36341.856 
  416800    297.31926   -1549.6551    501.16241    295.95192   -122.94932    36341.856 
  416900    299.95165   -1539.0456    496.56066    313.86308    382.33622    36341.856 
  417000    306.74759   -1526.0309    497.06055    358.10818     9.098327    36341.856 
  417100    286.86356   -1538.3275    492.77757    251.61522    125.74135    36341.856 
  417200    303.89365   -1488.8216      505.825    391.17668   -59.759275    36341.856 
  417300    306.97829   -1542.3389    516.95958    362.74236   -2.7083782    36341.856 
  417400    295.70957   -1501.0184    500.29239    336.43981   -533.30173    36341.856 
  417500    290.41761   -1480.0013    501.18126    334.41611   -27.047759    36341.856 
  417600    306.93646   -1489.7799     514.0407     412.1933    48.510913    36341.856 
  417700    297.08122   -1556.9712    507.02057    293.41764   -402.49864    36341.856 
  417800    297.40106    -1501.014    518.69442    362.49493    422.47191    36341.856 
  417900    299.70349   -1493.7477    543.69112    405.16931    482.63484    36341.856 
  418000    294.98394   -1526.3058    502.70081    310.27956    830.57094    36341.856 
  418100    294.36837   -1520.4749    509.36081    319.98698    191.19415    36341.856 
  418200    309.35023    -1512.312    509.75313    396.28845   -80.127414    36341.856 
  418300     285.3159   -1485.7244    506.21966    310.66203   -50.837753    36341.856 
  418400    298.65647   -1446.2909    538.77707    442.97753   -190.50774    36341.856 
  418500    305.80809    -1472.066    472.49136     383.2555    189.98926    36341.856 
  418600    304.07025   -1498.4052    499.52155    376.08819   -198.43365    36341.856 
  418700    306.68386   -1483.0458    525.33838    429.08294    144.79865    36341.856 
  418800    302.02057   -1491.5329    493.72165    367.89214   -264.17968    36341.856 
  418900    307.34806   -1533.0506    494.02368    350.76687   -636.11445    36341.856 
  419000    300.53597   -1506.6261    523.44987    375.81406   -181.95531    36341.856 
  419100    295.69543   -1505.1227    500.79535    332.77452   -404.51909    36341.856 
  419200    296.53149   -1498.4172    505.12132    347.58659    75.974039    36341.856 
  419300    300.85651   -1522.3676    507.75442    345.82654    119.78772    36341.856 
  419400    303.31431   -1500.9384    501.61112    372.22634   -481.28123    36341.856 
  419500    301.23507   -1487.2997    527.84984    402.70168    46.858786    36341.856 
  419600    297.32486   -1481.5338    497.93658    360.87279   -391.22828    36341.856 
  419700    295.66836   -1545.2468     486.0809     277.8136    326.74796    36341.856 
  419800    309.42981   -1507.0708     514.0462    406.18257    342.21113    36341.856 
  419900    294.51076   -1527.5887    477.61922     281.7755     234.7857    36341.856 
  420000    305.24008   -1499.6159    500.29055    380.93637    90.537644    36341.856 
  420100    292.66088   -1466.8987    507.36284    363.84416   -177.54708    36341.856 
  420200    302.44504   -1495.7633    520.80201    392.66154    24.232438    36341.856 
  420300    312.69529   -1517.6121    518.66673    415.02794    591.88453    36341.856 
  420400    292.88066   -1522.6206     512.2531    314.00629    500.95129    36341.856 
  420500    299.59676   -1518.8675    478.32651    314.20222    22.533479    36341.856 
  420600    292.35208   -1511.1697    514.17012    324.98406    479.91453    36341.856 
  420700    302.82204   -1463.5758    500.08464    405.83649    305.21125    36341.856 
  420800    296.59532   -1483.3779    490.01669    347.80985  -0.65553601    36341.856 
  420900    291.12318   -1496.7789     493.5447    313.19245    145.74465    36341.856 
  421000    298.93273   -1459.0085    488.37012    381.10217    593.69743    36341.856 
  421100    305.04844   -1486.6544    503.32547    396.06624   -44.931478    36341.856 
  421200    307.30403   -1479.1133    503.56457    414.04591   -149.92275    36341.856 
  421300    303.57035   -1489.6339    484.62396    367.70141   -172.09436    36341.856 
  421400    300.36088   -1473.7271    478.24439    362.71577     -143.416    36341.856 
  421500     297.5948   -1475.4745    497.35613    367.57224    120.90698    36341.856 
  421600    306.37939   -1426.6645    500.09271    458.84176    292.31162    36341.856 
  421700    303.40862   -1450.6159     523.6325    444.99668   -219.27562    36341.856 
  421800    303.69924   -1498.7467    481.38251    355.92998   -39.010583    36341.856 
  421900    281.23585   -1532.0835    513.65621    253.28992   -96.093636    36341.856 
  422000     303.6188   -1516.7958    508.24151    364.37619   -874.34971    36341.856 
  422100    301.15305   -1517.0969    485.18892    329.87261    -801.8162    36341.856 
  422200    302.51997   -1460.2313    504.44899    412.17931   -500.54134    36341.856 
  422300    296.12018   -1472.8171    519.45471    385.66019   -774.57868    36341.856 
  422400    293.95257    -1489.102    507.70671    347.82557   -509.24041    36341.856 
  422500    299.25257   -1485.6896    511.25213    378.74938    239.70321    36341.856 
  422600    293.20098   -1494.8986    532.25484     363.1785    160.37254    36341.856 
  422700    298.47074   -1511.4118    490.18859    328.42828    622.13087    36341.856 
  422800    306.20979   -1492.8188    505.78264    397.61046    673.08699    36341.856 
  422900    294.40342   -1509.6104    503.47143    325.12052    206.23997    36341.856 
  423000    304.45297   -1521.2338    479.86192    335.33063   -32.578094    36341.856 
  423100    295.82844   -1495.4268    505.31877    347.59526    351.55873    36341.856 
  423200    301.33157   -1518.1356    498.28078    342.73303    289.67625    36341.856 
  423300    300.69465   -1531.1725    504.59923    333.13454    409.71443    36341.856 
  423400    298.48836   -1513.1256    472.74914    309.35473   -54.691796    36341.856 
  423500    308.65575   -1516.8461    502.66506    381.52591    55.056498    36341.856 
  423600    297.07009   -1531.9202    470.73066    282.12839    256.65057    36341.856 
  423700    295.79741   -1499.3911    517.35689    355.52878    422.81403    36341.856 
  423800    303.65484   -1526.4593    501.23089    347.86501    531.01526    36341.856 
  423900    305.25292   -1536.8785    516.35422    359.79549    724.69771    36341.856 
  424000    295.20106    -1508.956    495.01528    320.92567    186.97294    36341.856 
  424100    306.18437   -1541.6042    484.04562     326.9731   -372.88393    36341.856 
  424200    299.86774   -1542.7105    482.90142    296.15946    -288.7324    36341.856 
  424300    305.40532   -1530.1815    508.90964    359.73707   -24.512533    36341.856 
  424400     300.6783   -1530.9036    509.63226    338.36248   -278.82393    36341.856 
  424500    312.62775   -1533.2214    508.77259    389.21909     72.65939    36341.856 
  424600    306.33773   -1501.6199    505.99931    389.60455     203.6351    36341.856 
  424700    297.64551   -1513.0819    466.71532    299.55334   -530.17301    36341.856 
  424800    301.83435   -1525.1247    514.42471    354.16135   -363.76722    36341.856 
  424900     298.1397   -1489.6632    481.10724    339.59867   -297.04704    36341.856 
  425000    307.37609   -1546.6813    516.65023    359.88942    109.04285    36341.856 
  425100     291.0842   -1547.3179    466.18401    235.11653    606.20597    36341.856 
  425200    305.80875   -1553.3254    515.74372    345.25146    216.00097    36341.856 
  425300    288.91428   -1512.8506    480.02483    273.61252    260.91794    36341.856 
  425400    298.68735   -1524.6502     499.0591    325.03991    219.44889    36341.856 
  425500    300.30686   -1500.4442     502.2937    359.80372     148.5497    36341.856 
  425600    301.73791   -1525.8599    496.12908    334.69444    345.71116    36341.856 
  425700    296.19024   -1484.5346    507.72744    362.53217    31.145809    36341.856 
  425800    292.72285   -1467.7074    507.95285    363.90568   -427.90529    36341.856 
  425900    299.46754   -1483.3215    489.74666    360.58413    48.538949    36341.856 
  426000    303.89689   -1491.7082    497.36241     379.8421   -714.32002    36341.856 
  426100    297.39535   -1515.1772    500.95499    330.56653    -649.1889    36341.856 
  426200    288.18878   -1502.4363    494.72648    295.44785   -472.44682    36341.856 
  426300    305.71387   -1482.4992    501.75687    401.66183   -167.14266    36341.856 
  426400    310.34617   -1470.5756    509.72859    442.50391     47.92944    36341.856 
  426500    295.23294   -1522.8597     471.1301    283.28098   -230.92541    36341.856 
  426600    302.37695   -1495.8389    503.47473    374.95079   -658.18546    36341.856 
  426700    304.58111   -1494.8244    495.51268    377.97022    -101.3137    36341.856 
  426800    291.95298   -1474.8616    493.96686    339.28418   -533.66587    36341.856 
  426900     303.8391   -1455.4524    496.55175    415.02595   -629.59747    36341.856 
  427000    295.45066   -1478.5922     486.5778    343.98068    -469.3567    36341.856 
  427100    294.94892   -1477.8818    496.71716    352.56155   -1037.2173    36341.856 
  427200    306.83013   -1475.6513    489.02282    400.82329   -773.35764    36341.856 
  427300    303.81573   -1471.9098    483.97341    385.88458   -882.67037    36341.856 
  427400    296.06316    -1469.449    490.40894     359.7246   -1131.8773    36341.856 
  427500    305.80632   -1488.6682    484.62498    378.77894    -602.6585    36341.856 
  427600    294.65783   -1495.4037    496.42295    333.42926   -404.12928    36341.856 
  427700    305.28623   -1483.3707    512.48332    409.58299   -246.09602    36341.856 
  427800     292.8425   -1478.8934     522.2987    367.60653    32.059416    36341.856 
  427900    299.79981   -1434.5716    522.66743    443.75723    54.569684    36341.856 
  428000    292.81036   -1462.5345    499.72047    361.24187    258.06541    36341.856 
  428100    298.11361    -1527.395    488.30243    308.94402   -102.08542    36341.856 
  428200    296.32323   -1528.7991    490.84067    301.98226   -229.77986    36341.856 
  428300    301.52809   -1514.1746     513.7723    363.07417    244.31237    36341.856 
  428400    296.29884   -1500.8954    478.57619    317.51121    160.69152    36341.856 
  428500    302.52214   -1496.0068    502.79623    374.76095    848.37157    36341.856 
  428600    316.27882   -1533.2773    532.03085    428.93122    545.42772    36341.856 
  428700    297.95212   -1504.7725    476.48971    319.02363    588.56531    36341.856 
  428800    303.72534   -1532.3247    491.51859    332.60608   -124.72747    36341.856 
  428900     303.5426    -1514.423    491.14812    349.31097    264.59521    36341.856 
  429000     296.2166   -1487.9966    492.00446    343.46637   -65.012903    36341.856 
  429100    295.48911   -1501.8442    501.87496    336.19969   -107.89288    36341.856 
  429200    297.53287   -1462.4463    524.34355    407.30782   -612.42681    36341.856 
  429300    301.44422   -1448.4888    523.58982    438.19828   -524.62829    36341.856 
  429400    297.11165   -1477.1529    507.32118    373.67418   -582.28518    36341.856 
  429500    299.61637   -1488.0965    511.73916    378.47457    55.413982    36341.856 
  429600    295.12344   -1491.0917    489.56289    332.98652   -82.668838    36341.856 
  429700    308.72365   -1479.9399    524.98157    441.05565    678.38594    36341.856 
  429800     297.5127   -1506.6848    517.37901    356.01356    469.36725    36341.856 
  429900    289.52643   -1531.2542    502.45505    280.40717    105.80732    36341.856 
  430000    289.50177   -1525.2327     489.4105    273.27259   -257.99506    36341.856 
  430100    295.32613   -1506.5848    473.37233    302.21943   -762.19788    36341.856 
  430200    310.09277   -1510.6462    539.62068     431.1795   -205.87628    36341.856 
  430300    313.56962   -1505.8254    496.83797    408.93955   -218.26243    36341.856 
  430400    301.02882   -1456.4011    519.81764    424.63546    431.06733    36341.856 
  430500    298.54306    -1508.123    504.61879    346.47429    583.43359    36341.856 
  430600    302.18699   -1531.0288    510.64688    346.07409    1771.4799    36341.856 
  430700     290.4171   -1553.1719     530.9401    291.00206    1037.5646    36341.856 
  430800     310.7498   -1473.5462    517.27457    448.90439    1313.4092    36341.856 
  430900    303.10814    -1526.489    516.03396    360.16628    1119.7369    36341.856 
  431000    308.87832   -1526.4365    495.48577    365.76273     1182.026    36341.856 
  431100    291.55637   -1487.7488    502.75761    333.39434    161.73243    36341.856 
  431200    293.31572   -1497.1757    487.85416    317.01955    49.782852    36341.856 
  431300    300.49984   -1543.5132    494.09876    309.41245    656.28732    36341.856 
  431400     306.7289   -1524.2953    509.96065    372.65935    204.72934    36341.856 
  431500    304.14405   -1520.4862     496.7592    351.57859    134.16162    36341.856 
  431600    300.95709   -1529.2983    507.58198    339.17821   -223.68928    36341.856 
  431700    298.86542   -1516.2311    492.37489    327.57999   -724.98631    36341.856 
  431800    293.73846   -1481.9388    494.31536    340.62923   -68.233926    36341.856 
  431900    290.70339    -1516.139    489.73824    288.12764   -203.09036    36341.856 
  432000    304.03076   -1505.7341    473.97346    343.03266    72.309655    36341.856 
  432100    307.53342   -1526.9783    492.05716    355.71082    331.23669    36341.856 
  432200    305.86045    -1523.117    479.07445    339.02446    -244.6353    36341.856 
  432300    306.70501   -1511.0357    513.23011    389.08036    247.78417    36341.856 
  432400    297.00388   -1464.6335    500.81733    379.20232   -235.63314    36341.856 
  432500    295.24044   -1480.8865    514.96022    369.11814   -580.35159    36341.856 
  432600    287.82511   -1529.3667    518.69618    290.84264   -723.94101    36341.856 
  432700    301.85749    -1527.595    514.53374    351.90473   -883.68101    36341.856 
  432800    296.20145   -1532.5091    495.18565    302.06655   -299.65926    36341.856 
  432900    296.44551   -1504.7895     475.7255    311.42961   -920.49705    36341.856 
  433000    301.67915   -1501.1515    485.47616    348.48421   -862.54504    36341.856 
  433100    311.03808   -1518.5616    492.18956    380.10763    139.13855    36341.856 
  433200    299.05728    -1541.597     475.3129    286.01964    140.41415    36341.856 
  433300    292.83163   -1492.9956    518.49614    349.65261    362.74938    36341.856 
  433400    306.69875   -1535.0817    481.97329     333.7492   -192.73839    36341.856 
  433500    298.20377   -1515.5803    502.80573    335.66974   -170.89327    36341.856 
  433600     294.7423   -1549.2816    502.76201    286.27227   -399.41801    36341.856 
  433700    302.26201   -1511.3666    488.40808    343.83663     -316.821    36341.856 
  433800    293.74499   -1490.3433    513.52618    351.46506   -737.77065    36341.856 
  433900    304.12906   -1466.6753    506.51832    415.08084   -31.364833    36341.856 
  434000    299.83636   -1479.3258    503.21287    379.71375   -640.46357    36341.856 
  434100    291.49648   -1461.2084     501.1536    358.05988    -403.4178    36341.856 
  434200    299.20748   -1482.8142     495.4576    365.62641    243.15436    36341.856 
  434300    302.31224   -1493.7575    506.71166    379.97648   -306.98897    36341.856 
  434400    294.79788   -1466.8576    516.92732    383.11295   -34.607702    36341.856 
  434500    297.64462   -1466.5097     530.9672    410.37342    39.166049    36341.856 
  434600    306.77138   -1483.1671    493.03272    397.05171    -60.77959    36341.856 
  434700    294.64993   -1460.1352    494.13476    366.37374   -30.809674    36341.856 
  434800    305.69222   -1440.1252    530.56636    472.74737   -322.06519    36341.856 
  434900    298.63087   -1461.5107    476.67457    365.53944   -339.91899    36341.856 
  435000    305.42935   -1547.9575    511.83568    344.99572   -110.41913    36341.856 
  435100    306.72583   -1506.2778     496.0657      376.768   -375.88921    36341.856 
  435200    304.82514   -1451.9681    519.54958    445.96688   -739.85632    36341.856 
  435300    289.30258   -1506.3262    496.72973    298.59766   -20.343597    36341.856 
  435400    306.43506   -1486.4201    520.29391    419.53914    674.77464    36341.856 
  435500    294.08189   -1507.6239    498.88297    321.06465     190.4299    36341.856 
  435600    302.89761     -1506.51    504.59307    367.75238    312.35862    36341.856 
  435700    294.50594   -1538.0792    484.84636    278.49025   -125.36409    36341.856 
  435800    297.47414   -1530.4541    509.54626     324.2371    113.30886    36341.856 
  435900    297.20595   -1491.6217     518.0804      370.391    1116.6326    36341.856 
  436000    300.05573   -1528.7928    527.08203    355.10783    567.29449    36341.856 
  436100    292.72005   -1557.3031     520.9704    287.31481    124.91292    36341.856 
  436200    305.64875   -1528.2938    494.25363     348.0695   -206.20538    36341.856 
  436300    300.16584   -1510.6715    515.43157    362.07665   -526.84509    36341.856 
  436400    285.17342   -1483.2014    517.34723     323.6683   -430.82989    36341.856 
  436500    297.48227   -1492.3679    489.97932    342.79313   -462.41028    36341.856 
  436600    302.35008   -1508.3866     537.4175    396.22437   -766.81819    36341.856 
  436700    297.46583    -1490.324    484.57712     339.3606   -920.75746    36341.856 
  436800    287.77995   -1474.9767    514.40657    340.73884   -934.47613    36341.856 
  436900    309.43916   -1532.0871    539.86459    407.02703   -693.77459    36341.856 
  437000    300.32013   -1544.1479    502.16332     316.0297   -732.45726    36341.856 
  437100    303.86748   -1532.9797    494.53742    335.61271   -730.20383    36341.856 
  437200    295.28282   -1527.1989    504.67933    312.71657   -453.60186    36341.856 
  437300    304.06019   -1480.3208    515.66868    410.27424   -585.80632    36341.856 
  437400    298.93805   -1491.7502    497.93558    357.94998   -1382.6166    36341.856 
  437500     303.7319   -1484.4421    497.70998    386.70978   -786.38533    36341.856 
  437600    301.37716   -1451.4596    511.02465    422.35908   -694.83542    36341.856 
  437700    295.05449   -1499.0788    513.71192    348.83675   -520.97089    36341.856 
  437800    308.57966    -1492.688    520.01794    422.69284   -192.28116    36341.856 
  437900    311.78898   -1517.3745    490.57838    383.07901     -524.322    36341.856 
  438000    300.98413   -1536.5129    522.05852    346.56237   -240.94391    36341.856 
  438100    304.84898    -1495.069    493.04168    376.46586   -217.58553    36341.856 
  438200    296.56043   -1464.1628    504.24574    381.09623    221.74652    36341.856 
  438300    300.69803   -1506.5573    524.60458    377.77034   -826.53692    36341.856 
  438400    296.51947   -1532.0238     477.5743    286.37855   -418.57089    36341.856 
  438500    311.46938   -1454.3202    511.28035    465.39003   -133.74419    36341.856 
  438600    297.81018   -1531.6219    513.78536    328.82799    580.08027    36341.856 
  438700    305.03149   -1554.0345    525.37692    350.66095    374.75593    36341.856 
  438800    305.66192   -1521.3687     512.3987     373.1992     68.13736    36341.856 
  438900    314.74337   -1527.6028     479.8152    375.44691   -258.78167    36341.856 
  439000    292.51787   -1534.7709    525.70142    313.66381   -91.688689    36341.856 
  439100    295.18467   -1484.4549    505.98544    356.32276   -51.746971    36341.856 
  439200    297.85545   -1495.7118    526.63619    377.79362   -219.91708    36341.856 
  439300    289.97978   -1509.0146    503.92756    306.16924    467.93481    36341.856 
  439400    302.72151   -1505.8152    540.60641    403.66425    784.81182    36341.856 
  439500    303.24002   -1521.2898    506.09319    356.02105    240.59682    36341.856 
  439600     300.2095   -1541.0954    497.45389     313.8725    -209.7974    36341.856 
  439700    296.47311   -1531.8455     525.3837    334.15668   -17.993499    36341.856 
  439800    301.58673   -1511.4189    506.35666    358.67941    226.78671    36341.856 
  439900    303.48414   -1527.8301    514.32407    358.81556    107.96056    36341.856 
  440000    293.91547   -1520.9893    483.03632    291.10005   -152.94803    36341.856 
  440100    307.35184   -1529.9548    516.55989    376.41598    121.85184    36341.856 
  440200     293.8098   -1544.1752    494.44413    278.84416    183.71333    36341.856 
  440300     292.2812    -1533.914    525.65935    313.40847    349.50676    36341.856 
  440400    302.84837   -1514.9234    497.22573    351.74902    618.57834    36341.856 
  440500    302.37851   -1545.5596    494.01762    315.78006    241.77511    36341.856 
  440600    302.82373   -1491.7958      519.853    397.39242    408.68939    36341.856 
  440700    298.73502   -1502.7524    511.51204    359.60621    1028.9896    36341.856 
  440800    301.26626   -1521.1421    517.85582     359.0062    439.23221    36341.856 
  440900    308.16043   -1469.9191     523.9651    447.51323   -34.268195    36341.856 
  441000    292.50065   -1450.7063    527.38564    399.33479   -725.36064    36341.856 
  441100    310.31553   -1463.2864    524.76465     464.6906   -724.81501    36341.856 
  441200    293.94483   -1496.1709    485.18874    318.20367   -395.17588    36341.856 
  441300    302.93917   -1532.2603    505.53708    343.13407   -302.34402    36341.856 
  441400    298.85375   -1509.0508     503.2426    345.57529   -27.563427    36341.856 
  441500    300.76085   -1498.7588    511.85447     373.1028   -375.92189    36341.856 
  441600    299.59423   -1526.5429    522.70937    350.89829   -461.54213    36341.856 
  441700    295.50279   -1533.7896    500.49256     302.9337   -564.22604    36341.856 
  441800    300.96076   -1577.2389    499.29921     282.9714   -19.734049    36341.856 
  441900    302.13824   -1554.4798    485.40978    297.16551   -264.84042    36341.856 
  442000    302.58178   -1547.0142    519.58007    340.80709    155.46475    36341.856 
  442100    305.61751   -1531.8243    534.82174    384.96589    308.85921    36341.856 
  442200    293.49823   -1544.3101    529.54278    312.39907     115.4214    36341.856 
  442300    297.02162    -1491.089    512.42195    364.43166    426.71414    36341.856 
  442400    311.17408   -1547.6601    498.16142    357.59588     16.38887    36341.856 
  442500    301.57788   -1513.2163    515.36706    365.85246   -159.99451    36341.856 
  442600    298.47617   -1500.5307    487.63516    336.78054    35.947379    36341.856 
  442700    290.91423   -1487.9234    514.65165    342.21007   -99.771155    36341.856 
  442800    307.84547   -1509.8214    500.61101     382.8326   -53.357122    36341.856 
  442900    285.71671   -1517.3246    523.19228    297.84685    32.245422    36341.856 
  443000    301.18588   -1487.9688    497.70457    371.66485   -209.50469    36341.856 
  443100    296.54356   -1520.4112    510.04636    330.57221   -86.196469    36341.856 
  443200     294.5009   -1514.1547    478.28445    295.83006    374.32949    36341.856 
  443300    300.92441   -1462.1329    508.74038    407.35425    254.58698    36341.856 
  443400    298.41018   -1523.1571    498.86196    325.08252     288.1972    36341.856 
  443500    304.69488   -1567.1617    510.32958     320.9643    836.85774    36341.856 
  443600    294.20503   -1516.3942    508.60862    322.57689    638.39826    36341.856 
  443700    303.07945   -1515.7787    504.27229    358.98515    487.94486    36341.856 
  443800    295.82372   -1534.7158    494.77212    297.73828    150.41549    36341.856 
  443900    301.12646    -1486.631    524.39826    399.42761    312.37135    36341.856 
  444000    297.51602   -1507.5761    522.28046    360.03875    179.13247    36341.856 
  444100    307.27889   -1527.9098    507.91593    369.48711    73.249388    36341.856 
  444200    299.67767   -1497.7845    509.18009    366.50475    231.35994    36341.856 
  444300    304.33377    -1507.633    504.01967    372.55017   -261.07058    36341.856 
  444400    293.05002   -1510.7528    505.14509    319.53187   -159.13669    36341.856 
  444500    299.78595   -1532.3227    512.73241    336.00846   -118.10518    36341.856 
  444600     307.2705   -1511.0889    501.16495    379.51915   -488.97421    36341.856 
  444700    298.41449   -1491.8741    522.22179    379.74488   -103.29792    36341.856 
  444800    288.30908    -1518.505    512.08604    297.28269   -333.37986    36341.856 
  444900    302.36483   -1551.3281    477.81884    293.75089    -407.4999    36341.856 
  445000    307.19039   -1491.5961    517.11666    414.60142   -455.17688    36341.856 
  445100    301.77973   -1532.8109    480.26469     312.0682    68.957913    36341.856 
  445200    298.30573   -1484.5341    529.37632    393.74758   -111.01368    36341.856 
  445300    312.45809   -1515.6007     494.6846    391.98465     599.8639    36341.856 
  445400    305.90285   -1532.9522    482.15065    332.45716    354.39884    36341.856 
  445500    296.05721   -1495.5518    507.81865    351.00467    436.80387    36341.856 
  445600    298.82319   -1504.2135    527.30577    374.33751    1044.0269    36341.856 
  445700    302.25908   -1503.7973    517.07053    380.05524    69.404525    36341.856 
  445800    302.40245   -1461.2529    496.87209    403.04941   -429.31221    36341.856 
  445900    295.31429   -1437.4172    504.64769    402.60889    147.50792    36341.856 
  446000    301.47767   -1447.4643    524.94702    440.73119   -158.84104    36341.856 
  446100    299.81044   -1521.5545    490.16327    324.31827   -154.41358    36341.856 
  446200    308.58483   -1536.8627    510.16357    368.68722    128.51439    36341.856 
  446300    303.65058   -1552.6586    503.75005    324.16564    63.347047    36341.856 
  446400    309.67431   -1555.1289     515.7553    360.93924   -171.18056    36341.856 
  446500    292.32636   -1531.5143    507.64556    297.99862    355.48369    36341.856 
  446600    295.58874   -1496.0252    513.49757    354.09179   -129.98158    36341.856 
  446700    303.56822   -1508.7331    490.72334    354.69196   -12.238707    36341.856 
  446800    306.34794   -1537.7149    504.22808    351.78451    75.840078    36341.856 
  446900       306.78   -1526.4038    491.09982    351.92102    268.74326    36341.856 
  447000    303.63671   -1502.2379    481.56573    352.33926   -266.82111    36341.856 
  447100    296.17116   -1550.9377    518.38417    306.69949   -279.85769    36341.856 
  447200    299.93096   -1509.5636    509.67096    356.36179    346.32693    36341.856 
  447300    297.41819   -1485.0287    491.99104    351.85435   -661.03185    36341.856 
  447400    292.60234   -1501.8758    511.29797     332.5374   -737.26721    36341.856 
  447500    301.57948   -1511.1609    486.24757    338.79558   -713.38601    36341.856 
  447600    306.32187   -1539.0696    515.65349    361.73734   -276.38149    36341.856 
  447700     292.2652   -1525.7601    502.10409    297.93472   -106.84507    36341.856 
  447800    295.81455   -1476.7274    479.62343    340.53655    560.44901    36341.856 
  447900    302.13006   -1504.5518    495.01172     356.6585    36.745576    36341.856 
  448000    297.68931   -1524.1963    487.58271    309.50435    165.30105    36341.856 
  448100    291.47896   -1516.3498     496.2974    297.98311    -112.2625    36341.856 
  448200    294.41059   -1515.7168    509.05033    324.62552   -117.71694    36341.856 
  448300    309.45179   -1477.8658    507.51488    428.95565   -228.11331    36341.856 
  448400    304.70423   -1515.1635    496.61073    359.28593    352.78916    36341.856 
  448500    284.95796   -1521.0866    501.14727    268.60886    293.44771    36341.856 
  448600    309.20208   -1512.7567    497.91099    383.33175    167.13735    36341.856 
  448700      291.057   -1508.1556    504.13391    312.10571   -165.52889    36341.856 
  448800    291.92342   -1487.9438    488.28021    320.38162   -181.65881    36341.856 
  448900    307.87718   -1499.8961    512.92335    405.21365   -176.65131    36341.856 
  449000    304.30067   -1498.9676    492.53735    369.58353    325.52117    36341.856 
  449100     305.4582   -1531.8797     496.5899    345.95823    342.31911    36341.856 
  449200    304.94645   -1535.8412    506.84761    349.94035    539.52678    36341.856 
  449300    301.97709   -1557.5697    470.24628    278.18339    278.47119    36341.856 
  449400    309.20945   -1574.8485    489.74779    313.11003    279.44515    36341.856 
  449500    304.90954   -1565.1525    479.39974    293.01432    683.22529    36341.856 
  449600    302.69837    -1564.906    490.69721    294.55958    766.83126    36341.856 
  449700    305.21954   -1557.4786    509.52468    332.21488    197.92038    36341.856 
  449800     307.2491   -1521.6356    490.87789    358.58858    86.493639    36341.856 
  449900     308.8682   -1522.3164    490.33722    364.68852    304.66073    36341.856 
  450000    296.87684   -1538.9106    503.28257    306.81605   -8.5425095    36341.856 
  450100    301.72116    -1547.299    485.56149    302.61208    339.00749    36341.856 
  450200    298.32709   -1561.3056    487.26892    274.96526   -326.92289    36341.856 
  450300    303.61753   -1514.0969    513.61132    372.43917   -441.33141    36341.856 
  450400    298.42436   -1514.3625    490.46022     325.5395    -675.8729    36341.856 
  450500    302.39372    -1490.049    498.09311    375.43486   -889.82086    36341.856 
  450600    311.08654    -1485.741    496.22292    417.18072   -618.25405    36341.856 
  450700    301.71541   -1482.9339    490.24448    371.63411   -812.44928    36341.856 
  450800    289.53307    -1501.922    500.94059    308.25492   -697.88009    36341.856 
  450900    297.57744   -1504.5227    516.70707    357.79642   -616.65865    36341.856 
  451000    311.68313   -1524.9033    496.47718    380.97037   -827.32682    36341.856 
  451100    293.08129   -1543.1596    509.00768    291.12913   -645.84986    36341.856 
  451200    299.85017   -1520.2424    492.96907    328.61578   -818.98791    36341.856 
  451300    303.29061   -1514.2369    496.59982    353.80939   -273.59206    36341.856 
  451400    311.12624    -1512.981     511.0448    404.94212    105.77579    36341.856 
  451500    292.96032   -1500.5853    502.84423    326.99293   -402.93129    36341.856 
  451600    303.65789   -1501.4473    510.95063    382.61056   -81.942239    36341.856 
  451700    304.00905   -1492.3419    496.03759    378.39078    661.57721    36341.856 
  451800    298.60279   -1534.9541    504.68483     319.9793    416.18299    36341.856 
  451900    292.67314   -1514.2271    465.42171    274.63005    479.88884    36341.856 
  452000    288.50944   -1536.8782    499.07846    266.80786    662.96237    36341.856 
  452100    304.11143   -1555.1961    505.67793    325.63997    1081.8309    36341.856 
  452200    302.46345    -1553.227    531.56385    346.04292    1369.1062    36341.856 
  452300    294.35471   -1559.6477    485.41841    256.81001    567.26518    36341.856 
  452400    311.56209   -1551.2526    502.69068    360.28725    289.69455    36341.856 
  452500     288.1858   -1535.2707    517.45798    285.33137    178.34994    36341.856 
  452600    293.94405   -1481.9455    495.12519      342.362    331.70503    36341.856 
  452700    301.21756   -1524.3987    488.16811    325.84176    351.30066    36341.856 
  452800    307.50071   -1493.2665    502.71888    399.93644    589.65387    36341.856 
  452900    303.62474   -1532.2172     503.0959    343.83604    626.95067    36341.856 
  453000    297.27671   -1510.0204    495.60988    329.84172    337.10338    36341.856 
  453100    292.84511   -1514.8352     505.7223    315.10018   -4.9294528    36341.856 
  453200    305.14362   -1477.1806    515.30312    417.94806    444.10873    36341.856 
  453300    298.15736   -1492.2307    503.08115     359.0849    307.73455    36341.856 
  453400    305.26034   -1512.0202    525.81794    394.15111    626.95655    36341.856 
  453500     295.2015   -1523.0584    541.50606    353.31607    314.43443    36341.856 
  453600    295.70386   -1461.3323    542.46869    418.27638    594.87768    36341.856 
  453700     307.8265   -1490.4796    506.41912    407.89678    526.17609    36341.856 
  453800     301.8286   -1478.6819     513.5569    399.71041   -82.948464    36341.856 
  453900    300.45724   -1487.9433    483.82013     354.5111   -542.97569    36341.856 
  454000    306.65356   -1472.7128    517.56597    431.50652     330.3579    36341.856 
  454100    293.60644   -1477.9401     525.6282    375.34373  -0.34250276    36341.856 
  454200    304.82909   -1485.3999    509.27378    402.27715   -306.18852    36341.856 
  454300    300.53246   -1494.8458    499.72184     363.8504   -156.62168    36341.856 
  454400    315.66885   -1497.9291    526.24548    455.73579   -69.467747    36341.856 
  454500    296.51446   -1528.1597    504.00987    316.65562   -218.35632    36341.856 
  454600    306.00921   -1519.6366    509.60972    373.71281   -215.17202    36341.856 
  454700    305.76025   -1517.8557    496.00751    360.76563   -468.08543    36341.856 
  454800    304.51039    -1510.808    484.27808    350.43222   -565.35927    36341.856 
  454900    303.30523   -1498.9112     501.2724    373.87374   -438.70823    36341.856 
  455000    303.52575   -1488.3196    472.87285    357.06289    91.380731    36341.856 
  455100    306.75864   -1469.9752    505.03377    422.18702   -111.76999    36341.856 
  455200    308.30166   -1442.0826    530.66653    482.68975    144.35998    36341.856 
  455300    303.22327   -1408.6572    515.37955    477.86422    200.36429    36341.856 
  455400    293.68909   -1489.5104    516.00178    354.52077    563.20594    36341.856 
  455500    301.41325   -1461.8797    511.76987    412.84734    107.98101    36341.856 
  455600    297.03555   -1455.0429    511.41162    399.53053   -301.19336    36341.856 
  455700    296.34242   -1501.5418    514.83448     353.3202   -339.70848    36341.856 
  455800    307.63464   -1532.2164    495.26475    354.13806    156.66288    36341.856 
  455900    297.39918    -1578.297    509.83686    276.34587    235.36414    36341.856 
  456000    300.56375    -1532.954    500.87773    327.03954    762.21249    36341.856 
  456100    297.38566   -1544.8046     486.2155     286.1558    371.98303    36341.856 
  456200    304.08862   -1536.6104     516.0665    354.51106   -236.68701    36341.856 
  456300    305.88451   -1506.6743    495.73734    372.23876   -507.17247    36341.856 
  456400    308.65595   -1508.5199    513.34665    400.53465   -839.38687    36341.856 
  456500    307.63056   -1528.0689    486.32422    349.32648   -635.86817    36341.856 
  456600     290.7304   -1480.5616    503.03181    337.12076    -582.8188    36341.856 
  456700    300.32335    -1478.529    521.75282     401.2526   -511.43963    36341.856 
  456800    302.86379   -1501.3759    500.81382    368.95432   -281.85262    36341.856 
  456900    296.44964   -1466.6336    521.25413    395.13282   -498.69653    36341.856 
  457000    297.99346    -1478.321    500.79943    369.97174   -473.97802    36341.856 
  457100    295.46026   -1512.6105    510.98256    334.41053    17.929398    36341.856 
  457200    289.80777   -1520.7337    501.45878    291.20358   -68.639802    36341.856 
  457300    304.07699   -1558.6251    524.80272    341.17998    1162.8567    36341.856 
  457400    308.33587   -1492.0133    520.59271    422.83993    820.81689    36341.856 
  457500    302.28144   -1519.0884    497.63799    345.43261    947.69271    36341.856 
  457600    294.28426   -1474.1954    526.13812    382.66338    627.14296    36341.856 
  457700    308.06611   -1518.1438    511.33185    386.22881    432.03398    36341.856 
  457800    304.59646   -1484.8059    515.40043    407.94592    388.85535    36341.856 
  457900    307.55813   -1499.8192    527.12497    418.04944     235.2484    36341.856 
  458000    303.99526   -1516.8903    485.94876    343.69128    78.864486    36341.856 
  458100    304.45049   -1535.2028    518.25631    359.74481   -159.51623    36341.856 
  458200     293.7844   -1516.3623    498.16229     310.2604    305.24009    36341.856 
  458300    298.26531   -1531.7117    515.54133    332.55226    543.93992    36341.856 
  458400    302.88514   -1502.4804    488.96202    356.09459    654.47268    36341.856 
  458500    295.30081   -1497.2713    507.24278    345.28894    1003.8078    36341.856 
  458600    308.13982   -1508.9233    497.28463    381.73537    1161.6037    36341.856 
  458700     303.0423   -1544.7158    499.59915     325.2069    168.39893    36341.856 
  458800    313.56397   -1515.4063    496.36767     398.8628    704.69538    36341.856 
  458900    302.31303   -1529.9944    514.85392     351.8854     460.2666    36341.856 
  459000    302.05067   -1545.2052    504.60078    325.23517    666.98898    36341.856 
  459100    291.76825   -1477.9016     526.9407    368.38265    511.20775    36341.856 
  459200    294.63256   -1497.8199    503.91442    338.39022    11.376492    36341.856 
  459300    302.86681   -1522.4566    501.61287    348.68629    394.85315    36341.856 
  459400     306.7382   -1553.8011    517.21421    350.44913    654.10547    36341.856 
  459500    288.66594   -1555.2773    496.85673    246.89477     614.9927    36341.856 
  459600     297.9471   -1572.0558    542.02646     317.2544     407.4527    36341.856 
  459700    310.94925   -1571.7647    494.57498    328.88819    923.92636    36341.856 
  459800    309.00408   -1525.1211    523.95886    396.11988     125.9114    36341.856 
  459900     300.5928   -1529.3215    509.51111    339.43683   -92.677659    36341.856 
  460000    299.45201   -1522.2616    476.15236    307.97945   -375.65306    36341.856 
  460100     307.1546   -1527.2366    526.34244    388.02482   -358.60899    36341.856 
  460200    298.43607   -1555.8887    494.03923    287.64528   -803.45337    36341.856 
  460300    305.48981   -1523.1922    517.13156    375.33028   -332.21261    36341.856 
  460400    300.67206   -1552.1497    490.41573    297.87163    -368.6663    36341.856 
  460500      300.689   -1541.5939    497.09038    315.17869   -459.78145    36341.856 
  460600    285.82593    -1565.707    510.88978    237.65586   -408.11453    36341.856 
  460700    294.26612   -1546.5276    515.22237    299.33346    720.63012    36341.856 
  460800    295.27956    -1490.066    519.27893     364.4343   -491.73824    36341.856 
  460900    294.31709    -1518.884    500.95159    312.93675   -566.27989    36341.856 
  461000    301.11457   -1484.9555    502.41064    379.06175   -170.48219    36341.856 
  461100    298.00927   -1489.7878    542.62011    400.39706    244.49808    36341.856 
  461200    300.69038    -1494.311    525.38922    390.76675      293.161    36341.856 
  461300    293.05737   -1512.5376    534.08643    346.72168    103.68144    36341.856 
  461400    297.14763   -1430.9105    516.43908    429.19718    694.68372    36341.856 
  461500    298.48496   -1498.2141    532.94723    384.44896    1111.9755    36341.856 
  461600    296.26009   -1470.2386    533.94204    403.35868    1293.8778    36341.856 
  461700    296.72696   -1465.2114    527.29406    403.84892    846.46558    36341.856 
  461800    301.21867   -1499.8967    498.65304    360.83365     1087.046    36341.856 
  461900    289.21868   -1518.3732    513.40213    302.84367      227.748    36341.856 
  462000    300.31847   -1473.5646    528.85065     413.2928    74.359843    36341.856 
  462100    294.09168   -1526.9695    515.18559    318.06604   -204.18134    36341.856 
  462200    294.26782   -1488.6492    503.37894    345.37614   -319.75971    36341.856 
  462300    304.80867   -1511.1134    482.85141    350.04889   -697.68864    36341.856 
  462400     301.4729   -1500.2285     503.5483    366.54673   -242.54787    36341.856 
  462500    304.90661   -1554.2178    499.78389    324.31989   -347.72924    36341.856 
  462600    299.61138   -1515.4841    520.67756    360.00275   -335.06326    36341.856 
  462700    308.50888   -1456.0902    503.64537    442.59802   -848.19622    36341.856 
  462800    286.77914   -1464.9069    527.98918    359.86568   -80.916943    36341.856 
  462900    308.48598   -1486.0943    545.97328    454.81831    507.73423    36341.856 
  463000    306.60978   -1496.7608    518.09625    407.79079    659.41562    36341.856 
  463100    298.79961   -1491.7972    514.84812    374.18959     323.5317    36341.856 
  463200    301.26642   -1466.6398    517.11111    412.76459    290.89851    36341.856 
  463300     293.0388   -1501.4228    522.39788     346.0639   -700.24845    36341.856 
  463400     306.0317   -1520.1827     516.7273    380.38599   -631.30452    36341.856 
  463500    303.09097   -1515.5259     518.0647    373.08247    -456.3902    36341.856 
  463600    292.27772   -1532.2781    496.42897    285.79825    65.708226    36341.856 
  463700    294.76954   -1537.2131    498.39571    294.09764   -115.61097    36341.856 
  463800    298.98609   -1496.7511    534.79758    390.02838    99.386219    36341.856 
  463900    297.69909   -1498.1799    530.72676    378.70904    250.66466    36341.856 
  464000    298.20964   -1501.4659    505.42009    352.42502    788.29249    36341.856 
  464100    302.84681   -1554.4155    523.69458    338.71868    411.42201    36341.856 
  464200    291.78306   -1556.7821    520.62021    283.24872    863.88362    36341.856 
  464300    306.13152    -1519.382    509.40056    374.31129    486.41632    36341.856 
  464400    303.71882   -1567.3092    508.28326     314.3568    991.86857    36341.856 
  464500    310.68263   -1548.1199    482.92743    339.67988    386.84411    36341.856 
  464600    300.71839   -1508.5384    523.45889    374.73558    696.47577    36341.856 
  464700    292.50586   -1496.1877    535.59029    362.08154   -80.434398    36341.856 
  464800    299.85402   -1489.9643    506.76509    372.70731   -157.00209    36341.856 
  464900    295.81078   -1464.2143    517.24343    390.65261    296.97926    36341.856 
  465000    302.38841   -1509.7179    516.37612    374.02499    268.03675    36341.856 
  465100     298.1203   -1562.6297    498.61447     284.0516    650.26529    36341.856 
  465200    305.45024    -1568.774    516.34523    328.78331    339.61103    36341.856 
  465300     301.5142   -1545.6421    536.30381    354.07536   -53.419909    36341.856 
  465400    295.40329   -1529.0304    500.93209    307.68251    -309.7031    36341.856 
  465500    289.70222   -1571.7089     473.9174     212.2097   -478.54863    36341.856 
  465600    305.79419    -1522.465    510.39177    370.69408    -58.52925    36341.856 
  465700    299.13297   -1493.4381    521.05349     380.2614    -16.39316    36341.856 
  465800    300.81051   -1486.4895    512.84263    386.58487   -252.35928    36341.856 
  465900    291.63062   -1507.4484    489.92257    301.19542    -553.7233    36341.856 
  466000    304.64409   -1560.0401    473.90041    291.42703   -3.0185718    36341.856 
  466100    302.90099   -1545.0902    492.48474    317.07919    45.884138    36341.856 
  466200    298.37735   -1504.3225    503.05224    347.95892    272.80281    36341.856 
  466300    288.09278   -1504.0228    504.43145    303.13216    212.58267    36341.856 
  466400     291.2056   -1518.3018    507.39829    305.89583      137.185    36341.856 
  466500    301.80311   -1511.2313    522.35489    375.84377    250.48404    36341.856 
  466600     286.8696   -1522.0579    502.37694    277.51153    301.03226    36341.856 
  466700    298.45927    -1538.895    515.97441    326.67908    159.84829    36341.856 
  466800    298.80693   -1516.2635    511.17384    346.08207   -510.86248    36341.856 
  466900    313.95587   -1491.0225    531.78005    460.43106   -210.86291    36341.856 
  467000    294.70095   -1504.9385    501.34667    329.01316   -898.31417    36341.856 
  467100    299.61547    -1511.659    523.06929    366.23816   -242.89385    36341.856 
  467200    301.63391   -1552.9702    515.42119      326.406   -213.92747    36341.856 
  467300    304.07643   -1559.4894    509.55092    325.06133   -23.987609    36341.856 
  467400    298.38972   -1534.8423    499.91899     314.3618    333.26587    36341.856 
  467500    308.11222   -1564.6434    500.83904    329.44491    253.69343    36341.856 
  467600    289.34843   -1526.5733     540.7267    322.55481    -86.76525    36341.856 
  467700    295.65661   -1556.2728    490.49321    271.14669    667.84942    36341.856 
  467800    303.87953   -1579.3617    474.21799    268.96571    263.57577    36341.856 
  467900      293.921   -1552.8192    526.88498    303.14383   -537.77961    36341.856 
  468000    297.63699   -1555.6275    492.46483    282.71871   -579.02859    36341.856 
  468100     294.6847   -1527.1346     498.1425    303.53937   -815.86165    36341.856 
  468200    286.88856   -1529.6804    526.30082     293.8986   -995.09483    36341.856 
  468300    309.40586   -1579.1176    500.88593    320.86728   -615.86613    36341.856 
  468400     305.3419   -1509.1469    510.44218    382.01737   -286.05885    36341.856 
  468500    297.13005   -1526.5057    485.52897     302.6123   -341.75482    36341.856 
  468600    310.27226   -1471.1668    516.09606      447.946   -8.4162504    36341.856 
  468700    286.63288   -1490.0422    515.43795     321.5178    -725.5708    36341.856 
  468800     299.6269   -1467.3813    521.85672    409.35497   -427.92354    36341.856 
  468900    307.99911   -1490.4915     525.3801    427.62638   -275.97523    36341.856 
  469000     301.1901   -1476.1815    508.75274    394.51944   -958.27615    36341.856 
  469100    295.93314     -1529.63    485.48915    294.03586    -689.3212    36341.856 
  469200    292.00742   -1519.7012    504.16244    304.88636    209.34673    36341.856 
  469300    294.81203   -1575.0017    522.19307    280.29861    294.76002    36341.856 
  469400     297.0803   -1521.2301    524.40257    346.53653    489.50279    36341.856 
  469500    301.26002   -1539.3338     506.0709    329.00136    58.768032    36341.856 
  469600    297.81909   -1576.5563    507.94469    278.09322    232.42627    36341.856 
  469700    297.64558   -1579.1395    499.31029    266.09105    217.45159    36341.856 
  469800    300.97588   -1543.4051    510.39215    327.96653   -167.35057    36341.856 
  469900    300.33923   -1528.5312    491.37307    320.94249   -408.88908    36341.856 
  470000    302.57653   -1538.4179    508.82278    338.62234   -110.32154    36341.856 
  470100    298.05915   -1534.5302    501.47988    314.73997   -813.79268    36341.856 
  470200    295.45151   -1508.1901    516.34278    344.15154   -314.26049    36341.856 
  470300    301.12347   -1522.6352    510.91693    349.92856   -225.94657    36341.856 
  470400    305.09726   -1508.0661    517.86586    389.41567   -106.17329    36341.856 
  470500    296.34627   -1532.6816    502.43593    309.79923    258.77776    36341.856 
  470600     308.3913    -1536.616    518.14934    376.04448    35.954956    36341.856 
  470700    294.81005   -1545.7705    520.56763    307.89541    84.430676    36341.856 
  470800    300.60473   -1550.7805    481.57555    290.09623   -2.6016058    36341.856 
  470900     293.4123   -1558.2045    493.52319    262.09644    13.435936    36341.856 
  471000    298.85162   -1524.5429     527.1484    353.97933    440.99693    36341.856 
  471100    307.57928    -1520.426     497.3785    367.79177   -491.40357    36341.856 
  471200    295.72015   -1512.6638    508.04069    332.59059   -198.81392    36341.856 
  471300    292.56238   -1556.6622    497.56811    263.84051   -123.05295    36341.856 
  471400    302.35022   -1518.2374    491.77358    340.73023    82.188246    36341.856 
  471500    304.59401   -1531.6491    522.28187    367.97303   -146.18948    36341.856 
  471600    296.92629   -1560.9622    469.16125    250.86669   -359.26848    36341.856 
  471700    295.63341   -1543.5198    492.53983     285.8415    192.83671    36341.856 
  471800    304.40135   -1503.8343    518.71336    391.34814    -150.2027    36341.856 
  471900    290.19133    -1573.878     501.2805    239.61545   -336.13563    36341.856 
  472000    304.73689   -1547.0233    494.57456    325.53764   -196.23972    36341.856 
  472100    300.57699   -1502.7454     524.0968    380.52713     -454.225    36341.856 
  472200    292.61275   -1530.9994    486.13001    278.29297   -524.10412    36341.856 
  472300    298.65559   -1490.1207    520.64723    381.01395    -823.6201    36341.856 
  472400    299.96903   -1552.2541    512.90053    317.07302   -398.79663    36341.856 
  472500    297.66523    -1542.325    462.02624    265.71039    -538.8212    36341.856 
  472600    296.51193   -1513.7136    492.19721     319.2776   -446.25575    36341.856 
  472700    303.81389    -1587.436    515.29266    301.66927    364.08821    36341.856 
  472800    305.68612   -1517.6199    527.21767    391.87647   -89.941022    36341.856 
  472900     303.9652   -1552.5702    481.49198    303.41867    -293.7081    36341.856 
  473000    298.76934   -1558.3224     514.7988    307.47811   -309.82636    36341.856 
  473100    291.91745   -1548.9924    500.29462     271.3205   -57.215947    36341.856 
  473200    295.57852   -1550.4122    504.30259    290.46361   -506.98884    36341.856 
  473300    300.54687    -1520.794    495.75334    333.99889   -129.31985    36341.856 
  473400    304.94671   -1541.8495    503.72028    340.80591   -324.14558    36341.856 
  473500    296.96784   -1536.0763    515.19421     321.9735    -24.72582    36341.856 
  473600    295.97395   -1553.5106    486.03724    270.88793    222.61515    36341.856 
  473700    294.70369    -1577.597    484.22047    239.24085    77.676981    36341.856 
  473800    308.92888   -1555.0137     518.0914    360.01976    -80.69157    36341.856 
  473900    296.14574   -1508.0663    503.77766    334.84949   -125.75534    36341.856 
  474000     295.3602   -1519.7668     525.3803    341.19948    505.39344    36341.856 
  474100    297.32563   -1530.5664    509.84942    323.75648    899.79707    36341.856 
  474200    303.03807   -1589.1641    510.82625    291.96659    696.70404    36341.856 
  474300      296.787   -1518.1013     509.9477    333.88427    684.96241    36341.856 
  474400    297.00963   -1491.3211     492.8259    344.54935   -651.50581    36341.856 
  474500    302.16467   -1520.9096     518.2091    363.65458   -342.79468    36341.856 
  474600    300.61407   -1519.2681    493.30767      333.383   -314.30681    36341.856 
  474700    298.91265   -1523.9203    513.96533     341.6948    389.64117    36341.856 
  474800    300.59613   -1511.4149    510.67104     358.5184   -417.44223    36341.856 
  474900    295.35702   -1477.8338    522.46123    380.19907    300.09582    36341.856 
  475000    298.44198   -1513.0112    504.57441    341.08468   -446.81907    36341.856 
  475100    305.98898   -1490.3847    516.90992    410.17331    354.38906    36341.856 
  475200    302.48323   -1565.9709    502.18057    304.00518    97.270924    36341.856 
  475300    296.78286   -1517.9948     507.4374    331.46171    66.218555    36341.856 
  475400    308.10697    -1509.809    514.18003    397.59647   -52.530691    36341.856 
  475500    291.45522   -1535.5116    495.51649      277.933   -281.59825    36341.856 
  475600    308.25934   -1499.2259     489.0582    383.74678   -251.61429    36341.856 
  475700    287.64271   -1524.8892    504.56469    280.36382   -642.09684    36341.856 
  475800    308.13836   -1514.2052    504.95637    384.11863   -31.070331    36341.856 
  475900    298.13495   -1482.3011      521.692    387.52393    276.55257    36341.856 
  476000     301.0936   -1489.7288    520.24425    392.02722   -155.75028    36341.856 
  476100    296.96667   -1484.4473    511.81032    370.21332    55.849784    36341.856 
  476200    299.45997   -1502.2254    508.85163    360.75093    53.783219    36341.856 
  476300    307.40905   -1472.1434    545.30667    463.23285    159.90323    36341.856 
  476400    307.48513   -1493.8672    498.94492    395.49131   -259.84155    36341.856 
  476500    314.52327    -1476.454    505.31592    451.10113   -279.74484    36341.856 
  476600    296.53885   -1508.3212    506.44719     339.0417   -507.34276    36341.856 
  476700    309.31808   -1493.1935    522.07677    427.58522   -380.09032    36341.856 
  476800    300.03943   -1496.0618    530.40887    391.09203    160.85331    36341.856 
  476900    303.49553   -1496.3668    519.60755    395.61381    582.15255    36341.856 
  477000    305.10003   -1512.6989    505.57506    372.50455    552.07682    36341.856 
  477100    305.80558   -1524.4731    502.62586    360.97157    465.69589    36341.856 
  477200    294.29354   -1501.8792    538.72816    367.61164    355.71683    36341.856 
  477300    298.88157   -1477.8868     495.3318    368.95427    570.52464    36341.856 
  477400    300.98355   -1517.0733    519.08401    363.02481    649.60625    36341.856 
  477500    291.89977   -1487.3028    530.07213    362.70768    543.34889    36341.856 
  477600    304.12143   -1527.4655    512.93491    360.67271    214.27556    36341.856 
  477700     297.5985   -1481.0381    495.93975    360.60897   -183.28381    36341.856 
  477800    299.50094    -1538.126    497.65571    313.83967   -463.85197    36341.856 
  477900    295.32769   -1511.8303    503.01709    326.62576   -380.92763    36341.856 
  478000    299.67716   -1500.5995    511.50557    366.01284   -624.52009    36341.856 
  478100    297.64192   -1524.8505    534.33525    355.38839    11.620703    36341.856 
  478200    299.39846   -1560.5104    497.55562    290.89177   -295.65718    36341.856 
  478300    297.73869   -1525.5709    520.38668    341.15702   -225.65748    36341.856 
  478400    310.91065   -1541.9027    513.02962    377.03034    266.47031    36341.856 
  478500    297.54179   -1515.2706      519.818    349.99825    693.08799    36341.856 
  478600    296.40463   -1544.3707    524.73256    320.67067    373.77606    36341.856 
  478700    307.77616   -1541.5931    525.48485    375.62134    385.71983    36341.856 
  478800    300.55747   -1497.3372    510.33975    372.09002    226.99837    36341.856 
  478900    301.73592    -1537.758     485.1999    311.85822    125.68472    36341.856 
  479000    301.08739   -1479.0121     551.3835    433.85512    547.11086    36341.856 
  479100    292.54927    -1523.837    514.03804    313.07629    845.59359    36341.856 
  479200     309.8358   -1542.7085    482.42981    340.76436    928.53658    36341.856 
  479300    304.24217   -1512.3895    503.98206    367.34183    238.30197    36341.856 
  479400    289.42312    -1544.238    522.04093    286.54209    93.290087    36341.856 
  479500    300.50034    -1521.551    476.50665    313.78481    253.43423    36341.856 
  479600    308.52687   -1515.4473    511.41344    391.09037    510.77152    36341.856 
  479700    295.74317   -1504.0319    528.14826     361.4341    71.487319    36341.856 
  479800    302.63896   -1513.7015    523.03943    377.83772    592.57959    36341.856 
  479900    309.23532   -1539.9935    502.23868    360.57292    801.78884    36341.856 
  480000    295.55975   -1545.4786    513.78791     304.7976    303.02343    36341.856 
  480100    307.13664   -1532.5267    492.64729    348.95838    1009.3025    36341.856 
  480200    309.15379   -1531.2131    510.07392     376.8199     290.1919    36341.856 
  480300    299.39491   -1552.3054    496.61419    298.13929   -18.009577    36341.856 
  480400     292.1234   -1530.9224    505.30231     295.3295   -437.29315    36341.856 
  480500    298.20763    -1499.075    511.44201     360.8288   -72.685666    36341.856 
  480600    297.20601   -1515.1606    497.66859     326.4405    296.18365    36341.856 
  480700    301.60187   -1519.4246    501.90751    346.29305    70.241506    36341.856 
  480800    315.14519   -1506.4879    487.25929    405.82286   -572.85697    36341.856 
  480900    303.80183   -1502.9793    510.35563     381.1344   -605.26385    36341.856 
  481000    292.85377    -1499.538    470.84299    295.55723   -770.76693    36341.856 
  481100    293.67041   -1466.9355    529.66396    390.67343   -400.56383    36341.856 
  481200    304.55738    -1524.991    503.78629    355.96986   -117.81932    36341.856 
  481300    300.84717    -1512.561    521.08081     368.9173    342.83227    36341.856 
  481400    306.88731    -1498.111    493.23748    382.83678    176.61913    36341.856 
  481500     302.6247   -1513.4856    488.79873    343.74842   -543.99489    36341.856 
  481600    294.76006   -1525.7471    498.73855    305.86363   -199.30268    36341.856 
  481700    293.38292   -1497.3631    499.06728     328.3491   -33.799533    36341.856 
  481800    299.83298   -1510.5949      507.989    353.20549   -27.285564    36341.856 
  481900    295.11618   -1506.7558    502.59425    330.32103   -325.33809    36341.856 
  482000    319.28732   -1534.5034    497.93948     407.2178    759.46603    36341.856 
  482100    297.60789   -1511.9121    491.14949    324.98722    415.85616    36341.856 
  482200    305.81646   -1513.9936    502.23746    371.11186    57.790452    36341.856 
  482300    305.68967    -1480.587    492.52646    394.23418    44.291361    36341.856 
  482400    312.34933   -1478.1492    508.52182    442.78158    324.95633    36341.856 
  482500    301.93076   -1486.8979    523.11319    401.51261   -389.68055    36341.856 
  482600    298.95204   -1480.1919    523.21166    394.84763   -87.649796    36341.856 
  482700    313.36727   -1458.7932    497.92522    456.14395   -319.74821    36341.856 
  482800    297.04399   -1470.9749    497.50823    369.73329   -476.90779    36341.856 
  482900    309.07684   -1556.8005    497.15401    337.96463    4.8418179    36341.856 
  483000    312.83903   -1525.4406    530.52402    419.70673    474.79013    36341.856 
  483100    289.67947   -1535.0975    507.99987    282.80075    679.88867    36341.856 
  483200    299.38604   -1513.1958    519.40364     359.9982    344.90992    36341.856 
  483300    292.82281   -1568.7568    494.41041    249.76584    2.7489227    36341.856 
  483400    303.61199   -1537.0664    494.96201    330.79525    753.93846    36341.856 
  483500    302.34175   -1503.5481     489.7133    353.32099    7.9049991    36341.856 
  483600    306.71721   -1524.2165    508.18732    370.91196    560.77723    36341.856 
  483700    300.17112   -1532.6968    492.07733      316.721    196.80601    36341.856 
  483800    298.73193   -1578.0285    480.42862    253.23275   -910.14211    36341.856 
  483900    309.89433   -1551.0849      510.721    360.94382   -82.907281    36341.856 
  484000    305.55548   -1563.7135    499.39691    317.37128    224.51053    36341.856 
  484100    315.22892   -1569.9956     490.6175    346.05199    504.52561    36341.856 
  484200    300.56259   -1549.2927    502.34644    312.16441    598.01681    36341.856 
  484300    296.94078   -1549.0904    497.08503    290.72788    121.05798    36341.856 
  484400    292.94064   -1562.4983     510.9075    273.05425   -169.38015    36341.856 
  484500    307.72873   -1548.2056    531.35489    374.66438    247.98822    36341.856 
  484600    290.67034   -1537.0839     506.8419    284.13695   -289.28457    36341.856 
  484700    307.04072   -1523.2492    513.28283    378.43762   -255.60245    36341.856 
  484800    308.33708   -1540.8408    506.11008    359.53531    124.29592    36341.856 
  484900    297.16696   -1525.8201    502.23868    320.17457   -75.436811    36341.856 
  485000    288.23768   -1587.8427    489.24901    204.78511   -443.45253    36341.856 
  485100    306.61615   -1515.6512    502.91615     373.7491    81.475975    36341.856 
  485200    296.41345   -1536.1008    507.68576    311.93361    406.89777    36341.856 
  485300    299.04837   -1590.2018    501.16669    263.22833    925.49661    36341.856 
  485400    309.39077   -1530.6491    483.50656    351.88811    745.74537    36341.856 
  485500    308.70682   -1558.8489    522.02386    359.11288    1096.5268    36341.856 
  485600    306.85634   -1587.5051    508.84498    308.91012   -218.13978    36341.856 
  485700    293.05413   -1566.9388    499.32201    257.54139     86.48709    36341.856 
  485800    296.57438   -1560.8312     503.1797    283.42491    159.73392    36341.856 
  485900    308.34737     -1551.71    498.15614    340.75868    267.80184    36341.856 
  486000    309.12669   -1505.8905     518.0404    409.98638    541.52632    36341.856 
  486100    288.85265   -1558.0834    503.85427    251.93043    517.50312    36341.856 
  486200     298.2594   -1526.5875    525.12447    347.23285    481.12474    36341.856 
  486300    310.43722   -1544.3433    505.87675    365.29609    271.75548    36341.856 
  486400    291.38209   -1492.0738    513.17188    338.69548   -64.445073    36341.856 
  486500    291.27861   -1496.3427    522.76386    343.55067    210.88712    36341.856 
  486600    286.60435   -1539.2524    506.59449    263.33514     481.4228    36341.856 
  486700    293.21299   -1540.3181    492.91582    278.47424    55.370837    36341.856 
  486800    302.63689   -1519.3878    494.89372    343.99627    317.40002    36341.856 
  486900    297.39432   -1557.6156    502.71788    289.88633    70.626647    36341.856 
  487000    299.44954    -1509.998    512.39758    356.47709    75.420999    36341.856 
  487100    297.85457   -1528.3005    509.21153    327.77627   -425.39559    36341.856 
  487200    309.01076   -1500.6867    496.00846    392.63409   -123.08178    36341.856 
  487300     288.8419   -1533.1955     492.2157    265.13122    -825.3103    36341.856 
  487400    292.59262   -1566.6968     507.8494    264.22387   -704.54525    36341.856 
  487500    310.91537   -1536.5724    507.97687    377.32927    320.90481    36341.856 
  487600    309.64206   -1572.4864    486.86762    314.54825    98.859346    36341.856 
  487700     305.8401   -1509.6463    496.44958    369.77821   -57.704081    36341.856 
  487800    298.15948   -1499.1334     469.5184    318.62905   -506.34241    36341.856 
  487900     296.1925   -1527.5173    484.28272    296.11504    80.811943    36341.856 
  488000    303.65063   -1530.5081    502.11716    344.68343    116.96683    36341.856 
  488100    308.10098   -1487.9256    498.63724    403.91004    82.601437    36341.856 
  488200    300.33404   -1532.9847    499.54766     324.6401    117.58897    36341.856 
  488300    284.73998   -1561.0955    510.17173    236.63879   -59.095855    36341.856 
  488400    303.52014   -1492.4177    488.58529    368.65195     536.3008    36341.856 
  488500    293.19862   -1492.3148    513.44503    346.94183    141.73372    36341.856 
  488600    301.70242   -1483.5049    510.36719    391.12703    567.93927    36341.856 
  488700    298.42503   -1484.6778    519.29307    384.06004   -367.55816    36341.856 
  488800    300.35212   -1490.7484    541.56423    408.97475   -38.679199    36341.856 
  488900    296.16267   -1466.3128    509.22158    382.12344    -36.00388    36341.856 
  489000    304.82449   -1504.6148    527.42042    401.18804   -513.37652    36341.856 
  489100    286.51829   -1494.3572    527.45194    328.69861   -985.94095    36341.856 
  489200    311.49716   -1511.1884    495.12113    392.48825   -260.72277    36341.856 
  489300    295.02709   -1520.4802    492.27049    305.86997   -356.37068    36341.856 
  489400    302.84037   -1511.6998    523.66292    381.37361   -450.09435    36341.856 
  489500    306.28687   -1496.3247    519.97843    408.64884   -165.55811    36341.856 
  489600    303.77821   -1498.5779    488.57994    363.65338   -341.81737    36341.856 
  489700    305.39304    -1480.815     495.4211    395.55945   -152.71841    36341.856 
  489800    307.72941   -1504.5336    510.96908    397.95368   -485.87019    36341.856 
  489900    299.16659   -1453.1102    493.17682    392.86465    102.52593    36341.856 
  490000    301.20915   -1465.0191    509.54347    406.55863    38.850216    36341.856 
  490100    298.86823   -1459.3793    493.56842    385.63809    454.70304    36341.856 
  490200    296.76936   -1494.6931    515.81382    363.07879    393.67867    36341.856 
  490300    302.59713   -1510.7624     511.0566    368.60474     580.5962    36341.856 
  490400    302.38147   -1533.0641    490.55184    324.82314    85.550144    36341.856 
  490500    304.47232   -1499.0555    509.23118    386.96572    346.37901    36341.856 
  490600    304.00057    -1456.365    512.38066    430.67243    64.230606    36341.856 
  490700    310.17606   -1477.7135    509.37185    434.24005    203.04553    36341.856 
  490800    293.13104   -1501.2934    518.52406    342.73664   -197.26989    36341.856 
  490900    301.41897   -1474.5868     512.8926     401.2889    213.20003    36341.856 
  491000    294.13866   -1461.2184    508.63479    377.47876   -233.70757    36341.856 
  491100     291.4545   -1500.8649     491.1954    308.25535   -503.96575    36341.856 
  491200    301.01805   -1495.5628    511.84502    377.45236   -491.40553    36341.856 
  491300     288.4576   -1465.1025    497.48056    336.75124    277.62872    36341.856 
  491400     294.9689    -1484.209    518.20308    367.81067   -237.05926    36341.856 
  491500    293.66737   -1478.2439    485.21015    334.89743   -507.08005    36341.856 
  491600    294.77559   -1478.6255     509.3495    363.66646   -674.09881    36341.856 
  491700    301.08622   -1498.7372    472.42025    335.16148   -351.19497    36341.856 
  491800    293.10951   -1503.4089    483.09576    305.09547    114.17983    36341.856 
  491900    295.71883   -1563.3314    526.34308    300.21941    489.15826    36341.856 
  492000    306.06306   -1513.3342    522.04429    392.69322    437.07569    36341.856 
  492100    301.47422   -1575.2873    516.48576    304.43139    601.78996    36341.856 
  492200    297.51537   -1511.2871    488.21106    322.25537    311.10644    36341.856 
  492300    287.89787   -1527.0202     524.8832    299.70523    185.81597    36341.856 
  492400    298.25222   -1512.3273    514.84361    351.17967    67.377836    36341.856 
  492500    293.96908   -1475.3537    501.40652    355.34838   -44.797231    36341.856 
  492600    302.91346   -1533.7624    521.67695    357.65558    200.73361    36341.856 
  492700    299.27654   -1477.4031    502.04281    377.93496   -59.807266    36341.856 
  492800    305.98309   -1486.1538    525.07516    422.54285    170.59739    36341.856 
  492900    305.86588   -1473.4392    506.90061    416.55294    277.41613    36341.856 
  493000    299.49617   -1473.3922    530.23513    411.13132    142.74554    36341.856 
  493100    296.40504   -1483.8909    509.01981    365.43959    280.96751    36341.856 
  493200    294.41448    -1543.542    520.01694    307.78444    560.89242    36341.856 
  493300    288.18055    -1493.004    508.50482    318.62123   -142.45775    36341.856 
  493400    297.88582   -1516.3664    534.94881    365.58891    306.17851    36341.856 
  493500    305.97144   -1514.5881    505.09378    374.07453    289.95217    36341.856 
  493600    294.91499   -1504.4188    496.65259    325.80657    226.13617    36341.856 
  493700    302.87618   -1485.4021    534.73681    418.90711   -164.04156    36341.856 
  493800    302.41171   -1473.1536    516.49891    410.81744    108.01046    36341.856 
  493900    295.97218   -1484.8045    502.79894    356.34774    136.23795    36341.856 
  494000    299.67087   -1515.1063     528.2932    368.26531    443.19724    36341.856 
  494100    300.94794   -1526.3168     523.5106    358.04689    137.64413    36341.856 
  494200    295.21954   -1489.5963    515.68384     361.0375   -143.08103    36341.856 
  494300    298.04463    -1506.292    511.41395    352.84664    -404.3721    36341.856 
  494400     314.4306   -1522.5162    478.89474    378.19875   -600.48935    36341.856 
  494500    295.04618   -1510.7715    533.87322    357.26774   -130.13099    36341.856 
  494600    305.92195    -1528.678    509.62516    364.29221   -44.707684    36341.856 
  494700    297.00316   -1504.2606    506.53739    345.29202   -378.53906    36341.856 
  494800    298.08404   -1528.5023    497.09494     316.4956   -471.51137    36341.856 
  494900    301.26249   -1505.2692    495.61207    352.61839   -347.39387    36341.856 
  495000    289.29015   -1513.2566    483.51466    278.39599   -444.82204    36341.856 
  495100    304.52693   -1496.2204    496.31374    377.13032   -416.84951    36341.856 
  495200    294.05936   -1475.2688    509.21575    363.65073   -356.13551    36341.856 
  495300    302.69558   -1495.5114    515.33264      388.577   -654.22201    36341.856 
  495400    292.76605   -1487.0158    500.70213    337.54189    -733.9589    36341.856 
  495500    302.67281   -1474.4998    505.07816    399.23111   -1116.9699    36341.856 
  495600    295.90514   -1459.6427    511.99919    390.40665   -1138.0964    36341.856 
  495700    301.96278   -1524.5526    470.15611     311.0456   -539.33174    36341.856 
  495800    303.95746   -1500.5151    508.32509    382.27186   -72.047385    36341.856 
  495900    298.79216   -1485.0781    513.70189     379.7287    219.00351    36341.856 
  496000    299.86723   -1482.7206    534.54771    407.79338    334.01518    36341.856 
  496100    296.95559   -1466.3617    487.88519    364.32362    43.463567    36341.856 
  496200    299.17955   -1506.3669    497.73135    344.22115   -254.49846    36341.856 
  496300    303.73346   -1485.9702    515.03808    402.51681   -519.94183    36341.856 
  496400    305.13265   -1534.8921    495.14435    340.02818    125.33247    36341.856 
  496500      311.264   -1517.5175    500.85804    390.84178   -144.05237    36341.856 
  496600    300.77628   -1521.6259    508.25808    346.70913   -668.18009    36341.856 
  496700     295.9119   -1497.3629    478.86392    319.58172   -664.37059    36341.856 
  496800    312.81302   -1545.7247    500.54609    369.32709   -135.75424    36341.856 
  496900    287.53986   -1546.2495    486.23736    240.21118   -86.892789    36341.856 
  497000    297.53552   -1489.4959    511.95288    367.87955   -159.42065    36341.856 
  497100    292.21566   -1494.2237    500.00262    327.14562   -151.24634    36341.856 
  497200    305.76512   -1444.0417    530.47975    469.07398   -191.46026    36341.856 
  497300    292.59958   -1492.9678    509.84104    339.97606    100.41183    36341.856 
  497400    298.65703   -1448.2627    523.72166     425.9529   -307.20443    36341.856 
  497500    305.42156   -1453.6076    515.27529    442.74999    -658.4552    36341.856 
  497600    299.27214   -1472.1092    489.50038    370.66658   -738.33866    36341.856 
  497700    305.61971   -1427.2966    514.98576    469.66757   -366.71228    36341.856 
  497800    298.85679   -1479.7963    507.77259    379.37351   -271.48495    36341.856 
  497900    300.40189   -1503.5403     511.0993    365.94296   -452.70406    36341.856 
  498000    300.51001   -1479.7265    521.11419     400.2605   -315.36551    36341.856 
  498100    298.26358   -1490.5195    517.58423    375.77952   -403.28484    36341.856 
  498200    307.31881   -1527.1586    497.40447    359.90741   -497.21783    36341.856 
  498300    299.58449   -1512.6599    506.74667    348.77456    241.89329    36341.856 
  498400    296.63416    -1512.796    508.14006    336.69077    855.68686    36341.856 
  498500     297.9919   -1543.8902    538.14616    341.74224    557.91307    36341.856 
  498600    297.66908   -1493.7038    500.89649    353.21913     887.0513    36341.856 
  498700    294.08459   -1475.8203    513.88104     367.8785    190.94548    36341.856 
  498800    297.21859   -1491.2467    547.51236    400.25514    43.006929    36341.856 
  498900    309.09392   -1557.9142    481.06859    320.84276    284.40608    36341.856 
  499000    308.34864   -1542.4242    496.27435    348.16845   -113.84988    36341.856 
  499100    296.56729   -1474.3341    524.58176    391.29196    11.347654    36341.856 
  499200    296.77776   -1456.6109    493.09487    378.47998    244.57698    36341.856 
  499300    307.61554   -1507.1169    495.87744    379.76382    519.44628    36341.856 
  499400    301.79387   -1500.0238    535.32204     399.9766    56.151006    36341.856 
  499500    304.74156   -1516.5442    500.62263    362.08594   -408.76611    36341.856 
  499600     312.1741     -1527.52    481.56364    365.66027   -335.08762    36341.856 
  499700    310.23296   -1526.5118    519.42858    395.75577    154.18565    36341.856 
  499800    296.26812   -1523.0002    497.82343    314.51471   -347.41253    36341.856 
  499900    292.94929   -1532.2325    480.96791    273.41954    34.381033    36341.856 
  500000    292.65335   -1540.8557    495.17937    277.66956     383.1652    36341.856 
  500100    297.47244   -1514.7445     517.3017    347.69449   -298.47804    36341.856 
  500200    314.79217   -1462.1007    495.96156    457.31605    130.38669    36341.856 
  500300    304.38535   -1505.6594     546.4395    417.17678   -59.494939    36341.856 
  500400    297.93549   -1477.9989    504.52652    373.75877    168.18997    36341.856 
  500500    297.00723   -1460.1127    514.80058    397.72155    366.53518    36341.856 
  500600     316.2954    -1480.135    520.59682    470.71443    310.91612    36341.856 
  500700    302.20304   -1533.8848    481.71029    314.35408   -50.854382    36341.856 
  500800    304.15991   -1477.2579    526.07385     424.1933    -87.33787    36341.856 
  500900    298.58565   -1535.1286    508.76632    323.80888     21.06313    36341.856 
  501000    298.85321   -1508.8354    507.16496     349.7105    478.86415    36341.856 
  501100    299.41553   -1461.8936    516.75052    408.78062    225.50066    36341.856 
  501200    299.17865   -1528.3579    511.18587    335.68059   -404.41505    36341.856 
  501300    299.92915   -1503.9149    510.68612    363.01746   -269.84711    36341.856 
  501400    289.32557   -1471.9782    525.74142    362.06129   -114.25836    36341.856 
  501500    293.89564   -1450.4594    508.42371    386.92777   -237.32428    36341.856 
  501600    298.80724   -1454.6673    548.75071    445.25651   -358.48673    36341.856 
  501700    298.92855   -1479.0066    489.21542    361.93046   -549.25009    36341.856 
  501800    307.56025   -1482.7516    531.21115    439.21277   -299.70097    36341.856 
  501900    296.30212   -1474.8827    500.16091    365.12351   -240.39383    36341.856 
  502000    308.06373   -1488.6398    468.85114    373.24133   -209.62363    36341.856 
  502100    291.03661   -1497.2815    524.17223    342.92592    -502.5406    36341.856 
  502200    297.38473    -1511.772    533.90651    366.87517   -428.44811    36341.856 
  502300    308.23093   -1460.3891    527.42187    460.81878     385.9416    36341.856 
  502400    290.21793   -1503.0104    520.36113    329.68396    775.39455    36341.856 
  502500    299.40193   -1508.8188    517.66247    362.70593    801.93943    36341.856 
  502600    292.25323   -1546.3087    487.53868    262.76659    684.93596    36341.856 
  502700    297.61593   -1473.3444    524.42582    396.86758    745.39237    36341.856 
  502800    302.05648   -1481.4491    542.45378    426.87052    389.01149    36341.856 
  502900    309.04129   -1501.3406    511.64807     407.7578    449.88021    36341.856 
  503000    307.86158   -1486.1603    529.83764    435.79313    34.309605    36341.856 
  503100     308.0377   -1472.5646    514.20796    434.55556    303.67162    36341.856 
  503200    296.82437   -1491.1224    535.57644    386.66079   -536.67967    36341.856 
  503300    309.00348   -1486.5196    493.54715    404.30689    392.77615    36341.856 
  503400     300.5781   -1521.9432    512.49124    349.72883    263.59451    36341.856 
  503500    299.60221   -1510.3788    506.11624     350.5054    44.873022    36341.856 
  503600    295.17887   -1472.9653    501.89549     363.6962   -144.53736    36341.856 
  503700    297.53537    -1465.031    513.47889    393.86977    -23.05155    36341.856 
  503800    301.81326   -1461.0334    515.68474    419.41733   -427.75529    36341.856 
  503900     305.4868   -1452.6076    501.06077     429.8305   -533.09169    36341.856 
  504000    305.73824   -1474.5534    503.48448    411.44544   -195.96523    36341.856 
  504100    304.14002   -1480.5027    506.46612    401.25077   -69.927428    36341.856 
  504200    300.45321   -1504.1316    525.49579    379.98019    23.023437    36341.856 
  504300    302.21233   -1530.2481     502.0927    338.41519    393.53411    36341.856 
  504400    288.17128    -1476.161     522.2708    349.18826    81.363844    36341.856 
  504500    298.84865   -1477.4534    514.47494    388.38191   -32.169947    36341.856 
  504600    301.17561   -1487.3687    514.56707    389.08095   -79.981969    36341.856 
  504700    294.80608   -1475.1169    506.43176    364.39513   -535.83716    36341.856 
  504800    302.01176   -1468.9753    525.84401    422.53232    211.22016    36341.856 
  504900    299.23636   -1497.0355    521.85891    377.93696    780.10222    36341.856 
  505000    297.88052   -1515.0851    494.71479    326.61229    441.46527    36341.856 
  505100     303.8486   -1499.4083    534.05027    408.61152    184.59351    36341.856 
  505200    303.08492   -1505.6972    486.69854    351.51771    385.94235    36341.856 
  505300    302.89559   -1524.1539    513.09443    358.60073    413.38738    36341.856 
  505400    301.22256   -1497.0975    523.06422     388.0617   -296.91323    36341.856 
  505500     299.6331   -1482.4146    503.32643    375.81937    -493.5959    36341.856 
  505600    301.33041   -1519.2415    504.50621    347.84733   -34.754696    36341.856 
  505700    302.92055   -1553.0869    501.00836    317.69452   -447.91654    36341.856 
  505800    297.56705   -1531.5451     506.7685    320.78856    222.27702    36341.856 
  505900    296.67001   -1476.5251    491.52892     356.5126    112.46686    36341.856 
  506000    306.23012   -1486.4991    522.29457      420.534    962.41574    36341.856 
  506100    304.72637   -1530.0187    516.04831    363.96843    770.71498    36341.856 
  506200    299.65255   -1529.1939    496.89383    322.69549    69.997234    36341.856 
  506300    295.96444   -1590.2622    495.74705    243.80319    347.57075    36341.856 
  506400    304.06636   -1548.9583    509.63547    335.63144    503.53978    36341.856 
  506500    294.57972   -1506.2446    489.96986    315.78203    110.96068    36341.856 
  506600     298.9365   -1540.2552    505.66244     317.1649   -746.34744    36341.856 
  506700    301.26054   -1521.4554    488.30842    329.11968   -76.070914    36341.856 
  506800    307.30455   -1521.0506    515.75808    384.30444   -575.36072    36341.856 
  506900    302.26478   -1588.4009    517.56767     295.9745   -417.70732    36341.856 
  507000    304.42899   -1543.0628     480.0589    313.59019     -49.8919    36341.856 
  507100    296.93307   -1539.7808    512.96239    315.87989     -374.546    36341.856 
  507200    306.82984   -1572.2615     510.4616    325.65056   -182.72236    36341.856 
  507300    301.02183   -1544.5546    505.28261     321.9153    90.131217    36341.856 
  507400    314.96967   -1534.9808    488.35824    377.63526    765.39653    36341.856 
  507500    293.64824   -1511.1326    492.34547    309.05753    544.14958    36341.856 
  507600    293.55505   -1534.5806    500.03463    292.87733    240.96083    36341.856 
  507700    284.96605   -1522.3194    503.15373    269.41911    79.133542    36341.856 
  507800    307.90227   -1542.5102    479.43971    329.22934    104.72573    36341.856 
  507900    295.12559   -1526.7242    536.62955    344.43046    307.82684    36341.856 
  508000    299.36255   -1526.8358    473.72496     300.5733    61.819033    36341.856 
  508100    293.80219   -1507.7529    485.05054    305.83845   -219.63765    36341.856 
  508200    301.20027   -1493.8576    503.59692    371.73349   -616.71105    36341.856 
  508300    288.14127   -1513.1843    524.34261    314.10112     31.89368    36341.856 
  508400    304.86798   -1551.1774    496.19134     323.5931   -25.757236    36341.856 
  508500    305.31538    -1563.548    517.96988    335.02413    350.70491    36341.856 
  508600    304.70291   -1544.3397    512.16509    345.65804    365.86708    36341.856 
  508700    297.15436   -1550.8012    493.44809    286.34587   -586.69185    36341.856 
  508800    308.35551   -1540.8713    471.70024    325.17825   -571.10591    36341.856 
  508900    296.12888   -1590.9048    528.56878     276.7258   -1044.2202    36341.856 
  509000    308.21078   -1543.9531    478.01642    327.75819   -1170.6444    36341.856 
  509100    299.70164   -1555.5171    502.26763    301.96805   -650.53131    36341.856 
  509200    307.33497   -1571.7296     496.4982    314.50323   -452.39707    36341.856 
  509300    300.07358   -1553.5989    498.15379    301.45431    308.69489    36341.856 
  509400    289.30212   -1557.6248    480.43976    231.00701     10.32761    36341.856 
  509500    294.96674   -1539.2093    517.58291    312.18038    705.76086    36341.856 
  509600    304.98442   -1541.9879    509.60731    346.72501    575.49522    36341.856 
  509700    298.50099   -1501.6562     493.3857    341.51781    94.794535    36341.856 
  509800    300.90954   -1528.2338    502.78536    335.23103    714.92776    36341.856 
  509900    308.44227   -1543.2544    512.64391    364.13122     822.1658    36341.856 
  510000    292.86412   -1506.8725    480.14176    297.56824     729.8954    36341.856 
  510100     294.7445    -1493.549    512.18791    351.44075    187.46381    36341.856 
  510200    304.95474   -1540.9718    509.77789    347.77753    432.34358    36341.856 
  510300     293.0703   -1567.9719    521.66654    278.92591     124.3166    36341.856 
  510400    296.46664   -1543.4599    496.53279    293.66207    683.27628    36341.856 
  510500    308.20998   -1556.1028    509.56842    347.15694    209.29522    36341.856 
  510600    296.07452   -1506.3134     490.1255    322.62818    137.82909    36341.856 
  510700    308.91638   -1517.0415     511.7448    391.58883    55.770439    36341.856 
  510800    292.46527   -1541.2919    486.03448    267.23796   -64.744532    36341.856 
  510900    300.75572   -1534.0699    512.09749    338.01149    440.03831    36341.856 
  511000    291.69455   -1532.3705    490.12124    276.76105    -289.4425    36341.856 
  511100     310.0616   -1571.8981    479.50742    309.67337      196.669    36341.856 
  511200    290.43372   -1549.7203    484.75085    248.33961   -204.58851    36341.856 
  511300    309.41681   -1536.9322    481.08894    343.30516   -113.19302    36341.856 
  511400    297.48099   -1563.6571    489.49393    271.01284   -118.48676    36341.856 
  511500    301.19015   -1585.0852    500.70453    277.56773    -334.7328    36341.856 
  511600    298.82207   -1575.3676    504.17667    280.04924    49.546025    36341.856 
  511700    301.42696   -1577.6849    516.68713    302.02146    481.60324    36341.856 
  511800    295.94412   -1541.0835     520.2491    317.39202    54.948008    36341.856 
  511900    300.42025   -1520.8184    510.89373     348.5423   -237.70281    36341.856 
  512000    308.55142   -1505.2286    511.57369     401.5803   -24.393802    36341.856 
  512100    285.28443   -1549.6377     486.0313    226.41804   -554.67338    36341.856 
  512200    296.74679   -1547.9729    479.78888    273.67194   -247.61923    36341.856 
  512300    304.17869   -1546.7694     504.0139    332.70675   -675.67665    36341.856 
  512400    292.51393   -1521.8358    506.94859    307.82822   -315.78585    36341.856 
  512500    313.39538   -1488.8853    532.76149    461.01524    515.77205    36341.856 
  512600    305.35743   -1541.7453    485.99901    325.04602     244.8553    36341.856 
  512700    298.81958   -1527.5244    509.44353    333.14808    523.74165    36341.856 
  512800     305.5316   -1500.3119    496.94992    378.21795    270.70418    36341.856 
  512900    311.13623   -1507.4214    476.21953    375.72162    51.895884    36341.856 
  513000    302.58102   -1507.9742    520.28244      380.546   -162.12126    36341.856 
  513100    296.58695    -1539.946    466.66819     267.8554   -443.45164    36341.856 
  513200    302.78123     -1526.61    495.55458    338.08761   -824.53778    36341.856 
  513300     291.8626    -1516.943     495.4359    298.26314   -832.50974    36341.856 
  513400    306.69769    -1502.615    515.76331    400.00117   -770.27379    36341.856 
  513500    305.97693   -1512.8022    474.64492     345.4364     107.6924    36341.856 
  513600     298.9084   -1506.2053    501.04334    346.46862   -94.636177    36341.856 
  513700    289.45733   -1548.7913    508.84203     268.9446   -414.75707    36341.856 
  513800    298.59608   -1536.4311    490.70141    304.48856   -206.14636    36341.856 
  513900    312.11783    -1544.795    493.11192    359.67909   -311.65357    36341.856 
  514000    288.14963   -1502.2485    517.58656    318.31871    -694.2858    36341.856 
  514100    295.09605   -1515.1967    493.28907    312.48395   -691.39682    36341.856 
  514200    310.05547   -1532.3222    475.26782    344.98202   -249.49114    36341.856 
  514300    302.90407    -1509.283    521.52107     381.9366   -216.12575    36341.856 
  514400    299.02802   -1526.4968    484.02887    309.70358   -76.912135    36341.856 
  514500    303.05885   -1505.2455    517.24793    382.40088    385.56771    36341.856 
  514600    303.39138      -1547.2    500.57027    325.27234    468.64269    36341.856 
  514700     304.2345   -1569.6812    491.20473    297.23816    72.145994    36341.856 
  514800    292.85479   -1551.5274    502.72906    275.45846   -409.42366    36341.856 
  514900    294.06476   -1552.9919     498.1925    274.92871   -16.397471    36341.856 
  515000    289.94252    -1538.899    497.16437    269.35324   -542.67674    36341.856 
  515100    300.49125   -1549.5156    459.43618    268.70863    -119.5786    36341.856 
  515200    307.09071   -1558.5073    485.58726       315.71   -31.747408    36341.856 
  515300     294.3111   -1576.2041    502.80285    257.44086   -27.971511    36341.856 
  515400    301.07211   -1579.6409    507.31905    289.09281    1012.0833    36341.856 
  515500    298.29142   -1546.7983    484.82339    286.86575    280.70561    36341.856 
  515600    307.73225   -1504.9306    517.67462    404.27502    345.47726    36341.856 
  515700    310.56713   -1523.4796    488.46344    369.33386     163.2446    36341.856 
  515800    302.80527   -1529.0834    468.13159    308.29995    -37.65214    36341.856 
  515900     300.3043   -1521.1936      493.819    330.56808   -516.82776    36341.856 
  516000    303.83377   -1522.2664    509.78902    361.42517   -414.18718    36341.856 
  516100    311.81566   -1518.2295    494.39982    386.16611   -245.77888    36341.856 
  516200    307.85861   -1519.9148    496.45931    368.64694   -514.50206    36341.856 
  516300    300.71327   -1495.9383    488.12609     351.9798    100.82027    36341.856 
  516400    299.03199   -1544.9725    514.93096    322.14792   -190.57185    36341.856 
  516500    302.17048   -1495.5577     496.7285    367.55217   -485.32174    36341.856 
  516600    296.97661   -1474.2738     502.6467    371.26808   -362.79476    36341.856 
  516700    315.37542    -1436.605    533.68704    523.17459    45.713859    36341.856 
  516800      306.766   -1484.3481    485.60695    388.42057    273.74727    36341.856 
  516900    303.10264   -1489.1932     528.5395     409.9427   -8.2256632    36341.856 
  517000    295.80145   -1511.9827    495.32742      320.926   -331.50828    36341.856 
  517100    309.52134   -1510.7855    492.95804    381.79369   -83.634564    36341.856 
  517200    305.67185   -1438.1435    519.35726    463.42794   -584.40487    36341.856 
  517300    304.23913   -1484.3629    503.86849    395.24113    61.713742    36341.856 
  517400    306.56009    -1485.149    499.18939    400.27102    470.54938    36341.856 
  517500    309.17938   -1505.7164    506.56627    398.92468     947.9536    36341.856 
  517600    303.91625   -1527.4384    531.30119    378.13831    890.57081    36341.856 
  517700    306.41004   -1490.8007    510.67715    405.42856    976.48346    36341.856 
  517800    287.54194   -1508.5294    497.30062    289.00391    323.60487    36341.856 
  517900    292.42913   -1420.9124    521.18808    422.60769   -285.55889    36341.856 
  518000    292.41203   -1455.5611    486.38851    353.08214   -221.46557    36341.856 
  518100    296.60981    -1479.724    490.55282    352.06539   -361.05183    36341.856 
  518200    291.87624   -1480.8658    521.86998     360.8361    246.46427    36341.856 
  518300    297.02453   -1496.9124    491.77094    337.97048    173.05943    36341.856 
  518400    301.42719   -1491.8627    518.54225    389.69981   -290.75452    36341.856 
  518500     309.7202   -1463.5394    540.62438    477.60529    339.34007    36341.856 
  518600    299.53974   -1479.6849    512.71012    387.51065    21.590909    36341.856 
  518700    288.41988   -1480.8428    490.77543    314.13529    813.65608    36341.856 
  518800    303.97072   -1535.3999    522.24673    361.36863    19.825825    36341.856 
  518900    296.61152   -1544.3514    472.34634    269.23923   -495.36613    36341.856 
  519000    297.76156   -1524.8726     520.5061    342.07817   -389.10527    36341.856 
  519100    298.06183   -1549.0232     489.7895    288.56878   -325.64496    36341.856 
  519200    297.92769     -1570.04    479.06976    256.22563    13.186928    36341.856 
  519300    299.83981   -1533.1987      493.871    316.51458   -105.81246    36341.856 
  519400    297.49084   -1546.2367    486.29828    285.28205   -295.11762    36341.856 
  519500    301.71188   -1494.8881    527.50195     396.9214    108.36223    36341.856 
  519600    304.85553   -1508.2655    516.86012    387.11744    223.88122    36341.856 
  519700    297.67647     -1561.85    506.53342     290.7433   -107.28408    36341.856 
  519800    306.96921   -1557.4965    484.38454    314.96867    -75.59092    36341.856 
  519900    302.51622   -1558.1873    497.17443    306.93183   -266.69519    36341.856 
  520000    295.46012   -1533.8182    483.80917    286.02879   -152.88225    36341.856 
  520100    302.30814   -1512.0572    494.99004    349.93663    253.92278    36341.856 
  520200    291.98762   -1502.9968    512.95995    330.29872    22.702274    36341.856 
  520300    303.72793   -1445.0668    500.36943    428.72659   -167.33513    36341.856 
  520400    301.11528    -1518.875    485.69863    328.43348   -441.74576    36341.856 
  520500    309.49749   -1509.3429    483.50275    373.67307   -334.88007    36341.856 
  520600    293.31128   -1514.0142     497.8457    310.15254   -174.94213    36341.856 
  520700     304.3295   -1567.8402    509.06008    317.36409   -454.91051    36341.856 
  520800    298.37237   -1504.1645    503.64815     348.6904   -171.83143    36341.856 
  520900     298.6446   -1504.3185    475.54079    321.65999   -201.97089    36341.856 
  521000    319.37602   -1500.9954    490.14547    433.33294   -254.92275    36341.856 
  521100     295.3577   -1528.6282    498.94767    305.89415   -160.79097    36341.856 
  521200     307.3938   -1485.2559    514.36138    419.10605   -432.44816    36341.856 
  521300    293.85419   -1488.0433    477.90554    318.63818   -572.73253    36341.856 
  521400    297.03422   -1506.8231     486.0728    322.40537   -459.54774    36341.856 
  521500    307.80014   -1504.0197    511.86506    399.68338   -231.64102    36341.856 
  521600    309.47886   -1468.4035    508.17663    439.20219   -284.49947    36341.856 
  521700    298.27128   -1486.2908    512.40996     374.8688    115.59443    36341.856 
  521800    291.68471   -1516.4622    507.42903    309.93265   -668.97864    36341.856 
  521900    282.82937   -1507.2621    513.12603    284.78687    159.86676    36341.856 
  522000    295.15149   -1470.9812    490.40345    354.06452    300.99122    36341.856 
  522100    305.03287     -1474.92    521.12808    425.53281    -92.67673    36341.856 
  522200     296.5078   -1488.2568    495.05068    347.56921    -190.0918    36341.856 
  522300    302.12977    -1448.877    506.71858    424.03887   -120.77873    36341.856 
  522400     291.6311   -1546.7371    495.44854    267.43491   -571.43389    36341.856 
  522500    301.84613   -1502.9454    483.06924    345.03846   -61.790731    36341.856 
  522600    299.78423   -1467.8686    501.70962    389.43193     179.8709    36341.856 
  522700    293.25686   -1491.0349    507.87319    342.91325    65.388413    36341.856 
  522800    301.16916   -1503.1745    482.35925    341.03815    536.36782    36341.856 
  522900    306.91072   -1502.8854    518.63279    403.56358    809.05607    36341.856 
  523000    304.60866   -1511.6437    490.55292    356.31569    368.27987    36341.856 
  523100     299.6274   -1487.9437    496.93009    363.86821    46.486871    36341.856 
  523200    299.24887   -1456.7933    512.53939    408.91622    242.61835    36341.856 
  523300    304.10549   -1497.1319    501.96153    379.96081   -154.37951    36341.856 
  523400    294.78578    -1477.815    496.69244      351.866    61.466712    36341.856 
  523500    297.70744   -1486.7353    498.09229    357.55696    -12.58411    36341.856 
  523600    304.80231   -1501.0237     464.1872    341.44562   -229.78537    36341.856 
  523700    300.58014   -1536.4738    505.92931    328.64552   -711.51015    36341.856 
  523800    296.55286   -1534.8797    465.14513    271.24448   -581.84253    36341.856 
  523900    307.66218   -1568.6053    503.23351    325.84241    232.39655    36341.856 
  524000    304.97315   -1546.8412    480.80353    313.01704    159.76313    36341.856 
  524100    294.94545   -1461.8912    519.83682    391.65612    179.12676    36341.856 
  524200    291.44288   -1469.2086    505.93392    354.59765    23.154069    36341.856 
  524300    294.36174   -1511.3032    521.79663    341.56449    283.01399    36341.856 
  524400    297.03465   -1471.0331    493.89632    366.02086   -144.48243    36341.856 
  524500     308.5574   -1474.7603    494.11637    414.61833   -204.49003    36341.856 
  524600     289.8349   -1507.2963    465.77758     269.0825    -572.3331    36341.856 
  524700    303.13944   -1510.1637    499.40377    360.00289    4.2659004    36341.856 
  524800    301.97131    -1512.746    489.08394    341.81865   -236.49316    36341.856 
  524900    309.71417   -1478.0146    520.76297    443.24144    170.89281    36341.856 
  525000    297.42335   -1498.9035    516.08846    362.10034     343.4991    36341.856 
  525100    308.96874   -1508.2628    494.50679    383.36627    493.17329    36341.856 
  525200    305.98306   -1490.3896    493.58057     386.8123    277.72368    36341.856 
  525300    302.48534   -1457.5308    493.93202    404.20634    12.168993    36341.856 
  525400    298.72602   -1533.0623    489.38888    307.13242    266.33425    36341.856 
  525500    293.22474   -1514.8292    495.36769    306.46817   -43.589077    36341.856 
  525600     317.8579   -1497.0883    493.59264    433.82246    364.55832    36341.856 
  525700    302.95473   -1541.3465    507.84481    336.42591   -327.94272    36341.856 
  525800    312.07131   -1542.3681    487.61335    356.39705   -122.15715    36341.856 
  525900    295.27979   -1519.1966    512.56171    328.58744   -158.54193    36341.856 
  526000    291.83749   -1512.1084    494.11492    301.66316   -524.10257    36341.856 
  526100    286.54698   -1480.8558    523.72633    338.60409   -566.10534    36341.856 
  526200     298.0717   -1543.9737    486.50995    290.38335   -669.44623    36341.856 
  526300    303.18939   -1532.2589    501.56704    340.29684   -597.25893    36341.856 
  526400    293.13471   -1533.1269    479.86524    272.26087   -374.61318    36341.856 
  526500    294.86982   -1519.8653    501.46862    314.97189   -410.76058    36341.856 
  526600    292.07667   -1511.9965     523.5902    332.33189    191.68883    36341.856 
  526700    295.40596   -1542.7641    489.77524    282.80409    241.39171    36341.856 
  526800    310.28602   -1496.5666    508.08132    414.59361    351.58629    36341.856 
  526900    293.46094   -1532.4847    499.33502    293.84804    -66.20749    36341.856 
  527000    309.16425   -1524.2748    509.08546    382.81702    45.786434    36341.856 
  527100     301.7194   -1556.7229    518.87909    326.49775   -482.69737    36341.856 
  527200    303.47552   -1556.4366    488.63263    304.47864   -624.00993    36341.856 
  527300    294.60637   -1532.9137    505.85991    305.12346   -437.14512    36341.856 
  527400    295.32504   -1532.1949    492.43752    295.66963    -433.7598    36341.856 
  527500    301.85769   -1548.0738    486.62064    303.51375   -272.55404    36341.856 
  527600    306.58849   -1536.4165    502.89622    352.83886   -229.90047    36341.856 
  527700    305.71425    -1546.629    496.34793     332.1248   -852.36437    36341.856 
  527800     293.3332   -1519.4988    480.71344    287.63477   -939.56739    36341.856 
  527900    301.38107   -1510.9847    495.61611    347.44309   -511.58046    36341.856 
  528000    297.69002   -1534.0462    530.77514    342.85012   -855.46471    36341.856 
  528100    302.92113   -1501.6818     510.2214    378.31533   -303.09622    36341.856 
  528200    292.07221   -1501.4772    502.97611    322.21695     167.9663    36341.856 
  528300    293.61175   -1493.7291    500.93755    334.88812    554.89575    36341.856 
  528400    303.84389   -1516.0037    516.00978     373.9544    262.64187    36341.856 
  528500    294.28705   -1542.3348    493.44637    281.84487   -61.568799    36341.856 
  528600    292.90383   -1537.1987    488.78503    276.06485   -53.300757    36341.856 
  528700    303.60914   -1539.2537    508.81606    342.44916     99.86143    36341.856 
  528800    300.97266   -1530.8599    480.39808    310.50307    255.96514    36341.856 
  528900    308.54204   -1570.1477     491.2611    316.30622    630.42674    36341.856 
  529000    308.37784   -1550.9799    516.03562    359.50602    736.48749    36341.856 
  529100    285.50502   -1542.7017    522.78294    271.10326      255.995    36341.856 
  529200    304.18969   -1538.5744    520.84074    357.77833   -76.617311    36341.856 
  529300    304.43656   -1512.4526    485.86468    350.04034    247.52264    36341.856 
  529400    299.92976   -1536.7698    522.34587    341.82507    145.40056    36341.856 
  529500    294.94977   -1509.0609    495.98791     320.6571   -65.277024    36341.856 
  529600    303.22741   -1521.7298     490.9152    340.34606    82.329418    36341.856 
  529700    308.91714   -1512.5732    500.43146    384.74719   -152.71554    36341.856 
  529800    304.07855   -1538.0423    491.56577    328.53292    45.013298    36341.856 
  529900    294.00953   -1479.8397    517.17726    366.81601   -87.413373    36341.856 
  530000    304.69516   -1514.8657     518.9264     381.8583   -37.938556    36341.856 
  530100    296.34775    -1493.167    528.87806    375.76259   -4.5919961    36341.856 
  530200    304.78843   -1472.4927    496.79249    402.51914    17.175617    36341.856 
  530300    297.75561   -1447.3704    544.48524     443.5326    -8.313756    36341.856 
  530400     294.7268   -1460.0161    523.07495    395.78068    154.53831    36341.856 
  530500    302.49809    -1534.168    501.37441    335.06918     548.9773    36341.856 
  530600     301.2425   -1505.4285    483.14033    339.89691    384.34116    36341.856 
  530700    300.57967   -1555.1552    475.14298    279.17563  -0.72578753    36341.856 
  530800    300.69755   -1522.6459    514.53261    351.60754   -350.93892    36341.856 
  530900    305.79704   -1525.4571    508.19774    365.52089    475.62495    36341.856 
  531000    294.72155   -1486.8864    502.06099    347.87263    611.38512    36341.856 
  531100    305.71719   -1459.6111    504.95181    427.75991    195.01388    36341.856 
  531200    293.68528   -1514.2576    508.87385    322.62842   -791.73301    36341.856 
  531300    301.93062   -1518.1704    488.78078    335.90703   -627.90294    36341.856 
  531400    298.96803   -1550.2591    510.20064    311.84174   -1081.5672    36341.856 
  531500    294.72186   -1548.8973    495.20488    279.00707   -1407.6737    36341.856 
  531600    315.60324   -1548.7645    488.87128    367.22948   -795.34236    36341.856 
  531700    300.77648   -1498.8788    502.18872    363.38774    204.39802    36341.856 
  531800    301.95749   -1568.2166    490.17113    287.37278    513.12624    36341.856 
  531900    303.31992   -1581.4448    491.54014    281.67431    731.64716    36341.856 
  532000    297.37031   -1533.9109    506.31136    317.07597    288.51274    36341.856 
  532100     312.5128   -1562.0517    485.43683     336.5333    86.239452    36341.856 
  532200    291.84777   -1576.9693    506.04899    248.78285   -231.51348    36341.856 
  532300    300.91799   -1537.8583    501.71938    324.57875   -305.12761    36341.856 
  532400    293.24395   -1557.6744     499.1439    267.48606   -736.20984    36341.856 
  532500    301.87685   -1576.4417    473.56389    262.17574   -952.83848    36341.856 
  532600    298.05414   -1530.9797    482.33428    299.12228   -839.50052    36341.856 
  532700    301.12517   -1525.2956    482.44024     318.7992   -565.69267    36341.856 
  532800    303.71254   -1497.7137    495.52668    371.16738   -676.32857    36341.856 
  532900    305.30834   -1528.8438    511.56857    363.29511   -27.829993    36341.856 
  533000    302.40249   -1490.5907    515.28129    392.12102    138.54897    36341.856 
  533100    297.45724   -1502.3471    524.46354    367.18505    637.44089    36341.856 
  533200    294.69291   -1530.8442    481.76872    283.49307   -120.76761    36341.856 
  533300    308.93287   -1526.7779    489.86339    360.04555    728.89828    36341.856 
  533400    294.51476   -1496.6527    498.25424    333.36455   -163.46102    36341.856 
  533500    301.19865   -1528.6975    510.04038    343.32967   -220.90026    36341.856 
  533600    300.10337   -1568.0476    483.26257    272.24903    518.41133    36341.856 
  533700    297.43766   -1531.0725    526.10216    340.00969    359.83016    36341.856 
  533800     299.9123   -1528.9308    492.31568      319.555    8.0494045    36341.856 
  533900    291.72975   -1525.0271    515.16858    309.31095    581.04136    36341.856 
  534000    291.04208   -1482.4757    535.05701    368.64126    263.84173    36341.856 
  534100    297.99976   -1508.1248    494.47479    333.87177   -101.54792    36341.856 
  534200     301.6748   -1529.8826    505.14084    339.39813   -102.62377    36341.856 
  534300    290.69877   -1503.7372    504.16214    314.93246    135.12865    36341.856 
  534400    294.76821   -1523.1647     494.4992    304.24359   -640.41466    36341.856 
  534500    290.98166   -1527.2023    487.73331    276.31774   -575.70664    36341.856 
  534600     307.4564   -1492.7283    508.25231    405.80767    153.15512    36341.856 
  534700    305.07406   -1474.8725    488.18733    392.82581   -51.827359    36341.856 
  534800    299.30548   -1496.9303    506.60295    363.09874   -17.082058    36341.856 
  534900    303.88488   -1514.0321    478.05863    338.16013    -56.27417    36341.856 
  535000    293.53494   -1515.4759    544.75802    356.61446   -113.74459    36341.856 
  535100    298.91579    -1491.227    507.20257    367.63958    279.70485    36341.856 
  535200    307.86867    -1487.485    498.25501    402.91789    466.96882    36341.856 
  535300    313.65298   -1499.1137    514.86123    434.05144    191.38501    36341.856 
  535400    287.98356   -1511.6346    523.14552    313.74057    554.74065    36341.856 
  535500    289.73291   -1524.5761    477.65058    263.21448    246.46188    36341.856 
  535600    295.44712   -1568.0085    523.80888    291.77948   -25.515387    36341.856 
  535700     291.6993   -1565.3457    485.15731    238.84344    396.35999    36341.856 
  535800    292.88253   -1530.1601    500.28705    294.50915   -423.22992    36341.856 
  535900    300.00942   -1517.0416    511.75031    351.31797   -6.0300213    36341.856 
  536000     299.9407    -1549.359    493.57893    300.51847    227.82873    36341.856 
  536100    291.63996    -1544.647    493.00002    267.11649    231.76193    36341.856 
  536200    291.41605   -1488.4085    533.50375    362.84622    283.86769    36341.856 
  536300    301.83618   -1487.1266    520.07014    397.81325    582.39999    36341.856 
  536400    293.60255   -1480.6316    509.35414    356.36068    641.85261    36341.856 
  536500    296.71035   -1533.5665    512.06192    320.18667    162.94437    36341.856 
  536600    305.63722   -1504.9544    523.36174    400.46488   -58.456758    36341.856 
  536700    306.35362   -1518.9285     517.3554    383.72387    129.86536    36341.856 
  536800    296.70684   -1504.0416    500.53439    338.16818    543.21385    36341.856 
  536900    299.89861   -1450.6346     510.2133    415.68688     149.9454    36341.856 
  537000    304.69943   -1476.3369    475.49163     376.9717    177.90903    36341.856 
  537100    292.73559   -1462.3395    506.00526    367.38356   -54.769363    36341.856 
  537200    291.64075   -1461.9232     506.3771    363.22098     47.39925    36341.856 
  537300    307.62574   -1468.7991    507.16767    429.41793    319.83294    36341.856 
  537400    300.43702   -1436.0505    496.10824    418.60056    861.31842    36341.856 
  537500    285.19673   -1453.9007    513.35076    349.07793    95.038831    36341.856 
  537600    292.34272   -1451.6934    506.52247    376.77039    48.716542    36341.856 
  537700     305.1147    -1498.904    499.57492    380.36573    345.64233    36341.856 
  537800    292.22421   -1487.7073    523.82655    357.52465    -276.0567    36341.856 
  537900    292.92261   -1485.6943    496.72354    335.59274   -285.40163    36341.856 
  538000    292.88404   -1487.0992    516.84117      354.131   -111.75574    36341.856 
  538100    307.22149   -1476.8815    492.53156    404.87149    98.940175    36341.856 
  538200    305.78615   -1490.5293    488.74791    380.94963    104.94281    36341.856 
  538300    306.57651   -1541.3949    498.89319     343.8032    -548.7531    36341.856 
  538400    293.93328   -1492.4485    510.42959    347.11474   -205.97668    36341.856 
  538500    296.09761   -1494.9268    512.12128    356.11494   -48.120256    36341.856 
  538600    302.66222   -1485.6741    511.19124    394.12208    189.29021    36341.856 
  538700    296.82949   -1495.9446    505.74844    352.03385    141.45571    36341.856 
  538800     303.5988   -1531.6055    483.87461    325.10907    428.40897    36341.856 
  538900    294.17506   -1573.6838    522.76023    279.30338    280.99912    36341.856 
  539000    294.00849   -1511.9842    502.31255      319.802    597.44447    36341.856 
  539100    300.77481   -1513.7425    520.14624    366.47396    534.59132    36341.856 
  539200    304.08232   -1537.7045    487.99367    325.31559    67.105161    36341.856 
  539300    291.63116   -1528.1791    527.21647      317.761   -252.12703    36341.856 
  539400    292.33455   -1530.2694    490.75719    282.39213   -549.52363    36341.856 
  539500    297.89043    -1558.203     485.4475    274.27194   -694.24249    36341.856 
  539600    288.41721   -1554.7748    463.59151    213.00723   -154.37242    36341.856 
  539700    315.87301    -1547.974    490.35103    370.71968   -84.525095    36341.856 
  539800    299.43494   -1585.0086    486.78864    255.79156     74.19767    36341.856 
  539900     307.6874   -1546.2752     486.6289    331.68194    284.82853    36341.856 
  540000    294.77599   -1550.7553    479.55966    261.74861    222.97325    36341.856 
  540100    300.02734    -1531.803    492.57917    317.46645   -434.75994    36341.856 
  540200    296.28804   -1540.5743    509.81678    309.02405    -969.0698    36341.856 
  540300    302.59864   -1536.5875    482.43066    314.16059   -752.51652    36341.856 
  540400    306.59899   -1496.1164    503.81626    394.10645   -108.71289    36341.856 
  540500    298.79971   -1504.5869    499.75689    346.30907   -18.351989    36341.856 
  540600    294.31412   -1508.0076    501.32521    324.17333    293.71742    36341.856 
  540700    301.14092   -1511.4524    512.34456    362.61793    243.30858    36341.856 
  540800    308.46898   -1521.1719    506.59499     380.2855    532.55183    36341.856 
  540900    303.39628   -1552.2196    477.60002    297.30465    513.85249    36341.856 
  541000    309.00844   -1521.0848    517.21579    393.43282    125.60144    36341.856 
  541100    307.90525   -1568.3772    499.64376    323.57991     113.0297    36341.856 
  541200    302.56262    -1557.519    495.79508    306.43063    750.65206    36341.856 
  541300    297.06317   -1520.8575    503.98199    326.41114    357.36386    36341.856 
  541400    303.78602   -1525.2758    509.85752    358.26832   -829.31951    36341.856 
  541500     298.2919   -1484.6308    518.72749    382.93953   -380.99991    36341.856 
  541600    307.66781   -1523.9822    477.05626     344.3137   -419.71601    36341.856 
  541700     293.5211    -1509.909     505.2184     322.5792   -415.60096    36341.856 
  541800    301.81891   -1499.9118    525.04082    389.92056   -294.12581    36341.856 
  541900    310.40318   -1507.1366    512.23074    408.70282   -427.75312    36341.856 
  542000     291.0757    -1513.299    511.36331    314.27631   -217.76161    36341.856 
  542100    289.30663     -1507.66    540.02641    340.57877    232.88835    36341.856 
  542200     299.8911   -1541.8175    501.79774    316.05448    209.10354    36341.856 
  542300    302.11232   -1519.4708    538.33034    384.97785    734.50137    36341.856 
  542400    301.05286   -1550.2618    503.75365     314.8194    522.15179    36341.856 
  542500    306.67915   -1546.0544    503.12807    343.84265    100.82493    36341.856 
  542600    298.91683   -1532.3406    485.19835    304.52645   -47.515091    36341.856 
  542700    296.87812   -1530.1425    482.81408    295.12147    77.905835    36341.856 
  542800    302.41085   -1514.7621    527.88049    380.58666    -215.5432    36341.856 
  542900    309.48001   -1510.4894    513.70435     402.6491    384.09043    36341.856 
  543000     299.6277   -1512.0454    448.15172    290.98947   -49.993323    36341.856 
  543100    298.57024    -1505.488    536.12103     380.7345   -342.64172    36341.856 
  543200    299.26367   -1497.9274    491.82163    347.13126    126.73031    36341.856 
  543300    307.35432   -1527.5459    496.92655    359.20274    413.24702    36341.856 
  543400    300.07609   -1547.9015    500.91172    309.92092    147.69564    36341.856 
  543500    303.46523   -1544.4411    504.66428    332.45919    230.05007    36341.856 
  543600    300.81566   -1547.0758    495.25842    308.43761    179.97112    36341.856 
  543700    298.10785   -1525.1964    488.98521    311.79935    -29.66898    36341.856 
  543800    309.81476   -1535.3808    481.60448    347.17156    410.08701    36341.856 
  543900    306.06279   -1511.4997    482.03913    354.52132    498.80997    36341.856 
  544000    294.60683   -1539.3878    503.75491    296.54646    207.09754    36341.856 
  544100    295.51677   -1512.5388    498.59999    322.35517    209.15329    36341.856 
  544200    304.86074   -1519.7802    512.59288    371.35904   -181.98838    36341.856 
  544300    284.18135   -1519.3739    482.37581     248.0384   -830.26903    36341.856 
  544400    296.99848   -1544.5787    472.88058    271.29603   -123.83174    36341.856 
  544500    304.73859   -1536.5607     499.0521     340.4854   -385.46474    36341.856 
  544600    293.59154   -1469.2831    503.44234     361.7475   -399.71661    36341.856 
  544700    299.69117   -1477.0067    492.21356    370.37704   -521.88911    36341.856 
  544800     307.5364   -1526.1555    461.56734    326.05722   -15.543845    36341.856 
  544900    300.17672   -1531.6658    490.47282    316.17277   -101.23293    36341.856 
  545000    289.39833   -1519.9691    525.97217    314.63016    291.25375    36341.856 
  545100    292.75959   -1534.0349    518.00539    307.79685    112.64223    36341.856 
  545200    290.41077   -1515.6636    492.85246    290.39415   -257.85467    36341.856 
  545300    308.59239   -1468.7704    509.30766    435.95777    3.9693994    36341.856 
  545400    294.91445   -1494.8755    505.57913    344.27401   -530.43473    36341.856 
  545500    299.81579    -1488.553     516.1036     383.2843   -523.76289    36341.856 
  545600    294.69417    -1465.249      534.448    401.77327   -1098.3215    36341.856 
  545700    306.06128   -1500.6147     511.4891    394.84953    -728.5066    36341.856 
  545800    306.94195   -1499.7938    513.82738    401.99095   -56.682532    36341.856 
  545900    310.96396   -1541.7844     491.6588    356.01883    311.97139    36341.856 
  546000     293.9524   -1494.9344    514.89003    349.17571    436.80946    36341.856 
  546100    307.25438   -1549.0107    508.23046    348.58988    442.50634    36341.856 
  546200    293.27751   -1523.3978    503.99887     306.7694    2.6412681    36341.856 
  546300    302.88716   -1543.6098      490.671    316.68326   -528.49266    36341.856 
  546400    304.51567    -1522.163    506.21797    361.04101     15.03678    36341.856 
  546500    302.07961   -1519.0423    492.96965    339.89773   -412.68311    36341.856 
  546600    300.27987   -1522.5421    505.00393    340.29401   -422.46516    36341.856 
  546700    305.66219   -1541.2366    489.12266    330.05648   -688.33127    36341.856 
  546800     304.1466   -1512.5305    472.08728    334.87389   -488.09922    36341.856 
  546900    311.52406   -1523.1934    525.97328    411.45704   -402.34979    36341.856 
  547000    303.99591   -1475.3599    505.76351    405.03931   -799.73872    36341.856 
  547100    296.20642   -1498.6332    496.75878     337.5381   -627.12463    36341.856 
  547200    295.11302   -1437.1264    524.24788    421.58972   -39.668726    36341.856 
  547300    300.45202    -1433.173    512.73988     438.1775    255.16786    36341.856 
  547400     296.9536   -1478.1985    515.65783    380.25051    219.83576    36341.856 
  547500    305.94008   -1477.3972    513.88834    419.91815    821.35483    36341.856 
  547600    295.25934   -1485.1138    497.53656    347.55269    206.28326    36341.856 
  547700    299.41395   -1458.0419    552.06925    447.94399    607.72296    36341.856 
  547800    296.30517   -1460.6654    510.61268    389.80637    685.80809    36341.856 
  547900    294.64823   -1499.2743    515.53398    348.62627    488.35124    36341.856 
  548000    304.34823   -1493.5214    521.70082    404.40823   -90.862657    36341.856 
  548100    299.49322   -1499.0568     527.1228    382.34109    8.9676664    36341.856 
  548200    291.92634   -1471.5165    533.26278     381.8047    443.81448    36341.856 
  548300    295.92905   -1503.0505    514.80356    349.91133    -20.40177    36341.856 
  548400    290.69054   -1486.0299     531.7944    360.23483   -241.88516    36341.856 
  548500    297.21993   -1468.1343    519.67028    395.53149   -589.07215    36341.856 
  548600    303.71932   -1461.7972    529.81386    441.40167    -313.9622    36341.856 
  548700    296.53355   -1489.4029    484.66435    336.15323   -234.54402    36341.856 
  548800    300.94069   -1473.7608    523.31744    410.37702   -710.11986    36341.856 
  548900    309.61717   -1494.6368    479.55394    384.97156   -368.03011    36341.856 
  549000    295.54122    -1527.125    510.40667    319.68615   -674.21617    36341.856 
  549100    297.18419   -1537.3934    507.02198    313.46244    118.72985    36341.856 
  549200    292.75922   -1567.9417    494.40602    250.28892    94.806749    36341.856 
  549300    297.81572   -1589.7359    478.50081    235.45445    132.15924    36341.856 
  549400    295.79469   -1568.5121      485.887    254.92559    155.10647    36341.856 
  549500    286.95277   -1495.2501    497.06061      299.379   -268.43591    36341.856 
  549600    304.36461   -1551.0348    499.65156    324.91973   -104.66325    36341.856 
  549700    306.82069   -1534.7272    516.94425    369.62608   -501.32036    36341.856 
  549800    292.76181   -1556.4831    509.86991    277.22317    61.555202    36341.856 
  549900     310.9644   -1524.2119    489.35733    371.29189     232.4061    36341.856 
  550000    305.31363   -1536.4931    492.88588    336.98704    98.558992    36341.856 
  550100    292.57245   -1533.3748    504.64807    294.25341   -47.460854    36341.856 
  550200    302.19105   -1514.5118    517.58579    369.54828    92.911747    36341.856 
  550300    305.82807   -1483.3171    520.37457    419.97797   -182.28512    36341.856 
  550400    303.22999   -1510.1512    510.03675    371.05789    205.55131    36341.856 
  550500    299.95028     -1518.23     506.8328    344.94465   -140.44872    36341.856 
  550600    309.08003   -1556.8513    507.08693    347.86113   -514.67473    36341.856 
  550700    304.27403   -1540.6572    507.65619    342.89235    288.64223    36341.856 
  550800    297.04252   -1547.9905    522.20715    317.40992   -192.99765    36341.856 
  550900    297.10854   -1490.2797    502.88157    356.09369    271.86639    36341.856 
  551000    298.47917    -1498.826    530.72428    381.58794    214.26367    36341.856 
  551100    291.35914   -1537.0693    497.69332    278.11761    257.43271    36341.856 
  551200    301.35689   -1531.6961    528.11157    359.11779    490.76274    36341.856 
  551300    297.42364   -1532.4005     510.0209    322.53703   -190.86753    36341.856 
  551400     299.0126   -1530.3425    504.99914    326.75839      493.518    36341.856 
  551500    297.61712   -1519.1306    518.93181    345.59281   -71.243842    36341.856 
  551600    303.28506   -1529.9774    482.65013     324.0941    588.85284    36341.856 
  551700    295.79728   -1544.5587    507.46653    300.47024    205.13164    36341.856 
  551800    296.35474    -1536.041    487.78616    291.82836    -158.7368    36341.856 
  551900    310.05539   -1504.1393    506.94976    404.84653   -203.13358    36341.856 
  552000    304.34332   -1537.7899    498.50126    336.91805   -554.67729    36341.856 
  552100    304.31232   -1531.1195    502.71443    347.66137   -775.76275    36341.856 
  552200    298.38465   -1570.2788    468.67534    247.65877    -506.6483    36341.856 
  552300    293.53573   -1541.4194    516.72614     302.6427   -618.19427    36341.856 
  552400     297.4241   -1549.0882    510.07474    305.90531     -361.664    36341.856 
  552500    295.73578   -1529.3192    483.38707    291.35224    124.53299    36341.856 
  552600     310.4321   -1531.5914    498.60696    370.75503    448.58082    36341.856 
  552700    306.46885   -1538.9638    506.31408    353.16833   -26.680468    36341.856 
  552800    301.35578   -1502.3692    488.44103    348.76922    764.78822    36341.856 
  552900    304.43665   -1542.2686    536.15368    370.51381    686.00706    36341.856 
  553000    297.87753   -1535.8677    501.69278    312.79415    663.52396    36341.856 
  553100    296.56951   -1510.8134    476.11198     306.3529    528.77284    36341.856 
  553200    290.22094   -1521.0577    522.51233    313.80145     130.6948    36341.856 
  553300    292.81616   -1523.2303    513.14322    313.99505    354.21736    36341.856 
  553400    302.70696   -1495.7464     466.8821    339.94292    919.32773    36341.856 
  553500    310.81106   -1495.9178    519.55975    429.09503    434.45564    36341.856 
  553600    294.10977   -1489.0193    494.16038    335.07278    265.98769    36341.856 
  553700    301.99803   -1503.8488    488.68406    350.43679    257.86658    36341.856 
  553800    298.47666   -1518.3933    525.90546    357.19047    457.53897    36341.856 
  553900    299.58521   -1468.3228     492.7594    379.12764    279.92556    36341.856 
  554000    307.74431   -1476.7505    498.37222    413.20729   -499.97888    36341.856 
  554100    300.98994   -1482.6397    507.99685    386.40023    -423.4013    36341.856 
  554200    290.66798   -1471.3468    542.14062    385.16214   -2.1480576    36341.856 
  554300    292.43814   -1461.6479    516.20208    376.92698   -286.57144    36341.856 
  554400    311.56527   -1485.9607    524.12216    447.02499    123.47502    36341.856 
  554500    293.58208   -1468.1946    499.19375    358.54471   -109.90503    36341.856 
  554600    301.17411    -1525.922    490.59205    326.54591    121.99545    36341.856 
  554700    296.96567   -1500.6564     510.8826    353.07192    466.54304    36341.856 
  554800     296.1143   -1493.2478    492.13282    337.88095    368.10374    36341.856 
  554900    293.15209   -1518.3354    502.44952    309.71535     201.0497    36341.856 
  555000    306.57135    -1550.975    507.33538    342.64195    514.22539    36341.856 
  555100    300.88799    -1525.846    484.37855    319.11453    471.49186    36341.856 
  555200    317.50942    -1567.466     489.4632    357.73952    1460.8287    36341.856 
  555300    310.49162   -1537.1733    481.10915    347.94448    182.12814    36341.856 
  555400    296.87811   -1505.9879    491.51992    327.98185   -284.90827    36341.856 
  555500    307.15346    -1508.052    494.68457    375.54642    18.284656    36341.856 
  555600    305.01948   -1559.7809    490.83567    310.31898   -171.05756    36341.856 
  555700    299.30058   -1528.4581    511.52011    336.46602    47.794041    36341.856 
  555800    314.04098   -1519.8273    504.15169    404.38284   -76.998988    36341.856 
  555900    297.13846   -1473.4566    498.56382    368.73429    431.41379    36341.856 
  556000    299.85208   -1488.9886    539.44113    406.35025    272.82628    36341.856 
  556100    287.16022   -1487.1556    500.46646    311.81749     193.4362    36341.856 
  556200     302.4819   -1500.3998    475.66158    343.05127    16.373568    36341.856 
  556300    304.30032   -1511.1588    498.45599    363.30938   -360.47022    36341.856 
  556400    302.52654    -1543.137    484.38077    309.23513   -609.52901    36341.856 
  556500    293.17854   -1537.0139    497.89634    286.60321   -328.37062    36341.856 
  556600    290.93103   -1586.1467    482.64168    212.05272   -4.8078475    36341.856 
  556700    309.63946   -1544.7532    488.56816    343.97021   -275.99986    36341.856 
  556800    304.43662   -1547.5939    512.21456    341.24922    32.617635    36341.856 
  556900    290.76689   -1559.6966    526.66013    281.77913   -24.181704    36341.856 
  557000    294.96473   -1539.2471    517.15653    311.70716    326.88057    36341.856 
  557100    295.05114   -1559.3073    479.69503    254.57623   -239.54511    36341.856 
  557200    296.23831   -1533.1821    536.76357    343.13817    216.06073    36341.856 
  557300    312.29429   -1538.0093    516.72256    390.87333    336.58203    36341.856 
  557400    302.51291   -1513.3906    511.16737    365.70651    311.70322    36341.856 
  557500    296.51477   -1535.5948    502.12444    307.33646     20.83595    36341.856 
  557600    303.16603   -1553.3702    493.76773    311.28063    183.74079    36341.856 
  557700    305.42743   -1514.4979    504.57976    371.19081   -307.63262    36341.856 
  557800    306.10087   -1509.6667    533.47654    407.96395   -27.032694    36341.856 
  557900    306.76279   -1506.9882    507.13146    387.29053   -234.48855    36341.856 
  558000    291.37906   -1454.2419    489.36289    352.70468    -259.8704    36341.856 
  558100    309.67708   -1486.1616    499.34685    413.51061   -156.14103    36341.856 
  558200    294.76236    -1459.434    521.28173    394.73033    -572.5266    36341.856 
  558300    306.85699   -1480.2574    512.66157    419.97738    396.47445    36341.856 
  558400    291.09475   -1454.7105     509.6237     371.2113    177.30858    36341.856 
  558500    302.02846   -1511.2008      517.822    372.36037    82.059926    36341.856 
  558600    297.73339   -1477.5301    527.07967    395.86684   -29.086125    36341.856 
  558700    308.98007   -1476.4895    508.97637    429.66033   -102.57328    36341.856 
  558800     292.0031   -1497.7868    520.10599    342.72471    469.29261    36341.856 
  558900    304.14759   -1550.3143    522.45649    347.46372    62.339346    36341.856 
  559000    297.73041   -1507.3193    519.87537    358.85987   -2.5799875    36341.856 
  559100     297.5152   -1487.4469    495.72966    353.61338      298.866    36341.856 
  559200    304.57939    -1504.746    538.14474    410.67286   -338.58868    36341.856 
  559300    286.04839   -1460.8655    507.34779    339.96135    -129.6648    36341.856 
  559400    301.72168   -1472.5146    526.05309    417.89038     394.1021    36341.856 
  559500    314.40114   -1460.0524    517.27869    478.91327    100.66242    36341.856 
  559600     296.7384   -1515.0857    507.49599    334.22834   -259.43872    36341.856 
  559700    304.07976   -1471.9391     506.5978    409.67355     84.07196    36341.856 
  559800    294.52224   -1508.2552    511.75873    335.30032   -648.24838    36341.856 
  559900    305.07671   -1511.2237    487.19322    355.49245    -704.5005    36341.856 
  560000    295.15272   -1537.9404    507.65167    304.35902   -1142.1827    36341.856 
  560100    298.62096   -1515.8223    512.27997     346.7885    -611.2744    36341.856 
  560200    301.85652   -1542.9154    497.88024    319.92648   -399.95742    36341.856 
  560300    303.18821   -1477.5187    529.78716    423.25188    267.83779    36341.856 
  560400    294.77144   -1491.2181    520.32865    362.03421   -545.15779    36341.856 
  560500    311.91544   -1485.0808    511.74379    437.10999   -281.59183    36341.856 
  560600    292.88307   -1481.9654    522.87432    365.29365   -674.99094    36341.856 
  560700     303.5106   -1487.1873    525.82256    411.07644   -190.56432    36341.856 
  560800    290.72608   -1498.8425    511.65064     327.4391   -102.64054    36341.856 
  560900    304.77184   -1504.5183    526.63409    400.26012    128.45114    36341.856 
  561000    302.31236   -1521.8573    494.52811    339.69374    643.86167    36341.856 
  561100    292.28384   -1541.3752    531.75872    312.05856    59.858577    36341.856 
  561200    301.52989   -1535.0616    490.35243    318.77549    305.20427    36341.856 
  561300    307.15015   -1471.9578    524.49565    441.43665     176.3157    36341.856 
  561400    298.21586   -1512.6242    495.11449    330.98921    221.17114    36341.856 
  561500    298.80258   -1492.0092    511.12811    370.27097   -151.84034    36341.856 
  561600    298.69295   -1453.5612    524.27468    421.36978   -902.89714    36341.856 
  561700    299.80632   -1491.4825    506.40223    370.61054   -633.45564    36341.856 
  561800    302.94044   -1463.7328    513.32214    419.45232    -544.7211    36341.856 
  561900    307.63125   -1507.8939    493.97482     377.1552   -62.351364    36341.856 
  562000    290.53296   -1547.2671    492.64529    259.13595   -583.82591    36341.856 
  562100    307.70603     -1493.96    511.89835    409.35085    110.48014    36341.856 
  562200    305.31207   -1532.8324    514.55786    362.31273    285.27433    36341.856 
  562300    298.16097   -1521.6722    494.46017    321.03873   -257.22765    36341.856 
  562400     292.8156   -1504.8779     508.8773    328.07898   -768.96353    36341.856 
  562500    296.48956   -1509.9214    508.58565     339.3571   -214.27622    36341.856 
  562600    301.44786   -1523.4742    494.75322    334.39274   -800.32613    36341.856 
  562700    305.18182   -1485.8489    493.80863    387.95799   -416.43162    36341.856 
  562800     303.5175   -1511.9168    506.62763    367.18324     133.9774    36341.856 
  562900    299.49512   -1445.4046     524.4416    433.32058    18.712182    36341.856 
  563000    302.55814   -1475.9543    520.97515     413.1551    389.05208    36341.856 
  563100    304.10542   -1498.1794    520.56803    397.51956    1.3909296    36341.856 
  563200    302.46819   -1499.6411    508.46978    376.55622    125.60896    36341.856 
  563300    313.54425    -1495.826    497.79937    419.78564    -148.1129    36341.856 
  563400    302.49968   -1529.2067    521.57793    360.24118   -361.80431    36341.856 
  563500     298.5982   -1495.5563    511.63258    366.30414    19.653017    36341.856 
  563600     303.9534   -1502.6141    496.75218    368.58159   -442.59965    36341.856 
  563700    296.34918   -1448.4154    512.64203    404.28463   -115.37657    36341.856 
  563800    301.75307   -1459.4839    500.56048     405.5704    22.429654    36341.856 
  563900    298.44846   -1388.6005     544.7869    505.73712   -2.7890628    36341.856 
  564000    296.08114   -1434.5474     499.9771    404.27568   -610.77546    36341.856 
  564100    300.97938   -1431.8267    521.54752    450.71612   -185.89194    36341.856 
  564200    292.56578   -1507.3476    489.72809    305.33043   -146.69079    36341.856 
  564300    298.55133    -1514.338    511.30859    346.98647    387.52726    36341.856 
  564400     306.1691   -1512.4529    505.62122    377.63093   -260.64831    36341.856 
  564500    309.69684   -1465.4883    504.66435    439.59078   -415.39985    36341.856 
  564600     299.0719   -1523.2511    491.24677    320.36562   -665.27328    36341.856 
  564700    307.97388   -1503.6257     500.8274    389.82533   -663.01386    36341.856 
  564800    299.80051   -1475.1433    514.27913    394.80038   -365.31255    36341.856 
  564900    298.24205   -1522.0429    494.16462    320.73913   -66.395481    36341.856 
  565000    296.93843   -1521.8463     484.9368    305.81311   -200.51212    36341.856 
  565100     298.2548   -1529.3453    509.16359    328.49329   -154.62924    36341.856 
  565200    301.86575   -1547.1386     502.2844    320.14917    339.74576    36341.856 
  565300    287.96345   -1526.0269    495.65599    271.76782    763.14845    36341.856 
  565400    301.78582   -1558.6534    484.66442    290.65295    599.44157    36341.856 
  565500    302.63436   -1528.4081    510.24637    350.31722   -2.3405338    36341.856 
  565600    298.97762    -1547.713    507.03028    311.26087   -469.64603    36341.856 
  565700    299.42492   -1578.5011    530.11166    305.57674   -615.28455    36341.856 
  565800    298.43869   -1547.8871    492.28451    293.90393   -49.851946    36341.856 
  565900    304.66224    -1560.373    494.81775    312.09355    258.16807    36341.856 
  566000     304.4381   -1500.5048    508.27413    384.40456   -213.37216    36341.856 
  566100    291.85466   -1515.6936    489.18848    293.22924    488.35512    36341.856 
  566200    307.02039   -1522.1246     509.9651    376.15262    540.99768    36341.856 
  566300    294.93712   -1530.3951    535.75985     339.0376   -65.032692    36341.856 
  566400    296.52621   -1571.9224    509.62956    278.56573    332.24636    36341.856 
  566500    296.33945   -1548.7868    500.59997    291.82724    278.62876    36341.856 
  566600    314.61658   -1572.5349    492.14883     342.2751    132.10642    36341.856 
  566700    306.83563   -1538.8089    469.48972    318.15739    67.054081    36341.856 
  566800     295.4548   -1554.0673     506.9831    288.92962     297.0147    36341.856 
  566900    300.68227     -1523.69    494.91464    330.87646   -409.87128    36341.856 
  567000    295.83836    -1522.435    482.15322     297.4664   -138.57518    36341.856 
  567100    293.47788   -1532.0758    526.55644    321.55498    199.45867    36341.856 
  567200    298.56537   -1560.2574    513.62724    303.44926    3.9244874    36341.856 
  567300    301.87509   -1537.0111    473.87794    301.91249    503.88846    36341.856 
  567400    299.13398   -1551.5889    500.13097    301.19272    182.28591    36341.856 
  567500    291.42794   -1539.2624     505.4887    284.03105    285.34151    36341.856 
  567600    296.99417   -1537.0034    493.80553    299.77679   0.34454438    36341.856 
  567700    299.77043   -1543.6445    484.38757    296.27158   -243.64803    36341.856 
  567800    301.35881   -1510.7388    526.56715    378.53943   -277.93719    36341.856 
  567900    299.12814   -1536.2793    476.97731     293.3222   -476.24429    36341.856 
  568000    292.44832   -1520.4772    495.43707    297.37866    145.38368    36341.856 
  568100     290.3173   -1520.0965    521.44306    314.12911    135.59394    36341.856 
  568200    295.12219   -1500.5122    495.87964    329.87713    208.02736    36341.856 
  568300     308.5682   -1514.9451    515.17457    395.54059    603.99872    36341.856 
  568400    304.30825   -1517.0622    513.71286    372.69873    121.83744    36341.856 
  568500    303.01188   -1500.4165    526.38497     396.1545    435.06706    36341.856 
  568600    291.02781   -1493.5535    510.01031    332.45225   -99.072215    36341.856 
  568700    310.14474   -1518.4067    506.97416    391.00756   -121.34845    36341.856 
  568800    312.04168   -1475.4622    520.07149    455.62709    284.59463    36341.856 
  568900    297.93809   -1502.6974    503.73094    348.27648   -289.14989    36341.856 
  569000    306.19786   -1539.4924    477.83253    322.93276    229.05771    36341.856 
  569100     299.0593   -1553.5846    500.65381    299.38211     205.1408    36341.856 
  569200    302.79278   -1553.6557    521.01072    336.55029    426.63427    36341.856 
  569300     302.5528   -1590.4939    525.68558    303.30185    460.95268    36341.856 
  569400    310.99689   -1566.1886    487.73528    327.84006    141.45556    36341.856 
  569500    301.91388    -1557.538    499.38696    307.06999    14.338313    36341.856 
  569600     292.7656   -1553.6387    511.00099    281.21576    695.43766    36341.856 
  569700    293.69022   -1543.4657    518.94687    303.51566     888.4617    36341.856 
  569800    302.57298    -1550.435    485.95451    303.72086    320.25598    36341.856 
  569900    294.25401   -1558.8429    516.00182    287.74283    -45.94163    36341.856 
  570000    300.49267   -1571.0948    493.74795    281.44755   -671.33556    36341.856 
  570100    303.56338   -1612.8956    482.99337    242.77758    254.49258    36341.856 
  570200    298.75508   -1562.8292    499.60127    287.70938    412.66289    36341.856 
  570300     306.4893   -1558.6595    515.65433    342.90539    665.37596    36341.856 
  570400    292.65662   -1531.5179    501.05519    292.89802   -137.12857    36341.856 
  570500     297.2681   -1530.2735     489.2115     303.1513   -696.48277    36341.856 
  570600    304.74743    -1523.579    504.17288    358.62792   -319.89798    36341.856 
  570700    300.69646   -1529.7378    503.72762    333.70575    30.541291    36341.856 
  570800     296.7162   -1524.6837    494.04761    311.08164   -232.96692    36341.856 
  570900     299.4046    -1498.412    513.60062    369.06293   -150.87106    36341.856 
  571000    307.85563   -1477.2683    510.62524    425.44586    158.10123    36341.856 
  571100    306.13869   -1531.6404     529.3372    382.02196    362.45778    36341.856 
  571200      307.274   -1477.0881    509.65851    422.02925     782.4584    36341.856 
  571300    293.64688   -1509.0694    511.16105    329.93015    85.749319    36341.856 
  571400    295.28766   -1508.9423    500.04202    326.35765    234.90126    36341.856 
  571500    303.08991   -1537.7752    555.12044    387.88411    313.47339    36341.856 
  571600    306.36722   -1490.4739    487.40249    382.28709    -18.89011    36341.856 
  571700    296.02653   -1501.7206     510.8154    347.69383   -463.05302    36341.856 
  571800    294.77474   -1469.0881    510.06823    373.91873   -146.33791    36341.856 
  571900    307.70042    -1510.824    539.46935    420.03243   -40.331016    36341.856 
  572000    308.93999   -1513.0844    532.51826    416.42618   -229.13779    36341.856 
  572100    295.40321   -1566.4622    487.08118    256.39947    396.44584    36341.856 
  572200    303.23835   -1589.9474    531.62413    312.88688    651.21491    36341.856 
  572300    311.81407   -1595.7414    483.24044    297.48763    309.71738    36341.856 
  572400    301.26745   -1557.7848    517.90011    322.41319   -453.92859    36341.856 
  572500     293.2818   -1484.5779    498.57808    340.18787   -710.92455    36341.856 
  572600    299.30801   -1576.3444    495.37474    272.46792   -122.02345    36341.856 
  572700    300.29047   -1566.9507    504.30451     295.2339   -455.56555    36341.856 
  572800    304.11812   -1557.5325    494.76015    312.41594    9.3887732    36341.856 
  572900    292.75379    -1548.528    510.57506    285.84713   -139.87759    36341.856 
  573000    291.90895   -1529.0947    495.87663    286.76175     141.8802    36341.856 
  573100    302.51565   -1517.8804    531.55596    381.61774    476.17088    36341.856 
  573200    302.42682   -1503.9451    491.60472    355.20014    520.07309    36341.856 
  573300    297.63178    -1507.565    530.04003    368.33287    -492.5185    36341.856 
  573400    301.87846   -1506.1179    520.77267    379.71564    -13.97982    36341.856 
  573500    306.07009   -1508.3015    496.88516    372.59862    -99.99818    36341.856 
  573600    309.42631   -1509.4367    539.38551    429.14016    87.957606    36341.856 
  573700    300.74594   -1516.1904    515.47903    359.22829   -46.014239    36341.856 
  573800    297.80172   -1532.9499    493.65524    307.33157    212.03326    36341.856 
  573900    306.00799   -1535.0228    491.30638    340.01776     209.6098    36341.856 
  574000    304.80357   -1532.6689    531.24334    376.86231    559.89793    36341.856 
  574100    285.18529   -1558.1486    519.03284     250.4604    316.37779    36341.856 
  574200    296.07409   -1572.0846    493.74386    260.47343    397.47832    36341.856 
  574300    307.79189    -1555.707    510.22295    346.31667    485.43264    36341.856 
  574400    302.07665   -1543.5618    516.98568    339.38092   -275.15704    36341.856 
  574500    306.22507   -1558.0957    506.60437    333.22436   -369.72905    36341.856 
  574600    305.91114   -1570.4488     525.7355    338.58289   -192.62317    36341.856 
  574700    291.31024   -1522.2776    501.72859    296.72347   -1.5124242    36341.856 
  574800     310.3597   -1559.9853    492.72349    336.15027    730.42872    36341.856 
  574900    297.33682   -1538.6513    523.75654    329.62926    607.98935    36341.856 
  575000    308.05811   -1572.7347    498.70505    318.97481    357.77319    36341.856 
  575100    296.72153   -1571.6958    505.02424    275.07022   -228.80081    36341.856 
  575200    302.49901   -1605.8329    474.52699    236.56097   -88.008648    36341.856 
  575300    294.28357   -1601.7735    491.00842     219.9525   -437.45975    36341.856 
  575400    298.82303   -1590.4816    507.05159    267.81449    -159.7224    36341.856 
  575500     296.3406   -1579.1046    496.32078    257.23542   -186.53213    36341.856 
  575600     310.0324   -1587.5256    524.82111    339.22754   -149.09944    36341.856 
  575700     298.0611   -1535.9803    504.50306    316.32194    105.34621    36341.856 
  575800    293.58554   -1567.5234    517.93909     277.9769   -198.70265    36341.856 
  575900    293.85094   -1561.9084    496.38034    263.23318   -451.79105    36341.856 
  576000    300.16024    -1554.463    490.01553    292.84375   -342.80003    36341.856 
  576100    309.92044   -1526.2502     509.4537     384.6293    187.54343    36341.856 
  576200    311.34796   -1571.8977    517.38478    353.36797    10.772894    36341.856 
  576300    289.23316   -1535.2176    511.51996    284.18262   -638.62406    36341.856 
  576400    304.23308   -1540.2838    513.05574    348.48009   -294.70258    36341.856 
  576500    301.68734    -1555.443    496.21724    304.97082   -623.99476    36341.856 
  576600    294.86918   -1594.1134    483.60469    222.85699    -385.6779    36341.856 
  576700    300.40342   -1573.4276    497.15699    282.12024    178.35998    36341.856 
  576800     299.0622   -1578.8292    513.71561    287.21244    319.18276    36341.856 
  576900    306.43939   -1541.9554    502.13556    345.86503    814.56004    36341.856 
  577000    295.08644     -1522.48    525.21034    337.07841    5.3456435    36341.856 
  577100     306.8386   -1534.2913    494.59249    347.79119    68.097625    36341.856 
  577200    294.94994   -1558.6595    503.76577     278.8371   -609.61875    36341.856 
  577300    300.04143   -1528.3397    505.16726    333.58151    401.69894    36341.856 
  577400    296.03721   -1517.9939    538.28944    358.94288   -20.498313    36341.856 
  577500    304.16683     -1534.48    510.24928    351.17788   -157.74504    36341.856 
  577600    300.29347   -1487.8951    513.92342    383.92202   -471.36409    36341.856 
  577700    295.36912   -1503.2358    483.79931    316.18984    -243.1777    36341.856 
  577800    298.88382   -1515.8121    508.33799    344.04529    59.639869    36341.856 
  577900    293.93644   -1532.9061    505.45886    301.70065    176.38565    36341.856 
  578000    302.59173   -1495.6917    500.47944     373.0739   -155.00829    36341.856 
  578100    299.43428   -1538.6122    529.52411    344.92041   -955.15257    36341.856 
  578200    293.67551   -1531.2561    494.24889    290.96078   -791.95243    36341.856 
  578300    305.79341   -1523.9027    481.70593    340.56705   -600.47479    36341.856 
  578400    300.71704   -1508.1698    528.33265    379.97186   -127.25618    36341.856 
  578500    294.89166   -1550.2818    490.26681    273.45232    141.12081    36341.856 
  578600    290.20729   -1582.6429    519.78279    249.42498    182.48204    36341.856 
  578700    291.18458   -1571.1198    500.72939    246.31384    84.605063    36341.856 
  578800    298.23856   -1520.3274    500.17607    328.45027    313.11151    36341.856 
  578900    299.13526   -1471.0516    481.84734    363.45212   -306.47651    36341.856 
  579000    292.98004   -1492.6365    523.45902    355.64574   -706.40295    36341.856 
  579100    293.68831   -1475.2688    486.82093    339.57806   -510.88849    36341.856 
  579200    300.31748    -1469.568    516.75014    405.18446   -336.97396    36341.856 
  579300     295.3927   -1462.0076    516.39262    390.11799    36.022709    36341.856 
  579400    304.07648   -1501.8457    490.36189    363.51618   -488.90589    36341.856 
  579500    293.05158   -1507.6576    516.60288    334.09196   -73.439328    36341.856 
  579600    307.96287   -1515.3716    497.88117    375.08344   -792.69092    36341.856 
  579700    292.77367   -1492.0371    494.30149    326.15432   -667.27391    36341.856 
  579800    304.29668   -1439.1118    521.41495    458.29895   -166.92123    36341.856 
  579900    305.32945   -1465.0107    524.83308    440.48822    223.69806    36341.856 
  580000    304.44018   -1485.6226    514.93237    405.95442   -46.886611    36341.856 
  580100    300.05614   -1487.9329    502.79945    371.68701   -471.71355    36341.856 
  580200    289.79877   -1495.3321    513.86119    328.96688   -1142.1514    36341.856 
  580300    302.51749   -1431.6787    518.08936     454.3611   -512.78223    36341.856 
  580400    304.57242   -1507.6897    496.96379    366.51668   -549.00716    36341.856 
  580500     296.9204   -1530.0923    490.56191    303.11059   -383.20801    36341.856 
  580600    303.22726    -1534.489    531.97496    368.64599    305.26086    36341.856 
  580700    306.62061   -1497.9008    491.47842    380.08194    833.69014    36341.856 
  580800     309.8537   -1474.2614     511.4707    438.33327    153.87579    36341.856 
  580900    299.52874   -1509.7701    498.32496    342.99051   -63.509515    36341.856 
  581000    302.49011   -1528.2255    499.12836    338.72948   -457.45031    36341.856 
  581100    317.11143   -1503.5602    517.33813    447.72054   -24.306092    36341.856 
  581200    294.40422   -1541.3122    508.77411     298.7251   -501.07303    36341.856 
  581300    300.99772   -1546.9777    528.08447    342.18494    -203.4761    36341.856 
  581400    293.79389   -1495.7103    514.65761    347.45059   -473.76274    36341.856 
  581500    302.63609   -1517.5555     516.7813    367.71252    220.61699    36341.856 
  581600    292.96857     -1515.85    534.48068    343.40201   -168.06877    36341.856 
  581700    310.56162   -1545.0541    531.91698    391.18802    129.79161    36341.856 
  581800    303.88134   -1535.5539     483.8218    322.38556    101.60638    36341.856 
  581900    297.33827   -1536.3737    497.90781    306.06471    109.02723    36341.856 
  582000    301.44713    -1543.209    511.82727    331.72874    173.24164    36341.856 
  582100     290.4285   -1508.5834    512.75961    317.46157    255.50429    36341.856 
  582200    309.26901   -1513.3132    552.22898    437.39583   -94.315897    36341.856 
  582300    309.37867   -1541.3028    519.72867     377.4018    386.73692    36341.856 
  582400    293.62973   -1548.8446    492.47967    271.39611    275.07478    36341.856 
  582500    299.12472   -1525.8283    538.59558    365.37599    219.81647    36341.856 
  582600    306.70638   -1548.1328    488.72222    327.48162   -520.81069    36341.856 
  582700    297.11867   -1557.8758    507.43277    293.09457   -653.44927    36341.856 
  582800    287.24562   -1594.2913    524.54431    229.14579   -166.95028    36341.856 
  582900    301.56156   -1573.3498    537.50774    327.78578    622.86273    36341.856 
  583000    296.27843   -1557.5691    496.00908    278.17813    102.13757    36341.856 
  583100    310.16054   -1494.4366     520.9512    429.02606     70.26557    36341.856 
  583200    295.29931    -1496.013    512.30355    351.60119   -372.48642    36341.856 
  583300    305.09503   -1506.8463    473.85075    346.61027    145.60888    36341.856 
  583400    302.00045   -1514.8607    526.13209    376.88387    515.07499    36341.856 
  583500    311.60957    -1543.221    527.19794    393.04076     104.8782    36341.856 
  583600    300.70853   -1515.5481    509.28093    353.50341   -216.17418    36341.856 
  583700    295.73046   -1467.5765    531.91494    401.59875   -404.87918    36341.856 
  583800    308.65267   -1507.9854    519.99136    407.69907    197.25761    36341.856 
  583900    291.79436   -1513.7113    520.37713    326.12748    476.70303    36341.856 
  584000    296.69313   -1550.8674    504.74059    295.48649    12.631965    36341.856 
  584100    307.90145   -1522.0347    502.15186    372.41333    58.819522    36341.856 
  584200    297.53075   -1525.2794    514.62956    334.75116    19.499589    36341.856 
  584300    305.13231   -1518.5451    516.80693    378.03625    435.16824    36341.856 
  584400    291.75113   -1527.9729    522.55453    313.84781    204.11704    36341.856 
  584500    305.01882   -1538.5987    509.34836    350.01083    224.01866    36341.856 
  584600    305.85012   -1508.3906    502.09204    376.72164    131.97274    36341.856 
  584700    297.22567   -1530.3576    523.11695    336.78075   -268.55178    36341.856 
  584800    290.83476   -1508.1802    528.05803    335.00029   -398.47357    36341.856 
  584900    306.07323   -1529.7947    502.87579    357.11016    248.75048    36341.856 
  585000    299.96072   -1539.1444     484.0268    301.27142   -41.841597    36341.856 
  585100    298.66356   -1521.8578    519.96489     348.6305    720.22863    36341.856 
  585200    301.88421   -1536.5343     504.0589    332.61144    535.40736    36341.856 
  585300    303.46582   -1557.2431    504.79832    319.79388   -207.49359    36341.856 
  585400    315.44066   -1562.4302    513.11239    377.06982    360.17904    36341.856 
  585500    294.83771   -1509.9716    517.15901    340.41078    550.90983    36341.856 
  585600    308.63637   -1512.0086    515.63671    399.24751    1010.3497    36341.856 
  585700    302.74744   -1516.7645    504.61827    356.84406     486.3016    36341.856 
  585800    302.05936   -1528.6967    519.60121    356.78335    505.37562    36341.856 
  585900    295.42584    -1522.617    524.44936    337.71521    428.41715    36341.856 
  586000    302.69248    -1525.227    500.70887    344.22359    491.89518    36341.856 
  586100    292.38136   -1487.9935    542.47264    376.59514   -93.627047    36341.856 
  586200    290.88116   -1441.5926    520.73612    394.47584     -96.6368    36341.856 
  586300    300.95434   -1548.9087    500.10267    312.07602    139.43446    36341.856 
  586400    300.01186   -1534.3032     518.9381     341.2552   -420.83155    36341.856 
  586500    307.21216   -1546.4554    535.34402    378.06783    88.873073    36341.856 
  586600    311.27817    -1532.083    478.83716    354.31949   -54.554855    36341.856 
  586700    294.44171   -1521.1312    505.22554    315.52703   -159.53271    36341.856 
  586800     304.5362   -1560.7525    496.16097     312.4873   -173.67132    36341.856 
  586900    291.50912   -1574.7561     518.2933    261.70908   -144.15919    36341.856 
  587000    302.45585   -1578.2518    503.07828    292.49822    150.48549    36341.856 
  587100    298.19679   -1529.3405    483.42455    302.49677   -227.11056    36341.856 
  587200    303.02263   -1534.9267    525.54472    360.85269    299.02753    36341.856 
  587300    290.60886   -1536.1055    519.39514    297.39063   -290.28217    36341.856 
  587400    297.47631   -1533.6301    512.69281    324.21749   -597.06171    36341.856 
  587500    296.57745   -1540.7508    528.72164    329.06112    200.12335    36341.856 
  587600    296.95322   -1525.3741    523.02772    340.44305   -468.24924    36341.856 
  587700    311.27859   -1521.1806    490.92326    377.30991    282.85399    36341.856 
  587800    301.09652   -1521.7944    529.12695     368.8575    718.49582    36341.856 
  587900    296.42435    -1548.293    520.97134    313.07627   -156.27174    36341.856 
  588000     299.2358   -1541.9683    518.92023      330.063   -341.77232    36341.856 
  588100    304.61546   -1543.9467    503.76986     337.2604      210.588    36341.856 
  588200    309.55993   -1480.9002     509.9807    428.87613   -51.676709    36341.856 
  588300     303.0816   -1526.1703    486.13616    330.46714   -681.77285    36341.856 
  588400    295.03792   -1515.4414    520.85362    339.54091   -349.00192    36341.856 
  588500    302.39237    -1524.429    515.32003    358.27571   -185.43677    36341.856 
  588600    292.06607   -1514.0427    492.10796    298.75555   -290.74228    36341.856 
  588700    313.02825   -1569.2868    508.87761    355.06972    548.55042    36341.856 
  588800    295.22877   -1557.5038    502.98923    280.47713    489.12079    36341.856 
  588900    304.76204   -1554.6856    515.98796    339.40242     692.1711    36341.856 
  589000    302.52821   -1535.6478    511.79381    344.14489    645.82086    36341.856 
  589100    296.12167   -1532.3423    477.78989    284.47684    150.26245    36341.856 
  589200    304.09121   -1533.1774    487.45301     329.3422    175.66641    36341.856 
  589300    303.89398   -1563.0545    520.95022    332.07047    342.32429    36341.856 
  589400    293.27832   -1564.9078    496.94356    258.20768    577.09841    36341.856 
  589500    300.34528   -1530.9131    513.41034    340.62517    841.33203    36341.856 
  589600    285.01719   -1487.9891    526.12359    326.95054     678.0854    36341.856 
  589700    302.17712    -1514.589    513.98253    365.80488    788.31889    36341.856 
  589800    292.77759   -1493.1686    502.54723     333.2864    106.59344    36341.856 
  589900    308.67637     -1475.12    515.37903    436.05924   -279.15214    36341.856 
  590000    303.34759   -1498.8676    507.54912    380.38561    -516.0211    36341.856 
  590100    300.64294   -1497.2826    532.67455    394.86587   -903.66272    36341.856 
  590200    299.08685   -1474.3964    500.59296    378.63399   -730.61429    36341.856 
  590300    299.37714   -1456.3512    525.92081    423.31976   -886.73928    36341.856 
  590400    298.51634   -1438.6803    524.64649    435.82395     -751.181    36341.856 
  590500    298.00322    -1486.193    540.26011    401.60458   -672.74831    36341.856 
  590600    296.31831   -1489.6548    507.77531    358.03896   -10.437385    36341.856 
  590700    302.87551   -1487.8756    508.86482    390.55858   -459.06848    36341.856 
  590800    308.50347   -1478.1656    537.68753    454.54034   -318.44736    36341.856 
  590900    301.58376    -1498.623    491.25086    356.35612   -902.95587    36341.856 
  591000    308.25726   -1514.8184    530.24575    409.33246   -413.98586    36341.856 
  591100    297.69453    -1540.448    521.83845    327.53199   -945.57027    36341.856 
  591200    299.02303   -1531.1646    481.71088    302.69524   -550.70946    36341.856 
  591300    299.48586   -1494.2631    504.58261    364.56132   -454.56745    36341.856 
  591400      292.282   -1489.7038    502.12283    334.08571   -666.24231    36341.856 
  591500    294.51581   -1514.0317    522.89532    340.63141   -39.242486    36341.856 
  591600    304.89015   -1500.9234    502.50538    380.26135   -168.21228    36341.856 
  591700    299.05598   -1500.8894    511.46748    362.87598   -342.96156    36341.856 
  591800     294.9922   -1495.1996    504.08864    342.81103   -505.85422    36341.856 
  591900    291.26452   -1506.1099    506.07133    317.02719   -832.09988    36341.856 
  592000    294.27191   -1486.0853    509.00221    353.58181   -985.51047    36341.856 
  592100    307.07373   -1484.9336    516.14323    419.76288   -1228.3187    36341.856 
  592200    292.48007   -1519.2688    509.48074    312.77432   -1015.4563    36341.856 
  592300    306.61256   -1541.2934    506.54837    351.72285   -142.62769    36341.856 
  592400    297.19034   -1513.9491    496.60499    326.51751   -63.974472    36341.856 
  592500    302.72715   -1515.0059    488.76807    342.66066    215.73457    36341.856 
  592600    296.29843   -1550.5092    487.43197    276.75134   -157.75794    36341.856 
  592700     295.1101   -1524.5724    518.94682    328.82954    603.37439    36341.856 
  592800    296.98139   -1489.2332    504.42041    358.10404    631.34004    36341.856 
  592900     305.1968   -1517.5461    524.58049    387.10036    479.40779    36341.856 
  593000    304.80636   -1542.3811    493.33908    329.25843    332.96919    36341.856 
  593100    288.66217   -1573.5769    497.26243    228.98379    355.99131    36341.856 
  593200    303.89357   -1555.0074    524.79328    343.95884    214.56035    36341.856 
  593300    297.25372   -1515.1131    478.43305    307.46825    62.228796    36341.856 
  593400    294.76428    -1525.837    505.21161    312.26591    108.60881    36341.856 
  593500    302.14564    -1539.616    508.52815    335.18115    -198.6862    36341.856 
  593600    306.80469   -1512.6415    485.42148    360.11672    52.711556    36341.856 
  593700    302.76371   -1518.2728    499.73386    350.52492   -437.42402    36341.856 
  593800    300.05309   -1532.2512    502.91392    327.46944    166.74527    36341.856 
  593900    295.04728   -1521.5156    512.02633    324.68174   -49.991093    36341.856 
  594000     295.3571   -1513.6785    525.13486    347.02839    299.67577    36341.856 
  594100    302.39672   -1492.9169     516.3928    390.88027   -131.64072    36341.856 
  594200    301.63419   -1521.3191    504.82557    347.46271   -446.22557    36341.856 
  594300    305.99447   -1533.6642    528.13469    378.14347   -388.10901    36341.856 
  594400    309.11691   -1524.1571    490.41433    364.04957   -782.00726    36341.856 
  594500     290.3588   -1523.2828    500.65661    290.34406   -613.86989    36341.856 
  594600    295.60072   -1538.7494    524.77552    322.69975   -585.35734    36341.856 
  594700    292.97513   -1529.3203    512.71397    308.19467   -413.41013    36341.856 
  594800    305.33051   -1547.5202    499.83246    332.98283   -648.08992    36341.856 
  594900    288.56177   -1512.6151    507.39497    299.62408    89.602862    36341.856 
  595000    298.84227    -1547.941    509.87583    313.26636    91.391701    36341.856 
  595100    299.16617   -1537.5519    507.18946    322.43376    495.18827    36341.856 
  595200    311.23956   -1544.5501    497.51203    360.35258    134.98472    36341.856 
  595300    311.23188   -1529.4413    510.32437      388.239   -286.23669    36341.856 
  595400    300.97722   -1537.4367    484.13283    307.68166    -376.0957    36341.856 
  595500    304.51034   -1509.6086    510.54694    377.90029    -460.8717    36341.856 
  595600    296.09358   -1493.2845     517.4665    363.08422   -363.91696    36341.856 
  595700    303.12315   -1488.7414    518.87527    400.82304   -162.25474    36341.856 
  595800    302.19944   -1537.1227    484.70531    314.09486    110.21869    36341.856 
  595900     298.1876   -1453.3446    507.51605    402.54265   -94.645695    36341.856 
  596000    286.81459   -1463.4524    509.87918    343.37047    219.90313    36341.856 
  596100     303.9543     -1453.34    518.22933    439.33685    585.36957    36341.856 
  596200    296.08766   -1491.6584    492.82109    340.03814    395.68999    36341.856 
  596300     308.8993   -1480.9709    498.74397    414.58141   -83.509149    36341.856 
  596400    302.69582    -1483.821    495.14337    380.07921    62.029854    36341.856 
  596500    300.53629   -1467.7651    529.66316    420.88975    75.471047    36341.856 
  596600    306.91605    -1491.271    490.56356    387.13281   -81.281523    36341.856 
  596700    299.64942   -1470.0824    496.08142    380.98037   -200.04363    36341.856 
  596800    298.49986   -1508.6921    502.69022    343.78128   -953.03385    36341.856 
  596900    287.53397    -1501.152    505.74436      304.789    -227.6292    36341.856 
  597000    307.10902   -1520.0273    473.51454    342.20007    82.762108    36341.856 
  597100    299.13922   -1447.9421    521.69742    426.42964   -20.881969    36341.856 
  597200    303.60022   -1491.0489     510.7694     392.5669   -61.734899    36341.856 
  597300     303.4487   -1492.7745    493.77048    373.15727    214.29849    36341.856 
  597400    290.37367   -1523.1794    501.33898     291.1971    285.44742    36341.856 
  597500     298.8946   -1558.5425    466.91726    259.94291    665.49803    36341.856 
  597600    304.67269   -1568.5622    526.43525    335.56906    560.53014    36341.856 
  597700    302.13782   -1584.2327    473.37879     255.3797    930.67761    36341.856 
  597800    286.84422   -1574.7329    493.14952    215.49431    239.26574    36341.856 
  597900    299.75733   -1509.7381    476.03674    321.76792    654.34664    36341.856 
  598000    291.86284   -1516.2662    494.28234    297.78753    1046.1638    36341.856 
  598100    318.57215   -1506.0117    506.07029    440.60641    633.89837    36341.856 
  598200    298.16964   -1505.4966     500.5767    343.37008    455.17856    36341.856 
  598300    304.02612   -1488.9293    505.38257     391.2256    322.91014    36341.856 
  598400    302.25026    -1477.222    502.07711    391.59723    23.070617    36341.856 
  598500    298.72856   -1439.9427     480.8967    391.77137   -121.49014    36341.856 
  598600    305.71531   -1509.0937    533.34037    406.65729   -337.87316    36341.856 
  598700    290.75484    -1479.749    514.01526    349.02734   -125.97116    36341.856 
  598800    300.46464   -1475.9688    516.35732     399.0562   -499.08101    36341.856 
  598900    304.96666   -1501.2083     485.7353     363.5523   -117.92357    36341.856 
  599000    291.62218   -1544.4514    491.19552    265.42719    214.31604    36341.856 
  599100    294.72716   -1521.3358    511.19752    322.58515    475.16713    36341.856 
  599200    306.29466   -1519.0873    479.25085    345.19392    886.79368    36341.856 
  599300    304.25537   -1527.8949    488.50503     336.4191    778.39767    36341.856 
  599400    292.47125   -1557.7417    476.20264    240.98348     670.0743    36341.856 
  599500    306.33785   -1510.8814    505.00603    379.35031    627.26508    36341.856 
  599600     295.3131   -1519.7488    508.84494    324.46919    286.25948    36341.856 
  599700    301.04953   -1527.1741    500.92716    335.06554   -236.46252    36341.856 
  599800     309.1786   -1445.8677    513.37404    465.57756    321.78938    36341.856 
  599900    296.20174   -1484.1579    508.92735     364.1608   -371.14457    36341.856 
  600000    305.32131    -1508.283    491.92395    364.26996   -237.06162    36341.856 
  600100    301.18287   -1459.4927     506.5436    408.96634   -345.56421    36341.856 
  600200    294.13093   -1473.3917    484.25393    340.88963    9.6953754    36341.856 
  600300    291.08637    -1493.028    506.43157    329.66378   -563.66787    36341.856 
  600400    300.60819   -1513.0356    490.08446    336.36564   -35.932201    36341.856 
  600500    312.84941   -1527.7557    504.32071    391.23525   -189.08862    36341.856 
  600600    294.76182   -1481.2722    474.49272    326.10074   -112.03988    36341.856 
  600700    298.85452   -1510.7637    525.38248    366.00574   -521.22955    36341.856 
  600800     302.7814   -1526.6403    484.71074    327.21426    61.301635    36341.856 
  600900    302.40836   -1503.8477    482.50647    346.11578    467.11761    36341.856 
  601000      288.652   -1474.7127    506.00179    336.54132    120.22853    36341.856 
  601100     299.8898   -1557.2259    511.13287    309.97529   -171.13147    36341.856 
  601200    300.13831    -1528.987    493.17333    321.37846    166.41915    36341.856 
  601300    298.00541    -1508.276    488.56826    327.83958    718.38218    36341.856 
  601400    298.62235   -1488.4068    509.13606    371.06637    327.54583    36341.856 
  601500     306.7826    -1511.007     531.8034    408.03319    293.15697    36341.856 
  601600    298.06331   -1488.8682    518.05034    376.99128   -374.00491    36341.856 
  601700    308.75641   -1466.3502    500.47232    430.28429   -296.40598    36341.856 
  601800    300.15154   -1467.9907    468.93795    358.19919   -283.74865    36341.856 
  601900    295.65504   -1483.7042    495.29544    348.51046   -440.00303    36341.856 
  602000    307.24168   -1471.5612    504.75047      422.502   -355.92818    36341.856 
  602100    296.29611   -1490.0701      478.092    327.83999   -65.907305    36341.856 
  602200    290.35793   -1483.6107    530.47022     359.8258   -60.700508    36341.856 
  602300    309.24357   -1483.3489      486.907    401.92317    537.49534    36341.856 
  602400     295.4952   -1531.6088    483.30557    287.89318    392.54237    36341.856 
  602500    302.71225   -1564.6614    486.91766    291.08746     411.2038    36341.856 
  602600    296.20863   -1506.5617    511.09222    343.95301   -128.34253    36341.856 
  602700    302.64595   -1518.9224     502.8027    352.41161    148.87696    36341.856 
  602800    290.26124   -1488.9424    488.95515     312.5418   -708.30124    36341.856 
  602900    299.39945   -1479.0421    507.77751    382.58644   -940.61683    36341.856 
  603000    301.96043    -1454.293     494.8628    406.00133   -877.04483    36341.856 
  603100    302.13588   -1480.6715    480.97946    366.53284   -869.74388    36341.856 
  603200    297.91688   -1458.9756    518.34115    406.51259   -1276.8393    36341.856 
  603300    297.48486   -1490.7518     487.4326    341.87429   -1053.3186    36341.856 
  603400    286.91085   -1478.2969     511.9837    331.06576   -989.60162    36341.856 
  603500    303.01871   -1485.9314    492.77087    377.05635   -625.45391    36341.856 
  603600    300.92805   -1497.9601    496.69448    359.49756   -586.49144    36341.856 
  603700    315.62096   -1483.9839     512.4199    455.63893   -143.03951    36341.856 
  603800    300.54667   -1511.8875    530.85521    378.00637    349.75709    36341.856 
  603900    292.95795   -1482.3227    460.04693    302.44748   -130.25405    36341.856 
  604000    305.29026   -1471.7465    517.30089    426.04304   -131.78962    36341.856 
  604100      304.188   -1495.7425     518.9429    398.70469    102.48164    36341.856 
  604200    293.40443   -1485.7185    489.14041     330.1641   -109.75753    36341.856 
  604300    290.28938   -1485.9736    517.11791    343.80063   -625.04482    36341.856 
  604400    306.44863   -1487.6199    505.63727      403.744   -679.40433    36341.856 
  604500    297.81291   -1485.4677    496.07379    357.28298   -71.483551    36341.856 
  604600    296.44379    -1506.857    485.26477    318.89367   -43.657353    36341.856 
  604700    307.67685   -1497.2154    468.66496    362.73003    92.010299    36341.856 
  604800    297.62027    -1468.783     487.6404     364.6632   -176.34565    36341.856 
  604900    305.90633   -1493.0625    499.01436    389.22624   -243.31733    36341.856 
  605000    304.56485   -1508.8819    496.89986    365.22642   -426.13005    36341.856 
  605100     291.4149   -1463.5191     503.4792     357.7059   -9.0405566    36341.856 
  605200    297.41811   -1477.4262     497.1178    364.58321    205.82371    36341.856 
  605300    298.84412    -1495.555     509.2998    365.08467   -251.19561    36341.856 
  605400    305.21887   -1475.5713    494.05184    398.64632    455.52115    36341.856 
  605500    303.23276   -1490.4676    476.17315    356.89039    332.91073    36341.856 
  605600    310.66582   -1491.8248    487.71881    400.69031    487.09421    36341.856 
  605700    297.00403   -1486.4695    479.99219    336.54187    356.97444    36341.856 
  605800    307.31354   -1486.8004    493.19838    396.03563    271.21302    36341.856 
  605900    304.78345   -1504.1291    493.45114    367.51895    545.45219    36341.856 
  606000    300.95385    -1514.299    528.07365    374.65449    521.42149    36341.856 
  606100    289.90946   -1562.3767     485.5655    234.12712    515.84951    36341.856 
  606200    300.89942   -1528.6893    486.98631    318.93071    -58.26967    36341.856 
  606300    292.32636   -1517.2673    489.13745     293.7374   -178.40065    36341.856 
  606400     298.0839   -1497.0904    494.43485     345.2467   -304.17861    36341.856 
  606500    307.46348   -1498.8144     485.0301    376.53137   -134.82703    36341.856 
  606600    303.71709   -1537.3959     496.4349    332.41387    579.91901    36341.856 
  606700    299.70292   -1539.4544    489.27331    305.04224   -188.67672    36341.856 
  606800    310.37778   -1477.7116    464.51984    390.30208   -32.698894    36341.856 
  606900    313.84976    -1538.862    512.35491    392.68662    386.52413    36341.856 
  607000    303.06448   -1470.8495    519.04956    418.62399     594.1923    36341.856 
  607100    299.29051   -1463.5448    479.94289    369.75653    15.098977    36341.856 
  607200    301.81996   -1520.0512    497.18658    341.93166    413.76958    36341.856 
  607300    296.40337     -1483.94    466.40401    322.76717    155.85061    36341.856 
  607400    318.12624   -1490.9191     483.0761     430.6885   -143.74841    36341.856 
  607500    310.87411   -1506.2485    487.11276     386.6024   -712.55366    36341.856 
  607600    292.94795   -1438.4389    510.81382    397.05299    -775.6818    36341.856 
  607700    297.91747   -1456.2496    481.67029    372.57035   -222.01524    36341.856 
  607800    311.05276    -1495.798    490.64532    401.39333   -77.370812    36341.856 
  607900    303.65606   -1490.3959     523.9121    406.61515    203.37093    36341.856 
  608000    295.42519   -1471.1632    492.42977    357.14647   -89.767013    36341.856 
  608100     292.5825   -1493.9766    504.31164     333.3606    11.717191    36341.856 
  608200    290.90219   -1466.4736    516.47135    365.42508    77.252852    36341.856 
  608300    304.51174   -1491.2368     498.9588     384.6902    537.83307    36341.856 
  608400    299.79938   -1480.9187    498.68369     373.4245     556.2252    36341.856 
  608500    299.77649    -1508.249    519.61471    366.92167    275.17493    36341.856 
  608600    287.50048   -1518.9038    483.41876    264.56021    315.08338    36341.856 
  608700    309.00021   -1436.1642    482.35332    443.45371     400.2133    36341.856 
  608800    282.73964   -1458.4749    499.91999    319.96228   -75.323028    36341.856 
  608900    305.61915   -1477.5943    522.37267    426.75418    137.92882    36341.856 
  609000    303.82722     -1514.47    520.14609    379.54902   -342.14312    36341.856 
  609100    291.89902   -1484.6204    491.06389    326.37847    -230.7643    36341.856 
  609200    296.48259    -1448.093    510.01036    402.57871   -171.06601    36341.856 
  609300     281.9515    -1434.573    489.56671    329.94707   -601.65403    36341.856 
  609400    307.23598    -1443.907     540.8976    486.27758   -689.81733    36341.856 
  609500    300.03496   -1430.4596    515.46317    441.72826   -147.97719    36341.856 
  609600    295.25437    -1457.064    506.35459    384.39806    219.66169    36341.856 
  609700    302.22065   -1496.8447    526.15079    395.91427    76.888236    36341.856 
  609800    294.01284   -1485.0465    498.87788    343.32472    267.80214    36341.856 
  609900    297.74916   -1487.6511    500.55868    359.29617   -352.39651    36341.856 
  610000    297.10404   -1455.2177    515.22899    403.48277    304.96185    36341.856 
  610100    290.89553   -1489.3507    534.20268     360.2492   -185.42647    36341.856 
  610200     301.5967   -1456.9545    520.94853    427.78083   -77.441983    36341.856 
  610300    307.19344   -1467.2864    493.87867    415.68685   -463.82384    36341.856 
  610400    297.04845   -1446.6188    513.34406    409.94529   -427.10943    36341.856 
  610500    305.81755   -1446.3828    515.58946    452.07962   -263.56245    36341.856 
  610600    291.04525   -1456.4207    510.93694    370.59046   -715.67194    36341.856 
  610700    302.57995   -1468.4754     482.2696    382.02705   -768.07348    36341.856 
  610800    300.80516   -1491.2696    491.41149    360.34935   -1108.0491    36341.856 
  610900    298.65164   -1482.1047    493.43064    361.79543   -907.41033    36341.856 
  611000    304.37627   -1480.1213    502.18976    398.42415   -994.38367    36341.856 
  611100    304.67404   -1487.7411    485.83376    375.79483   -550.28897    36341.856 
  611200    301.22448   -1505.4596    484.56807    341.21214   -191.06339    36341.856 
  611300    299.00864     -1479.43    513.11973    385.77352    -203.0776    36341.856 
  611400    292.38418   -1489.6587    526.09188    358.56199    237.66858    36341.856 
  611500    303.97103   -1497.4843    509.64519    386.68406    723.25869    36341.856 
  611600    297.21824   -1513.8506    511.82327    341.96052    192.61387    36341.856 
  611700     295.6442   -1562.7137    494.17321     268.3297    -368.8868    36341.856 
  611800    294.14502   -1558.5443    493.80138    265.34815    54.732088    36341.856 
  611900    290.21166   -1545.1782    484.12463    251.25131   -339.23902    36341.856 
  612000    300.10928   -1536.1405    463.34524    284.26558   -133.07349    36341.856 
  612100    301.75868   -1563.6149    491.30302    292.20735    46.373891    36341.856 
  612200    306.72318   -1537.9588    513.17472    362.18407    847.81087    36341.856 
  612300    305.65759   -1525.3315    489.25491    346.07306    394.73553    36341.856 
  612400    298.60161   -1536.9564    495.38773    308.67463    15.052534    36341.856 
  612500    293.09342   -1513.0297    478.79076    291.09691   -296.63687    36341.856 
  612600    295.88518   -1502.3279     501.9436    337.57561    -449.4967    36341.856 
  612700    302.26734   -1478.7122    493.62473    381.73186   -397.80511    36341.856 
  612800    297.05111   -1442.7645    467.85208    368.31969   -292.81111    36341.856 
  612900    302.14098   -1456.2085     508.3541     418.3935   -255.09634    36341.856 
  613000    292.52773   -1501.3866    501.26994    322.66121   -137.78637    36341.856 
  613100    306.95023   -1484.2261    498.54385    402.31253     81.05373    36341.856 
  613200    301.12739   -1489.5601    514.11676     386.2212   -550.14191    36341.856 
  613300    306.73536   -1519.5901    490.73832    358.17136   -57.090193    36341.856 
  613400    285.95949   -1477.8058    512.79083    328.06207   -953.11725    36341.856 
  613500    299.31653   -1492.5601    488.48705      349.403   -393.39214    36341.856 
  613600    294.85953   -1495.1929    504.95865    343.08776     63.46082    36341.856 
  613700    294.43821   -1508.6303    522.88961    345.67614    115.34406    36341.856 
  613800    298.39834   -1514.7996     481.8599    316.38448    379.73136    36341.856 
  613900    315.09377   -1483.4005    496.90066    438.31917    399.27746    36341.856 
  614000    301.65381   -1480.7531    494.06802    377.35993    204.80426    36341.856 
  614100    307.89036   -1454.7169    501.34024    438.86936    261.11455    36341.856 
  614200     301.0337    -1421.827    527.12474    466.53865   -95.904107    36341.856 
  614300     292.8841   -1456.7165    508.38899    376.06182    -620.3793    36341.856 
  614400    298.87551   -1477.5947    474.31789    348.20501   -862.93954    36341.856 
  614500    307.52086   -1460.0698    508.68444    439.18977   -816.29469    36341.856 
  614600    308.09698   -1471.8494    518.40112    439.73202   -575.40716    36341.856 
  614700    305.94022   -1444.2048    497.25647    436.47936   -592.88582    36341.856 
  614800    301.01236   -1504.5537    484.31885    340.90957   -482.83462    36341.856 
  614900     294.6724   -1492.9912    507.66568    347.15034   -30.312404    36341.856 
  615000    301.60853   -1492.0788    515.29185    387.05328    657.14064    36341.856 
  615100    298.57812   -1537.8503    517.87891     330.1657    554.21807    36341.856 
  615200    291.27404   -1480.7518     488.3743    324.73136    922.63596    36341.856 
  615300    297.09672    -1480.884    545.49867    408.05297   -29.157328    36341.856 
  615400    291.50533   -1460.5519    485.11017    342.71295   -226.51611    36341.856 
  615500    296.38614   -1483.4706    502.39453    359.14917   -128.62112    36341.856 
  615600      299.223   -1460.6075    537.00721    429.45284    20.277239    36341.856 
  615700    296.73823   -1457.9743    479.18794    363.03095    457.03094    36341.856 
  615800    308.59445   -1482.4576    526.51759    439.48983   -43.471477    36341.856 
  615900    291.54102   -1493.5569    502.90018    327.65938   -384.55417    36341.856 
  616000     293.8876   -1502.5326    522.67732    349.07179    478.13566    36341.856 
  616100    301.39276   -1474.0081    511.36892    400.22533      495.746    36341.856 
  616200     311.9343   -1495.3185    474.65425    389.86804    288.77202    36341.856 
  616300    292.57135   -1511.2784    492.90746    304.60413   -229.45746    36341.856 
  616400    305.54534   -1466.4037     531.0871    446.32542   -169.79312    36341.856 
  616500    303.49659   -1467.4319    513.59819    418.54416   -748.74502    36341.856 
  616600    299.28324   -1510.5428    512.39263    355.17544   -615.30968    36341.856 
  616700    300.08606   -1487.4215    495.58391    365.11817   -667.47539    36341.856 
  616800     306.3033   -1488.9354    517.26643    413.40052   -34.869141    36341.856 
  616900    300.07511   -1509.6112    472.48566    319.78071   -274.23098    36341.856 
  617000     301.7408   -1509.9809    484.24927     338.7067    262.06563    36341.856 
  617100    298.56455   -1529.1117    516.94796    337.91193    201.33406    36341.856 
  617200    293.28714    -1522.659    519.65152    323.20435   -188.76619    36341.856 
  617300    296.44819   -1530.7726     520.1448    329.87795   -66.653458    36341.856 
  617400    298.71158    -1546.305    513.18849    317.62402   -310.46429    36341.856 
  617500    304.22643   -1527.1674    507.77853    356.28925    671.62994    36341.856 
  617600    298.24655    -1532.828    503.44747    319.25725   -82.728184    36341.856 
  617700    298.63157   -1530.5851    516.11279    335.90641   -24.600939    36341.856 
  617800    288.64623   -1538.1318    503.68481    270.77914   -547.92414    36341.856 
  617900    292.36248   -1554.1747    506.58646     274.4424   -502.82191    36341.856 
  618000    307.27455   -1554.9655    499.71848    334.21438    201.50866    36341.856 
  618100    296.04292   -1513.4794    529.31249    354.50625    211.37596    36341.856 
  618200    303.57149   -1560.5744    514.53335    326.67546   -541.24749    36341.856 
  618300    304.44661   -1532.6414    514.24573     358.2781    195.01709    36341.856 
  618400    295.13449   -1561.8633    499.87273    272.57481    138.48605    36341.856 
  618500    294.81675   -1568.4875    476.37095    241.01207     119.8987    36341.856 
  618600    295.47957   -1556.4532    538.80551    318.47808   -61.026382    36341.856 
  618700    297.16417   -1595.7244     512.6146    260.63357    499.88013    36341.856 
  618800    307.02051   -1544.6574    505.73969     349.3949    747.60532    36341.856 
  618900    302.81547   -1560.2082    513.47123    322.56096     576.4157    36341.856 
  619000    295.15557   -1571.4769    496.32729    259.51107    267.46889    36341.856 
  619100    299.37197   -1558.3329    507.47508     302.8689    397.94074    36341.856 
  619200    297.98737   -1553.4252    504.42353    298.46415   -18.335888    36341.856 
  619300     307.7544   -1539.6845    494.64055    346.58723    16.688891    36341.856 
  619400    299.20045    -1534.133    509.78362    328.60183    566.45714    36341.856 
  619500    289.12347   -1571.7634    517.31168    252.93246    612.79983    36341.856 
  619600    297.20537   -1558.7972    512.05642    297.18883    1139.9352    36341.856 
  619700    302.49555   -1528.1728    502.37308    342.05154    437.39099    36341.856 
  619800    300.73131   -1508.9457    511.87704    362.80487    382.68675    36341.856 
  619900    305.30323   -1542.2728    497.79935    336.07377     746.4625    36341.856 
  620000    298.16237   -1575.8609    489.10867    261.50485   -23.375011    36341.856 
  620100    303.12875   -1510.2534    487.10893    347.57009    34.520646    36341.856 
  620200    298.71314   -1516.4036    524.60753    358.95158   -522.71771    36341.856 
  620300    296.31502   -1549.5768    518.70014    309.02687   -6.1960204    36341.856 
  620400    296.73141   -1474.6658    493.62063    360.74133   -268.49478    36341.856 
  620500    292.72905   -1467.5197    511.65193    367.82048   -399.38856    36341.856 
  620600    283.32542   -1545.9602    511.67845    246.88432   -170.54433    36341.856 
  620700    303.65557   -1508.3779    487.76479    352.48358    5.2374394    36341.856 
  620800    292.70215   -1507.8782    502.75237    318.44078    114.63619    36341.856 
  620900    293.33583   -1503.6088    488.25778    311.08099    105.83793    36341.856 
  621000     292.2128   -1497.4384    491.52764    315.44309   -665.77152    36341.856 
  621100    294.74179   -1447.8299    494.25231    379.21209   -28.819521    36341.856 
  621200    293.05657   -1459.1781    542.19598    408.18716    232.83788    36341.856 
  621300    291.92257   -1443.7573     497.3439    373.62799     128.6319    36341.856 
  621400    289.53054   -1455.4678    504.44945    358.20654   -71.657095    36341.856 
  621500    290.12927   -1438.8773    510.47059    383.52564   -859.18425    36341.856 
  621600    294.80403   -1411.7358    496.59608    417.93132   -701.29321    36341.856 
  621700     295.3625   -1418.8626    519.47242    436.20619   -348.59876    36341.856 
  621800    294.68615   -1425.6923    479.93277    386.77848    -243.7963    36341.856 
  621900    295.61432   -1455.8814    524.31307    405.16681    373.28672    36341.856 
  622000    305.36132   -1483.4536    500.58384    397.94017    111.89155    36341.856 
  622100    301.89245   -1494.4811    519.00203    389.64501    354.02073    36341.856 
  622200    301.02341   -1505.6982    478.32026    333.81644    55.428502    36341.856 
  622300     297.9149   -1505.3575    505.50453    347.28506   -45.436744    36341.856 
  622400    298.48567   -1519.7617    494.77224     324.7295    73.880992    36341.856 
  622500    293.51193    -1500.957    517.77095    344.04234   -265.82028    36341.856 
  622600    305.41506   -1491.9811     501.7713    390.84313    251.72052    36341.856 
  622700    303.18423   -1501.2366    503.16229    372.89103     143.4468    36341.856 
  622800    290.29433   -1481.4696    498.63306    329.84214    80.909077    36341.856 
  622900    304.83556   -1488.6254    516.67975    406.48686    717.93882    36341.856 
  623000    307.31271   -1512.0585    524.15131    401.72671    1135.0142    36341.856 
  623100    290.42005   -1536.2376    475.44792    252.45751    756.66985    36341.856 
  623200    294.86447   -1499.2075     523.8132    357.95007    1338.4655    36341.856 
  623300    297.50571   -1533.5582    512.67185    324.40143    1224.5319    36341.856 
  623400    306.04015   -1519.5437    513.06465    377.40044    1249.2902    36341.856 
  623500    291.44106   -1502.1931    494.81026     310.4812    1156.5349    36341.856 
  623600    307.07158   -1528.0962    513.66443    374.11174    144.32662    36341.856 
  623700    307.03358   -1537.7047    511.72758    362.39466    328.68792    36341.856 
  623800    296.65765   -1517.8091    481.02796    304.67175    363.22737    36341.856 
  623900    301.69975   -1508.3402    516.15485    372.06741    9.4135519    36341.856 
  624000      312.228   -1522.3774     487.9794    377.46226   -523.56097    36341.856 
  624100    307.02985   -1494.9856    500.39853    393.76774   -1162.8984    36341.856 
  624200    299.74679   -1499.9094    503.51332    359.02554   -667.11192    36341.856 
  624300    304.28814   -1479.5797    530.14549    426.52297   -295.52725    36341.856 
  624400     306.3971   -1526.6849    501.60223    360.41098    226.46401    36341.856 
  624500    303.75799   -1483.9577    514.31073     403.9129    241.52196    36341.856 
  624600    294.50844   -1518.5315    516.43083    329.63374    464.66339    36341.856 
  624700     309.3209   -1497.5578    501.15416    402.31108    254.27289    36341.856 
  624800    302.39464   -1467.0049    505.87902    406.26902    448.25113    36341.856 
  624900    306.17576    -1483.763    518.08057    418.81032     236.1005    36341.856 
  625000    292.64023   -1486.5229    524.93764    361.70135    334.57251    36341.856 
  625100      303.805   -1450.1703    508.46873     432.0709    37.844299    36341.856 
  625200    302.04829   -1471.5368      479.634    373.92602   -33.523583    36341.856 
  625300    289.12186   -1501.0621    502.15605    308.47093   -499.03979    36341.856 
  625400    298.41277   -1457.8308    491.88958    383.44812   -185.51897    36341.856 
  625500    312.33937    -1453.798    506.84249    465.40838    102.68184    36341.856 
  625600    297.30396   -1457.5676     506.7872    393.59509    588.68167    36341.856 
  625700    300.28928    -1484.604    496.66087    369.93163    258.35467    36341.856 
  625800    297.51107   -1465.7685    490.47197    370.01541   -440.54643    36341.856 
  625900    293.02655   -1492.6532    487.84881    320.22905    10.907879    36341.856 
  626000    299.04144   -1549.2005     495.9501    298.98179   -364.70644    36341.856 
  626100    298.16142   -1497.1688    513.84572    364.92977   -304.57608    36341.856 
  626200    293.73235   -1523.8624    495.08063    299.44326    207.73943    36341.856 
  626300    303.12427   -1551.4849    483.79544    303.00484    30.819374    36341.856 
  626400     290.6217   -1523.6188    486.91011    277.45028    228.30332    36341.856 
  626500    308.27386   -1465.4052    477.39329    405.96825    116.03785    36341.856 
  626600    292.58025    -1520.242    501.79653    304.56992   -10.846134    36341.856 
  626700    302.97656   -1451.5644     482.6407    401.10264    242.02748    36341.856 
  626800    305.94907   -1506.4317    499.75068     376.7866   -516.89888    36341.856 
  626900    301.54533   -1477.4057    498.01101    384.15978    420.35911    36341.856 
  627000    294.94292    -1500.282    480.20761    313.62476    196.01687    36341.856 
  627100     308.8133   -1485.0538    514.61658    425.98214    136.00718    36341.856 
  627200    294.11117   -1466.9372    502.64646    365.64726   -5.7520259    36341.856 
  627300     308.7124   -1457.3192    509.76344    448.40739   -366.43683    36341.856 
  627400    288.34212   -1445.8635    488.68256    346.67004   -521.34792    36341.856 
  627500    299.70156    -1476.222    479.07428     358.0694   -179.68082    36341.856 
  627600     303.7858   -1488.6576    503.51116    388.53916   -860.46129    36341.856 
  627700    293.81632   -1506.3413    487.16665    309.43008   -692.28249    36341.856 
  627800    300.27781   -1453.7726    488.52519    392.57548   -256.03296    36341.856 
  627900    284.15524   -1503.9784    460.86733    241.80735   -859.61606    36341.856 
  628000    309.19365   -1501.0972     525.1746    422.21667   -206.43252    36341.856 
  628100    292.73672   -1539.8416    483.85882     267.7401    349.01474    36341.856 
  628200    303.46103   -1513.0649     484.1229    343.27504   -183.64025    36341.856 
  628300    305.75329   -1512.9381    490.13016    359.77448   -210.07975    36341.856 
  628400    303.75349   -1560.0469     488.3891    301.88171    412.34912    36341.856 
  628500    307.68111   -1514.6325     487.1262    363.79351    491.21184    36341.856 
  628600    289.31735   -1526.0121    499.41239    281.66122    133.89121    36341.856 
  628700    309.72594   -1544.0428    491.08975    347.59319    636.21163    36341.856 
  628800    293.12304    -1485.812    493.71692    333.37469    404.78792    36341.856 
  628900    286.43367   -1498.8736    540.15078    336.49839    585.28853    36341.856 
  629000    298.20598   -1453.7807    492.25671    386.93029    728.54325    36341.856 
  629100    307.05214   -1497.3354     497.0854    388.20567    973.51456    36341.856 
  629200    286.23515   -1475.1858    486.86251    306.00019    313.33648    36341.856 
  629300     298.0234    -1502.131    511.93984     357.4375    234.30757    36341.856 
  629400    299.58215    -1483.531    493.09071    364.23688    347.60695    36341.856 
  629500    295.26265   -1465.2007     494.0844    364.02863    139.30603    36341.856 
  629600    302.69717   -1489.7361    503.96609    382.99293    127.90417    36341.856 
  629700    305.94062   -1457.3826    472.59309    398.63994   -30.583153    36341.856 
  629800    305.68071   -1494.4367    499.08367    386.90122   -482.67018    36341.856 
  629900     287.6587   -1535.3089    498.62951    264.08125   -1014.5972    36341.856 
  630000    305.73018   -1532.6074    481.92212     331.7926   -223.67667    36341.856 
  630100    310.44681   -1534.6419    478.05403    347.21809    14.313837    36341.856 
  630200    298.02512   -1551.6968    479.64521    275.58482   -349.70987    36341.856 
  630300    297.38635   -1520.4545    462.11477    286.40829   -381.99339    36341.856 
  630400    311.12356   -1509.2752    450.60454     348.1955   -900.66738    36341.856 
  630500     296.3249   -1530.7008    480.97548    290.22298   -821.49188    36341.856 
  630600    310.11135   -1540.0813    492.30705    354.51487     -619.665    36341.856 
  630700     296.9487   -1447.3962      475.663     371.0358   -413.23183    36341.856 
  630800    294.61783   -1443.8056    486.89719    375.32063   -455.04474    36341.856 
  630900    292.36255   -1458.3734    488.74211    352.39965   -742.57955    36341.856 
  631000    292.43908   -1466.2542    489.04113    345.16401   -520.70457    36341.856 
  631100    300.61728   -1435.6224     487.6816    411.41709   -1008.8957    36341.856 
  631200    301.21161   -1429.3967    503.76913    436.41784   -872.65381    36341.856 
  631300    301.82965   -1479.3567    495.28782    380.77129    -223.8584    36341.856 
  631400    299.89502   -1475.4083    492.10467    372.78832    4.1531385    36341.856 
  631500    290.95869   -1460.7198    493.30175     348.2648   -259.85495    36341.856 
  631600    294.51077   -1467.4216    493.82692    358.15026    7.4574143    36341.856 
  631700    298.97865   -1472.1761    495.54836    375.32047    338.70692    36341.856 
  631800    303.62726   -1420.5998    489.49696    441.86588     54.65206    36341.856 
  631900    294.12325   -1437.9999    496.85163     388.8444   -53.308594    36341.856 
  632000    293.59385   -1453.6532    492.42577    366.37137   -283.03968    36341.856 
  632100    303.11006   -1479.6112    481.84565    372.86446   -356.08991    36341.856 
  632200    297.80909   -1499.0321    477.04834    324.67583   -306.01025    36341.856 
  632300    308.67199   -1478.5342    481.70197    398.94823    667.76621    36341.856 
  632400    293.96675   -1460.7844    491.48997    359.99054   -168.05319    36341.856 
  632500    305.63847   -1479.6626    510.98727    413.38781    267.83333    36341.856 
  632600    287.49214   -1490.6209    517.82254    327.20914    31.590365    36341.856 
  632700    299.10671    -1452.968    484.74102    384.30034    -294.1367    36341.856 
  632800    313.63281   -1450.3159    491.03534    458.93219   -500.35032    36341.856 
  632900    286.03753   -1458.1171    488.45909    323.77195   -552.51711    36341.856 
  633000    302.81383   -1469.4896    483.54066    383.34157    46.278671    36341.856 
  633100    303.90782   -1462.8244     495.6231    407.03604   -72.846177    36341.856 
  633200    302.14689   -1490.7183    451.57601    327.13236    231.40414    36341.856 
  633300    297.97212    -1522.181    478.82266    304.03847   -64.468967    36341.856 
  633400    295.51034   -1497.8722     521.1549    359.54763   -109.88572    36341.856 
  633500    298.13432   -1426.4291    524.73096    446.43207     166.2183    36341.856 
  633600    296.19995   -1475.4924    475.14053    339.03139    286.04417    36341.856 
  633700    300.80027   -1463.5447    500.51226    397.15298    860.97912    36341.856 
  633800    306.46171   -1452.4419    506.03669    439.38059    445.94878    36341.856 
  633900    298.54718   -1450.2055    488.57788    388.36948    100.41158    36341.856 
  634000    293.88174   -1494.0963    480.40516    315.20942    241.24687    36341.856 
  634100    308.60847   -1489.8571    500.87151    406.50761    601.34721    36341.856 
  634200    302.02407   -1472.7488    475.16475    368.13522    407.95592    36341.856 
  634300    294.33039   -1445.8981    501.93425    386.96548    475.64297    36341.856 
  634400     290.1579   -1446.5915    513.11641    378.58666    113.50274    36341.856 
  634500    294.88816   -1425.4882    492.59116    400.55438    295.72089    36341.856 
  634600    300.99203   -1434.3374    490.44481    417.15989    602.16936    36341.856 
  634700    302.44175   -1440.5583    507.36637     434.4161   -79.983294    36341.856 
  634800    296.60317   -1429.3357    515.48881    427.35966    66.581383    36341.856 
  634900    285.57899   -1463.4193    504.66545    332.60255    114.07479    36341.856 
  635000    262.91209   -1458.8675    516.18926      246.181    29.814794    36341.856 
  635100    301.02742   -1462.8481    467.14476     365.5092    455.28597    36341.856 
  635200    301.22905   -1458.0679    498.26606    402.32249    281.59539    36341.856 
  635300    303.36004   -1467.2185    477.76477    382.30662    225.68084    36341.856 
  635400    301.97479   -1437.5997    502.87236    430.76905    661.98248    36341.856 
  635500    305.21669   -1441.3875    526.45025    465.21867    257.13801    36341.856 
  635600     299.6403   -1458.6105    504.62795    400.95755    336.41103    36341.856 
  635700    297.45896   -1460.2244    486.71166    371.56365    200.61908    36341.856 
  635800    297.87035   -1510.5968    527.60539    363.94523    174.65888    36341.856 
  635900    303.56423   -1491.1518    465.04123    346.57318    92.544701    36341.856 
  636000    293.05752    -1487.182     493.6827    331.67428   -528.44843    36341.856 
  636100    298.16459   -1483.7652    490.64704    355.14891   -475.99862    36341.856 
  636200    293.83326   -1454.8006    495.22253    369.10327   -212.04856    36341.856 
  636300    302.51165   -1427.2253    503.20793    443.90664    415.92406    36341.856 
  636400    292.04611   -1462.8592     510.8025    368.54338   -207.23455    36341.856 
  636500    291.42552   -1445.6331    485.42186    357.58255   -144.77617    36341.856 
  636600    302.44276   -1443.0847    515.81754    440.34541   -341.02901    36341.856 
  636700     309.5147   -1410.7169    500.79419    489.66841    167.68748    36341.856 
  636800    297.17928   -1423.7163    523.30913    443.40451   -143.33063    36341.856 
  636900    295.37786   -1398.0486    505.20395    442.82126   -65.396126    36341.856 
  637000    287.16402   -1401.6665    496.47198    393.32921   -7.2666811    36341.856 
  637100    297.98822   -1443.6095    506.20348    410.06357   -310.00305    36341.856 
  637200    296.73877   -1407.7681    509.50448    443.55614    137.34288    36341.856 
  637300    306.19213   -1397.0619    506.30761    493.81253    72.160557    36341.856 
  637400    294.20909    -1410.168    511.43252    431.64529   -204.39498    36341.856 
  637500    315.56806   -1413.0364    510.13144    524.05868    128.84334    36341.856 
  637600    296.19109      -1449.2    514.54039    404.68356     481.7743    36341.856 
  637700     301.4764   -1450.6978    526.74896    439.29392    473.58361    36341.856 
  637800     292.9455   -1456.3784    500.20377     368.4924    617.00171    36341.856 
  637900    293.69582   -1440.9244    510.93249    398.06796     753.9106    36341.856 
  638000    307.29597   -1447.2441    491.18825     433.5024    308.54822    36341.856 
  638100    295.48211   -1459.1572    505.20295      382.183    148.76029    36341.856 
  638200    297.52556   -1443.1598     500.1149    402.33264    212.43253    36341.856 
  638300    305.72286    -1432.187    532.05938     482.3172    733.42417    36341.856 
  638400    296.64361   -1465.4715    510.17266    386.09056    382.28178    36341.856 
  638500    308.64964   -1470.9629    501.60798    426.32445    657.56025    36341.856 
  638600    298.82321   -1458.1294    511.90829    405.02419    42.758073    36341.856 
  638700    292.00263   -1405.2098    536.43361    451.62727    374.06805    36341.856 
  638800    305.15638   -1439.7868    493.14447    433.24091    362.28971    36341.856 
  638900    291.60175   -1434.0105    516.98205    401.56228   -141.77573    36341.856 
  639000    289.25404   -1468.6946    491.73338    331.01339    277.78212    36341.856 
  639100    295.49349   -1475.1514    486.14963    347.18691   -472.57753    36341.856 
  639200     289.7528   -1468.9105     515.8726    357.19209      16.8629    36341.856 
  639300    304.75534   -1456.6239    513.84692    435.29277    142.64742    36341.856 
  639400    297.35209   -1487.7277    483.96872    340.83408   -8.1130863    36341.856 
  639500    299.61547   -1450.3945    515.95966    420.39299   -299.20665    36341.856 
  639600    299.51811   -1486.6802    486.42455    354.13198    56.587711    36341.856 
  639700      282.023   -1483.6665    469.46039    261.07053   -204.24323    36341.856 
  639800    310.64489   -1496.8685    499.38003    407.21318   -636.42393    36341.856 
  639900    294.71842   -1482.6572    503.05382    353.08058   -92.777872    36341.856 
  640000    298.77528   -1497.3171    492.82872    346.54024   -45.160143    36341.856 
  640100    298.12582   -1519.9339    478.93214    307.09009   -584.50062    36341.856 
  640200    303.66379   -1499.1091    504.61358     378.6384   -89.206344    36341.856 
  640300    311.12657   -1504.2603    501.62642    404.24589    93.938208    36341.856 
  640400    295.95665   -1458.5674    506.20411    385.91975    -648.4065    36341.856 
  640500    299.69156    -1470.216    500.30224    385.25815   -261.13327    36341.856 
  640600    297.89103   -1474.6154    494.49569    366.91044   -7.7104754    36341.856 
  640700    291.61184    -1519.547    495.19712    294.28641   -215.91585    36341.856 
  640800    298.59361   -1551.8093    475.61018      274.008    132.99018    36341.856 
  640900    306.92722   -1497.4799    516.82022    407.23109    115.23271    36341.856 
  641000    296.00693   -1454.9139    510.22421     393.8208    262.63144    36341.856 
  641100     301.5857    -1471.602    485.33646    377.47147    11.673281    36341.856 
  641200    292.24287   -1476.2959      493.375    338.56883   -40.594621    36341.856 
  641300    297.84431   -1489.7451    484.47652    341.55024   -1039.9694    36341.856 
  641400    294.94756   -1491.2874    502.84453    345.27718   -635.51947    36341.856 
  641500    291.92926   -1464.1977    496.50353    352.37744   -609.19108    36341.856 
  641600    296.11331        -1483    496.52657    352.51802   -823.08269    36341.856 
  641700    308.61796   -1500.4908    478.48698    373.53226    85.421192    36341.856 
  641800    302.80515   -1462.2673    498.35205    405.33601   -159.53315    36341.856 
  641900    302.64938   -1457.7723    477.32345    388.09802    -425.2747    36341.856 
  642000    295.75778   -1494.2538    471.56334    314.69332   -681.73308    36341.856 
  642100    296.39472   -1500.2262      501.299    341.33679     -523.497    36341.856 
  642200    309.05948   -1475.9194     483.3543    404.96752   -72.714411    36341.856 
  642300    298.48095   -1498.5119    508.17732    359.36314    622.06029    36341.856 
  642400    310.61279   -1486.1101    485.96345    404.40986   -9.7803528    36341.856 
  642500    290.06986   -1474.1939     500.8445    338.31431   -576.96756    36341.856 
  642600    286.48268   -1490.4907    510.23687    315.18898   -177.18248    36341.856 
  642700    291.60667   -1496.3349    498.03054    320.30861   -13.896022    36341.856 
  642800    302.19405   -1506.5697    492.49776    352.41598     217.4576    36341.856 
  642900    301.48045   -1544.3747    493.47756    312.36398    263.81123    36341.856 
  643000    297.53281   -1531.4725    493.62585    307.56366    748.07147    36341.856 
  643100    306.64958   -1545.4421    509.91493     351.1081    551.92838    36341.856 
  643200    302.56139   -1513.2066    505.64783    360.59021     820.0845    36341.856 
  643300    299.82262   -1526.3499    490.59054    320.00518    516.87285    36341.856 
  643400    300.09296   -1477.2197    492.08921    371.85654    247.56199    36341.856 
  643500    298.86681   -1473.8239    514.86383    392.48246    40.867215    36341.856 
  643600    299.82942   -1475.0038    508.12183    388.91331   -88.773569    36341.856 
  643700    291.03457   -1488.1983    488.95866    316.78634   -148.17645    36341.856 
  643800     294.4859   -1458.3161    503.25668    376.57308   -70.835663    36341.856 
  643900    302.53497   -1479.2807       506.21    394.95879     349.5722    36341.856 
  644000    307.34614   -1490.4556    493.51818    392.84765    551.13243    36341.856 
  644100    300.76047   -1491.6543    474.37486    342.72597    16.417266    36341.856 
  644200    300.21357   -1477.8081    482.02871    361.75293   -112.51151    36341.856 
  644300    301.83398   -1474.8011    516.82023    406.87889    253.35484    36341.856 
  644400    290.27101   -1527.6336    477.80355    262.74318    7.8850001    36341.856 
  644500    298.63515   -1493.2565    510.19671    367.33512    125.63992    36341.856 
  644600    304.79897   -1468.6192    495.94636     405.5942    76.889992    36341.856 
  644700    312.39266   -1494.6593    495.98262    413.92821    332.10688    36341.856 
  644800    298.44912   -1530.2233    505.72511    325.05553   -345.14158    36341.856 
  644900    295.84453   -1534.5907    483.50305    286.68843   -76.082345    36341.856 
  645000    299.59497   -1471.6034    496.82349     379.9552    868.58792    36341.856 
  645100    300.96982   -1508.8507    485.48651    337.58793   -14.576364    36341.856 
  645200    305.71168   -1497.7054    482.48658    367.17545   -413.88912    36341.856 
  645300     300.2812   -1517.6176    516.04213    356.26277   -231.16118    36341.856 
  645400    305.55967   -1511.7021    496.55346    366.55818   -498.40261    36341.856 
  645500    306.45021   -1510.4553    489.84966     365.1282   -324.44915    36341.856 
  645600    309.02184   -1531.9129    477.78425    343.23378   -352.82642    36341.856 
  645700    306.65878   -1503.0528    504.47427    388.09841   -158.41196    36341.856 
  645800    287.46945   -1484.2473    488.37208     304.0297    519.52581    36341.856 
  645900     302.5902   -1501.6353    495.28371    361.92765    236.62166    36341.856 
  646000    303.51012    -1520.554    497.02251    348.90755    103.88491    36341.856 
  646100    298.76561   -1488.9021    506.69901    368.78175   -481.17708    36341.856 
  646200    299.03627   -1464.2016     496.7737    384.78088   -73.270607    36341.856 
  646300    292.65139   -1518.3964    485.94003    290.88068   -264.10793    36341.856 
  646400    290.19656   -1501.3204    524.85681    335.77303   -194.95088    36341.856 
  646500    290.26376   -1511.0579     490.4073     291.8899   -370.44046    36341.856 
  646600    296.48106   -1513.3867    476.99461    304.26232    -463.5334    36341.856 
  646700    280.49513   -1518.2575    526.54349    276.65383   -439.99635    36341.856 
  646800    296.33364   -1483.1939    512.62424    369.41811   -271.24387    36341.856 
  646900    295.99638   -1511.6606    499.43839    326.24056   -248.49754    36341.856 
  647000    313.24192   -1504.6872    471.11573    382.87366    189.66377    36341.856 
  647100    306.10025   -1518.3019    486.21991    352.06927   -218.25829    36341.856 
  647200    298.82039   -1498.7854    512.35707    364.80429   -412.78053    36341.856 
  647300    283.46365   -1472.7254    481.64543    290.71118   -781.90265    36341.856 
  647400    302.58542   -1476.2054    492.74585    384.79812   -180.49301    36341.856 
  647500    304.50075    -1484.303    504.15284    396.76843    288.69418    36341.856 
  647600    299.79498   -1502.4108     464.4617    317.69045    274.23073    36341.856 
  647700    305.10409   -1487.3792    523.18962    415.45721    133.78505    36341.856 
  647800    292.47956   -1507.3747     503.1469    318.33231   -320.17531    36341.856 
  647900    314.38008   -1507.6845    505.27838    419.18569    106.94112    36341.856 
  648000    297.22993   -1485.6703    496.33026    354.70072   -147.85303    36341.856 
  648100    292.62267   -1473.1292    501.60205    351.68007    -327.4442    36341.856 
  648200    306.54422   -1459.9845    507.61532    433.78967    586.28723    36341.856 
  648300    303.37355   -1484.7848    524.26402    411.30074    806.99958    36341.856 
  648400     296.8986   -1441.4428    513.11499    414.21462    27.687259    36341.856 
  648500    304.82472   -1459.8319    513.51062    432.06219   -288.62849    36341.856 
  648600    291.06313   -1449.7758    505.80438    372.18373   -731.88037    36341.856 
  648700    289.15097   -1453.5644    477.97642    331.92054   -131.47461    36341.856 
  648800    297.14253   -1504.4722    510.84755    350.02084    -120.1928    36341.856 
  648900    306.56998   -1489.7696     482.3669    378.87261    321.59871    36341.856 
  649000    295.44597   -1514.9346    468.98452    290.02376   -140.10243    36341.856 
  649100    292.47346    -1470.405    496.92044    349.04788   -118.37852    36341.856 
  649200    305.39617   -1517.5124    504.07491    367.53001    167.28529    36341.856 
  649300    302.40435   -1477.6378    499.54866    389.34974    441.09294    36341.856 
  649400    293.55721   -1447.1557    494.96089    375.23827    366.11002    36341.856 
  649500    301.29689   -1463.9779    474.16928    372.62241   -325.50988    36341.856 
  649600     303.8495   -1432.0332    504.63271    446.57313   -9.3420351    36341.856 
  649700    302.19899   -1478.3896     494.0387    382.15938   -737.62891    36341.856 
  649800    287.98868   -1483.0631    518.46771    337.65744    88.394739    36341.856 
  649900    297.59774   -1506.1404    504.88087    344.44438   -361.97863    36341.856 
  650000    296.73738   -1508.2362    493.98425    327.56149   -797.95534    36341.856 
  650100    293.63806   -1436.5116    499.93247    391.21954    61.467685    36341.856 
  650200    290.08666   -1445.2608    530.59258    397.07137    -463.1607    36341.856 
  650300    300.05929   -1453.3513    487.49075    390.97423   -479.97274    36341.856 
  650400    303.51941   -1377.3593    541.77685    536.89864   -577.34164    36341.856 
  650500    306.88456   -1403.6711    497.04845    481.07521   -264.88606    36341.856 
  650600    295.82973   -1420.0567    514.49959      432.152   -150.66139    36341.856 
  650700    305.32577   -1450.2854    498.06606    428.42991   -338.89447    36341.856 
  650800    306.14783    -1421.096     497.1676    460.43812   -249.55645    36341.856 
  650900    309.66592   -1453.2608    498.53105    445.54514   -17.712033    36341.856 
  651000    310.64965   -1483.1508    493.92869    415.50112    -78.89262    36341.856 
  651100    305.89041   -1476.7218     502.7573     409.2379    -109.5318    36341.856 
  651200    303.57239   -1494.7999    519.76206     397.6828   -423.55929    36341.856 
  651300    306.26375   -1458.4473     480.4546    406.89788   -570.07348    36341.856 
  651400    302.42665   -1517.1273    501.12272    351.53515   -455.67235    36341.856 
  651500    300.99146   -1510.9092    478.59086    328.73159   -892.71248    36341.856 
  651600    310.16485   -1486.4838    497.02591    413.07313   -287.32047    36341.856 
  651700    300.33262   -1524.7494    524.26539    357.58669   -111.01977    36341.856 
  651800    293.46346   -1481.6043     485.0967    330.50152   -69.242549    36341.856 
  651900     287.4291   -1505.0561    533.86427    328.53065   -86.344099    36341.856 
  652000    292.82851   -1538.4497     479.9476    265.63586   -232.09198    36341.856 
  652100     306.6441   -1500.7284    511.03175    396.91392   -8.6113079    36341.856 
  652200    298.66628   -1517.6351     504.1078    337.00843     482.5895    36341.856 
  652300    305.22799   -1524.2033    477.41156    333.41527      504.944    36341.856 
  652400    304.94702   -1478.2313    475.51509     376.2203     827.0119    36341.856 
  652500       302.52     -1451.74    468.26707    384.48891    411.97522    36341.856 
  652600    301.35775   -1531.6296     495.6011    326.67771    791.86107    36341.856 
  652700    289.95983   -1513.3436    484.28876    282.11125    170.01793    36341.856 
  652800    300.09796   -1531.2644    485.64644    311.39162    43.150757    36341.856 
  652900    304.18319   -1529.0362    475.29104    321.73744    176.60029    36341.856 
  653000    305.23656   -1513.3751    493.71344    360.58411    195.46066    36341.856 
  653100    297.41742   -1489.2931     473.7631     329.3585    403.16758    36341.856 
  653200    294.56685   -1502.7316    482.72906    311.99596   -225.37008    36341.856 
  653300    292.89881   -1453.0554    516.21919    387.61968   -31.291613    36341.856 
  653400    313.50451   -1521.4089     491.4466     387.6702    311.04771    36341.856 
  653500    300.81584   -1513.3573    488.22809    335.12656    627.25223    36341.856 
  653600    314.99666   -1512.9772     482.5017    393.90441    316.91851    36341.856 
  653700    303.23196   -1519.8458    473.89739    325.23275    351.87085    36341.856 
  653800    303.46774   -1526.8991    469.92853    315.27682    608.68778    36341.856 
  653900    291.41415    -1526.348    476.34251    267.73695   -75.616503    36341.856 
  654000    310.35962   -1541.0271    489.13587    351.52052    -115.4184    36341.856 
  654100    308.62854   -1516.2079    512.01816    391.39424    93.360347    36341.856 
  654200    298.98638     -1518.31    496.29459     329.9678    32.777322    36341.856 
  654300    293.20289   -1514.1087    468.56231    280.28455   -593.77317    36341.856 
  654400    304.39943   -1510.9301     458.2721    323.80241   -367.28868    36341.856 
  654500    299.67636   -1521.7243    510.11159     343.4905   -323.28435    36341.856 
  654600    304.80918   -1504.8445    495.71115    369.17993   -153.67659    36341.856 
  654700    291.40263   -1488.3683    498.04194    327.36394    18.936605    36341.856 
  654800    288.06858    -1561.285    478.43426    219.76331    239.96457    36341.856 
  654900    305.39171   -1526.9321    477.35473    331.36999    469.36301    36341.856 
  655000    296.91967   -1501.2577     533.5173    374.89736     286.0577    36341.856 
  655100     293.2781   -1492.8239    478.76634    312.11338    781.38685    36341.856 
  655200    302.70527   -1455.6567     502.9038    416.04666    737.53408    36341.856 
  655300    293.88972   -1490.1007    486.50419     325.3401    945.90854    36341.856 
  655400    303.07986   -1455.1197    510.94381    426.31754    827.28332    36341.856 
  655500    312.24568   -1509.5254    507.36145    409.77633    391.50252    36341.856 
  655600    298.62459   -1521.1957    473.59498    302.74652    348.42334    36341.856 
  655700     300.5018   -1527.9265    469.19498    300.10423    191.23162    36341.856 
  655800    301.20315   -1501.9681    511.80736    371.84641   -311.01115    36341.856 
  655900    296.62054    -1510.145    517.39335    348.53347   -258.17347    36341.856 
  656000    301.70948   -1485.4235    497.08695    375.96015    223.76719    36341.856 
  656100    295.10821   -1494.0253    496.37129    336.79252   -125.58019    36341.856 
  656200    298.50301   -1512.1819    481.72273    319.33821   -253.23204    36341.856 
  656300    297.34852   -1483.7873    506.96613    367.75575   -71.952279    36341.856 
  656400    296.21672   -1484.4211    501.61474    356.65267    -941.8942    36341.856 
  656500    292.91533   -1515.2333    478.84757     288.1448    116.55627    36341.856 
  656600    298.27272   -1474.3869    497.15526    371.52438    574.25876    36341.856 
  656700    300.37272   -1530.7838    532.03547    359.50368     1430.096    36341.856 
  656800    311.95116   -1539.8282    511.81765    382.59792    1247.5113    36341.856 
  656900      306.155   -1515.8384    490.67652    359.23703    718.28302    36341.856 
  657000    294.90399   -1425.9972    533.15146    440.67728    163.63666    36341.856 
  657100     296.9496   -1465.5691    494.03298    371.23695   -25.220746    36341.856 
  657200    308.98491   -1519.7231    468.26353    345.73588    193.33942    36341.856 
  657300    304.25908   -1463.3186    503.79867    416.30577   -286.38337    36341.856 
  657400    301.24977   -1490.7743    515.16594    386.60967   -422.10027    36341.856 
  657500    296.28052   -1479.2589    494.13132    354.61995   -407.02313    36341.856 
  657600    307.59141   -1450.3024    500.91392    441.50564    -480.6996    36341.856 
  657700    308.67687   -1483.8916    503.39685    415.30772   -925.66924    36341.856 
  657800    299.30889   -1409.6871    498.16813    441.92257   -1192.7518    36341.856 
  657900    298.12183   -1441.1853    471.32007    378.20853   -1275.9294    36341.856 
  658000    299.84195    -1470.896    500.29023    385.24625   -629.10895    36341.856 
  658100    292.84612   -1546.2372    512.63704    290.61744    -808.7554    36341.856 
  658200    298.16257   -1495.1963    488.39139    341.45308   -267.65042    36341.856 
  658300    308.40607   -1482.9518    520.64987      432.276    112.44768    36341.856 
  658400    298.78545   -1536.8851    495.81484     310.0043    580.04755    36341.856 
  658500    293.68328   -1523.0941     492.0607    296.96972   -13.250319    36341.856 
  658600    298.23653   -1511.6409    493.42451    330.37603   -272.33505    36341.856 
  658700    297.60651   -1478.7543    480.62306    347.61234   -565.39572    36341.856 
  658800    295.56748   -1519.7129    462.31574    279.12611   -429.15621    36341.856 
  658900    300.12588   -1497.4181    495.87555    355.59328   -611.47882    36341.856 
  659000    300.47289   -1504.8552    498.08323    351.93309    -447.0325    36341.856 
  659100    299.92617   -1522.5123    489.85897    323.57948   -55.837465    36341.856 
  659200    299.89172   -1538.2118     507.5404    325.40563    484.43602    36341.856 
  659300    303.27231   -1488.0217    486.04226    369.38417    359.37355    36341.856 
  659400     300.0322   -1468.1431    457.66473     346.2339   -101.24794    36341.856 
  659500    296.62499   -1497.6218    499.51833    343.20176   -96.250614    36341.856 
  659600    301.40801   -1476.3952    471.10819    357.64646    -258.8962    36341.856 
  659700    304.34284   -1509.3219    485.23945    352.12199   -235.86087    36341.856 
  659800     307.9141   -1522.6509    501.89232    371.59473   -315.81844    36341.856 
  659900    294.38937   -1509.9669    491.24161    312.47072   -758.00987    36341.856 
  660000    298.03769   -1478.1451    505.50873    375.05693   -227.13712    36341.856 
  660100    289.71589    -1470.404    507.28079    346.93981   -233.35374    36341.856 
  660200    296.38824   -1458.9209     492.1461    373.45983    421.06036    36341.856 
  660300    296.30366   -1444.0654     528.2975    424.08438    156.75478    36341.856 
  660400    303.28914   -1525.6415    478.10909    323.90735    665.74428    36341.856 
  660500    293.63837   -1504.5183    490.75669    314.03848    574.16204    36341.856 
  660600    304.34183    -1500.333     493.8266    369.69356    781.49003    36341.856 
  660700    299.75793   -1540.3186    491.80356      306.957    486.78599    36341.856 
  660800    294.69124   -1519.8614    500.50226    313.20186    61.179185    36341.856 
  660900    306.40541    -1554.639    501.34618    332.23836    788.15216    36341.856 
  661000     303.5991   -1502.1239    479.18791    349.90541    499.26238    36341.856 
  661100    305.03798   -1502.5562    505.53556    382.32722    644.97112    36341.856 
  661200     303.5549   -1499.6382    481.86071    354.86403    62.257341    36341.856 
  661300    313.76808   -1493.0808    478.86364    404.60723   -475.91756    36341.856 
  661400    296.31105    -1501.607     524.3443    362.62296   -177.48794    36341.856 
  661500    296.15031    -1478.759    494.91596     355.3157   -172.70663    36341.856 
  661600    299.49852   -1506.9879    503.50689    350.81801    3.6979597    36341.856 
  661700    298.25453   -1505.8518    504.04756    346.86954   -63.388491    36341.856 
  661800     304.4848   -1552.3092    497.19096    321.72822   -143.74716    36341.856 
  661900    297.54302   -1479.5777    511.17581    377.05457   -463.02262    36341.856 
  662000    294.41182   -1486.5744    484.63587    329.35899   -583.41985    36341.856 
  662100    301.95663   -1481.4269    483.24539    367.23277   -316.35866    36341.856 
  662200     290.3892   -1485.2281    500.03794    327.91749   -414.07273    36341.856 
  662300    300.19557   -1481.5573    488.35389    364.24754   -791.32242    36341.856 
  662400    304.23275   -1448.1351    522.21718    449.78874   -254.58328    36341.856 
  662500    307.71896    -1473.851    508.64314    426.26312   -221.48729    36341.856 
  662600    299.78318   -1477.5338    463.04816    341.10056   -153.66341    36341.856 
  662700    307.28771    -1502.443    499.47537    386.55324   -201.37674    36341.856 
  662800    293.44162   -1484.2063    492.87572    335.57987   -150.50738    36341.856 
  662900    305.67976   -1476.7138    498.89722    404.43326     -257.009    36341.856 
  663000    299.60505   -1481.3507    501.80199    375.23206   -434.34539    36341.856 
  663100    302.91827   -1441.4957    493.24041    421.50743    272.47169    36341.856 
  663200    304.77255   -1476.9439    539.03554    440.23925   -155.50977    36341.856 
  663300    307.66496   -1520.5439    496.75653    367.43943    379.72539    36341.856 
  663400    303.95788   -1478.2893    492.07337    388.24777    218.83707    36341.856 
  663500    298.35301   -1506.6008    496.02697    338.54528   -109.55069    36341.856 
  663600    296.54017   -1507.8709    499.58949    332.64024    242.46012    36341.856 
  663700    298.72344   -1546.6202    458.32463     262.4986      69.4288    36341.856 
  663800     301.0553    -1530.506    519.42665     350.2592    102.21597    36341.856 
  663900    296.11613   -1531.8634    506.27922    313.42006   -440.54102    36341.856 
  664000    299.64672   -1523.2059    483.12704    314.89029   -289.78183    36341.856 
  664100    313.45204   -1508.6134     513.6978    422.47965   -58.586214    36341.856 
  664200     305.6469   -1452.9609    481.98158    411.12197    278.84251    36341.856 
  664300    296.01532   -1487.5471    482.19813    333.19942   -111.24293    36341.856 
  664400     298.9463    -1508.493    496.25082    339.55978   -356.56142    36341.856 
  664500    299.59021   -1458.4002    480.82289     377.1363     464.8413    36341.856 
  664600    295.38922   -1472.4208     494.2731    357.56953   -198.59674    36341.856 
  664700    302.60531   -1435.5656    494.71035    427.49228   -81.209405    36341.856 
  664800    304.97254   -1454.8622    500.59554    424.78532    5.3252601    36341.856 
  664900    299.05689   -1476.5736    508.67875    384.40718   -5.3143015    36341.856 
  665000    300.33862   -1507.6557    500.35748    350.79964    445.00561    36341.856 
  665100    307.54991   -1486.9131    488.49255    392.28591    910.44413    36341.856 
  665200    295.51025   -1440.2154    493.80303    389.85213    147.86892    36341.856 
  665300    304.52617   -1443.8796    483.01782    416.17172    374.55504    36341.856 
  665400    306.42032   -1480.1637    470.38578    375.82069    191.73274    36341.856 
  665500    297.72156   -1459.3961    504.75643    391.62409    -801.5248    36341.856 
  665600    305.54801   -1448.1481    507.49085    440.99683   -245.02413    36341.856 
  665700    306.40477    -1494.467    512.02223    403.08361    313.99679    36341.856 
  665800    295.93098   -1481.4956    497.77616    354.44756    366.76511    36341.856 
  665900    302.88745   -1507.4233    507.67512    369.87515    97.112499    36341.856 
  666000    304.04422   -1506.7791    492.65021    360.72531   -92.765399    36341.856 
  666100    302.20203   -1469.0823    473.45822     370.8999    304.26477    36341.856 
  666200    306.99628   -1479.8851    479.87043    388.18836   -36.756483    36341.856 
  666300    303.89865   -1461.6321    496.11699    408.68086    403.25363    36341.856 
  666400    287.56895   -1472.7859    474.26926    301.83815    351.53765    36341.856 
  666500    296.57488   -1490.7784    471.18368    321.48395    -347.5258    36341.856 
  666600    293.86279   -1525.3457    488.43982    291.90901   -68.540726    36341.856 
  666700    309.36993   -1504.5951    476.26777    370.60908    178.77564    36341.856 
  666800    295.67454      -1502.2    472.81951    307.62696    81.506103    36341.856 
  666900    290.93175   -1501.3427    494.30095    308.51929    1.2515061    36341.856 
  667000     301.5498   -1477.1425    489.24013    375.67234    157.61791    36341.856 
  667100    305.14482   -1483.1695    482.72784    379.38932    80.921321    36341.856 
  667200    291.82315   -1472.3429    487.82572    335.07469   -302.42609    36341.856 
  667300    312.66109   -1499.8513    474.92094    388.88831   -15.563184    36341.856 
  667400    300.78184   -1485.0173    460.37981    335.46458    262.71452    36341.856 
  667500    302.46307    -1495.086    506.23165    378.85008    486.41707    36341.856 
  667600    303.92171   -1491.0544    487.86059    371.10639   -355.33754    36341.856 
  667700    298.25036   -1481.6755    500.71848    367.69796   -31.883119    36341.856 
  667800    312.79744    -1516.021    462.37462    360.78893    418.40915    36341.856 
  667900    307.23577   -1544.8625    500.90566    345.32911    83.183133    36341.856 
  668000    294.03001   -1506.4336     468.5104    291.64782    239.49351    36341.856 
  668100    295.74828   -1478.9786    525.10002    383.46226    627.23628    36341.856 
  668200    305.80289   -1502.1046    493.79318    374.49527   -125.91653    36341.856 
  668300    302.37228   -1503.9407    473.27454    336.62762   -136.55996    36341.856 
  668400     302.0473   -1489.1484    486.97301    363.64895   -92.962962    36341.856 
  668500    293.69824   -1482.8393    493.87195    339.10349    -8.221426    36341.856 
  668600    299.98115   -1500.7285    485.89472    341.64767   -251.59344    36341.856 
  668700    289.48598   -1509.3144    519.36513    319.07413   -1116.7873    36341.856 
  668800     299.7018   -1512.5383    465.69864    308.37856   -373.20473    36341.856 
  668900    312.88312   -1500.0233    504.01663    418.81601     369.5577    36341.856 
  669000    306.02582   -1525.0961     509.0041    367.72278    767.84959    36341.856 
  669100    289.29273   -1523.5537    469.03201    253.62784   -48.286306    36341.856 
  669200    301.29104   -1512.5685    512.72045    362.55654    705.23684    36341.856 
  669300     295.0986   -1490.6662    487.85601    331.59293    361.02915    36341.856 
  669400    301.67487   -1499.1176    489.71212    354.73473    101.93807    36341.856 
  669500    303.65624   -1504.9839    493.32377    361.43965    288.70185    36341.856 
  669600    296.71847   -1510.4146    519.16778    350.48113    337.68247    36341.856 
  669700    296.97626   -1502.8512    490.08019     330.1226     220.0598    36341.856 
  669800    296.65173   -1538.7239    482.61123    285.31345   -60.778254    36341.856 
  669900    293.61878   -1508.0003    487.87154    307.58272   -531.84895    36341.856 
  670000     302.3414   -1546.1978    492.17867    313.13502   -756.24161    36341.856 
  670100    308.87155   -1536.6408    487.17992    347.22189   -227.14887    36341.856 
  670200    296.86166   -1551.2635    475.30121    266.41317   -350.35266    36341.856 
  670300    302.06328   -1564.7506    486.08879    287.23482   -234.92791    36341.856 
  670400    301.76003   -1557.0407    490.11169    297.59632   -81.554147    36341.856 
  670500    295.36666   -1529.3825    460.26179    266.49456   -437.52124    36341.856 
  670600     293.4665   -1490.6141    488.84904    325.25787   -235.85553    36341.856 
  670700    299.87391   -1489.7008    521.54267    387.83834   -224.48192    36341.856 
  670800    303.32751   -1494.0207    483.51254    361.10513     114.1217    36341.856 
  670900    300.98444   -1514.1193    491.07205    337.97091   -275.22643    36341.856 
  671000    298.27837    -1484.643    514.74576    378.88435   -123.42815    36341.856 
  671100    301.91199   -1494.4443    486.96163     357.7298   -465.39974    36341.856 
  671200    290.64284   -1513.3229    492.37102    293.30277   -207.15796    36341.856 
  671300    294.72787    -1507.146    494.07577    319.65641    270.01721    36341.856 
  671400    307.97297   -1545.0608    472.52916    320.08795    -245.7188    36341.856 
  671500    289.82113   -1525.6537    477.91792    262.80318   -161.09218    36341.856 
  671600    303.57944   -1508.4038    488.11228    352.46098    233.70076    36341.856 
  671700    298.08918   -1505.1525    501.43254    344.20624    607.56288    36341.856 
  671800      302.788   -1514.9612    511.40726    365.61976    550.99777    36341.856 
  671900    289.92919   -1492.5129    483.74292     302.2576    713.10828    36341.856 
  672000    307.23911   -1492.5501    484.73501    381.48602    349.45409    36341.856 
  672100    299.72964   -1497.0581    505.69126    363.97723   -9.0485097    36341.856 
  672200    308.98193   -1470.7131    501.82166    428.29055   -17.248466    36341.856 
  672300    294.14882   -1514.9918    470.43027    285.54679   -274.07305    36341.856 
  672400     297.1603   -1481.1317    499.92618    362.52038   -111.10267    36341.856 
  672500    304.56376   -1481.5577    500.37714    396.02292    840.34364    36341.856 
  672600    305.87558   -1530.7184    488.78757    341.20454    1006.8099    36341.856 
  672700    306.67979   -1537.0717    483.73412    333.43436    430.74714    36341.856 
  672800    302.41997   -1501.9762     483.2484    348.78169    349.61466    36341.856 
  672900    309.39623   -1524.6023    463.45963    337.91269    62.338746    36341.856 
  673000    303.09778   -1482.2355    466.43596    354.77497    255.83974    36341.856 
  673100    294.42235   -1503.1199    505.14568    333.37096    95.190838    36341.856 
  673200    294.04358   -1502.4885    493.28186    320.42571   -805.72066    36341.856 
  673300    295.93444   -1470.5293    474.42668       342.08   -626.12088    36341.856 
  673400    313.30718   -1465.5997    503.24657    454.38716   -849.80148    36341.856 
  673500    293.25712   -1481.2014    489.12387    333.99857    207.88714    36341.856 
  673600    302.77348   -1455.5025    487.05688    400.66246    134.13691    36341.856 
  673700    306.66849   -1463.3609    486.23969    409.59954    74.627196    36341.856 
  673800      305.932   -1435.8022    476.70286    424.29121   -160.29051    36341.856 
  673900    298.16371   -1472.9351    475.35301    350.68104    41.010478    36341.856 
  674000    296.25343   -1476.1506    505.63391     369.1084   -390.91461    36341.856 
  674100     299.3602    -1446.241     478.3135    385.74604   -503.92088    36341.856 
  674200    297.80302   -1432.2621    497.67718    412.04723    537.84177    36341.856 
  674300    301.51481   -1476.3263    493.02881    380.11895    426.33687    36341.856 
  674400    309.61838   -1478.7212    488.67822    410.01694    367.36487    36341.856 
  674500    296.86848   -1504.6883    488.69719    326.41512    80.819341    36341.856 
  674600    298.29906   -1468.9159    491.81644    371.77569    119.23251    36341.856 
  674700    303.01047   -1501.5095    473.74756    342.41774   -290.19268    36341.856 
  674800    301.51338    -1488.946    478.14257    352.60655   -107.55767    36341.856 
  674900    303.04589   -1476.7106    489.47461    383.10386   -9.6959228    36341.856 
  675000    303.69691   -1507.9428    486.76345    352.10431   -18.467467    36341.856 
  675100    307.77372   -1512.0905    473.54866    353.17676   -64.524371    36341.856 
  675200    308.70343   -1481.6918    468.91453    383.14529    450.11693    36341.856 
  675300    299.81402   -1497.9466     486.4948    344.27389    131.50106    36341.856 
  675400    294.02778   -1502.9333    458.36652    284.99419    488.62832    36341.856 
  675500    303.54329   -1552.2083    491.90907    312.28981    74.406493    36341.856 
  675600    304.41138   -1491.4049     482.5906    367.70012    307.17939    36341.856 
  675700     301.0124   -1504.5022    478.51207    335.15452    60.218874    36341.856 
  675800    297.38323   -1501.1627    487.68246    331.25364    505.29672    36341.856 
  675900    305.75648   -1464.4314    496.40652     414.5719    396.02076    36341.856 
  676000    299.84113   -1444.7613    479.55554    390.64248    26.346735    36341.856 
  676100    297.80752   -1483.8323    485.46198    348.28222    44.719745    36341.856 
  676200    289.99465   -1492.9054    499.18223    317.60044   -319.95262    36341.856 
  676300    310.52815   -1482.9583    466.13874    387.35425    148.70323    36341.856 
  676400    300.62612   -1503.4455    488.19811    344.15056    58.788371    36341.856 
  676500    306.87726   -1493.5258    505.79207    399.93107   -333.04896    36341.856 
  676600    299.74418   -1517.4451    494.70925    332.67398   -249.48588    36341.856 
  676700     292.7374   -1521.5556    493.32934    295.49976   -78.634756    36341.856 
  676800    299.97128   -1471.8154    491.28232    375.90375   -121.20271    36341.856 
  676900    310.34517   -1477.6486    485.06645    410.76421   -13.670438    36341.856 
  677000    305.62243   -1470.2043    486.77344    398.55983   -521.77591    36341.856 
  677100     306.9191   -1497.9529     503.9498    393.85094   -401.96005    36341.856 
  677200    288.08319   -1489.6247    496.01028    309.06573   -689.68877    36341.856 
  677300    301.94425   -1477.8159     516.1494    403.69186   -213.76782    36341.856 
  677400    293.65631   -1490.3688    480.88773    318.40012   -664.57709    36341.856 
  677500    298.64337   -1483.5193     508.6524    375.56527   -958.45188    36341.856 
  677600    303.15764   -1463.4479     453.6559    361.05315   -222.50864    36341.856 
  677700    303.34167    -1500.472     494.1125    365.31787   -259.26308    36341.856 
  677800    305.22833   -1481.0605    479.44684    378.59498    80.122076    36341.856 
  677900    299.15794   -1464.4438    493.49243    381.80765    269.97611    36341.856 
  678000    297.32184   -1495.3965    489.60159    338.66137    318.42167    36341.856 
  678100    310.06774   -1491.9609    473.35452    383.48546    551.36777    36341.856 
  678200    304.79836   -1435.8886    488.20228    430.57803      460.252    36341.856 
  678300    295.15196   -1420.3208    503.75496     418.0785    276.42996    36341.856 
  678400    301.85491   -1446.3003     506.3836    425.03765    277.59745    36341.856 
  678500    301.71665   -1452.1942    475.93158    388.06656    596.75412    36341.856 
  678600    303.33328     -1460.76    497.89734    408.77668   -58.293938    36341.856 
  678700    303.60651   -1463.9621     487.8868    396.79956   -613.23287    36341.856 
  678800    296.15206   -1452.1802    493.61001    380.59651   -298.71306    36341.856 
  678900    302.01284   -1529.7542    480.90404    316.81839   -420.43122    36341.856 
  679000    307.93443   -1541.6146    479.02375    329.85444   -146.86622    36341.856 
  679100    304.92496   -1520.1353    481.13484    339.83635   -408.07747    36341.856 
  679200    303.92903   -1526.4335    479.58245    327.48224   -479.90546    36341.856 
  679300    300.17151    -1521.046    483.41709    319.71327   -209.40873    36341.856 
  679400    298.07975   -1511.4765    501.20933    337.61637   -285.45348    36341.856 
  679500    303.32365   -1543.0393    486.83156    315.38806    316.21023    36341.856 
  679600    297.98112   -1556.3463    487.41157    278.50277    108.59991    36341.856 
  679700     303.4329   -1513.0174    494.15509    353.22752    469.15021    36341.856 
  679800    305.78651   -1505.1031    481.65934    359.28886    91.411715    36341.856 
  679900    309.57061    -1476.918    498.12937    421.05523    244.88578    36341.856 
  680000    288.58381   -1503.5227    486.31825    287.73944   -148.80056    36341.856 
  680100    294.39348   -1501.5487    480.30131    309.96721    35.442011    36341.856 
  680200    302.83304   -1473.2325    513.59341    409.73827   -93.277993    36341.856 
  680300    295.63652   -1488.9372    479.31467    327.21298    -438.3405    36341.856 
  680400    298.15851    -1473.431    476.95646    351.76513   -242.98046    36341.856 
  680500    311.10073   -1423.1271     499.9204    483.55627   -24.413813    36341.856 
  680600    301.04089   -1512.8045    484.06511    332.53401     63.65737    36341.856 
  680700    286.81426   -1448.5762    492.41904    340.78497    650.83186    36341.856 
  680800    315.16178   -1499.9525    474.17922    399.35322    453.96942    36341.856 
  680900    298.29756    -1457.795    481.16092    372.23439    1056.0782    36341.856 
  681000    302.26926   -1461.2816    492.69094    398.23738    910.80642    36341.856 
  681100    302.03694   -1463.5491    494.39001    396.61842    84.613365    36341.856 
  681200    300.92179   -1500.5706    490.31499    350.47927   -331.52833    36341.856 
  681300    300.08306    -1473.179     484.7542    368.51748   -910.74039    36341.856 
  681400    309.29206   -1491.5592    480.91316    387.93823   -1106.7961    36341.856 
  681500    292.92056   -1507.0783    472.92818    290.40408   -411.33009    36341.856 
  681600    310.79295   -1471.3808    493.68236    427.67273    79.070013    36341.856 
  681700    293.06997    -1490.885    473.03053    307.37536    61.390053    36341.856 
  681800    299.83733   -1459.6417     504.9022    401.09157   -49.869628    36341.856 
  681900    296.34513     -1507.51    501.95127    334.48099   -153.31089    36341.856 
  682000    302.10765   -1488.6221    494.37974    371.85487   -297.82837    36341.856 
  682100    302.10085   -1462.1324    478.40677    382.34083    162.04631    36341.856 
  682200    293.21472   -1483.3332    507.24725    349.79841    679.25665    36341.856 
  682300    295.63125   -1494.5266    477.92621    320.21125    429.00763    36341.856 
  682400    292.14479   -1472.2659    518.53293    367.31331    419.18964    36341.856 
  682500    291.56806   -1487.4765    505.60636    336.56819    856.20022    36341.856 
  682600    298.77556   -1508.5636     493.7068    336.17303    136.87347    36341.856 
  682700    299.57895   -1508.5873    472.28232     318.3577    414.16153    36341.856 
  682800    305.31006    -1498.697    509.94888    391.83001    162.78776    36341.856 
  682900    299.86469   -1467.2036    515.66367    404.41487   -28.887181    36341.856 
  683000    296.00559   -1461.4072    487.62858    364.72574    134.64478    36341.856 
  683100    299.26504   -1480.9473     482.5396     354.8355    168.86021    36341.856 
  683200     299.3742   -1495.5141    503.67552    361.89827   -32.313461    36341.856 
  683300    296.23082   -1520.4223    507.68139    326.78191    330.47071    36341.856 
  683400    300.34303   -1466.7042    515.68949    407.10309    329.29292    36341.856 
  683500    308.56588   -1479.3054    486.18702    402.18225    6.8937496    36341.856 
  683600    300.20597   -1449.1951     480.5317    388.83465     -56.3777    36341.856 
  683700    292.19529   -1476.5054    513.29615    358.06535   -360.57185    36341.856 
  683800    302.24599   -1448.5771    482.97916    401.12481   -275.26985    36341.856 
  683900    295.45373   -1473.1596    494.63792    357.48725   -441.11011    36341.856 
  684000    295.32339   -1510.5978    491.81041    316.63215   -99.360758    36341.856 
  684100    302.59292   -1472.3427    498.09671    394.04554   -273.22144    36341.856 
  684200    306.47572   -1508.2958    479.39418    356.94749    -626.8041    36341.856 
  684300    299.13256   -1480.8056    463.71513    335.55366   -623.21386    36341.856 
  684400    292.70405   -1473.0327    458.19896    308.74143   -254.82756    36341.856 
  684500    302.81128   -1497.6996    491.50588    363.08523   -191.85299    36341.856 
  684600    301.92116   -1433.0332    483.41574    415.63649    5.9371973    36341.856 
  684700    301.62661   -1442.2129    493.30369    415.01284    -390.7413    36341.856 
  684800    293.95438   -1480.8923    484.98473    333.32148    251.31872    36341.856 
  684900    299.14948   -1464.6779     484.5059    372.54869   -280.91003    36341.856 
  685000     300.4649   -1483.5586    501.83623    376.94648   -199.21973    36341.856 
  685100     298.7091   -1473.1768    497.77019    375.32275    180.21782    36341.856 
  685200    308.64271   -1477.8157    484.98826     402.8206   -707.74691    36341.856 
  685300    300.21324   -1470.8647    486.24742    372.91365   -898.72856    36341.856 
  685400    293.47048   -1470.5465     474.7842    331.27859     -1465.13    36341.856 
  685500    297.89995   -1512.3277    490.38351    325.12626   -606.60865    36341.856 
  685600    287.53908   -1525.6075    507.04385    281.65612   -217.51113    36341.856 
  685700    297.78716   -1516.9179    478.03445      307.677    123.43417    36341.856 
  685800    312.65208   -1469.9729    482.96407    426.76914    553.28887    36341.856 
  685900    310.60029    -1490.261    486.13047    400.36944     324.2811    36341.856 
  686000    294.69077   -1475.5906    488.67862     345.6469    223.10594    36341.856 
  686100    304.36018   -1453.2116    494.08382    417.15517    734.96384    36341.856 
  686200    288.13324   -1446.8488    492.94419    349.00188   -69.363175    36341.856 
  686300    288.62526   -1457.6477    498.99116     346.4748    89.212804    36341.856 
  686400    304.39053   -1459.8304    484.25044     400.8402    496.75686    36341.856 
  686500    307.33944   -1476.7462    485.29635    398.30496    191.93503    36341.856 
  686600    305.96664   -1465.2682    487.70587    405.98484    223.62114    36341.856 
  686700    296.66078   -1465.3166    496.82002    372.97045    248.97891    36341.856 
  686800    305.93479   -1431.2501    490.39492    442.54791   -497.65779    36341.856 
  686900    299.86199   -1431.5114    504.85982    429.29104   -132.26649    36341.856 
  687000    299.22711   -1429.5991     486.8748    410.34742    -373.8851    36341.856 
  687100    304.56607   -1470.7507     481.8645    388.32771   -781.74801    36341.856 
  687200    300.80047   -1455.0472     486.4485    391.58761   -1145.4404    36341.856 
  687300    303.41056   -1446.5977    493.28956    418.68074   -351.08356    36341.856 
  687400    289.05291    -1474.617    504.19668    336.64474   -565.85289    36341.856 
  687500    290.82001   -1496.0388    492.36458    311.38155   -156.02436    36341.856 
  687600    300.17428   -1518.4011    472.95214    311.90576    73.992758    36341.856 
  687700     295.7172   -1465.0426    485.74231    357.89996    436.80699    36341.856 
  687800    304.96976   -1516.5846    477.52476    339.97947   -177.46942    36341.856 
  687900    299.55466    -1505.104    473.32262    322.77147   -526.69044    36341.856 
  688000    293.68872   -1532.0673    493.18893    289.14943   -270.03296    36341.856 
  688100    312.32098   -1554.3724    467.23793    325.14629    272.42827    36341.856 
  688200    291.17505   -1519.2317    514.79422    312.22376    310.15555    36341.856 
  688300    289.36034   -1525.1539    476.94217    260.24352    27.144096    36341.856 
  688400       296.06   -1553.5807    456.95639     242.1261   -70.739386    36341.856 
  688500    305.38273   -1555.6183    480.98877    306.27719    289.93884    36341.856 
  688600    309.58462   -1544.8693    460.32617    315.36415   -64.937886    36341.856 
  688700    293.26279    -1544.909    479.53103    260.72376   -55.216359    36341.856 
  688800    302.98136    -1484.985    481.19142    366.25444    -265.7979    36341.856 
  688900    296.19685   -1494.3556    497.57613    342.58977    -185.2238    36341.856 
  689000    308.10469   -1524.4283    460.61794    329.40477   -89.268673    36341.856 
  689100    293.95427   -1510.4264    477.36705    296.16917    151.09424    36341.856 
  689200    295.63275   -1484.3125    511.61708    364.12297    -122.7066    36341.856 
  689300    309.85595   -1487.3554    484.93622    398.71501    650.12736    36341.856 
  689400    310.35196   -1534.2384    468.46503    337.60369    433.05709    36341.856 
  689500    298.00005   -1550.7769    480.03327    276.77949    309.32984    36341.856 
  689600    299.63005   -1524.7865    480.70497    310.81221    666.86714    36341.856 
  689700    311.97827   -1528.0128    478.15577    360.87403    407.07298    36341.856 
  689800    299.07198   -1512.3166    498.01833    338.07198    -38.68864    36341.856 
  689900    299.99839   -1492.5463    496.83447    360.84748    -108.3215    36341.856 
  690000    306.39701   -1511.5634    476.49968     350.4295   -526.09806    36341.856 
  690100    294.06381   -1481.2261    485.80931    334.30703   -426.24345    36341.856 
  690200       306.67   -1468.5786    498.91464    417.06372   -547.87806    36341.856 
  690300    295.78094   -1477.1113    483.46235    343.83954    -182.2311    36341.856 
  690400    297.36001   -1455.7525    501.64751     390.5239   -42.113307    36341.856 
  690500    291.61561     -1475.18     500.7085    344.18189    65.614611    36341.856 
  690600    308.42721   -1457.0617    511.29998    448.91186    642.75474    36341.856 
  690700    306.46206   -1438.2447    504.99438      452.537    480.31741    36341.856 
  690800    304.99956   -1444.9449    509.01897    443.24818    72.059575    36341.856 
  690900    289.44212    -1475.154     494.6845    328.35557   -29.598983    36341.856 
  691000    308.28504   -1481.7281    479.18877    391.49135    671.32664    36341.856 
  691100    301.61136   -1517.0553    506.07913    352.87693    463.47431    36341.856 
  691200    303.74828   -1507.5041    511.15069    377.16254    621.41083    36341.856 
  691300    299.20414     -1499.72     506.3612    359.60904     772.2094    36341.856 
  691400    294.27486    -1497.177     479.3747    312.87593    -91.64354    36341.856 
  691500    295.20894    -1474.563    500.71961     361.0586    102.42105    36341.856 
  691600    302.10989   -1481.0827    474.77764    359.80231    228.57791    36341.856 
  691700    308.31852    -1466.233     503.1992    431.14824   -93.961676    36341.856 
  691800    309.17426   -1494.0442     488.0764    392.08379   -326.79567    36341.856 
  691900    294.40489   -1472.5209    498.05267    356.79793   -591.89338    36341.856 
  692000    303.37658   -1521.3151    500.14026    350.66033   -257.78111    36341.856 
  692100    297.24002   -1498.1007    473.76356    319.74916    -18.08732    36341.856 
  692200    297.42197   -1510.4643    515.70281    350.14759   -219.69303    36341.856 
  692300    301.17148   -1482.5643    491.76287    371.06248   -215.97677    36341.856 
  692400    311.09072   -1466.5449     497.4498    437.62252   -4.7599364    36341.856 
  692500    296.89468   -1498.9886    493.02835     336.5645    769.24308    36341.856 
  692600    294.34298   -1446.7431    495.39034    379.63353    749.53572    36341.856 
  692700    290.25728   -1479.8781    499.03917    331.67223    101.06323    36341.856 
  692800    308.79088   -1517.6204    465.80665    344.50426    249.69043    36341.856 
  692900    296.86352   -1483.9361    496.33658    354.78435   -217.34689    36341.856 
  693000    295.05785   -1520.1177      481.542    295.64317   -290.50056    36341.856 
  693100    304.87725   -1498.4316    479.94763    360.13711   -201.41018    36341.856 
  693200    296.03876   -1498.5876    485.85944    325.92622   -51.773286    36341.856 
  693300    297.31745   -1475.5715    515.25208    384.11701   -519.05058    36341.856 
  693400    285.09141   -1479.9692    478.44447      287.627   -21.620809    36341.856 
  693500    301.13854   -1473.1228    513.24669    401.83896    360.99501    36341.856 
  693600    310.97002   -1472.3676    482.35133    416.15562    238.07885    36341.856 
  693700    298.75836   -1460.8756    506.87354    396.95004   -479.86845    36341.856 
  693800     307.8752   -1448.0119    490.89297    435.05855   -484.59717    36341.856 
  693900    295.06071   -1481.6848    500.07282    352.61972   -1244.0466    36341.856 
  694000    293.72038   -1511.5508    491.77669    308.39684   -723.45742    36341.856 
  694100     303.3079   -1468.9833    500.48539    403.02669   -364.53481    36341.856 
  694200    312.18258    -1517.748    490.13597     384.0429   -225.46256    36341.856 
  694300    298.87263   -1523.4545    504.08145    332.09577    216.64034    36341.856 
  694400    301.47496   -1500.5458    491.50544    354.19586    89.315604    36341.856 
  694500    290.47409   -1493.3874    486.47203    306.57615   -176.38193    36341.856 
  694600    296.17861   -1498.1622    500.74106    341.86562   -686.80694    36341.856 
  694700    306.90638   -1468.5765    498.95448    418.17454    94.082734    36341.856 
  694800    312.36978   -1514.1538    492.33411    390.68172    352.30839    36341.856 
  694900    312.56318   -1488.1183    487.71489    412.97253    133.56184    36341.856 
  695000    319.27213    -1500.064    522.15854     465.8076    469.03449    36341.856 
  695100    293.72054   -1499.6429    495.86209     324.3908    289.88117    36341.856 
  695200     293.9881   -1529.6293     525.8881    325.64028    425.43473    36341.856 
  695300    295.84673   -1466.6649    504.28533    375.40645   -59.572211    36341.856 
  695400    301.00611   -1449.8838    488.42739    399.65982   -295.63666    36341.856 
  695500    292.01886   -1502.3634    502.07744    320.19081    113.33342    36341.856 
  695600    311.20014   -1533.0079    484.90089    359.10543   -342.76729    36341.856 
  695700    298.86413   -1545.7644    498.21917    303.88513   -472.28318    36341.856 
  695800    292.17423   -1536.7979    493.09924    277.48078    -458.2804    36341.856 
  695900    299.42401   -1508.4739    526.13347    371.62163   -300.13003    36341.856 
  696000    296.79608   -1512.9157    504.73107    333.89425   -178.09917    36341.856 
  696100    291.79753   -1489.8146    519.36289    349.02423   -185.68431    36341.856 
  696200    307.26695    -1487.097      472.996    375.32598     46.29595    36341.856 
  696300    297.21793    -1533.782    513.73412    323.93855    227.39647    36341.856 
  696400     295.4441   -1491.6434    497.58635     341.9083    8.8911047    36341.856 
  696500    297.70688   -1513.5016    521.38126    354.07707    102.99988    36341.856 
  696600    305.32704   -1532.9333     492.6665     340.3881     86.36617    36341.856 
  696700     301.4938   -1535.6033    491.74342    319.46158    757.10086    36341.856 
  696800    299.89884   -1532.8604    502.46019    325.70906    406.65519    36341.856 
  696900    305.21303   -1586.6265    500.57422    294.08712    359.07603    36341.856 
  697000     307.3864   -1535.3537    536.26875    390.88218    519.49627    36341.856 
  697100    301.39924   -1535.5897    480.97324    308.27735    531.99112    36341.856 
  697200     302.5917    -1525.692    516.48321    359.07723    260.58009    36341.856 
  697300     297.1242    -1497.782    502.77954     348.5602    250.32873    36341.856 
  697400    295.37019   -1482.5381    516.19123    369.28434   -284.00618    36341.856 
  697500    295.24207   -1514.7388    481.39752    301.71059    101.75454    36341.856 
  697600    298.69028   -1515.7768    508.17258    343.04007    179.20455    36341.856 
  697700    302.62086   -1511.1423    492.13984    349.41544   -90.030697    36341.856 
  697800    302.34951   -1547.2295    479.99871    299.96006    245.71506    36341.856 
  697900     300.7419   -1535.4321    477.34464    301.83398   -169.21524    36341.856 
  698000    299.54616   -1526.3135    525.21062     353.4116   -382.74188    36341.856 
  698100    295.12733   -1549.2511    468.25173    253.53365    -273.4317    36341.856 
  698200     295.1515   -1513.6057    501.97456    323.01114   -469.16288    36341.856 
  698300    294.23984   -1504.1774    493.50303     319.8455   -683.85569    36341.856 
  698400    297.60331   -1525.4924    484.19358     304.4303   -463.12694    36341.856 
  698500    296.37805   -1531.7835    499.31507    307.72021    228.00026    36341.856 
  698600    309.43618    -1508.748    487.28594    377.77398   -368.16975    36341.856 
  698700    302.08845   -1563.1164    464.79266    267.68668   -171.93644    36341.856 
  698800    298.22303   -1538.6801    503.61131    313.46257   -142.58491    36341.856 
  698900    301.82515   -1511.8841    506.10722    359.04292    320.70926    36341.856 
  699000    288.10137   -1536.3172    470.12332    236.56845    214.52113    36341.856 
  699100     304.3632   -1542.9326    516.38176    349.74569    250.43833    36341.856 
  699200    290.96859   -1560.6862    470.54248    225.58388    282.38506    36341.856 
  699300    309.32503   -1510.5627    510.97028    399.14097    634.57737    36341.856 
  699400    287.82106   -1488.7203    514.91436    327.68893    598.77937    36341.856 
  699500    294.58618   -1494.8403    496.70541    333.95106    307.68246    36341.856 
  699600    297.79936     -1512.75    464.46422    298.32982    341.68707    36341.856 
  699700    307.09003   -1519.4456    514.13299     383.3144    457.91752    36341.856 
  699800     290.6893   -1490.6638    514.63428    338.43521    962.50485    36341.856 
  699900    297.88074   -1513.0137    488.50789    322.47774    570.50568    36341.856 
  700000    305.89573   -1479.1511    517.04171    421.11706    512.25612    36341.856 
  700100    294.38475   -1479.5039    488.10494    339.77615    282.79878    36341.856 
  700200    294.21812   -1485.9713    484.00536    328.45564   -357.28173    36341.856 
  700300    297.21755   -1508.6526    515.09838    350.43051   -177.18698    36341.856 
  700400    306.37003   -1483.3475    496.80706    398.83079    120.77768    36341.856 
  700500    291.94319   -1489.0872    504.86823    335.91565   -65.731504    36341.856 
  700600    294.79079   -1513.8891    511.59589      330.718   -204.99251    36341.856 
  700700    301.48169   -1508.5793    512.57184    367.25917   -178.48842    36341.856 
  700800    295.82073    -1464.112    490.11039    363.66682    443.67696    36341.856 
  700900    296.16661   -1502.4334     487.8682     324.6673   -110.53282    36341.856 
  701000    294.13722   -1478.9885    489.74909    340.81638     161.1179    36341.856 
  701100     301.0659   -1507.9732    485.08239    338.49573    410.29066    36341.856 
  701200    296.99825   -1474.2105    472.37226    341.15478    -179.8441    36341.856 
  701300    288.32132   -1478.7436    490.44447    315.45781   -60.002796    36341.856 
  701400     293.1279   -1484.9274    493.33071    333.89508    96.778947    36341.856 
  701500    296.68167   -1496.1934     497.5387    342.90685    252.43826    36341.856 
  701600    310.91486   -1475.9102    491.89554    421.90776   -20.585657    36341.856 
  701700    302.52014   -1467.3172    502.76802    403.41325   -87.944741    36341.856 
  701800    299.49078   -1471.0527    493.08373    376.29504    490.56383    36341.856 
  701900    306.49672   -1458.6594    498.68044    425.96515    479.52887    36341.856 
  702000    299.50907   -1467.6038    509.71495    396.45788    469.54598    36341.856 
  702100    294.06755   -1478.1065    473.20215    324.83637    208.11897    36341.856 
  702200    306.96102   -1464.1567    528.79515     452.6821    595.10131    36341.856 
  702300    291.77656   -1503.2117    506.77097    322.94045    205.71961    36341.856 
  702400    297.01347   -1481.9631    504.54313    365.64196    299.46563    36341.856 
  702500    315.88242   -1502.3247    479.33939    405.39983    200.99858    36341.856 
  702600    293.91727   -1508.6747    501.79193    322.17847   -137.41752    36341.856 
  702700    303.00702   -1478.6796    478.27762    369.76213   -102.80604    36341.856 
  702800    292.69007   -1473.0146    470.55922     321.0566    -104.1901    36341.856 
  702900    298.11954   -1482.4386    484.95334    350.57822    186.40378    36341.856 
  703000    296.96779   -1509.4869    451.88902    285.25744   -387.29372    36341.856 
  703100    309.50155    -1509.726    492.99939    382.80503    -307.2039    36341.856 
  703200    301.71079   -1456.3645     501.4795    409.41768    276.41687    36341.856 
  703300    296.08084   -1562.9361    475.32152    251.23013    155.99469    36341.856 
  703400    305.17849   -1551.6975       478.27    306.55566    353.95865    36341.856 
  703500    291.23903   -1556.0577      491.575    252.46786   -195.09689    36341.856 
  703600    297.61614   -1499.9372    492.28502    338.13491    335.22919    36341.856 
  703700    308.41974   -1479.7114    481.80354    396.73198    806.13677    36341.856 
  703800    298.40368   -1530.5671    481.03439    299.81562    281.50452    36341.856 
  703900    301.10347   -1498.4137    494.55938    357.70209    87.825475    36341.856 
  704000    298.16917   -1477.1156    511.04254    382.21479    110.22683    36341.856 
  704100    299.13517   -1524.4354      467.146    295.36662   -244.92677    36341.856 
  704200    302.09009   -1515.6332    498.47676    348.86139    112.90626    36341.856 
  704300    300.90026   -1480.8037    473.04281    352.87662   -42.567663    36341.856 
  704400    306.13856   -1472.6872    491.37749    403.01481   -285.98051    36341.856 
  704500    289.59971    -1486.056    515.36416    338.84588    -258.4852    36341.856 
  704600    302.48179   -1471.4931    496.30058    392.59652    207.30779    36341.856 
  704700    298.03802   -1521.5936    504.59654    330.69772    374.83575    36341.856 
  704800    303.09422   -1511.6938    506.00963     364.8742    295.83628    36341.856 
  704900    294.19737   -1519.2537    481.60474     292.6789   -241.53862    36341.856 
  705000    304.72695   -1490.0075    464.85641    352.79025    303.94612    36341.856 
  705100    307.37187    -1520.559      461.008    330.35045     -48.2164    36341.856 
  705200    307.44013   -1495.4508      510.248    405.00727   -395.00426    36341.856 
  705300    297.29014   -1468.2671    463.72778    339.77369   -19.144335    36341.856 
  705400     307.9857   -1488.5479    515.81126    419.94052   -298.88575    36341.856 
  705500     303.6934   -1542.2592    499.91159     330.9202   -528.93005    36341.856 
  705600    313.29966   -1528.5819    513.59616    401.72043    435.96563    36341.856 
  705700    293.98153   -1501.2839      483.282    311.34986    -81.95446    36341.856 
  705800    299.87901   -1539.3624    477.44924    294.10636    266.60036    36341.856 
  705900    302.62299   -1503.6119    478.30625    343.12192     353.3411    36341.856 
  706000    288.14037    -1476.877     503.6301     329.6918    302.74831    36341.856 
  706100    291.38372   -1484.7405    479.90989    312.77419    94.660626    36341.856 
  706200    295.39319   -1444.6392     494.4745    385.57052    507.36875    36341.856 
  706300    288.59961    -1444.665    508.17294    368.52329    232.05545    36341.856 
  706400    303.43125   -1469.7775    476.27806    378.58295   -406.57226    36341.856 
  706500    313.11904    -1460.586    474.02834    429.33183   -212.37447    36341.856 
  706600    300.96381   -1457.6361     488.6828    391.97155   -154.70544    36341.856 
  706700    293.81145   -1432.8991    492.88264    388.56621   -38.519863    36341.856 
  706800    316.87213   -1427.5577    503.66811    508.97101    110.18928    36341.856 
  706900    300.44574   -1435.6094    474.28326    397.25605   -907.31112    36341.856 
  707000    290.16224   -1444.1778    496.14987    364.05345    120.93302    36341.856 
  707100    294.24968   -1426.6662    489.95256    393.85066     691.4142    36341.856 
  707200    298.91179   -1447.2409    493.23392    397.63894    458.35886    36341.856 
  707300    298.03526   -1481.7729    479.45626    345.36562    360.64933    36341.856 
  707400    295.96194   -1490.0322    482.55656    330.83137    461.78525    36341.856 
  707500    301.68888    -1508.233    483.18531     339.1559   -209.64768    36341.856 
  707600    302.06143   -1479.7268    481.23943    367.40081    168.64389    36341.856 
  707700    295.38538   -1520.3883    484.14974    299.46128    515.71546    36341.856 
  707800    296.75986   -1506.9103    488.02843    323.03325    438.68179    36341.856 
  707900    302.39891   -1496.4826    485.42273    356.35435    882.02865    36341.856 
  708000    306.48917   -1469.8078    499.95354    416.05566    74.811954    36341.856 
  708100    296.50954   -1520.7623    484.81158    304.83244   -2.3407916    36341.856 
  708200      302.497   -1507.0504    478.38922    339.19666    92.951401    36341.856 
  708300    308.16431   -1478.2031    502.65179    417.93342   -176.53398    36341.856 
  708400    299.20216   -1467.1371    466.32607    352.14782   -123.09661    36341.856 
  708500    301.38375   -1485.9186    497.95553    374.86071   -160.40536    36341.856 
  708600     300.3619   -1504.8162    499.40225    352.78919    50.512656    36341.856 
  708700    290.72388   -1503.7382    480.61993    291.50279     37.60305    36341.856 
  708800    293.34638   -1503.0881    490.69187    314.08354   -216.10838    36341.856 
  708900    299.04332   -1499.7824    473.05724    325.51553    61.876536    36341.856 
  709000    295.80872    -1542.377    483.45511    278.69226    14.242396    36341.856 
  709100    299.16288   -1483.0577     513.6525    383.37606      320.038    36341.856 
  709200    293.16376   -1503.0042    498.23813     320.8879    517.14696    36341.856 
  709300    303.07827   -1502.9762    493.17545    360.68553     907.6309    36341.856 
  709400    303.32024   -1509.2216    492.97078    355.32963    257.15134    36341.856 
  709500    301.11407   -1496.6197    488.47731    353.46195    497.73107    36341.856 
  709600    298.82302     -1507.76    492.69196    336.17642    153.85073    36341.856 
  709700     300.2224   -1489.7742    468.24407    336.04222    46.493806    36341.856 
  709800    299.66136   -1479.0243    485.19023    361.20124    144.36231    36341.856 
  709900    307.28953   -1480.7107     509.9849    418.80331     28.09452    36341.856 
  710000    298.22331   -1461.5245    499.71487    386.72299    21.418546    36341.856 
  710100    295.28683   -1487.8671    467.12617    314.51325    360.73479    36341.856 
  710200    305.39216   -1514.7978    492.02816    358.17974   -71.177026    36341.856 
  710300    299.01964   -1534.8234     481.1592    298.46944    17.733969    36341.856 
  710400    305.09391   -1515.9091    487.78341    351.47502    68.737123    36341.856 
  710500    304.37397   -1519.0179     484.1196    341.44694   -92.454363    36341.856 
  710600    302.46039   -1507.0616    497.29368    357.92428    112.23837    36341.856 
  710700    290.57568   -1509.4387    479.05177    283.56404   -491.00693    36341.856 
  710800    303.22779    -1453.981    485.59117    402.77252    359.81475    36341.856 
  710900    298.35978   -1513.4916    481.32437    316.98253    743.61376    36341.856 
  711000    292.89272   -1487.8218    487.35568     323.9622    1136.8397    36341.856 
  711100    297.91849   -1494.0448    484.55242    337.66196    903.65538    36341.856 
  711200    301.96018   -1457.8988    489.05422    396.58577    223.36818    36341.856 
  711300     294.1659   -1482.9398    498.28557     345.5313   -419.73379    36341.856 
  711400    299.92918   -1477.7642    462.56003    341.04226   -166.94961    36341.856 
  711500     291.7841   -1502.2794    489.60894    306.74482   -391.32733    36341.856 
  711600    304.95426   -1515.5905    480.70295    344.08171    231.90492    36341.856 
  711700     295.7262   -1482.8662    488.84892    343.22371    299.23041    36341.856 
  711800    295.38084   -1474.8285    510.29647     371.1473    363.81209    36341.856 
  711900    307.65143   -1476.9605    492.52248     406.7275     570.0595    36341.856 
  712000    310.10376   -1528.3735    489.12673     363.0079     591.9861    36341.856 
  712100    300.87368   -1479.4891     489.6593    370.68756    474.38088    36341.856 
  712200    305.58489   -1498.8782    483.03538    365.97814   -191.00385    36341.856 
  712300    306.62797   -1480.0942    488.56455    395.00789    134.95986    36341.856 
  712400    307.44535   -1466.4788    474.66678    398.42167   -261.93823    36341.856 
  712500    295.25648   -1518.4161    492.22947    308.93035   -143.81688    36341.856 
  712600    295.77212   -1521.8832    466.39028    281.95577    64.152077    36341.856 
  712700      308.232   -1556.1402    467.51222    305.16282   -256.90119    36341.856 
  712800    297.28363   -1521.4883    494.35981    317.15499   -949.85466    36341.856 
  712900    302.89282    -1555.199    501.27194    315.72059   -317.95985    36341.856 
  713000    292.43657   -1574.7863    485.91845    233.49781   -30.226948    36341.856 
  713100    294.52567   -1513.4354    502.62404    321.00099   -415.97223    36341.856 
  713200    307.52905   -1527.1985    475.27963     338.6933    -51.24199    36341.856 
  713300    300.20896   -1536.4423    509.01486    330.08414    605.79674    36341.856 
  713400    302.43043   -1527.4888    489.33827    329.40623    555.12066    36341.856 
  713500    299.30135   -1491.9562    524.90122    386.35245    404.84487    36341.856 
  713600    310.32987   -1497.9454     516.0692    421.40102   -8.0294299    36341.856 
  713700    299.12646   -1452.3961    503.53373    403.75419    458.94602    36341.856 
  713800     301.6473   -1481.9574    524.00678    406.06496    92.796093    36341.856 
  713900     292.9889   -1499.8296    489.86095    314.89459   -180.86545    36341.856 
  714000    300.46218   -1478.4163    493.50232    373.74263    -633.4002    36341.856 
  714100    291.11685   -1473.1036    498.77575    342.07015   -819.59449    36341.856 
  714200    305.99695   -1519.0214    485.02031    349.68308    -746.5057    36341.856 
  714300    289.18152    -1509.136    499.85697    298.36769   -788.32284    36341.856 
  714400    303.32676   -1477.4707    485.59502     379.7342   -374.06206    36341.856 
  714500     296.8274   -1533.6216    499.80001     308.3989   -569.48493    36341.856 
  714600    285.05877   -1545.5781     485.1257    228.55163    87.231641    36341.856 
  714700    305.97611   -1554.3459    506.50823    335.75231   -45.007941    36341.856 
  714800    293.52071   -1515.3194    479.46738    291.41597   -581.91829    36341.856 
  714900    305.61358   -1479.3713    489.94602    392.52534   -270.60505    36341.856 
  715000    291.22375   -1507.8889    491.64519    300.63773   -898.61538    36341.856 
  715100    301.21104   -1483.4198    511.52623    390.14933    -497.0792    36341.856 
  715200    299.04335   -1479.1105    518.60148    391.73177   -253.63816    36341.856 
  715300    306.10384   -1517.9674    497.24904    363.44922    -31.44345    36341.856 
  715400    305.75839   -1487.8603    517.74749    412.49261    221.13458    36341.856 
  715500    303.22036   -1476.6527    513.20794    407.68398    453.36447    36341.856 
  715600    314.37889   -1487.2405    491.91906    426.26491    203.37972    36341.856 
  715700    296.83577   -1463.1804    500.71799    379.79591    -98.59318    36341.856 
  715800    294.83567   -1474.7102    518.65666    377.16059    230.37364    36341.856 
  715900    305.90076   -1503.5924     513.5075     393.1643    344.62615    36341.856 
  716000    311.38803   -1469.5347    491.04233    429.56975   -468.69684    36341.856 
  716100    297.60443   -1501.4591    480.64289    324.91789   -678.65164    36341.856 
  716200    301.63846   -1506.0352     534.8718    392.81215    50.306104    36341.856 
  716300    305.40428   -1487.4915    488.85368    382.36641    681.58288    36341.856 
  716400    299.71123   -1483.5683    522.82803    394.52058    616.57748    36341.856 
  716500     297.4599    -1477.306    519.52274    387.29728    918.09035    36341.856 
  716600    297.61312   -1505.2391    498.94197    339.47633    50.945424    36341.856 
  716700    299.66095   -1483.1413    505.30276    377.19494    390.33894    36341.856 
  716800    298.62633   -1471.1558     507.4562    386.65543    573.63515    36341.856 
  716900    304.13231   -1480.6549    482.63023    377.22785    636.40674    36341.856 
  717000    305.25229    -1487.157    477.95828    371.11822    522.90377    36341.856 
  717100    307.95779   -1484.6725    498.04004    405.91845     324.7412    36341.856 
  717200    292.04981   -1511.9863    482.60204    291.23256    -92.31919    36341.856 
  717300    306.13745   -1509.7558    490.30374    364.86745    17.193457    36341.856 
  717400    292.38851   -1532.3215    488.76766    278.59454    282.16645    36341.856 
  717500    296.62844   -1508.0415    487.27607    320.55536    196.77816    36341.856 
  717600    295.18716   -1559.0772    490.50095    266.22732   -92.622328    36341.856 
  717700    296.67592   -1498.7336    478.62649    321.42838   -74.164721    36341.856 
  717800    304.68134   -1504.1141    498.98095    372.60203    310.80807    36341.856 
  717900    299.92492   -1515.0693    468.12527    309.28318   -447.61747    36341.856 
  718000    293.49084   -1517.3655    470.49747    280.26495   -370.72171    36341.856 
  718100    301.75464   -1506.5588    495.90338    353.84557   -62.033662    36341.856 
  718200    309.26445   -1511.5341    496.11567    383.04098    442.96172    36341.856 
  718300    299.21336    -1522.861    473.81551    303.96406    502.94417    36341.856 
  718400    315.10342   -1518.5781    482.19123    388.47575    31.135866    36341.856 
  718500    302.07563   -1479.7011    505.15005    391.40133    418.93382    36341.856 
  718600    303.81761   -1482.3335    493.01382    384.50974   -170.24936    36341.856 
  718700    304.83581   -1498.9961    505.38002     384.8176   -24.833417    36341.856 
  718800    304.58585   -1478.2372    499.96801    399.03415   -491.84018    36341.856 
  718900    300.26605   -1508.8438    475.10858    324.03444   -273.40869    36341.856 
  719000    303.91034   -1499.3396    487.83366    362.74277   -575.60411    36341.856 
  719100    297.60887   -1524.6427    489.20662    310.31817   -225.28579    36341.856 
  719200    308.02004   -1466.9468    494.10257    419.98816   -413.07222    36341.856 
  719300    287.59359   -1463.3172    480.39751    317.54661   -303.47834    36341.856 
  719400    297.23131   -1500.9849    493.99859    337.06063   -506.91134    36341.856 
  719500    303.59264   -1466.2163      479.068    385.66389    -341.3829    36341.856 
  719600    299.38928   -1457.3745    534.95363    431.38416    16.005794    36341.856 
  719700    296.18354   -1485.5979    471.02521    324.73639  0.017503299    36341.856 
  719800    304.76404   -1501.1186    470.34647    347.33695    360.36949    36341.856 
  719900    301.45097   -1469.9367    515.77065    408.96176   -45.786946    36341.856 
  720000    299.60408   -1484.5004    496.32072    366.59669   -632.62747    36341.856 
  720100    287.89102   -1440.0672    491.07208    352.81606    -473.7557    36341.856 
  720200    291.05416   -1448.7547    497.47797    364.83786   -280.14802    36341.856 
  720300    299.49821    -1478.027    496.97736    373.24793   -592.05625    36341.856 
  720400    299.20096   -1535.1724    482.36385    300.14488   -618.08365    36341.856 
  720500     288.6695   -1511.3972    513.42235    307.35659   -551.66812    36341.856 
  720600    289.94511   -1518.8854    496.17624    288.39041     -144.476    36341.856 
  720700    310.06402   -1553.1219      496.249    345.20211     219.3194    36341.856 
  720800    300.87629     -1508.42     504.1417    356.25082   -671.28012    36341.856 
  720900    301.73971   -1497.6362    498.96241    365.75968   -413.39359    36341.856 
  721000    310.50675   -1493.1085    492.99462    403.96312    479.15108    36341.856 
  721100    304.25128   -1487.1977    481.77064     370.3634   -137.85538    36341.856 
  721200    290.30172   -1523.5535    468.23809    257.39668   -4.3939129    36341.856 
  721300    300.55923   -1546.7251    499.32881    311.69911   -143.26225    36341.856 
  721400    294.44074   -1565.0131    489.02312    255.43836    501.14681    36341.856 
  721500    303.26832   -1551.9366     474.2733    293.68235    -179.6223    36341.856 
  721600    295.31747    -1575.595    475.73513    235.53288      70.2671    36341.856 
  721700     295.3738   -1513.7288    488.23026     310.1489    289.74651    36341.856 
  721800    300.33728   -1547.7806    504.32642    314.63759    -60.28627    36341.856 
  721900    308.95529     -1559.84    481.77074    318.99223     632.5916    36341.856 
  722000    298.75632   -1564.5387    498.82326    285.22742    4.1713305    36341.856 
  722100    295.62823   -1569.8119     476.5051    243.49119   -80.105748    36341.856 
  722200    312.37693   -1529.8893    491.06965    373.71415   -362.21921    36341.856 
  722300    301.54395   -1561.3263    474.93527    277.15718   -146.85275    36341.856 
  722400    307.00288   -1547.4559    504.17752    344.95458    72.812861    36341.856 
  722500    291.83176    -1535.461     486.0347    270.20449   -576.33369    36341.856 
  722600    307.20584     -1528.11    484.22028    345.26097   -112.80696    36341.856 
  722700    290.99743   -1516.3151    480.76373    280.30662   -536.14998    36341.856 
  722800    287.77738   -1466.1926    489.29403    324.39871   -612.98226    36341.856 
  722900    302.13895   -1484.6862    484.66546    366.21805   -774.12112    36341.856 
  723000    303.53369   -1535.1892    457.43919    294.79564    -24.75995    36341.856 
  723100    297.77152   -1574.5395    472.81574    244.76593    -199.9189    36341.856 
  723200    291.86856   -1511.3046    471.87955    280.37212    238.65555    36341.856 
  723300    303.46281   -1541.3451    493.70082    324.58082    367.92868    36341.856 
  723400    304.81395   -1516.4602     499.5766    361.45124    417.35594    36341.856 
  723500    313.09615   -1500.8121    487.90054     402.8744    848.50817    36341.856 
  723600    306.87433   -1486.4805    470.67816    371.84925    677.08621    36341.856 
  723700    299.44918   -1513.9291    476.59811    316.74491    565.07168    36341.856 
  723800    292.75435   -1503.1627    468.77891     289.4188    794.03554    36341.856 
  723900    302.63347   -1526.1808    505.49459    347.78872    1286.3128    36341.856 
  724000    296.16698   -1522.8333     504.8533    321.25419    466.66447    36341.856 
  724100    299.33984   -1490.3374    480.43545    343.67951    405.78411    36341.856 
  724200    301.92548   -1541.0274    501.67625    325.92228   -272.27662    36341.856 
  724300    307.27973   -1488.1744    470.23184    371.54225   -168.38234    36341.856 
  724400    292.72999   -1487.1862    483.88679    320.39307    -460.6921    36341.856 
  724500    298.07133   -1476.0475    507.42997    379.22789   -259.24193    36341.856 
  724600    290.74965   -1503.9948    486.61007    297.35287    102.16287    36341.856 
  724700    294.55223   -1501.1976    475.79295    306.52775    135.67026    36341.856 
  724800    294.38939   -1525.0561      475.162    281.30201     133.1889    36341.856 
  724900    311.82462   -1498.0847    524.88389    436.83541    342.46309    36341.856 
  725000    299.60149   -1502.8033    467.18718    319.14849    567.48478    36341.856 
  725100    305.89661   -1486.8162    516.63364    413.04785    420.36548    36341.856 
  725200    299.60465   -1475.5136    523.01472    402.28008    419.91839    36341.856 
  725300    310.33921   -1458.0761    491.11644    436.35976    1084.2468    36341.856 
  725400    314.98618   -1514.0505    497.47473    407.75672    892.03385    36341.856 
  725500    299.70019   -1455.1869    518.47771    418.50177    951.93624    36341.856 
  725600     298.8925   -1477.3546    493.75948    367.96354    493.81989    36341.856 
  725700    297.95929   -1524.9439    474.33071    296.72559   -158.42917    36341.856 
  725800    298.28136   -1517.9924    484.27544    315.07817   -241.19542    36341.856 
  725900    306.23969   -1511.4426    475.16319    348.50246   -393.35351    36341.856 
  726000    291.79922   -1483.2302    495.17231    331.42572   -610.84779    36341.856 
  726100    291.81202   -1475.4351    500.85562    344.96198   -531.53221    36341.856 
  726200    306.60804   -1476.4681    477.34581    387.32523   -360.00466    36341.856 
  726300    298.02173   -1468.0997    496.13221    375.65371   -42.975966    36341.856 
  726400     297.4298     -1462.27    443.78341    326.45789   -504.48183    36341.856 
  726500    300.10085   -1504.2933    499.82354    352.55289   -58.878402    36341.856 
  726600    291.38589   -1530.2593    485.27668      272.632    538.39362    36341.856 
  726700    313.77432    -1509.758    472.99373    382.08828    474.96598    36341.856 
  726800    300.71782     -1467.41    496.80793    389.21047    174.16904    36341.856 
  726900    294.25981   -1499.2437    504.53562     335.9021   -63.051664    36341.856 
  727000    310.81976   -1482.3459    503.55793    426.70444    830.71342    36341.856 
  727100    312.08965   -1498.1403    517.61023    430.70458    355.82248    36341.856 
  727200    306.35922   -1475.0869    468.02684    378.26229    644.22967    36341.856 
  727300    293.73892   -1463.8463    499.35467    363.76313    190.00424    36341.856 
  727400    297.01082   -1491.6034    503.42648    354.87297    304.23184    36341.856 
  727500    306.82717   -1483.7304    504.14242    407.85035     628.1062    36341.856 
  727600    303.64764   -1527.8663    491.47868    336.67324    498.24002    36341.856 
  727700     296.0283   -1557.8283    486.83596    267.61473    444.44312    36341.856 
  727800    295.39911   -1534.5077     482.0219    283.27618    514.69673    36341.856 
  727900    301.22189   -1547.7993    522.83672    337.12937    694.82768    36341.856 
  728000    302.77723   -1510.7595    496.90356    355.26902    785.44463    36341.856 
  728100    304.93744   -1507.5083    489.15732    360.54226    311.79616    36341.856 
  728200     296.9624   -1521.2185    499.13002    320.74249     294.5337    36341.856 
  728300    308.16922   -1532.5276    500.34956    361.32894    1060.7878    36341.856 
  728400    294.58681   -1521.1138    508.36774    319.34277    513.43511    36341.856 
  728500    308.55644   -1517.9972    483.34855    360.60934    65.048424    36341.856 
  728600    299.25474   -1531.8847    489.87763    311.18962   -112.39816    36341.856 
  728700    306.28875   -1538.6083    487.85629    334.25171    -39.51401    36341.856 
  728800    305.44523    -1525.225    487.39588    343.36025   -203.03323    36341.856 
  728900    296.72795   -1530.7335    504.57346    315.61073   -542.95636    36341.856 
  729000    304.80823   -1530.7194    520.06649    367.65601   -483.55423    36341.856 
  729100    302.09002   -1508.0575    500.10412    358.06407   -307.70773    36341.856 
  729200    305.59721   -1495.7349     490.6127    376.75444   -500.75042    36341.856 
  729300    303.97511   -1523.2384    491.25883    342.56213   -285.76667    36341.856 
  729400    301.19019   -1519.8248     491.2457    333.36945   -298.92681    36341.856 
  729500    289.49237   -1477.6216    518.35386    349.78457    -32.52075    36341.856 
  729600    298.62628   -1514.2682    514.70035    350.78706     27.48673    36341.856 
  729700    295.31462   -1497.4117    476.67888    314.64709    826.94328    36341.856 
  729800    308.06804   -1519.7916    497.44741    370.70523    1039.8648    36341.856 
  729900    301.22711   -1513.3305     514.0204    362.80539    858.86245    36341.856 
  730000    297.62585   -1565.2153    486.17834    266.79408    702.72009    36341.856 
  730100    308.20391   -1553.7434    515.59253    355.51298    66.404497    36341.856 
  730200    284.94417   -1534.5073    508.97841    262.95692   -250.57817    36341.856 
  730300    304.38799   -1515.8167    492.09448    352.68646    514.22028    36341.856 
  730400    301.35363   -1527.6076    473.39198      308.472    113.60285    36341.856 
  730500    296.31787   -1490.3938    475.64343    325.16608    211.70695    36341.856 
  730600    300.32677   -1517.1558    511.14212     352.0306   -261.53473    36341.856 
  730700    301.58941   -1467.1395    506.64801    403.26226    102.05226    36341.856 
  730800    309.71055   -1485.2521    508.22882     423.4534    78.777283    36341.856 
  730900    304.44867    -1479.634    521.36979    418.41887    -177.5782    36341.856 
  731000    294.94276   -1489.2863    505.37437    349.78644    -348.5451    36341.856 
  731100    308.73773   -1488.7671    513.18248    420.49307   -590.99147    36341.856 
  731200    291.51828   -1478.2873    521.12519    361.05111   -673.04873    36341.856 
  731300    296.40255   -1475.9893    497.62715     361.9372   -114.96694    36341.856 
  731400    292.28121   -1416.9899    513.55858     418.2318   -194.13092    36341.856 
  731500    295.81293   -1445.6197    534.49634    426.50978   -302.51177    36341.856 
  731600    291.98199   -1436.9184    503.19779    386.58955    385.30066    36341.856 
  731700    296.68453   -1444.9864    519.45131    416.03943    80.095379    36341.856 
  731800    310.30105   -1467.0765    504.23612    440.30646    -314.9379    36341.856 
  731900    300.77613   -1461.1409    508.94598    407.88136    320.15225    36341.856 
  732000    294.12027   -1470.6224    530.21284    389.56965   -247.55348    36341.856 
  732100    303.82919   -1483.5032    519.50522    409.88388   -805.33021    36341.856 
  732200    293.33714   -1468.6879    505.25363    363.00362   -731.04278    36341.856 
  732300    306.19867   -1492.9885    498.35165    389.95956    137.67098    36341.856 
  732400     291.3107   -1494.5116    471.09819    293.86126    -100.1671    36341.856 
  732500    291.42818   -1482.7598    520.84589     355.8919    85.446043    36341.856 
  732600    297.01233   -1472.8347    491.36641    361.58842   -241.67083    36341.856 
  732700     296.5878   -1443.8164    514.78619    412.10684    34.110059    36341.856 
  732800    289.99916    -1429.471     497.2968    379.16973    100.52633    36341.856 
  732900    305.07276   -1459.2772    528.27194    448.49984   -24.492604    36341.856 
  733000    296.31309   -1460.9666    505.90929    384.83754   -602.22536    36341.856 
  733100    296.29999   -1467.2305    498.33416    370.93932   -740.89307    36341.856 
  733200    288.17524    -1480.301    503.01801    325.81342   -465.20882    36341.856 
  733300    301.54954   -1495.1342    508.69455    377.13386    50.719866    36341.856 
  733400    297.31226   -1521.5723    482.58466    305.42535    409.65178    36341.856 
  733500    297.38733   -1488.1222    527.24521     383.8755    28.711568    36341.856 
  733600    301.54578   -1472.2876    501.22948    392.49842    -489.3509    36341.856 
  733700    301.85857   -1441.9633    536.62378    459.63134   -179.05928    36341.856 
  733800    302.31503   -1452.0358    484.45248    399.45167   -90.030516    36341.856 
  733900    305.80014   -1464.2469     541.4704    460.01776    586.11762    36341.856 
  734000    293.21973   -1457.2267    509.79033    378.47063    210.34323    36341.856 
  734100    300.21082   -1455.8762    514.70284    416.34654    601.34254    36341.856 
  734200    290.81795   -1484.8101    528.65447    358.89086   -232.25539    36341.856 
  734300     299.0273   -1505.5575    508.08918    354.69985    81.069298    36341.856 
  734400    296.61899   -1486.3063    493.48489    348.45675   -391.90666    36341.856 
  734500    293.72811   -1453.0175    514.02729    389.21566    -458.6768    36341.856 
  734600    303.64891   -1486.4923     498.8301    385.40439   -203.86064    36341.856 
  734700    297.49562   -1499.7641    484.05142     329.5294    185.50591    36341.856 
  734800    295.58432   -1506.9443    498.31237    327.96756   -314.74953    36341.856 
  734900     303.0576   -1458.6166    477.49998    389.27613   -93.277075    36341.856 
  735000    309.66642   -1501.0037    507.31657    406.59005   -66.777245    36341.856 
  735100    296.35945   -1467.8416    484.48991    356.75278      -483.25    36341.856 
  735200    304.35573   -1458.7227    495.91391    413.45402   -507.27728    36341.856 
  735300    309.53682   -1477.5659    508.76861     430.8938   -556.25122    36341.856 
  735400    292.29383   -1473.1681    495.97952    344.53165   -784.22893    36341.856 
  735500    300.79679   -1522.3032    497.88707    335.75357   -941.92446    36341.856 
  735600    307.83411   -1548.9553    488.73072     331.7671   -3.4540323    36341.856 
  735700    308.05443   -1512.6122    482.97049    363.34618    585.73309    36341.856 
  735800    297.48627   -1498.2552    484.85386     331.7985     111.9261    36341.856 
  735900    298.78471   -1492.6268    491.41779    349.86223    522.73794    36341.856 
  736000     295.9832   -1509.2837    479.80905     308.9285    217.97597    36341.856 
  736100     289.1264   -1487.6218    515.55536    335.33094   -349.96989    36341.856 
  736200    297.46328   -1509.4211    510.07121    345.74603   -365.72056    36341.856 
  736300    302.27937   -1468.7958    469.31723    367.39518   -24.719422    36341.856 
  736400    297.41995   -1491.9301    503.04367    356.01351   -321.51851    36341.856 
  736500    297.09726   -1506.1791     485.7018    322.96347   -399.27444    36341.856 
  736600    303.50027   -1475.0194    495.23926    392.61432   -324.01497    36341.856 
  736700    306.28337   -1496.6744    491.83376    380.13867   -108.60371    36341.856 
  736800    299.22158   -1473.3599    488.42979    368.11659   -866.15428    36341.856 
  736900    302.18512   -1502.3438    516.02816    380.13189   -247.59046    36341.856 
  737000    301.91277    -1481.568    488.43236    372.08036    60.420059    36341.856 
  737100    294.52928    -1458.519    529.70842    403.01804    20.228014    36341.856 
  737200    308.30823   -1473.7624    463.01148    383.38466    96.274155    36341.856 
  737300    301.81994    -1512.328    473.60174    326.06999    248.73354    36341.856 
  737400    293.63993   -1495.5398    506.44476    338.71213    335.59252    36341.856 
  737500      297.704   -1480.0439    521.21993    387.36042    58.458186    36341.856 
  737600    301.49607   -1480.3952    517.73321    400.66975   -488.56073    36341.856 
  737700    302.55101   -1468.2347    500.45917    400.32648    289.93898    36341.856 
  737800    298.24687   -1447.3352    496.07774    397.38176     415.2654    36341.856 
  737900    298.28169   -1438.9124    529.71059     439.5948    1033.6334    36341.856 
  738000    296.81714   -1422.8807    499.08196    418.37538    598.50596    36341.856 
  738100    293.31702    -1471.174    489.62275    344.79572    452.06636    36341.856 
  738200    302.44075   -1442.4351    494.31556    419.48394    322.44425    36341.856 
  738300    306.37876   -1440.3235     502.9332    448.02034     574.3106    36341.856 
  738400    299.73771   -1419.6208    497.91394    433.67379    413.47917    36341.856 
  738500    302.98879   -1434.1797    500.62663    436.52857   -325.00597    36341.856 
  738600    292.25729   -1478.3467    500.74512    343.95336   -113.76811    36341.856 
  738700    298.11229   -1436.0489    506.14299    418.12473    -484.4141    36341.856 
  738800    300.08871   -1422.1607    516.91217    451.71924    -633.9251    36341.856 
  738900    296.20286   -1454.2214    523.08307     408.2581   -457.96472    36341.856 
  739000    296.63069   -1441.5172    517.17491    416.98875   -314.19781    36341.856 
  739100    303.43582   -1453.3131    495.87664    414.66663   -945.30066    36341.856 
  739200    301.97171   -1477.5958     489.7908    377.67753    267.36685    36341.856 
  739300    293.81909   -1478.4317    499.46138    349.64692     394.9183    36341.856 
  739400    293.12316   -1500.7836    503.70966    328.39643    639.10751    36341.856 
  739500    308.72201   -1494.0746    515.44164    417.37369    739.53464    36341.856 
  739600    292.04061   -1531.7618    512.99583    301.80922    801.85861    36341.856 
  739700    298.62851    -1475.033    515.39271    390.72462    886.55329    36341.856 
  739800    300.07793   -1470.4524    494.19625    380.66288     194.6042    36341.856 
  739900    304.59323   -1490.2681     496.6697    383.73829    292.86177    36341.856 
  740000    302.39517   -1464.1972    526.00345     429.2036    422.61238    36341.856 
  740100    290.46071   -1487.7968    502.53768    328.17191   -160.14142    36341.856 
  740200    301.20541   -1472.3866    472.25965    361.89041   -225.49246    36341.856 
  740300    297.61524   -1511.3941    481.31929    315.70824    203.37113    36341.856 
  740400    299.34866   -1518.3044    539.55105    374.86798    1090.0766    36341.856 
  740500    298.12994   -1490.7435    519.52402    376.89091    417.65882    36341.856 
  740600    302.89767   -1446.6201    510.30746    433.35695    471.22097    36341.856 
  740700     302.6439   -1486.3108    508.32154    390.53277    102.19923    36341.856 
  740800     305.5589   -1459.6857    511.32617    433.34385   -113.18406    36341.856 
  740900    295.30279   -1443.4118    513.09482    405.00937   -250.31074    36341.856 
  741000    297.23222   -1442.1037    512.26979    414.21715   -7.5565408    36341.856 
  741100    302.64036   -1503.3172     481.4968    346.68564    -55.33663    36341.856 
  741200    316.15812   -1464.3529    503.16139    468.44041    205.88512    36341.856 
  741300    299.53856   -1498.7361    496.92929    352.67327    -383.6334    36341.856 
  741400    296.98079   -1468.6225    514.34001    388.63167    -26.95874    36341.856 
  741500    290.46437   -1472.1364    512.84058    354.15173   -180.76628    36341.856 
  741600    307.06853   -1494.2036    511.68965    406.01586    116.39929    36341.856 
  741700    304.76551   -1491.8149    535.12221    421.42301   -58.576135    36341.856 
  741800    297.08765   -1484.6625    508.43755    367.17237    165.75646    36341.856 
  741900    290.34253   -1498.3362    500.14936    314.70978   -700.87117    36341.856 
  742000    297.95888   -1441.8153    497.91841    403.44001   -449.25587    36341.856 
  742100    297.70143   -1473.8628    512.16054    384.47053   -218.48497    36341.856 
  742200    293.47967   -1499.0904    512.46929    340.46132    -126.2824    36341.856 
  742300    298.44939   -1455.6256    519.88088    413.81023   -206.37228    36341.856 
  742400    301.77412   -1457.1969    537.50255    444.89463   -297.99655    36341.856 
  742500    305.83938   -1466.4807    484.41424    400.90519   -506.17588    36341.856 
  742600    307.12535   -1479.2026    512.15352    421.73761   -414.05764    36341.856 
  742700    313.41897   -1434.6879    511.89152    494.44939    299.29392    36341.856 
  742800     295.8867   -1451.1309    493.84036    380.67617    1067.7176    36341.856 
  742900    309.53633   -1488.8557    533.47972    444.31293    965.40766    36341.856 
  743000    287.39827   -1500.0404    508.94148    308.48407    477.69828    36341.856 
  743100     293.1116   -1476.0035    510.18115    359.59567    608.39013    36341.856 
  743200     297.4009   -1524.7619    523.23736    343.28925    301.87164    36341.856 
  743300    300.30561   -1517.0015    500.38752    341.33459    863.13204    36341.856 
  743400    307.01041   -1492.5963    490.55003     386.2207    319.62444    36341.856 
  743500     307.2144   -1521.0115    497.37935     365.5572    250.61498    36341.856 
  743600    297.97309    -1505.219    489.81013    331.99231    773.21756    36341.856 
  743700    296.20405   -1516.4852    490.01588    312.93241    702.73313    36341.856 
  743800    294.28021    -1500.525    501.44816    331.62556    737.09149    36341.856 
  743900    299.19599   -1498.5753    526.82722    381.18289    630.37287    36341.856 
  744000    299.45582    -1468.177    497.20438    383.13328    88.706136    36341.856 
  744100     302.7206   -1502.6291    509.18813      375.428    22.033687    36341.856 
  744200    293.52093   -1473.9547     485.7642    339.07853   -414.21154    36341.856 
  744300    302.14937   -1480.0065    512.16733    398.44668    251.50013    36341.856 
  744400    304.66412    -1492.006    476.70016    362.35146   -186.89869    36341.856 
  744500    309.20668   -1470.8348    508.98062    436.34403   -219.54318    36341.856 
  744600    297.07302   -1514.6771    502.97166    331.62578   -369.29133    36341.856 
  744700    294.98344   -1511.4619    510.26175    332.68222    -122.3473    36341.856 
  744800    300.15115   -1503.6828    500.27463    353.84202   -108.46045    36341.856 
  744900    289.75133   -1460.1315    493.17823    343.27003   -151.39865    36341.856 
  745000    286.99026   -1484.1579    530.85226    344.43244   -153.67492    36341.856 
  745100    283.85085   -1481.1535    521.47315    323.86163    41.621264    36341.856 
  745200    307.09812   -1461.3785    478.62198    405.90703    57.181217    36341.856 
  745300    308.08058   -1467.9407    523.95971    449.12517    185.93023    36341.856 
  745400    304.30888   -1503.0206    500.48232    373.51266    81.140351    36341.856 
  745500    296.80111   -1486.2331    506.20895    362.07749   -215.18593    36341.856 
  745600    303.10211   -1453.4252    546.13221    463.30109   -152.88153    36341.856 
  745700    304.43281   -1459.7252     530.9971    447.88322    460.74147    36341.856 
  745800     294.5222   -1432.6951    539.67384    438.77542   -50.473157    36341.856 
  745900    309.82394   -1521.4307    499.46972    379.02844    275.93803    36341.856 
  746000    313.80606    -1509.099    512.29003    422.18717    141.89927    36341.856 
  746100    307.22965   -1517.7332    483.87321    355.39838   -348.67211    36341.856 
  746200    303.81744   -1543.0775    484.91229    315.66348   -666.89978    36341.856 
  746300    305.91483   -1537.9587    543.01456    388.36874   -458.24439    36341.856 
  746400    295.15547   -1512.7692     494.0145    315.90549   -588.77764    36341.856 
  746500    302.85159   -1528.2811    507.88221    349.06227   -856.09426    36341.856 
  746600    306.06536   -1464.6337    509.77056    429.13037   -853.45744    36341.856 
  746700     292.0608   -1502.7167    513.08426    331.03399   -840.86517    36341.856 
  746800    298.73368   -1535.9546    516.41256    331.29847   -672.92861    36341.856 
  746900    320.80406   -1544.9484    501.55798    407.24988    -254.2258    36341.856 
  747000    290.59249   -1542.1405    500.38157    272.26805   -383.98559    36341.856 
  747100    292.90315   -1530.4877    503.24455    297.23232   -4.7745243    36341.856 
  747200    291.95007   -1519.7612     481.3832    281.78772   -154.05824    36341.856 
  747300    291.51309   -1505.5663    548.79666    361.42015    122.98244    36341.856 
  747400    283.06367   -1521.5687    488.70153    247.11528    -170.8456    36341.856 
  747500    292.21743   -1520.1464    524.60795    325.83632   -106.13445    36341.856 
  747600    303.49962   -1587.5409    497.28329    282.13397    312.96295    36341.856 
  747700    308.51505   -1564.6766    497.93291    328.32703    298.06554    36341.856 
  747800    302.82972   -1533.2769    525.07103    361.15643    161.33297    36341.856 
  747900    291.58093   -1530.1713    511.84592    300.17122    194.14711    36341.856 
  748000    293.24142   -1517.6669    524.36699    332.70521    491.82473    36341.856 
  748100    293.79551   -1492.5252     506.2832    342.26868   -277.71297    36341.856 
  748200    309.71193   -1546.1261    512.79163    367.14844   -290.08202    36341.856 
  748300    297.88172   -1562.3958    490.48572    275.07794    506.02347    36341.856 
  748400    300.08376   -1522.0242    530.08262    365.00387    657.26661    36341.856 
  748500    310.97077   -1514.1988    498.04117     390.0176    471.40955    36341.856 
  748600    307.90171   -1492.6721    511.20622    410.83144   -45.935348    36341.856 
  748700    292.36539   -1475.3642    535.40279    382.08241   -435.69588    36341.856 
  748800    298.81312    -1437.292    522.83587    436.74355   -545.06141    36341.856 
  748900    306.29939   -1395.9589    529.24255    518.33547   -670.87196    36341.856 
  749000    305.95088    -1454.905    514.08484    442.65569   -169.76953    36341.856 
  749100    306.01134   -1446.1337    524.77707    462.39263    390.92371    36341.856 
  749200    304.15797   -1488.4149    501.13315    388.08676    150.74383    36341.856 
  749300    303.29267    -1464.535    501.02637    407.94707    443.71278    36341.856 
  749400    303.91804   -1465.7482    507.34589     415.8813     694.8865    36341.856 
  749500    300.59337   -1488.5425    529.24471      399.952    33.687814    36341.856 
  749600    298.49274   -1527.5015    517.01149    339.26097    142.98455    36341.856 
  749700    297.93871   -1525.3763    519.29728    341.16675    274.42485    36341.856 
  749800    283.44142   -1472.7195    530.27966    339.25077   -81.173884    36341.856 
  749900    299.70377   -1499.3929    516.51345    372.34765   -282.12346    36341.856 
  750000    306.66779   -1540.6012    500.07305    346.18947   -743.72385    36341.856 
  750100    303.55375   -1531.2478    506.53704    347.92556   -344.05089    36341.856 
  750200    298.42529   -1529.8192    487.53849    307.16534   -139.48509    36341.856 
  750300    305.52843     -1520.83    510.29575    371.03133    341.53692    36341.856 
  750400    299.58545   -1559.5899    533.50181    328.60402    397.00862    36341.856 
  750500    301.61979   -1565.1123    485.83237    284.61127    523.57682    36341.856 
  750600    301.69402   -1494.9621    502.15223    371.41699   -176.18763    36341.856 
  750700    310.85338   -1469.6115    503.22218    439.25512    482.71612    36341.856 
  750800    300.47715   -1513.3629    513.75001    359.11133    746.98297    36341.856 
  750900    290.42218   -1495.1343    513.38868    331.51118    1006.1722    36341.856 
  751000      287.998   -1470.1547    519.40625    351.54648    929.21286    36341.856 
  751100    300.88347    -1526.172    507.70888    342.09852    205.88347    36341.856 
  751200    302.54542   -1499.5577    503.67975    372.19884   -114.18291    36341.856 
  751300    298.58187   -1508.4207    520.04477    361.77813   -82.455761    36341.856 
  751400    301.95997   -1488.7012      503.484    380.21224   -333.60038    36341.856 
  751500    296.33466   -1452.8697    510.54775    397.67046   -254.59974    36341.856 
  751600    291.40374   -1455.2865    498.20163    360.61046   -460.13719    36341.856 
  751700    300.00111   -1499.3058    520.55598    377.82187    674.71183    36341.856 
  751800    297.02065    -1514.467      502.988    331.61538    289.11846    36341.856 
  751900    297.12984   -1527.4556    507.76091    323.89345     889.4873    36341.856 
  752000    298.03401   -1503.8484    532.75097    376.57923   -126.99916    36341.856 
  752100    301.00165   -1503.6543    528.99679    386.43847    163.37616    36341.856 
  752200     308.8238   -1480.1265    505.94917    422.28953   -231.01157    36341.856 
  752300    308.37166   -1503.0465    518.45854    409.83442   -102.76617    36341.856 
  752400    292.44027   -1512.9622    515.69186    325.11205   -227.73546    36341.856 
  752500    305.62912    -1506.536    498.28572    373.77064   -422.20091    36341.856 
  752600    293.47644   -1526.8119    498.09016    298.34603   -745.54361    36341.856 
  752700    304.39718   -1549.2692    491.59453    318.77554    182.48452    36341.856 
  752800    306.31348   -1579.8288    522.13415    327.42083   -516.93176    36341.856 
  752900    303.61471   -1554.9156     498.5151    316.51151    218.12508    36341.856 
  753000    303.60153   -1569.6631     502.7701    305.95938   -152.17517    36341.856 
  753100    285.83738   -1551.0931    491.93031    233.36207   -182.89195    36341.856 
  753200    306.83688   -1519.4952    482.52493    350.51197    130.95658    36341.856 
  753300    311.01587   -1567.2428    502.24415    341.38053    1.5651814    36341.856 
  753400    305.74338   -1505.9842     511.8747    388.42806    287.76631    36341.856 
  753500    293.82479   -1534.7156    485.50166    279.42908    117.90928    36341.856 
  753600    306.06083   -1532.9295     533.9843    385.02781    176.95927    36341.856 
  753700    303.56618   -1513.1007    489.49231    349.08417    12.033027    36341.856 
  753800    293.78726   -1514.5065    498.40199    312.36883    171.61499    36341.856 
  753900    305.33486   -1502.7338    526.44818    404.40468    -180.6537    36341.856 
  754000    304.84462   -1473.0166     528.8223    434.27916    199.40803    36341.856 
  754100    295.98524   -1463.2018     519.5407     394.7512   -174.65051    36341.856 
  754200    309.41498   -1477.8987    507.62825    428.86966    644.54446    36341.856 
  754300    291.42454   -1496.2573    562.79483    384.32686    645.61689    36341.856 
  754400    297.89244   -1494.6259    514.97628    367.38693    484.94411    36341.856 
  754500    301.35729   -1531.5104    517.59992    348.79367    1009.0945    36341.856 
  754600    296.68954   -1524.5079    521.53962    338.62888    147.99872    36341.856 
  754700    309.32735   -1531.1364    517.95927     385.5668    693.24677    36341.856 
  754800    292.25079   -1571.9127    499.22436    248.83723    42.933674    36341.856 
  754900    301.16486    -1534.871    480.45597    307.41895   -64.996135    36341.856 
  755000    293.05128   -1538.6242      519.965    306.48617   -515.60132    36341.856 
  755100    304.10923   -1531.5703    527.32013    370.89795   -349.95402    36341.856 
  755200    290.58654   -1509.8693    482.78222    286.91298   -503.00246    36341.856 
  755300     295.5157   -1541.1407    499.66916    294.81763   -257.38089    36341.856 
  755400    303.57814   -1530.9236    501.56957     343.3926   -275.21266    36341.856 
  755500    311.27792   -1539.1711    502.01214    370.40514   -319.81726    36341.856 
  755600     290.0326   -1590.1932    510.94787    232.24987   -359.09874    36341.856 
  755700    310.57889   -1568.8075    498.92641    334.52209    143.84101    36341.856 
  755800    305.73914   -1580.1332    493.25195    295.63715   -719.04462    36341.856 
  755900    295.71137   -1554.2743    494.07122    276.97091    218.20542    36341.856 
  756000    309.77582    -1548.442    502.45744    354.78724   -11.393103    36341.856 
  756100    290.74336   -1514.1004    496.59417    297.20291   -1176.6188    36341.856 
  756200    304.08596   -1510.1377    486.73586    351.64107   -735.60446    36341.856 
  756300    297.35806   -1531.8656    487.78935    300.54386   -1178.3714    36341.856 
  756400    288.92786   -1494.3863    503.32779    315.44119   -1243.5213    36341.856 
  756500    288.15958   -1540.5453    493.31207    255.79241   -714.35094    36341.856 
  756600     310.7692   -1525.7809    515.98283    395.46575     69.70156    36341.856 
  756700    308.79143   -1539.8364    508.86624    365.35035    118.04051    36341.856 
  756800    299.34996   -1555.2674    517.59203    315.95188     -63.5409    36341.856 
  756900      303.297    -1534.445    517.44154    354.47188   -425.42934    36341.856 
  757000    302.18476   -1569.9765    489.98179    286.45122   -619.49204    36341.856 
  757100    303.57195   -1605.5086    494.90138    262.11141    -293.4494    36341.856 
  757200    303.24267   -1587.0548    507.28311      291.458   -624.20929    36341.856 
  757300    302.21047    -1556.027    508.73258    319.26774   -636.26316    36341.856 
  757400    303.60913   -1509.6018    519.32529    382.61025    89.912411    36341.856 
  757500    295.16591   -1538.4193    484.39666    280.68481    155.99812    36341.856 
  757600     298.0505   -1538.9508    523.96069    332.76113   -379.97222    36341.856 
  757700    300.83408   -1525.6951    493.82907    328.47227    86.997079    36341.856 
  757800    305.40354   -1532.1647    498.02379    346.85992    197.12333    36341.856 
  757900    306.41354   -1541.4531    507.07991    351.19478    190.76042    36341.856 
  758000    292.76311   -1556.9189    507.43818    274.36152     615.4779    36341.856 
  758100    298.46851   -1541.8696    516.27391    324.04579    521.93821    36341.856 
  758200    304.03839   -1563.2455    500.28981    311.87207    316.14911    36341.856 
  758300    300.52584   -1544.2621    485.50029    300.18265    442.63867    36341.856 
  758400    309.36732   -1521.8096     527.8577    404.97268   -157.84917    36341.856 
  758500    290.25106   -1539.0565    489.53811    262.96466   -101.31613    36341.856 
  758600    296.49156   -1577.8222    495.97525    258.85491   -256.52639    36341.856 
  758700    298.87342    -1558.922    539.08587    331.63619   -245.76159    36341.856 
  758800    301.38108   -1534.9996    495.18489    322.99705    233.21919    36341.856 
  758900    295.76934   -1569.8656    507.98939    275.55991    248.58288    36341.856 
  759000    291.16951   -1577.1045    508.12336    247.65495   -214.02728    36341.856 
  759100    298.46528   -1553.5375    500.03399    296.12325    293.40016    36341.856 
  759200    304.59075   -1551.2723    534.04101    360.09426     559.3836    36341.856 
  759300    296.13248   -1525.0847    513.53366     327.5271   -150.39435    36341.856 
  759400    301.05399   -1547.8577    505.73091    319.20591    451.95522    36341.856 
  759500    294.39339    -1518.384     523.9399     336.7701    118.87743    36341.856 
  759600     301.3334   -1545.2893    512.98226    330.28909   -192.56315    36341.856 
  759700    302.65047   -1489.9009    528.11401    406.76485   -227.47628    36341.856 
  759800    299.98445   -1533.6647    525.53512    348.36677   -208.85957    36341.856 
  759900    298.87771   -1541.5082    488.47351     298.4571   -175.62051    36341.856 
  760000    291.03086   -1565.3528    512.79527    263.45165   -595.62915    36341.856 
  760100    298.42381   -1548.5616    516.78116    317.65885    209.40663    36341.856 
  760200    301.28569   -1541.0474    509.68217    331.01516    312.62613    36341.856 
  760300    309.94112   -1577.6932    484.59716    308.42329    306.60114    36341.856 
  760400    304.34036   -1557.6712     503.5453    322.06731    300.30046    36341.856 
  760500    298.43712   -1563.6129    489.46288    275.34948    258.09373    36341.856 
  760600     299.8293    -1539.319    528.64893     345.1247    71.495244    36341.856 
  760700    303.67559   -1529.9955    499.59027    342.78204   -176.63619    36341.856 
  760800    300.58128   -1536.9654    511.03594    333.26569   -286.96217    36341.856 
  760900    306.07462   -1505.1591    510.19271    389.06906    116.76286    36341.856 
  761000    303.53587   -1548.7477    516.49106     340.2988    227.77796    36341.856 
  761100    297.39835   -1520.5333    527.38543    351.65446    -136.7932    36341.856 
  761200    297.92402   -1524.7706    501.24884    323.65753   -314.34375    36341.856 
  761300    301.06197   -1502.8851    520.35402     378.8377   -307.50347    36341.856 
  761400    306.68082   -1560.1357    489.76865    316.40948   -67.119873    36341.856 
  761500    307.69945    -1578.197    499.59931    312.78502    149.98122    36341.856 
  761600    299.00175   -1552.8713    502.47059    301.65193    86.557147    36341.856 
  761700      296.696   -1535.1705    514.96958     321.4254   -177.20403    36341.856 
  761800    301.01693   -1580.0932    505.81472    286.88665    172.35641    36341.856 
  761900     294.6223   -1540.8516    502.64468    294.04239    278.11473    36341.856 
  762000    297.81872   -1485.3801    520.95791    382.28091    903.02278    36341.856 
  762100    300.66164   -1538.0262     508.7927    330.32503    917.13737    36341.856 
  762200    301.32166   -1529.8268    529.19247     361.9087    829.74269    36341.856 
  762300    300.25894   -1554.1194    512.58072    316.19887    743.63722    36341.856 
  762400    297.00681   -1525.1225    508.40393    326.31317    93.803502    36341.856 
  762500    301.74814   -1557.8786    507.18759    313.78054   -481.45469    36341.856 
  762600    298.25538   -1536.3929    484.04191    296.32667   -16.392295    36341.856 
  762700    299.44779   -1568.8027     485.2725    270.53941   -284.06973    36341.856 
  762800     302.3056   -1534.5945    510.63887    343.03668    218.15395    36341.856 
  762900    292.56884   -1545.8385    526.98404    304.10926    396.68071    36341.856 
  763000    301.85921   -1549.0711    503.35256    319.25528    108.19986    36341.856 
  763100    305.91848    -1536.871    500.05543    346.51374    382.86302    36341.856 
  763200    288.51529   -1545.6519     504.5297    263.51192    150.97722    36341.856 
  763300    295.45831   -1522.5965    481.83264    295.26579   -370.28798    36341.856 
  763400    299.67502    -1529.633    518.85189    344.31601    -725.8653    36341.856 
  763500     296.4735   -1526.2238    487.48449     301.8809   -562.18864    36341.856 
  763600    300.06749    -1555.364    475.91689    277.42472   -499.43329    36341.856 
  763700     293.8566   -1545.3115    475.29212    258.76752   -154.61429    36341.856 
  763800    295.03206   -1555.4815    485.29528      263.916   -234.69654    36341.856 
  763900    295.05537   -1573.9472    481.11288    241.37322   -338.17647    36341.856 
  764000    297.45609   -1571.6503    484.55996    257.97302   -247.21455    36341.856 
  764100    302.05218   -1577.7579    487.97647    276.06494   -776.51058    36341.856 
  764200    291.13888   -1518.0674    494.22272      292.653    -856.1257    36341.856 
  764300    299.06072   -1559.5135    505.65062    298.45641   -74.379672    36341.856 
  764400    301.77995   -1527.5122    507.62146    344.72464    120.96036    36341.856 
  764500    305.72229   -1523.6669    499.24551    358.02087    494.82579    36341.856 
  764600    296.55342   -1532.8066    493.61394    301.78898    541.72398    36341.856 
  764700    305.14478   -1517.4578    510.78301    373.15595    665.07492    36341.856 
  764800    303.93656   -1542.0065    516.36047    348.72132    522.18212    36341.856 
  764900    302.48941   -1550.5924    500.18913     317.4202    166.95762    36341.856 
  765000    309.48503   -1523.8459     500.4959     376.1069   -385.51902    36341.856 
  765100    299.41359   -1534.3979    495.63078    315.14788   -614.01271    36341.856 
  765200    294.62282   -1543.9098    496.96351    285.30537   -482.54204    36341.856 
  765300    295.93048   -1568.2877    505.75647    275.63349   -504.48903    36341.856 
  765400      302.111   -1563.8832     512.2175    314.44661   -39.769184    36341.856 
  765500    311.55365   -1531.1095    467.37304    345.07452    522.17697    36341.856 
  765600    296.45774   -1578.1499    518.53201    280.93109   -102.54147    36341.856 
  765700     297.0413   -1564.1837    506.36641    285.37042    356.83779    36341.856 
  765800    303.10468   -1560.6937    513.60282    323.51478    617.56746    36341.856 
  765900    301.21634   -1562.6744    490.00597    289.39836   -100.77241    36341.856 
  766000    296.11034   -1515.1891    521.44595    345.23493   -151.48612    36341.856 
  766100    304.69725   -1544.6921    490.82038    323.93539    598.96423    36341.856 
  766200    292.14438   -1542.7177     484.4516     262.7783    42.093422    36341.856 
  766300    296.79634   -1492.1716    501.87318    351.78164     150.4093    36341.856 
  766400    294.13496   -1544.5756    475.71005    261.18006    46.622908    36341.856 
  766500    308.45093   -1499.2959    515.71667    411.20157    171.56431    36341.856 
  766600    299.17791   -1506.0802    510.51916    357.28826   -357.31922    36341.856 
  766700    296.32666   -1501.7804    496.14775    334.32357   -66.637232    36341.856 
  766800    289.78288   -1511.1437    504.25114    303.47344    349.01022    36341.856 
  766900    304.22049   -1495.5258    516.88806    397.01355    439.59426    36341.856 
  767000     302.9611   -1530.4296    476.42169    315.94848    198.63733    36341.856 
  767100     299.2701   -1520.0517    511.06241    344.27677   -377.46786    36341.856 
  767200    301.41445    -1507.447    494.94102    350.45668   -120.35372    36341.856 
  767300     287.0991   -1484.8369    485.23219    298.62557   -570.07488    36341.856 
  767400    301.73978   -1483.2063    515.77747    397.00497    60.670214    36341.856 
  767500    305.22246   -1495.1162    508.92208    393.98795    178.57916    36341.856 
  767600    300.33763   -1471.9651    488.38994    374.51824   -113.02195    36341.856 
  767700    293.66087   -1465.4224    507.10392    369.58335   -277.55917    36341.856 
  767800    301.46217   -1484.5854    492.27676    370.86976   -437.93251    36341.856 
  767900    295.65826   -1490.5026     512.3303    358.76154    178.62473    36341.856 
  768000    303.72878   -1535.5489     494.9575    332.83641    228.70081    36341.856 
  768100    295.87023   -1548.7231    500.89563    290.06479    548.45527    36341.856 
  768200    297.50079   -1550.7039    511.50281    306.06443    738.66007    36341.856 
  768300    303.08276    -1532.725    512.63963    350.42119   -286.43704    36341.856 
  768400    302.63115   -1556.8781    492.03505    303.62141   -43.802032    36341.856 
  768500     304.7341    -1508.135    514.51729    384.35602    767.69261    36341.856 
  768600    306.61146    -1497.606    517.68974    406.54671   -142.00254    36341.856 
  768700     291.9316   -1465.6591    479.01268    333.43587    -378.2252    36341.856 
  768800    300.17068   -1454.5687    517.67244    420.44219   -316.06975    36341.856 
  768900     293.1762    -1464.866    500.48759    361.33178   -13.909298    36341.856 
  769000    292.65083   -1506.9446    507.28009    323.67006    12.502085    36341.856 
  769100    304.41649    -1539.224    497.80812    335.12163   -208.98839    36341.856 
  769200    303.29257   -1532.5127    489.87294    328.81551     287.4166    36341.856 
  769300     299.4679   -1566.9592    512.02031    299.22164     363.4133    36341.856 
  769400    294.07507   -1521.1053     508.7724    317.44187    272.02249    36341.856 
  769500      295.226   -1496.7165    497.77503    336.03766    24.939929    36341.856 
  769600    302.08312   -1489.2241     512.5928    389.35498   -681.43774    36341.856 
  769700    290.38701    -1495.405    493.52837    311.22119    -305.1756    36341.856 
  769800    303.20407    -1510.362     490.6772    351.37034   -646.76759    36341.856 
  769900    307.46186   -1547.4257     500.8214    343.70405   -3.2077111    36341.856 
  770000    305.60469   -1533.7932    501.91086    350.02813   -825.15996    36341.856 
  770100    306.30246   -1468.0478    501.06895    418.08683   -1067.9948    36341.856 
  770200    300.92986   -1507.7641    523.76494    376.77222   -668.75255    36341.856 
  770300    306.36071   -1499.4474    503.21152    389.09318   -164.81766    36341.856 
  770400    298.02007   -1491.5322    514.45874    370.54015   -318.46418    36341.856 
  770500    305.89749   -1525.6634    514.63742    372.20843    2.3355456    36341.856 
  770600    303.85065   -1514.6579    512.43632     371.7573    587.25176    36341.856 
  770700    308.83001   -1544.5345    525.25475    377.21523   -261.13375    36341.856 
  770800    308.12618   -1516.0608    499.51119    376.76269    294.37584    36341.856 
  770900    313.86916   -1548.6466    519.65461    390.28943    90.047451    36341.856 
  771000    296.99239   -1538.9066    506.46764    310.52759   -416.50059    36341.856 
  771100    292.10724   -1478.8765    519.97892    361.97895    -139.2061    36341.856 
  771200    301.65912   -1449.9221    494.07359    408.22052   -440.50315    36341.856 
  771300    287.58794   -1496.2069    526.10004    330.33383   -726.79195    36341.856 
  771400    307.39279   -1491.7858    514.20203    412.41223   -585.42118    36341.856 
  771500    303.28397   -1462.6288    483.46173    392.24935    89.771442    36341.856 
  771600    304.89834   -1428.0795    523.88995     474.5269    559.18485    36341.856 
  771700    295.74652   -1475.4881    518.70152    380.54635    93.752538    36341.856 
  771800     304.7387   -1475.8603    517.98192    420.11614    430.78638    36341.856 
  771900    309.02899   -1509.8807    517.25727    404.77131    1080.1195    36341.856 
  772000    303.25036   -1493.9623    512.02539    389.32749    437.36025    36341.856 
  772100    295.80598   -1497.5018    525.13606    365.23606   -28.588659    36341.856 
  772200    307.82535   -1490.4864    541.44106    442.90672   -207.04596    36341.856 
  772300     312.6862   -1468.6288     512.0619    457.36531    52.810783    36341.856 
  772400    300.94366   -1458.5691    522.29037    424.55507    67.544278    36341.856 
  772500    301.62563   -1508.6313    516.94671    372.23301   -49.806264    36341.856 
  772600    307.84039   -1482.1826    507.74222    417.57968    153.01176    36341.856 
  772700    295.96309   -1480.6209    510.46279    368.15409   -42.644512    36341.856 
  772800    305.88978    -1472.337    522.77517    433.63774   -134.03205    36341.856 
  772900    299.06374   -1445.5896    518.16164    424.90502   -179.08421    36341.856 
  773000    291.54559   -1485.7016     519.1313     351.7665   -342.23711    36341.856 
  773100    309.56441   -1484.4966     485.7377    401.05697    602.22008    36341.856 
  773200    304.26805   -1449.3525    517.20254    443.71637    411.02279    36341.856 
  773300     289.9665   -1458.2591    517.16941    370.10661    53.480447    36341.856 
  773400    295.61258   -1499.9747    504.64418    341.39667    37.397767    36341.856 
  773500    290.14986   -1438.5386    511.55052    385.03731   -33.433222    36341.856 
  773600    296.97715   -1478.8205    531.87948    395.95663    260.66973    36341.856 
  773700    302.56631   -1464.8551    528.25416    431.57031   -54.831888    36341.856 
  773800    295.79719   -1473.9389     528.3369    391.96003    111.94319    36341.856 
  773900    299.28779   -1457.5662    494.17196    389.95192    140.49326    36341.856 
  774000    297.77694    -1433.342    549.93009    463.10232   -400.39349    36341.856 
  774100    296.89231   -1478.0938    533.58335    398.00361    -809.8889    36341.856 
  774200    308.20398   -1494.8953    502.17035    400.93916   -395.89263    36341.856 
  774300     296.9518    -1502.231    471.14713     311.6992   -1049.6362    36341.856 
  774400    306.73509   -1494.5858     514.0412    406.47735   -780.31495    36341.856 
  774500    300.26483   -1497.1797    513.53801    374.12252   -750.70472    36341.856 
  774600    315.66449    -1477.796    508.95764    458.56145    -82.34024    36341.856 
  774700    310.56139   -1477.2685    528.40132    455.45692   -56.384843    36341.856 
  774800    298.22869   -1524.1937    510.88899    335.25223   -695.87152    36341.856 
  774900    305.69524   -1523.6668    513.89103    372.54414   -201.41649    36341.856 
  775000     299.0303   -1549.4451    498.24427    300.98097   -192.77775    36341.856 
  775100    301.99879   -1526.0361    512.35804    351.92686   -817.75565    36341.856 
  775200      303.368   -1524.0534    498.32026    346.06319    181.20433    36341.856 
  775300    299.08664   -1508.1599    517.63848    361.91508    259.95888    36341.856 
  775400    293.44047   -1526.4126    494.61572    295.10826    431.50774    36341.856 
  775500    296.17168   -1543.2995     478.8522    274.80813    1085.6183    36341.856 
  775600     301.8226   -1547.1341    533.24902    350.92321    800.61398    36341.856 
  775700    302.33024   -1537.3348    541.86302    371.63193    900.99133    36341.856 
  775800    297.81019   -1572.8862    511.48603    285.26442     769.2711    36341.856 
  775900    303.01323   -1526.6814    514.56961    358.08037     796.8072    36341.856 
  776000    296.33145    -1552.302     492.0639    279.73977    442.25206    36341.856 
  776100    304.92772   -1558.8702    524.36154    344.34057    391.82016    36341.856 
  776200    301.11371   -1541.0871    487.93708    308.45266    553.11426    36341.856 
  776300    300.78846   -1532.9404    519.55509    346.74662    129.56141    36341.856 
  776400    300.23103   -1514.8973    502.36529    345.07933   -275.22968    36341.856 
  776500    298.19848   -1495.1916    508.01074    361.23951    53.223034    36341.856 
  776600    298.99834   -1556.4125    516.44486    312.06965   -500.93374    36341.856 
  776700      312.766   -1562.1151    478.33107    330.50905   -389.69409    36341.856 
  776800    300.70976   -1521.2306    477.99825    316.54371   -1051.2549    36341.856 
  776900    307.78113   -1495.6989    521.08548    417.13865   -1167.6967    36341.856 
  777000    305.95389   -1478.5367    495.82935    400.78211   -442.36474    36341.856 
  777100    306.13394   -1499.2691    519.46716    404.50171   -391.48962    36341.856 
  777200    300.04401   -1538.4603     528.9491    347.25451   -597.41932    36341.856 
  777300    310.37737   -1506.2651    487.80643    385.03327   -334.13435    36341.856 
  777400    294.92973    -1511.419    484.98855    307.20898   -680.70521    36341.856 
  777500    293.21249   -1465.2961     531.7905    392.36872   -372.24028    36341.856 
  777600     294.9293   -1528.6819    513.48291    318.43855    33.947999    36341.856 
  777700    296.00294   -1502.6436    515.17131    351.02009   -19.521274    36341.856 
  777800    299.74169   -1503.8973    510.53442    362.03572   -5.7508257    36341.856 
  777900    305.73288   -1458.1431    517.03633    441.38327   -333.47067    36341.856 
  778000    290.52625    -1444.136    517.89833    387.48971   -884.72092    36341.856 
  778100    299.32792   -1462.9957    537.58543    428.11733   -178.12644    36341.856 
  778200     300.4422   -1462.9831    524.86816    420.45127    -311.3539    36341.856 
  778300    297.63626    -1516.466    493.72464    323.13668   -362.00853    36341.856 
  778400    293.27033   -1532.5986    493.07852    286.61579    -62.01195    36341.856 
  778500    307.57679    -1522.299    505.04362    373.57269    563.83106    36341.856 
  778600    305.66221   -1467.3895    485.91636    400.69738    687.70601    36341.856 
  778700    299.21555    -1461.153    511.91034    403.77679   -19.586612    36341.856 
  778800    297.92466   -1497.6568    507.22689    356.75232    512.85736    36341.856 
  778900    298.01668   -1470.1224    513.67606      391.152     729.1905    36341.856 
  779000    296.70551   -1477.8714    525.22047    389.01846    307.81953    36341.856 
  779100    299.62536    -1483.048    486.06441    357.88901    773.26532    36341.856 
  779200    318.15003   -1481.3775    513.62935    470.89089    527.43988    36341.856 
  779300    297.14184    -1489.717    488.88385    342.80921    314.05925    36341.856 
  779400    295.49433   -1477.8141    524.17662    382.55499    636.44495    36341.856 
  779500    298.43527   -1472.4765     531.6563    408.67088    421.95183    36341.856 
  779600    306.27804   -1466.4793    513.93319    432.40916    318.44988    36341.856 
  779700    302.67129   -1456.6554    510.00187    421.99244    400.03728    36341.856 
  779800    301.51375   -1479.6286    509.92268    393.70574   -290.59816    36341.856 
  779900    296.97955   -1496.3903    508.27578      354.794   -442.17359    36341.856 
  780000    294.12215   -1513.3914    489.74317    306.33947   -434.28886    36341.856 
  780100    299.60737    -1490.413    497.76011    362.13836   -684.19043    36341.856 
  780200    302.44214   -1469.1437    525.70767     424.1737    35.649363    36341.856 
  780300    306.22089   -1466.8247    523.36517    441.23734    308.63373    36341.856 
  780400    295.36022   -1502.9259    504.99615    337.65629    669.24937    36341.856 
  780500     299.2477   -1495.1644    521.23357    379.23407    315.22741    36341.856 
  780600    300.05677   -1536.5714    492.60012    312.85205   -79.213081    36341.856 
  780700    293.23858   -1515.0163    489.24599    300.22196   -475.98254    36341.856 
  780800     303.3639   -1468.2674    498.74035    402.25079    166.46496    36341.856 
  780900    308.81709   -1461.7951    525.60044    460.24193   -579.33015    36341.856 
  781000    303.12779   -1518.5471    455.16316    307.32624   -424.03271    36341.856 
  781100     295.0806   -1494.7085    501.27203    340.88517   -327.38578    36341.856 
  781200    298.80793   -1473.2043    494.03515    372.00716   -94.902749    36341.856 
  781300    297.43278   -1466.2975    531.96744    410.62789    730.52157    36341.856 
  781400    293.52399   -1538.0747    504.43684    293.64504   -20.006002    36341.856 
  781500    307.72043   -1538.1299    516.60103    369.94874    338.75758    36341.856 
  781600    309.28265   -1486.9945    505.09705    416.64437   -153.14427    36341.856 
  781700    292.47094   -1490.7543    524.34695    356.11371    423.78059    36341.856 
  781800    298.62857   -1458.0252    537.38527    429.72532    487.79289    36341.856 
  781900    294.29355   -1470.5181    491.01195    351.25661     262.7448    36341.856 
  782000    303.13905   -1520.2647    537.93386     388.4303    379.64567    36341.856 
  782100     299.9219   -1508.1313    503.93627    352.01842    884.24874    36341.856 
  782200    303.18768   -1524.1687    498.38174    345.19402    396.38239    36341.856 
  782300      304.606   -1493.1512    503.50855    387.75178    619.18794    36341.856 
  782400    314.21249   -1470.0495    527.11746    477.90195    510.72518    36341.856 
  782500    301.39896   -1536.5575    507.17874    333.51388    1163.6761    36341.856 
  782600    296.70001   -1529.9609     526.2423    337.92588    683.16245    36341.856 
  782700    300.62705   -1525.4315    484.33904    318.30965    682.28165    36341.856 
  782800    305.66901   -1501.7522    499.26773    379.71686    1173.1184    36341.856 
  782900    311.29253   -1501.2173    554.42572    460.83864    423.98855    36341.856 
  783000    302.50247   -1546.1982    505.61789    327.30224    41.606146    36341.856 
  783100    305.84269   -1535.8887    518.94771    366.04567   -35.785162    36341.856 
  783200    298.84628    -1514.252     514.2285     351.3262    -99.43864    36341.856 
  783300    297.55287    -1539.782    485.79548     291.5145    120.54186    36341.856 
  783400    297.11302   -1493.0398    524.97782    375.45003    214.68402    36341.856 
  783500    301.08274   -1488.1824     518.4557    391.73595    147.77289    36341.856 
  783600    295.44732   -1543.3469    493.82363    286.45669    438.11726    36341.856 
  783700    300.89541   -1506.5198    530.12363    384.21941    172.81407    36341.856 
  783800    307.07328   -1488.5749    505.66954    405.64594    515.93269    36341.856 
  783900    300.89445   -1494.2663    529.43676    395.78169   -514.53132    36341.856 
  784000    306.25078   -1550.5343     511.4411    345.73878    29.455406    36341.856 
  784100    302.91519    -1572.289     487.7537    285.21352   -89.471939    36341.856 
  784200    293.62973    -1546.904    502.05102    282.90803    191.61336    36341.856 
  784300    307.30562    -1534.441    504.07411    359.23496   -173.97391    36341.856 
  784400    308.85301   -1578.3276    473.24565    291.51707    -150.9681    36341.856 
  784500    296.85552   -1531.0142    487.00056    298.33401   -99.028014    36341.856 
  784600    309.19574   -1486.5478    511.34951    422.95046    493.95842    36341.856 
  784700    293.60576   -1536.7121    510.16749    301.10801    645.85227    36341.856 
  784800    296.84094   -1489.4413    534.43913    387.27954    435.85767    36341.856 
  784900    290.57909   -1458.1414    494.15412    349.97903   -161.54567    36341.856 
  785000    303.00248   -1495.7857    508.87175     383.2296   -23.371348    36341.856 
  785100    311.27651   -1489.2624    495.81221     414.1076    41.392659    36341.856 
  785200    305.53602   -1460.3993    539.72212    460.92276   -314.07817    36341.856 
  785300     305.5426   -1484.0008    500.55896    398.18783   -171.33748    36341.856 
  785400    291.41629   -1477.6639    514.96854    355.05671    162.82767    36341.856 
  785500    299.09194   -1520.2531    511.22421    343.43163    74.393111    36341.856 
  785600    316.45864   -1529.3141    515.53114    417.20787   -36.615553    36341.856 
  785700     301.4515   -1487.7645    522.70729    398.07298    5.4402972    36341.856 
  785800    301.12619   -1526.5492    544.71534    379.82531   -65.780451    36341.856 
  785900    304.87829    -1551.066    506.65596    334.21564     -3.54635    36341.856 
  786000    304.12891   -1502.8537    481.98677    354.37022   -14.085873    36341.856 
  786100    292.55618   -1491.0742    540.52706    372.35936   -535.90207    36341.856 
  786200    302.31071   -1499.6584    491.84401    359.20108   -262.50042    36341.856 
  786300    306.65224   -1502.0199    474.58305    359.21045   -533.76207    36341.856 
  786400    300.95406   -1482.8627    513.97104    391.98916   -266.70162    36341.856 
  786500    295.03762   -1525.6835    534.84519      343.289   -29.315935    36341.856 
  786600    296.24734   -1496.9977    545.19396    387.79378    843.31923    36341.856 
  786700    299.77127   -1488.9762    531.31671    397.87285    540.78192    36341.856 
  786800    298.92932   -1530.6192    506.28273    327.38872    107.76673    36341.856 
  786900    303.66481   -1493.3098    503.41075    383.23945   -139.76762    36341.856 
  787000    298.15465    -1509.059    497.71439    336.87755   -308.39229    36341.856 
  787100    296.46649   -1543.9347    513.06596     309.7198   -585.39982    36341.856 
  787200    291.01406   -1544.7385    487.28841    258.48319   -1113.2119    36341.856 
  787300    307.94496   -1480.3656    532.89832    445.02558    -752.1011    36341.856 
  787400    294.09868   -1464.7005    487.45507    352.63612    23.072138    36341.856 
  787500    301.36178   -1483.8993    524.78034    403.60549   -158.63211    36341.856 
  787600    305.29154   -1519.4182    503.46034    364.53659   -109.90475    36341.856 
  787700    291.58055   -1530.4896    511.08609    299.09136   -308.99933    36341.856 
  787800      297.163   -1532.4294    521.06182    332.37046    542.02151    36341.856 
  787900    298.29936   -1548.2601    485.64108    286.25752    432.44521    36341.856 
  788000    304.93632   -1538.1751    493.61924    334.33226    223.06945    36341.856 
  788100    301.50406   -1538.5454    514.25959      339.082    147.37855    36341.856 
  788200    301.68996   -1556.5579    503.58369    311.23425    -94.90247    36341.856 
  788300    293.42875   -1561.5964    514.90234    280.15812    63.771812    36341.856 
  788400    289.11882    -1542.336    530.66477    295.69189   -306.14742    36341.856 
  788500    306.65422   -1526.2997    512.90434    373.26088    60.001714    36341.856 
  788600    300.87376   -1545.4936      512.533    327.55713    410.93447    36341.856 
  788700    297.66216    -1574.464    493.61972    265.15095    174.51087    36341.856 
  788800    304.06662   -1576.0968    539.95101    338.80966   -77.597549    36341.856 
  788900    294.95828   -1562.1335    483.19018    254.82525    -102.4618    36341.856 
  789000    301.30494   -1610.6097    523.85755    275.71525    125.34728    36341.856 
  789100    303.98708   -1612.1352    487.10426    249.56482     218.0041    36341.856 
  789200    292.74876   -1578.3067    521.59696    267.06759   -276.73776    36341.856 
  789300    299.97977   -1537.3858    515.60334    334.69273   -6.5955345    36341.856 
  789400    297.08915   -1568.2998    521.12821    296.23248   -345.11082    36341.856 
  789500    299.26533   -1557.1731    500.26194    296.33337    46.661898    36341.856 
  789600    303.22639   -1545.4417    504.93126    330.64561    100.54492    36341.856 
  789700    293.09151   -1547.8602    522.15275    299.61977      682.651    36341.856 
  789800    303.07651   -1584.6442    505.77659    291.61074    115.50379    36341.856 
  789900    293.27899   -1531.8092    491.55592    285.92176   -90.051975    36341.856 
  790000    307.27538   -1517.3919    509.49538    381.56865   -482.61111    36341.856 
  790100    293.55047   -1520.0198    525.59537    332.97815   -919.19862    36341.856 
  790200    297.08107   -1513.5621    521.02438    350.82982   -555.70908    36341.856 
  790300     295.4412   -1541.9189    507.37295    301.40634   -1027.8056    36341.856 
  790400    299.17057   -1543.9163    525.29932    334.19912   -187.76821    36341.856 
  790500    294.61854    -1563.857    479.88916    248.26451   -682.91762    36341.856 
  790600    287.51565    -1566.291    514.16769    247.99048   -480.14867    36341.856 
  790700    294.96908    -1558.659    505.24253    280.40096   -183.98342    36341.856 
  790800     312.4516   -1545.1591     503.9165    371.62878   -102.79081    36341.856 
  790900    307.58661   -1570.1173    497.51981      318.275    176.90302    36341.856 
  791000    300.25187   -1505.3114    519.91275     372.3069     561.5097    36341.856 
  791100    306.29106   -1587.4706    495.35932    292.90288    312.85054    36341.856 
  791200    302.89391   -1562.8801    488.52976    295.30229   -345.26532    36341.856 
  791300    290.06957   -1542.2216    516.50961    285.95037    -318.6735    36341.856 
  791400    303.34761    -1538.404    524.47084    357.77104   -232.17183    36341.856 
  791500    298.90771   -1545.7302    490.89089    296.78809    -98.07327    36341.856 
  791600    296.22757   -1543.8585    555.63737    351.28701     229.7893    36341.856 
  791700    292.83731   -1549.0116    486.87849    262.04466   -526.03763    36341.856 
  791800    300.33121   -1547.2968    531.15172    341.91927   -204.18988    36341.856 
  791900    299.59502   -1571.1992    506.40729    289.94348   -452.50033    36341.856 
  792000    306.35974   -1503.5392    525.60496    407.39045   -482.20159    36341.856 
  792100     300.3053   -1530.6805    477.48957    304.75621   -377.64225    36341.856 
  792200    308.43738   -1547.3211    511.99791    359.39638   -327.67458    36341.856 
  792300     299.5721   -1522.2856    544.76938    377.11554   -302.16501    36341.856 
  792400    305.18515   -1529.6297    476.55358     326.9372    189.56437    36341.856 
  792500    305.83928   -1524.6821    506.31024    364.59939   -277.51442    36341.856 
  792600    299.05379   -1518.0283     523.3233      357.583   -293.22224    36341.856 
  792700    297.98533   -1510.6197    516.95284    353.78967   -284.18789    36341.856 
  792800    300.02906   -1522.5269    523.60648     357.7776     72.59169    36341.856 
  792900    306.98012   -1534.3835    513.88094    367.62741   -17.964653    36341.856 
  793000    290.04458   -1487.1147    511.19669    335.63129   -393.88215    36341.856 
  793100    303.84045   -1518.6092    531.62374    386.94727    646.50407    36341.856 
  793200    296.26818   -1529.7194    508.32245     318.2948   -126.92124    36341.856 
  793300     312.7165   -1556.3345    511.57279    369.30753    241.79099    36341.856 
  793400    297.95077   -1561.7552    521.48378    307.02885   -28.591064    36341.856 
  793500    300.99625   -1577.0148    511.59709    295.65393    1199.4313    36341.856 
  793600    308.49768    -1545.415    499.93064    349.50789    499.84484    36341.856 
  793700    297.12193   -1520.5856    515.78094    338.74764    132.64331    36341.856 
  793800    299.18838   -1496.1061    499.05116    355.84161   -66.036238    36341.856 
  793900    296.85409   -1473.7755      508.994    377.55971    73.619734    36341.856 
  794000     299.0066   -1497.4197    491.33691    345.99184   -149.77307    36341.856 
  794100    299.21292   -1516.1248    546.18911    383.07187    360.86637    36341.856 
  794200    291.13188   -1557.9541    516.56372    275.07567    186.31113    36341.856 
  794300    303.41038   -1519.2637    544.03516    396.75946    793.87676    36341.856 
  794400    301.09059   -1533.9957    507.67699    335.17944     183.2928    36341.856 
  794500    301.20869   -1487.3368    521.07177    395.76717    336.21287    36341.856 
  794600    302.15026   -1482.0509    517.50218    401.74122    45.688254    36341.856 
  794700    303.25373   -1491.9499     501.1311    380.46082    185.14248    36341.856 
  794800    299.18254   -1517.4661    527.40081    362.80492    349.55718    36341.856 
  794900    305.32487   -1520.1144    529.03681     389.5675    209.29178    36341.856 
  795000    300.89017   -1494.8255    498.04485    363.81129   -88.054842    36341.856 
  795100    303.73739   -1472.0017    515.34855    416.81352   -743.48642    36341.856 
  795200    292.34912   -1494.2526    527.40353    355.12111   -968.69629    36341.856 
  795300    316.56312   -1458.1161     516.2334    489.58055   -958.37505    36341.856 
  795400    297.92795   -1477.3055    526.91536    396.80695   -580.22899    36341.856 
  795500    294.96683   -1504.2063    492.69218    322.29307   -845.51531    36341.856 
  795600    289.59154   -1457.0144    506.48751    358.97391   -589.04733    36341.856 
  795700    292.53393   -1470.6028    529.67851    381.88162   -144.92124    36341.856 
  795800    294.12224   -1546.3294     495.6635    279.32221     716.1942    36341.856 
  795900    292.33005    -1521.301    537.18211    337.76512     497.9907    36341.856 
  796000    292.66103   -1484.9353    545.26891    383.71426    312.48422    36341.856 
  796100    305.67335   -1482.2045    493.11628    393.13272    164.64333    36341.856 
  796200    290.44149    -1522.262    521.35562    312.43774    464.29207    36341.856 
  796300     296.3306   -1540.1565    514.22613    314.04364   -11.647642    36341.856 
  796400     310.7626   -1509.7934    511.98036    407.42084   -266.89228    36341.856 
  796500    295.47915   -1492.2545    489.93069    333.80009   -546.94794    36341.856 
  796600    298.64021   -1538.0135    518.61625    331.02058   -772.10995    36341.856 
  796700    302.55271   -1555.3741    472.60277    285.33833   -208.30818    36341.856 
  796800    308.23644   -1545.5688    484.14907    332.39118   -83.091245    36341.856 
  796900    295.49678   -1605.9124    499.51048    229.80168   -48.153004    36341.856 
  797000    299.03119   -1597.9482    520.36092    274.59857   -254.83542    36341.856 
  797100    293.08102    -1554.137    525.22617    296.36892   -285.78739    36341.856 
  797200     319.6363   -1525.5012    532.15959    452.01816   -403.98728    36341.856 
  797300    305.94344    -1537.254    504.50754    350.69572     63.41178    36341.856 
  797400    293.82484   -1557.9541    520.93463     291.6238    24.403743    36341.856 
  797500     297.9571   -1544.3406    498.55254    301.54085    49.169042    36341.856 
  797600    304.18375   -1550.8312    492.58445     317.2384    40.089807    36341.856 
  797700    294.49963   -1581.2025    475.73343    226.22548   -191.89406    36341.856 
  797800    300.55878   -1528.2563    530.45691    361.29402   -752.25558    36341.856 
  797900    289.59703   -1521.2937     473.5686    261.80043   -118.50054    36341.856 
  798000    298.21567   -1491.5025    520.17551    377.17114   -167.45458    36341.856 
  798100    300.04451   -1519.0328    513.66074    351.39581     747.9975    36341.856 
  798200    305.59314   -1548.9108     495.1634    328.11079    749.83335    36341.856 
  798300    307.02553   -1494.5457    511.33727     405.1269    447.57233    36341.856 
  798400    306.99817     -1518.78    520.06447     389.4961    200.60741    36341.856 
  798500    306.57314   -1494.8128    511.67086    403.14777   -327.71129    36341.856 
  798600    291.94967   -1509.0497    500.10982    311.22413   -594.97479    36341.856 
  798700    305.23453   -1506.1632    514.39422    388.46769   -235.57436    36341.856 
  798800     295.6868   -1496.5355    511.47206    351.99941   -533.69852    36341.856 
  798900    304.02782   -1474.2771    553.83245    454.33542   -451.66862    36341.856 
  799000    296.57561   -1489.0236    521.19746     373.2558   -95.324514    36341.856 
  799100    307.47593   -1507.9061     520.9825    403.44831     105.1904    36341.856 
  799200    308.15328   -1480.7157    518.46092    431.18013   -176.10187    36341.856 
  799300    302.53334   -1502.1113    495.82872    361.73953     610.7625    36341.856 
  799400    303.12382   -1556.6861    530.33281    344.33897    665.21537    36341.856 
  799500    296.55536   -1494.4746    511.41249    357.92825    200.27293    36341.856 
  799600    301.51817   -1477.2947    500.02272    386.15962    386.71883    36341.856 
  799700    293.39655   -1501.2094    511.43313    336.93033    223.93997    36341.856 
  799800    302.44015   -1516.9684    498.09229    348.72461    270.68152    36341.856 
  799900    297.42231   -1488.5398     514.5233    370.89408    33.120196    36341.856 
  800000    295.55237    -1484.792    516.08503    367.74797    377.92426    36341.856 
  800100    298.18819   -1486.0523    524.44007    386.76166    361.50115    36341.856 
  800200    293.48537   -1506.1317    525.89816    346.87468    246.94396    36341.856 
  800300    281.42978   -1542.9067     518.9991    248.68662    99.086919    36341.856 
  800400      297.105   -1495.0086    509.06479    357.53192   -31.220411    36341.856 
  800500    290.70745   -1543.2766    498.71676    269.98693   -536.19222    36341.856 
  800600    302.57089   -1497.4117    515.43839    386.21864   -731.51421    36341.856 
  800700    299.69005   -1489.1553    524.77536    390.78514    68.371907    36341.856 
  800800    295.54739   -1544.9647    488.62031    280.08806    213.39855    36341.856 
  800900    294.52325   -1509.6734    512.40564    334.53368    122.97321    36341.856 
  801000    301.82796   -1506.3673     522.8893    381.35444   -282.72033    36341.856 
  801100    303.67088   -1518.9885    526.71667     380.8941   -197.85927    36341.856 
  801200    293.90929   -1521.2581    499.45116    307.21825   -48.025717    36341.856 
  801300    306.55359   -1534.2946    496.08558    347.99224    -685.4253    36341.856 
  801400    308.84249   -1514.2507    520.84657    403.14724   -43.154566    36341.856 
  801500    299.93688   -1499.6362    496.41025    353.05531    108.81155    36341.856 
  801600    304.39602   -1521.6102    508.65552     363.4903    25.166261    36341.856 
  801700    306.95035   -1531.1555    532.71507     389.5549    224.58041    36341.856 
  801800    296.63006   -1485.3397     521.3221    377.31054   -445.53139    36341.856 
  801900    301.78283   -1524.0088    493.70164    334.32122   -112.91858    36341.856 
  802000    300.61971   -1512.7602    536.91711     383.5258    155.98098    36341.856 
  802100     304.4588   -1544.1115    507.57354    340.19088     48.35336    36341.856 
  802200    296.38736   -1509.3719    505.59176    336.45059   -549.81522    36341.856 
  802300    303.92903   -1474.4801    492.29554    392.14872   -641.29355    36341.856 
  802400     293.6937   -1518.1292    503.89323    313.81429   -1152.1252    36341.856 
  802500    287.28321   -1493.4041    488.97619    294.63482   -988.25711    36341.856 
  802600    295.54957   -1510.6927    524.44765    350.19727   -320.88944    36341.856 
  802700    294.60344   -1520.7672    509.39747    320.79428   -544.08827    36341.856 
  802800      293.857   -1462.9835    513.16645     378.9716   -32.279643    36341.856 
  802900    308.49053   -1483.7724    530.24653    441.43395   -652.59303    36341.856 
  803000    294.74898    -1525.493    476.72259    284.05171   -245.38374    36341.856 
  803100    304.04481   -1560.6722    525.98535    340.17001   -18.464112    36341.856 
  803200    294.93198   -1541.7158    500.23809    292.17195   -543.20546    36341.856 
  803300    300.97365   -1505.8742    493.47583    348.57102   -150.64904    36341.856 
  803400    296.56877   -1507.7487    546.00213    379.30447   -61.983908    36341.856 
  803500    303.56362   -1482.5192    516.33591    406.49767   -186.56655    36341.856 
  803600      298.893   -1517.0102    527.09758    361.64831    -392.2657    36341.856 
  803700    303.76223   -1511.4883    500.45356     362.5443    184.73527    36341.856 
  803800    295.84146    -1516.438    515.17493    336.49916   -358.05474    36341.856 
  803900    288.87009    -1545.121    501.77013    262.88757   -602.12278    36341.856 
  804000    294.68974   -1528.3901    511.73304    315.89721    392.24847    36341.856 
  804100    305.41022   -1513.7414    502.03848    369.32809    248.09995    36341.856 
  804200    303.41381   -1524.8232    512.44356    359.62388    367.06212    36341.856 
  804300    307.47339   -1548.3838    500.12395    342.10061    334.53999    36341.856 
  804400    298.50698   -1567.6178    520.98979    303.18743   -550.74138    36341.856 
  804500    301.79533   -1540.8466    495.17658    319.01496   -640.78252    36341.856 
  804600    302.02644   -1513.3188    489.80157    342.21278     -674.234    36341.856 
  804700    309.56178   -1529.5094    500.78205    371.07658    168.33937    36341.856 
  804800     302.4432   -1549.8039    531.56807     349.3787    817.74892    36341.856 
  804900    302.89737     -1527.62     499.6799    341.72817    774.53232    36341.856 
  805000    310.89536   -1515.5464    511.21984    401.50773    198.35798    36341.856 
  805100    301.13456    -1504.922    504.04797    360.82298    178.51372    36341.856 
  805200    289.17929   -1514.3574    541.72505     335.0043    186.42449    36341.856 
  805300    309.35331   -1476.6349    500.18966    422.41605    458.14246    36341.856 
  805400    303.53222   -1506.9152    514.61185    380.23563     318.7741    36341.856 
  805500    294.91345   -1470.2082    503.61828    366.97592    147.84356    36341.856 
  805600    301.12263   -1459.5855     486.0576    388.11514   -485.48116    36341.856 
  805700    304.11265    -1474.312    500.37839       401.23   -621.66875    36341.856 
  805800    294.77457   -1528.0057    462.95994    267.89209     382.2789    36341.856 
  805900    305.78381   -1558.6305    491.13572    315.22559   -422.44304    36341.856 
  806000    290.47646   -1535.1107    481.50726    259.89882    256.75943    36341.856 
  806100    309.44938   -1539.3973    501.73291    361.63128     429.5517    36341.856 
  806200     294.4467    -1551.683      524.638    304.41029    590.27138    36341.856 
  806300    308.22463   -1567.3818    495.53002    321.90575    589.57163    36341.856 
  806400    299.70545   -1528.0879    495.05732    322.20415    422.53735    36341.856 
  806500    297.59688   -1521.5303    491.31581    315.48556    986.49538    36341.856 
  806600    305.30162   -1502.2057    509.74215    388.07643    827.49696    36341.856 
  806700    307.92533   -1523.7614    487.32913    355.97184   -100.81124    36341.856 
  806800    290.66952   -1516.9183    483.62094    281.07789   -252.36161    36341.856 
  806900    298.53714   -1514.1759    493.98807    329.76394   -122.74046    36341.856 
  807000      295.352   -1519.5525    470.90065    286.89711    833.86816    36341.856 
  807100     291.6006   -1521.9395    522.57557    319.22153     531.0359    36341.856 
  807200    300.42142   -1548.8544     507.3414    316.95928    -171.2988    36341.856 
  807300    309.47906   -1495.1965    494.60271    398.83615   -440.85718    36341.856 
  807400    291.93846   -1533.1356    498.12389    285.10153   -257.68767    36341.856 
  807500    302.20654   -1507.9192    509.68972    368.31493   -443.58863    36341.856 
  807600    301.51332   -1527.6164    503.04397    338.83733    387.44912    36341.856 
  807700    298.67933   -1531.8749    482.40488    301.12473    493.39418    36341.856 
  807800    296.18379    -1604.303    489.30731    224.31451    727.52564    36341.856 
  807900    312.02867   -1567.1614    504.69629    348.49383    426.29228    36341.856 
  808000    301.25043   -1558.0096    507.89092    312.10228   -462.81133    36341.856 
  808100    295.56817   -1567.6031     520.6003    289.52359   -90.408989    36341.856 
  808200     290.1721   -1550.1013    484.23394    246.25861   -347.30912    36341.856 
  808300    305.46715   -1549.7899     504.0414    335.53994     408.8016    36341.856 
  808400    306.41701   -1530.4732    492.80961     347.9201    567.54932    36341.856 
  808500    298.76417    -1472.616    516.34726    394.70962    34.779808    36341.856 
  808600    301.18874   -1497.4315    501.46926    365.97974   -640.04557    36341.856 
  808700     298.3764    -1441.209    489.16456    397.18052   -150.80972    36341.856 
  808800    292.43352   -1477.1723    491.70471     336.8843   -265.35021    36341.856 
  808900    303.73009   -1464.6918    496.75503    405.49691   -179.69532    36341.856 
  809000    301.69247   -1482.3928    486.97039    368.79745    -563.8042    36341.856 
  809100    294.75371   -1538.1779    496.80997     291.4756    59.626107    36341.856 
  809200    309.54103    -1523.623    499.83642    375.92353   -175.22983    36341.856 
  809300    300.53466   -1526.0724    482.67167    315.58361    285.32506    36341.856 
  809400    308.32656   -1574.6366    502.36352    321.94534   -88.821109    36341.856 
  809500     301.9876   -1506.0467    511.03044    370.53808    105.11779    36341.856 
  809600    292.38762   -1485.6943    491.62409    328.07413   -462.58996    36341.856 
  809700    299.76877   -1470.4369    515.92257    401.00674   -263.07708    36341.856 
  809800     307.9855   -1498.9974     499.4691    393.14794   -4.2846111    36341.856 
  809900    294.60649   -1515.0215    480.96793    298.12421   -348.35155    36341.856 
  810000     306.5624   -1515.0022    476.08998    347.32884   -249.11936    36341.856 
  810100    300.63765   -1480.0783    515.15787    394.52958    101.43382    36341.856 
  810200    299.24731   -1496.3462    513.94959    370.76645    136.81298    36341.856 
  810300    311.24793   -1507.4968    499.89745    399.82916    140.78011    36341.856 
  810400    291.70923   -1523.8221    495.17913    290.43371    163.24228    36341.856 
  810500     296.1386   -1462.7486    521.23639     397.5936   -200.21374    36341.856 
  810600     294.6428   -1488.3205    505.32707    349.34856   -471.65207    36341.856 
  810700    300.44838   -1524.4435    495.75715    329.90783   -1310.9045    36341.856 
  810800     301.4483   -1532.5492    493.65032    324.21682   -828.78821    36341.856 
  810900    304.29984   -1526.9675    498.38406     347.4266   -1200.3094    36341.856 
  811000     313.3058   -1485.0786    504.91288    436.56834   -412.30413    36341.856 
  811100    298.43669   -1525.4837    480.80056     304.8144   -244.93687    36341.856 
  811200    296.76939   -1501.6646    513.69339    353.98705    235.81213    36341.856 
  811300    296.03921   -1526.1388    476.47883     288.9964    305.52029    36341.856 
  811400    291.92204   -1516.5529    487.70393    291.19004    342.37219    36341.856 
  811500    294.44512   -1574.5908    495.48388    252.34112    98.079073    36341.856 
  811600    298.01851   -1563.2273    488.57149    272.95079    201.94826    36341.856 
  811700    308.41438   -1523.5276     485.4851    356.57311   -91.919318    36341.856 
  811800    291.43197   -1518.7831    495.51972    294.55964   -338.57316    36341.856 
  811900    297.43401   -1534.0955    474.22901    285.09704   -679.49389    36341.856 
  812000     301.8231   -1553.1237    482.03046    293.71727   -652.10786    36341.856 
  812100    303.24015   -1550.2395    499.52714    320.50591   -602.84949    36341.856 
  812200    294.15796   -1521.1319    469.73917    278.75685   -157.54865    36341.856 
  812300    298.53975    -1574.476    482.17174    257.65935   -245.50292    36341.856 
  812400    297.99865   -1564.5216    480.50095    263.49609    179.45409    36341.856 
  812500    302.15909   -1600.8862    488.30948    253.75305    150.56713    36341.856 
  812600    312.56331   -1561.7234    485.46178     337.1149    588.78129    36341.856 
  812700    306.54291   -1563.7272    470.06974    292.49548    20.927041    36341.856 
  812800    302.13579   -1604.6144    474.92528    236.53537   -180.42851    36341.856 
  812900    305.33032   -1554.9233    474.81722    300.56362   -237.97534    36341.856 
  813000    307.79323    -1562.473    490.16281     319.4966   -230.68548    36341.856 
  813100    291.36677   -1570.3837     483.3432    230.48759   -32.364124    36341.856 
  813200    295.51108   -1525.8714    478.15282    288.54971    269.83394    36341.856 
  813300    304.33004   -1486.2973    494.68237    384.53171    13.963311    36341.856 
  813400    299.84622   -1490.1643    480.32336    346.03037    -202.8994    36341.856 
  813500    311.02091   -1491.9881    491.12332    405.53716   -331.35221    36341.856 
  813600    305.50569   -1519.4774    489.13153     351.1169   -172.28912    36341.856 
  813700    292.85956   -1501.8886    492.81572    315.20554   -40.916967    36341.856 
  813800    297.54132   -1504.9861    499.40681    339.86945   -61.162497    36341.856 
  813900    296.69922    -1493.995    486.25545    333.90133    51.491126    36341.856 
  814000    293.54841   -1528.7269    480.23722    278.90361   -269.20643    36341.856 
  814100    305.78908   -1509.4232    482.97031    356.29136   -528.33906    36341.856 
  814200     298.8114   -1506.5145    479.26803    323.94542   -878.08029    36341.856 
  814300    287.05467    -1470.325    507.53209    335.23637   -518.87861    36341.856 
  814400    296.17867   -1449.4292    486.07509    375.93293   -112.70571    36341.856 
  814500    297.68774   -1479.1641    515.46419    382.41098    442.99967    36341.856 
  814600    292.62704   -1491.9959    492.20182    323.43288    272.44448    36341.856 
  814700    288.54628   -1498.1577    522.80108    329.41755    49.617717    36341.856 
  814800    298.17302   -1484.9434    499.23523    362.59707   -342.00899    36341.856 
  814900    299.35996   -1493.9422    511.97831     371.7086   -157.84686    36341.856 
  815000      306.955   -1483.6987    461.78512    366.10285    175.20449    36341.856 
  815100    297.86419   -1460.0435    511.08732    397.95256    -234.5181    36341.856 
  815200    310.27609   -1458.8022    505.66268    449.89446   -64.462784    36341.856 
  815300    303.42927   -1461.5493    488.30437    398.82847    48.987369    36341.856 
  815400    307.59328   -1452.9179    514.03235    452.01702   -214.19575    36341.856 
  815500    301.13239   -1454.5376    515.01057    422.16019   -342.35681    36341.856 
  815600    313.01715   -1427.5029    519.29542    507.22128    54.696907    36341.856 
  815700    296.76919   -1455.1963     498.5595    385.32055   -303.61479    36341.856 
  815800    303.68145    -1447.968    510.28824    435.53394    88.961304    36341.856 
  815900    302.68043   -1441.6122    495.37901    422.45413   -18.707414    36341.856 
  816000    304.14616   -1476.5244    496.62566    395.41639    500.49744    36341.856 
  816100    304.39525   -1446.2063    501.33899    431.57414    401.21145    36341.856 
  816200    288.75969   -1499.7325    486.95193    292.95871    141.20318    36341.856 
  816300    298.52961   -1503.8626    463.66327    309.71839     563.7621    36341.856 
  816400    298.39849   -1450.3656    477.54631    376.50551    446.81342    36341.856 
  816500    297.70633   -1460.0208    513.70538    399.87954   -118.65265    36341.856 
  816600    298.18332   -1510.7137    492.09082    329.72892   -451.60267    36341.856 
  816700    307.10176   -1479.0575    482.27113    391.89364   -255.74648    36341.856 
  816800    292.82451   -1480.3707    519.65585    363.40501    187.35144    36341.856 
  816900    302.20297   -1446.4874    502.74115    422.78204   -81.071756    36341.856 
  817000    297.28663   -1418.5174     489.9044    415.68413    488.96682    36341.856 
  817100    304.65548   -1439.2097    506.13465    444.54316   -311.38211    36341.856 
  817200    294.74594   -1417.9102    494.55236    409.45053   -150.36664    36341.856 
  817300    307.98738   -1446.9504    502.04025    447.77449    -629.7044    36341.856 
  817400    300.58496   -1464.2399    495.03832    390.01017   -225.86373    36341.856 
  817500    298.16315   -1480.1018    500.34042    368.49927   -447.61403    36341.856 
  817600    303.59844   -1477.0591     480.5382    376.31744    475.32139    36341.856 
  817700    301.75666   -1492.3089    488.84295    361.04414     529.3727    36341.856 
  817800    298.49278   -1499.9045    501.63983    351.48654    639.97345    36341.856 
  817900     292.1196   -1501.6086    506.60462    325.92844    31.484108    36341.856 
  818000    304.47481   -1523.5941    491.39134     344.5985    433.20365    36341.856 
  818100    299.68633   -1524.0133    504.43554     335.5705   -139.32996    36341.856 
  818200    301.13566   -1472.7326    474.94877    363.91811   -72.615101    36341.856 
  818300    297.39264    -1525.108    501.71408    321.38252   -167.29404    36341.856 
  818400    301.22778   -1497.8815     483.4668    347.70377     410.2138    36341.856 
  818500    302.56858   -1509.9279    511.78653    370.04008    486.50813    36341.856 
  818600     293.0724    -1454.431    498.52439    369.33426    125.74915    36341.856 
  818700    305.52306   -1466.8382    505.98831    420.69137    399.18062    36341.856 
  818800    301.53796   -1491.1636    489.82671    362.18428    995.53866    36341.856 
  818900    301.58949    -1517.988    480.54399    326.31017     561.5222    36341.856 
  819000    297.47236   -1486.8637    486.42474    344.69792    436.75916    36341.856 
  819100    300.61675   -1444.0835    521.44687     436.7189    530.20334    36341.856 
  819200    299.91353   -1497.9793    482.15893    340.35528    695.17549    36341.856 
  819300    294.94547   -1498.0312    489.53694    325.21635    374.38194    36341.856 
  819400    298.19763   -1491.3822    509.07179    366.10618   -498.76316    36341.856 
  819500    303.74468    -1458.923    491.17347    405.75019    137.48398    36341.856 
  819600    308.95042   -1442.8832    518.24037    472.39659    361.56869    36341.856 
  819700    303.50068   -1513.2049     479.1654    338.35687    517.69489    36341.856 
  819800    305.55975   -1479.1932    502.74109    405.25513   -141.71389    36341.856 
  819900    301.07133   -1533.8746    498.99288    326.52934    792.19375    36341.856 
  820000    305.91291   -1561.4257    488.04215    309.92059    467.48136    36341.856 
  820100    295.57391   -1563.4888    493.88928    266.95282    281.49355    36341.856 
  820200    299.22374   -1522.6862    517.07213    347.44248    569.82035    36341.856 
  820300    311.38518   -1537.9606    488.40791    358.49648     463.1293    36341.856 
  820400     302.5561   -1552.8082    483.53281    298.84967    211.93443    36341.856 
  820500    304.99833   -1540.9686    494.79225     332.9922    12.920365    36341.856 
  820600    300.76833   -1564.1927    460.68196    256.53024     296.3584    36341.856 
  820700    295.95397   -1534.1774     471.0001    275.09365    835.24247    36341.856 
  820800    299.99992   -1519.9191    486.70203     323.3492   -103.25548    36341.856 
  820900    306.36511   -1499.5456    486.04367    371.84706   -420.29451    36341.856 
  821000    308.38799   -1533.9937    472.98495    333.48739    -1122.981    36341.856 
  821100    300.84091   -1530.3805    460.51933    290.50795   -1000.5844    36341.856 
  821200    303.97826   -1514.6902    468.57544    328.44112   -415.92277    36341.856 
  821300    301.53762   -1521.2931    505.99483    348.22138   -396.04508    36341.856 
  821400    298.11196   -1519.4928    480.97271    309.50901    -532.6077    36341.856 
  821500    296.24243   -1487.4135    523.01107    375.17298     59.83851    36341.856 
  821600    301.61387   -1534.6819    501.32392    330.50642     139.2734    36341.856 
  821700    306.98916   -1484.9822     514.5646    417.75324    206.09518    36341.856 
  821800    298.66321   -1463.4293    497.99643      385.089    170.01027    36341.856 
  821900      304.113   -1472.2012    526.98736     429.9514    -353.3222    36341.856 
  822000    293.22503   -1494.5234    499.90147    331.30904   -625.25587    36341.856 
  822100    298.43843   -1491.1311    516.37691     374.7512   -1170.8033    36341.856 
  822200    298.82802   -1503.7983    504.94757    352.41635     -1021.62    36341.856 
  822300    304.68617    -1532.833    516.71681    361.64079   -1045.7045    36341.856 
  822400    297.34818    -1550.532    470.89073    264.93415   -522.26045    36341.856 
  822500    305.24031   -1539.3449    515.94097    356.85881   -604.07192    36341.856 
  822600    300.24289   -1520.5208    482.35723    319.50137   -248.53617    36341.856 
  822700    299.19247    -1514.225    494.96841    333.65852   -86.139284    36341.856 
  822800    304.01196    -1519.797     490.7189    345.63023   -372.74523    36341.856 
  822900    296.04596   -1491.2016    516.23464    363.71993      85.9591    36341.856 
  823000    303.02589   -1496.2291     496.5847    370.60499   -56.715709    36341.856 
  823100    308.29367   -1485.2315    510.07919    418.91735    23.674899    36341.856 
  823200    297.69056   -1518.1897    506.86843     334.8024    23.523343    36341.856 
  823300     293.8366   -1513.1351     485.9405    301.50184    139.32721    36341.856 
  823400    309.36269   -1540.2646    494.97022    353.60934    218.29526    36341.856 
  823500    305.80779   -1545.3725    514.71994    352.17626    38.868308    36341.856 
  823600    307.09873   -1528.8388    482.64414     342.4717     -159.187    36341.856 
  823700    296.97994   -1523.9605    496.42108    315.37088   -533.90175    36341.856 
  823800    297.97529   -1530.5665    524.20186    341.04645      182.822    36341.856 
  823900      305.156   -1519.6628    508.85483    369.07351      188.886    36341.856 
  824000    305.69828   -1489.4214    531.29856    424.21078     942.5541    36341.856 
  824100    290.13621   -1532.2613    495.12262    274.82497   -8.6479107    36341.856 
  824200    292.98387   -1512.5416    530.41467    342.71358   -156.70338    36341.856 
  824300    295.69934   -1544.7785    496.54401    288.88506   -371.01192    36341.856 
  824400    289.39366   -1518.0553    515.18334    305.73402    63.022924    36341.856 
  824500    296.53111   -1532.5262    479.92696    288.28153    189.71455    36341.856 
  824600    298.38426   -1537.3468     512.7153    324.62894   -144.90764    36341.856 
  824700    308.78737   -1523.1158    497.05872    370.24505   -751.12007    36341.856 
  824800    298.90601   -1503.0722    515.71108    364.25864    4.9520783    36341.856 
  824900     303.4907    -1490.924    528.08795    409.51518   -272.89957    36341.856 
  825000    298.15741   -1505.3791    532.00725    374.86285   -248.50389    36341.856 
  825100    299.71253   -1533.8634    494.87981    316.28314    27.370436    36341.856 
  825200    307.53822   -1519.7223    502.79351     373.7248    21.476607    36341.856 
  825300    311.72655   -1546.7319    503.47125    366.33213   -17.949881    36341.856 
  825400    302.31571   -1543.0463    503.26182    327.25358    60.869191    36341.856 
  825500    293.26278   -1499.5741    517.76364    344.29119     -18.7188    36341.856 
  825600    293.76852   -1522.6081    511.54318     317.3237    399.38324    36341.856 
  825700    293.10284   -1577.2637    499.99098    248.10578    122.96476    36341.856 
  825800    301.44319   -1544.6211    512.35601    330.82749   -473.90617    36341.856 
  825900     303.0447   -1546.7189    512.72257    336.33814   -673.87666    36341.856 
  826000    303.31869   -1538.4399    518.35086     351.4844   -449.71441    36341.856 
  826100     299.1701   -1542.8306    520.48185    330.46516   -159.54306    36341.856 
  826200    296.19073    -1549.394    510.67468    300.62223   -537.70419    36341.856 
  826300     298.0395   -1515.1253     503.7924     336.3686    8.9972837    36341.856 
  826400    301.34107   -1533.5693    506.54131    335.60284   -159.17571    36341.856 
  826500    297.15769   -1529.2954    510.43093    324.84959    -719.2701    36341.856 
  826600    311.43561   -1546.7018    499.70916    361.28462   -748.90743    36341.856 
  826700    299.20084   -1509.0429    518.75273    362.66272   -329.31411    36341.856 
  826800    304.90428   -1543.5082    515.34555    350.58058   -189.87311    36341.856 
  826900    305.45933    -1552.364    537.80741    366.69653    319.50048    36341.856 
  827000    303.81367   -1482.5798    534.96834    426.20021     234.3898    36341.856 
  827100    293.17167    -1470.831    512.24723    367.10594   -258.26076    36341.856 
  827200    302.78603   -1485.9855    535.35496    418.53421    361.06746    36341.856 
  827300    310.46611   -1490.4648    532.61864    446.04711   -187.11445    36341.856 
  827400    296.11276   -1470.0128    535.88605    404.86221   -37.326502    36341.856 
  827500    301.81937   -1430.4566    522.43037    456.76739    210.61893    36341.856 
  827600    295.85284   -1465.5361    536.96724    409.24479   -155.31513    36341.856 
  827700    303.30837   -1494.9459    521.02431    397.60518    7.1850973    36341.856 
  827800    306.60784   -1534.5285    506.04646    357.96458   -392.65527    36341.856 
  827900    302.86724   -1469.8096    546.48008    446.20245   -648.11919    36341.856 
  828000    286.10375   -1522.7433     502.9334    273.91944   -254.57361    36341.856 
  828100    293.38065   -1539.2027    517.58312    305.01517   -566.10265    36341.856 
  828200    301.15999   -1545.9145    525.05849    340.95602    100.67933    36341.856 
  828300    295.83968   -1519.8005    517.15983    335.11345    -586.1862    36341.856 
  828400    300.74362   -1520.9203    495.29625    334.30516   -704.92744    36341.856 
  828500     303.5794   -1518.5785    532.82219    386.99605   -86.139678    36341.856 
  828600    301.10407   -1536.9617    488.86819    313.46564     304.1227    36341.856 
  828700    306.08493   -1560.8424     510.8338    334.07348   -432.39876    36341.856 
  828800     307.6751   -1548.0988    519.31247    362.48623   -395.66714    36341.856 
  828900    289.76338   -1541.4652    494.90942    263.72203   -13.544963    36341.856 
  829000    299.24759   -1529.6091    517.00226    340.55743    447.30594    36341.856 
  829100    301.87741   -1545.0916     533.6491    353.61359   -57.269323    36341.856 
  829200    300.11909   -1512.7362    498.14269    342.51165   -537.83643    36341.856 
  829300    304.19189   -1543.7221    503.98875    335.78857   -1043.1026    36341.856 
  829400    303.70145   -1530.1684    511.73982    354.87566   -1642.5462    36341.856 
  829500    293.49607   -1545.2495    527.19974    309.10681   -1351.3438    36341.856 
  829600    306.36639   -1515.7675    508.64323    378.23052   -558.07322    36341.856 
  829700    306.15471   -1553.8797    486.07676    316.59462   -338.52716    36341.856 
  829800    303.80258   -1548.1746    499.88641    325.47333    210.76409    36341.856 
  829900    301.34851   -1528.6935    542.14288    376.11387    783.86176    36341.856 
  830000    298.89944   -1574.4036    522.27742     299.4639    820.48839    36341.856 
  830100    299.73778   -1515.4433    548.83581    388.77344    628.49313    36341.856 
  830200    304.73396   -1573.4015     535.6641    340.23567    421.50328    36341.856 
  830300    292.94238   -1533.3297    527.77274    319.09586    421.86232    36341.856 
  830400    302.13867    -1536.617    529.07569    358.69618   -200.66305    36341.856 
  830500    308.18458   -1526.7092     506.5431    373.41035   -80.492215    36341.856 
  830600    295.68704   -1550.1121    503.50457    290.45636     247.1017    36341.856 
  830700    294.72369   -1583.6238    502.32696    251.41096   -344.12864    36341.856 
  830800    300.88278   -1545.6552    520.27345    335.17679   -341.33369    36341.856 
  830900    305.03333   -1614.7776    504.10459    268.65384   -725.44389    36341.856 
  831000    293.75704   -1578.1502    511.51692    261.70342   -114.29852    36341.856 
  831100    295.88081   -1528.7647    527.84271    337.01815     90.56437    36341.856 
  831200    297.16817   -1524.1827    522.02866    341.60735   -399.33312    36341.856 
  831300    299.12386   -1509.5803    500.84932    343.87385   -24.461951    36341.856 
  831400    302.46095   -1538.6409     521.7499    350.80376   -192.76156    36341.856 
  831500    298.81841   -1546.2872    510.08379    315.02024   -208.00082    36341.856 
  831600    299.07154   -1538.9026    530.39367    343.85939   -253.78498    36341.856 
  831700     294.6542   -1562.6341    531.42923    301.18871   -9.1410377    36341.856 
  831800    294.25723   -1573.8854    528.71239    285.42542   -403.88866    36341.856 
  831900    303.30016   -1555.4802    500.32939    316.33875   -462.05455    36341.856 
  832000    301.06466   -1547.3006    501.58702    315.66738   -632.83547    36341.856 
  832100     299.7981    -1526.441    512.24297    341.45561   -486.71669    36341.856 
  832200    292.22296   -1530.0627    507.81337    299.15038   -803.44644    36341.856 
  832300     291.9219   -1513.8375    530.01001    336.21091   -600.38883    36341.856 
  832400    305.76835   -1495.1145    522.22568    409.76164   -484.72293    36341.856 
  832500    303.57237   -1485.5126     515.5848    402.79269   -132.84402    36341.856 
  832600    308.23274    -1546.055    498.53914    346.27834   -23.914449    36341.856 
  832700    297.49808   -1541.9991    533.22068    336.47481    785.44542    36341.856 
  832800    301.68138   -1493.4456    543.69737    414.42141      1454.05    36341.856 
  832900    307.65899   -1476.8392    523.48578    437.84632    1141.4189    36341.856 
  833000    310.33128   -1491.1256    525.71748    437.87542    987.95816    36341.856 
  833100    306.90956   -1498.9135    524.76195    413.65931    296.90742    36341.856 
  833200    293.26141   -1512.9436     503.4187    316.57059    807.39145    36341.856 
  833300    296.69109   -1526.2345    535.65702    351.02669    830.54686    36341.856 
  833400    288.82535   -1491.1995    536.24914    351.08584    287.49861    36341.856 
  833500    301.31618   -1517.9968    514.56369     359.0852    498.58334    36341.856 
  833600    295.40361   -1546.8951    498.89338    287.78052    411.55833    36341.856 
  833700    313.31451   -1518.2002     507.7384    406.31155    50.335603    36341.856 
  833800    310.72494   -1549.9893    502.88168    357.95608    403.51678    36341.856 
  833900    299.70033   -1547.6138    550.13161    357.72939    172.62724    36341.856 
  834000    296.12535   -1511.2131    503.58744    331.42024    83.594557    36341.856 
  834100    294.77142   -1528.7699    522.16994    326.32366    -127.1741    36341.856 
  834200    289.34952   -1515.8192    501.35201    293.93918    100.08554    36341.856 
  834300    311.09594   -1521.1142      508.698    394.32512   -287.81393    36341.856 
  834400    297.56804    -1544.855    520.45546    321.17001    590.34938    36341.856 
  834500    296.35946   -1557.1828    518.52791    301.44962     917.3419    36341.856 
  834600    298.66255   -1517.5634    487.07703    320.03253    182.36142    36341.856 
  834700    300.35745   -1578.1037    493.47717    273.55647   -388.25266    36341.856 
  834800    296.96709   -1555.5157     528.3029    315.63933   -208.01437    36341.856 
  834900    300.49857   -1545.8708    544.48077    357.43113   -271.26709    36341.856 
  835000    290.52304   -1580.4173    462.22993    195.52555    -774.3474    36341.856 
  835100    304.72488   -1525.2721    521.35171    374.01166   -462.69367    36341.856 
  835200    301.44717    -1563.657    483.55008    283.00371   -359.20988    36341.856 
  835300    295.89695   -1555.3885    531.16337    313.78799   -377.45782    36341.856 
  835400    285.08686   -1545.5948    502.16181    245.69805    460.53445    36341.856 
  835500     306.1686   -1552.3137    503.01443    335.16104    6.6569733    36341.856 
  835600    298.76693   -1504.4029    522.17856    368.76654    307.27321    36341.856 
  835700    308.98318   -1513.3955    534.18419    417.97635    365.40286    36341.856 
  835800    299.09873   -1520.7314    517.74453     349.5043    673.82181    36341.856 
  835900    295.73605   -1509.7682     542.5791    370.09646    610.61815    36341.856 
  836000     304.7832   -1565.9928    500.74563    312.94858    -6.141431    36341.856 
  836100    299.18268   -1553.4992    513.17107    312.54269    116.58085    36341.856 
  836200    297.06056    -1525.469    524.49334    342.29919    492.31208    36341.856 
  836300    293.68772   -1520.6717    531.07997     338.4315   -165.18391    36341.856 
  836400    309.92843   -1524.6157    476.19594    353.04215   -289.56287    36341.856 
  836500    307.30837   -1498.9424    507.48714    398.15905   -508.40491    36341.856 
  836600    291.40674   -1525.0738    498.08087    290.71593   -783.43317    36341.856 
  836700    306.77098   -1492.6363    511.94235    406.49029   -716.75359    36341.856 
  836800    295.82339   -1485.1347    539.42859    391.97439   -821.60745    36341.856 
  836900    294.09038   -1502.6148    510.85833    338.08755   -553.85644    36341.856 
  837000    294.44485    -1515.609    516.75918    332.59707    -208.2563    36341.856 
  837100    313.61264   -1524.4556    525.84589    419.51175     1159.403    36341.856 
  837200    293.10448   -1515.0697    497.90909    308.22525    585.76176    36341.856 
  837300    284.40558   -1521.9367    543.80351    307.91719    239.60749    36341.856 
  837400    301.66654   -1508.2684    529.51517    385.34933    342.89905    36341.856 
  837500    296.60003   -1497.4421    492.11346    335.86376    271.71404    36341.856 
  837600    303.30195   -1519.2467    546.70848    398.95954    255.78764    36341.856 
  837700    302.29269    -1510.488    535.16584    391.61184    274.51718    36341.856 
  837800    302.42675   -1494.6162    533.71162    406.63559     218.5642    36341.856 
  837900    297.36562    -1501.737    543.36963    386.28692    270.41007    36341.856 
  838000    300.96713    -1537.257    514.13212    337.81501    360.07133    36341.856 
  838100    300.43913   -1506.9022    530.29805     381.9482   -195.52683    36341.856 
  838200    295.51143   -1489.1509    525.21135     372.3303    65.730233    36341.856 
  838300    304.24996   -1507.1851    552.98083    421.58021    119.24628    36341.856 
  838400     299.3941   -1518.2493    530.24468    365.82223    304.50249    36341.856 
  838500    306.55805   -1515.2506    519.40908    390.37996   -95.095156    36341.856 
  838600     297.1778   -1500.1885    523.10629    366.72277   -225.25994    36341.856 
  838700    285.06283   -1491.6694    545.45343    342.80642    185.56713    36341.856 
  838800    314.46707   -1502.2154    520.90475    440.67453   -200.73706    36341.856 
  838900    299.99926   -1552.0062    525.15743    329.71452   -176.98266    36341.856 
  839000    301.20365   -1551.3444    521.54291    332.20793   -301.10669    36341.856 
  839100      299.902   -1578.8723    505.18244    282.43358   -352.57317    36341.856 
  839200    298.66634   -1574.2208     518.0212    294.33635   -61.714083    36341.856 
  839300    298.92982    -1583.038    502.92628    271.61574   -423.69972    36341.856 
  839400    310.23528   -1541.2198    512.33207     373.9617    76.170412    36341.856 
  839500    299.23169    -1580.369    535.36806    308.09156   -89.558398    36341.856 
  839600    299.14657   -1604.5127    499.18384    247.37864    122.20647    36341.856 
  839700    293.67448   -1578.2902    503.39077     253.0639    69.825643    36341.856 
  839800    299.20874   -1572.1442    522.39906    303.24359    414.83284    36341.856 
  839900    304.27258   -1536.7473    512.15376    351.29321    404.23771    36341.856 
  840000    290.70955   -1615.5364    516.30009    215.31998    2.6815644    36341.856 
  840100    303.12656   -1572.1985    518.42219    316.92826    549.38767    36341.856 
  840200    299.35933   -1563.9821    515.58573    305.27322   -75.372276    36341.856 
  840300    304.29019   -1572.4111    527.89885    331.45414   -4.0584939    36341.856 
  840400     313.1349   -1566.8521    524.43222    373.54134   -468.17331    36341.856 
  840500    302.76928   -1553.8138    510.62263    325.89782    6.5850228    36341.856 
  840600    300.82572   -1544.9497     524.9772    340.32797   -695.74892    36341.856 
  840700    299.13062   -1522.0365    502.83035    333.42925   -834.22638    36341.856 
  840800    295.56722   -1592.0022     507.4606    251.98047   -886.62361    36341.856 
  840900    290.28864   -1541.9559    516.93676    287.63381    -452.7507    36341.856 
  841000    306.85045   -1555.4268    536.39545    368.51229   -495.40418    36341.856 
  841100    296.76422   -1523.0061    516.00519    334.93391   -829.00809    36341.856 
  841200    300.34849   -1501.9258    506.51085    362.72751   -681.89837    36341.856 
  841300    300.57723   -1481.2581    508.20568    386.12441   -1004.5689    36341.856 
  841400    295.98127   -1468.1011    516.60977    386.90307   -74.302222    36341.856 
  841500    309.65056   -1549.2467    529.92361    380.88235   -360.46606    36341.856 
  841600     288.5934   -1555.9663    542.16824    291.18923    508.05242    36341.856 
  841700    299.10854   -1580.5891    517.36111    289.30752   -314.16641    36341.856 
  841800    301.02811   -1546.6391    506.56287    321.13942    -72.81401    36341.856 
  841900    300.55049   -1590.0226    513.19979    282.23306   -182.33691    36341.856 
  842000    295.97565   -1579.2367    517.82492    276.95723    443.45886    36341.856 
  842100    303.93064   -1579.2678    528.81008    323.88286    167.54075    36341.856 
  842200    295.46786   -1557.5731    521.54469    300.04439     540.4551    36341.856 
  842300    297.46657   -1555.0421    517.69506    307.76371    487.70724    36341.856 
  842400    292.47177   -1572.9807    511.00259    260.54669    208.29485    36341.856 
  842500    307.15663   -1595.1229    502.22156    296.02686   -151.82154    36341.856 
  842600    285.82429   -1572.8882    502.49879    222.07621   -738.29882    36341.856 
  842700    297.00043   -1589.8899    514.85321     267.9662    -129.9004    36341.856 
  842800    301.47776   -1578.7091    500.06773    284.60758    225.67972    36341.856 
  842900    303.09145   -1562.1507    498.31774    306.71289    339.11364    36341.856 
  843000      306.081   -1529.0343    523.81605    378.84604    760.44451    36341.856 
  843100    303.66442   -1566.6624    525.76785    332.24223    249.83359    36341.856 
  843200    317.60773   -1543.5623    498.06953    390.69411    479.92425    36341.856 
  843300    306.14242   -1601.2648     509.3106     292.3878    355.99374    36341.856 
  843400    302.82906    -1600.532    490.29144     259.1188    307.59065    36341.856 
  843500    309.30603   -1589.9817    516.38304    325.04881   -395.99252    36341.856 
  843600    299.41952    -1512.684     526.9518    368.20963   -636.39795    36341.856 
  843700    300.54146   -1508.3396    480.87978    331.55524    306.59231    36341.856 
  843800    285.01121   -1527.7195    522.68504    283.75454    205.68697    36341.856 
  843900     298.1159   -1551.2321    493.06691    289.88177   -1.0329474    36341.856 
  844000    302.34283    -1574.128    521.77198    314.80472    373.24424    36341.856 
  844100     291.5355   -1575.7924    533.20682    275.70552    346.33468    36341.856 
  844200    309.31615    -1564.149     498.6547    333.19898    165.17895    36341.856 
  844300    306.05181   -1549.8262    514.79349    348.89958    256.60405    36341.856 
  844400    300.39899   -1562.7487    491.60691     287.2291    158.08325    36341.856 
  844500    293.39245   -1532.8048    483.64304    277.52626   -43.278752    36341.856 
  844600    301.39833   -1555.6198     518.7908    326.06078   -115.31843    36341.856 
  844700    302.86873   -1600.9188    486.23246    254.85238    81.528593    36341.856 
  844800    292.81056   -1565.0933    501.60701    260.57054    224.83978    36341.856 
  844900    291.14796    -1539.701    493.08108    269.91884    391.22401    36341.856 
  845000    291.13334   -1528.6511    516.00618    303.82771    285.21957    36341.856 
  845100    298.08352   -1573.5638     538.5324    312.86917   -333.81221    36341.856 
  845200    315.34589    -1582.556    483.95902     327.3621   -954.90005    36341.856 
  845300    293.58785   -1569.4127    513.55542    271.71433   -269.52156    36341.856 
  845400    308.90156   -1547.0916    524.86212    374.58909   -721.62031    36341.856 
  845500    303.07479   -1581.1096     513.7719    303.13277    -242.3847    36341.856 
  845600    296.17393   -1553.6904    510.24862    295.82378    5.3239441    36341.856 
  845700    300.51776   -1539.9455    531.16919    350.13155    520.45383    36341.856 
  845800    293.79116   -1546.0738    491.89491    274.31207    51.809557    36341.856 
  845900    305.54451   -1573.1825    529.52296    337.97877    38.370088    36341.856 
  846000    303.33359   -1551.0628    501.38305    321.96108   -214.95828    36341.856 
  846100    309.20652   -1561.3636    501.64306    338.47699   -604.85974    36341.856 
  846200    315.77764   -1581.6027    507.46767    353.77634   -560.34184    36341.856 
  846300    298.64719   -1575.3948    528.94632    304.00094   -149.93257    36341.856 
  846400    296.33548   -1526.3485    506.63695    320.28453   -196.53876    36341.856 
  846500    308.68981   -1542.9303    521.95939    374.89008   -60.162156    36341.856 
  846600     286.9772   -1498.1382     519.4789    319.01973    82.438307    36341.856 
  846700    304.31754   -1536.0487    537.47957    377.52094   -492.91129    36341.856 
  846800    297.24663   -1531.1956    515.14696    328.06755     81.77253    36341.856 
  846900    301.74328   -1560.8747    494.69915    298.27401   -281.58598    36341.856 
  847000    298.27002   -1550.9513    482.65413    280.44673   -82.322362    36341.856 
  847100     292.6622   -1556.7147     525.5146    292.18587    290.54241    36341.856 
  847200    310.02732   -1536.7341    512.70974    377.88472    177.23773    36341.856 
  847300    303.75195   -1524.7583    489.35265    338.12692    226.11051    36341.856 
  847400    302.96058   -1546.5768    489.39386    312.77114    542.62494    36341.856 
  847500    297.84972   -1524.6729    499.32107    321.49149  -0.96823155    36341.856 
  847600    300.30584   -1486.4941    502.00696    373.46251    281.53242    36341.856 
  847700    307.30533   -1541.4189    502.89121    351.07289   -128.50988    36341.856 
  847800    307.86504   -1521.3829    496.80178    367.55039    -46.56615    36341.856 
  847900    289.15918   -1527.9703     521.0491    300.62445    -253.4991    36341.856 
  848000    311.80996   -1539.4857    486.46883    356.95309    -17.01681    36341.856 
  848100    298.58841   -1533.0133    515.95801    333.12827    -464.3786    36341.856 
  848200    308.16943   -1529.3866    486.30499    350.42634   -624.10866    36341.856 
  848300    303.73619    -1552.511     481.2984    302.24866    -803.7897    36341.856 
  848400    312.90604   -1501.3435     495.9092    409.49202   -147.41081    36341.856 
  848500    296.17908   -1519.5643    500.31415    320.03874   -118.91713    36341.856 
  848600    308.77191    -1529.909    492.07013    358.39334    194.70319    36341.856 
  848700    297.20185   -1555.7202    529.76865    317.96216   -131.28983    36341.856 
  848800    299.38322   -1573.4005    492.29342    272.67058    134.17714    36341.856 
  848900    292.03138   -1521.0722     502.8913    302.35257    82.960022    36341.856 
  849000    290.46978   -1517.9154    503.53587    299.09249   -179.85147    36341.856 
  849100    292.79537   -1538.7384     496.9611     282.2108     -14.7898    36341.856 
  849200    302.81111   -1534.4146    483.34909    318.21264    218.07986    36341.856 
  849300    307.62928   -1517.7336    503.91912    377.25092   -431.36466    36341.856 
  849400    290.77951   -1489.6507    558.85332    384.07522     88.36663    36341.856 
  849500    297.00901   -1519.6612    515.27082    338.65134   -11.837011    36341.856 
  849600    301.83493   -1505.5129    508.07302    367.42408    400.05356    36341.856 
  849700    304.07024   -1531.5832    514.32368     357.7123   -63.030252    36341.856 
  849800    300.35719   -1514.9207    508.81196    352.07312    125.36822    36341.856 
  849900    294.99592   -1550.7464    489.72009    272.91247   -101.66866    36341.856 
  850000     297.6041   -1541.4553    507.68355    311.96093    17.136405    36341.856 
  850100    302.61619   -1585.6338    497.90529    280.66828    57.490623    36341.856 
  850200    310.03997   -1557.2005    506.31198     351.0778    238.10518    36341.856 
  850300    304.49046   -1501.2109    538.93556    414.59669    -127.2913    36341.856 
  850400    302.46255   -1508.5018    483.51841    342.71865   -1048.6036    36341.856 
  850500    304.46125   -1475.9287    499.23108    400.04229   -946.57051    36341.856 
  850600    304.30275   -1550.6505    513.11851    338.49124   -473.68211    36341.856 
  850700     303.8317   -1554.6507    481.82137    301.06388   -315.13914    36341.856 
  850800    308.07547   -1599.8746     506.0406      299.249   -338.66846    36341.856 
  850900    295.95134   -1566.7459    491.26267    262.77582   -733.01811    36341.856 
  851000    302.03882   -1584.6097    501.66573    282.84196   -565.84817    36341.856 
  851100    298.92487   -1564.1582    503.18357    290.73044   -322.21557    36341.856 
  851200    295.09186   -1577.7719    508.50111    265.10182   -528.46595    36341.856 
  851300     299.3183   -1567.0254    489.88965    276.34835   -500.16902    36341.856 
  851400    306.19859   -1520.3893    510.07633    374.28297   -641.33594    36341.856 
  851500    292.92865   -1565.1807    507.63708    267.04719   -911.00802    36341.856 
  851600    309.47789   -1543.3379    523.13714    379.22381   -597.88658    36341.856 
  851700    291.00839   -1540.5423     498.6352    274.00055   -525.10395    36341.856 
  851800    305.92677   -1542.2443    526.51272    367.63531   -53.594483    36341.856 
  851900    290.89271    -1521.699    485.68765    279.37321     238.8421    36341.856 
  852000    306.97958   -1536.0109    535.22066    387.33728    -398.0117    36341.856 
  852100      303.366   -1550.2291    500.58842    322.14664   -428.34398    36341.856 
  852200     296.6093   -1534.7149    523.73002     330.2494   -157.66397    36341.856 
  852300    305.06838   -1547.1199     513.4338    345.79919    -144.9134    36341.856 
  852400    299.18834   -1592.5749    520.81703    281.13852   -403.13525    36341.856 
  852500    302.76902   -1544.4263    474.16741    298.82903   -389.12276    36341.856 
  852600    300.41584   -1534.4961    539.60177    363.55272   -21.699712    36341.856 
  852700    301.05182   -1495.0243    506.71338    373.01189   -649.46677    36341.856 
  852800     299.1493   -1528.6114    511.86972    335.97816   -617.72405    36341.856 
  852900    298.04911   -1551.5909    492.16428    288.31835    -701.3576    36341.856 
  853000    305.13217   -1515.2019    515.72604    380.29791     -550.065    36341.856 
  853100    299.84355    -1499.533    506.50857    362.83477   -101.61942    36341.856 
  853200     297.7571   -1511.8643    490.94523    325.50544   -74.428755    36341.856 
  853300     297.6513   -1483.8472    553.15886    415.25778   -550.06062    36341.856 
  853400    303.83855   -1561.6583    504.11005    316.37588   -555.19663    36341.856 
  853500     301.8607    -1547.374    513.99798    331.60447    357.70916    36341.856 
  853600    302.48567   -1552.0215    509.46578    325.25084     -115.822    36341.856 
  853700     292.8295   -1503.7989    513.38509    333.72859   -367.16757    36341.856 
  853800    303.33722   -1532.6777     485.2443    324.22376    -318.6224    36341.856 
  853900    299.11813   -1548.8823    532.39459    336.09125    293.36773    36341.856 
  854000    294.90074   -1527.9263     513.9702     319.5523    390.45415    36341.856 
  854100    292.04678   -1554.7778    513.96032    279.78558    912.77544    36341.856 
  854200    297.35966   -1555.9418    521.82287    310.50844    1000.5524    36341.856 
  854300     297.2373    -1585.105     517.8495     276.8185    280.47965    36341.856 
  854400    304.11371   -1560.3779    501.50352    316.29396     160.3452    36341.856 
  854500    303.58631   -1586.8502     506.0406    291.97393    208.56015    36341.856 
  854600    289.95742   -1558.8398    496.86694     249.1824    135.73499    36341.856 
  854700    303.59137   -1602.8609    497.60212    267.54761    134.78855    36341.856 
  854800    296.13269   -1584.3141    502.47811    257.24316    157.25217    36341.856 
  854900    303.48207   -1577.7974    524.52523    319.03999    808.67208    36341.856 
  855000    302.53944   -1544.5871    498.37774    321.84034    445.96168    36341.856 
  855100    304.92297   -1571.5275    512.03798    319.33825    148.14181    36341.856 
  855200    304.44623    -1553.143    503.20515    326.73411    416.66733    36341.856 
  855300    297.85344   -1550.3113    494.04869    290.59747   -282.10128    36341.856 
  855400     296.1413   -1614.4816    476.86538    201.50179   -356.16584    36341.856 
  855500    299.83881   -1564.0517    499.73188    291.51795    328.17542    36341.856 
  855600    301.00879    -1570.867    508.07853    298.33979     22.45193    36341.856 
  855700    296.01198   -1565.5152    511.30208    284.32021    455.91001    36341.856 
  855800    304.42117    -1559.911    504.65368    321.30136    436.72059    36341.856 
  855900    307.70219   -1584.3315    483.37177    290.43539    480.41315    36341.856 
  856000    301.54168   -1555.2537    507.13385    315.41812    309.98707    36341.856 
  856100    293.72803   -1545.3437    512.15875    295.02059    85.366154    36341.856 
  856200    292.71388   -1608.8739    488.00587    202.75166   -54.299995    36341.856 
  856300    294.17451     -1593.14      509.222     246.3064    516.58638    36341.856 
  856400    299.44804   -1574.8978    471.90686    251.07986     166.4146    36341.856 
  856500    309.55163   -1586.8484    479.73482    292.64453   -265.57681    36341.856 
  856600    308.14711   -1553.2473    493.68207    333.84173    -294.8573    36341.856 
  856700    303.81769   -1566.3438    495.95555    303.44158   -128.95408    36341.856 
  856800    307.36675   -1589.8139    497.10644    297.17078   -370.85685    36341.856 
  856900    289.11339   -1554.1149    492.05997    245.28371   -565.57176    36341.856 
  857000    302.63129   -1546.1183    504.10281    326.44954    40.587875    36341.856 
  857100    312.00805    -1557.429    498.86567    352.30242     235.8129    36341.856 
  857200    298.43802   -1549.0082    512.67444    313.16976    587.68086    36341.856 
  857300    304.06372   -1533.7197    519.00152    360.22421    521.85773    36341.856 
  857400    295.75038   -1520.2806    492.30092    309.37072    280.70368    36341.856 
  857500    311.97411   -1531.5652     506.6801     385.8272    -65.68436    36341.856 
  857600    302.85125   -1528.1419    505.01494    346.33268     129.2943    36341.856 
  857700    301.13882   -1523.2513    507.62256    346.08759   -429.57757    36341.856 
  857800    298.68734   -1531.3048    497.38919    316.71534   -105.25983    36341.856 
  857900    298.97846   -1526.0495    533.39973    359.29764   -975.61405    36341.856 
  858000    292.87357   -1526.9366    497.86955    295.27468   -1015.5768    36341.856 
  858100    303.65381   -1533.1552    474.84871    314.78228   -592.33186    36341.856 
  858200    290.01084   -1511.4861     505.9015    305.81216   -1051.1405    36341.856 
  858300    307.79944   -1541.9028    496.94171    346.87382   -510.50313    36341.856 
  858400    291.39486   -1560.0902    498.37238    255.93733    38.757995    36341.856 
  858500    303.99491   -1571.1827    510.33449    313.78298    1168.7832    36341.856 
  858600    293.36977   -1514.8298    524.72447    336.48015    681.28172    36341.856 
  858700    299.65816   -1558.0384    511.10468    308.08717    584.11407    36341.856 
  858800    304.99969   -1547.8887    484.33657    315.62262    131.68336    36341.856 
  858900    295.89849   -1553.7538    503.66769    287.93401   -72.628164    36341.856 
  859000    292.95837   -1497.7228    505.18988    332.19229   -286.13879    36341.856 
  859100    299.15402   -1501.3056     513.3515    364.78708   -109.88349    36341.856 
  859200    299.56315   -1522.2495     480.5991    312.94081   -565.18781    36341.856 
  859300    298.57533   -1539.5397     521.6964    332.28111   -456.90253    36341.856 
  859400    307.08332   -1542.8148    504.89514      350.677   -353.04568    36341.856 
  859500    300.75801    -1612.162    493.14227    240.97453   -642.09815    36341.856 
  859600    298.79181   -1582.9081    506.94632    275.14159    -247.5033    36341.856 
  859700    294.73266   -1561.9663    476.23981    247.02187   -21.286163    36341.856 
  859800    283.57307   -1578.6639    499.55002    203.17198    204.26081    36341.856 
  859900    299.24983   -1546.1494    491.24502    298.27009   -13.862017    36341.856 
  860000    304.81977   -1520.5955    500.28857    358.05419    113.56535    36341.856 
  860100    306.94088   -1537.5787    499.09744    349.47126    981.32909    36341.856 
  860200    304.15229   -1552.8312    508.32249    330.83409    75.302541    36341.856 
  860300    304.51403   -1528.4263      497.669    346.22131    35.565048    36341.856 
  860400    300.42901   -1538.8317    515.27749     334.9524    701.10633    36341.856 
  860500    305.11502   -1515.2802    487.26885    351.68484    162.42977    36341.856 
  860600    299.90024   -1534.3567     490.6192    312.37811   -75.472309    36341.856 
  860700    290.91692    -1559.374    515.86317    271.98315   -129.20328    36341.856 
  860800    304.96299   -1552.8952    491.30453    317.41813    230.68138    36341.856 
  860900    306.07015   -1507.1423    504.40795    381.28083   -404.86647    36341.856 
  861000    296.24565   -1539.3137    505.26161    305.53783   -112.15375    36341.856 
  861100    305.93951   -1518.0713    520.15929    385.51242    525.68055    36341.856 
  861200    302.76919   -1562.7385    512.26688    318.61702    260.60949    36341.856 
  861300    293.70409   -1515.8684    519.54908     331.7779    303.60372    36341.856 
  861400    284.10542   -1546.6151    504.82225    242.90023    -515.9787    36341.856 
  861500    298.32883   -1562.8596    501.47766    287.62786   -512.63042    36341.856 
  861600    306.26924   -1580.5124    473.75329    278.15629   -531.98122    36341.856 
  861700    300.09347   -1546.5335    500.61223    311.06801   -507.20223    36341.856 
  861800    296.20088   -1516.3163    535.27211    358.34324     250.3363    36341.856 
  861900    300.32121   -1558.2832    487.43506    287.17101   -327.86496    36341.856 
  862000    305.64821   -1560.6683    519.33425    340.77318    140.33388    36341.856 
  862100    302.63738   -1505.1053    525.21835    388.60561    350.07448    36341.856 
  862200    297.21486   -1532.2862     512.6575    324.34382    101.80046    36341.856 
  862300    305.14724   -1514.5099    525.26933    390.60137   -62.837509    36341.856 
  862400    299.96064   -1513.1631     520.8623    364.08783    176.99012    36341.856 
  862500    296.77431   -1533.5618    518.15179    326.57041    501.66963    36341.856 
  862600    301.13082   -1540.0288    495.17568    316.82703   -288.10961    36341.856 
  862700    293.64087   -1510.0207    497.06956    314.86024   -167.51193    36341.856 
  862800    306.85603   -1489.8196    547.02646    444.77574   -422.73361    36341.856 
  862900    306.10794   -1504.7467    504.36134    383.80068    252.30671    36341.856 
  863000    292.19877   -1564.9037    500.61748    257.00413    246.08914    36341.856 
  863100    307.94175   -1559.1881    499.43441    332.72467   -284.49738    36341.856 
  863200    295.66914   -1532.6371    502.83175    307.17765   -346.89172    36341.856 
  863300    302.14656   -1528.3585    482.14304    320.05768   -230.50323    36341.856 
  863400    302.03918   -1568.2427    490.20136    287.74626   -71.435475    36341.856 
  863500    303.08646   -1550.1759    501.39588     321.7433   -209.58782    36341.856 
  863600    299.23889   -1476.5555    532.27674     408.8462    341.48978    36341.856 
  863700    309.66126   -1524.2235    518.21282    394.24318   -164.22727    36341.856 
  863800    295.59295   -1533.5821    488.00735    291.06368    38.262959    36341.856 
  863900    294.73348   -1544.2866    514.30402    302.76942    -570.9925    36341.856 
  864000     293.9453   -1512.3875    534.82654    351.62708   -193.50479    36341.856 
  864100    302.81497   -1518.3278    476.22919    327.19702    898.54767    36341.856 
  864200    299.17293   -1564.5195    528.02404    316.33129    898.45647    36341.856 
  864300    285.78279    -1570.116    519.72967    241.89171     757.0345    36341.856 
  864400    306.61929   -1498.2274    516.22393    404.49485    589.19366    36341.856 
  864500    295.38378   -1553.1087    496.25432    278.83826    337.15682    36341.856 
  864600    298.49804   -1541.6607    514.44923     322.5635    305.76401    36341.856 
  864700    298.24955   -1553.0512    502.66886    298.26902    102.54076    36341.856 
  864800     308.5287    -1488.784     501.9483    408.29684    62.846673    36341.856 
  864900     301.3534   -1520.5447    506.09217    348.23408   -223.30666    36341.856 
  865000    298.63397   -1543.4045    509.05745    316.04259   -470.12649    36341.856 
  865100    297.71608   -1542.4473     495.7341    299.52575   -620.03288    36341.856 
  865200    299.52602   -1531.6106     504.6525    327.46526   -654.37938    36341.856 
  865300    294.78784   -1537.8094    496.63756    291.82598    84.888996    36341.856 
  865400    298.23577   -1546.4337    515.86504    318.02031   -151.42215    36341.856 
  865500    301.34871    -1472.933    517.53698    407.26933     69.80768    36341.856 
  865600    300.78145   -1499.8061    506.27579       366.57    153.42825    36341.856 
  865700    299.45026   -1523.3012    483.81717    314.59676    93.498432    36341.856 
  865800    308.70931   -1476.9865    487.00274    405.96547    164.85353    36341.856 
  865900    305.18573   -1510.0079    521.61589    391.62395   -406.89744    36341.856 
  866000    296.93663   -1539.1197    488.13837    291.73313    -633.8185    36341.856 
  866100    299.26707   -1528.4326    500.20523    325.02508   -523.02028    36341.856 
  866200    309.94412   -1554.1843    520.34348    367.69205    229.91323    36341.856 
  866300    301.97201   -1526.3367    487.96176    327.10893   -336.91869    36341.856 
  866400    303.96938   -1488.9444    522.41811    407.98952   -181.93162    36341.856 
  866500    316.72271    -1481.011    490.82371    441.99762   -398.75061    36341.856 
  866600    298.45512   -1497.1983    498.57329    350.95589    267.25704    36341.856 
  866700    291.65085   -1504.4662    502.36244    316.70898    495.96454    36341.856 
  866800    295.37274   -1523.6058    514.27345    326.31036    652.12557    36341.856 
  866900    300.70917   -1499.8204    502.42057    362.37357    710.01482    36341.856 
  867000    308.20786   -1467.0299    503.48861    430.14045    480.41115    36341.856 
  867100    322.55703   -1493.1011    502.79381    468.25973    349.84138    36341.856 
  867200    294.59706    -1438.013     505.9797    400.10189     -274.744    36341.856 
  867300    303.02906   -1521.9134    505.56708    353.91742    165.26167    36341.856 
  867400    294.34333   -1546.9558    507.50505    291.53708   -146.99228    36341.856 
  867500    301.97463   -1526.4132    513.12993     352.2125   -319.78999    36341.856 
  867600    305.02081   -1508.4582    514.86452    385.67653     -154.359    36341.856 
  867700    310.89808   -1499.7838    527.17758    433.24033   -85.603791    36341.856 
  867800    289.24168   -1509.6948    532.30056    330.52445   -251.10492    36341.856 
  867900    298.51714   -1468.2618    504.89014    386.48963   -68.357925    36341.856 
  868000    302.41522     -1492.24    500.65127     375.8993   -383.09807    36341.856 
  868100    302.10949   -1496.9928    499.54296     368.6557   -300.75801    36341.856 
  868200    299.21968   -1486.6817    517.96516    384.32162   -600.94807    36341.856 
  868300    298.96621   -1487.4569    503.05829    367.49335   -779.93618    36341.856 
  868400    295.69063   -1527.0701    525.23735    335.24738   -792.78473    36341.856 
  868500    298.55929   -1474.8508    492.58122    367.78238   -955.39864    36341.856 
  868600    311.01187   -1513.6358    524.56892    417.29426   -602.12655    36341.856 
  868700    303.85249   -1500.9788    517.05787    390.06624    236.07654    36341.856 
  868800    295.51398   -1520.5594    516.87583    332.59777    672.92925    36341.856 
  868900    296.29144   -1546.3945    544.29901    337.70144    347.51973    36341.856 
  869000    307.98671    -1494.579    518.95068    417.05337    429.86297    36341.856 
  869100    299.70865   -1472.3057    509.13733    392.08083    223.52177    36341.856 
  869200    313.07904   -1525.9519    503.91017    393.66684    577.06136    36341.856 
  869300    289.20343   -1573.2495     481.6787    216.17493    -130.5602    36341.856 
  869400    304.43273   -1510.2022    518.68355    385.09233   -322.21398    36341.856 
  869500    301.89714   -1503.0386    481.95675    344.06343   -685.99467    36341.856 
  869600    294.61747   -1520.1652    499.39719    311.45946   -406.26789    36341.856 
  869700    296.06227   -1533.6788    491.68057    296.76241   -48.146838    36341.856 
  869800    297.89376    -1499.011    507.13269    355.16411   -438.29108    36341.856 
  869900    303.98858   -1517.0976    492.49639    350.00132   -823.48808    36341.856 
  870000     295.0817   -1504.0425    498.57579    328.85993   -349.81923    36341.856 
  870100    305.72133   -1509.8573    522.46278    395.04337    37.945295    36341.856 
  870200    290.41707   -1518.5794    525.47936    320.13367    -409.0531    36341.856 
  870300     304.3406   -1485.9344    509.50535    399.76528   -67.575054    36341.856 
  870400    290.98874   -1472.8595     509.6852    352.64445   -254.05301    36341.856 
  870500    311.93854   -1503.6893    459.69809    366.56023    72.166071    36341.856 
  870600    298.06075   -1465.4228    537.42593    419.80071    237.85948    36341.856 
  870700    300.15474     -1510.59    474.58432    321.26068   -504.99251    36341.856 
  870800    301.44074   -1475.5606    510.38669     397.9076   -37.667544    36341.856 
  870900    300.18891   -1509.5312    516.56232    364.45205   -696.48899    36341.856 
  871000     298.1822   -1498.8547    505.05317    354.54522   -63.762658    36341.856 
  871100    290.27552   -1527.2467    503.48281    288.82974   -489.81695    36341.856 
  871200    298.48774   -1506.9845    501.77032    344.51422   -316.36578    36341.856 
  871300    298.13763   -1523.0505    524.07607    349.17075    27.718707    36341.856 
  871400    306.09225   -1521.3584    494.33741     357.0942    -168.0026    36341.856 
  871500    299.50234   -1523.2859    509.49476    340.52517    636.90883    36341.856 
  871600    305.62014   -1520.6995    507.34641    368.62723   -88.535126    36341.856 
  871700    292.75032   -1493.0238    521.82075    352.58135   -518.79959    36341.856 
  871800    293.94885   -1504.8296    528.00776    352.38216   -69.397353    36341.856 
  871900    297.34928    -1504.769    488.28821    328.09967    433.60229    36341.856 
  872000    304.16905   -1490.7685    517.02667    401.67683    311.48799    36341.856 
  872100    305.75637   -1519.5438    511.68408    374.73662    336.56786    36341.856 
  872200    301.44859   -1491.1288    504.83106    376.81929    499.14095    36341.856 
  872300    291.88713   -1539.3298    513.63857    294.18991     41.42278    36341.856 
  872400    294.62489   -1531.3682    489.02203    289.91483   -14.916356    36341.856 
  872500    293.03795   -1503.0631     499.9231    321.94503    -182.7931    36341.856 
  872600    304.36776   -1516.1994    498.20414    358.32188   -55.645785    36341.856 
  872700    296.78533    -1495.398    508.73053    355.36279    670.83009    36341.856 
  872800    307.51339   -1480.0363    513.34515    423.85023    457.71189    36341.856 
  872900    289.61463   -1487.4106    498.16323     320.3578    245.45934    36341.856 
  873000    282.59849   -1532.3052    502.91508    248.48888   -539.67991    36341.856 
  873100    292.05034   -1529.9896    502.21181    292.84133   -918.39214    36341.856 
  873200    294.43518   -1533.4123    514.15189    312.14275   -813.73257    36341.856 
  873300     293.9252   -1522.0919    477.82168    284.82686   -1016.6738    36341.856 
  873400    302.77986   -1502.5181    492.21674    358.83556   -502.43452    36341.856 
  873500    294.24353   -1508.4419    487.36401    309.45861    -623.7193    36341.856 
  873600    284.36209   -1503.6467    512.67267    294.87976   -684.64326    36341.856 
  873700    307.17599   -1460.1615    510.81734    439.67157   -557.58793    36341.856 
  873800    296.44545   -1486.0236    489.85043    344.32022   -704.17219    36341.856 
  873900    303.14932   -1474.9065    534.36492    430.26596   -1038.1409    36341.856 
  874000    310.13281   -1451.3026    468.35335     419.4369   -148.67392    36341.856 
  874100    305.57231   -1488.7443    535.33357    428.35331   -299.91888    36341.856 
  874200    299.51404   -1466.3228    510.37848    398.42483    3.1979082    36341.856 
  874300    296.22122   -1495.2194    470.19253    314.45253   -390.13458    36341.856 
  874400    308.04477   -1446.7972    502.32608    448.47311   -215.87221    36341.856 
  874500    300.99674   -1452.0556    531.35893    440.37713    38.413983    36341.856 
  874600    289.76582   -1429.2036    520.63036     401.7156   -579.46474    36341.856 
  874700    302.77166   -1464.5218    500.26025    404.83817   -163.10616    36341.856 
  874800    298.70329   -1495.0056    489.76586    345.46334    446.69994    36341.856 
  874900    308.65705    -1477.813    522.87999     440.7799    195.85929    36341.856 
  875000    295.09046   -1485.3766    500.35866    349.34829    460.77295    36341.856 
  875100    292.11527   -1489.4891     499.2943    330.71803    260.16262    36341.856 
  875200    301.35447   -1464.8234    524.40712    422.27512     461.9628    36341.856 
  875300    304.17625   -1508.7368    475.78434    342.49868    1035.8929    36341.856 
  875400    292.60611   -1518.9637    474.68512    278.85367    659.30494    36341.856 
  875500    301.19987   -1495.6091    520.25515    386.63838    517.36089    36341.856 
  875600    302.46905   -1516.7224    503.88521    354.89427    206.98599    36341.856 
  875700     300.1562   -1556.6832    485.18749    285.77728    242.39754    36341.856 
  875800    291.65628   -1554.0105    508.03833    272.86508    395.30258    36341.856 
  875900     295.2442   -1499.0746    494.61898    330.60584    76.503103    36341.856 
  876000    302.06237   -1510.9807    507.19282    362.10461     487.1141    36341.856 
  876100    299.49314   -1437.9673    487.78428    404.09164    187.83683    36341.856 
  876200    303.36559   -1475.4569    505.72839    402.05691    73.636641    36341.856 
  876300    304.04479    -1514.539    495.80184    356.11961   -31.531307    36341.856 
  876400    296.73786   -1483.7867    516.57633    374.60525   -283.11224    36341.856 
  876500    290.27901   -1481.3401     500.4172    331.68656   -315.37904    36341.856 
  876600    292.45164    -1502.662    509.38685    329.15866     -340.098    36341.856 
  876700    306.98142    -1483.435    495.99772    400.69855    187.28044    36341.856 
  876800    295.33767   -1481.1627    503.91445    358.23587   -312.42852    36341.856 
  876900    297.41692   -1543.4273    483.64628    285.10522    269.63763    36341.856 
  877000    291.45359   -1513.7616    514.34826    318.50738     69.82045    36341.856 
  877100    301.27293   -1442.3564    493.94848    413.91479    329.62248    36341.856 
  877200    294.29366   -1503.8534     505.1015    332.01138   -591.55398    36341.856 
  877300    299.67946    -1478.183    539.89611    416.83038   -102.91229    36341.856 
  877400    303.27562    -1471.346    482.90105    382.93369   -78.774713    36341.856 
  877500    303.44216    -1461.823    522.71239     433.0211   -105.57258    36341.856 
  877600    308.77754   -1457.5633    518.70587    457.40024    451.28765    36341.856 
  877700    294.73539   -1423.7839    476.81835    385.79518    469.85041    36341.856 
  877800    301.87916   -1447.1724    528.88996    446.78153    574.62582    36341.856 
  877900    293.60212   -1434.3388    511.39994    404.69728     366.9144    36341.856 
  878000    303.61516   -1456.0496     526.3929    443.25736    662.64688    36341.856 
  878100     302.8575   -1467.8816    536.97508    438.58145    556.28579    36341.856 
  878200    309.22294   -1459.5106    521.49642    460.25754    186.31086    36341.856 
  878300    291.93982   -1453.7719    497.65038    363.99793     100.8451    36341.856 
  878400    301.43601   -1441.9783    513.07064    434.15245   -469.80917    36341.856 
  878500    299.48371   -1449.6614    514.35802    418.92862   -456.44353    36341.856 
  878600    291.55297   -1444.3571    534.55575    408.56879   -550.56001    36341.856 
  878700    297.80145   -1440.2097    512.15395    418.56934   -538.94358    36341.856 
  878800     302.1699   -1451.3714    494.12935    409.13665   -55.841998    36341.856 
  878900    295.30333   -1415.4825    502.76008    422.60645    148.74335    36341.856 
  879000    300.35014   -1461.3603    496.59154    393.38124    95.967656    36341.856 
  879100    300.38365    -1430.638    528.57647    456.23995   -248.67794    36341.856 
  879200    310.78723   -1397.1617    484.10838    492.29196   -409.53145    36341.856 
  879300    296.94051   -1428.9053    502.66297    416.48967   -946.28092    36341.856 
  879400    302.08599   -1468.9408    511.66699    408.72543   -700.86626    36341.856 
  879500    300.75279   -1443.3103    500.55836    417.21875   -988.66849    36341.856 
  879600    303.22681   -1425.6186    523.29406    468.83344    24.309623    36341.856 
  879700    303.45445   -1469.4236    508.22356    410.98725    239.39051    36341.856 
  879800    306.92398   -1440.5028    518.49947    465.87282   -286.50677    36341.856 
  879900     295.6458   -1451.1842    500.13791    385.83114   -18.751051    36341.856 
  880000    294.17452   -1425.5439    509.89798    414.57859   -428.35496    36341.856 
  880100    303.80079   -1475.7646    517.73344     415.7223   -234.32603    36341.856 
  880200    303.23655   -1512.0614     483.2389    342.37944   -448.69096    36341.856 
  880300    313.79699   -1522.6457    513.27633     409.5857    388.89581    36341.856 
  880400    304.45408   -1519.0276    514.72903    372.40896    23.948269    36341.856 
  880500     292.7747   -1509.6686     510.1605    324.38654    385.94754    36341.856 
  880600    299.85477    -1501.231    505.48364    360.16259    306.32941    36341.856 
  880700    306.35111   -1496.4481    529.83272    418.67028   -214.04664    36341.856 
  880800     299.2401   -1493.9942      496.554    355.69027    624.11492    36341.856 
  880900    304.23433   -1484.8267    523.96622    414.85334     113.1486    36341.856 
  881000    310.04655    -1530.507    514.09459    385.58364    580.09138    36341.856 
  881100    292.11447   -1528.8972    505.30585    297.31781   -83.177591    36341.856 
  881200    298.38762   -1500.8546    497.98159    346.40269   -85.974853    36341.856 
  881300    306.02684   -1500.0948    546.49435    430.21893    253.19895    36341.856 
  881400    301.25703   -1529.5642    508.20749    340.89413    103.53388    36341.856 
  881500    289.92718   -1495.3681    516.99679    332.64722    88.678937    36341.856 
  881600    296.59624   -1502.5347    542.12055     380.7611   -213.06634    36341.856 
  881700    292.00132   -1532.7767    491.17651    278.79733   -505.05857    36341.856 
  881800    295.22781    -1493.134    528.55664    370.41001   -599.62949    36341.856 
  881900    313.41818   -1493.5398     525.6662    449.36854   -514.33035    36341.856 
  882000    306.06027   -1513.0492    499.09422    370.01553   -417.33472    36341.856 
  882100    301.77298   -1505.0111    543.76511    403.33789    -244.3146    36341.856 
  882200    302.34696   -1493.8376    489.09397    362.43571   -645.02089    36341.856 
  882300     308.0047   -1505.9054    547.98355    434.84116   -429.07365    36341.856 
  882400    277.35933   -1522.1669     509.2193    241.24049   -791.09644    36341.856 
  882500    289.11326   -1530.9999    512.23087    288.56894   -236.52781    36341.856 
  882600    295.14566   -1564.5713     521.4521    291.49672   -207.34261    36341.856 
  882700    297.02577   -1522.8548    538.15523    358.41801    -182.5115    36341.856 
  882800    307.73219   -1527.5477    538.54201    402.52507    527.01363    36341.856 
  882900    300.06018   -1527.5971    500.61104    329.85268    298.38328    36341.856 
  883000     307.3356   -1513.6467    510.49409    386.58485    565.00664    36341.856 
  883100    301.95352   -1494.7022    515.46547     386.1635    640.84191    36341.856 
  883200     292.2356   -1491.7524    511.23007    340.93459    629.80529    36341.856 
  883300    301.04097   -1467.1207    534.45335    428.60646    679.50167    36341.856 
  883400    319.87718   -1530.4376     480.9972    397.00868    589.28289    36341.856 
  883500    307.94141   -1513.8655    527.19734    405.80867    279.61127    36341.856 
  883600    287.03575   -1527.6541     489.8333    260.12299   -464.34107    36341.856 
  883700    298.95055   -1518.1726    518.62565    352.27419    49.695887    36341.856 
  883800    298.79344   -1547.5258    486.94204    290.52696   -498.79983    36341.856 
  883900    295.17962   -1467.1352    520.15365    387.78785   -131.16523    36341.856 
  884000    302.20677    -1452.139    517.58664    431.99306   -620.22298    36341.856 
  884100     301.3432   -1461.5401    523.39126    424.49162   -431.83192    36341.856 
  884200    295.51769   -1514.4021     527.6046    349.50067    -464.7337    36341.856 
  884300    308.42458   -1461.9956    491.96856    424.63461   -425.83211    36341.856 
  884400    298.64935   -1488.0322    551.11835    413.54525   -217.95621    36341.856 
  884500    294.07804   -1479.7165    520.85459    370.92633   -806.35131    36341.856 
  884600    301.95099   -1491.4582    505.99285    379.92351   -565.01771    36341.856 
  884700    305.94694   -1531.0412    530.76934    383.18625   -706.92803    36341.856 
  884800    297.80361   -1541.3611    508.34169    313.61536   -428.66653    36341.856 
  884900    304.95111   -1519.4186    512.81058    372.34702   -499.77354    36341.856 
  885000    292.87154   -1536.8707    492.71557    280.17739   -432.72375    36341.856 
  885100    302.87061   -1542.7766    521.19127    347.96197   -78.037597    36341.856 
  885200     305.4134   -1500.2333     528.2985    409.11064    -326.6952    36341.856 
  885300    304.47602   -1448.2897    505.98813    434.50508   -210.01149    36341.856 
  885400     308.8871   -1500.2184    544.81368    441.34838   -128.36176    36341.856 
  885500    299.74044    -1496.512    498.42854    357.30945    359.72149    36341.856 
  885600    288.17369   -1521.2993     514.2565    296.04662    451.96821    36341.856 
  885700    300.27016   -1531.7465    508.02277    334.06457    417.39476    36341.856 
  885800    305.74986   -1493.2503    529.42986    418.74645    574.14976    36341.856 
  885900     293.9059   -1510.0893    521.70308    340.62362   -219.76721    36341.856 
  886000    303.64012   -1486.2483    509.80795    396.58651   -238.05058    36341.856 
  886100    293.59549   -1475.4571    527.44769    379.59671    90.716099    36341.856 
  886200    305.18705   -1470.2409    562.79722    472.57825   -543.41468    36341.856 
  886300    287.01347   -1499.7555    522.21498     320.3025    219.06545    36341.856 
  886400    293.00831   -1510.2233    485.51648    300.24417    462.99787    36341.856 
  886500    296.61792   -1506.9799    509.60782    343.90114      149.287    36341.856 
  886600    303.39678   -1491.9092    493.54751    373.56479    38.008547    36341.856 
  886700    307.31677   -1484.5538    506.34969    411.44814   -55.487853    36341.856 
  886800    302.10254   -1460.1233    498.81044    404.76129    455.28945    36341.856 
  886900    302.82038   -1513.4856    488.48099    344.31552    119.67634    36341.856 
  887000    303.03646   -1524.1999     506.2154    352.31269   -43.308317    36341.856 
  887100    304.85859   -1534.4036     511.6328    355.76585   -275.25577    36341.856 
  887200    297.13759    -1539.691    505.12524    309.05743   -177.33298    36341.856 
  887300    302.97271   -1493.0031    531.28989     408.2957    251.93438    36341.856 
  887400    292.31855   -1527.5975    512.43509    306.66965     173.3291    36341.856 
  887500     294.4432   -1482.9169     511.8199     360.3424    283.69658    36341.856 
  887600    304.71208   -1511.5311    520.61132    386.95439    698.90733    36341.856 
  887700    300.39745   -1513.1298    532.51837    377.75247    418.18456    36341.856 
  887800    294.60298   -1497.7966    513.95583    348.32111    643.99986    36341.856 
  887900    307.27749   -1523.7156    500.05532    365.81444   -412.80633    36341.856 
  888000    298.02563   -1478.0434    500.47606    370.07142   -362.79211    36341.856 
  888100    291.63006   -1496.5629    501.29019    323.44601   -810.76335    36341.856 
  888200    305.91043   -1498.4687    506.90373      391.728   -486.37213    36341.856 
  888300    294.47534   -1507.1448    543.66912    368.10903   -136.58102    36341.856 
  888400    299.15542   -1513.7208    517.37622    356.40293    20.979008    36341.856 
  888500       313.16   -1506.0497    514.97328    424.99825   -135.99966    36341.856 
  888600     315.3998    -1535.376     479.1388    369.96565    27.581987    36341.856 
  888700    304.18856   -1504.1365    502.30331    373.67369   -572.96476    36341.856 
  888800    299.50333   -1445.8387    509.78397    418.26604   -426.82617    36341.856 
  888900     294.0473   -1479.4322    521.03449    371.25147   -125.38698    36341.856 
  889000    298.77604   -1477.7349     549.6888    422.98589    173.85213    36341.856 
  889100    300.19383   -1533.7189    477.06348    300.78769    30.658707    36341.856 
  889200    301.64807   -1536.5833     515.8102    343.24592    265.86056    36341.856 
  889300    286.48932   -1495.6234     499.1921    299.04155    532.71894    36341.856 
  889400    310.89224   -1501.6976    524.93191    429.05443     395.4096    36341.856 
  889500    305.24831   -1543.2079    505.25149    342.34245   -452.81112    36341.856 
  889600    302.05168   -1499.4512    505.45821    371.85117   -519.97833    36341.856 
  889700    305.58414   -1478.6467    507.60733    410.77813   -609.81602    36341.856 
  889800    298.53511   -1495.1092     503.2424    358.07581   -55.870084    36341.856 
  889900     292.5012   -1520.2638    501.90057    304.29472    177.35231    36341.856 
  890000    294.21351   -1543.7916    505.33142    291.94058   -137.45049    36341.856 
  890100    304.71335   -1512.2172    501.31198    366.97473   -990.47938    36341.856 
  890200    293.73925   -1489.5809    492.59248    331.26784   -196.81269    36341.856 
  890300    301.54002   -1467.9421    522.05813    417.64654    -124.1609    36341.856 
  890400    302.64574   -1458.2336    514.73873    425.03554    74.973197    36341.856 
  890500    312.13222   -1509.3751    509.20424    411.25638    623.96607    36341.856 
  890600    308.07845   -1513.4364    500.95625    380.61642   -107.21919    36341.856 
  890700    305.06665   -1510.3703    496.46557    365.57273    614.45811    36341.856 
  890800    309.18863   -1584.4995    537.88148    351.49866    420.59124    36341.856 
  890900    309.18185   -1509.5368    486.46168    375.01086    576.14385    36341.856 
  891000    299.40773    -1501.235       520.99    373.64349    387.92845    36341.856 
  891100    300.77981   -1512.5785    493.33934    340.85368   -612.01173    36341.856 
  891200    295.84729   -1481.7975    500.54239    356.53346   -72.651628    36341.856 
  891300    294.10366   -1499.6829    529.67669     359.8978   -207.95994    36341.856 
  891400    301.53331   -1473.9671    500.85886     390.3919     151.4941    36341.856 
  891500    302.04097   -1455.7919    540.71085    450.71465    193.69402    36341.856 
  891600    299.39409   -1441.9107    500.65381    412.56988    173.60582    36341.856 
  891700    312.34421   -1473.6937    496.90544    435.59757   -146.40716    36341.856 
  891800    304.72519   -1482.8396    499.93638    395.03024   -306.03719    36341.856 
  891900    301.02272   -1498.3566    517.10564    379.94038    -568.4453    36341.856 
  892000    300.66791   -1520.6944    515.92853    354.82106   -698.33785    36341.856 
  892100    295.53534   -1536.8922      509.743     309.2288   -556.46446    36341.856 
  892200    298.08596   -1477.3448    506.96833    377.53507   -443.84654    36341.856 
  892300    293.55286   -1499.1288    516.71528    344.99986   -405.53428    36341.856 
  892400    301.19476   -1488.0615     511.2606    385.16836    226.16878    36341.856 
  892500    298.68168   -1508.4738     497.7444    339.87601   -103.12266    36341.856 
  892600    292.26127    -1484.848    498.97062    335.69553   -357.51541    36341.856 
  892700    294.18077   -1523.2462    495.34015     302.3467   -587.81307    36341.856 
  892800    293.95677   -1499.9874    510.43903    339.69149   -469.03957    36341.856 
  892900    287.57305   -1518.5634    515.09241    296.90243   -418.37713    36341.856 
  893000    295.48353   -1547.9719    489.95728     278.1291   -296.14552    36341.856 
  893100    296.94694   -1510.0612    523.69644    356.39626   -702.39641    36341.856 
  893200    298.82912   -1486.8864    499.45725    363.84285   -566.15371    36341.856 
  893300    306.37273   -1462.5256     518.0128    440.87064   -576.02017    36341.856 
  893400    308.00974    -1481.847    482.66165    393.60042   -80.364394    36341.856 
  893500    308.07973   -1480.7919    518.90341     431.2138   -705.99541    36341.856 
  893600    301.93425   -1510.1639    473.55773     328.7069   -592.41439    36341.856 
  893700     303.0996   -1515.3245     500.8917     356.1499   -443.72101    36341.856 
  893800    300.66743   -1518.4094    514.42015    355.59543   -553.47876    36341.856 
  893900      300.806   -1516.0544    495.64334    339.80029   -71.725735    36341.856 
  894000    298.71171   -1482.3013    509.04013    377.48003   -485.70841    36341.856 
  894100    305.57893   -1493.7968    515.18919    403.18638    -736.8032    36341.856 
  894200    303.93319   -1492.0067    498.05814     380.4035   -866.69806    36341.856 
  894300     304.2596   -1459.8404    491.46165    407.44935   -1026.0539    36341.856 
  894400    296.07305    -1488.082    484.48338    335.21079   -711.51686    36341.856 
  894500    301.76972   -1474.4106    508.51377    398.67228    -322.1045    36341.856 
  894600    295.39302   -1497.2058     516.6248    355.15339   -47.866648    36341.856 
  894700    301.51246   -1448.8197    500.19912    414.78523    457.01626    36341.856 
  894800    300.45569   -1513.2092    518.25919    363.67726     641.3169    36341.856 
  894900    299.36051   -1468.9044    509.18229     393.9528    569.25787    36341.856 
  895000     309.2139   -1465.2295    501.58674    434.58815    227.26648    36341.856 
  895100    300.10923   -1445.1295    508.37643    420.30752   -423.38876    36341.856 
  895200    305.33369   -1482.1824    529.84252     428.3451   -851.50897    36341.856 
  895300    308.06991   -1478.2668    495.69023    410.48133   -553.49326    36341.856 
  895400    289.89706   -1468.1488    511.60493    354.33846   -379.31092    36341.856 
  895500    299.48696   -1521.8992    503.74236    336.08987   -213.70171    36341.856 
  895600    301.98624   -1491.1409    500.99767    375.40495    -352.3651    36341.856 
  895700    296.75917   -1489.7072    536.95592     389.1607   -234.13694    36341.856 
  895800    304.09472   -1508.1548    491.67281    358.60056   -509.94516    36341.856 
  895900    311.33087   -1488.2519    496.70924    416.26093   -495.56009    36341.856 
  896000    305.99651   -1434.5039    509.29105    458.46936   -341.71642    36341.856 
  896100     296.8373   -1524.1779     521.1322    339.21951   -480.37751    36341.856 
  896200    296.80884   -1513.2387    497.61636    326.51427   -56.739165    36341.856 
  896300     313.8051   -1506.0542    494.53562    407.47322    245.10103    36341.856 
  896400    306.22762   -1501.8061    491.88057    374.80175    529.37601    36341.856 
  896500    301.32523   -1495.1238    551.73955    419.17494    407.38486    36341.856 
  896600    300.57889   -1516.1284    500.36758    343.42353    443.48552    36341.856 
  896700    294.98516   -1478.8492    511.34684    366.38776    352.01864    36341.856 
  896800    309.54142   -1468.0632    520.95182     452.6005    488.57842    36341.856 
  896900    315.78496   -1525.0136    498.42978    401.36067    243.24539    36341.856 
  897000    302.68498   -1494.4547    520.56624    394.81935   0.12306274    36341.856 
  897100    301.74437   -1487.1382    503.55016    380.86644    58.924616    36341.856 
  897200     293.6465   -1526.4794    510.02537    311.38277   -616.24049    36341.856 
  897300    302.48887   -1521.7409    500.48756    346.56775   -798.69836    36341.856 
  897400    291.94791   -1532.9543    504.54962    291.75134    110.83647    36341.856 
  897500    308.72437   -1516.3814      482.419    362.05486   -309.74909    36341.856 
  897600    304.96736    -1517.691    497.29385    358.63137   -445.63632    36341.856 
  897700    302.75886   -1506.4879    524.82843    387.38243   -308.25933    36341.856 
  897800    308.27376   -1541.5898     479.7568    332.14664    152.57057    36341.856 
  897900    308.83985   -1518.5533    506.03499    384.02113    -142.8507    36341.856 
  898000    288.28048   -1503.4599    492.00564    292.11804   -882.14151    36341.856 
  898100    307.45856   -1513.8246     475.8599    352.32873    225.00494    36341.856 
  898200    302.36987   -1550.2964    503.33071    320.31729    132.53883    36341.856 
  898300    312.12245   -1562.6607    490.19956    338.92182   -303.18835    36341.856 
  898400     292.3445   -1498.4395    528.33881    351.84868   -244.76496    36341.856 
  898500    296.92225   -1527.6077    498.17904     313.2207    354.98013    36341.856 
  898600     292.4213   -1535.1927     497.6609    284.76482    383.07885    36341.856 
  898700    306.10019     -1544.27    485.29815    325.17921    48.806016    36341.856 
  898800    304.21496   -1521.3019    486.00409    340.32843   -384.40883    36341.856 
  898900    304.16568   -1514.9408    507.65901    368.12158   -47.037646    36341.856 
  899000    304.68229   -1528.9718    514.10394    362.87164   -705.70414    36341.856 
  899100    304.08513   -1496.3915    498.61557     377.2632   -48.221612    36341.856 
  899200     287.6318   -1498.3633    514.03905     316.3148   -622.49254    36341.856 
  899300    306.89326   -1494.8047    508.08905    401.02161   -215.85461    36341.856 
  899400    296.83658   -1463.2631    479.58443    358.58336   -101.89713    36341.856 
  899500    302.81949   -1487.9661     527.1858    408.53583   -637.63538    36341.856 
  899600    300.04063   -1506.8089    506.93676    356.87823   -386.14618    36341.856 
  899700    296.06295   -1545.7473    482.00038    275.01687   -5.9962594    36341.856 
  899800    304.91489   -1512.7957    518.79947    384.79499    139.56623    36341.856 
  899900     301.4546   -1503.8284    512.92491    372.24074   -136.77708    36341.856 
  900000    290.35287   -1533.1919    513.00226    292.75375   -748.12318    36341.856 
  900100    304.70477   -1501.4978    504.89455    381.23788   -623.68435    36341.856 
  900200    305.65556   -1514.4235    524.92436    392.64135   -538.13176    36341.856 
  900300    294.76848   -1526.6363    512.18426    318.45821    2.9148211    36341.856 
  900400    303.91717   -1507.7491    512.38949     378.9201   -36.807809    36341.856 
  900500    297.51313   -1521.8382    512.65805    336.14122    162.01105    36341.856 
  900600    292.54146   -1547.1654    488.20729    263.88183   -319.55725    36341.856 
  900700    297.07718   -1505.7067    507.03813    344.68143    83.275843    36341.856 
  900800    303.40758   -1485.4638    529.78707    416.29862   -80.530421    36341.856 
  900900    291.70388   -1479.1295    494.22459    334.14759    130.08048    36341.856 
  901000     299.5192   -1504.0876    502.24636    352.55134    9.0855734    36341.856 
  901100    296.70341    -1515.171    483.75984    310.24864   -466.09558    36341.856 
  901200    302.93511   -1516.6061    528.48079    381.71356    207.58363    36341.856 
  901300    293.89234   -1550.4268    475.14621    253.66791   -292.20364    36341.856 
  901400    303.49111   -1540.4612    538.05776     369.9496   -198.87117    36341.856 
  901500    300.91137   -1560.8543    496.08576    295.91924    128.29447    36341.856 
  901600    303.77639   -1526.6715    501.36117    348.33269   -398.19833    36341.856 
  901700    297.13889   -1479.1248    499.78272    364.28698   -162.06963    36341.856 
  901800    300.83877   -1455.1744    502.37021    407.55529    -182.5773    36341.856 
  901900    303.92578   -1523.7996    525.78004    376.29903   -78.849429    36341.856 
  902000    286.60938   -1524.6963    488.67926    259.99868   -279.36762    36341.856 
  902100    297.10656   -1480.4388    538.15634    401.20042    -592.5656    36341.856 
  902200    301.56324   -1527.0159    488.20602    324.82563   -551.11155    36341.856 
  902300     293.9763   -1488.7309    520.58599    361.18329   -49.531763    36341.856 
  902400    300.78005   -1467.2641    528.07153    420.90142    198.26665    36341.856 
  902500    294.42348   -1492.7035    511.46014    350.10685    536.19991    36341.856 
  902600    291.39486   -1477.0762    521.93503    362.51399    34.291978    36341.856 
  902700    303.69987   -1540.0741    506.75144     339.9744   -134.37848    36341.856 
  902800    295.70026   -1516.0113     508.2605     329.3729    387.45136    36341.856 
  902900    295.60271   -1531.9227    505.43713    310.19698     316.3914    36341.856 
  903000    297.28433   -1574.2963    539.82189    309.81225    68.988248    36341.856 
  903100    297.55387     -1540.54     516.7791    321.74461    8.1871438    36341.856 
  903200    304.26598     -1513.48    498.01906    360.39605   -226.41331    36341.856 
  903300    302.96285   -1549.8785    527.31673    347.40259   -48.154618    36341.856 
  903400    302.71192   -1565.5315    495.71817    299.01629   -10.068007    36341.856 
  903500    303.59702   -1522.2451    500.27005    350.85693   -116.16687    36341.856 
  903600    308.80901   -1525.2569    494.57172    365.71483    146.36371    36341.856 
  903700    295.00529    -1503.732    493.12504    323.37418    437.00329    36341.856 
  903800    303.58631   -1527.9417    516.34849    361.19037    702.09682    36341.856 
  903900    295.69579   -1525.7024    475.35607    286.75714    196.88695    36341.856 
  904000    301.10644   -1539.8974    519.77253    341.44494    185.30319    36341.856 
  904100    287.23969   -1526.7718    528.61759    300.71177    92.632232    36341.856 
  904200    299.06048   -1540.1014     471.7612    283.97807    135.08376    36341.856 
  904300    306.66912   -1539.6367    508.40375    355.49072   -265.95391    36341.856 
  904400    299.73844   -1521.6286    508.26873    342.02408   -210.58874    36341.856 
  904500    302.52355   -1499.1009    499.63547    368.51242   -34.372621    36341.856 
  904600    311.83296   -1530.1315    495.38463    375.32717   -54.643963    36341.856 
  904700    293.56777   -1548.3557    516.94129    296.06643    393.70913    36341.856 
  904800    289.92632   -1545.1424    514.32389    280.19605    268.38338    36341.856 
  904900    287.33316   -1522.7033    496.93601    273.52129    192.27176    36341.856 
  905000    303.11366   -1515.2862    514.19844    369.55856    765.63799    36341.856 
  905100    306.17739   -1516.6445    520.51463     388.3703    555.40552    36341.856 
  905200    308.72477   -1525.5985    527.54984    397.97049     236.7024    36341.856 
  905300    307.48444   -1518.6645    517.87054    389.61653    529.27524    36341.856 
  905400    304.54961   -1543.4729    527.29693     360.9635    -30.47303    36341.856 
  905500    303.81899   -1533.1389    514.54986    355.24668    237.03945    36341.856 
  905600     306.7915   -1495.8174    510.01105    401.47068    21.128218    36341.856 
  905700    299.74175   -1499.0382    513.79695    370.15756   -268.98045    36341.856 
  905800    300.44314   -1503.7646     500.1986    355.00444   -382.31628    36341.856 
  905900    303.18008   -1538.2977    507.47699    340.12591   -514.55947    36341.856 
  906000     304.7052   -1521.4063    501.55911    357.99582    586.12528    36341.856 
  906100     298.7834   -1511.4862    562.32946    401.90863    109.14796    36341.856 
  906200    295.50036   -1530.5247    501.35586    307.05097   -156.77974    36341.856 
  906300    293.21376   -1567.5666    520.39311    278.70656   -810.55116    36341.856 
  906400    298.65249   -1496.8246    516.81776    370.46654   -911.36713    36341.856 
  906500    306.04438   -1526.8327    477.57007    334.63602   -1011.0463    36341.856 
  906600     303.4383    -1475.233     492.8666    389.74785   -725.81993    36341.856 
  906700    306.20849    -1537.269    498.09121    345.46301   -713.76669    36341.856 
  906800    299.21508   -1500.9256    520.86926      372.961    -1329.171    36341.856 
  906900    295.44564   -1472.1396    517.93315    381.76587   -863.29954    36341.856 
  907000    295.87307   -1489.7457    520.07496    368.23438   -898.94266    36341.856 
  907100    304.81891   -1498.5219    533.77104    413.60636   -424.95496    36341.856 
  907200    297.21628    -1528.074    541.96283    357.86783   -66.669487    36341.856 
  907300    293.98051   -1492.2563     519.7644    356.85529    43.054159    36341.856 
  907400    302.66472   -1506.8246     498.0716    359.86325   -278.58302    36341.856 
  907500    306.86917   -1525.5883    513.76253    375.80256   -403.12604    36341.856 
  907600    301.17834   -1538.3855    499.48386    322.99332    7.7615613    36341.856 
  907700    292.14642   -1567.0249    504.49573    258.52447    -199.8322    36341.856 
  907800    306.43075   -1527.5891    524.57945    382.63616   -156.74777    36341.856 
  907900    298.20789   -1576.7991    495.29843    266.96229   -69.337482    36341.856 
  908000    301.60995   -1584.2867    508.99731    288.55731    53.239941    36341.856 
  908100     293.4771   -1528.5989    500.33779    298.80977    265.55224    36341.856 
  908200    306.92854   -1592.7927    501.22714    296.33112   -122.68118    36341.856 
  908300    305.39369   -1608.8753    522.36258    294.44356     522.7667    36341.856 
  908400    303.31322     -1522.52     514.8102    363.83886    572.32257    36341.856 
  908500    302.21996   -1535.5651      525.932    356.97199    881.28399    36341.856 
  908600     294.7057   -1500.7022    552.63786     384.5621    756.59959    36341.856 
  908700    300.75097    -1525.442    546.81239    381.33284    387.59824    36341.856 
  908800    307.61206   -1543.5966    522.49653    369.88748    303.92815    36341.856 
  908900     304.5983   -1536.8419    520.75249    361.27028    117.51086    36341.856 
  909000    310.51983   -1537.3295    508.60392    375.41058    252.03899    36341.856 
  909100    304.39413   -1516.8653     507.8701    367.44126   -546.21353    36341.856 
  909200    305.66477   -1523.0134    510.80502    369.97371   -275.38287    36341.856 
  909300    308.27673   -1513.0006    526.96029    407.95279    268.56186    36341.856 
  909400    294.18312   -1495.6523    518.61213    353.22316    313.20045    36341.856 
  909500    305.07206   -1529.7682    534.75473    384.48848    105.31476    36341.856 
  909600    296.50595   -1519.2433    535.27936    356.80302    444.92086    36341.856 
  909700    304.95377   -1539.5305    522.21377    361.65025     724.2999    36341.856 
  909800     300.8456    -1551.417    535.60897    344.58233    726.03219    36341.856 
  909900    306.31915   -1556.7719    507.69604    336.06528    919.93864    36341.856 
  910000    296.91138   -1478.6011    550.50405    414.50322    1047.6614    36341.856 
  910100    294.24799   -1530.8956    530.90878    330.56987    61.301402    36341.856 
  910200    314.51508   -1479.6676    531.10835    473.64301    264.76918    36341.856 
  910300    296.75549   -1472.1963    518.40317    388.10217   -349.28973    36341.856 
  910400    292.84956   -1496.7825    493.60277    321.05344   -767.26769    36341.856 
  910500    308.73313   -1492.5879    525.66672    429.13574   -616.18631    36341.856 
  910600    299.99194   -1519.9176    525.81198    362.42463   -430.84961    36341.856 
  910700    303.64737   -1506.9996    533.45917     399.5192   -416.00622    36341.856 
  910800    298.75986   -1535.4923    492.52115    307.98769    -505.8755    36341.856 
  910900    303.10825   -1531.7727    570.56601    409.41511    -831.7197    36341.856 
  911000     301.9146   -1530.9103    509.65114    343.96513   -713.18235    36341.856 
  911100    311.22667   -1510.7621    543.62223    440.19259    -292.7419    36341.856 
  911200    307.66093   -1569.4866     540.1379    361.85989     61.06593    36341.856 
  911300    298.65335   -1568.1672    517.36411    299.67418   -87.174559    36341.856 
  911400     292.8878   -1552.9774    523.10777    294.53641     342.8882    36341.856 
  911500    297.43403   -1584.3928    507.84808    268.41891   -362.67697    36341.856 
  911600    303.07651   -1547.2912    526.98158    350.16867    53.614702    36341.856 
  911700    299.97001   -1554.9843    511.30426    312.75096     270.4513    36341.856 
  911800    301.68209   -1578.1707    535.45899    321.46114    198.76672    36341.856 
  911900    295.73125   -1545.8339    529.26949    320.69948    36.891368    36341.856 
  912000    296.23322   -1573.0475    512.98823    279.47437    -389.6312    36341.856 
  912100    298.14489   -1540.9616     509.2509    316.46737   -449.20405    36341.856 
  912200    289.63951   -1570.1044    515.85835    255.47162   -944.61083    36341.856 
  912300    307.45178   -1587.1143    506.95438    310.10283    -418.4028    36341.856 
  912400    299.93381   -1593.0597     499.3934    262.60106   -165.69992    36341.856 
  912500    290.79366   -1582.7897    530.48359    262.63046   -84.413442    36341.856 
  912600    300.37199    -1590.124    504.14894    272.27372     504.1829    36341.856 
  912700       304.84    -1565.764    532.42134    345.10993    454.26429    36341.856 
  912800    294.07061   -1568.1035    544.94676    306.59788    66.012116    36341.856 
  912900    305.67645    -1521.196    541.04426    402.08321   -352.83705    36341.856 
  913000    289.53328   -1515.8884    500.92252    294.27148   -471.84032    36341.856 
  913100    304.09836   -1537.0153    527.59762    365.68132   -137.53804    36341.856 
  913200    293.58742   -1579.5073    513.71113    261.77351    20.754034    36341.856 
  913300    294.90113   -1545.2992    536.41909    324.63004    -189.0621    36341.856 
  913400    298.40079   -1540.0304    545.88132    355.18612    234.40992    36341.856 
  913500    293.05657   -1568.1433    538.25673     295.2827    33.849789    36341.856 
  913600    292.40901   -1528.8181    521.45953    314.88246   -157.06943    36341.856 
  913700    312.24048   -1554.1113    496.76736    354.57285   -477.97094    36341.856 
  913800    314.11795   -1565.4091    521.22347    376.22084   -655.62894    36341.856 
  913900    300.99605   -1565.2146    513.32258    309.17865   -772.87331    36341.856 
  914000    297.10853   -1553.9497     508.6292    298.17122    48.215597    36341.856 
  914100    297.23287   -1594.6792    513.70339    263.07817    124.69099    36341.856 
  914200    297.72068   -1579.0258    504.79471    272.02876    271.46174    36341.856 
  914300    295.98775   -1576.7716    522.36876    284.02091     343.2586    36341.856 
  914400    296.74922   -1546.1897    529.65818    325.33546   -60.613419    36341.856 
  914500    294.37965   -1575.0937    520.68466    276.74297    975.77998    36341.856 
  914600    305.92273   -1566.4361    531.98907    348.90153     145.0513    36341.856 
  914700    305.27372     -1533.71    498.61473     345.3185   -49.645861    36341.856 
  914800    296.68362   -1541.6317    514.21949    314.15812   -196.00203    36341.856 
  914900    291.20942   -1574.7946    510.98365    253.00562   -684.80636    36341.856 
  915000    296.02284   -1541.5432    481.97333     279.0125   -334.89418    36341.856 
  915100    296.30883   -1549.3809    516.23121    306.72589   -399.00583    36341.856 
  915200    294.04661   -1545.2568    545.54756    329.93683   -135.04056    36341.856 
  915300    296.53144   -1588.1998    506.59236    259.27476    247.39205    36341.856 
  915400    305.27927    -1542.753    479.98982    317.67576   -88.143487    36341.856 
  915500    302.69202   -1578.7655    505.36228    295.33643    305.23795    36341.856 
  915600    301.00239   -1578.2646    500.10861    282.94332    881.22796    36341.856 
  915700    306.76556   -1592.7497      475.472    269.88203    898.29488    36341.856 
  915800    303.67912   -1589.1776    508.88109    292.90669    390.68031    36341.856 
  915900    293.13108   -1593.2046    486.41946    218.72102    302.37441    36341.856 
  916000    301.22431   -1551.6179    522.76997    333.25489   -782.55835    36341.856 
  916100    306.77341   -1551.1326    508.03625    344.09891   -519.30478    36341.856 
  916200    313.39855   -1579.6019    504.67246    342.22398   -410.71796    36341.856 
  916300    307.30351   -1555.4443    495.43809    329.58607   -408.15865    36341.856 
  916400    301.86565   -1542.3389    493.99548    316.65955   -778.54828    36341.856 
  916500     301.4884   -1565.1004    515.05156    313.24817    -286.1386    36341.856 
  916600    300.02855   -1556.2446    507.50642    307.95759   -108.68909    36341.856 
  916700    301.05963   -1535.4325    539.69516    365.62085    118.99448    36341.856 
  916800    299.64508   -1551.6562    484.02092    287.32648   -649.09065    36341.856 
  916900    304.50801   -1548.3913    535.10762    363.66767   -572.34931    36341.856 
  917000    296.36936   -1513.6998    511.16794    337.61739   -51.670808    36341.856 
  917100    296.31388   -1529.5045    518.95986    329.35375    51.211971    36341.856 
  917200     299.4134    -1570.176    511.31736    295.05548   -781.35629    36341.856 
  917300    294.82167   -1543.3771    502.37751    292.15118   -497.51872    36341.856 
  917400    301.25894   -1563.5521    538.02626    336.73356   -355.86615    36341.856 
  917500    314.32781   -1520.5506    527.23033    428.03511    452.18594    36341.856 
  917600    299.99141   -1571.1993    515.23595    300.56444    189.03493    36341.856 
  917700    291.69424   -1533.7889    519.16429    304.38434    234.78081    36341.856 
  917800    304.54123   -1564.7082    527.23313    339.62653    693.24351    36341.856 
  917900    293.77757   -1562.4916    486.14217    252.08007    609.28583    36341.856 
  918000    291.62457    -1555.323    514.57329     277.9442    177.95035    36341.856 
  918100    303.66604   -1504.8498    516.01165    384.30592    501.65979    36341.856 
  918200    307.94374   -1550.5266    509.01435     350.9751    241.54987    36341.856 
  918300    310.11937   -1513.4407     514.7908    403.67544     305.9879    36341.856 
  918400    307.66146   -1544.5787    506.11722    352.74943   -450.06988    36341.856 
  918500    307.55329   -1537.3812    528.31243    381.65304    158.28433    36341.856 
  918600    293.26126   -1505.4293    524.10506    344.77062    35.010807    36341.856 
  918700    296.66197   -1509.8191    504.44385    336.09724   -263.96446    36341.856 
  918800    292.91413   -1503.9341    520.42208    341.01316   -27.464374    36341.856 
  918900    297.54967   -1492.6792    543.37987    396.18726    548.70084    36341.856 
  919000    300.27006    -1472.119    517.20439    402.87329    540.92011    36341.856 
  919100     300.9957    -1466.889    511.90497    406.08504    489.41354    36341.856 
  919200    305.15567   -1497.6087     497.5559    379.82723   -134.13282    36341.856 
  919300    306.32975    -1510.258    489.37792    364.30902   -281.94903    36341.856 
  919400    301.81463   -1490.2949     490.9498    365.42708   -742.17208    36341.856 
  919500    296.91512   -1504.3961    520.34665    358.56768   -477.36213    36341.856 
  919600    299.93208   -1487.2755    499.89397    368.87803   -352.58035    36341.856 
  919700    297.05522   -1487.8419    530.31821    385.72703   -100.22901    36341.856 
  919800    300.27082   -1473.8843    538.02742    421.93445   -258.66606    36341.856 
  919900    292.19403   -1504.7304    491.36037    307.89889   -241.08295    36341.856 
  920000    294.18995   -1518.3884    550.29394    362.19986    199.83358    36341.856 
  920100    290.80084   -1541.1851    487.91499    261.69895    204.81413    36341.856 
  920200    303.93389   -1517.6195    528.71429    385.45008    531.28023    36341.856 
  920300    290.62761   -1557.6007    492.11192    248.69699   -210.27413    36341.856 
  920400    302.33172   -1545.7475    528.90727    350.27016    326.69227    36341.856 
  920500    302.82182    -1497.613      526.873    398.58657    841.78031    36341.856 
  920600     302.4609   -1484.8603    520.68668    403.52097    481.90501    36341.856 
  920700    298.90778   -1542.4276     505.0376    314.23777   -47.786599    36341.856 
  920800    294.44143   -1555.4002    502.64354    278.67479   -255.49896    36341.856 
  920900     298.4054   -1557.9096    531.22853    322.67498   -33.706631    36341.856 
  921000    311.85192   -1503.0819     486.3377    393.41553   -39.461575    36341.856 
  921100    303.02958   -1565.7768    504.73574    309.22501    35.474048    36341.856 
  921200    306.68892   -1558.5852    514.30158    342.52953     106.6253    36341.856 
  921300    296.38873   -1505.5599    517.10671     351.7837    296.04127    36341.856 
  921400    308.62683   -1539.0566    510.83112    367.35077   -114.08008    36341.856 
  921500    300.55251   -1538.2778     505.1056     325.8929   -437.65069    36341.856 
  921600    297.74708   -1519.3542    524.56336    351.58837   -321.64327    36341.856 
  921700    308.83463   -1465.1455    531.71799    463.08833   -349.84388    36341.856 
  921800    303.52574   -1501.3524    535.92666    407.08398    -130.1071    36341.856 
  921900     304.0554   -1582.4533    499.10989    291.56132   -327.37373    36341.856 
  922000      307.539   -1526.2537    513.81104    378.21453    257.90109    36341.856 
  922100     299.9196   -1563.4584    513.22209    305.96676   -366.92746    36341.856 
  922200    292.71361   -1536.0661    515.40895    302.96122   -371.85095    36341.856 
  922300     294.0083   -1527.6344    520.74429     322.5827   -193.64233    36341.856 
  922400    300.21184    -1534.105    523.79988    347.21941   -22.678022    36341.856 
  922500    292.90095   -1550.6733    515.44401    289.23622   -26.419901    36341.856 
  922600    289.14854    -1551.601    508.61452    264.51108   -312.87129    36341.856 
  922700    310.75408    -1546.438    517.90463    376.66203   -300.77833    36341.856 
  922800    296.03922   -1559.5552    495.38415    274.48541   -177.28347    36341.856 
  922900    301.42455    -1584.136    526.68244    305.55478    150.57916    36341.856 
  923000    312.29624    -1541.357    515.24307    386.05497    228.29162    36341.856 
  923100    290.86626   -1581.1034    497.82912    231.99061   -293.15337    36341.856 
  923200    302.96822   -1558.7982    478.47744    289.66786   -782.43662    36341.856 
  923300    285.94978   -1551.6129    510.74488    252.16512   -724.64091    36341.856 
  923400    301.00388     -1549.35    529.77569    341.53181   -96.673521    36341.856 
  923500     296.9365   -1583.5577    500.30217    259.45835    53.666202    36341.856 
  923600    290.46896   -1528.3395    526.63708    311.76595    -498.1271    36341.856 
  923700    300.84783   -1515.4573    529.30827    374.25142   -222.84469    36341.856 
  923800    290.56463   -1526.4761     511.3066    298.73144    -91.99863    36341.856 
  923900    302.34191   -1523.6888    522.10359    365.57125   -302.81242    36341.856 
  924000    298.76352   -1577.7772    526.80036    299.99862     715.8327    36341.856 
  924100     300.4054   -1549.6318    527.63907    336.40707    864.61659    36341.856 
  924200    296.82152    -1535.155    516.12063    323.15958    637.74007    36341.856 
  924300    307.51178   -1517.6328    519.40404    392.30538   -53.728841    36341.856 
  924400    299.37951    -1550.594    528.02695     331.1938    14.645495    36341.856 
  924500    292.18368   -1542.4072    502.54872    281.36367   -176.36622    36341.856 
  924600    302.12817   -1501.8247    531.41742    395.78273   -62.843983    36341.856 
  924700    291.13453   -1510.2302    530.10354    336.35133   -3.1239899    36341.856 
  924800     297.0492   -1568.1323    549.10722    324.19837    251.02938    36341.856 
  924900    295.28856   -1562.4067     499.4496    272.30498    80.681889    36341.856 
  925000    295.78742   -1586.6544    497.42874     248.2922   -4.2315191    36341.856 
  925100     307.8478   -1583.9131    506.89423    315.03461    85.832784    36341.856 
  925200    303.12726   -1596.8837    496.21613    270.04025    338.61707    36341.856 
  925300    297.16341    -1574.934     521.7525    290.55838    173.41043    36341.856 
  925400    302.81702   -1570.6084    531.11345    329.80992    49.759701    36341.856 
  925500    306.55175   -1558.2551     495.4296    323.36748    44.435509    36341.856 
  925600    302.29052   -1562.9832    542.81814    346.75909    199.37387    36341.856 
  925700    289.29162     -1539.35    512.88912    281.68367    495.54361    36341.856 
  925800    309.83216   -1582.0289    495.56559    314.56331    308.38072    36341.856 
  925900    301.97307   -1563.2883    531.21163    333.41201    573.07944    36341.856 
  926000    305.04429   -1591.5853    511.64378    299.43484    226.31913    36341.856 
  926100    296.74504   -1587.8343    525.97143    279.98521    189.11387    36341.856 
  926200    293.64655   -1615.9843    528.54374     240.3965    137.37448    36341.856 
  926300    302.29889   -1597.1177    534.70183    304.54614    299.12608    36341.856 
  926400    308.40815    -1616.753    496.12264    273.95698   -315.47759    36341.856 
  926500    298.14037   -1595.1648    508.20628    261.19911   -259.94522    36341.856 
  926600    307.45339   -1617.9178     489.1742    261.52648   -250.66538    36341.856 
  926700    291.39214   -1612.2052    496.98977    202.42739    -578.9028    36341.856 
  926800    299.20595   -1592.8158    496.88001    257.04023   -611.17439    36341.856 
  926900    301.21838   -1553.1676    506.19867    315.10705   -628.05148    36341.856 
  927000    290.72347   -1542.2701     509.5027     281.8518   -536.31295    36341.856 
  927100    303.88642   -1529.6604    520.01025    364.49045   -454.39158    36341.856 
  927200     295.4834   -1517.6403     524.1508    342.65357    12.722968    36341.856 
  927300    290.34092   -1537.8669    507.90085    282.92332   -6.9900937    36341.856 
  927400    289.39733   -1466.4692    535.72755    377.88093    40.134493    36341.856 
  927500    313.35301   -1470.7042    521.08144    467.32473   -112.97162    36341.856 
  927600    306.05225   -1488.1757    523.89568    419.65427   -308.55644    36341.856 
  927700    304.38005   -1442.9443    525.14152    458.57001   -86.265417    36341.856 
  927800    305.00484   -1471.0492    528.48098    436.62976    -250.9309    36341.856 
  927900     294.1363   -1523.7543    514.02433    320.32172   -184.35793    36341.856 
  928000    309.59505   -1530.8749    528.20259    397.28213   -80.163057    36341.856 
  928100    302.38766   -1554.6791    506.88456    319.56881    374.04437    36341.856 
  928200    291.90557   -1555.7864    508.77831    272.95643    306.22085    36341.856 
  928300    301.14126   -1591.4934    495.60137    265.83528    320.05041    36341.856 
  928400    306.50553   -1581.6369    500.11744    304.46454    436.70179    36341.856 
  928500    296.18236    -1549.428    537.38398    327.25971    564.84901    36341.856 
  928600    307.41025   -1537.6118    517.75199    370.21519    687.68295    36341.856 
  928700    302.67219    -1545.928    501.36807    324.09003    123.81453    36341.856 
  928800    300.16186   -1536.3298    509.41959    330.38832    423.73614    36341.856 
  928900    306.32803    -1463.735    516.61506    438.06138     173.4851    36341.856 
  929000    313.21031   -1511.8926    483.04255    387.45218   -313.40515    36341.856 
  929100    299.03078   -1521.5116    544.69655    375.36888   -236.93837    36341.856 
  929200    292.23668   -1521.9319    515.46442     314.9943   -33.915855    36341.856 
  929300    300.19407   -1532.1245    532.17439    357.49414    -74.27785    36341.856 
  929400    296.68727    -1550.168    498.75318    290.17206   -408.09809    36341.856 
  929500    297.73621     -1514.27    511.31437    343.37442     387.8733    36341.856 
  929600    295.47479   -1550.3537    523.35556    309.10599    288.47195    36341.856 
  929700    298.25296   -1537.2538    528.08567    339.49866    654.92087    36341.856 
  929800    308.40847   -1544.9152    497.21403    346.88766    98.855282    36341.856 
  929900    303.39363   -1547.7241    506.08712    330.27532   -89.325127    36341.856 
  930000    303.17558   -1534.3107    491.12799    327.74352   -468.43223    36341.856 
  930100    296.41665   -1543.7826    492.26476     288.8453   -1166.1175    36341.856 
  930200    309.85551   -1492.4846    512.65634    421.30395   -1032.3694    36341.856 
  930300    303.14985   -1512.9767    505.22168    363.05489   -692.78493    36341.856 
  930400     295.8516   -1538.0159    525.45521    325.24741   -723.36408    36341.856 
  930500    292.46873   -1558.4771    504.77766    268.81162   -517.75849    36341.856 
  930600     305.7734   -1560.4805    491.05302    313.24589    22.194548    36341.856 
  930700    295.05018   -1607.4583    511.02433    237.75014   -218.09603    36341.856 
  930800    301.35584   -1555.0884    492.10754    299.71678   -188.72908    36341.856 
  930900    305.39793   -1563.2498    516.24778    333.97341   -361.90172    36341.856 
  931000    296.89024   -1574.7461    488.11369    255.87229   -130.85475    36341.856 
  931100    293.11821    -1585.861    475.41925    215.00617    162.45206    36341.856 
  931200    302.97382   -1567.5883    496.02578    298.45145    22.078066    36341.856 
  931300    304.18857   -1578.7069    525.88788    322.68784    368.77303    36341.856 
  931400     303.6204   -1551.7283    504.11559    325.32493   -180.23235    36341.856 
  931500    292.28316   -1544.6136    503.09776     280.1561   -79.145518    36341.856 
  931600    295.75565   -1558.2216    522.39312    301.54566   -63.683399    36341.856 
  931700    286.35011   -1535.5631    508.33756    267.61778   -167.50424    36341.856 
  931800    297.91062   -1559.9294    496.03122    283.22053   -245.36451    36341.856 
  931900    300.05217   -1570.1131    502.40499    289.09442   -569.75713    36341.856 
  932000    292.83199   -1551.4031    506.11204    278.86266    -776.2435    36341.856 
  932100    309.36244     -1568.35    508.75692     339.3095    54.704464    36341.856 
  932200    295.46419   -1591.7959    495.09799    239.35831     163.4165    36341.856 
  932300    302.15405   -1568.9789    517.24348    314.57159    139.80187    36341.856 
  932400    299.02301   -1564.1149    497.33293    285.36682    179.01988    36341.856 
  932500    310.30998   -1538.0853    513.62362    378.72556    637.22863    36341.856 
  932600    292.14731   -1516.6821    516.07317    320.44874    280.11074    36341.856 
  932700    290.70203   -1558.3174    538.76882    294.97371    25.799582    36341.856 
  932800    307.63682   -1542.3442    512.69551    361.45084    140.20364    36341.856 
  932900    291.35484   -1567.6914    509.33356    259.11634   -375.64608    36341.856 
  933000    299.70404   -1503.3728    505.84016    357.69576   -376.72076    36341.856 
  933100    300.16343    -1523.237    506.59991    340.66859    -27.25427    36341.856 
  933200    298.89757   -1516.8377    508.98215    343.72606    60.521517    36341.856 
  933300    313.60936   -1513.6538    483.52719    387.98005    352.48464    36341.856 
  933400    297.82025    -1496.919    517.42363    367.21468   -201.20517    36341.856 
  933500    307.08901   -1586.1913    480.60915    283.04022   -503.11623    36341.856 
  933600    298.37523   -1551.1521    483.07226    281.13973   -486.54777    36341.856 
  933700    302.80001   -1562.4673    506.14362     312.9043    230.10833    36341.856 
  933800    302.80752   -1584.2189    495.24525    280.28825   -25.644177    36341.856 
  933900     291.5054   -1603.5267    516.90773    231.53602    111.26053    36341.856 
  934000     298.9296   -1583.0127    493.17792    261.89164   -217.62177    36341.856 
  934100    297.53391   -1526.7065    524.78425    343.49304    6.8953184    36341.856 
  934200    292.29837   -1527.4742    522.46446    316.73103   -302.90716    36341.856 
  934300    302.51797   -1552.9904    515.40371    330.36601     357.0619    36341.856 
  934400    288.57724   -1565.4421    511.46145    250.93354   -435.63749    36341.856 
  934500    298.04232   -1543.4505    514.15943    318.42314   -28.048497    36341.856 
  934600    306.85777   -1527.9503    497.22442     356.8509   -854.10001    36341.856 
  934700    294.84899   -1512.3044    516.01919    336.98911   -254.24826    36341.856 
  934800    296.35866   -1516.0981    474.19393    298.19678    114.85878    36341.856 
  934900    299.28559   -1512.3281    519.62625    360.63433    209.12173    36341.856 
  935000    296.17694    -1538.059    513.88368     315.1039    430.59524    36341.856 
  935100     300.6058     -1536.71    503.95294     326.5489    699.64705    36341.856 
  935200    305.45543   -1501.9699    505.59385    384.85947    101.90646    36341.856 
  935300    299.26195   -1514.0359    506.39525    345.58868   -78.580968    36341.856 
  935400    288.91025   -1524.0076     539.5059    321.91837   -138.93993    36341.856 
  935500    303.98616   -1532.7379    489.32809    331.18179   -93.427334    36341.856 
  935600    289.57348   -1503.6583    502.67653    308.43737    246.01779    36341.856 
  935700    302.27358   -1505.6021    522.08636    383.33176   -88.199704    36341.856 
  935800    293.71251   -1502.4179      521.065    346.78241   -145.63604    36341.856 
  935900    307.82634   -1489.0895    518.56881    421.43581    138.41154    36341.856 
  936000    304.10062   -1525.5669    497.29019    346.83248    95.384093    36341.856 
  936100    291.77329    -1473.521    506.90066    352.74604   -245.72573    36341.856 
  936200     294.3557   -1551.3525    515.69934    295.39056    120.47871    36341.856 
  936300    294.65862   -1536.3967     512.9415    308.95829    220.70986    36341.856 
  936400    292.87231   -1517.2853     517.1397    324.19041   -246.07683    36341.856 
  936500    293.05454   -1552.7988    486.05701    258.41829   -452.53047    36341.856 
  936600    295.05444   -1575.3602    498.71268    257.55581   -379.43274    36341.856 
  936700    293.21563   -1553.9213    503.64259    275.60973   -1117.8472    36341.856 
  936800    298.82259   -1522.9059    496.95943    325.29606   -849.18919    36341.856 
  936900    305.44136   -1528.2316    496.78981    349.73012   -248.60545    36341.856 
  937000    293.28364   -1524.2322    492.61704    294.58088   -629.65386    36341.856 
  937100    297.29275   -1541.4265    488.77166    291.66991   -600.41229    36341.856 
  937200    302.38603   -1523.2621    498.16561    342.25952   -59.091182    36341.856 
  937300    297.69443   -1543.8362    509.02445    311.32939    324.26289    36341.856 
  937400    303.32901   -1512.2366    493.00943    352.39288    338.67625    36341.856 
  937500    300.50852   -1524.9191    500.32859    334.27559   -28.643502    36341.856 
  937600    302.90149   -1531.4027      498.871    337.15515   -3.4164289    36341.856 
  937700    308.26307   -1517.5695    489.11798    365.47976   -362.49224    36341.856 
  937800    297.82706   -1484.9969    484.14631    345.89025   -610.18628    36341.856 
  937900    303.54342   -1463.8508     515.0731    423.81193   -1171.5751    36341.856 
  938000    289.78886   -1494.9276    534.46443    349.92984   -1158.8819    36341.856 
  938100     304.0298   -1534.6039    498.61476    338.79986   -540.15663    36341.856 
  938200    295.28924   -1531.8767    485.29856    288.68701   -219.60529    36341.856 
  938300    294.57413   -1517.5025    512.24308    326.77209   -612.13907    36341.856 
  938400    300.81725   -1568.1343    532.88118    325.00904   -479.48868    36341.856 
  938500     300.4197    -1484.449    505.01129    379.02679    239.56942    36341.856 
  938600     292.1659   -1546.6175    474.42747    248.95167   -576.14795    36341.856 
  938700     295.7101   -1557.6513    486.04693    265.56381   -343.52505    36341.856 
  938800    296.82027   -1523.0441    473.66501     292.8092   -136.00984    36341.856 
  938900    303.93691   -1553.7167     473.1832     293.8354   -68.612836    36341.856 
  939000    305.63181   -1552.8122    487.98839    317.20923   -248.00103    36341.856 
  939100    291.72984   -1575.3874    499.26795    243.05044    83.957246    36341.856 
  939200    306.75421   -1607.7255    520.18115    299.56413    762.78023    36341.856 
  939300    299.61059   -1603.9652    507.90616    258.74674    330.47316    36341.856 
  939400    297.64059     -1560.99    496.75414    281.66183    467.03528    36341.856 
  939500    310.08443   -1554.1518    507.37482     355.3904    882.46597    36341.856 
  939600    294.35195    -1550.344     502.4656    283.14844   -7.2781407    36341.856 
  939700    304.61612    -1556.096    514.30865    335.65291   -375.65085    36341.856 
  939800    290.93382   -1507.0016     465.8396    274.40837    13.577996    36341.856 
  939900    291.72364   -1523.8759    496.41264    291.67862    -254.6804    36341.856 
  940000    297.38091   -1540.1374    504.39162    308.97766   -57.967543    36341.856 
  940100    298.75984   -1549.0911    495.88469     297.7524   -112.22168    36341.856 
  940200    293.18803   -1506.8588    524.75472    343.65965    517.13057    36341.856 
  940300      305.569   -1475.6886    517.78963    423.85006    106.00603    36341.856 
  940400    314.63688   -1533.7302    488.84409    377.86692    1013.3325    36341.856 
  940500    306.28802   -1556.7929    502.99241    331.19989    1031.5231    36341.856 
  940600    302.42493   -1524.2654     528.2942    371.56067     474.1485    36341.856 
  940700    295.76817   -1527.3016    490.74768    300.87692    229.00116    36341.856 
  940800    299.03398   -1516.5686    528.45952    364.08929     41.26423    36341.856 
  940900    300.24928   -1470.5314     497.3412    384.50365   -467.61859    36341.856 
  941000    296.13249   -1523.7618     506.2224    321.53885   -114.70136    36341.856 
  941100    297.34648   -1479.8372    535.74647    400.47702   -485.34136    36341.856 
  941200    302.68807    -1461.514    481.40106    388.60891   -269.00748    36341.856 
  941300     305.8555     -1450.86    542.04024    474.22482    62.681021    36341.856 
  941400    298.52898   -1462.1829    481.34839    369.08042   -1.9015288    36341.856 
  941500    294.27317    -1536.979    492.59022    286.28181   -42.246318    36341.856 
  941600    293.10877   -1553.5935    470.49228    242.30411    437.41653    36341.856 
  941700    296.16604   -1564.4955    483.41073    258.14514    186.12784    36341.856 
  941800    300.59764   -1535.8787    511.01408    334.40455    142.55943    36341.856 
  941900    305.99627   -1528.8908    536.94885    391.73912    352.33187    36341.856 
  942000     295.8183   -1518.4492    475.39992    294.60822    115.68615    36341.856 
  942100    305.42984   -1543.9646    509.06888    346.22406   -123.26416    36341.856 
  942200    301.56664   -1588.0412    468.11215    243.72173   -66.294075    36341.856 
  942300    291.53168   -1575.3587    509.33637    252.25145    247.44776    36341.856 
  942400    302.54103   -1600.5666    495.26297    262.75326    588.88019    36341.856 
  942500    298.72976   -1582.9486    480.97372    248.84791    451.62455    36341.856 
  942600    320.85206   -1571.3968    503.59587    383.05647    219.75343    36341.856 
  942700    295.05234   -1579.3661    490.32864    245.15641    431.49323    36341.856 
  942800    297.10066   -1598.7452    496.27119    240.98214   -36.433544    36341.856 
  942900    294.76745    -1587.465    515.33328    260.77394   -70.230197    36341.856 
  943000    304.37791   -1538.0736    498.96355    337.25299   -426.17937    36341.856 
  943100    301.36557   -1582.6377     481.8033    261.90716    224.11905    36341.856 
  943200     311.7127   -1560.6204    500.50282    349.41266   -263.16087    36341.856 
  943300    306.68292   -1559.4842    516.90347    344.20537    240.33194    36341.856 
  943400    295.09252   -1618.5742    499.79726    215.59867   -92.795704    36341.856 
  943500    292.84161   -1558.9247    495.79691    261.06943   -31.592211    36341.856 
  943600    289.92651   -1541.9289    538.39774    307.48433   -183.45266    36341.856 
  943700     288.5513   -1578.0714    507.28255    234.00808    60.994478    36341.856 
  943800    301.50738   -1594.5668    500.11043     268.9265   -17.266375    36341.856 
  943900    307.35173   -1588.5824    515.09463    316.32262   -34.132407    36341.856 
  944000    299.02419   -1549.2471     508.9393    311.84633   -149.26548    36341.856 
  944100    308.52184   -1543.0577    528.09659    380.14031    387.30008    36341.856 
  944200    298.19997   -1548.0074    485.74115    286.16081    99.676863    36341.856 
  944300    318.10454   -1522.9026    534.73371    450.26448    126.72203    36341.856 
  944400     312.7363   -1525.8675     501.1846    389.47586   -96.357203    36341.856 
  944500    300.29003   -1563.2543    525.19914    319.82302   -471.09508    36341.856 
  944600    298.18909   -1544.4208    504.14927    308.10637   -414.78761    36341.856 
  944700    299.44914   -1539.0604    522.23577    337.25112   -573.32196    36341.856 
  944800    301.52986    -1552.211    489.67063    300.94417   -378.08667    36341.856 
  944900     296.9804   -1579.9141    523.34039    286.33867    241.34267    36341.856 
  945000    306.77045   -1579.7416      498.638    306.07823    664.67866    36341.856 
  945100    295.27246   -1557.4569    519.83392    297.56623    295.18922    36341.856 
  945200    295.27898   -1546.9268    514.68409    302.97597   -325.15637    36341.856 
  945300     292.0928   -1557.6384    508.22055    271.39336   -63.463794    36341.856 
  945400    310.01038   -1553.3249    521.32555    369.83313    269.76418    36341.856 
  945500    295.77795   -1577.1277    498.40279    258.75012   -65.928965    36341.856 
  945600    300.77974   -1570.9939    507.56179    296.66047    322.48245    36341.856 
  945700    289.80756   -1560.9437    501.66736    251.20124   -374.33519    36341.856 
  945800    296.10749   -1541.6292    510.73349    308.06941    110.38972    36341.856 
  945900     307.1879   -1520.3461    515.09785    383.82126    16.271298    36341.856 
  946000    288.98441   -1571.3154    517.03246    252.47248   -182.43342    36341.856 
  946100      301.504   -1547.3193    529.85088    345.89919    11.741515    36341.856 
  946200    296.83775    -1521.432    524.43217    345.26744   -391.29959    36341.856 
  946300    309.28551   -1497.6568    548.14556    449.04341   -146.49656    36341.856 
  946400    303.59786   -1550.2903    499.01765     321.5631   -133.97203    36341.856 
  946500     294.0295   -1481.3485    534.16117     382.3814   -529.38384    36341.856 
  946600     306.7822   -1525.7854    527.63982    389.08944    73.955362    36341.856 
  946700     299.7579   -1555.7386    511.48601    311.21936   -173.65026    36341.856 
  946800    299.63722   -1572.6868    519.06473    301.30418    451.34317    36341.856 
  946900     301.5723   -1588.9574    522.99562    297.71469   -356.85132    36341.856 
  947000    302.72687   -1569.3098    501.23032    300.81778    -291.2049    36341.856 
  947100    294.13741   -1565.7896    510.45165    274.71872   -364.80587    36341.856 
  947200    296.92457   -1587.1551    505.41414    260.91897   -605.63491    36341.856 
  947300    305.32023   -1580.2412    507.30759     307.6905   -14.564953    36341.856 
  947400       290.13   -1563.5223    539.55069    287.96398    377.00929    36341.856 
  947500    295.57329   -1573.0677    498.99008    262.47198    179.75225    36341.856 
  947600    302.52586   -1562.6706    536.01031    341.32806    243.23737    36341.856 
  947700    312.02797   -1560.4368    512.76552    363.28447    420.12478    36341.856 
  947800    297.71449   -1532.5305    523.42456     337.1259   -7.8418777    36341.856 
  947900    303.50512   -1537.0409    518.34177    353.71728    391.38343    36341.856 
  948000    299.93179    -1511.517    534.20307    378.94427    209.84558    36341.856 
  948100     310.7171   -1518.5168    540.39025    426.90166    287.30806    36341.856 
  948200    302.78363   -1510.4138    517.58146    376.32161   -567.51289    36341.856 
  948300    295.22693   -1510.3712    501.13866    325.75087   -59.402216    36341.856 
  948400    304.45468   -1557.4014    505.89479    325.20361   -796.48265    36341.856 
  948500    297.29752   -1505.6413    506.45698    345.16208   -667.78338    36341.856 
  948600    296.32791   -1553.4029    480.00266     266.5616   -494.68081    36341.856 
  948700    303.80169   -1545.6191     518.4045    346.54287    -248.9715    36341.856 
  948800    301.45211   -1530.7442    505.48759    337.87631    14.848721    36341.856 
  948900    297.94103   -1524.5062    515.28454    338.03453    260.94941    36341.856 
  949000    299.83092   -1534.1416    525.76474    347.42525   -4.4136604    36341.856 
  949100    293.60392   -1522.8145    505.49586     310.3256   -382.50686    36341.856 
  949200    303.82501   -1543.2071    515.39879    346.05461   -649.90314    36341.856 
  949300    299.05827   -1574.8882    504.84254    282.26262    406.93756    36341.856 
  949400     296.7696   -1545.6731    500.24099    296.52705    92.700044    36341.856 
  949500    304.68044   -1533.8436    539.15376    383.04126    713.66374    36341.856 
  949600    308.80038   -1510.0115    506.96923    393.31871    1192.3975    36341.856 
  949700    299.62065    -1586.085    507.03779    275.80404    383.04786    36341.856 
  949800    292.98207   -1545.3678     497.2015    276.66605    33.196002    36341.856 
  949900    296.64551    -1567.327    505.21633    279.28733   -149.98424    36341.856 
  950000    304.54869   -1510.2389    506.25513    373.15158    72.737946    36341.856 
  950100    293.67716   -1546.5377    507.35499    288.79276    75.269336    36341.856 
  950200     299.0103   -1550.1066    512.91222    314.89693    206.38048    36341.856 
  950300    301.51497   -1565.0611    478.87303    277.22915    -826.9119    36341.856 
  950400    302.57271   -1564.7812    503.92548    307.34443   -102.16771    36341.856 
  950500    306.14925   -1583.4561     506.3583    307.27505   -618.84199    36341.856 
  950600    304.99009   -1621.5555    480.90167    238.47748    124.38153    36341.856 
  950700    300.21588   -1602.0891    501.41341    256.86714     466.1024    36341.856 
  950800    310.85361    -1532.775    527.62512    400.49558     -277.563    36341.856 
  950900    293.27569   -1523.2966    524.23361    327.09712    -316.0598    36341.856 
  951000    297.30002   -1527.0313    505.43449    322.76089   -586.39068    36341.856 
  951100    296.55868   -1534.1147    507.77923    314.66994   -713.28444    36341.856 
  951200     294.3218   -1524.7172    497.90702    304.08026   -292.29163    36341.856 
  951300    300.42545   -1552.7197    512.31441    318.08525   -22.702557    36341.856 
  951400    300.16855   -1558.5161    483.77384    282.58651   -1128.2892    36341.856 
  951500    291.41133   -1518.1842    518.38384    317.92926   -905.86509    36341.856 
  951600    283.15134   -1530.0948    504.72126    255.00538   -793.26252    36341.856 
  951700    302.05616   -1509.7109    480.26612    336.41963   -383.45658    36341.856 
  951800     295.9148   -1522.4246    506.95341    322.62264    236.41539    36341.856 
  951900    304.78245   -1528.6907    504.06969    353.57132    30.693988    36341.856 
  952000     293.5434   -1511.0431    471.62246    287.95003   -131.34853    36341.856 
  952100    298.73283   -1464.5022    544.01093    430.34545    4.4932617    36341.856 
  952200    302.99863   -1530.7971    512.58374    351.91273    27.538269    36341.856 
  952300    303.02662   -1538.9333    511.12376     342.4432    363.16659    36341.856 
  952400    297.15758   -1563.8743    508.02192    287.86116    801.09061    36341.856 
  952500    312.22579    -1511.429    531.05472    431.47604    906.26344    36341.856 
  952600    306.95133    -1517.359    529.77854     400.4194   -359.81928    36341.856 
  952700    285.66048   -1533.9669    488.14163    245.89965    -128.1357    36341.856 
  952800    294.78006   -1551.7227    490.98819    272.22811    124.83195    36341.856 
  952900    299.66023   -1551.7473    502.92942    306.21239    104.14369    36341.856 
  953000    299.72326   -1558.9682    506.24686    302.59395   -8.0214164    36341.856 
  953100    287.32948   -1569.7693    506.65487    236.15757    134.70944    36341.856 
  953200    294.84167   -1554.6868    525.69933     304.2538    406.60187    36341.856 
  953300    297.99896   -1540.6228    500.00567    306.90106    180.74121    36341.856 
  953400    295.31851   -1580.8739    477.07886    231.60246    161.64693    36341.856 
  953500    305.48881   -1544.2967    510.13332    347.22308    265.06058    36341.856 
  953600    300.62824   -1554.6084    493.70032    298.49943   -106.69948    36341.856 
  953700    307.83258    -1569.625    480.93178    303.29148   -30.492402    36341.856 
  953800    303.40401   -1567.0612     478.4379    283.33591   -146.86045    36341.856 
  953900    302.14403   -1585.5122    518.67686    299.42641   -315.39478    36341.856 
  954000    306.56909   -1562.0835    510.50679     334.6947    130.93356    36341.856 
  954100    295.27598   -1529.8635    523.35934    328.70097    158.47222    36341.856 
  954200     314.8072   -1550.8403     517.4083    390.09115   -129.99696    36341.856 
  954300    296.03736    -1536.811    486.60203    288.43903   -250.07612    36341.856 
  954400    301.00444   -1554.5721     507.5375    314.07401   -73.706862    36341.856 
  954500    283.87012   -1548.0247    518.53083    254.13531    202.89966    36341.856 
  954600     302.8408   -1502.7803     532.6815    399.31357    213.14033    36341.856 
  954700    307.95002   -1542.1464     534.8425    385.21185    100.75699    36341.856 
  954800    295.72667   -1537.9481    506.64311    305.93814    37.609009    36341.856 
  954900    292.14009   -1513.0376    514.75736    322.74478   -57.455987    36341.856 
  955000    297.53651   -1521.4212    537.61743    361.62327   -116.06244    36341.856 
  955100     300.8838   -1510.3836    524.03718    374.21674   -402.65221    36341.856 
  955200    299.73354   -1491.9071    539.74033      403.195   -491.27398    36341.856 
  955300    298.45202   -1491.1272    471.79168     330.2314   -840.49541    36341.856 
  955400     286.2585   -1476.0002    518.00797    336.43689   -37.940546    36341.856 
  955500    299.47229   -1533.4045    521.41687    342.19279   -127.12566    36341.856 
  955600    305.70106   -1515.0233    514.37517    381.69809     36.89288    36341.856 
  955700    299.14795    -1522.246    492.25896    322.72669    338.65723    36341.856 
  955800    296.00031   -1541.6844    508.81797     305.6141    441.21496    36341.856 
  955900    296.16463   -1578.9709    509.81466    270.06731    716.08108    36341.856 
  956000     299.4475   -1592.9786    513.04862    274.13837    994.21322    36341.856 
  956100    309.27834   -1589.0364    500.82058    310.30647    1280.3745    36341.856 
  956200    290.93224    -1551.296    534.90789    299.17511     787.4951    36341.856 
  956300     301.1663   -1586.8368    502.14666    277.15043    470.03282    36341.856 
  956400    300.11984   -1558.4657    498.28673    296.92957    491.27941    36341.856 
  956500    305.90469   -1547.5573     509.9169    345.62664   -524.11801    36341.856 
  956600    293.75971   -1593.2969    496.68002    231.73192   -316.47463    36341.856 
  956700    307.63031   -1537.2381     506.1591    359.99108   -91.733203    36341.856 
  956800    294.13431   -1521.2167    507.86386    316.68983   -832.27176    36341.856 
  956900    296.46858   -1528.9898    520.26373     331.8719   -215.84733    36341.856 
  957000    306.85994   -1536.7295    508.72541    359.58247   -611.95933    36341.856 
  957100    291.53052   -1515.2777     531.4442    334.43508   -285.59386    36341.856 
  957200    304.70219   -1540.7958    524.55401    361.58768    178.04037    36341.856 
  957300     307.2781    -1493.187    497.11832    393.40874   -2.5988836    36341.856 
  957400    308.85417   -1519.6786    498.33503    375.26065    191.46165    36341.856 
  957500    299.82506   -1515.0996    496.81806    337.49401    214.69103    36341.856 
  957600    294.89738   -1531.9426    511.63355     313.1841    366.78037    36341.856 
  957700    294.59822   -1518.8509    500.81863    314.10817    766.84087    36341.856 
  957800    304.35243   -1583.1086    503.41122    296.55041    878.49081    36341.856 
  957900    291.83412   -1528.4684    490.16038    281.33348    324.15205    36341.856 
  958000    306.05235   -1524.7205    518.63307    377.84725    995.20054    36341.856 
  958100    300.50744   -1519.7017     507.5041     346.6637    57.344469    36341.856 
  958200    306.91295   -1519.1846    529.76227    398.40389    235.90858    36341.856 
  958300    304.61318   -1512.0327    501.16533    366.55957    71.905148    36341.856 
  958400    305.51269   -1564.1412    500.38076    317.73399    -154.2289    36341.856 
  958500    309.77524   -1572.3835    484.68593    313.07161   -281.94581    36341.856 
  958600    303.23892   -1546.1142    511.54983    336.64835   -14.713892    36341.856 
  958700    296.39832    -1522.292    520.71912    338.70738    33.907391    36341.856 
  958800    300.23928     -1486.84    510.96304     381.7717   -510.06451    36341.856 
  958900     300.0523   -1482.5944    517.17669    391.38539    39.721126    36341.856 
  959000    299.62618   -1474.8268    513.32279    393.37228    502.66451    36341.856 
  959100    310.34154   -1539.8655    536.62394    400.08842    616.02275    36341.856 
  959200    309.22489   -1552.1113    510.56572    356.73493    994.18035    36341.856 
  959300    301.46343   -1542.5311     521.4044    342.05742    1441.4545    36341.856 
  959400    294.12808   -1563.2656    491.77712    258.52602    318.62298    36341.856 
  959500    307.27369   -1550.8593    494.07426    332.67247    127.42939    36341.856 
  959600    293.01627   -1528.2028    513.95613    310.74034   -284.16622    36341.856 
  959700    298.29547   -1512.7726    496.81129    332.89768   -376.69058    36341.856 
  959800     303.1008   -1506.9605    532.43032    396.05796   -197.84275    36341.856 
  959900    300.55252    -1514.634    475.81421    320.24535    123.92636    36341.856 
  960000    298.87534   -1556.2545    494.87977    290.10637    277.69169    36341.856 
  960100    291.48059    -1545.107     508.9383    281.87408    687.92662    36341.856 
  960200    299.29851   -1568.2637    519.88259    305.01347    840.13808    36341.856 
  960300    306.64226   -1561.9583    500.99369    325.63756    647.81668    36341.856 
  960400    302.51824   -1601.7115     505.4851    271.72743    383.96088    36341.856 
  960500    306.14201   -1601.8833    512.73771    295.19453    3.8160428    36341.856 
  960600    293.59788   -1582.2285    496.55134     241.9398     184.3043    36341.856 
  960700    311.23752   -1538.3573    503.27335    372.29748    -231.6485    36341.856 
  960800    311.37541   -1571.7405    519.93526    356.19976    24.406485    36341.856 
  960900    304.18209   -1572.9332    487.51666    290.06106   -112.64547    36341.856 
  961000    289.15255    -1595.953    509.72765    221.29028   -558.28989    36341.856 
  961100    294.51098   -1596.4481    489.60729    224.90514   -52.294375    36341.856 
  961200    296.86083   -1550.7059    497.25163    288.91742    177.63861    36341.856 
  961300    290.57457   -1621.5396    491.20258    183.60887    241.55594    36341.856 
  961400    309.37142   -1598.7004    504.63589    304.87867    1061.7826    36341.856 
  961500    286.49738   -1577.8613     480.2208    197.86878    487.98837    36341.856 
  961600     302.2378   -1549.0882    510.54895    328.14648     868.0216    36341.856 
  961700    298.98013   -1517.1663    524.32006    359.10864    199.12558    36341.856 
  961800    302.63359   -1552.3616    478.24345    294.35724    609.41545    36341.856 
  961900    302.31371   -1566.5718    514.38416     314.8414    268.19767    36341.856 
  962000     305.2274   -1566.0541    491.29937    305.44964     413.4218    36341.856 
  962100    307.59354   -1519.1982    512.65963    384.36525   -41.144645    36341.856 
  962200     294.9728   -1495.2128    489.62079     328.2422    393.14009    36341.856 
  962300    291.93991   -1541.3651    498.64868    277.40346   -605.22247    36341.856 
  962400    298.74702   -1514.2853    506.44904    343.06451   -127.10996    36341.856 
  962500     299.4058   -1514.1496    499.17247    338.90261   -130.00572    36341.856 
  962600    298.00055    -1547.001    538.70626     339.2306    -532.3212    36341.856 
  962700    296.30316   -1512.7245    535.01676    362.14226    249.42519    36341.856 
  962800    301.76778   -1528.8501    461.12306    296.83331    330.29892    36341.856 
  962900    298.14602   -1488.5898    504.74661    364.33999    314.35652    36341.856 
  963000    302.27941    -1508.962    505.43985    363.35173   -95.350336    36341.856 
  963100    295.70145   -1496.3959    484.49607    325.22927   -213.45478    36341.856 
  963200    299.58201   -1493.3686    501.96874    363.27671   -497.72253    36341.856 
  963300    297.90535   -1491.3671    510.60601    366.33377    -425.3547    36341.856 
  963400    289.28515   -1514.8398    486.80332    280.07876   -569.80312    36341.856 
  963500    302.08688   -1537.3049    519.89691    348.59534   -484.08377    36341.856 
  963600    302.95812   -1551.3613    492.28291    310.86456   -4.4464618    36341.856 
  963700    297.46205   -1508.8667     518.4824    354.70605   -186.86551    36341.856 
  963800    296.13164   -1499.7919    490.77072    330.05318   -523.29388    36341.856 
  963900    303.37996   -1504.7911    538.55283    405.61212   -488.73174    36341.856 
  964000    304.26432    -1536.094    508.01706    347.77244   -459.55004    36341.856 
  964100    296.50533   -1494.3126     520.0587    366.51022   -301.96662    36341.856 
  964200    293.98875   -1499.9403    493.43236    322.87652   -422.31044    36341.856 
  964300    305.98008   -1528.6734    497.90393    352.83841   -801.17352    36341.856 
  964400    302.44266    -1514.284    519.81988    373.14797   -832.92233    36341.856 
  964500    299.99352   -1538.1881    515.64821     333.9975   -385.55276    36341.856 
  964600    300.23784   -1504.2577    502.53498    355.91942   -527.22365    36341.856 
  964700    291.04579    -1473.163    530.33943    373.25317   -594.20281    36341.856 
  964800    306.26945   -1499.0292    492.53388    378.42106   -110.32331    36341.856 
  964900    298.82656   -1543.8265    492.94745    300.38144   -817.43586    36341.856 
  965000    292.18569   -1561.2277    506.93351    266.93704   -120.73629    36341.856 
  965100    292.44742   -1540.8001     492.0505    273.66515   -589.68295    36341.856 
  965200    295.48688   -1543.0514    480.22443    273.33181   -527.13332    36341.856 
  965300    297.59499   -1582.1373      511.944    275.49814   -458.71013    36341.856 
  965400    292.04134   -1559.2242    516.70132    278.05561    23.368351    36341.856 
  965500     299.5633   -1561.5323    535.61395    328.67363    335.95854    36341.856 
  965600     302.0858   -1575.9091    500.95404    291.04336   -55.542038    36341.856 
  965700    289.59369   -1600.4777    519.47442    228.50723    33.870906    36341.856 
  965800    304.41686   -1556.3239     497.1321    317.34737    267.66312    36341.856 
  965900    294.37691   -1540.0384    507.39461    298.49582   -211.22252    36341.856 
  966000    303.17771   -1512.5243    517.06177     375.4734      286.427    36341.856 
  966100    304.64199   -1549.5392     513.4225    341.44056    81.931126    36341.856 
  966200    291.01666    -1578.746     513.4979    250.69687   -200.57243    36341.856 
  966300     299.3455   -1548.9459     487.5858    292.24696   -109.38441    36341.856 
  966400    304.84667    -1541.754    492.94271    329.67151    45.827743    36341.856 
  966500     300.6693   -1555.9392    532.84435    336.49826    242.39518    36341.856 
  966600    296.99132   -1545.6262     487.4974    284.83292    133.81017    36341.856 
  966700    296.98717    -1553.908    528.19914    317.23409    378.39859    36341.856 
  966800    302.74831   -1526.9295    501.69513    343.75988    31.797671    36341.856 
  966900    294.88016   -1575.4297    515.51357    273.49921   -89.529969    36341.856 
  967000    303.09311   -1535.8954    502.55911    337.21705    607.14028    36341.856 
  967100    298.08973   -1494.1707    510.58277    364.34071    640.66926    36341.856 
  967200    293.28534   -1547.9205    475.32812     253.6113    634.76806    36341.856 
  967300    295.76392   -1556.8824    522.86468    303.39383    1028.5534    36341.856 
  967400    295.08852   -1553.9551    510.68512    291.08752    134.82078    36341.856 
  967500    305.56324   -1514.0875    502.38619    370.02166    374.01949    36341.856 
  967600    307.16158   -1530.7285    524.61559    382.83765    370.59044    36341.856 
  967700     294.5138   -1544.4086    509.19905     296.5491    209.79663    36341.856 
  967800    296.69241   -1564.5295    489.04273    266.12335    100.72723    36341.856 
  967900     305.8725   -1584.2364    505.31479    304.19987    540.95395    36341.856 
  968000    293.87443   -1582.4754    515.62257    262.01475   -322.14241    36341.856 
  968100    306.39146   -1573.7427    537.39519    349.12061    62.577722    36341.856 
  968200    304.82467   -1556.0148    486.21194    308.58046    73.629382    36341.856 
  968300    304.13667   -1570.0851    493.75803    298.94516    -385.8644    36341.856 
  968400    290.85952   -1546.0925    511.43159    280.57354   -62.989064    36341.856 
  968500    306.87584   -1524.4876    479.28184    342.45267    3.9070578    36341.856 
  968600    303.03138    -1538.692    494.43466    326.01686   -158.49438    36341.856 
  968700    301.30841    -1546.109    493.23823    309.61237   -36.278075    36341.856 
  968800    303.81058   -1510.1655    506.14012     369.7723   -329.05198    36341.856 
  968900    295.58984   -1498.8071     510.9706    348.78793   -314.56038    36341.856 
  969000    308.08767   -1523.9024    505.38268    374.61846    121.26951    36341.856 
  969100    299.67747   -1491.4855    521.14436    384.76707    128.02386    36341.856 
  969200    300.13287   -1500.3993    517.12486    373.89299    232.18144    36341.856 
  969300    299.47775   -1470.9786    526.27659    409.50311    300.41824    36341.856 
  969400    300.60117   -1497.4395    535.60563    397.45121    210.82203    36341.856 
  969500    293.14158   -1493.7544     516.7428    348.54209   -7.7641241    36341.856 
  969600    305.25298   -1484.0444    523.85496    420.13066   -173.78254    36341.856 
  969700    294.92644   -1475.4277    537.07551    395.27241   -17.090752    36341.856 
  969800    293.88623    -1499.665    522.83705    352.09295    117.82665    36341.856 
  969900    301.30927   -1468.4821     522.2929     416.2978    60.442042    36341.856 
  970000    300.26086   -1504.9446    538.41168    391.21336    593.12791    36341.856 
  970100    307.29865   -1521.0075    509.99497    378.55779    184.52955    36341.856 
  970200    286.97062   -1536.1663     513.0806    274.56356    61.592569    36341.856 
  970300    302.63302   -1523.7597    516.25592    360.96912    457.94778    36341.856 
  970400    298.32679   -1513.6996    513.34025    348.64121     408.0609    36341.856 
  970500     293.8099   -1501.9697    530.09943    356.70544    546.99374    36341.856 
  970600    307.70825   -1494.2974    501.22912    398.35421    155.44818    36341.856 
  970700    302.42213   -1511.7879    531.39498    387.12634   -86.867218    36341.856 
  970800    291.77504   -1539.5872    505.99372    285.78085   -101.23759    36341.856 
  970900    296.28592   -1538.3962    538.43076     339.8066     55.04154    36341.856 
  971000    299.68533   -1502.9631     535.5755    387.75615    -542.7792    36341.856 
  971100    307.19683   -1532.2456     513.7675    370.63178   -816.12116    36341.856 
  971200    294.56677    -1562.524     512.0913     281.5655    298.30463    36341.856 
  971300    307.97401    -1558.605    498.53718    332.55635    150.46365    36341.856 
  971400    304.88055   -1534.5793    486.92325    330.97991     347.0874    36341.856 
  971500    298.56699   -1545.9338    486.67274    290.82564     324.2403    36341.856 
  971600    301.48322    -1552.544    518.07907    328.80871    641.09664    36341.856 
  971700    305.99029   -1557.6885    499.14141    325.10701    232.56461    36341.856 
  971800    302.06177   -1523.9008    530.20102    372.18997   -173.94003    36341.856 
  971900    309.83922   -1521.4255    542.16368    421.79673    363.75106    36341.856 
  972000    302.70829   -1481.1651    505.41382    393.06193    125.33588    36341.856 
  972100    303.59516   -1485.7697    522.34203    409.39586   -25.405055    36341.856 
  972200    300.72764   -1486.3708    516.26627     389.7524   -362.30249    36341.856 
  972300    297.97588   -1546.6871    521.22783    321.95456    -490.2089    36341.856 
  972400    300.12466   -1571.5155    502.71097    288.32581   -265.96824    36341.856 
  972500    293.53332    -1535.174    497.18969    289.34077   -535.79286    36341.856 
  972600    300.68482   -1532.3154    500.54929     327.8972   -577.36252    36341.856 
  972700    288.36741    -1523.008    518.05504    299.01243    41.454821    36341.856 
  972800    313.11756   -1490.0049    501.85095    427.72883    417.92297    36341.856 
  972900    296.38781   -1464.9628    508.37635    383.64625    -76.55108    36341.856 
  973000    307.90681   -1466.2597    524.84757    450.90826   -22.583013    36341.856 
  973100    295.16077   -1502.2273    498.02363    330.48051   -511.92051    36341.856 
  973200    295.58862   -1521.5858    494.75911    309.79217    215.42612    36341.856 
  973300     298.3341   -1521.2841    512.88584    340.63537    98.413636    36341.856 
  973400    289.55412   -1527.3055    495.69628    277.72235     714.1972    36341.856 
  973500    303.60199   -1510.0289    524.32488     387.1504     822.7077    36341.856 
  973600    301.52038     -1484.33    501.13274    380.24436    79.438487    36341.856 
  973700    294.02083   -1444.7568    534.89494    419.66767   -20.922989    36341.856 
  973800    289.70243   -1506.6435    511.39281    314.75145   -235.58779    36341.856 
  973900    299.54005   -1486.2888    497.70462    365.90269    673.20023    36341.856 
  974000    300.95107   -1511.5962    533.21245    382.48354    84.035854    36341.856 
  974100    297.26495   -1492.4258    500.36549    352.13879    338.88034    36341.856 
  974200    293.37387   -1488.9344    502.13071     339.8004    478.63901    36341.856 
  974300    295.32691   -1517.3283    526.13543    344.24261     202.4589    36341.856 
  974400    291.77536   -1554.4332     496.4297    261.37229    901.54668    36341.856 
  974500    307.08628   -1530.1978    510.05154     368.4638    361.06222    36341.856 
  974600    303.05513   -1554.8792    543.96462    359.46704    220.16759    36341.856 
  974700     299.1152   -1514.8206    531.17923     368.9243    405.70504    36341.856 
  974800    305.48345   -1545.8242    495.14043    330.67845    371.67793    36341.856 
  974900    301.50399   -1558.9977    497.16148    301.53129    276.62008    36341.856 
  975000    301.30519   -1614.8876    501.42564     249.0066   -589.20651    36341.856 
  975100    296.73998   -1564.1756    477.66226    255.31186   -449.38175    36341.856 
  975200    297.28616   -1558.0777     494.9432    281.16051   -144.82425    36341.856 
  975300    302.06079   -1526.3616    499.79454    339.31824    165.79824    36341.856 
  975400    296.73958   -1514.7431    498.15609    325.23637   -100.96614    36341.856 
  975500    287.94431   -1502.2031    501.36186    301.21096   -192.47943    36341.856 
  975600    300.54905   -1512.6685    503.85257    350.23352   -68.775319    36341.856 
  975700    291.99708   -1520.9876    500.02889     299.4196    -764.9965    36341.856 
  975800    312.09031   -1513.5719    498.52667     396.1925   -1171.9628    36341.856 
  975900    305.83466   -1524.0142    505.18528    364.12143   -1107.2308    36341.856 
  976000    305.57777   -1496.2555    496.75662    382.28986   -792.37745    36341.856 
  976100    314.68789   -1519.0158    481.11859    385.08642   -662.67572    36341.856 
  976200    293.80349   -1475.5499    488.96959    341.96644    21.685204    36341.856 
  976300    307.68568   -1515.9485    517.91429    393.28622    40.212638    36341.856 
  976400     308.1309   -1520.1618    511.15679    384.32865   -83.966471    36341.856 
  976500    298.66462   -1487.3583     467.1376    330.30754    -373.8395    36341.856 
  976600    303.24178   -1497.5039    516.53949     390.2612   -281.31564    36341.856 
  976700    307.08299   -1519.6867    508.52036    377.42875    287.80562    36341.856 
  976800    298.05707   -1542.3845    497.47959    302.87608   -53.861733    36341.856 
  976900     302.9444   -1540.1295    517.04542    346.79678    531.90878    36341.856 
  977000    295.08107   -1551.7471    524.69351    307.27021    602.81145    36341.856 
  977100    292.84119   -1482.9384    504.09211    345.34897    665.86866    36341.856 
  977200    286.91269   -1530.6104    504.87367    271.65056    738.35635    36341.856 
  977300    305.04762   -1544.5044    522.05237    356.93936    1002.5529    36341.856 
  977400    302.46119   -1522.6648     534.0278    379.05887    348.68553    36341.856 
  977500      296.289   -1552.9111    488.90412    275.77892     910.5853    36341.856 
  977600    301.37514   -1557.2673    527.43085    332.94841    463.03666    36341.856 
  977700     298.2055   -1552.5561     506.1069    302.00297    129.62783    36341.856 
  977800    300.09264   -1525.5877      507.112    338.50983    358.95343    36341.856 
  977900    294.11727   -1547.8936     524.8017    306.87363    321.35619    36341.856 
  978000    308.37908   -1540.3802    489.32204    343.39777   -247.53421    36341.856 
  978100    297.07719   -1544.8324    513.59052     312.1082    -220.2761    36341.856 
  978200    290.50385    -1557.501    500.82406    256.94918   -96.446516    36341.856 
  978300    295.82952     -1571.67    497.59503    263.63322    377.73719    36341.856 
  978400    307.46339   -1523.7724    493.92789    360.47075    468.27148    36341.856 
  978500    299.04306   -1519.0412    490.36303    323.56134    293.92046    36341.856 
  978600     296.7834   -1533.1272    495.52988     304.4242    544.25257    36341.856 
  978700    310.61615   -1497.6944    512.08178    418.95909    426.54766    36341.856 
  978800    301.69382   -1525.7351    492.04774    330.53854   -178.09465    36341.856 
  978900    296.65776   -1515.8041    510.38138    336.03071   -82.352248    36341.856 
  979000     296.2456   -1517.3018    511.50792    333.79572   -348.76385    36341.856 
  979100    275.49209    -1518.612    505.41679    232.54941    -149.2712    36341.856 
  979200    306.72914   -1507.9993    524.81493    403.81071   -746.94194    36341.856 
  979300    309.68344   -1508.9927    511.61937    402.98072   -581.40094    36341.856 
  979400    291.97829   -1500.9561    502.76171    322.09897   -716.69453    36341.856 
  979500    298.31464   -1520.2204       508.25    336.97527   -530.05212    36341.856 
  979600    301.72261   -1487.3979    543.76091    420.71908    315.06305    36341.856 
  979700    299.96391   -1517.6424     480.9803     319.7414    68.249397    36341.856 
  979800    307.34377   -1516.8745    509.81082    382.71062    115.88798    36341.856 
  979900    295.72384   -1478.3382    482.27726    341.16942   -187.83033    36341.856 
  980000    301.21716    -1497.494    517.12913    381.70564    286.09067    36341.856 
  980100    306.50368   -1486.6738    497.50897    396.81075     271.7811    36341.856 
  980200    297.32591   -1504.1505    497.86816    338.19236    97.721878    36341.856 
  980300     310.1199   -1540.5866    511.85082    373.59197     536.3672    36341.856 
  980400    295.91698    -1514.946    503.00098    326.15868    1091.0144    36341.856 
  980500     306.7107   -1535.2257     525.7953    377.48129    957.35481    36341.856 
  980600    293.77693   -1562.8707    513.44586    279.00178    1197.4904    36341.856 
  980700    301.12479   -1560.3762    485.92099    287.19762    770.56112    36341.856 
  980800    298.34238    -1532.852    517.46615    333.68527   -312.99452    36341.856 
  980900    296.98744   -1498.4927    460.82651    305.27802   -335.92803    36341.856 
  981000    302.18522   -1486.9344    526.53523    406.04883   -380.45402    36341.856 
  981100     298.4674   -1533.4227    514.42935     330.6431   -651.00936    36341.856 
  981200    299.25241   -1492.5461    495.92311    356.56314   -48.911857    36341.856 
  981300    296.27126    -1480.048    529.33024     388.9879    108.63857    36341.856 
  981400    296.39116   -1458.4148    497.57768     379.4108   -584.11697    36341.856 
  981500    296.59733   -1469.0735    509.28611    381.39276    157.99047    36341.856 
  981600    304.49312   -1498.4599    497.10719    375.53137    27.787851    36341.856 
  981700    309.63431   -1508.3139    529.32678    421.14483     682.3671    36341.856 
  981800    291.02341   -1485.7917    493.85876    324.04259    502.92412    36341.856 
  981900    293.17604   -1524.9339    504.46283    305.23835    220.85523    36341.856 
  982000    311.20167   -1530.9735     496.2523     372.4982    1229.9505    36341.856 
  982100    307.67641   -1531.8376    525.32782    384.76871    419.04974    36341.856 
  982200    304.01498   -1522.6605    500.10025    352.16168    598.03419    36341.856 
  982300    301.04667   -1500.8659    480.02755    340.46127    405.13884    36341.856 
  982400    292.91684   -1480.5712    496.73304    340.69921   -162.16998    36341.856 
  982500    292.16068   -1494.3457    495.21844    321.99081   -163.58956    36341.856 
  982600      302.147   -1498.0969    517.62445    385.80265    74.264505    36341.856 
  982700    298.54958   -1506.0859    504.64947    348.57153    272.82654    36341.856 
  982800    298.89631   -1463.6978    517.71151     405.5896   -521.25898    36341.856 
  982900    295.14224   -1484.3082      510.861    361.15322   -31.546659    36341.856 
  983000    293.69646   -1468.0656    545.57177    405.56889    -508.0994    36341.856 
  983100    308.26171   -1492.4699    489.46028    390.91563   -894.57468    36341.856 
  983200    298.20099   -1487.9096    528.98432    389.50646    236.46807    36341.856 
  983300    294.39684   -1504.0398    518.01477    345.20475    9.7666451    36341.856 
  983400    303.07771   -1466.4428    529.24625    433.28716    861.23256    36341.856 
  983500    301.38434   -1506.2732    529.57202    386.12531     953.2486    36341.856 
  983600    306.69769   -1527.8235    498.44245    357.47183    877.95871    36341.856 
  983700    305.20415    -1550.976    457.82942    286.95262    420.62974    36341.856 
  983800    300.65812   -1508.8104    500.85942    351.59166    110.00716    36341.856 
  983900    306.18656   -1491.7915    479.94223    372.69238   -486.69664    36341.856 
  984000    301.40975   -1479.2045    503.53608    387.27299    30.887231    36341.856 
  984100    290.71193   -1494.7223    526.30617    346.15088    188.66887    36341.856 
  984200    301.15929   -1499.9508     504.1191    365.97712   -351.96906    36341.856 
  984300    305.59153   -1547.5635    506.95839    341.24585   -137.34366    36341.856 
  984400    298.17426   -1500.1752    493.95092    342.08661   -129.83978    36341.856 
  984500    306.90441   -1487.2136     500.7652    401.33928   -150.53876    36341.856 
  984600    297.80426   -1477.1744     491.9654    361.42881   -494.49612    36341.856 
  984700    304.76259   -1516.3241    487.70944    349.48787   -140.95312    36341.856 
  984800    290.66201   -1513.7396    497.71819    298.31988   -464.81463    36341.856 
  984900    298.63794   -1515.1623    519.96663    355.21185    321.06616    36341.856 
  985000    300.52018   -1549.5193    475.55875    284.95828    760.75238    36341.856 
  985100    289.65658   -1512.1795    504.03015     301.6455    409.85292    36341.856 
  985200    294.62202   -1499.1562     528.8307     361.9225    122.04107    36341.856 
  985300    311.52963   -1509.1641    499.80343    399.34172    176.47946    36341.856 
  985400    298.77805   -1489.6837    508.78361    370.14106   -201.83737    36341.856 
  985500    304.91727   -1474.7398    489.00311    393.06528   -663.09158    36341.856 
  985600    295.73559    -1483.503    510.30655    364.08705   -621.04982    36341.856 
  985700     288.6985   -1506.0443    501.55544    300.97367   -242.89021    36341.856 
  985800    309.88558   -1496.6937    478.70443     383.2789    216.25881    36341.856 
  985900      299.444    -1479.251      500.142    374.94347    125.94899    36341.856 
  986000    294.01701   -1447.8687    514.69036    396.33396    489.62033    36341.856 
  986100    315.16493   -1454.3501     474.9065     445.6972    30.797321    36341.856 
  986200     293.5375    -1499.566    472.43975    300.21768   -442.33615    36341.856 
  986300    292.43601   -1470.4632    496.82906    348.72897   -410.32425    36341.856 
  986400    311.11625   -1523.8216     486.1631    369.17461   -208.09695    36341.856 
  986500    309.67482   -1529.9432    480.73766    351.10962    54.627587    36341.856 
  986600    306.43735   -1502.9963    487.97471    370.65409    89.402629    36341.856 
  986700    308.46223   -1522.0834    519.75599    392.50451    324.82066    36341.856 
  986800    294.11335   -1478.1891    485.71985    337.47862    341.88598    36341.856 
  986900    295.17319   -1491.0474    516.54865    360.24158    254.94643    36341.856 
  987000    296.22716   -1456.9714    479.76602    362.30094    168.22348    36341.856 
  987100    290.39494   -1444.7797    495.24428    363.59827   -218.39475    36341.856 
  987200    307.31884   -1478.1929    502.39761    413.86638    67.673428    36341.856 
  987300    302.26665   -1452.5388    481.92209    396.19946    209.50866    36341.856 
  987400    296.88396   -1438.8173    505.29224    408.95119    764.27498    36341.856 
  987500    301.27679   -1456.3024    504.16833    410.20613    464.83016    36341.856 
  987600    292.91296   -1468.7189    505.89948    361.70043     204.7002    36341.856 
  987700    311.27531   -1507.4525    503.14292    403.24278    56.176158    36341.856 
  987800    300.58173   -1468.2346    503.60744    394.57006    67.098294    36341.856 
  987900    291.39217   -1493.9301     511.9513    335.66424    342.18021    36341.856 
  988000    300.00702   -1466.6919    464.75964    354.66615     481.1594    36341.856 
  988100    299.15446   -1517.2252    508.61111    344.12913   -7.3460381    36341.856 
  988200    299.10332   -1484.5992    480.44866    348.36149    334.69366    36341.856 
  988300    304.19038   -1474.7702    502.11303    402.85791    402.84601    36341.856 
  988400    288.43873   -1507.1975    497.20745     294.2978    851.73905    36341.856 
  988500     290.4525   -1478.1563    514.86172    350.09933    443.37561    36341.856 
  988600    301.02142   -1448.7003    501.05063    413.53578    486.09689    36341.856 
  988700    299.04196   -1448.2883    491.03823    394.98446    239.85328    36341.856 
  988800    299.94636   -1453.8026    513.06425    415.58576    -519.2857    36341.856 
  988900    294.90185   -1482.3946     507.7793    358.89803   -168.51633    36341.856 
  989000    304.61515   -1483.9489    496.80223     390.2892    32.851965    36341.856 
  989100    302.64912   -1489.6037    485.97893    364.92089    125.00888    36341.856 
  989200    304.33061   -1480.2158    507.47112     403.4045   -44.946956    36341.856 
  989300    298.75534    -1498.831    523.93452    376.04191    34.296629    36341.856 
  989400    293.65044   -1505.6144    483.19227    305.43255    456.20512    36341.856 
  989500    300.21472   -1469.1742     505.5759    393.93931    273.17017    36341.856 
  989600    296.88266   -1434.0861    513.36908    421.75342   -608.38699    36341.856 
  989700    303.97404   -1414.3035    516.13795    476.37126   -211.90639    36341.856 
  989800    295.67302   -1419.2333    511.29734    429.06456    -216.5904    36341.856 
  989900    294.37086   -1396.4483    506.38459    441.04858    157.82052    36341.856 
  990000    303.90791   -1458.4279    517.49619    433.30609   -138.33548    36341.856 
  990100    292.74498   -1491.2171    498.75344    331.29661    253.12654    36341.856 
  990200    305.62478   -1466.0233     496.9294    412.90736    325.77394    36341.856 
  990300    294.39305   -1461.4784    501.06513    370.79937    253.35429    36341.856 
  990400     301.6337   -1480.0853     498.6398    382.50852    -156.9419    36341.856 
  990500    289.27388   -1460.7024    518.24588    365.60778    124.06007    36341.856 
  990600    302.67764   -1493.4469    495.10119    370.32895    18.318411    36341.856 
  990700    307.40778   -1494.3076    490.97974    386.73598   -602.49719    36341.856 
  990800    300.73757    -1512.599    503.89541     351.1983   -610.25283    36341.856 
  990900    304.54479   -1480.3115    482.45508    379.26133   -357.85122    36341.856 
  991000    300.01484   -1487.2533     508.2185    377.59892     143.1957    36341.856 
  991100    308.59119    -1501.544    479.74781    373.61888   -271.09533    36341.856 
  991200    301.58994   -1503.5307    517.94215    378.16759    67.541014    36341.856 
  991300    303.33094   -1450.2225    495.49411    416.90043    49.899481    36341.856 
  991400    295.21769   -1504.1654    488.72819    319.50439   -262.71573    36341.856 
  991500    293.04062   -1503.9902    496.74755    317.85447   -153.79287    36341.856 
  991600    294.64037    -1510.585    471.71814    293.46408   -8.2460135    36341.856 
  991700    299.72067   -1491.9602    513.71073    377.05409   -127.16564    36341.856 
  991800    301.97074   -1479.2392    488.78757    375.02652   -280.01757    36341.856 
  991900    290.51003   -1466.5597    511.53476    358.62916   -272.74238    36341.856 
  992000    294.05796   -1466.8729    493.85851    356.68306    162.85475    36341.856 
  992100     299.3221   -1503.8942    498.27933    347.88644    37.652759    36341.856 
  992200    300.72187   -1466.7515    520.90717    413.98656   -247.79716    36341.856 
  992300    293.26726   -1454.7568     509.0421    380.40722    -311.2257    36341.856 
  992400    292.87974   -1467.4791    521.57492    378.46547   -760.77858    36341.856 
  992500    303.03733   -1473.0495    502.45752    399.70919   -159.06265    36341.856 
  992600    294.32354   -1483.1263    490.70718    338.47923    29.699133    36341.856 
  992700    287.92412    -1508.956    488.66146    281.66632    166.38134    36341.856 
  992800    302.24719    -1488.232    482.72931    361.22553    37.762293    36341.856 
  992900    303.76098   -1524.1724     501.4992    350.90018    -89.70924    36341.856 
  993000    300.22308   -1506.0219    517.34995    368.90346    16.516393    36341.856 
  993100    301.20183   -1500.8821    492.48442    353.60353   -9.1718389    36341.856 
  993200    316.60255   -1506.9605     505.8481    430.52911    160.11686    36341.856 
  993300    300.66958    -1530.064    516.41505    345.94543   -70.718147    36341.856 
  993400    296.56859   -1463.0723    507.60112    385.57905   -386.47304    36341.856 
  993500    299.57221   -1488.4236    524.59414     390.8028   -268.90685    36341.856 
  993600    300.57344   -1468.6337    481.47574    372.00171   -270.54694    36341.856 
  993700    293.92496   -1462.6242    477.49867    343.97045   -115.22674    36341.856 
  993800    293.17377   -1458.3152    521.13449    388.51852   -394.37591    36341.856 
  993900    301.07044   -1506.0654    497.63184     352.9735    48.468224    36341.856 
  994000    295.19256   -1472.5648    490.38515    352.64825   -177.71972    36341.856 
  994100    293.13751   -1492.8857    502.63878    335.28827    25.563278    36341.856 
  994200    290.74763   -1512.7552    462.65327    264.62653    313.18466    36341.856 
  994300    301.02138   -1490.8374     499.1072    369.45497    206.31097    36341.856 
  994400    298.21541   -1504.4902    511.38781    355.39452   -393.64376    36341.856 
  994500     293.4176   -1512.4904    492.77605    307.08745    140.16586    36341.856 
  994600    310.58021   -1483.5138     551.2647    472.16009   -137.11447    36341.856 
  994700    304.06995    -1481.155    491.62717     385.4427   -118.91605    36341.856 
  994800    296.26476   -1495.3317    480.48367     324.8283    232.97391    36341.856 
  994900    304.87773   -1490.5691    518.01478    406.06883    411.96076    36341.856 
  995000    296.68372   -1479.0628    499.66394    362.17191     481.2822    36341.856 
  995100    293.83284   -1499.6652     502.9688    331.98302   -183.43083    36341.856 
  995200      294.245   -1498.2651    507.12517    339.40326    199.95861    36341.856 
  995300    288.34462    -1502.783    501.09244    302.17173   -107.56501    36341.856 
  995400    299.60651   -1467.1416     510.6393    398.28501      -38.018    36341.856 
  995500    295.03314   -1454.3118    482.77363    362.56888   -216.87897    36341.856 
  995600    303.64731   -1474.2164    505.62675    404.46975    -49.77049    36341.856 
  995700    301.71605   -1448.0541    512.49439    428.76673   -187.85415    36341.856 
  995800    300.57627   -1462.2935    507.30427    404.18329   -10.341483    36341.856 
  995900    299.87192    -1481.828    521.54841    395.70786   -227.49351    36341.856 
  996000    300.43975   -1463.0444    507.73758    403.24829    342.99031    36341.856 
  996100    298.34117   -1478.7266    497.60068    367.93968    156.23395    36341.856 
  996200    292.44395   -1461.6863    493.93895    354.65165    236.00827    36341.856 
  996300    308.10358   -1477.8654    512.14668    427.49146   -233.54336    36341.856 
  996400    305.98011   -1474.1634    480.53195    389.97661   -143.40428    36341.856 
  996500    295.48532   -1488.2006    500.14409    348.09523    118.07051    36341.856 
  996600    296.23237   -1477.3622    490.47065    352.63826   -287.31592    36341.856 
  996700    303.56938   -1525.6191    512.15128    359.23917    33.969711    36341.856 
  996800    304.62605   -1461.0636    512.21831    428.63985   -73.250512    36341.856 
  996900     294.5053   -1489.1469    508.19643    350.76975    75.330983    36341.856 
  997000    315.08323   -1507.4845    490.81889    408.10575    370.14642    36341.856 
  997100    294.10425   -1495.3304    505.09676    339.67304    139.08115    36341.856 
  997200    298.17507   -1537.2084    479.52364    290.62971    -17.19382    36341.856 
  997300    286.53507    -1570.277    518.33485    243.73756   -379.12993    36341.856 
  997400    298.66146   -1565.5555     490.4279    275.38634   -130.32094    36341.856 
  997500    304.73033   -1564.6885    478.83632    292.10453   -2.2056246    36341.856 
  997600    299.77736   -1573.3187    504.00893    286.25008   -259.43355    36341.856 
  997700    292.36524   -1568.3692    483.87154    237.54552    410.45999    36341.856 
  997800    297.50713   -1552.7198    522.43643    315.01083    49.757025    36341.856 
  997900    295.51434   -1569.4161    500.81042    267.67737    28.381241    36341.856 
  998000    297.32372    -1550.149    485.81266    280.12848   -165.65996    36341.856 
  998100    287.42322   -1522.7755    488.49007    265.41047   -535.85248    36341.856 
  998200    295.21533   -1524.7324    507.75221     317.9507   -449.36632    36341.856 
  998300    286.36118   -1490.4816    511.11268    315.52451   -895.70892    36341.856 
  998400    300.01091   -1518.2272    484.59881    322.98764   -468.64222    36341.856 
  998500    306.58245   -1527.5902    499.13789    357.87948   -106.60877    36341.856 
  998600    301.49297   -1558.0067    476.09906    281.41002   -130.62015    36341.856 
  998700    299.20243   -1533.1127    515.73588    335.58332   -194.60702    36341.856 
  998800    290.75563   -1547.7927    467.25588    234.22784   -916.97822    36341.856 
  998900    301.07369   -1518.9058    506.35465    348.87061   -808.98825    36341.856 
  999000    299.80565   -1549.0538    476.52599    283.15999   -187.35902    36341.856 
  999100    305.23756   -1520.7815    506.84301     366.3118    -49.66043    36341.856 
  999200    303.68538   -1530.0131    524.20559    367.42404    742.32467    36341.856 
  999300    297.91888   -1548.6001    486.15784    284.71376    1335.8463    36341.856 
  999400    300.82538   -1548.3508    523.46919    335.41736     564.6997    36341.856 
  999500    300.35113   -1555.6075    489.67568    292.22266    490.67819    36341.856 
  999600    310.48347   -1537.6936    488.29131    354.56943    223.99772    36341.856 
  999700    303.74998   -1571.3885    502.81036    304.94547    91.673165    36341.856 
  999800    302.94299   -1550.1601    490.50628    310.22065   -115.45832    36341.856 
  999900    299.61752   -1536.4618    500.07194    318.44726   -615.20777    36341.856 
 1000000    311.74309   -1545.3058    516.34198     380.7038   -10.691038    36341.856 
 1000100    289.32448   -1488.8243    513.47997    332.94885   -413.45179    36341.856 
 1000200    315.87365   -1513.3174    516.24821    431.27637   -546.70918    36341.856 
 1000300     302.3353    -1489.499    506.37785    384.00545   -47.097632    36341.856 
 1000400    295.84688   -1529.6407     538.5014    346.64742    -140.0989    36341.856 
 1000500    295.70734   -1517.1758    500.05488    320.03483   -361.96168    36341.856 
 1000600    303.47792   -1509.5165    505.29653    368.07345   -65.756076    36341.856 
 1000700    303.97466   -1559.0862    514.51385    329.96725   -331.36403    36341.856 
 1000800    295.55974   -1506.6074    466.03912    295.92001   -616.60574    36341.856 
 1000900    300.05447   -1475.3073    509.74603    391.25172   -597.00484    36341.856 
 1001000    303.86446   -1506.3111    481.96381    349.69405   -993.00183    36341.856 
 1001100    295.34482    -1494.643    485.28494    326.15837   -220.10276    36341.856 
 1001200     305.4637   -1520.5163    523.51852    384.27508   -503.64574    36341.856 
 1001300     294.5487   -1511.3638    483.57766    304.13028   -360.14211    36341.856 
 1001400    301.37748   -1527.8488    516.06791    351.01456    -559.8261    36341.856 
 1001500    296.08063   -1555.6094    510.09741    293.33175   -229.24655    36341.856 
 1001600    303.62249   -1570.1346    504.94129    307.75382   -506.80718    36341.856 
 1001700    308.15235   -1608.7977    476.00701    260.63999   -393.44832    36341.856 
 1001800    301.41719      -1569.4    501.21587    294.79088   -561.76532    36341.856 
 1001900    289.34039   -1562.9403    517.55883    262.98359   -727.78151    36341.856 
 1002000    300.70249   -1564.2846    501.56469    297.02338   -652.62416    36341.856 
 1002100    293.85459   -1558.1165    504.02725     274.6885   -168.75962    36341.856 
 1002200    308.13075   -1558.4879     491.9961    326.84116   -153.27041    36341.856 
 1002300    301.91222   -1532.6787    503.78888     336.3237   -260.81835    36341.856 
 1002400    291.80941   -1539.8058    506.20309    285.92706   -181.28135    36341.856 
 1002500    307.84461   -1522.4207    479.44183    349.06027    555.02628    36341.856 
 1002600    303.21311   -1545.6556    519.13147     344.5719    506.81392    36341.856 
 1002700    300.20486   -1500.3449    497.81431    354.96238    886.33281    36341.856 
 1002800    303.23346   -1508.7982     552.7561     415.1459     56.63089    36341.856 
 1002900    301.16413   -1512.0618    503.89865    353.66758   -163.22959    36341.856 
 1003000    304.70564   -1507.0973    485.62489    356.37262    143.65065    36341.856 
 1003100    301.40814   -1520.0841    485.35156    328.20155    191.83992    36341.856 
 1003200    304.39788   -1516.9095    546.31549    405.85942   -189.39803    36341.856 
 1003300     295.7443   -1512.9964    517.14806    341.47451   -304.55182    36341.856 
 1003400     298.7827    -1516.318    496.75603    331.50022   -199.62344    36341.856 
 1003500    299.79795   -1549.3556    514.78556    321.08294   -576.51125    36341.856 
 1003600    288.77814   -1516.4678    521.35081    310.70565   -444.52907    36341.856 
 1003700    323.13634   -1547.8303    498.86256    412.21884   -379.25894    36341.856 
 1003800    299.47942   -1515.3324    496.58278    335.46304   -669.73793    36341.856 
 1003900    287.85542   -1486.8585    517.08397    331.87571   -512.88977    36341.856 
 1004000    303.59721   -1535.4357    505.39502    342.79222    110.06015    36341.856 
 1004100     297.4835    -1479.669     543.9783    409.49667    411.59981    36341.856 
 1004200     303.2539   -1505.8215    499.92024    365.37915    671.15656    36341.856 
 1004300    300.95238    -1531.477    526.39275    355.78896    457.92346    36341.856 
 1004400    305.86657   -1524.9024    519.80584     377.9981    15.277635    36341.856 
 1004500    295.24202   -1580.9114    515.79765    269.93787   -176.82253    36341.856 
 1004600    299.69338    -1531.081     471.1991    295.29822   -71.422857    36341.856 
 1004700     296.0952   -1524.4467    523.41617    337.87901    223.41489    36341.856 
 1004800    307.54755   -1548.2521    519.98379    362.42754    262.57672    36341.856 
 1004900    311.76078   -1566.1888    493.38135    336.94012    613.00285    36341.856 
 1005000    299.15753   -1552.6081    520.18214    320.33121    756.13284    36341.856 
 1005100    306.77267   -1503.8802    517.37072    400.68247    577.98239    36341.856 
 1005200      318.482   -1549.9315    507.85554    398.06427   -88.862392    36341.856 
 1005300    295.50003   -1535.3592    502.57782    303.43689   -372.87044    36341.856 
 1005343    307.46596   -1553.9455    481.54402    317.92546   -247.67925    36341.856 
Loop time of 599.147 on 32 procs for 1000000 steps with 1518 atoms

Performance: 144.205 ns/day, 0.166 hours/ns, 1669.041 timesteps/s
100.0% CPU use with 32 MPI tasks x no OpenMP threads

MPI task timing breakdown:
Section |  min time  |  avg time  |  max time  |%varavg| %total
---------------------------------------------------------------
Pair    | 252.31     | 281.34     | 312.07     |  80.4 | 46.96
Bond    | 1.4289     | 1.6026     | 1.8133     |   6.8 |  0.27
Neigh   | 38.734     | 38.793     | 38.85      |   0.7 |  6.47
Comm    | 233.9      | 264.54     | 293.52     |  83.2 | 44.15
Output  | 0.39547    | 0.41324    | 0.84614    |  12.1 |  0.07
Modify  | 9.1613     | 9.3007     | 9.4842     |   2.9 |  1.55
Other   |            | 3.156      |            |       |  0.53

Nlocal:        47.4375 ave          78 max          14 min
Histogram: 2 4 1 4 3 6 2 4 2 4
Nghost:        2044.53 ave        2179 max        1919 min
Histogram: 2 6 4 2 1 2 6 4 4 1
Neighs:        5525.53 ave       10048 max         764 min
Histogram: 2 2 6 5 2 2 3 2 2 6

Total # of neighbors = 176817
Ave neighs/atom = 116.48024
Ave special neighs/atom = 2.0382082
Neighbor list builds = 49586
Dangerous builds = 1

# Output the system volume
variable v equal vol
print 'The system volume is $v'
The system volume is 36341.8563188419

# Outputs
variable A equal xhi-xlo
variable B equal yhi-ylo
variable C equal zhi-zlo
variable D equal xy
variable E equal xz
variable F equal yz
print 'Lattice vectors'
Lattice vectors
print '$A 0 0'
33.1234604928558 0 0
print '$D $B 0'
0 33.1234604928558 0
print '$E $F $C'
0 0 33.1234604928558
Total wall time: 0:10:04
