LAMMPS (29 Sep 2021 - Update 1)
# Test LAMMPS input file for single DeFDe

# Initialize simulation

clear

units real
atom_style full
boundary p p p
dielectric 1
special_bonds dreiding

bond_style harmonic
angle_style harmonic
dihedral_style harmonic
improper_style umbrella
pair_style hybrid/overlay hbond/dreiding/lj 4 9.0 11.0 90 lj/cut 8.50000

# Read data file
read_data frag5.dat
Reading data file ...
  triclinic box = (0.0000000 0.0000000 0.0000000) to (15.000000 15.000000 15.000000) with tilt (0.0000000 0.0000000 0.0000000)
  2 by 4 by 4 MPI processor grid
  reading atoms ...
  1517 atoms
  scanning bonds ...
  4 = max bonds/atom
  scanning angles ...
  6 = max angles/atom
  scanning dihedrals ...
  9 = max dihedrals/atom
  reading bonds ...
  1016 bonds
  reading angles ...
  530 angles
  reading dihedrals ...
  36 dihedrals
Finding 1-2 1-3 1-4 neighbors ...
  special bond factors lj:    0        0        1       
  special bond factors coul:  0        0        1       
     4 = max # of 1-2 neighbors
     6 = max # of 1-3 neighbors
    10 = max # of special neighbors
  special bonds CPU = 0.002 seconds
  read_data CPU = 0.016 seconds

# Dreiding potential information

bond_coeff 1 350 1.53
bond_coeff 2 350 1.09
bond_coeff 3 350 0.98

angle_coeff 1 50 109.471
angle_coeff 2 50 104.51

dihedral_coeff 1 0.111111111111111 -1 3

improper_coeff 1 40 0

pair_coeff 1 1 lj/cut 0.0951 3.8983
pair_coeff 1 2 lj/cut 0.0380199947396104 3.52917391183829
pair_coeff 1 3 lj/cut 0.00308382878902186 3.52806914614779
pair_coeff 1 4 lj/cut 0.0953995283007206 3.64309650983885
pair_coeff 2 2 lj/cut 0.0152 3.195
pair_coeff 2 3 lj/cut 0.0012328828005938 3.19399984345648
pair_coeff 2 4 lj/cut 0.0381397430510485 3.29813538230316
pair_coeff 3 3 lj/cut 1e-04 3.193
pair_coeff 3 4 lj/cut 0.0030935416596516 3.29710294046152
pair_coeff 4 4 lj/cut 0.0957 3.4046
pair_coeff 4 4 hbond/dreiding/lj 3 j 9.50 2.75 4 9.0 11.0 90

neighbor 2 bin
neigh_modify every 2 one 10000

# Gemoetric relaxation
fix 1 all box/relax iso 1.0 vmax 0.001
minimize 1.0e-4 1.0e-6 10000 10000
WARNING: Using 'neigh_modify every 1 delay 0 check yes' setting during minimization (../min.cpp:188)
Neighbor list info ...
  update every 1 steps, delay 0 steps, check yes
  max neighbors/atom: 10000, page size: 100000
  master list distance cutoff = 13
  ghost atom cutoff = 13
  binsize = 6.5, bins = 3 3 3
  3 neighbor lists, perpetual/occasional/extra = 3 0 0
  (1) pair hbond/dreiding/lj, perpetual, skip from (3)
      attributes: full, newton on
      pair build: skip
      stencil: none
      bin: none
  (2) pair lj/cut, perpetual, half/full from (3)
      attributes: half, newton on
      pair build: halffull/newton
      stencil: none
      bin: none
  (3) neighbor class addition, perpetual
      attributes: full, newton on
      pair build: full/bin
      stencil: full/bin/3d
      bin: standard
Per MPI rank memory allocation (min/avg/max) = 14.14 | 14.49 | 14.92 Mbytes
Step Temp E_pair E_mol TotEng Press Volume 
       0            0 5.4770199e+20    202.86633 5.4770199e+20 4.4509698e+22         3375 
    5432            0   -961.24466     34.79268   -926.45198     86.75907    38369.369 
Loop time of 4.86161 on 32 procs for 5432 steps with 1517 atoms

100.0% CPU use with 32 MPI tasks x no OpenMP threads

Minimization stats:
  Stopping criterion = energy tolerance
  Energy initial, next-to-last, final = 
    5.47701992696913e+20  -925.858299648602  -925.941622318415
  Force two-norm initial, final = 2.1750577e+23 96.462682
  Force max component initial, final = 1.5296698e+23 64.026275
  Final line search alpha, max atom move = 1.2690841e-05 0.00081254724
  Iterations, force evaluations = 5432 5447

MPI task timing breakdown:
Section |  min time  |  avg time  |  max time  |%varavg| %total
---------------------------------------------------------------
Pair    | 1.0214     | 2.6083     | 4.0594     |  41.0 | 53.65
Bond    | 0.0052143  | 0.011732   | 0.026656   |   3.5 |  0.24
Neigh   | 0.095714   | 0.096201   | 0.096527   |   0.1 |  1.98
Comm    | 0.34709    | 1.7959     | 3.3834     |  49.5 | 36.94
Output  | 0          | 0          | 0          |   0.0 |  0.00
Modify  | 0          | 0          | 0          |   0.0 |  0.00
Other   |            | 0.3495     |            |       |  7.19

Nlocal:        47.4062 ave          66 max          19 min
Histogram: 1 0 1 4 4 7 4 3 6 2
Nghost:        1898.00 ave        1935 max        1858 min
Histogram: 3 0 4 4 4 5 1 5 5 1
Neighs:        4823.59 ave        7807 max        1822 min
Histogram: 1 1 4 6 7 2 4 4 0 3

Total # of neighbors = 154355
Ave neighs/atom = 101.75016
Ave special neighs/atom = 2.0382334
Neighbor list builds = 94
Dangerous builds = 0

# MD simulation
velocity all create 300.0 12345 rot yes dist gaussian
timestep 1.0
fix 2 all nvt temp 300.0 300.0 1

# Compute interaction energy
group WAT molecule <> 2 501
1500 atoms in group WAT
group MOL molecule 1
17 atoms in group MOL

compute w WAT group/group MOL pair yes
fix 3 all ave/time 10 5 100 c_w file outa

# Outputs
thermo 100 # Output thermodynamic data every nth step
#dump mf1 all xyz 10000 mol_*.xyz

# Run
run 1000000
Neighbor list info ...
  update every 2 steps, delay 10 steps, check yes
  max neighbors/atom: 10000, page size: 100000
  master list distance cutoff = 13
  ghost atom cutoff = 13
  binsize = 6.5, bins = 6 6 6
  4 neighbor lists, perpetual/occasional/extra = 3 1 0
  (1) pair hbond/dreiding/lj, perpetual, skip from (4)
      attributes: full, newton on
      pair build: skip
      stencil: none
      bin: none
  (2) pair lj/cut, perpetual, half/full from (4)
      attributes: half, newton on
      pair build: halffull/newton
      stencil: none
      bin: none
  (3) compute group/group, occasional, copy from (2)
      attributes: half, newton on
      pair build: copy
      stencil: none
      bin: none
  (4) neighbor class addition, perpetual
      attributes: full, newton on
      pair build: full/bin
      stencil: full/bin/3d
      bin: standard
Per MPI rank memory allocation (min/avg/max) = 12.99 | 13.06 | 13.48 Mbytes
Step Temp E_pair E_mol TotEng Press Volume 
    5432          300   -961.24466     34.79268    429.22043    1701.8722    38369.369 
    5500    301.79518   -1029.4485    219.52297    553.85914    1886.6513    38369.369 
    5600    308.58656   -1079.3795    219.76269    534.85747    1271.7242    38369.369 
    5700    293.08833   -1078.4556    176.02541    422.00898    797.01961    38369.369 
    5800    288.56882   -1057.1338    202.24952    449.13166    581.39409    38369.369 
    5900    290.78301   -1056.5735     193.4903    450.93853    560.57446    38369.369 
    6000    298.54548   -1061.6122     184.6809    472.16827    484.00262    38369.369 
    6100    306.16036   -1056.7062    203.74737    530.55167   -156.79455    38369.369 
    6200    297.13763   -1079.6381    196.73863    459.83815   -1.9737315    38369.369 
    6300    301.50784   -1074.6933    206.24736    494.04031    643.49055    38369.369 
    6400    298.92736   -1064.1006    198.81992     485.5446   -82.578857    38369.369 
    6500    301.20159    -1068.204     194.1633    487.06154    490.16806    38369.369 
    6600    294.28375   -1057.6467    205.18392    477.37847     120.5637    38369.369 
    6700    286.23888   -1062.6563    201.68391    432.51478    112.19718    38369.369 
    6800    295.84885   -1053.4734    222.57221    506.01256     778.7532    38369.369 
    6900    293.99272   -1066.6942    221.86579     483.6977    344.86654    38369.369 
    7000    302.92067   -1094.0836    216.87219    491.65929    488.91373    38369.369 
    7100    309.49888   -1079.3012    215.53954    534.83535    702.38481    38369.369 
    7200    302.91048   -1044.0565    216.57775     541.3459    897.50129    38369.369 
    7300    306.10813   -1117.2549    228.77501    494.79463    1003.3308    38369.369 
    7400    297.48411   -1061.8409    227.83622    510.29866    683.26845    38369.369 
    7500    291.70031   -1081.3353    215.79363     452.6252     536.5194    38369.369 
    7600    309.83241   -1120.0851     213.5557    493.57478     60.19071    38369.369 
    7700     298.7777   -1055.5077     218.1907    512.83198    755.18485    38369.369 
    7800    303.09128   -1063.0916    230.61418    537.16416    337.39543    38369.369 
    7900    292.52425   -1089.0999    221.94377    454.73406   -37.830584    38369.369 
    8000    297.14596   -1096.5958    232.68484    478.86433    149.58391    38369.369 
    8100    291.82455   -1088.3047    233.48394    463.90753    215.78448    38369.369 
    8200    299.21065    -1074.284    231.18987    509.01132    269.88592    38369.369 
    8300    294.48774   -1077.3079     230.6955    484.15064    707.42819    38369.369 
    8400    308.00055   -1113.5198    233.72398    512.03036    974.73083    38369.369 
    8500    305.28655   -1125.0492    235.24534    489.75798     471.5694    38369.369 
    8600    310.42298    -1096.325     243.4438    549.89164    795.98615    38369.369 
    8700    294.09208   -1121.0203    240.34471    448.29947     411.5217    38369.369 
    8800    306.41138   -1119.7876    247.30834    512.16555    151.13064    38369.369 
    8900    309.49406   -1064.6101    255.31888    589.28396    968.38652    38369.369 
    9000     307.8531   -1069.6062    251.47718    573.03078    589.52316    38369.369 
    9100    302.93335   -1098.4371    249.30928    519.80015    479.15259    38369.369 
    9200    306.10884   -1075.2901    255.19289    563.18051    633.21796    38369.369 
    9300    300.93821   -1111.0811    242.32038    491.15135    449.17007    38369.369 
    9400     293.8897   -1109.8967    247.04342    465.20721    -59.50399    38369.369 
    9500    306.79836     -1100.73    251.68741    537.35098   -160.01721    38369.369 
    9600    305.40935   -1075.8818    232.21894    536.45391      65.0413    38369.369 
    9700    306.83319   -1083.9508    243.94431    546.54445    239.93134    38369.369 
    9800     299.0252   -1103.9337    234.62099    481.95471    80.162923    38369.369 
    9900     304.3627   -1118.4216    253.84873     510.8142    447.88609    38369.369 
   10000    295.78311   -1127.7223    245.64987    454.54425    178.36935    38369.369 
   10100    292.16352   -1141.7857     252.2089    430.68329   -5.9620073    38369.369 
   10200    295.81866   -1134.3776    250.23836    452.63809    484.47983    38369.369 
   10300    295.89346   -1133.2333    257.50578    461.38779    832.20017    38369.369 
   10400    293.39162   -1101.3983    254.72645    479.13793    561.50396    38369.369 
   10500    287.62319   -1111.9975    271.54144    459.28671    458.55081    38369.369 
   10600     288.3691   -1124.9482    241.37434    419.53964   -69.762049    38369.369 
   10700    310.51819   -1123.1362    254.84801    534.91496    130.01507    38369.369 
   10800    294.68523   -1141.2364    256.42268    446.84173   -244.54647    38369.369 
   10900    295.48719   -1113.9807    259.73187    481.03057   -42.793634    38369.369 
   11000    299.08105   -1071.0075    255.92684     536.4391    123.92487    38369.369 
   11100    318.21022    -1054.692    284.53259    667.80331    439.42224    38369.369 
   11200      298.388   -1054.5732    289.07117    582.88591    500.11294    38369.369 
   11300    295.50539   -1099.0012    264.27875    500.63923    93.589314    38369.369 
   11400    300.67245   -1098.7536    274.90057    534.85816   -100.74574    38369.369 
   11500    298.97066   -1090.8648    272.19569    532.35182    4.7849505    38369.369 
   11600    301.08024   -1098.4047    256.08644    518.23566    67.732764    38369.369 
   11700    296.56383   -1099.3999    285.20805    525.95287    669.67877    38369.369 
   11800    293.26606   -1090.3003    252.88506    487.82713    461.87709    38369.369 
   11900    310.95795   -1051.4031    269.78519    623.57251    506.12634    38369.369 
   12000    290.98361   -1154.2389     273.4348    434.12408     62.22887    38369.369 
   12100    299.50524    -1111.295    262.39578    504.53742    606.11502    38369.369 
   12200     303.1159   -1093.7902     258.6458    534.60845    578.87971    38369.369 
   12300    304.19308   -1144.0611    264.34119    494.90065    603.51604    38369.369 
   12400    301.66102   -1117.5056    254.59821      500.271    103.16133    38369.369 
   12500    296.52262    -1153.135    274.83529    461.65877    478.47248    38369.369 
   12600    296.67871   -1132.2425    263.03501    471.45632    402.16808    38369.369 
   12700    308.00885   -1144.5629     277.0968    524.39759    401.02418    38369.369 
   12800    288.57598   -1127.9292    260.31816    436.43732    409.58959    38369.369 
   12900    300.70161   -1118.3635    276.65518    517.13461    642.88829    38369.369 
   13000    297.72125   -1124.2465    270.13274    491.26117     865.0633    38369.369 
   13100    305.03126   -1083.4818    295.92402    590.85046    1025.5216    38369.369 
   13200    299.99953   -1100.3195    277.45271    532.80348    634.32955    38369.369 
   13300    291.76633   -1130.3701    272.91717    461.01231    365.70568    38369.369 
   13400    297.40435   -1085.7709    285.00134    543.17337    425.35044    38369.369 
   13500    293.78911   -1068.9645    281.23828    539.87976    217.47876    38369.369 
   13600    303.13828   -1114.7967    298.96423    554.02155    190.40608    38369.369 
   13700    297.67214   -1156.7813    283.17577    471.54751    73.160361    38369.369 
   13800    301.91296   -1158.6477    282.87594    488.54511    285.30227    38369.369 
   13900    294.79702   -1157.2298    297.62165    472.55242     173.2982    38369.369 
   14000    309.57413   -1138.1722    274.26672    535.03159   -35.619508    38369.369 
   14100    312.49781   -1111.3223    290.03682    590.86342   -5.6777635    38369.369 
   14200    292.32934   -1114.7665    290.26389     496.5068   -361.36307    38369.369 
   14300    293.19554   -1168.0139    307.00824    463.91807    157.24952    38369.369 
   14400    294.04037    -1191.534    289.77082    426.97821    373.03044    38369.369 
   14500    301.97628   -1140.7598    291.30348    515.14673    702.69672    38369.369 
   14600    306.24156   -1155.0479    293.45959    522.28917    549.87425    38369.369 
   14700    289.96444   -1132.5798    284.57684     462.3197    491.52697    38369.369 
   14800    299.15567    -1189.964    310.95506    472.84803     358.0677    38369.369 
   14900    307.34351   -1156.0871      271.112    503.88192    545.01385    38369.369 
   15000    301.96641   -1162.0506    297.76243    500.27025    190.37939    38369.369 
   15100    304.87616   -1146.1813    302.28267    533.80872     244.1092    38369.369 
   15200    300.02614   -1180.0374    282.42258    458.17565    313.50786    38369.369 
   15300    308.27042   -1139.0319    286.03664    540.05045    406.32453    38369.369 
   15400    305.99635   -1161.7758     289.1138    510.10742   -132.02101    38369.369 
   15500    312.17508    -1136.169    303.41481    577.93626    462.66205    38369.369 
   15600    304.63599   -1146.1871     290.6545    521.08947    293.48529    38369.369 
   15700    306.90813   -1171.7592    288.59302    503.72342    543.02203    38369.369 
   15800    307.41056   -1184.9045    293.42801    497.68352    877.65806    38369.369 
   15900    306.00061   -1149.3467    298.39342    531.83537    647.52903    38369.369 
   16000    306.86914    -1162.556    307.40245    531.55985     438.3075    38369.369 
   16100    294.93247   -1175.2578    294.77712    452.29202    418.17762    38369.369 
   16200    306.96422   -1162.8979    316.69595     540.9411     456.7546    38369.369 
   16300    303.89338   -1181.7248    293.65151    485.19294     425.0132    38369.369 
   16400    294.10005    -1154.361    289.03019     463.6803    573.66698    38369.369 
   16500     298.2398   -1193.1786    313.86061    468.40023    208.79124    38369.369 
   16600    295.68835   -1191.8572    311.66301    455.99427    228.31857    38369.369 
   16700    303.42354   -1185.3665      300.676    486.45254     415.1244    38369.369 
   16800     305.7937   -1156.1494    309.28481    534.98908    381.74431    38369.369 
   16900    299.49533     -1159.88    309.07808    502.58998     83.02434    38369.369 
   17000    299.37976    -1156.919    300.71322    496.66385    122.86361    38369.369 
   17100    288.20688   -1175.3716    325.88276    452.89155    412.71697    38369.369 
   17200    295.25273   -1172.7748    304.51298    465.95807    677.76453    38369.369 
   17300    293.96057   -1191.0312    303.47843    440.82803  0.061212382    38369.369 
   17400     293.9761   -1159.4686    317.94616     486.9285    452.23548    38369.369 
   17500    302.63296   -1138.4006    320.05238    549.22225     6.839377    38369.369 
   17600     296.3471   -1171.1952    303.80579    471.77589   -394.99873    38369.369 
   17700    296.95808   -1201.1089     321.8255     462.6429   -850.25039    38369.369 
   17800     305.8865   -1194.5148    318.91409    506.67227    208.98272    38369.369 
   17900    302.28073   -1169.6246    295.96468    492.31891    63.485683    38369.369 
   18000    305.41485   -1185.7396    308.04064    502.44269   -149.77731    38369.369 
   18100    305.52174   -1183.4153    308.28849    505.49783    438.44884    38369.369 
   18200    300.85787     -1182.48    296.91299    473.98198    491.02721    38369.369 
   18300    300.41879   -1163.3264    338.11386    532.35228    436.42365    38369.369 
   18400    303.45978   -1176.0259    302.28304    497.56402    933.50928    38369.369 
   18500    297.69443   -1132.1865    322.83748    535.90474    491.94759    38369.369 
   18600    300.70087   -1171.2449    318.06642     505.6611    319.08258    38369.369 
   18700    306.50096   -1171.3813    320.14972     533.8181    384.63225    38369.369 
   18800    293.55137   -1157.8229    330.86935    499.57814     529.0648    38369.369 
   18900    298.86787   -1190.2987    314.66945    474.92714    717.83058    38369.369 
   19000     303.6205   -1196.3392    326.82317    502.51709    406.01261    38369.369 
   19100    301.33985   -1211.0732    318.88897    469.54279    515.75169    38369.369 
   19200     306.4218   -1222.8971    309.65903     471.4538    322.10632    38369.369 
   19300    297.76811   -1237.9733    324.88975    432.50315    90.736877    38369.369 
   19400    295.53192   -1190.2471     324.2062    469.44069     520.7889    38369.369 
   19500    306.53298   -1187.6349    321.05105    518.61045  -0.10700757    38369.369 
   19600    305.70007   -1207.0853    316.85979    491.20504    95.952841    38369.369 
   19700    299.67522    -1177.436     325.0156    501.78434    443.73837    38369.369 
   19800    294.85783   -1175.5306    320.82669    477.73148   -126.13522    38369.369 
   19900    295.99615   -1172.9437    308.28251    472.91823    71.640911    38369.369 
   20000    291.66065   -1185.4911    311.53633    444.03295   -53.627042    38369.369 
   20100    297.85098   -1150.3654    327.62167    523.21743   -38.882813    38369.369 
   20200    293.35662    -1180.811    324.22888    469.06944    33.037621    38369.369 
   20300    305.06454   -1143.0346    337.18178    572.70581    264.39923    38369.369 
   20400    308.66677   -1175.4663    312.25172    531.62213     881.7758    38369.369 
   20500    295.99488   -1197.0835    318.67345    459.16364    692.97709    38369.369 
   20600    294.03446    -1183.833    340.50816    485.38986    849.75309    38369.369 
   20700    291.96271   -1181.2462    330.45653    468.56292    565.00182    38369.369 
   20800    290.51989   -1190.5744    329.11556    451.37383     229.0857    38369.369 
   20900    301.22608   -1198.2354    312.93814    475.91569   -20.736036    38369.369 
   21000    305.21094   -1243.6504    322.46941     458.0392    -113.3493    38369.369 
   21100    308.50167   -1224.5694    322.33536    491.85668   -153.35088    38369.369 
   21200     303.1149   -1216.5727    317.01143    470.18711    459.66308    38369.369 
   21300     307.9897    -1202.412     315.7155     505.0806    263.08927    38369.369 
   21400    299.87685   -1177.4801    311.60147    489.23731    107.21423    38369.369 
   21500    299.89286   -1217.1063    300.67179    438.75369    357.10808    38369.369 
   21600    311.51569   -1170.9311    329.23572    566.01532    13.058007    38369.369 
   21700    296.73732   -1176.4791    323.90953     488.3591    279.88677    38369.369 
   21800    300.33808   -1143.9984    326.30985    539.51159     179.2935    38369.369 
   21900    305.90705   -1119.9557    323.69517    586.10534    441.29874    38369.369 
   22000    302.48968   -1159.0561    311.07201    518.93889     494.6693    38369.369 
   22100    301.86187   -1142.5659    347.31116    568.83132      402.382    38369.369 
   22200    295.34461   -1180.3488    335.46283    489.74914    678.46881    38369.369 
   22300    292.59067   -1174.1184    329.74317    477.81511    825.16197    38369.369 
   22400    296.39989    -1214.047    322.41471    447.77155    523.90796    38369.369 
   22500    306.34587   -1207.7672    314.57943    491.16108    412.85939    38369.369 
   22600    309.60882   -1200.6136    302.83782    501.31795    395.99373    38369.369 
   22700    292.52449   -1223.8287    339.82926    437.89181    226.81634    38369.369 
   22800    289.83616   -1207.1031    323.94624    426.58603   -15.052792    38369.369 
   22900    291.26313   -1177.1628    334.53974     473.5682    181.41707    38369.369 
   23000    298.79817   -1137.5935    345.08531     557.7333    260.51565    38369.369 
   23100     302.4887   -1152.0065    309.91148    524.82358    146.45101    38369.369 
   23200    307.37197   -1200.3695    329.89242    518.50853    847.93001    38369.369 
   23300    307.43779   -1198.8744    340.90406    531.31279    676.50926    38369.369 
   23400    306.65509   -1203.9319    320.07906    501.89331    244.21348    38369.369 
   23500    299.08862   -1189.5213    327.17837    489.21098   -159.17287    38369.369 
   23600    304.72313   -1182.9543    333.06409    527.12557   -18.695773    38369.369 
   23700    295.98535     -1198.75    328.37412    467.15468    273.96638    38369.369 
   23800    307.11286   -1243.8497    329.23127    473.19633    32.651662    38369.369 
   23900    300.52632   -1229.8483    329.00564    457.20812   -275.69502    38369.369 
   24000     289.9737   -1265.2589    314.40452    359.51009   -257.83356    38369.369 
   24100    302.84465   -1257.8589    338.05779    448.72597   -135.23901    38369.369 
   24200    299.66304   -1214.2415    335.85672    475.76495   -184.04549    38369.369 
   24300    297.73889   -1219.4932    330.18516    456.14661    -224.3578    38369.369 
   24400     311.9853   -1222.6468     324.4351     511.6212    145.86063    38369.369 
   24500    297.92661   -1222.0218    347.99087    472.27208    24.211401    38369.369 
   24600    295.74646   -1224.6179    325.00959    436.84268    94.515371    38369.369 
   24700    294.82447   -1173.7525    339.95168    498.48383   0.24343687    38369.369 
   24800    308.67869   -1219.5254    357.09058    532.45573    321.39569    38369.369 
   24900    298.91599    -1194.152    333.74497    490.36686    440.31603    38369.369 
   25000    296.32116   -1209.3515    351.17829    480.87489    538.14202    38369.369 
   25100     294.0874   -1180.0042    351.77568    500.72536    141.59316    38369.369 
   25200    301.06275    -1243.779    341.31899    458.01483   -321.67346    38369.369 
   25300    298.30065   -1198.0553    338.60402    488.54192    314.81713    38369.369 
   25400    298.50229   -1192.1994    348.76375    505.46877    -116.5712    38369.369 
   25500    312.17738   -1180.2196    338.75644    569.23774    98.711473    38369.369 
   25600     299.8093   -1150.2225    362.43615    567.02426   -272.54117    38369.369 
   25700    294.39635   -1182.4246    351.04897    498.97445     59.27982    38369.369 
   25800    308.29984   -1188.0787    338.26457    543.36454   -118.81228    38369.369 
   25900    294.45308   -1221.9052    347.73827    456.43942    172.29713    38369.369 
   26000    303.39609   -1231.4176    351.95935    491.56075   -79.632914    38369.369 
   26100    301.92806   -1205.5762    331.22395    490.03284    132.27935    38369.369 
   26200    303.74088   -1251.2266     359.2642    480.61469    978.00056    38369.369 
   26300    310.08802      -1258.4    350.99142    493.85062    1375.0202    38369.369 
   26400    298.16958   -1219.1137    343.52399    471.81122    1212.9613    38369.369 
   26500    294.37209   -1221.3643    362.25747    471.13362    945.61675    38369.369 
   26600    292.06697   -1203.1097    323.26824    439.98233    641.97635    38369.369 
   26700     297.6116   -1222.5359    340.38464    462.72824    183.05278    38369.369 
   26800    304.64391    -1192.994    349.58865    533.25247   -10.207653    38369.369 
   26900    288.72056   -1252.2205    348.34858    400.82979    50.194526    38369.369 
   27000     295.3536   -1254.5309    335.78361    415.92849    463.58241    38369.369 
   27100    301.61589   -1246.6883    337.39778    453.68399    881.51525    38369.369 
   27200    301.94842   -1237.0896    349.38293    476.77051    512.65325    38369.369 
   27300    295.24311   -1252.0683     358.0701    440.17827    632.49204    38369.369 
   27400    301.76243   -1219.2252    343.61336    488.02482    552.80857    38369.369 
   27500    300.42183   -1195.5898    358.08709    520.07592    404.59604    38369.369 
   27600    303.97782   -1216.7628    349.95157    506.83659    988.28566    38369.369 
   27700     303.9459   -1193.7951    341.61912    521.32765    241.07718    38369.369 
   27800     300.1304    -1185.518    361.48594    532.22959    293.46969    38369.369 
   27900    298.15119   -1195.3697    349.99709    501.94523   -36.038713    38369.369 
   28000    303.54646   -1183.4242    353.04987    541.32426   -273.07591    38369.369 
   28100    291.96991    -1190.084    359.05034    488.35147   -223.12727    38369.369 
   28200    321.30305   -1217.4302     357.2779     591.7866    81.516745    38369.369 
   28300    308.66389   -1211.1299    342.16535    525.85916   -369.89675    38369.369 
   28400    304.04617   -1208.7311    345.17929    510.40492    349.28292    38369.369 
   28500    304.80212   -1191.1966    358.76687    544.94298    664.27412    38369.369 
   28600      302.062   -1217.4073    349.83512    497.41824    411.66524    38369.369 
   28700    305.40994   -1278.2258    345.74793    447.64156    -25.32067    38369.369 
   28800     298.4303   -1206.7749    369.50352    511.30765    733.55111    38369.369 
   28900    306.54302   -1236.1009    345.62612    494.76497    521.04324    38369.369 
   29000    296.03577   -1224.0004    349.12845    462.88643    452.61301    38369.369 
   29100    304.97051   -1203.8096    360.77471    535.09878     528.2114    38369.369 
   29200    303.49854   -1236.6578     364.6486    499.47281    677.91538    38369.369 
   29300    302.68126    -1262.944    356.10876    460.95351    534.03143    38369.369 
   29400    295.64649   -1287.1843    351.72003    400.53501    21.847129    38369.369 
   29500    299.60826   -1225.4135    352.31598    480.80468    463.84214    38369.369 
   29600    302.23268    -1242.285    334.32151    457.79822    131.04502    38369.369 
   29700    295.67343   -1218.3869    362.95873     480.6929    487.37574    38369.369 
   29800    296.32611   -1237.9456     373.4838    474.60859    329.52628    38369.369 
   29900    295.87026   -1221.7418    350.04209    465.31079    227.75225    38369.369 
   30000    300.18537   -1269.1062    352.33589     439.7398    645.12772    38369.369 
   30100    296.74101   -1268.3919    364.08782    436.64131     245.6738    38369.369 
   30200    296.91012   -1226.1121    355.25885    470.85625    585.93365    38369.369 
   30300     273.8596   -1252.0483    350.44164    335.93964   -252.10725    38369.369 
   30400    302.60941   -1254.3111    345.38133    458.53432    433.79536    38369.369 
   30500    303.37184   -1272.5362    356.56924    454.94255    196.38431    38369.369 
   30600    308.15022   -1250.0769    340.59839    483.02404    260.44635    38369.369 
   30700    301.05004   -1218.1256     364.9478     507.2397     155.0745    38369.369 
   30800    303.40421   -1242.9279    354.55107    482.67894     360.7006    38369.369 
   30900    292.28256   -1270.3732    345.96884    396.39363    299.93512    38369.369 
   31000    297.63207   -1229.3242    344.20995    459.85771    999.60499    38369.369 
   31100    301.08525   -1258.8971    339.72247    441.40196    856.16891    38369.369 
   31200    295.63024   -1254.8607     339.7604     420.8256     826.9237    38369.369 
   31300    294.91814    -1266.917    360.14966    425.94063    23.141657    38369.369 
   31400    304.63081   -1249.1493    344.58898     472.0383     51.65473    38369.369 
   31500    299.75151   -1247.5114    344.71881    451.75688   -464.26576    38369.369 
   31600    308.66199   -1265.5719    337.25544    466.49867   -289.73213    38369.369 
   31700    297.08537   -1252.6536     355.2976     445.1454   -194.41011    38369.369 
   31800    296.51457   -1252.9536    349.00561    435.97404   -515.66219    38369.369 
   31900    297.54422   -1214.6957    351.77337     481.6526   -165.83843    38369.369 
   32000    300.11827   -1270.9372    349.39807    434.66768    122.15977    38369.369 
   32100    309.57377   -1219.5489    347.91535    527.30187    306.41662    38369.369 
   32200    305.78824   -1198.7381    360.92743    544.01828    597.96351    38369.369 
   32300    291.05157   -1188.0986     360.7693    487.90592    181.83182    38369.369 
   32400    299.72137   -1241.2714    346.26048    459.40232    104.71553    38369.369 
   32500    306.86084   -1276.2519    341.93986    452.36386   -97.931015    38369.369 
   32600    295.91524   -1211.5853    354.85543    480.48388   -279.68962    38369.369 
   32700    291.23261   -1194.9428    355.12201    476.23263   -596.53405    38369.369 
   32800    294.76526   -1233.6178    358.40687    456.80613   -420.52583    38369.369 
   32900    301.24482   -1236.1928    334.24116    459.34604   -42.754369    38369.369 
   33000    288.21137   -1243.2162    367.65631    426.84081   -112.49602    38369.369 
   33100    306.63021   -1212.1549    354.23971    527.71854   -246.37343    38369.369 
   33200    302.85589   -1222.5012     352.1199    498.19662    94.004437    38369.369 
   33300    297.59612   -1215.1858    342.19688    471.82059    504.71431    38369.369 
   33400    297.99329    -1273.528    346.98758    420.06387    190.74701    38369.369 
   33500    288.31587   -1192.5833     372.2888    482.57841     112.3283    38369.369 
   33600    297.10278   -1233.0915    347.44567    456.93426    263.79176    38369.369 
   33700     296.2973   -1203.9277    345.68667    480.69921    67.512847    38369.369 
   33800    295.72797   -1267.6038    343.85605    412.61974    153.91241    38369.369 
   33900    301.10297   -1179.5086    357.50015    538.64814    433.52564    38369.369 
   34000       300.52   -1244.2266    371.64027    485.43588    377.35643    38369.369 
   34100    298.65654   -1243.9515    371.39966    477.04959   -222.74453    38369.369 
   34200    292.28503   -1269.2585    338.56937    390.12004    304.67276    38369.369 
   34300    295.84995   -1237.6553    372.08878    471.35217   -61.798712    38369.369 
   34400    288.75946   -1238.1093    359.91171    426.67981     57.35435    38369.369 
   34500    294.62297   -1221.5308    361.65615    471.49943   -131.70711    38369.369 
   34600    304.32109   -1227.7239     354.6376    502.11273    215.35364    38369.369 
   34700    300.90234   -1256.1106    352.19922    455.83859    420.68874    38369.369 
   34800    303.00235   -1256.5936    355.10544    467.75165    697.79492    38369.369 
   34900    303.61242   -1251.5622    346.32098    466.75535    740.85977    38369.369 
   35000    293.50448   -1275.5334    375.66761    426.45396    865.08674    38369.369 
   35100    312.87997   -1238.0057    348.56583    524.43591    1234.7291    38369.369 
   35200    304.53973   -1249.0347    370.97252    498.12486    762.57509    38369.369 
   35300     301.6944   -1219.0132     374.2457    518.56175    536.30503    38369.369 
   35400    301.35891   -1232.6748    366.24563    495.38396    67.632155    38369.369 
   35500    309.08486    -1235.378    393.53322    554.88124    283.97358    38369.369 
   35600    309.38463   -1205.1748    335.41214    528.31804   -37.239179    38369.369 
   35700    310.93044   -1223.8161    372.62857     553.8785    44.403144    38369.369 
   35800    305.44666   -1266.2208    354.76455    468.82907    666.53033    38369.369 
   35900    305.52339   -1271.6875     365.3961    474.34073    328.26692    38369.369 
   36000    311.91401   -1231.0983    373.44505    551.85749    449.31175    38369.369 
   36100    302.49614   -1233.9016    340.83861    473.88931   -258.42997    38369.369 
   36200    291.99677   -1214.9419    371.10345    475.66812     -128.242    38369.369 
   36300     304.1137   -1221.3827    373.28075    526.15988   -79.877886    38369.369 
   36400    309.06477   -1226.3166     377.9096    548.22831    250.12404    38369.369 
   36500    292.96423   -1211.6617    363.44706     475.6638    9.9338077    38369.369 
   36600    296.26326   -1240.6654    386.18057    484.30161    676.29898    38369.369 
   36700     307.6898   -1257.1655    347.75452    481.01096    479.80872    38369.369 
   36800    296.94083   -1259.6881    369.23046     451.3907    296.66783    38369.369 
   36900    303.41586   -1248.4265    384.59096    507.27285    605.04265    38369.369 
   37000    296.29503   -1257.0655    368.08472    449.94922    207.28351    38369.369 
   37100    296.20935    -1231.355     375.8962    483.08399   -12.367128    38369.369 
   37200    305.19337    -1203.794    354.65009     529.9968    224.32477    38369.369 
   37300    299.34805   -1234.3058    341.97254      460.393   -437.67721    38369.369 
   37400    306.26897   -1263.3304    380.76297    501.43389   -208.14229    38369.369 
   37500    291.50229   -1269.5095    384.80058    432.56312    14.843333    38369.369 
   37600    297.71669   -1252.7392    370.01671    462.63186   -242.34263    38369.369 
   37700    294.81395   -1221.4737     385.7949    496.55836   -335.68485    38369.369 
   37800    296.03116   -1270.0779      366.396    434.05569   -61.874191    38369.369 
   37900    305.61967   -1261.2374    361.90048    481.73029   -386.59373    38369.369 
   38000    302.35122   -1250.1852    377.21197    493.32411   -145.54892    38369.369 
   38100    302.23174   -1234.7176     379.9574    510.99724   -399.74465    38369.369 
   38200    299.74627   -1239.3381    374.32471     489.5124   -154.95399    38369.369 
   38300    306.82763   -1229.4369    389.19721     546.2862    40.622288    38369.369 
   38400    303.80598    -1251.808    358.11198    479.17531    -54.66707    38369.369 
   38500    300.36295   -1262.8463    404.62894    499.09518    169.02879    38369.369 
   38600    297.46516   -1250.6343    372.96161    466.54504    217.68448    38369.369 
   38700    307.81141   -1242.8398    386.75231    534.88397    224.20374    38369.369 
   38800    301.50182   -1207.3676    394.49313    549.58455    671.94763    38369.369 
   38900    288.70726   -1219.7135    383.16226    468.09025    188.79775    38369.369 
   39000    299.08768   -1231.4526    385.17353    505.27065    359.68974    38369.369 
   39100    298.35668   -1233.4196    391.26039    506.08717    162.97646    38369.369 
   39200    295.48345   -1229.9447     377.1939    482.51178    789.86769    38369.369 
   39300    295.59169   -1249.2688    393.57117    480.05408    341.56652    38369.369 
   39400    287.17479   -1303.9254    366.37939    360.17047      242.463    38369.369 
   39500    302.83757   -1274.2757    368.67459    462.89404    538.24964    38369.369 
   39600    295.35592    -1204.189    361.58381     492.0811   -377.70865    38369.369 
   39700    308.02839   -1263.9024    365.05958    493.10921   -270.63052    38369.369 
   39800    300.76391   -1273.6669    358.05631    443.51391    96.109954    38369.369 
   39900     301.1582   -1225.9152    363.75859    498.74957    395.48851    38369.369 
   40000    294.23823   -1253.3495    383.52136    459.80736     310.2045    38369.369 
   40100     301.7916   -1253.9804    373.83216    483.62025    98.683705    38369.369 
   40200    301.42347   -1288.1828    375.14245     449.0646    106.42446    38369.369 
   40300    306.93965   -1307.9279    379.30708     458.4112    42.678265    38369.369 
   40400    302.25827   -1242.7896    385.96728    509.05497    235.22891    38369.369 
   40500    297.60184   -1249.4042    387.00041     482.4316    547.63709    38369.369 
   40600    294.20923   -1262.9559    374.14796    440.69647    494.98893    38369.369 
   40700    302.25417   -1241.9501    362.37489    486.28359    698.77512    38369.369 
   40800     300.1107   -1246.7245    375.11713    484.56529    174.29612    38369.369 
   40900    296.90768   -1272.9205    370.09724     438.8752    349.17131    38369.369 
   41000    301.74446   -1285.6973    350.94139    428.79957    292.50654    38369.369 
   41100    305.16503   -1276.2039    360.58758    463.39638    339.63468    38369.369 
   41200     290.5223   -1301.0721    358.32724    370.09867   -276.56024    38369.369 
   41300    296.66192    -1282.384    372.47316    430.67705   -167.97684    38369.369 
   41400    302.63159   -1245.5533    381.88663    503.89766   -312.43662    38369.369 
   41500    314.84426   -1252.4381    384.18176    554.49594   -314.71843    38369.369 
   41600    293.27556   -1244.0601    388.52928    469.75443   -361.46491    38369.369 
   41700    292.31004   -1241.9888    379.26999    458.20337   -152.52413    38369.369 
   41800    303.07791   -1240.6091    391.32363    520.29575    494.71203    38369.369 
   41900    296.24383   -1278.8582    375.38202    435.22243    322.88319    38369.369 
   42000    306.93788   -1297.3869     345.5302    435.16734    368.73415    38369.369 
   42100    287.40726    -1267.385    386.71872    418.10066    349.58527    38369.369 
   42200    295.72132   -1251.2082    365.05783    450.18703     154.2385    38369.369 
   42300    308.14688    -1246.631    372.35166    518.20811    751.06145    38369.369 
   42400    301.02079   -1263.7299    379.03401     475.5894    269.16636    38369.369 
   42500    291.89633    -1323.604    374.74781    370.19652    68.475571    38369.369 
   42600    292.61672   -1288.7683     381.0532    414.59296    548.74682    38369.369 
   42700     290.2841   -1306.6551    381.08051    386.19257    36.584042    38369.369 
   42800    294.07828   -1281.8526    394.27442    441.33455   -28.020437    38369.369 
   42900    300.06825   -1245.3524    379.32952    489.95794    91.102239    38369.369 
   43000    302.60542   -1267.6745    359.12158    458.89313    329.39937    38369.369 
   43100    303.45782   -1316.5937    397.95396    452.65829    609.63905    38369.369 
   43200     302.0975   -1301.5542    404.04783    467.64445    330.83347    38369.369 
   43300    313.16619   -1302.7917    369.10884    481.48637    344.11426    38369.369 
   43400    290.09963   -1295.5035    364.49663    379.92669    539.82705    38369.369 
   43500     304.5968   -1299.3013    397.29195    474.43561    257.51413    38369.369 
   43600    291.22844   -1310.0652    398.13461    404.10394    422.38554    38369.369 
   43700    293.07426   -1291.6739    390.61597    423.31768    357.75816    38369.369 
   43800    298.63066   -1346.5159    388.52536    391.49394    640.99785    38369.369 
   43900    295.42536   -1348.5906     381.5076    367.91704    426.89288    38369.369 
   44000    304.97956   -1335.4503    381.10333    423.82766    390.52058    38369.369 
   44100    304.52405   -1334.7383    388.85614    430.23407   -278.82805    38369.369 
   44200    303.23489    -1293.917      390.739    467.11255    455.83359    38369.369 
   44300    299.60774   -1278.7242    383.07526     458.2509    329.38366    38369.369 
   44400    291.68643   -1337.1721    390.04832    370.98041    525.97387    38369.369 
   44500    291.41937   -1317.9741     390.4986    389.42183     752.8983    38369.369 
   44600    300.62979    -1281.746    392.79949    469.57184     775.5795    38369.369 
   44700    293.24571   -1284.3151     393.8273    434.66262    775.66949    38369.369 
   44800    307.72445   -1273.5165    378.98509     496.0471     645.7963    38369.369 
   44900    290.44821   -1264.6983    394.53661    442.34701    468.55403    38369.369 
   45000    312.59409   -1245.9576    376.52902    543.15532    473.98732    38369.369 
   45100    298.02246   -1264.2505    377.88922    460.37485    133.86914    38369.369 
   45200     289.9604   -1255.9093    361.25654    415.65165   -286.65433    38369.369 
   45300    292.81898   -1263.6554    383.71078    443.27741    353.23509    38369.369 
   45400    300.04688   -1312.4745    370.89875    414.30847  0.014971462    38369.369 
   45500    298.53797   -1300.4065    371.04101    419.70019    240.97023    38369.369 
   45600    297.53508   -1272.1713    402.75261    475.11499   -23.983401    38369.369 
   45700    298.92369    -1288.787    388.87213    450.89375    85.246157    38369.369 
   45800    301.12629   -1284.3935    412.77431    489.14281    30.104795    38369.369 
   45900    302.93582   -1326.4034    381.61525    424.15094     87.31002    38369.369 
   46000     290.0214   -1303.9382    377.04728    383.68914   -136.29671    38369.369 
   46100    292.11322   -1367.9139    380.73218    332.85105    347.40474    38369.369 
   46200    292.64699   -1299.7842    394.21466    416.87534    95.253537    38369.369 
   46300    293.69271   -1307.1809    397.55735     417.5468    116.89958    38369.369 
   46400    305.43193   -1311.7498    401.19902    469.66798    151.03675    38369.369 
   46500    304.36858   -1287.8349    419.41177    506.99049    103.21128    38369.369 
   46600    299.94292   -1275.3701    410.30648     490.3509    294.97998    38369.369 
   46700    298.01494   -1274.3858    415.11303    487.42937   -51.191778    38369.369 
   46800    295.89293   -1287.8561    398.40479    447.66163    237.98236    38369.369 
   46900    294.82397   -1300.4538    382.77494    414.60359   -86.015929    38369.369 
   47000    291.03612   -1307.2656    402.76016    410.66001    223.68569    38369.369 
   47100    300.51247   -1298.0338     407.1864    467.14084    60.172328    38369.369 
   47200    300.36743    -1288.759    441.65105    510.22486    -66.27368    38369.369 
   47300    300.57255   -1273.0833    400.51689    485.69331    176.12288    38369.369 
   47400    306.67324   -1248.6267    398.40457    535.60599   -103.38673    38369.369 
   47500    288.03184    -1300.158    406.56679     407.9982   -7.6733328    38369.369 
   47600    304.19104   -1280.6543    390.72318    484.68015   -35.841791    38369.369 
   47700    304.15795   -1275.7337    417.77514     516.5032    138.06949    38369.369 
   47800    298.54799   -1307.0175    420.51065    462.60408    604.53171    38369.369 
   47900    302.08881   -1254.6569     426.0734    536.52806    840.41497    38369.369 
   48000    307.40974   -1286.2408    413.78862    516.70417    225.52323    38369.369 
   48100    307.34746   -1293.3532    410.47167    505.99335   -79.292464    38369.369 
   48200    301.74173   -1244.5605    416.43428    535.41689    274.63252    38369.369 
   48300    288.55685   -1265.1356    399.11744    437.94377   -1.7630345    38369.369 
   48400    309.22646   -1254.6683    415.56544    558.26303    383.24995    38369.369 
   48500    293.98358   -1274.3526    392.18253     446.3147   -140.02059    38369.369 
   48600    293.29151   -1289.6294    405.49364    441.22157   -452.80736    38369.369 
   48700    312.50702    -1284.259    411.09376    539.02527   -188.91784    38369.369 
   48800    305.60739   -1267.5593    398.01273    511.46513   -193.47174    38369.369 
   48900    308.41229   -1254.7977    407.33607    546.22516     79.97536    38369.369 
   49000    296.84672   -1271.0706    382.73859    453.09105   -287.30326    38369.369 
   49100    303.54222   -1234.7819    420.83651    557.73399   -330.61741    38369.369 
   49200    305.32038   -1214.1171    423.66514     589.2628   -295.22873    38369.369 
   49300    302.48716   -1259.0234    395.37615    503.26447     -141.783    38369.369 
   49400    309.03919   -1291.7733    406.89006    511.63642   -80.210365    38369.369 
   49500    298.51739   -1277.2966    416.22411    487.90012    296.74065    38369.369 
   49600    288.44412   -1268.2812    403.80941    438.98064    94.851023    38369.369 
   49700    302.39027   -1231.7224    404.93265    539.68411    335.89671    38369.369 
   49800    301.33033    -1220.443    404.20739    545.44848    57.091761    38369.369 
   49900    300.58927   -1263.4495    410.87901    505.76474    47.124665    38369.369 
   50000     296.2429   -1231.4106    395.29582    502.57965    101.85219    38369.369 
   50100    307.80175   -1294.0647    392.50649    489.36957    195.72386    38369.369 
   50200    299.71494   -1302.0703    420.99841    473.31231    248.48065    38369.369 
   50300    301.32021   -1296.8208    404.28513    469.10267    142.68401    38369.369 
   50400    290.54304   -1303.3541    368.37748    377.96065    138.64937    38369.369 
   50500    293.53992   -1326.8384    399.35065    398.99213    186.59537    38369.369 
   50600    304.03102   -1312.1739    398.20418    459.91848    99.019073    38369.369 
   50700    304.14777   -1319.8153     411.3601     465.9606    309.02208    38369.369 
   50800    295.41726   -1306.7014      416.458    444.72004    18.118833    38369.369 
   50900    303.26782   -1294.5881    398.71973    474.57099    353.44595    38369.369 
   51000     303.3933   -1310.9297    411.90141    471.97817    410.42441    38369.369 
   51100    298.86683   -1318.1291    396.91998    429.34257    249.41583    38369.369 
   51200    290.07537   -1252.7011    401.05518    459.17799    602.03055    38369.369 
   51300    297.43026   -1322.5599    422.23005    443.73016    566.19759    38369.369 
   51400    308.03419   -1295.3239    401.34081    497.99507      646.703    38369.369 
   51500    302.50304   -1288.0932     414.6794    493.56961   -49.578471    38369.369 
   51600    308.96771   -1267.7284    412.69475    541.16299    447.87687    38369.369 
   51700    312.86789   -1306.0399    413.67887    521.46024     214.0975    38369.369 
   51800    308.03589   -1299.1712    414.12541    506.94013    447.51761    38369.369 
   51900    291.97816    -1291.443    387.19677    415.17617    102.44771    38369.369 
   52000    307.26878   -1311.4781    396.81662    473.85792    686.63468    38369.369 
   52100    297.41475   -1316.0599    392.38576    420.31577    89.458912    38369.369 
   52200    312.89723   -1253.0601    404.62184    565.51554     174.7727    38369.369 
   52300    304.69995    -1275.683    410.89599    512.12398   -426.49592    38369.369 
   52400    295.63509   -1294.9196    427.76066    468.78881    73.093832    38369.369 
   52500    294.01666   -1268.9967    412.82039    472.45797    413.41091    38369.369 
   52600    294.01434   -1308.2757    406.07544    426.42353    402.25734    38369.369 
   52700    294.44211    -1330.823     397.0652    396.79907    95.808402    38369.369 
   52800    298.44405   -1339.8287    414.63481     423.4473    615.11541    38369.369 
   52900    298.74228   -1335.1868    445.50615    460.30822    766.97781    38369.369 
   53000    300.09269   -1353.0817    399.01747     402.0271     281.3755    38369.369 
   53100     293.9612   -1348.1154    433.75538    414.02361    301.08428    38369.369 
   53200    297.01968   -1344.0452    418.70212    416.86153    251.40409    38369.369 
   53300      299.953   -1300.0746    414.29262    469.67809    381.59756    38369.369 
   53400    302.88169   -1292.8426    430.96707    506.81893    226.05783    38369.369 
   53500    305.36389   -1300.6147    400.96489    480.26154    367.23322    38369.369 
   53600    295.52625   -1352.8795    428.76255    411.33897    236.75481    38369.369 
   53700    299.63844   -1374.1815    410.14999    390.00705    353.34019    38369.369 
   53800    297.42952   -1336.7109     421.6876    429.03331    602.26496    38369.369 
   53900    296.23708   -1315.0876    427.82343    451.40395    881.81448    38369.369 
   54000     300.4368   -1305.8218      406.893    458.71741    1037.9493    38369.369 
   54100    291.65077   -1262.4003    426.87121    482.41388    420.37536    38369.369 
   54200     304.1384   -1274.3964    427.23985    527.21695    340.31003    38369.369 
   54300     307.6306   -1311.0989    434.67985    513.73535    349.97829    38369.369 
   54400    303.07341   -1277.4854    436.01369    528.08911   -203.06137    38369.369 
   54500    297.54123   -1299.5347    431.60144    476.62813    188.10087    38369.369 
   54600    296.81681   -1302.1691    425.39795    464.51673   -109.83436    38369.369 
   54700    293.81441   -1314.9769    441.01028    453.75367   -119.41622    38369.369 
   54800     306.0954   -1302.4121    405.56469    486.36952   -372.47711    38369.369 
   54900    303.83143    -1306.577    427.65549    494.06476   -279.71588    38369.369 
   55000    294.48388   -1323.2347    397.34017    404.85102   -424.66765    38369.369 
   55100    302.14974   -1335.9764    415.56398    444.97446   -354.46228    38369.369 
   55200    300.31934   -1301.1519    426.45802     482.4216    128.52883    38369.369 
   55300     300.0452   -1314.9782    419.02959    459.92803   -139.15387    38369.369 
   55400    291.84876   -1318.8761    419.32974    419.29131     420.6369    38369.369 
   55500    308.95183   -1319.1507    411.20117    488.17539    499.68097    38369.369 
   55600    289.99759   -1355.5762    411.19136    366.08757    287.57544    38369.369 
   55700    298.36869   -1330.6887    412.30735    429.91928    186.33495    38369.369 
   55800    301.29803   -1321.9332    416.54683     456.1517    288.33958    38369.369 
   55900    297.57741   -1303.5518    399.51325    440.68642    443.63231    38369.369 
   56000    306.29303   -1285.5022    436.26225    534.87008    510.97758    38369.369 
   56100    308.08438   -1295.9236    419.41515    515.69658    118.55909    38369.369 
   56200    308.06814   -1294.4402    425.06508    522.75643   -145.86747    38369.369 
   56300    299.94884   -1287.3807    441.66065    509.72118   -689.75868    38369.369 
   56400    293.06142   -1274.4202    433.35643    483.25386   -686.61471    38369.369 
   56500    304.94283    -1310.721    407.32327    474.61082   -202.29501    38369.369 
   56600    297.75847    -1307.886    412.57466    450.23176    -205.1838    38369.369 
   56700    288.98789   -1297.6458    415.81506      424.079    -615.3585    38369.369 
   56800    291.15278   -1297.7735    408.07502     425.9942   -300.79624    38369.369 
   56900    307.44492   -1335.4974    431.07335    484.89129    660.45592    38369.369 
   57000    289.86601    -1316.895    461.12142    454.10429    1197.6504    38369.369 
   57100    295.98163   -1277.2149    458.51936    518.81818    647.90444    38369.369 
   57200    300.75727    -1310.394    443.65443    492.35485    149.07924    38369.369 
   57300      302.514   -1291.8802    429.95987    505.11261    201.14823    38369.369 
   57400    294.64478   -1276.4442    404.16931    459.19773   -15.425389    38369.369 
   57500    297.36301   -1306.6567    426.10987    463.20925   -324.94855    38369.369 
   57600    301.99888   -1329.7994    429.17823    464.08399   -212.18249    38369.369 
   57700    303.86795    -1354.076    418.92577    438.00106    676.15139    38369.369 
   57800    305.92401   -1383.8731    421.52565    420.09503    364.95225    38369.369 
   57900     303.3845    -1375.408     405.2823    400.84096    358.65454    38369.369 
   58000    297.14571   -1365.3037    437.19612     414.6666    353.45421    38369.369 
   58100    300.94837   -1319.7041    417.99134    458.24523    643.46031    38369.369 
   58200    299.39781   -1328.9842    427.61452    451.58143    82.180302    38369.369 
   58300    296.10769   -1309.9387    417.54023    445.68495   -187.39022    38369.369 
   58400    293.88286   -1349.7938    416.19394    394.42977    128.12692    38369.369 
   58500    303.05834    -1309.244    422.80395    483.05278    282.17331    38369.369 
   58600    292.70091   -1333.9609    411.63426    400.36186   -57.532304    38369.369 
   58700    307.07296   -1278.4848    435.34223    544.49189    258.45973    38369.369 
   58800    294.01016   -1321.3537    445.71863    452.96979   -181.24012    38369.369 
   58900    307.48531   -1292.5464     437.4282    534.37963    52.929824    38369.369 
   59000    287.69976    -1322.091    411.77574    389.77351   -417.72985    38369.369 
   59100     292.0525   -1326.5805    441.05566    434.23354   -817.51807    38369.369 
   59200     300.1277   -1305.8234    443.10819    493.53423   -301.93547    38369.369 
   59300    298.58451   -1291.8775    452.06183    509.46029   -259.73457    38369.369 
   59400    301.24083   -1323.9366    443.59809    480.94116   -129.08352    38369.369 
   59500    293.82763   -1300.6195    447.81328    474.97384   -28.528647    38369.369 
   59600    291.91734   -1316.4124    425.83586    428.57103   -72.395401    38369.369 
   59700    299.47515    -1328.814    419.17994    443.66655    57.156589    38369.369 
   59800    284.05681     -1328.61    416.65203    371.66862   -22.861934    38369.369 
   59900    296.58465   -1289.3962    440.12784    490.97037    211.66623    38369.369 
   60000    299.46912   -1357.6351    423.09968    418.73801    414.15218    38369.369 
   60100    300.87839   -1349.8512    425.66142    435.45205    137.88507    38369.369 
   60200    291.86788   -1329.3869    425.51996    415.05713    76.771419    38369.369 
   60300    305.05152   -1345.2728    428.89167     462.1186   -226.88192    38369.369 
   60400    311.15591   -1349.7625    407.52955    463.85195    371.75523    38369.369 
   60500    294.56706   -1366.0269    429.29338    394.38796    443.28821    38369.369 
   60600    295.14204   -1364.5396    437.86839    407.04852    522.79252    38369.369 
   60700     306.3437   -1343.7389     430.3804    470.98045    237.77104    38369.369 
   60800    302.82517    -1317.501    443.67732     494.6154   -590.24497    38369.369 
   60900    297.70904   -1344.9029    434.70075     435.1176   -113.56227    38369.369 
   61000    301.19867   -1312.1566    427.83141    476.76386   -226.40614    38369.369 
   61100    290.06147   -1339.8415    446.88732    417.80691   -40.634658    38369.369 
   61200    299.02285   -1346.7227    436.46304    440.99709   -266.02278    38369.369 
   61300    300.73171   -1351.2507    439.35264    447.08092   -208.25174    38369.369 
   61400    295.01343   -1355.6523    451.46471    428.95101   -30.131698    38369.369 
   61500    299.88938   -1406.4886    426.86306    375.54702   -315.33313    38369.369 
   61600    306.32477   -1376.8628    416.15716    423.54784   -540.34774    38369.369 
   61700    302.24287   -1339.6505    416.02384    442.18105   -480.66147    38369.369 
   61800    300.97729   -1339.8561    405.06812    425.30069   -519.60439    38369.369 
   61900    310.03979   -1365.8164    401.63558    436.86049   -750.81989    38369.369 
   62000     304.9658   -1336.2203    415.49565    457.38781   -800.87664    38369.369 
   62100    295.92881    -1366.411    413.98489    384.84897   -745.09751    38369.369 
   62200    294.75598   -1340.9729    419.33907     410.3413   -844.13814    38369.369 
   62300    310.17073   -1336.8474    428.48982    493.27538   -384.16034    38369.369 
   62400    294.29982   -1368.3972    455.52482    417.04144   -112.37514    38369.369 
   62500    301.99111   -1382.2392    432.60121     415.0321   -68.417782    38369.369 
   62600    308.88346    -1350.303     453.3146    498.82751    360.81635    38369.369 
   62700    309.95799   -1325.0562    433.58524    509.20067   -74.809192    38369.369 
   62800    296.50872   -1366.3724    424.70042    398.22362    308.23134    38369.369 
   62900    291.72462   -1344.2424    405.07626    379.11061    120.65738    38369.369 
   63000     306.2822   -1327.5256    427.03072    483.56625   -225.64342    38369.369 
   63100    304.53027   -1366.2656    404.99853    414.87723    200.89596    38369.369 
   63200    297.86781   -1374.6266    412.78029    384.19087    12.613722    38369.369 
   63300     294.9142   -1374.8288    392.82817    350.68955    553.25712    38369.369 
   63400    297.82346   -1366.1842    410.65452     390.3071    580.77636    38369.369 
   63500     289.6265   -1404.4332    429.62644    333.98874    111.38477    38369.369 
   63600    288.28898   -1414.2192    408.46953    297.00171    728.59648    38369.369 
   63700     298.1315   -1440.5466    435.45388     342.1361      928.642    38369.369 
   63800    295.63381   -1400.6984    421.98039    357.22393    802.13499    38369.369 
   63900    296.62701   -1405.5224    432.16399    367.07175    452.52964    38369.369 
   64000    290.97009   -1414.5049    422.64242    323.00459    391.13792    38369.369 
   64100    304.28495   -1362.2136    404.45461    417.27673    326.91107    38369.369 
   64200    300.53549   -1364.9826     430.2627    423.37232    663.23649    38369.369 
   64300    295.71811   -1428.0228    419.56375    327.86394    376.49739    38369.369 
   64400    293.02082   -1404.0376    421.88521    341.98178   -82.719515    38369.369 
   64500     280.5729    -1426.238    429.17556    270.82064   -308.43177    38369.369 
   64600    305.72054   -1336.8792    421.08149    465.72532    22.908125    38369.369 
   64700    310.75712   -1349.0731    439.34598    494.55571   -156.66035    38369.369 
   64800    314.99894   -1346.4048    425.90822    502.95467   -21.563851    38369.369 
   64900    298.17288   -1375.7368    427.17076    398.84978    116.31202    38369.369 
   65000     300.2644    -1368.301    431.61897    420.18513   -331.83015    38369.369 
   65100    311.06448   -1353.7708    414.00836     465.9093    -262.3227    38369.369 
   65200    297.42343   -1354.8287    435.11974    424.32011   -55.951984    38369.369 
   65300    302.84386   -1362.4513    418.65499    424.72724    385.57177    38369.369 
   65400    300.62948   -1348.4438    434.29792    444.37107   -24.283564    38369.369 
   65500    284.14206   -1374.2525    398.24045    307.99982    111.51525    38369.369 
   65600    303.54371   -1371.6336     408.5602    408.61269    683.87388    38369.369 
   65700    310.30094    -1345.884    445.33602    501.67338    384.66076    38369.369 
   65800    307.15737   -1383.5223    396.53542    401.02909    278.39387    38369.369 
   65900    305.94285   -1363.3925    454.19446    473.32963    778.05239    38369.369 
   66000    307.54595   -1388.9556    421.69849    422.51469    101.50301    38369.369 
   66100    293.93219   -1393.6294    428.59996    363.22309    307.60638    38369.369 
   66200    306.20748   -1333.0441    431.50595    482.18532     152.5214    38369.369 
   66300    300.02105    -1315.071    415.11229    455.80885   -171.18021    38369.369 
   66400     296.8424   -1331.8543     447.4099    456.95916    346.21893    38369.369 
   66500     303.9543   -1338.5744    469.65635    504.62346    800.40335    38369.369 
   66600    294.34818   -1337.6242    458.83973    451.34784    365.77153    38369.369 
   66700    290.24286   -1333.0053    429.01239    407.58792   -214.88887    38369.369 
   66800    295.12598   -1344.6884    423.29088    412.24964   -347.48183    38369.369 
   66900    301.76223   -1355.1918     418.9252    427.36919   -155.27117    38369.369 
   67000     298.9624   -1357.5411    435.87807    429.32054    371.53604    38369.369 
   67100    294.86281   -1395.1923    423.79272    361.05839    403.97773    38369.369 
   67200    305.85659   -1353.0714    452.18492    481.25134    378.06525    38369.369 
   67300    313.62457   -1325.0804     413.6095     505.7697    544.47165    38369.369 
   67400    301.06693   -1373.5479    426.36651    413.31235    499.98825    38369.369 
   67500    302.72704   -1345.2431    430.46711    453.21961    235.37368    38369.369 
   67600    306.51687   -1383.8125    412.12024    413.42929   -50.097317    38369.369 
   67700    298.44395   -1354.0445    448.58795    443.18426   -232.23034    38369.369 
   67800    296.15908   -1330.8886    447.20622    454.63321   -321.04547    38369.369 
   67900    308.70245   -1350.6596    437.50522     481.8436   -899.04123    38369.369 
   68000    303.68903   -1350.4781    438.36563    460.23033    -469.0112    38369.369 
   68100    295.57571   -1274.9716    449.87367    510.58157   -53.614504    38369.369 
   68200    302.16335   -1359.7776     430.0462    435.71701    23.723142    38369.369 
   68300    294.53346   -1316.8844    425.69785    439.78307    54.121911    38369.369 
   68400    288.45854   -1320.1927    450.35991    433.68484    36.385065    38369.369 
   68500    307.61197   -1368.8729    432.08431    453.28162    535.95329    38369.369 
   68600    292.57402   -1288.6067    445.36595    478.87435   -68.131268    38369.369 
   68700    306.72268   -1311.0258    441.01995    516.04579   -31.714684    38369.369 
   68800    302.76309   -1343.1449    464.05406    489.06768   -89.911645    38369.369 
   68900    291.34565    -1361.294    434.56254    389.83272    403.18511    38369.369 
   69000    298.74282   -1305.8189    428.00237    472.17478    7.0421561    38369.369 
   69100    295.45518    -1355.662    425.98091    405.45366    166.36603    38369.369 
   69200    302.93571   -1315.3443    423.31435    476.90866   -364.32215    38369.369 
   69300    289.01386   -1374.3182    449.99698    381.70584    137.17101    38369.369 
   69400    298.50113   -1344.5715     433.5431    437.87078    262.79781    38369.369 
   69500     296.6779    -1363.177    428.89579    406.37896    184.07184    38369.369 
   69600    302.56746   -1299.4649    444.90714    512.71675    112.70534    38369.369 
   69700    294.10542   -1319.5748    454.93362    464.39411    277.27831    38369.369 
   69800    306.69021   -1337.7718    455.40557    503.53866     449.2423    38369.369 
   69900    291.63217   -1341.7727    424.66856    400.75486    255.49459    38369.369 
   70000    301.47938   -1349.1974    432.25595    445.41617    659.07535    38369.369 
   70100    304.26365   -1335.8413    453.19655    492.29475    250.58876    38369.369 
   70200    303.62318   -1342.9625    426.20529    455.28797      228.123    38369.369 
   70300    290.99232   -1352.9902    444.10087    406.07815    308.02236    38369.369 
   70400    294.17328   -1334.9157    455.68782    450.11412    286.51451    38369.369 
   70500    311.97145   -1394.4315    438.49624    453.83502    278.31974    38369.369 
   70600    309.01863   -1353.1833    452.39743    495.64092   -362.65614    38369.369 
   70700    299.62138   -1352.9354    459.76097    460.78706   -274.01945    38369.369 
   70800    302.26782   -1331.6034    457.65552    491.97256   -175.96021    38369.369 
   70900    292.94513   -1347.6192     439.3314    415.50428    259.12558    38369.369 
   71000    295.02644    -1341.507     426.7602    418.45058   -155.31602    38369.369 
   71100    297.29801   -1344.8676    445.93304    444.52784    37.646008    38369.369 
   71200    302.33286   -1327.6542    469.80347     508.3636      464.813    38369.369 
   71300    317.62138   -1306.8812    430.08278    558.50339   -158.14802    38369.369 
   71400    301.23251   -1341.5167    452.46179    472.18708    108.36425    38369.369 
   71500    285.90994   -1323.8291    438.55136      406.723     514.5692    38369.369 
   71600    304.58162   -1378.4303    438.55866    436.50471    789.60494    38369.369 
   71700    293.32427   -1399.1299    456.60217     382.9777    775.75031    38369.369 
   71800     301.6766   -1398.1853    448.53572    413.59923    875.07381    38369.369 
   71900    310.34975   -1384.4997     447.9041    465.84638    225.12192    38369.369 
   72000    293.51697   -1361.6813    460.29577     424.9907    417.40882    38369.369 
   72100    306.75618   -1352.0339    448.18815    482.35719     345.9187    38369.369 
   72200    294.96591   -1352.7538    449.08203    429.25203     345.7813    38369.369 
   72300    294.40317   -1369.5639    429.65453    390.47148    308.40305    38369.369 
   72400    300.90823   -1362.1612    469.46585    467.08122   -462.24385    38369.369 
   72500    306.25536   -1346.5471    456.69056    494.08325    16.675061    38369.369 
   72600    307.43196   -1373.7057    440.21485    455.76586   -203.60102    38369.369 
   72700    296.63611    -1368.454    451.69541    423.71274   -169.05075    38369.369 
   72800    302.29671   -1365.5517    460.45179    460.95111    254.05652    38369.369 
   72900    297.67257   -1416.4777    451.08022     379.7575   -394.34792    38369.369 
   73000    306.75535   -1394.3854    432.67175    424.48559   -328.28907    38369.369 
   73100    299.11096    -1396.881     446.6427    401.41656   -324.38518    38369.369 
   73200    291.95715    -1310.698    471.08958    479.71912    8.7185751    38369.369 
   73300    302.29027   -1387.7736    444.84128    423.08963    -154.8396    38369.369 
   73400    300.32758   -1383.6406    435.92785    409.44002   -496.58693    38369.369 
   73500    294.20012   -1368.0679    441.61996    403.01539   -425.03349    38369.369 
   73600    301.10056   -1344.4472     434.7474    450.94589   -187.61669    38369.369 
   73700    306.62274   -1357.2461     457.0702    485.42404   -414.81437    38369.369 
   73800    306.48544   -1323.1424    441.98697    503.82406    49.916727    38369.369 
   73900    297.89386   -1344.9003    449.58607    450.84077    9.9341777    38369.369 
   74000      304.718   -1373.8375    412.25049    415.40557    105.29225    38369.369 
   74100    303.79275   -1387.1995    444.99931    430.61131   -223.37525    38369.369 
   74200    316.49071    -1366.293    432.51902    496.41845    213.08658    38369.369 
   74300    294.98769   -1354.4621    440.69896    419.25914   -146.77642    38369.369 
   74400    299.62142   -1389.8118    448.62166    412.77147   -773.32326    38369.369 
   74500    294.74011   -1364.0069    447.25594    415.15245    259.01813    38369.369 
   74600    295.20723   -1362.5208    448.37507    419.86854     400.1654    38369.369 
   74700    292.48759   -1382.4873    450.30587    389.54309    213.48259    38369.369 
   74800    291.59322   -1388.1262    447.56606    377.12278    538.30328    38369.369 
   74900    307.10815   -1381.5475    457.29967    463.54567    866.18204    38369.369 
   75000    299.96643   -1375.5059    430.92611    410.94087     658.9109    38369.369 
   75100    298.04188   -1358.4737    451.12682    439.47702   -230.47843    38369.369 
   75200    303.76569   -1399.6986    442.27525     415.2659    392.59301    38369.369 
   75300    294.06224   -1377.2316     458.2022    409.81079    183.16388    38369.369 
   75400    305.92755   -1357.7178    460.52329    485.26399    444.99286    38369.369 
   75500    301.64416   -1393.9206    447.51495    416.69655   -16.159424    38369.369 
   75600    292.62191   -1345.7814    457.42036    433.97044    -262.7536    38369.369 
   75700    302.09908   -1372.0255    457.77154    450.90403   -431.86715    38369.369 
   75800    295.97886   -1346.0917    467.13002    458.53954      163.747    38369.369 
   75900     289.9651    -1365.167     448.8955    394.05416    267.44023    38369.369 
   76000    300.91059   -1351.0328    439.66378     448.4182   -13.980533    38369.369 
   76100    287.75706   -1321.4901    432.11122     410.9688   -569.31192    38369.369 
   76200    303.00421   -1311.4645     427.6323    485.41593   -404.20546    38369.369 
   76300     301.8161   -1309.6575    446.89805    501.11973   -294.71544    38369.369 
   76400    295.71691   -1349.7645    462.33924    448.89225   -469.32414    38369.369 
   76500    308.63268   -1357.7618    433.35233     470.2732   -109.71244    38369.369 
   76600    295.28116   -1349.3324    453.82101    438.83701   -237.63892    38369.369 
   76700    303.63097   -1340.6216    450.59502    482.05383   -721.85273    38369.369 
   76800    292.80584   -1398.3578    440.91803    365.72288   -309.45851    38369.369 
   76900    310.13038   -1382.6704    449.56532    468.34554   -218.77179    38369.369 
   77000    279.21053   -1399.3187    450.76676    313.17475    206.32428    38369.369 
   77100    302.62804   -1357.2927    447.68618    457.94177    647.08891    38369.369 
   77200     292.8805   -1383.9429    432.18563    371.74273    344.25638    38369.369 
   77300    299.72221    -1412.485    464.19651    406.12863    450.06652    38369.369 
   77400    309.30395   -1391.5569    424.48038    430.63961    409.75092    38369.369 
   77500    304.94187   -1361.2378    447.98368    464.75012    747.30894    38369.369 
   77600    312.57163   -1354.0847    462.28764     520.6854   -267.57269    38369.369 
   77700    306.43623   -1377.9607    436.51968     443.3161   -190.88952    38369.369 
   77800    301.99779   -1334.8401    467.54351    497.40361    118.12952    38369.369 
   77900    295.72232   -1334.3401    466.41955    468.42145   -432.01852    38369.369 
   78000    301.42331   -1337.8045    478.11358    502.41326   -12.284432    38369.369 
   78100    293.63002   -1396.8022    453.98299    384.06784   -212.80437    38369.369 
   78200    297.62895   -1383.2077    428.96172    390.71183   -57.947957    38369.369 
   78300    295.41048   -1412.6961    434.11702     356.3537   -478.50301    38369.369 
   78400    304.08872   -1359.6391    482.91682    497.42667   -304.34496    38369.369 
   78500    296.00285   -1363.9008     441.5805    415.28938   -53.336762    38369.369 
   78600    297.38143   -1393.7889    468.22816    418.27864   -80.595211    38369.369 
   78700     303.5315   -1424.6486    448.70794    395.69029    516.07347    38369.369 
   78800    297.67889   -1401.4851    431.45299    375.15139    140.58017    38369.369 
   78900    290.01909   -1358.8096    462.47153    414.23151    411.12042    38369.369 
   79000    299.38961   -1379.4976    438.63041    412.04695    305.34956    38369.369 
   79100    299.20731   -1373.2585    483.89611    462.72794    188.24125    38369.369 
   79200     304.6576   -1398.8837    437.02132     414.8573   -125.26951    38369.369 
   79300    301.77702    -1376.353    441.07764    428.42726   -256.89825    38369.369 
   79400    296.06558   -1372.8035     479.3752    444.46486   -201.21377    38369.369 
   79500    289.76117   -1365.8111    441.06251    384.65553   -507.99257    38369.369 
   79600     292.9312   -1360.6652    463.81729    426.88125    -499.2621    38369.369 
   79700    304.91605    -1320.467    473.56233    530.98294   -73.997782    38369.369 
   79800    309.36559    -1407.046    454.99873    445.94742   -846.46701    38369.369 
   79900     289.1064    -1355.712    469.24397    419.97728   -861.15758    38369.369 
   80000    304.48421   -1370.9934    459.50542    464.44816   -533.00185    38369.369 
   80100    297.52239   -1396.5774    444.23492    392.13389   -631.22264    38369.369 
   80200    303.97264   -1344.8421    457.34937    486.13162    226.54421    38369.369 
   80300     293.6961   -1379.6243    464.15314    411.71453   -69.238902    38369.369 
   80400    315.03835   -1399.0207    459.10227    483.71084    559.68154    38369.369 
   80500    303.04726   -1382.9601    448.83297    435.31562    757.67175    38369.369 
   80600    309.95334   -1372.9176    451.64487    479.37786    320.88619    38369.369 
   80700    303.20875   -1332.0591    457.06612    495.17953    823.71547    38369.369 
   80800    298.60323   -1343.8967    489.89542    495.35921    243.80583    38369.369 
   80900    305.62768    -1414.996    464.85882    430.96619     711.2581    38369.369 
   81000    300.00808   -1380.3086    463.35589    438.75626    1260.2643    38369.369 
   81100    303.64971   -1387.5967    463.75505    448.32345    651.62058    38369.369 
   81200    301.23335   -1376.5943    453.14067    437.79215    399.59299    38369.369 
   81300    290.92935   -1361.3711    448.03418    401.34608    207.67781    38369.369 
   81400    299.19871   -1374.1381    449.77713    427.69051    43.352883    38369.369 
   81500    305.46573   -1325.5791    475.51831    530.31073   -83.477769    38369.369 
   81600    301.68081   -1360.3396    457.53751    460.46576   -496.39582    38369.369 
   81700    302.84994   -1344.5768     460.6486     484.6228   -394.24569    38369.369 
   81800    294.85418    -1350.589    484.72024    466.55019   -128.07063    38369.369 
   81900    311.52663   -1351.1176    467.93625    524.57884    150.81835    38369.369 
   82000    307.29695   -1378.2663    481.66335    492.04368     264.4255    38369.369 
   82100    309.90755   -1376.0865    466.25719    490.61443    220.56099    38369.369 
   82200     307.5599    -1391.497    457.11504    455.45298    620.09487    38369.369 
   82300    296.13254   -1408.3747    452.81846    382.63947    234.35723    38369.369 
   82400    304.78304   -1408.5066    469.85645    438.63635    276.12182    38369.369 
   82500    303.17208   -1450.2185    465.15008    384.93829     463.3156    38369.369 
   82600    309.95545   -1451.6841    471.70913    420.68523   -7.0082072    38369.369 
   82700    294.96864   -1415.9198     440.1901    357.20644   -21.518284    38369.369 
   82800    291.13025   -1437.8083    462.90467    340.68719   -284.17875    38369.369 
   82900    298.50405   -1447.3045    477.99648    379.60429    587.06555    38369.369 
   83000    300.22955   -1396.9199    493.83573    453.62557   -155.15843    38369.369 
   83100    292.22854   -1406.9145     463.1804    376.81974    -751.4289    38369.369 
   83200    298.93068   -1397.8023    453.27255    406.31048   -539.52711    38369.369 
   83300    306.38705   -1391.2258    473.26616     466.5753   -798.99459    38369.369 
   83400    300.69825   -1379.0415    464.83756    444.62376    37.373371    38369.369 
   83500    306.08935   -1396.4587    457.36632    444.09726   -325.70606    38369.369 
   83600    296.57777   -1441.2213    468.93641    367.92273   -72.800896    38369.369 
   83700    297.11675   -1436.2189    440.95796    347.38235    508.88413    38369.369 
   83800    300.77628    -1410.777    459.36064    407.76397    174.69085    38369.369 
   83900    306.52803   -1428.7335    449.98859    406.42704    181.46249    38369.369 
   84000    303.35131   -1429.5317    464.69956    405.98456    367.12645    38369.369 
   84100    311.72432   -1477.9957    437.04886    367.70669    478.06316    38369.369 
   84200    289.55455   -1464.5334    444.94011    288.87708    512.52821    38369.369 
   84300     303.4782   -1451.2007    465.18657    385.37598    939.03012    38369.369 
   84400    298.15228   -1444.7337    469.97725    372.56625    993.73083    38369.369 
   84500    299.02349   -1437.2153    462.48478    376.52911    107.81236    38369.369 
   84600    305.28244   -1438.1205    473.19685    414.61961    126.94399    38369.369 
   84700    295.62694   -1426.4945    483.43604    392.85254    67.622016    38369.369 
   84800    305.82592   -1454.0811    465.36059    393.27874   -463.72849    38369.369 
   84900    297.23973   -1435.6396    443.23282    350.79218   -277.31996    38369.369 
   85000    306.36573   -1463.3718    457.18506    378.25187   -416.61638    38369.369 
   85100    296.47175   -1456.4724    462.80252    346.05869   -909.54332    38369.369 
   85200    303.49484   -1427.5321    467.97541    411.90862   -1008.4234    38369.369 
   85300    295.89013   -1397.0895    485.91297    425.92378   -436.01897    38369.369 
   85400    293.61775   -1432.2212    470.70023    365.31061    267.40067    38369.369 
   85500     302.9787   -1446.3684     447.0166    369.78112    14.629265    38369.369 
   85600    299.69157   -1450.0951    453.68055    357.86413    427.65636    38369.369 
   85700    300.25633   -1490.0952    481.78782    348.52331    536.70386    38369.369 
   85800    301.14295   -1477.4223    483.04939    366.46438    91.993661    38369.369 
   85900    305.46221   -1470.8043    461.53606    371.08741    189.87251    38369.369 
   86000    307.25435    -1448.905    464.04445    403.59357    6.1033354    38369.369 
   86100    305.16963   -1441.0104    468.98779    407.01093   -580.34829    38369.369 
   86200    292.18152   -1437.9111     476.8808    359.31108   -365.59866    38369.369 
   86300     295.2111   -1443.6489    464.91713    355.30001   -190.82325    38369.369 
   86400    309.14745    -1469.948    451.39194    378.45289    729.49745    38369.369 
   86500    309.96959   -1466.2713    470.56947    405.02218    827.27701    38369.369 
   86600    293.76707   -1442.8687    467.73107    352.36873    717.84424    38369.369 
   86700    301.35372   -1439.4234    482.61993    404.98625    504.14553    38369.369 
   86800    311.87227   -1402.9343    481.08961    487.47742   -203.26976    38369.369 
   86900    302.84719   -1454.2101    475.85884     390.1873   -268.51607    38369.369 
   87000      305.698   -1500.4014    464.58034    345.60009    16.566181    38369.369 
   87100    297.42307   -1449.4737    483.51975    378.07356    130.40249    38369.369 
   87200    304.40154   -1474.6662    489.31442     390.2108   -151.21547    38369.369 
   87300    289.64885   -1444.2663    489.92381    354.55397    195.86041    38369.369 
   87400    300.71609   -1473.0507     464.7637    350.62134   -105.96652    38369.369 
   87500    292.83706    -1488.512    462.44307    297.23479   -18.778061    38369.369 
   87600    308.48356   -1445.2829    466.64909    415.37507   -6.2983897    38369.369 
   87700    293.80501   -1475.3379    478.97574    331.31563    100.01431    38369.369 
   87800    306.79052   -1513.5949    445.76164    318.52493    81.723848    38369.369 
   87900    297.79801   -1479.1637    473.02652    339.58468    148.70167    38369.369 
   88000    290.56408   -1466.7548    460.05148    306.32908    206.37658    38369.369 
   88100    291.55524   -1506.5753    468.44379    279.37984    515.47943    38369.369 
   88200    306.57904   -1516.0678    471.68448    341.01919    438.63192    38369.369 
   88300    301.60689   -1473.6899    462.08406    351.32793    542.76289    38369.369 
   88400    303.62568   -1476.4441    459.90338    355.51574   -15.726186    38369.369 
   88500    298.67567   -1492.5036    451.20602    308.39028    470.61269    38369.369 
   88600    290.07001   -1457.6332    492.96399    346.13042    -208.0789    38369.369 
   88700    302.65941   -1467.5768    472.55407     372.6673  -0.78322832    38369.369 
   88800    298.60418   -1479.7197     467.3233    336.96841   -56.043203    38369.369 
   88900     305.5386   -1469.3959    494.88015    406.18513   -213.10898    38369.369 
   89000    306.85572   -1441.6287    475.62363    420.64768   -60.332489    38369.369 
   89100    298.05897   -1442.9021    493.04537    397.04436     175.5383    38369.369 
   89200    308.58196   -1454.1059    458.25307    398.60068   -29.967344    38369.369 
   89300    308.46496   -1437.4983    456.91516    413.34163   -400.18132    38369.369 
   89400    304.26988   -1487.0989     460.5587    348.42741   -417.71161    38369.369 
   89500     293.9112   -1446.6348    478.97382    360.49671    131.78791    38369.369 
   89600    296.18886   -1469.4874    509.93977    378.90261   -466.82745    38369.369 
   89700    304.10625   -1462.8802    458.63559    369.98358   -182.36181    38369.369 
   89800    303.50701   -1439.2694    471.83097    404.08188   -429.52095    38369.369 
   89900    300.59094   -1411.0052    465.70871    413.04636    -353.7902    38369.369 
   90000    301.01355   -1463.7703    456.96945    353.45168   -48.377399    38369.369 
   90100    293.49427   -1457.7684    457.41968    325.92487    246.87964    38369.369 
   90200    304.05267   -1429.2992    508.23727     452.9241    94.075162    38369.369 
   90300    305.51279   -1429.6799     458.3876    409.29196   -147.29172    38369.369 
   90400    294.39734   -1479.6175    436.48305    287.22009    51.378678    38369.369 
   90500    299.37029   -1435.6197    470.34231    387.54941   -608.58323    38369.369 
   90600    299.00893   -1432.6477    488.81151    407.35769   -539.17818    38369.369 
   90700    302.76906   -1425.2301    465.13246    408.08786   -1148.6172    38369.369 
   90800    293.82828   -1409.1745    454.49519    373.10369   -468.06512    38369.369 
   90900    306.91264   -1447.5022    497.10324      436.511    -299.6391    38369.369 
   91000    298.86464   -1416.2176    446.40817    380.73237   -84.231971    38369.369 
   91100    297.05364   -1405.5863    479.34393    416.11565   -327.15535    38369.369 
   91200    302.14973   -1451.3462    470.45398    384.49456    250.21359    38369.369 
   91300    298.12793   -1430.9143     471.5886    387.88699   -160.21638    38369.369 
   91400     300.3004   -1430.2871    469.20258    395.94537    310.15066    38369.369 
   91500    306.19085   -1405.1434    475.98254    454.48747    341.36095    38369.369 
   91600    303.18623   -1413.1986    490.89007    447.76216    403.05318    38369.369 
   91700    295.87758   -1390.2466    455.11119    401.90811    450.01686    38369.369 
   91800    299.70498   -1413.6935    474.81295    415.45871    429.80639    38369.369 
   91900    306.14778   -1427.7278    481.85721    437.58303    31.968427    38369.369 
   92000    308.55417   -1472.2877    449.06008    371.10024    153.83857    38369.369 
   92100    298.36035    -1451.128    454.62952    351.76447   -83.319765    38369.369 
   92200    295.69148   -1415.4864    478.71773    399.43396    736.30744    38369.369 
   92300    297.31411   -1451.9485    480.87902    372.46566    443.52981    38369.369 
   92400    296.55705   -1420.6223     457.4581     376.9499    336.07558    38369.369 
   92500    312.17441   -1382.5224    474.44131    502.60636    82.854026    38369.369 
   92600    287.63304   -1396.0632    473.25182    376.97581   -179.06445    38369.369 
   92700    298.36265   -1390.6266    476.95867    434.60543     429.0739    38369.369 
   92800    302.74064   -1380.3122    498.72796    486.47293   -42.199955    38369.369 
   92900    295.58138   -1410.1852     483.5333    409.05318    171.19984    38369.369 
   93000    294.39663   -1393.7882    457.84371    394.40685   -273.52849    38369.369 
   93100    303.97021   -1427.7218    472.08672    417.97839    454.68069    38369.369 
   93200    294.27576   -1428.5992    453.65809    354.86396     266.0582    38369.369 
   93300    299.63009   -1402.1645    463.92081    415.75715   -86.197574    38369.369 
   93400    306.77715   -1361.1813    466.33331    491.44971   -265.31162    38369.369 
   93500    300.38818   -1409.5451    464.51823    412.39965   -883.11137    38369.369 
   93600    307.96648   -1421.6418    454.42119    424.45158   -753.17688    38369.369 
   93700     299.2838   -1446.1339    456.39319    362.69527   -650.12241    38369.369 
   93800    293.54346   -1414.6342    451.21876    363.08047   -263.38628    38369.369 
   93900    307.15028   -1455.9562    480.20925    412.23689    238.44763    38369.369 
   94000    293.76576   -1467.6905    469.81766    329.62756    350.59932    38369.369 
   94100    297.01529   -1479.0852    450.86037    313.95997    501.94233    38369.369 
   94200    301.40397   -1465.3338    470.76807    367.45107    187.61694    38369.369 
   94300    299.01299   -1464.2665    475.87097    362.81668   0.43812993    38369.369 
   94400    301.68903   -1437.5232    465.06579    390.84758    67.000121    38369.369 
   94500    303.39065   -1451.7852     472.6285    391.83772    113.61369    38369.369 
   94600    304.66283    -1468.743    471.18261    379.18291    26.217498    38369.369 
   94700    306.42522   -1460.8213     462.8539    386.73999    207.14463    38369.369 
   94800    305.65988   -1414.8363    469.50109    435.91366    350.74636    38369.369 
   94900    304.21515   -1418.5615    462.10947     418.2682   -147.42685    38369.369 
   95000    295.33306    -1409.025    484.48794    410.04591    191.45526    38369.369 
   95100    310.97779   -1441.7321    497.60915     461.1571   -182.58631    38369.369 
   95200    310.50461   -1451.0629    485.66144    437.74035   -151.53351    38369.369 
   95300    303.92604   -1466.4842    467.94898    374.87861   -246.71988    38369.369 
   95400    293.93404   -1472.3458    437.40106    293.31614   -409.14359    38369.369 
   95500    295.42824   -1435.7886    508.95524    408.17964   -263.96741    38369.369 
   95600    309.91517   -1466.6874    493.93535    427.72604   -386.58963    38369.369 
   95700    303.24932   -1434.7069    469.97859    405.62752   -260.35049    38369.369 
   95800     304.2563   -1434.3734    494.30177    434.83458   -549.19631    38369.369 
   95900    289.89931   -1432.2042    451.36986    329.19393   -101.75028    38369.369 
   96000    298.05936   -1404.3574    476.39492    418.94034   -4.3676745    38369.369 
   96100    305.50988   -1395.7789    476.24141    461.03357   -195.53428    38369.369 
   96200    296.28946   -1468.4138    481.42108    351.91211    307.42077    38369.369 
   96300    289.61544   -1430.9885    462.51959    340.27666    -83.54672    38369.369 
   96400    291.18895   -1449.4848    469.42351    335.79478   -142.27715    38369.369 
   96500    292.43496   -1449.6012    474.55041    346.43596   -199.00315    38369.369 
   96600    290.84038    -1487.712    482.55061    309.11957   -377.15641    38369.369 
   96700    302.25653   -1456.4434    469.22888    378.65496   -8.8715622    38369.369 
   96800    296.38432   -1441.0709    469.09237    367.35496     319.6012    38369.369 
   96900    295.86856   -1417.5002    477.83695    397.33952    549.15673    38369.369 
   97000    300.96488   -1488.4162    463.15009    334.76652    148.70823    38369.369 
   97100    309.57221   -1485.6306    487.42867     400.7264   -193.11419    38369.369 
   97200    297.79572   -1464.3325    467.68311     349.0621    108.38341    38369.369 
   97300    304.37487   -1474.4041    466.79973    367.83769    128.80364    38369.369 
   97400    297.22025   -1464.5548    505.91165    384.46784    14.970101    38369.369 
   97500    297.90396   -1464.3679    471.89589    353.72857   -10.087839    38369.369 
   97600    296.64567   -1488.5838    477.33391    329.26462    71.292766    38369.369 
   97700    297.22796   -1485.1756    470.29122    328.26139    513.13304    38369.369 
   97800    298.82916   -1495.6571    477.09745    331.82184    308.41956    38369.369 
   97900    312.06775   -1459.2354    496.40951    447.37956   -623.03011    38369.369 
   98000     305.5766   -1502.7734     471.6988    349.79792   -425.72386    38369.369 
   98100    306.27298   -1454.9367    475.52298    404.60577   -306.54808    38369.369 
   98200    302.35621   -1499.5378    462.02381     328.8059   -259.73344    38369.369 
   98300    301.32789   -1477.8666    451.30042     335.1068    90.066149    38369.369 
   98400    308.18791   -1496.7345     473.5461    369.48445    423.27716    38369.369 
   98500    304.74828   -1478.0567    491.65369    390.72646    382.00545    38369.369 
   98600    300.78212   -1416.9056    475.61801    417.91916    430.76112    38369.369 
   98700    297.44313   -1441.1876    493.23315    396.16369    304.22895    38369.369 
   98800    304.80845   -1483.5925    477.88823     371.6971    372.71708    38369.369 
   98900    292.90186    -1492.291    478.24769    309.55326    282.16732    38369.369 
   99000    296.26949    -1508.537    480.80076     311.0784    167.70583    38369.369 
   99100    292.55131   -1522.8108    463.50302    262.70466    298.62978    38369.369 
   99200    294.08467   -1503.7154    475.70587    300.93201    93.237887    38369.369 
   99300    304.71901   -1502.2555     454.7424    329.48412    279.73884    38369.369 
   99400    299.08315   -1511.0042    471.49461     312.0197    370.20866    38369.369 
   99500    306.64919   -1490.4576    467.91432    363.17618    -129.9869    38369.369 
   99600    311.36036   -1462.2228    496.85899    441.64502   -94.221619    38369.369 
   99700    302.30792   -1464.4585    476.05609    377.69928   -117.46856    38369.369 
   99800      301.258   -1503.4694    500.24418    358.13199   -377.46542    38369.369 
   99900    298.98354   -1447.9587    475.07973    378.20022   -1012.2554    38369.369 
  100000    289.91167   -1422.4269    497.64352    385.30076   -890.38921    38369.369 
  100100    315.92116   -1418.0294    478.28668    487.87595    -260.7079    38369.369 
  100200    299.76975    -1466.469    483.55993    371.72289    301.26221    38369.369 
  100300    288.70018   -1448.7195    479.48209    335.37217    198.06942    38369.369 
  100400    288.43004   -1416.9531    473.98543    360.42118    493.68507    38369.369 
  100500    291.69825   -1462.8563    483.80025    339.10154     104.3858    38369.369 
  100600    293.26022    -1446.035    491.03492    370.21588    480.88246    38369.369 
  100700    301.67886   -1406.2909    494.09898    451.06715    693.11951    38369.369 
  100800    291.08779   -1458.0363    483.96342    341.32604    208.78137    38369.369 
  100900    298.82601    -1426.814    482.93885    406.49209    181.10091    38369.369 
  101000    298.58407   -1449.4814    488.64404    388.43662   -270.29683    38369.369 
  101100    300.39653   -1453.7398    495.79744    399.52191    52.169119    38369.369 
  101200    290.05121   -1492.8115    480.92459    298.82783   -205.09656    38369.369 
  101300    303.41647   -1450.5283    502.19498    422.77784    663.55476    38369.369 
  101400    300.52917   -1444.5172     515.5588    429.10528    608.59698    38369.369 
  101500    296.65678   -1440.1637    485.52023    385.92118    -95.04335    38369.369 
  101600    308.22464    -1504.227    473.94076    362.55256   -134.21574    38369.369 
  101700    300.25191   -1477.9222    477.76328    356.65183   -495.41163    38369.369 
  101800    301.44154   -1471.6266    477.65698    368.21699   -431.77527    38369.369 
  101900    305.37485   -1467.8412    495.23324    407.35292    36.928058    38369.369 
  102000    297.79554   -1500.3064    483.47553    328.87979    150.42951    38369.369 
  102100    307.05456    -1442.514    506.85302    451.89034    197.52832    38369.369 
  102200    296.93489   -1480.3186    495.07353    356.57645   -218.30317    38369.369 
  102300     302.1336   -1461.0709    495.40833    399.65136    -406.9677    38369.369 
  102400    292.25368    -1479.816    477.89312     318.7446   -539.80263    38369.369 
  102500    303.67524   -1460.5447    486.51421    398.24996    225.69854    38369.369 
  102600    308.22397   -1467.2419    471.58117    397.17507    470.11441    38369.369 
  102700    303.25945   -1452.8233    478.97277    396.55104    58.594474    38369.369 
  102800     303.4817   -1438.3672     483.7096     416.7483   -470.54576    38369.369 
  102900    290.98301   -1413.9032    490.58968    391.61191   -770.37214    38369.369 
  103000    293.86991   -1474.9425    485.78542    338.81402   -549.74266    38369.369 
  103100    303.89873   -1459.8856    479.56215    392.96697     -820.341    38369.369 
  103200    296.41778   -1492.4945    459.45411    306.44428   -846.09314    38369.369 
  103300     311.6365   -1481.4301    444.20688    371.03351   -214.24538    38369.369 
  103400     287.4203   -1428.5295     508.4683    378.76471   -25.790485    38369.369 
  103500    295.96681   -1482.5129    510.57103     365.5049   -247.31114    38369.369 
  103600    290.17374   -1480.6252    473.75013    304.39341   -16.692733    38369.369 
  103700    295.50749   -1459.7043    475.13229    350.79917     144.0306    38369.369 
  103800    306.07041   -1495.8533    498.59404    385.84484      133.671    38369.369 
  103900    295.40243   -1459.9992    475.51846     350.4157     337.6435    38369.369 
  104000    297.39873   -1470.1992    462.63095    336.34922    59.136209    38369.369 
  104100    291.74957   -1437.1437    498.79437    380.04016    704.53083    38369.369 
  104200    308.06963    -1445.341    506.75448    453.55179    855.32617    38369.369 
  104300    299.15514    -1438.548    491.26404    404.57064    212.17559    38369.369 
  104400    291.79486   -1430.5155    483.97644    372.05506    63.716374    38369.369 
  104500    310.03657   -1417.5739    488.84302    472.29583   -189.10806    38369.369 
  104600    289.92935    -1458.304    481.52007    333.38017     -157.208    38369.369 
  104700    294.25385     -1449.78    481.61775    361.54381     499.7376    38369.369 
  104800    287.20868    -1501.818    500.39763    296.44926   -473.29908    38369.369 
  104900    296.06908   -1454.4519    482.19519    365.65228    280.66278    38369.369 
  105000     295.2434   -1501.3905    478.84811    311.63538   -63.294206    38369.369 
  105100    299.60106   -1480.9005    481.09261    354.06176   -41.773171    38369.369 
  105200    293.03161    -1472.728    488.00986    339.46478    -146.1477    38369.369 
  105300     306.3308   -1494.3036    475.59217    365.56928   -341.70025    38369.369 
  105400    300.78111   -1460.4534    459.41124    358.16007   -305.37851    38369.369 
  105500    304.07339   -1470.8672    480.41214    383.62464    136.50475    38369.369 
  105600    293.55281   -1511.8441    480.06613    294.76015    44.906187    38369.369 
  105700    295.21349   -1491.4246    473.72604    316.34405    220.89102    38369.369 
  105800    305.97814    -1513.308    495.19709    364.57612     182.1384    38369.369 
  105900    295.73976   -1522.7884    482.38777    296.02016    143.66288    38369.369 
  106000      305.804   -1478.1942    472.10109    375.80711    112.85164    38369.369 
  106100    311.97991   -1474.4416    492.96816    428.33504    259.11797    38369.369 
  106200    302.14818   -1467.6945    461.12576     358.8111   -71.794285    38369.369 
  106300    302.86296   -1458.0928    484.22789    394.74494    309.91636    38369.369 
  106400     299.5146   -1415.8697    489.73242    427.34163    142.86177    38369.369 
  106500    287.95369    -1434.304    485.21885    352.15108   -236.06973    38369.369 
  106600    302.56009   -1452.4074    482.04435    396.87818      -144.43    38369.369 
  106700    292.28409   -1474.8747     494.9448    340.87501    13.011092    38369.369 
  106800    303.59091   -1480.8792     499.2637     390.2839     57.91229    38369.369 
  106900     302.3939   -1506.8185    466.26475    325.93647   -527.77964    38369.369 
  107000    298.78388   -1503.5677    454.00008    300.60924   -322.97985    38369.369 
  107100    300.92061   -1478.6001    469.67284    350.90526   -252.05418    38369.369 
  107200    303.11071    -1482.835    469.92941    356.82386    36.049262    38369.369 
  107300    303.32773   -1483.1164    466.32163    353.91531    71.802827    38369.369 
  107400    298.55855   -1494.1011    456.79241    311.84998   -318.72718    38369.369 
  107500    312.05542   -1489.7114    472.36223     392.8006   -547.18858    38369.369 
  107600    299.27522   -1507.0525    484.27157    329.61626   -419.33835    38369.369 
  107700    302.85433   -1501.9714     477.6805    344.27995   -450.53581    38369.369 
  107800    296.01429   -1517.8142    480.76066    300.60778   -90.303108    38369.369 
  107900    303.45493   -1489.9242    506.31297    387.67372    127.94017    38369.369 
  108000    301.26725   -1461.0496     489.0462    389.39563    155.21261    38369.369 
  108100    294.93457   -1490.0284    451.57729    294.33105     218.2595    38369.369 
  108200    310.45723   -1509.6218    504.81691     398.1228    194.83743    38369.369 
  108300    301.18858   -1498.4081    455.77818    318.41355    151.79359    38369.369 
  108400    307.11572   -1475.5753    499.87164    412.12408    192.37883    38369.369 
  108500    298.41282   -1463.3885    472.37774    357.48928   -46.691866    38369.369 
  108600    302.27101   -1522.2226    484.97106    328.68333    65.148124    38369.369 
  108700    293.35759   -1519.2343    488.64577    295.06748    269.76988    38369.369 
  108800    291.57781   -1522.5861    482.05072    277.07795   -304.32831    38369.369 
  108900    302.06084   -1470.1419    490.55366    385.39689   -69.910473    38369.369 
  109000    304.27867   -1474.4744    512.04832    412.58125   -147.80712    38369.369 
  109100    289.55921   -1474.6142    471.38232    305.25958    -495.0836    38369.369 
  109200    293.07844   -1485.3255    478.87321    317.94223   -360.91639    38369.369 
  109300    288.37914   -1465.2303    497.20396    335.13246   -275.76949    38369.369 
  109400    303.44109   -1485.1606    465.53109     351.5929   -96.061481    38369.369 
  109500    295.34493   -1464.8861    491.56164    361.31218   -438.90735    38369.369 
  109600    303.40145   -1456.0269    471.48736    386.50367   -473.89409    38369.369 
  109700    300.33974   -1479.9556    466.40387    343.65593   -493.02889    38369.369 
  109800    306.27416   -1463.5154    477.34584    397.85516   -590.71057    38369.369 
  109900    291.68622   -1516.8975    471.14947    272.35513   -346.42789    38369.369 
  110000    312.14321   -1475.8501    479.43878    414.13513   -76.651603    38369.369 
  110100    302.66007   -1494.3995    498.98164    372.27516    64.626855    38369.369 
  110200    302.50509   -1508.1374    481.46391    340.31915   -243.12554    38369.369 
  110300    303.64584   -1485.4823    469.60021     356.2655   -16.990274    38369.369 
  110400    300.25615   -1498.0044    487.49499    346.32055   -51.078955    38369.369 
  110500    303.66061   -1445.5578    499.23744    425.89401    418.04625    38369.369 
  110600    305.75555    -1450.487    482.04078    413.23496   -146.66613    38369.369 
  110700    306.99897   -1436.9711    488.36217    438.69118   -231.38298    38369.369 
  110800    291.00016   -1430.2907    504.97394    389.68625    223.62648    38369.369 
  110900    296.50445   -1469.8511    478.45374      348.479   -60.304123    38369.369 
  111000    304.07726    -1422.596    519.64744    471.14865   -25.419495    38369.369 
  111100    295.66938   -1425.7391    470.97232    381.33602   -31.022264    38369.369 
  111200    290.49399    -1427.941    500.96015    385.73478   -511.34161    38369.369 
  111300     307.2958   -1415.6504    507.09922    480.09029    -697.9771    38369.369 
  111400     287.7832   -1450.0814    472.35984    322.74426   -526.77897    38369.369 
  111500    291.62404   -1461.4678    504.47492    360.82935   -350.81138    38369.369 
  111600    299.92741    -1451.526    492.79249    396.61083   -331.12754    38369.369 
  111700    296.13934   -1453.4334    500.02816    384.82118   -296.88583    38369.369 
  111800    301.64367   -1454.2587    507.15381    415.99512    164.19921    38369.369 
  111900    301.58499   -1450.4855    475.83983    388.18917   -5.2125783    38369.369 
  112000    310.88936   -1441.9309    499.40288    462.35236    342.34728    38369.369 
  112100    293.07856   -1452.6365    482.14486    353.90338    476.46929    38369.369 
  112200    304.70345    -1413.063    507.65934    471.52322    756.80344    38369.369 
  112300    306.00696   -1441.4318    486.43582     427.8213    298.53995    38369.369 
  112400    294.00411   -1419.5554    513.33085      422.353    367.87237    38369.369 
  112500    305.97417   -1455.3517    503.23158    430.54904    419.89565    38369.369 
  112600    306.05958   -1483.9229     499.5454     398.6776    257.96076    38369.369 
  112700    294.59766   -1449.9893    514.89639    396.16685    320.68019    38369.369 
  112800    293.58853   -1454.3396    514.59443    386.95444    -360.1973    38369.369 
  112900    294.64912   -1474.2087    502.79781     360.0814   -62.306404    38369.369 
  113000     305.4922   -1483.2952    472.80523    370.00124    138.86111    38369.369 
  113100    304.84332   -1470.8754    510.04667     416.7302   -47.309833    38369.369 
  113200     303.7534   -1434.2265    491.53746    429.94466    74.913728    38369.369 
  113300    299.23945   -1469.4527    470.62521    353.40807    530.71239    38369.369 
  113400    317.13078   -1511.7631    490.62187    411.94354    798.37483    38369.369 
  113500    292.09429   -1460.9773    508.95416    367.92404    201.81593    38369.369 
  113600     290.6721   -1445.9833    497.42389    364.96111    647.12712    38369.369 
  113700    310.74265   -1444.4761    489.91212    449.65343    135.52722    38369.369 
  113800    302.99482   -1460.1975    494.18474    403.19297   -267.45987    38369.369 
  113900    300.47502   -1484.8148    448.24457    321.24882   -152.61775    38369.369 
  114000    293.22964   -1472.1259    492.70187    345.65374    -333.0017    38369.369 
  114100    298.74182   -1473.9071    503.86071    379.94037   -614.64485    38369.369 
  114200    283.03957   -1484.4996    478.87574    273.40595   -117.57113    38369.369 
  114300    311.31919   -1505.1127    501.55091    403.26102    -245.7681    38369.369 
  114400    295.48643   -1498.0893    476.30632    313.49302   -618.72191    38369.369 
  114500    305.42505   -1519.1232    477.52358    338.58808    109.19879    38369.369 
  114600    312.88702   -1533.3768    459.45291    339.98379   -150.78861    38369.369 
  114700    303.77444   -1539.8268    492.52648    325.42848   -352.48728    38369.369 
  114800    305.08244   -1503.5029    470.96365    346.10018     203.0542    38369.369 
  114900    302.61225   -1507.8687    476.65148    336.25972    250.32249    38369.369 
  115000    303.67348   -1476.6045    470.86471    366.53274    101.62113    38369.369 
  115100     300.1652   -1513.7134    482.55903    325.26457    798.13561    38369.369 
  115200    307.31671   -1502.5505    472.04501    358.23048    903.76331    38369.369 
  115300     301.7143   -1522.3017    465.31618    306.43362    650.14533    38369.369 
  115400    301.35091    -1531.017    462.12743     292.8875     469.6105    38369.369 
  115500    303.79114   -1476.6226    489.24585    385.42754    448.96647    38369.369 
  115600    305.53368   -1491.0714    483.62333    373.23053    357.61687    38369.369 
  115700    305.38252   -1492.0029    470.59798    358.59055     404.5509    38369.369 
  115800     296.5341   -1477.2364    479.89351    342.66741    24.152391    38369.369 
  115900    289.06431   -1496.5282    483.09608    292.82294    397.59596    38369.369 
  116000    306.10336   -1458.0343     465.6289    390.84755    404.42699    38369.369 
  116100    292.16481   -1438.1845    502.03694    384.11837    243.02775    38369.369 
  116200    306.01157   -1454.3818    491.04935    419.50566   -20.564975    38369.369 
  116300    301.00108   -1467.2417     505.0553    398.00986    642.78805    38369.369 
  116400    292.87742   -1457.6633    480.96768    346.79048   -455.47937    38369.369 
  116500    292.11811   -1454.5861    473.86799    339.33671   -359.14928    38369.369 
  116600    295.86296   -1445.1177    496.70167    388.56149   -389.30741    38369.369 
  116700    304.19252    -1478.495    463.14085    359.26391   -243.39605    38369.369 
  116800    292.04063   -1522.7436    471.91196    268.87314    4.5507673    38369.369 
  116900    295.43712   -1435.8189    491.45052    390.68484    169.90798    38369.369 
  117000     304.3699   -1462.2783    490.05751    403.19877    -174.7335    38369.369 
  117100    293.10165   -1491.9826    501.68478    334.20157   -345.03603    38369.369 
  117200    303.60241   -1496.8886    489.03454    364.09727    186.35907    38369.369 
  117300    296.89642   -1491.7451    477.40681    327.30937    690.22366    38369.369 
  117400    301.89855   -1489.9403    474.54944    348.86097   -105.44693    38369.369 
  117500    305.95023   -1487.4686    492.40288    387.49524    256.45185    38369.369 
  117600    308.95787   -1478.6088    476.85382    394.39722   -67.379236    38369.369 
  117700    303.93375   -1465.4689     478.4292    386.40897    178.41585    38369.369 
  117800    297.15984   -1457.2394    476.20135        361.8    338.98374    38369.369 
  117900    295.64662    -1441.657    466.46143    360.80433    367.78389    38369.369 
  118000    293.75638   -1468.5953    473.05349    331.91628    325.88661    38369.369 
  118100    293.27885   -1461.5081    503.87498      367.667    131.94809    38369.369 
  118200    311.92402   -1436.6964    497.35798    470.21752    432.08672    38369.369 
  118300    297.84713   -1411.4308    498.39888    432.91188    490.61688    38369.369 
  118400    296.81198   -1453.1431    482.01032    370.13327    133.58635    38369.369 
  118500    296.41602   -1465.9944     469.9397    343.42206    343.03311    38369.369 
  118600    301.71686   -1474.4271    487.24771    376.25134   -11.954045    38369.369 
  118700    310.72086   -1476.7485    481.91726    409.28772   -14.133048    38369.369 
  118800    307.05407   -1464.8568    489.24332     411.9356    175.27436    38369.369 
  118900    293.84398   -1489.6931    489.37115    327.53199   -67.688415    38369.369 
  119000    304.73594   -1485.2288    491.08002     382.9249   -131.02987    38369.369 
  119100    299.59938   -1524.7826    461.52989    290.60932    4.0566217    38369.369 
  119200    309.48154   -1470.5283    514.63695    442.62729    194.55474    38369.369 
  119300    300.51335   -1470.0093    465.29575    353.27866    170.76811    38369.369 
  119400    299.61356   -1450.6109    484.13763    387.45284    -433.2349    38369.369 
  119500    295.50689   -1449.7543     475.3783    360.99246   -631.07231    38369.369 
  119600    314.11841   -1461.3104    498.44616    456.60797   -1124.9382    38369.369 
  119700    304.18078    -1463.506    451.79646    362.85539   -808.88736    38369.369 
  119800    302.09426   -1431.9837    530.63934    463.79184   -489.57923    38369.369 
  119900    298.84145   -1431.9287    475.82671      394.335   -109.94324    38369.369 
  120000    300.80457   -1474.1957    503.58465    388.69714    84.306435    38369.369 
  120100    291.25802   -1450.2914    490.10593     355.9828    331.83228    38369.369 
  120200    295.47536   -1498.8223    482.65487    319.05859     761.5679    38369.369 
  120300    290.44752   -1470.0855    496.87364    339.29373    419.46283    38369.369 
  120400    302.63116   -1504.9249    501.23879    363.87627    1096.5153    38369.369 
  120500    300.04494   -1434.0072    472.07489    393.94317    889.35201    38369.369 
  120600    297.26091   -1460.2093    483.54324    366.62868    410.08984    38369.369 
  120700    305.73246   -1428.6913    494.85882    447.74437    762.34085    38369.369 
  120800    307.92757   -1456.5099    474.52571    409.51218    727.61371    38369.369 
  120900    299.08527    -1479.186     479.7626    352.11549    256.82747    38369.369 
  121000    293.55518   -1452.0188    486.63156    361.16157   -259.38744    38369.369 
  121100    308.74425   -1460.5147    498.82468    433.49679    179.94162    38369.369 
  121200     305.8115   -1463.0979    456.72058    375.55673   -59.510816    38369.369 
  121300     299.3773   -1467.6221     493.5363    378.77267   -363.63814    38369.369 
  121400     303.9334   -1502.7992    475.19181    345.83969    227.87641    38369.369 
  121500    291.52833   -1461.4668     510.2489    366.17181    871.48864    38369.369 
  121600    294.90262   -1496.2134    481.92822    318.35263   -493.28195    38369.369 
  121700    296.63399   -1503.0274    485.42607    322.86044   -228.30066    38369.369 
  121800     300.0611   -1474.7487     494.6784    375.87827   -458.16607    38369.369 
  121900    303.10877   -1472.8397    490.21584    387.09686   -340.07498    38369.369 
  122000    294.96701   -1483.5314     482.2146    331.61203   -180.36275    38369.369 
  122100    300.15584   -1480.3837    480.04897    356.04191   -376.14397    38369.369 
  122200    300.18032   -1474.8403    471.39011    353.03706    111.01382    38369.369 
  122300    296.52961   -1459.7196    489.27421    369.54463    -302.7772    38369.369 
  122400    301.51374   -1456.5557    507.64657    413.60372   -414.89403    38369.369 
  122500    306.44316   -1529.7539    458.45661    313.49122   -446.80618    38369.369 
  122600    295.52316   -1469.1919    489.15684    355.40686   -41.662174    38369.369 
  122700    300.30242   -1509.4797    500.47563    348.03497    369.15039    38369.369 
  122800    308.09083   -1504.7658    485.24486    372.71316    387.26343    38369.369 
  122900    299.89744   -1548.4173    503.42314    310.21475    400.96492    38369.369 
  123000    301.82307   -1563.0408    459.86805    260.73798    839.34474    38369.369 
  123100    295.07607   -1545.7415    463.57476    251.25491    117.12522    38369.369 
  123200    291.79867   -1501.1781    492.29048    309.72369    255.65072    38369.369 
  123300     303.0145   -1496.1149    477.94169    351.12148    420.73973    38369.369 
  123400    301.89698   -1500.8421    491.57779    354.98038    362.01524    38369.369 
  123500    301.06966   -1499.7442    481.36165    342.12358     542.3307    38369.369 
  123600    314.00165   -1507.4955    480.69312    392.14222   -113.14853    38369.369 
  123700     290.5412   -1462.4523     476.7998    327.27647   -517.39043    38369.369 
  123800    301.25773   -1469.5111    505.32245     397.1673   -594.14915    38369.369 
  123900    311.75732   -1450.8163    499.08018    457.06657    33.745783    38369.369 
  124000    296.05989    -1462.161    511.67163    387.37804    133.06519    38369.369 
  124100    304.38061   -1494.1956    485.96932    367.24168    340.57663    38369.369 
  124200    292.69604   -1460.0378    508.74871    371.37744    235.03124    38369.369 
  124300    291.79262   -1442.2571     497.6222    373.94907    584.41777    38369.369 
  124400    299.89107   -1495.4369    486.97748    346.72073    252.02215    38369.369 
  124500     297.3761   -1536.6685    503.56054    310.70729   -221.56442    38369.369 
  124600    300.75118   -1475.1125    508.61916    392.57356   -135.32408    38369.369 
  124700    293.58166    -1492.092     478.5987    313.17525   -200.26423    38369.369 
  124800    301.36804   -1442.1061    511.90819    431.65655   -461.04111    38369.369 
  124900    298.31657    -1462.686    490.91569    376.29484   -568.74369    38369.369 
  125000    292.43102   -1472.8744    477.00046    325.59499   -566.28635    38369.369 
  125100    302.29116   -1452.2686    515.18554    428.94287   -289.76802    38369.369 
  125200    297.49199    -1444.198    494.53918    394.68017    87.384596    38369.369 
  125300    308.76608   -1459.8437    509.31302     444.7548   -167.43555    38369.369 
  125400    296.51627   -1496.0569    508.57203    352.44491   -410.81165    38369.369 
  125500    298.68983   -1477.5609    482.84708    355.03806   -120.35762    38369.369 
  125600    297.02857   -1480.0906    502.09861     364.2528    92.115483    38369.369 
  125700    295.72181   -1467.3151     506.0259     375.0505    170.93205    38369.369 
  125800     297.4709    -1490.094    485.74689    339.89652    357.98195    38369.369 
  125900    307.42164   -1429.0074    507.26284     467.4656    451.58208    38369.369 
  126000      306.392   -1486.7453    482.29445    380.10646    212.19491    38369.369 
  126100    301.18347   -1454.4992    497.09493     403.6161    552.98951    38369.369 
  126200     292.2139   -1431.1193    509.22167    398.59015    120.83347    38369.369 
  126300    303.11817   -1433.6107    501.88346    438.03588    472.46064    38369.369 
  126400    290.60333   -1458.9796    497.14853    351.37868   -26.572703    38369.369 
  126500    303.69249   -1442.5039    500.25709    430.11166     26.38946    38369.369 
  126600     300.6891   -1454.6117    493.32477     397.4995   -132.00242    38369.369 
  126700    307.54234   -1487.8149    482.12939    384.07002   -544.89428    38369.369 
  126800    304.90684   -1492.9833    518.52129    403.38396    -274.9754    38369.369 
  126900    297.89352   -1495.7724    476.27701    326.65806    172.34725    38369.369 
  127000    297.51733   -1438.0707    515.99537    422.37813   -152.76042    38369.369 
  127100    316.51591   -1472.7174    494.03295    451.62188    332.07775    38369.369 
  127200    298.26331   -1463.8166    479.23018    363.23803     245.1885    38369.369 
  127300     308.0382   -1488.7308    509.38833    412.65382   -191.22362    38369.369 
  127400    306.27109     -1478.82    504.88425     410.0751    286.45761    38369.369 
  127500    287.49207   -1469.1592    486.40717     316.3982   -76.414267    38369.369 
  127600    297.31496   -1479.4732    484.18059    348.24632   -191.83782    38369.369 
  127700    293.04075    -1479.237    473.27477    318.26196   -494.83402    38369.369 
  127800    309.95377   -1487.1502    462.69425     376.1966   -316.54883    38369.369 
  127900    302.50589   -1436.6425    499.61356    429.96731   -404.20108    38369.369 
  128000    307.15036   -1435.6152    508.61908    460.98811   -197.46886    38369.369 
  128100    299.45116   -1435.0185    505.87799    424.05179    152.20911    38369.369 
  128200     303.4673   -1480.3185    484.26326    375.28552    224.14392    38369.369 
  128300    308.25607   -1482.5774    482.93556      393.339    587.86512    38369.369 
  128400    303.98376   -1438.1145      532.922    468.48213    294.88246    38369.369 
  128500    290.53855   -1428.6044    500.32668    384.63924    254.53896    38369.369 
  128600    291.45702   -1462.7487    506.97879    361.29753    -79.69526    38369.369 
  128700    300.60513    -1457.491    510.02153    410.93752    583.24878    38369.369 
  128800    299.36093   -1486.9801    477.07455    342.87902   -101.21312    38369.369 
  128900     302.6621   -1507.9891    494.22137    353.93449    29.279131    38369.369 
  129000    299.46968   -1494.8944    482.77267    341.15415   -237.42727    38369.369 
  129100     309.0936   -1454.7138    509.28919    451.34087  -0.68017453    38369.369 
  129200    293.51618   -1457.2064    467.72443    336.89062   -186.61616    38369.369 
  129300    307.06985   -1476.7527    500.91829    411.78598    282.32994    38369.369 
  129400    292.92306   -1489.1229    507.36547    341.93498    131.03692    38369.369 
  129500    294.69952   -1433.4588    518.81518    417.07642   -142.68592    38369.369 
  129600    309.63618   -1466.5864    525.36749    457.99854   -557.69425    38369.369 
  129700    296.46335   -1503.8531    488.42733    324.26479   -567.34641    38369.369 
  129800    302.51043   -1497.1821    474.76172    344.59646   -803.85637    38369.369 
  129900    302.63866   -1488.5529     484.2343    363.27765   -211.37604    38369.369 
  130000    298.35273    -1460.737    490.87542      378.367   -179.81022    38369.369 
  130100    305.15148   -1490.7642      514.725    402.91224    229.81218    38369.369 
  130200    293.62649   -1461.2579    491.96821    357.58143    614.54226    38369.369 
  130300    296.00254   -1433.8403    499.24971    403.01763    954.06605    38369.369 
  130400    296.01828   -1462.3038    504.26755     379.6431    207.85193    38369.369 
  130500    310.65503   -1459.2346    505.27973    449.86661    583.80164    38369.369 
  130600    302.62825   -1493.0076    481.68384    356.22545    690.65564    38369.369 
  130700    304.29949   -1487.3618    513.27429    401.01392   -465.19079    38369.369 
  130800    296.42588   -1477.9351     479.5667    341.15293   -141.15928    38369.369 
  130900    298.51693   -1488.6139    482.28054    342.63721   -670.16251    38369.369 
  131000    292.55754   -1466.5308    492.27724    347.78703   -66.968369    38369.369 
  131100    301.13171   -1511.4616    506.52434    355.84925    35.925021    38369.369 
  131200     299.3539   -1469.3397    490.10811     373.5212   -67.091012    38369.369 
  131300    293.66744   -1431.2077    500.33134     396.1798   -97.692913    38369.369 
  131400    293.07819   -1437.1749    514.85813    402.07662    212.70222    38369.369 
  131500    298.02737   -1468.4295    496.03451    374.36326    242.98008    38369.369 
  131600    306.01234   -1432.7675    500.78634    450.86046    192.97498    38369.369 
  131700    302.34778   -1434.8574    521.08689    452.51131    422.94523    38369.369 
  131800     297.2022   -1446.2036    509.31588     406.1417    557.79241    38369.369 
  131900    308.20785   -1440.4238    506.09479     458.4339     50.54582    38369.369 
  132000    299.31992   -1478.1062    485.99236    360.48536   -25.248043    38369.369 
  132100    304.91537   -1454.6283    508.16327    431.41946    240.79164    38369.369 
  132200    307.15044   -1486.8385    517.17905    418.32511    -266.1442    38369.369 
  132300    298.79247    -1464.999    499.26739    384.48409   -405.40519    38369.369 
  132400    297.16307   -1430.8657    509.86648    421.85331   -253.09332    38369.369 
  132500     312.5468   -1466.2066    484.67674    430.84036   -575.63342    38369.369 
  132600    297.52723   -1443.7397    469.53312    370.29163   -993.96085    38369.369 
  132700    311.55443   -1442.5659    525.20587    490.52575   -976.61805    38369.369 
  132800    298.88448   -1484.3995    463.30785    329.53988   -739.91702    38369.369 
  132900    294.19762   -1501.7897    499.42649    327.08881   -510.27151    38369.369 
  133000    303.62566   -1497.9621    498.80102    372.89531   -79.592998    38369.369 
  133100    300.13218   -1461.1541     500.3773    395.49289   -206.56839    38369.369 
  133200    307.78335    -1457.041    498.64699    432.45063   -7.8464783    38369.369 
  133300    300.12941   -1465.7512     464.3574    354.86343   -81.729743    38369.369 
  133400    302.46778   -1513.6736    495.51049    348.66096   -232.68248    38369.369 
  133500     301.2989   -1530.2793    486.11984    317.38256    797.46595    38369.369 
  133600    291.37225   -1494.1506    507.86381    330.39763    509.95778    38369.369 
  133700    292.22288   -1513.8524    489.54373    296.21964   -498.20143    38369.369 
  133800    306.51109   -1517.5903    455.59758    323.10277    411.86847    38369.369 
  133900     293.4021   -1539.9747    483.62648    269.50887   -44.931203    38369.369 
  134000    312.43773   -1487.6365    480.95092    405.19181    137.86851    38369.369 
  134100    303.76496   -1523.7992    461.64063    310.52732   -142.40105    38369.369 
  134200    303.69091   -1546.6128    492.76869    318.50716   -209.15774    38369.369 
  134300    309.91136   -1544.4969    435.92571    291.88972   -239.12261    38369.369 
  134400    303.17907   -1581.8911    496.35445    284.50171     340.9865    38369.369 
  134500    302.51186   -1485.4992    506.85279    388.37686    338.29041    38369.369 
  134600    298.98874   -1496.0254    496.76892    351.84609   -45.391161    38369.369 
  134700    305.37718   -1512.1474    501.66742    369.49146    26.098326    38369.369 
  134800    309.08599   -1480.3977     496.3167    412.65021    470.67284    38369.369 
  134900    292.80817   -1502.0067    476.77545    297.94198     797.0505    38369.369 
  135000     303.5047   -1578.5096    459.92635     252.9266   -101.07081    38369.369 
  135100    312.41922   -1525.4231    481.39147    367.76204   -411.77662    38369.369 
  135200    300.12972   -1513.8232    483.34723    325.78265   -659.44605    38369.369 
  135300    299.56917    -1520.606    466.61382    299.73334   -211.29359    38369.369 
  135400    309.00637   -1499.9963    498.70989    395.08497     49.90425    38369.369 
  135500    286.37472   -1550.0382    475.56549    219.62829    14.084891    38369.369 
  135600     304.9497   -1497.8701     483.3442    363.51371   -32.566372    38369.369 
  135700    304.02213   -1502.3855    495.91982    367.38235   -268.59622    38369.369 
  135800    306.78659   -1450.7024     505.5182    441.15622   -327.53107    38369.369 
  135900    290.97784   -1503.1949    490.53072    302.23787   -204.62792    38369.369 
  136000    300.90371   -1512.0393    491.98016    339.69708   -769.50635    38369.369 
  136100    300.47241    -1499.844    512.49558     370.4588   -868.88299    38369.369 
  136200    299.18791     -1482.81    458.25017    327.44276    -764.9986    38369.369 
  136300    304.42794    -1459.063    497.82938     414.4483   -749.80366    38369.369 
  136400    303.81541   -1485.4124    509.67642    397.17789   -394.49769    38369.369 
  136500    300.99914   -1491.9351    484.48595     352.7383   -281.63029    38369.369 
  136600    299.24212    -1451.888    475.86957    376.22923   -662.47044    38369.369 
  136700    303.68128   -1451.8455    505.12493    425.58718   -369.32726    38369.369 
  136800    298.97402   -1452.9288    462.90086    361.00814   -807.42527    38369.369 
  136900    298.04776   -1452.9852    520.21177    414.07692   -71.278645    38369.369 
  137000    301.59182   -1479.8657    497.14911    380.14914    49.272615    38369.369 
  137100    300.83244   -1422.3525    493.89781    430.97948    392.21354    38369.369 
  137200    301.78785   -1426.1842    501.68304    439.25043   -106.93932    38369.369 
  137300    294.09987   -1417.9761    489.30321    400.33737    142.44525    38369.369 
  137400    308.79582   -1435.6374    513.43238    473.21491    708.84748    38369.369 
  137500    297.86139   -1408.2276    487.16905    424.94961    269.34647    38369.369 
  137600    290.01274   -1435.5924    499.97057    374.91911    433.92708    38369.369 
  137700    305.36813   -1458.5805    495.52573    416.87574    309.39822    38369.369 
  137800    300.43569    -1439.949    503.19611    420.88833    761.57093    38369.369 
  137900    297.73687   -1426.3053    496.15013    415.29031    220.21453    38369.369 
  138000    293.55596    -1449.538    490.39602    367.41037    562.88589    38369.369 
  138100    300.76307   -1415.2897    461.29464    405.12561    179.41344    38369.369 
  138200    297.53553   -1414.8159    510.24135     439.9611   -334.47822    38369.369 
  138300    299.23373     -1443.56    485.66919    394.31886   -226.21248    38369.369 
  138400    296.72545   -1451.5744    482.88421    372.18483      488.079    38369.369 
  138500    300.42726   -1459.3325    504.81791     403.0886   -339.93245    38369.369 
  138600    306.72358   -1414.7539    509.06216    480.36393    126.74748    38369.369 
  138700    290.29844   -1402.3977    483.93924    393.37349   -761.46484    38369.369 
  138800    297.04213   -1456.9175    477.56723    362.95585   -883.43545    38369.369 
  138900    295.44612   -1454.7035    513.38944    393.77978   -577.47167    38369.369 
  139000    297.13888   -1406.2574    487.77298    424.25884   -91.025498    38369.369 
  139100    309.09981   -1404.3501    510.24492    502.68841   -410.30353    38369.369 
  139200    310.63185    -1409.082    478.73155    473.36634   -779.68487    38369.369 
  139300    304.96134   -1444.0653     488.5781    422.60505   -916.89456    38369.369 
  139400    286.46434   -1480.3007    479.60264    293.80793   -692.53712    38369.369 
  139500    306.51342   -1455.9668    491.19736    420.33655    59.739654    38369.369 
  139600    299.01151   -1457.1334    506.82082    400.89298   -149.19603    38369.369 
  139700    302.39267     -1438.83    513.26266    440.91726    147.52449    38369.369 
  139800    296.22786   -1513.3399    488.11394    313.40053    -140.5409    38369.369 
  139900    292.13237   -1490.6824    504.32155    333.75849   -288.37034    38369.369 
  140000    311.18409   -1459.4289    499.99581    446.77926    220.20349    38369.369 
  140100    296.70017   -1463.8533    499.37925    376.28674   -58.143374    38369.369 
  140200    302.38042   -1460.8284    490.85951    396.46042   -745.65064    38369.369 
  140300    300.81333   -1436.2351    481.02509    404.13781   -618.96067    38369.369 
  140400    289.78073   -1473.1835    505.45908    341.76808    -761.8858    38369.369 
  140500    308.63962   -1407.5897    490.74094    477.86529    291.95976    38369.369 
  140600    300.10017   -1395.0589    482.85368    443.91987    125.30649    38369.369 
  140700    297.12072   -1451.9295    500.20482    390.93647    546.47366    38369.369 
  140800    294.36535   -1437.7033    485.49771    378.00432    77.858376    38369.369 
  140900    302.42181   -1427.4789    525.55104     464.6885   -543.65778    38369.369 
  141000    301.20529   -1397.7335    510.48077    473.86626   -75.498124    38369.369 
  141100     311.0443   -1432.1141     475.8518    449.31822    232.84751    38369.369 
  141200    292.57315   -1431.0524    500.57532    391.63408    241.03201    38369.369 
  141300    305.87843   -1457.1608    496.11523    421.19094    389.17887    38369.369 
  141400     297.7437   -1445.7917    522.47156    422.15632    532.69722    38369.369 
  141500    294.63731   -1415.1649    519.27218    435.54617    219.35049    38369.369 
  141600    304.94544   -1433.8012    511.67421    455.89343    431.80442    38369.369 
  141700    302.20829   -1420.3466    485.28433    430.58918    406.14258    38369.369 
  141800    297.62502   -1453.2807    515.67476    407.33413    237.42972    38369.369 
  141900    298.19259   -1467.1927    494.68617    374.99833    47.663291    38369.369 
  142000    300.81533   -1479.9251    484.70687    364.13862     378.3392    38369.369 
  142100    293.54592   -1491.5578    487.79152     322.7407     104.5054    38369.369 
  142200    298.66395   -1502.9478    490.26993    336.95706     416.4136    38369.369 
  142300    293.53334   -1448.4082    474.32173    352.36372    204.38263    38369.369 
  142400     292.9514   -1464.9388    489.23825    348.11989   -118.51885    38369.369 
  142500    304.43203   -1487.1193    500.25579    388.83682   -992.26841    38369.369 
  142600    304.13334   -1454.4402    492.57606     412.4865   -48.033345    38369.369 
  142700    297.19634   -1458.2305    489.06192    373.83435   -450.81055    38369.369 
  142800    303.40705   -1475.0941       477.41    373.38449   -316.81436    38369.369 
  142900    304.89819   -1477.8571    536.03726    435.98707   -717.92664    38369.369 
  143000    301.56433   -1436.4962    498.81373    425.05906   -10.657141    38369.369 
  143100    294.81941   -1496.1269    507.92448    344.05938   -680.49785    38369.369 
  143200     297.2425   -1486.0766    467.70591    324.84083   -485.10283    38369.369 
  143300    309.36946   -1456.6273    510.13696    451.52177   -294.52837    38369.369 
  143400    297.39602   -1453.5056    505.97856    396.37823   -404.06823    38369.369 
  143500    293.83737   -1445.8227    499.91941    381.92069   -277.79014    38369.369 
  143600    306.78662    -1430.124    488.93351    445.15004   -427.29278    38369.369 
  143700    306.37243   -1429.3173    527.94218    483.09371    118.02961    38369.369 
  143800    303.68627   -1471.1368    508.03888    409.23242    411.28433    38369.369 
  143900    299.10814   -1444.5985    498.03613    405.07986   -68.012066    38369.369 
  144000    294.78967   -1439.1662    499.01559    391.97683    337.39092    38369.369 
  144100    310.52174   -1422.6829     521.6895    502.22579   -3.3419757    38369.369 
  144200     308.6932   -1457.0212    497.86145    435.79641   -561.52162    38369.369 
  144300    309.30736   -1475.7328    485.53971     407.5384    81.241354    38369.369 
  144400    308.89902   -1439.2686    489.59964    446.21733    323.97231    38369.369 
  144500    291.42912   -1429.5621    512.24941    399.62873    390.49658    38369.369 
  144600    298.93079   -1431.1489    531.42873    451.12062    368.84892    38369.369 
  144700    302.47942   -1447.9149    508.25938     427.2212    288.56287    38369.369 
  144800    297.63941   -1445.3909    517.97171    417.58596   -132.95415    38369.369 
  144900    303.20164   -1374.0029    530.41208    526.54952    25.199516    38369.369 
  145000    300.21626   -1433.9791    484.25503    406.92555   -250.61278    38369.369 
  145100    294.15653   -1414.5856    511.64968    426.33038    304.94011    38369.369 
  145200    304.25057   -1461.3968    504.89228    418.37586   -84.753913    38369.369 
  145300    306.06715   -1415.5622    492.13768    459.66481   -182.27336    38369.369 
  145400    294.48883   -1415.2169    512.90799    428.45906    161.72627    38369.369 
  145500    304.07921   -1400.6957     495.6827    469.09302   -302.02754    38369.369 
  145600    294.84356   -1407.5965    531.99999    456.77443    318.29517    38369.369 
  145700    297.70293    -1435.611    512.17866    421.85985    780.50047    38369.369 
  145800    304.12041   -1405.6004    518.36991    487.06164    939.90811    38369.369 
  145900    302.02552   -1432.7599    502.22251    434.28814    662.13276    38369.369 
  146000    296.55167   -1400.3022    526.61889    466.40639    904.19097    38369.369 
  146100    295.40389   -1432.7173    498.98808    401.17376    487.37949    38369.369 
  146200    299.29526   -1445.7646    520.01748    426.74067    254.54418    38369.369 
  146300    297.06839   -1418.0459    510.55779    434.93663    777.50984    38369.369 
  146400    300.26244   -1411.1011    489.78768    435.54487    242.03687    38369.369 
  146500     301.8174   -1427.3028    510.42098    447.00323   -385.80014    38369.369 
  146600    307.83348   -1463.7933    514.75327     442.0312   -154.47431    38369.369 
  146700    296.86716   -1403.0109    495.14782    433.65235    -477.0499    38369.369 
  146800    304.99997   -1481.0731    508.32448    405.51821   -531.99371    38369.369 
  146900    296.14523   -1454.3821    497.03164    380.90258   -1050.8861    38369.369 
  147000    298.60755   -1467.8634    498.27708     379.7937   -929.67168    38369.369 
  147100    301.27815    -1451.175    512.28791     422.5612   -348.91792    38369.369 
  147200     299.7742    -1438.383    486.54996    402.81897   -348.98943    38369.369 
  147300    303.10335   -1465.7324    504.97788    408.94169   -433.03715    38369.369 
  147400    310.73648   -1484.3376    474.84671     394.6987   -177.14332    38369.369 
  147500     303.4562   -1475.3784    520.19864     416.1109   -129.35679    38369.369 
  147600    294.16147   -1462.8619    490.50453    356.93124   -369.68439    38369.369 
  147700    320.96895   -1459.8987    484.87527    475.40577   -115.45898    38369.369 
  147800    300.59015   -1476.1229    510.37225     392.5886   -182.31066    38369.369 
  147900    297.76126    -1450.207    499.10779    394.45653   -315.05509    38369.369 
  148000    302.60299   -1478.9643    480.46351    368.93432   -550.93308    38369.369 
  148100    294.03129   -1460.4064    524.63164    392.92563   -825.36297    38369.369 
  148200    297.03069    -1398.766    485.33227    428.82058   -478.98775    38369.369 
  148300    304.64645   -1412.6769    484.87771    448.87013   -612.08959    38369.369 
  148400    293.74891   -1489.5151    494.06874    331.97796   -169.75471    38369.369 
  148500    287.06764   -1491.8957    491.87194    297.20855   -88.582825    38369.369 
  148600    301.19252   -1475.1391     508.3154    394.23759   -79.910147    38369.369 
  148700    308.16694    -1492.592     496.0475    396.03351   -38.228965    38369.369 
  148800    297.98121   -1497.7349    475.08459    323.89935   -68.752066    38369.369 
  148900    296.28806   -1447.8698      481.254    372.28273    -249.7487    38369.369 
  149000    296.89184   -1481.5587    494.55958    354.62777    377.09815    38369.369 
  149100    298.93351   -1500.4579    481.46929    331.86442    877.49257    38369.369 
  149200     303.6707   -1458.2131    494.83595     408.8828    302.39832    38369.369 
  149300    297.86417   -1447.2713    495.06919    393.81869    412.68873    38369.369 
  149400    295.60567   -1441.3671    495.01727    389.46502    -190.5604    38369.369 
  149500    297.81712   -1446.3973    504.31707    403.72791    79.993602    38369.369 
  149600    302.18245   -1443.6382    499.71499    421.61148   -63.896214    38369.369 
  149700     300.8401    -1469.927    534.48292    424.02468    304.64141    38369.369 
  149800    302.10658   -1473.7295    517.37481     408.8372    216.22737    38369.369 
  149900    298.56647   -1493.9719    473.86515    329.08765    22.990312    38369.369 
  150000    306.57078   -1485.3742    473.38734    373.37831    1.3682019    38369.369 
  150100    301.17909    -1465.679    508.25095    403.57258     144.7545    38369.369 
  150200    309.09038    -1473.774     496.5122    419.48925    429.88881    38369.369 
  150300    300.18674    -1489.742     487.2541    354.02843   -63.810334    38369.369 
  150400    296.86706   -1476.9828    481.61999     346.1521   -205.39315    38369.369 
  150500    300.07356   -1478.2792    492.22298    369.94862    158.12962    38369.369 
  150600    289.40355   -1465.0624    485.75573    328.48132   -865.42397    38369.369 
  150700    296.05517   -1488.7406    482.39152    331.49703   -814.30613    38369.369 
  150800    304.10557   -1487.6909    494.20713    380.74131   -396.17592    38369.369 
  150900    294.84882   -1496.3626    480.57428    316.60642    -497.7674    38369.369 
  151000    309.79395   -1503.3107    508.75074    405.37035    284.30241    38369.369 
  151100    306.02458   -1518.2217    499.58433     364.2595   -504.38612    38369.369 
  151200    308.36546     -1456.37    500.81353    437.91872   -655.48117    38369.369 
  151300    307.00906   -1470.0897    496.29813    413.55415   -470.40096    38369.369 
  151400     288.2749   -1489.1198    496.44498    310.01295   -415.00376    38369.369 
  151500    303.70222   -1486.2615    479.50829    365.64917   -247.34903    38369.369 
  151600    303.23745   -1485.8389    480.33851    364.80176    -348.3439    38369.369 
  151700    298.91253   -1475.0994    502.08393    377.74272   -298.76142    38369.369 
  151800    301.66972   -1490.2828    505.15301    378.08794   -537.49831    38369.369 
  151900    296.96643   -1500.6649    517.50993    358.80896   -532.38595    38369.369 
  152000    301.08157   -1518.4242    475.29415    317.42981    -89.37282    38369.369 
  152100    300.35728    -1502.758    500.96944    355.49834   -555.32526    38369.369 
  152200    295.89722    -1517.535    481.86048    301.45784   -356.72737    38369.369 
  152300    295.73115   -1505.2149    500.54016    331.70715   -147.13021    38369.369 
  152400    301.39779    -1489.404    486.01903    358.60393   -251.40781    38369.369 
  152500    288.60342   -1482.4917    524.53926    346.21991   -72.513419    38369.369 
  152600    296.64912   -1468.3074    483.54577    355.76843    179.95337    38369.369 
  152700    296.06441   -1478.1862    497.69424    357.39586   -122.40083    38369.369 
  152800    301.92743     -1484.78    503.16331    382.76562   -70.134583    38369.369 
  152900    301.13903   -1463.2145    501.37265    398.97772   -240.01001    38369.369 
  153000    303.79578   -1491.5791    496.73607    377.98218   -177.02212    38369.369 
  153100    300.12862   -1504.9189    491.20078    342.53547    41.248374    38369.369 
  153200    297.78063   -1500.4659    512.26557    357.44291   -167.67344    38369.369 
  153300    301.88069   -1505.5185    492.10534    350.75795   -311.17907    38369.369 
  153400    306.45857   -1505.8812    488.97389    367.95075    206.19977    38369.369 
  153500     314.3161   -1484.1641    493.05985    429.26132    18.129117    38369.369 
  153600    302.58309   -1474.5119    498.65928    391.49256   -521.07313    38369.369 
  153700    300.79776   -1453.0502    491.49217    397.71937   -570.57716    38369.369 
  153800    303.34014   -1471.1871    506.10225     405.6813   -49.033681    38369.369 
  153900    304.04304   -1442.7231     517.1441    448.36352     199.6739    38369.369 
  154000    291.38746   -1472.5257    487.29082    331.51826   -361.56481    38369.369 
  154100    299.32141   -1502.5517    518.82962    368.88384   -406.33692    38369.369 
  154200    288.74333    -1477.603    511.71668    338.91824   -542.45573    38369.369 
  154300    305.14702   -1469.2282    489.94093     399.6441   -312.03497    38369.369 
  154400     304.1235   -1456.4728    487.90035     405.7337    118.51212    38369.369 
  154500    305.36562   -1487.5058    497.77876    390.19213    24.679366    38369.369 
  154600    312.76658   -1487.4193    488.36511    414.30927   -152.30379    38369.369 
  154700    299.91581   -1489.8642    483.56059    348.98839   -445.46713    38369.369 
  154800    299.15033   -1468.5708    509.41403    392.67603   -104.83821    38369.369 
  154900    293.32472   -1478.4389    502.24634    349.31482    144.71256    38369.369 
  155000    314.14126    -1485.847    512.66998    446.39844    578.20681    38369.369 
  155100    302.54351   -1503.1441    496.36645    360.38864    444.01468    38369.369 
  155200    288.66116   -1523.2707    491.13139    272.29388    -313.8191    38369.369 
  155300    306.58082   -1461.7318    525.23442    448.91321   -385.33964    38369.369 
  155400    303.13005   -1507.0882    484.83536    347.56401   -847.56713    38369.369 
  155500    295.33312   -1545.3551    490.74561    279.97374   -667.88901    38369.369 
  155600    303.44787   -1491.2163    497.17201    377.20869   -363.16915    38369.369 
  155700    304.91317   -1503.4255    507.17494    381.62405    146.68925    38369.369 
  155800    295.58967   -1473.5942    502.21069    364.35901     -464.106    38369.369 
  155900    278.31188   -1498.7219    502.13441    261.07832   -305.34662    38369.369 
  156000    303.99268   -1506.3609    512.67641     380.0305    209.20939    38369.369 
  156100     297.7868   -1501.7559    467.45237    311.36762    518.78489    38369.369 
  156200    298.70405   -1504.8269    509.95822    354.94742    297.01486    38369.369 
  156300    303.18934     -1501.33    498.55255    367.30733    304.21084    38369.369 
  156400      295.695   -1489.9073    506.73902     353.0502    257.11557    38369.369 
  156500    312.60159   -1470.6596    497.96358    439.92185    352.67496    38369.369 
  156600    310.00797   -1468.8684    506.09343    438.12256    570.84866    38369.369 
  156700    304.91227   -1460.5722    509.83118    427.12943    215.96655    38369.369 
  156800    292.71032   -1473.9572    494.80579     343.5796     501.6667    38369.369 
  156900    291.18237   -1482.0648    495.06502    328.82653   -420.13076    38369.369 
  157000    294.87435   -1458.3026    499.01132    373.21879    -462.1233    38369.369 
  157100    289.56498   -1467.6599    515.44522    356.30287   -460.72596    38369.369 
  157200    303.82637   -1476.1311    499.06654    395.89889   -216.22479    38369.369 
  157300    285.71911    -1525.085    493.88801    259.94133   -471.47017    38369.369 
  157400    300.87205   -1521.0079    505.44386    344.04908   -458.45634    38369.369 
  157500    298.08896   -1477.7563    484.98132    354.26163    368.45408    38369.369 
  157600    305.60216   -1528.8325    509.76093    361.91648   -145.39894    38369.369 
  157700    296.87935   -1480.8232    506.24744    366.99474     30.72832    38369.369 
  157800    304.20778    -1477.033    499.67139    397.32537   -257.51958    38369.369 
  157900    306.38788   -1479.5737    513.19465    418.15958   -734.49977    38369.369 
  158000    302.52187   -1467.2325    491.94241    391.77844   -458.20107    38369.369 
  158100     293.1391   -1524.9163    491.19868    290.95098     -844.096    38369.369 
  158200    307.99526    -1501.368    488.51583    378.95011   -434.68791    38369.369 
  158300      297.481   -1511.7112    495.91075    328.48885   -500.74242    38369.369 
  158400    298.31629   -1486.3284    489.17979    350.91526    36.051878    38369.369 
  158500    302.84456   -1485.3039     498.4571    381.67988   -530.30963    38369.369 
  158600    297.84036   -1454.5907    533.99144    425.31395    183.02434    38369.369 
  158700    295.53967   -1458.5227    487.96067    364.95459   -528.18073    38369.369 
  158800    315.72354   -1451.9738    468.31607     443.0679   -459.98827    38369.369 
  158900    305.44295   -1446.8754    477.51508    410.90832    -692.6504    38369.369 
  159000    294.53945    -1452.548    496.97067    375.41939   -674.73856    38369.369 
  159100    307.01977   -1461.6662    480.10211    405.83005   -265.20389    38369.369 
  159200    298.73075   -1486.0751    474.48623    338.34789    259.09137    38369.369 
  159300    291.70337   -1455.4926    512.85304    375.54109   -172.00083    38369.369 
  159400    310.15033    -1469.892    515.16563    446.81442   -159.74343    38369.369 
  159500    290.75827   -1442.4773      500.981    372.41365    365.84416    38369.369 
  159600    304.70738   -1464.0174    494.51992     407.4472    542.52161    38369.369 
  159700    291.67826   -1454.5279    494.18567    357.72503    878.49993    38369.369 
  159800    302.04313   -1461.0791    478.51103    382.33702     471.2599    38369.369 
  159900    306.76397   -1454.3862    535.97814    467.83015    436.57503    38369.369 
  160000    309.14016   -1478.1987    466.88756     385.6648    990.09063    38369.369 
  160100    293.59793   -1464.9139    498.48241     360.3106    563.22987    38369.369 
  160200    295.86745   -1469.1744    498.18496     366.0084    714.79225    38369.369 
  160300    301.65283   -1462.8422     477.7181    378.01728    81.320268    38369.369 
  160400    303.11457   -1491.9441    504.12293     381.9257    484.53127    38369.369 
  160500    308.54058   -1461.9595    507.23632     439.5433     748.4701    38369.369 
  160600    283.07424   -1453.1075     494.1966    320.27555   -12.306867    38369.369 
  160700     292.5879   -1413.8503    494.89818    403.22568   -422.92341    38369.369 
  160800    295.40103   -1477.9305    457.15765    314.11718   -130.75227    38369.369 
  160900    308.00356   -1473.1459     500.6912    419.38502   -260.34297    38369.369 
  161000    302.62498   -1463.4859    484.68263    388.73114   -29.527156    38369.369 
  161100    302.32571   -1473.1398    501.81932     394.8616    120.05048    38369.369 
  161200    304.78227   -1492.6732    479.42505     364.0349    222.49531    38369.369 
  161300    290.42151   -1476.2344    497.46469    333.61842    552.55134    38369.369 
  161400    307.35835   -1516.2239    500.30928    373.00945     44.95036    38369.369 
  161500     299.4177   -1474.8346      461.283     339.4894    34.350917    38369.369 
  161600    306.61447   -1485.2469    481.37031    381.68602    195.43703    38369.369 
  161700    304.98618    -1471.097    511.27022    418.37771    801.69028    38369.369 
  161800    290.11284   -1455.1708    500.97291    356.79536    667.16997    38369.369 
  161900    302.95121   -1401.6881    516.06699    483.38755    896.39683    38369.369 
  162000    294.94318   -1455.0898      520.755    398.48633    825.84946    38369.369 
  162100    299.38505   -1416.6835    489.09544    425.30548    172.24464    38369.369 
  162200    294.24425   -1440.5383    514.36918    403.49355    678.41293    38369.369 
  162300    298.10188   -1451.6994    507.19603    402.59164     465.3456    38369.369 
  162400    306.27159   -1452.3201    485.60009    417.29309     118.9442    38369.369 
  162500    299.88415   -1432.0999    491.28124    414.33021   -223.75709    38369.369 
  162600    302.52236   -1460.9597    491.36023    397.47122   -317.09653    38369.369 
  162700    293.83898   -1445.2083    518.65463    401.27768   -138.82248    38369.369 
  162800    301.70047   -1469.7417    499.18404    392.79908    294.70221    38369.369 
  162900     310.4438   -1427.2048    518.83421    494.49638     746.7774    38369.369 
  163000    289.78044   -1437.6463    497.27872    369.12361    677.52733    38369.369 
  163100    309.64876   -1459.1791    522.31572     462.4109    435.51864    38369.369 
  163200    314.51715   -1450.3891    481.25132    452.13627    921.15964    38369.369 
  163300    303.40341   -1471.8125    501.63211    400.87168     619.6632    38369.369 
  163400     305.8934   -1470.5434    494.14519    405.90587    156.04223    38369.369 
  163500     297.5673   -1476.9332    482.43887    350.18495   -281.36561    38369.369 
  163600    291.70026   -1469.3341    494.44007    343.27263    756.39765    38369.369 
  163700    304.02205   -1470.6215    509.69609    412.92229    434.90643    38369.369 
  163800    290.01809   -1480.5551    511.91372    341.92374    756.36856    38369.369 
  163900    299.62463   -1482.2841    499.44072    371.13273    812.07352    38369.369 
  164000    301.30821    -1488.521    521.12552     394.1886    806.94878    38369.369 
  164100    291.08821   -1441.0095    508.55934    382.95065    27.401888    38369.369 
  164200    294.98446   -1463.3962    509.94451    379.55599     482.1128    38369.369 
  164300    296.32047   -1452.8332    498.33506    384.54679    213.05948    38369.369 
  164400    297.16878   -1481.7825    491.90522     353.0011    906.92836    38369.369 
  164500    309.85904   -1469.6546     520.9653    451.53518    282.49061    38369.369 
  164600    297.02262   -1460.0608    509.46627    391.62336   -110.97583    38369.369 
  164700    288.48788   -1446.3841    487.92259    345.18871   -251.56214    38369.369 
  164800    284.41487   -1475.5637    485.26612    294.94702   -494.12948    38369.369 
  164900    304.68299   -1445.9857    486.31975    417.16845   -561.32679    38369.369 
  165000    305.24878   -1440.0943    486.85521     426.1521   -320.17534    38369.369 
  165100    295.90605   -1418.1175    482.17638    401.23105   -408.60187    38369.369 
  165200    301.37184   -1452.8665    499.26294    408.26803   -217.88722    38369.369 
  165300    307.60765   -1452.7723    510.91092     448.1893   -347.65806    38369.369 
  165400    295.08778   -1415.6738    489.17815    406.97895   -566.19193    38369.369 
  165500    298.96262    -1396.751    523.84818    478.08175   -145.46939    38369.369 
  165600     299.9218   -1453.3434    493.10114    395.07673    -183.2319    38369.369 
  165700    308.14066   -1480.1815    483.56493     395.8427    510.45492    38369.369 
  165800    307.89782   -1452.0262    486.24123    425.57692     452.3584    38369.369 
  165900    305.51662   -1438.3862    510.56855    452.78392    -146.5849    38369.369 
  166000    300.93962    -1450.696    501.46757    410.69007   -87.117698    38369.369 
  166100    292.53168   -1499.8635    496.09755    318.15778   -142.56566    38369.369 
  166200    309.59162   -1489.9052     463.9384    373.04927   -238.61478    38369.369 
  166300    292.67638   -1501.6597    482.48773    303.40573    72.086891    38369.369 
  166400    298.02723   -1474.6046    474.79836    346.95138    72.712642    38369.369 
  166500    288.88415   -1466.7113    485.31648    324.04607   -100.61975    38369.369 
  166600    300.69219   -1456.9897     480.1778    381.98841    104.42264    38369.369 
  166700    303.21162   -1440.9124    502.76778    432.04079   -143.99314    38369.369 
  166800    297.51104   -1434.9962    506.59714    416.02603    -445.0929    38369.369 
  166900    303.61045   -1446.2709    480.53264    406.24946   -467.71833    38369.369 
  167000     303.2771    -1503.569    491.04408    357.95643   -475.58809    38369.369 
  167100    298.73104   -1456.1063    489.71385    383.54566   -38.601727    38369.369 
  167200      297.831   -1421.4617    481.91343    406.32266    -227.7922    38369.369 
  167300     301.6795   -1437.2301    476.99565     403.0275   -323.08228    38369.369 
  167400    300.38376   -1453.2016    488.93621    393.14124   -545.10681    38369.369 
  167500    301.83616   -1446.2112    486.56396    404.32266   -188.64539    38369.369 
  167600    293.78841   -1459.3354    467.92197    336.18937    -852.4776    38369.369 
  167700    293.53119   -1448.9397    488.07769    365.57847   -290.93923    38369.369 
  167800    298.02701   -1445.2021    504.05744    405.61195   -369.20615    38369.369 
  167900    293.89489   -1461.8983    480.63554    346.82123    263.32072    38369.369 
  168000    306.17259   -1466.6683    496.49787    413.39532   -63.109836    38369.369 
  168100    295.24809   -1473.7468    464.36765    324.81981   -160.86882    38369.369 
  168200    305.64967   -1513.7929    482.38749     349.7973    167.49883    38369.369 
  168300    299.41562   -1548.9388    482.49496    286.58782    109.37804    38369.369 
  168400    300.81513   -1554.5578    472.97761    277.77577    883.52267    38369.369 
  168500    303.31188   -1533.2939    505.23315     342.5778    864.77006    38369.369 
  168600    298.07763    -1530.283    499.03926    315.74165    920.82224    38369.369 
  168700    295.02097   -1472.8651    492.27075    352.57828    1031.2522    38369.369 
  168800     303.8405   -1508.7951    479.22687      343.459    858.78673    38369.369 
  168900    296.71917   -1505.3587    461.57639    297.06435    906.93838    38369.369 
  169000     301.2488   -1455.3373    511.18703    417.16532    458.08705    38369.369 
  169100     296.0998    -1474.558    476.59064    340.08046    757.33336    38369.369 
  169200    294.53433   -1526.7157    477.83619    282.09409    366.47973    38369.369 
  169300    309.42471   -1495.6582    489.94483    392.54842     480.7607    38369.369 
  169400    303.45602   -1473.1908    484.32344    382.42247    266.38492    38369.369 
  169500     313.3232   -1463.2174    467.63442    420.29571   -142.68099    38369.369 
  169600    304.21455   -1494.4807    472.47531    352.71217    83.436108    38369.369 
  169700    303.60892   -1484.0011     494.7716    382.75134    245.07508    38369.369 
  169800    299.55542   -1451.5341    508.32752    410.45679    257.81768    38369.369 
  169900    297.14701   -1451.7107    506.24811    397.31736    294.04092    38369.369 
  170000    294.14482   -1461.8205    478.96413    346.35699    90.263527    38369.369 
  170100    298.66355    -1434.681    465.41137    380.36351    70.535301    38369.369 
  170200    304.98929    -1469.754    493.76932    402.23389   -633.36384    38369.369 
  170300    302.30715   -1476.6633     485.3243    374.75916   -872.60717    38369.369 
  170400    307.19923   -1470.1499    492.83154    410.88674   -225.09727    38369.369 
  170500     294.7228   -1457.2647    471.41654    345.97707   -100.26892    38369.369 
  170600    287.80033   -1485.9378    492.98022    307.58567    444.83847    38369.369 
  170700    302.67496   -1489.8513    472.33727    350.24629     907.7142    38369.369 
  170800    292.41314   -1465.4629    484.75142    340.67657    659.97316    38369.369 
  170900    295.82888   -1497.1314    488.84067    328.53277    914.20773    38369.369 
  171000    291.44784   -1438.8025    478.90167    357.12515    634.23404    38369.369 
  171100     293.8746   -1422.1279    477.38899     383.2534    439.18219    38369.369 
  171200    303.34747   -1442.4672    492.84156    421.17368    269.04394    38369.369 
  171300    296.46365    -1487.501    484.08965    336.28064     443.7246    38369.369 
  171400    296.82176   -1431.2588    479.23949    389.29096    129.93538    38369.369 
  171500    297.77413   -1447.2403     457.3095    355.68309    718.98145    38369.369 
  171600    300.46766   -1423.9955    496.11074    429.90093    436.10674    38369.369 
  171700    302.39318   -1426.9939    485.11825    424.61131    706.11188    38369.369 
  171800    310.39316   -1414.3327    500.39644    488.70186    633.23034    38369.369 
  171900    295.26008   -1424.7603    484.13264     393.6255    842.51189    38369.369 
  172000    293.69544    -1440.244    495.91886    382.85755     358.7982    38369.369 
  172100    300.53701   -1424.7747    468.03123     401.3557    180.00113    38369.369 
  172200    308.19721   -1477.9887    480.33817    395.06432    305.09636    38369.369 
  172300    305.14086    -1407.483     496.8284    468.24885    432.93247    38369.369 
  172400    300.26949   -1417.4168    474.66592    414.13929    315.00305    38369.369 
  172500    294.38299   -1414.0389     486.8794    403.13013   -31.815566    38369.369 
  172600    298.99932   -1420.6165    491.96406    422.49799    66.290728    38369.369 
  172700     301.0209   -1455.0173    474.28964     379.5581    92.017971    38369.369 
  172800    298.57225   -1423.0303    483.54678    409.73698   -573.88859    38369.369 
  172900     299.4374   -1455.4261     479.0227    376.72664   -693.09869    38369.369 
  173000    295.93226   -1456.5985     480.8016    361.49374   -39.286609    38369.369 
  173100    297.69222   -1437.0793    494.45283    402.61732    224.50816    38369.369 
  173200    309.43474   -1459.9123    490.46744    428.86229    427.87586    38369.369 
  173300    298.80828   -1501.7508    483.40677    331.94315    317.97491    38369.369 
  173400    303.96611   -1511.1088    456.42249    318.90858    568.97084    38369.369 
  173500    301.95416   -1480.5134    497.77518    381.76486    346.04549    38369.369 
  173600    295.76476   -1447.1191     482.4901    371.90471   -106.41084    38369.369 
  173700    305.61034    -1448.617    508.56491    440.97295   -80.017857    38369.369 
  173800    288.83485   -1427.3854    490.61976    368.45255    202.35156    38369.369 
  173900    300.04609   -1429.6894    480.82002    407.01126    292.85592    38369.369 
  174000    313.56116   -1460.7154    485.64465    441.88328    159.57962    38369.369 
  174100    287.60404   -1464.6947    485.06784    320.02933    126.32144    38369.369 
  174200    298.63085   -1461.6147    480.28333    368.15396    106.51188    38369.369 
  174300    299.03833   -1420.9845    485.95286    416.29505   -160.02794    38369.369 
  174400    299.71684   -1432.3973    471.82136     393.8169    253.12022    38369.369 
  174500    306.99211   -1447.7133    485.34302    424.89882    72.689228    38369.369 
  174600    302.55765   -1475.2542    471.62246    363.59846   -271.43129    38369.369 
  174700    300.92577   -1483.0646    478.07341    354.86467    572.99177    38369.369 
  174800    297.11784   -1429.1542    513.66815    427.16218    270.53233    38369.369 
  174900    301.22574   -1456.8387    470.30996    374.68272   -84.790978    38369.369 
  175000    309.53098   -1459.9901    488.76947    427.52138    107.77595    38369.369 
  175100    297.95888   -1450.9409    506.43269    401.94055   -206.44463    38369.369 
  175200    289.73058   -1457.8108    465.25935    316.71446   -254.92642    38369.369 
  175300    297.61406   -1464.9368     476.4796     356.4334   -330.18623    38369.369 
  175400    296.24607   -1450.7105    490.08815    378.08645   -407.37581    38369.369 
  175500    295.17319   -1447.4108    485.29385    371.74355   -293.44534    38369.369 
  175600    294.00389   -1452.0903    505.38072    381.86699   -481.10772    38369.369 
  175700    295.65244   -1408.4126    502.11658    429.73021     -281.869    38369.369 
  175800    300.12493   -1434.7501    482.63468    404.12154   -192.21061    38369.369 
  175900      294.285     -1441.42    488.98995    377.41683   -43.568875    38369.369 
  176000    302.87967   -1443.3111    527.13773    452.51203    561.99066    38369.369 
  176100    301.98656   -1412.1353    485.07777    437.59194    869.07286    38369.369 
  176200    298.57598   -1372.8003    511.87236    488.30949    894.54223    38369.369 
  176300    310.99009   -1414.6596    520.15062    510.82659    423.69867    38369.369 
  176400    296.66414   -1457.0705    460.85334    344.38082    241.42907    38369.369 
  176500    305.57723   -1426.7349    477.81063    431.95111    103.91252    38369.369 
  176600    293.84471   -1507.9474    483.90109    303.81093    324.91859    38369.369 
  176700     303.6466   -1487.7036    504.44392    388.89138    44.365247    38369.369 
  176800    294.02045   -1466.5766    469.18562    331.26042   -324.85327    38369.369 
  176900    295.42853    -1527.239    477.12748    284.90281   -51.501152    38369.369 
  177000    315.53292   -1503.3556    484.00529    406.51396      407.613    38369.369 
  177100     307.4117   -1502.3385    492.94159    379.76826    292.76016    38369.369 
  177200    304.75037   -1489.8167     482.2429    369.56516     445.6286    38369.369 
  177300     300.9406   -1489.2773    489.19873    359.84432    358.26895    38369.369 
  177400    294.53966   -1506.1756    474.94324    299.76525    166.45909    38369.369 
  177500    302.86336   -1526.2679    462.97416    305.31799   -323.39346    38369.369 
  177600    303.96929   -1501.2996    475.96158    348.27129   -187.88218    38369.369 
  177700    305.82779    -1507.029    480.51183    355.49051   -255.07947    38369.369 
  177800    300.27525   -1502.2666     485.4353    340.08498   -836.22732    38369.369 
  177900    303.23366    -1482.296    464.37375    352.36281   -362.95623    38369.369 
  178000    308.67735   -1471.2906    467.16255    390.75646    47.559965    38369.369 
  178100    293.01865   -1513.2259    468.84999    279.74846    1061.4132    38369.369 
  178200    293.44334   -1497.8843    487.52385    315.68304     517.4803    38369.369 
  178300    305.86129   -1527.8594    476.88226    331.18192    769.71852    38369.369 
  178400    309.13151   -1509.2971    497.37393    385.01362    255.07285    38369.369 
  178500    305.16867    -1492.589    474.17085    360.61104    311.28285    38369.369 
  178600    305.92023   -1504.2102    475.86545    354.08062   -184.03443    38369.369 
  178700    297.88336   -1471.5716    456.34781    330.88376   -367.97909    38369.369 
  178800    307.10376   -1464.5682    480.37834    403.58382    276.77126    38369.369 
  178900    309.71388   -1440.7683    490.00073    448.80098   -161.29346    38369.369 
  179000    301.91571   -1472.9398    476.68218    368.07174    233.32542    38369.369 
  179100     293.9802   -1455.9721    494.86561    367.36298   -407.00311    38369.369 
  179200      305.095   -1445.9656     505.6637    438.39438   -361.03662    38369.369 
  179300    303.59185   -1421.1121    489.03263    439.82418    160.33103    38369.369 
  179400     296.4701   -1427.5024    508.14266    420.36138    283.53285    38369.369 
  179500    307.61458   -1452.1758    484.68109    422.58727    307.53768    38369.369 
  179600    292.19416   -1472.8705    482.94899    330.47706    523.67924    38369.369 
  179700    310.54947    -1414.664    478.62398    467.30444    108.33699    38369.369 
  179800    305.62908   -1424.1582    484.35105    441.30252   -224.34827    38369.369 
  179900    297.65472   -1438.7634     490.6771    396.98805   -531.19112    38369.369 
  180000    297.81204   -1459.0832      487.429    374.13102    188.40601    38369.369 
  180100    302.89663   -1504.0985    491.66882    356.33232    483.92356    38369.369 
  180200    290.02376   -1489.7126    505.41744    326.29548    106.64548    38369.369 
  180300    292.27916   -1512.4373    481.30405    289.64942    338.99758    38369.369 
  180400    291.67287   -1484.1558    507.07346    340.96056    177.92425    38369.369 
  180500    292.02838   -1469.8901    468.26103    318.02031     379.5108    38369.369 
  180600    296.01849    -1452.129    490.34863    375.89995   -311.46502    38369.369 
  180700    290.37141   -1443.9288    486.82189    355.05473   -328.75195    38369.369 
  180800    293.46243   -1414.5213     510.9766    422.58508    -935.8972    38369.369 
  180900    292.00921   -1429.7265      506.102     395.9383    -147.2485    38369.369 
  181000    295.08684   -1411.8286    504.22127    425.86293    225.07439    38369.369 
  181100    308.92267   -1400.6759    493.46274    488.77999   -70.888101    38369.369 
  181200    303.39408   -1430.4482    480.23679    420.79851   -31.428688    38369.369 
  181300    300.13433   -1427.2996    507.87702    436.85692    70.754405    38369.369 
  181400    296.20416   -1426.0698    508.92028    421.36982    537.94213    38369.369 
  181500    301.66215   -1402.7223    508.17009    468.63137    17.855056    38369.369 
  181600    301.05426   -1446.1081    505.98952    420.31792    182.95967    38369.369 
  181700    298.01187   -1437.4526    477.32001    386.55566    -130.1097    38369.369 
  181800    308.34204    -1469.499    516.38543    440.25575   -117.80582    38369.369 
  181900    296.63856   -1438.4309    486.59604     388.6475   -278.30641    38369.369 
  182000    311.44799   -1398.4514    520.00212    528.95558    507.48828    38369.369 
  182100    296.26396   -1462.2852    486.52243    363.02683   -193.98087    38369.369 
  182200    298.76881   -1453.9498    484.23135    380.39028   -523.60934    38369.369 
  182300      290.827   -1484.9317    508.89685    338.18563   -108.32352    38369.369 
  182400    308.91783   -1453.0342     516.4074    459.34449   -432.16444    38369.369 
  182500    307.88878   -1454.2596    501.38348      438.445   -205.34951    38369.369 
  182600    296.38992   -1426.3844    500.01392    412.98828   -616.82825    38369.369 
  182700    307.87637   -1457.5122    492.08441    425.83726   -335.61378    38369.369 
  182800    294.68148   -1465.6076    488.84033    354.87129   -46.053481    38369.369 
  182900    283.77628   -1436.8482     502.2956     347.8063    337.76155    38369.369 
  183000    302.41228   -1435.8465    506.17475    436.90152    287.07741    38369.369 
  183100    302.23513    -1474.967    501.03734    391.84308     648.8032    38369.369 
  183200    299.01794   -1426.8319    492.63543    417.03807   -70.802782    38369.369 
  183300    303.56856   -1450.0078    478.99965    400.79027   -41.770474    38369.369 
  183400    301.89992   -1458.7403    495.85478    401.37239   -401.84201    38369.369 
  183500    306.48846    -1457.715    494.12447    421.40266   -41.233178    38369.369 
  183600    303.74879   -1447.7793     484.8369    409.67048    295.94835    38369.369 
  183700    302.05072   -1415.6884    491.20627    440.45731    140.59322    38369.369 
  183800    294.96181   -1490.2406    499.73777    342.40244    916.49399    38369.369 
  183900    311.71906   -1474.4487    502.05216    436.23326     892.3098    38369.369 
  184000    301.06278   -1466.2312    515.65891    409.90272    436.93046    38369.369 
  184100     297.0183   -1505.2934    499.07123    335.97621    9.0003299    38369.369 
  184200    306.21518   -1525.4094    473.60616    331.95499    18.895893    38369.369 
  184300    302.73851   -1529.5926    476.97289    315.42779     149.6075    38369.369 
  184400    296.57459   -1503.5357    493.21957    329.87718      -550.26    38369.369 
  184500    294.94567   -1517.4855    479.00776    294.35461    -198.3243    38369.369 
  184600     303.2717   -1471.0568    479.12837    378.52849    -13.65923    38369.369 
  184700      295.946   -1501.1024    482.66317    318.91354    -132.0035    38369.369 
  184800    299.20315   -1495.3522    502.57517    359.29453   -323.87052    38369.369 
  184900    306.90972    -1459.298    489.81884    417.41764    246.41665    38369.369 
  185000    308.22366   -1462.9894    488.84106    418.68605   -350.67239    38369.369 
  185100    304.31623   -1466.4532    470.69516    379.41897   -502.99437    38369.369 
  185200    303.13894   -1504.7757    494.20766    359.28892   -747.95033    38369.369 
  185300     308.6513   -1532.6637    472.80667    334.90984   -684.79077    38369.369 
  185400    306.69529   -1506.9456    466.26499    345.24724   -137.04976    38369.369 
  185500    306.17512   -1480.3617    499.64613    402.86166   -596.75557    38369.369 
  185600     303.3217   -1535.0275    464.67322    300.32856   -1089.9825    38369.369 
  185700    307.97264   -1482.2442     502.5068     411.9627   -236.58873    38369.369 
  185800     294.4624    -1488.939    511.78457    353.49414    -310.5752    38369.369 
  185900    309.42502   -1519.4056    464.54408    343.40166   -21.452295    38369.369 
  186000    307.08735   -1538.9653    470.74251    319.47671    434.94567    38369.369 
  186100     306.8712   -1529.7375    482.72737    339.71262    -121.4566    38369.369 
  186200    301.92186   -1515.2283    477.63273    326.76152   -12.960562    38369.369 
  186300    294.35629   -1528.5522    495.22061    296.83739    127.71728    38369.369 
  186400    300.25671   -1544.0654    467.42664     280.1937    244.30403    38369.369 
  186500    295.93737   -1486.8351     485.3441    335.82283    225.63541    38369.369 
  186600    300.86761   -1488.1761     488.1364    359.55336    235.37871    38369.369 
  186700    293.01352   -1505.3196    504.21531    322.99681    418.55613    38369.369 
  186800    296.74109   -1520.7521    502.94099    323.13458    140.65423    38369.369 
  186900    301.51194   -1461.5488    480.29055    381.24648    390.22462    38369.369 
  187000    294.46455   -1485.9715    497.75081    342.43757    212.72861    38369.369 
  187100    300.27564    -1485.454    469.30603    340.77006    260.46744    38369.369 
  187200    307.94366   -1472.0209    485.65018    405.19833    270.62679    38369.369 
  187300    306.33925   -1464.3553    482.16271    402.12628     83.99964    38369.369 
  187400    305.62514   -1522.6846    487.83549    346.24276     595.6377    38369.369 
  187500    302.47908   -1497.1411    495.73836    365.47243    336.06818    38369.369 
  187600    291.22331   -1476.6513    503.13455     342.4946    127.33396    38369.369 
  187700    305.46656   -1469.0475    512.45421    423.78198    902.93708    38369.369 
  187800    303.07236     -1525.36    484.92969    329.12579    409.63525    38369.369 
  187900    299.89049   -1469.8856     496.3326    381.62459    991.92491    38369.369 
  188000    302.42851   -1532.9104     502.3271    336.06337    788.21798    38369.369 
  188100    303.74204   -1484.8086    475.89734    363.67108    217.90471    38369.369 
  188200    304.99459   -1504.2186    484.49975    358.52365    416.38514    38369.369 
  188300    311.56735    -1472.101    507.21846    443.06165    331.85803    38369.369 
  188400    298.39386   -1473.2138    493.75356    368.95411   -22.138464    38369.369 
  188500    300.02884   -1480.1814    516.00734    391.62869    171.74152    38369.369 
  188600    294.36703   -1471.0448    502.94985    362.12257    -163.6441    38369.369 
  188700    296.90317   -1506.2404    469.97946    305.41715   -125.08584    38369.369 
  188800     301.5603   -1510.1855    511.39555     363.9333    280.76263    38369.369 
  188900    301.11195   -1494.2848    477.58655    343.99897   -303.93214    38369.369 
  189000    306.09931   -1451.4748    519.55556    451.31538   -314.17218    38369.369 
  189100    298.12342    -1512.001    487.77962    322.97091    10.957517    38369.369 
  189200    294.66998    -1511.034    512.74182     333.2943   -10.092838    38369.369 
  189300     298.2048   -1522.2463    468.52807    293.84181    -718.0184    38369.369 
  189400    287.30848   -1471.5644    527.15504    353.91125   -659.21955    38369.369 
  189500    302.25884   -1492.2839    493.98701    367.58297   -433.32892    38369.369 
  189600    307.35852    -1455.477    480.69058    414.13853   -370.34389    38369.369 
  189700    292.87337   -1470.3709     497.5739    350.67086    33.803829    38369.369 
  189800    315.06752   -1477.9665    504.44318    450.23786    404.69413    38369.369 
  189900     299.1014   -1442.8981    502.88512    411.59873    507.05365    38369.369 
  190000    298.70771   -1517.6727    482.00603    314.16601   -273.83187    38369.369 
  190100    304.99664   -1482.1804    511.26385    407.33524    140.41966    38369.369 
  190200    301.19324   -1516.8546    489.85395    334.06391    354.95486    38369.369 
  190300    299.78402   -1481.8122    504.27632     377.1606    759.07505    38369.369 
  190400    305.41624   -1459.2284      513.686    434.60545    761.31937    38369.369 
  190500    302.76109   -1487.4234    514.88477    395.61091     654.1761    38369.369 
  190600    294.63266    -1502.563    519.92259     348.7775    440.87959    38369.369 
  190700    296.60507   -1488.7148    506.67338    358.28965    407.39025    38369.369 
  190800    305.16698   -1450.9565    519.98776     448.0528   -219.67622    38369.369 
  190900    289.58777    -1475.387    470.00268    303.23622   -567.67433    38369.369 
  191000    294.27775   -1457.3207     509.3302    381.82363    77.277017    38369.369 
  191100    295.70078   -1468.5983    520.08169    387.72801    653.78282    38369.369 
  191200    292.84762   -1451.7241    499.40469    371.03209   -89.454712    38369.369 
  191300    299.88163   -1482.7027    498.86415    371.29893    162.03569    38369.369 
  191400    292.37513   -1490.7683    501.92325    332.37128    150.74361    38369.369 
  191500    288.42925   -1503.4089     543.0417    343.01804    182.72582    38369.369 
  191600    309.06581   -1495.2142    477.53153     378.9573    156.59205    38369.369 
  191700    309.16015   -1437.1087    515.82676     475.7844    904.98283    38369.369 
  191800    294.75306    -1411.661    512.81001    433.11097    631.62013    38369.369 
  191900    301.96647   -1446.5252    534.95711    452.99059    271.36152    38369.369 
  192000    300.40996   -1412.1625    502.23252    447.59502    543.07074    38369.369 
  192100    310.12029    -1414.423    534.14371    521.12575    120.22847    38369.369 
  192200    302.73988   -1433.0595    513.19708    448.19125     244.4506    38369.369 
  192300    296.57616   -1456.4416    512.49563    396.25443   -249.43728    38369.369 
  192400    300.25622   -1462.2122    508.75005    403.36809   -603.14869    38369.369 
  192500    302.87606   -1420.4971    498.95161    447.12359   -898.73427    38369.369 
  192600    300.31174   -1421.2622    480.50906    416.32799   -343.27536    38369.369 
  192700    314.27674   -1424.4248    500.99241    496.75527   -502.49001    38369.369 
  192800    326.21487   -1486.8735    495.99707    483.25856    117.39434    38369.369 
  192900    307.43304   -1427.6762    516.69552    478.28089    12.158035    38369.369 
  193000    296.31544   -1470.4006    478.41732    347.03897     159.1046    38369.369 
  193100    302.09436   -1464.3261    529.26467    430.07523    311.99162    38369.369 
  193200    298.46183    -1464.854    496.80349    380.67109   -8.7535028    38369.369 
  193300    297.91804   -1434.2057    479.14795    391.20648   -1.9189671    38369.369 
  193400    301.64775   -1468.8635    503.75725    398.01224   -288.63447    38369.369 
  193500    301.72988   -1467.0031    501.27185    397.75831    275.78602    38369.369 
  193600    306.59511   -1431.6338    494.88021    448.72155   -67.082264    38369.369 
  193700    302.44875   -1487.3818    505.23632    384.59259     96.47807    38369.369 
  193800    301.69276   -1485.6457    513.31116    390.98727    372.17226    38369.369 
  193900    297.73363   -1464.4968    491.26441    372.19853    196.20999    38369.369 
  194000    305.10478   -1486.3123    527.25522    419.68335    81.622761    38369.369 
  194100    291.71142    -1491.575    491.41513    318.05725   -579.36477    38369.369 
  194200    298.67968   -1508.7237     486.8172    327.79949   -127.23174    38369.369 
  194300    306.24415   -1493.6402    505.16465    395.41359     150.6717    38369.369 
  194400    295.15452   -1458.3624    488.60469    364.01847    477.33696    38369.369 
  194500    297.71042   -1514.3409    501.34324    332.32837    593.79419    38369.369 
  194600    307.61421   -1515.2667    489.50769    364.32128    1075.2228    38369.369 
  194700    294.19997    -1492.336    495.82704    332.95365    679.92306    38369.369 
  194800     307.9295   -1499.9152    535.62431    427.21422    1010.5345    38369.369 
  194900    290.65142   -1466.2099    506.60046    353.81757    381.27672    38369.369 
  195000    296.10549   -1499.4705    517.95835    356.56128    1015.3679    38369.369 
  195100    294.99427   -1524.3938    517.79649    326.45467    74.447621    38369.369 
  195200    307.94929   -1511.4386    490.52614    370.68203    7.4607035    38369.369 
  195300    311.03274   -1473.4708    520.72351    452.78101    121.09356    38369.369 
  195400    306.80276    -1501.631    540.25127    425.03376    158.28916    38369.369 
  195500    303.41961   -1538.1827     461.8419    294.78448   -109.13886    38369.369 
  195600    302.52595   -1514.1825    493.58027    346.48469   -143.55555    38369.369 
  195700    296.24243   -1479.2904    487.04016    346.44203   -526.31284    38369.369 
  195800    298.18367   -1451.1529    497.81688    394.12856    -536.1763    38369.369 
  195900    301.46316   -1433.2763    502.86371    431.87173   -175.85558    38369.369 
  196000     291.3108   -1469.5829    524.20246    371.02627   -117.90967    38369.369 
  196100    294.11151   -1463.6482    496.40937    361.82407   -150.74452    38369.369 
  196200    290.54082   -1417.8034    517.78112    412.90496   -140.92046    38369.369 
  196300    297.05569   -1448.9881     491.2775     384.6567   -40.775851    38369.369 
  196400     303.0431   -1500.3955    509.67786    378.70631    196.02618    38369.369 
  196500    293.81128   -1471.8137    520.33863    376.23103    190.88338    38369.369 
  196600    297.97365   -1444.2844    497.91343     400.1446    704.13471    38369.369 
  196700    301.56211   -1460.2531     494.7281    397.20643    48.437388    38369.369 
  196800    304.85003   -1474.6978    497.76471    400.65616   -232.83737    38369.369 
  196900    295.70755   -1484.3928     466.9622    318.84466   -700.59208    38369.369 
  197000    303.86858   -1430.5639    511.76196    454.35218   -954.45205    38369.369 
  197100    291.04398    -1456.684    483.79352    342.31052   -715.30937    38369.369 
  197200    295.96089   -1502.1687    494.95888    330.21022    -42.57871    38369.369 
  197300    296.17605   -1456.5417    481.61962    363.47023    32.331623    38369.369 
  197400    297.92007   -1447.2886    502.69084    401.67563   -24.859244    38369.369 
  197500    301.67323   -1469.2385    485.40474    379.39986   -664.11493    38369.369 
  197600    289.05536   -1496.4075    464.56017    274.36722   -473.11009    38369.369 
  197700    290.75731   -1476.8383    477.40697    314.47422   -143.09214    38369.369 
  197800    296.01154   -1499.3932    474.09031    312.34605    352.51282    38369.369 
  197900    301.77934   -1495.1504    477.53201    346.09472    300.24368    38369.369 
  198000    303.60104   -1470.3836    483.21007    384.77167    132.61324    38369.369 
  198100    296.65914   -1462.7098    485.94368    363.80925    68.533914    38369.369 
  198200    300.54151   -1493.2308    488.59514    353.48375   -94.781048    38369.369 
  198300    310.93867   -1490.7258     482.3672    396.74463   -86.017293    38369.369 
  198400    294.10041   -1415.1524      531.251    445.11129   -94.916666    38369.369 
  198500     301.5032   -1455.9042    482.60576     389.1668   -186.74668    38369.369 
  198600    307.98247   -1456.4024     475.9777    411.31979   -506.06186    38369.369 
  198700    288.30482   -1473.3784    493.22541    322.66994   -717.72454    38369.369 
  198800    305.39506   -1442.5151    510.01299     447.5501   -360.62851    38369.369 
  198900    295.15709   -1493.7664    482.42191     322.4433   -178.93883    38369.369 
  199000    309.90515   -1504.9153    488.36252    383.88007    -556.2348    38369.369 
  199100    306.92989   -1509.6168    483.53544    360.90663   -247.25415    38369.369 
  199200    306.26404   -1505.9328    500.65539    378.70165    2.7403626    38369.369 
  199300     303.0345   -1497.9587    492.85394    364.28028   -364.77925    38369.369 
  199400    299.50326   -1466.8442     473.5327    360.11623   -310.20563    38369.369 
  199500    303.63116   -1482.1818    491.45227    381.35172   -657.60043    38369.369 
  199600    310.25539   -1502.0818    483.62066    383.55449    222.32668    38369.369 
  199700    295.44523    -1484.212     490.2039    341.08169   -69.022114    38369.369 
  199800    308.86024   -1495.7639    478.70275    378.64985   -17.318951    38369.369 
  199900    302.45901   -1519.7926    484.62132    331.61318   -14.685749    38369.369 
  200000    297.22839   -1492.6797    484.28427    334.75235    733.12749    38369.369 
  200100    303.88801   -1520.3941    486.64944    339.49734    99.020045    38369.369 
  200200    295.57362   -1470.8316    495.40085    360.23925    265.27563    38369.369 
  200300    308.19064   -1512.8299    504.32707    384.18236    63.180281    38369.369 
  200400     292.1766   -1477.0349    491.13411    334.41839    392.49419    38369.369 
  200500    297.68154   -1469.4596    492.86488    368.60074    708.65056    38369.369 
  200600    297.31891   -1488.4898    512.60021    367.66724   -201.12674    38369.369 
  200700    303.93489   -1483.6042     500.8099    390.65952   -542.35149    38369.369 
  200800    308.04557   -1506.2165    479.54163    365.35471   -915.92878    38369.369 
  200900     294.6556   -1484.0374    494.01028    341.49446   -371.07945    38369.369 
  201000     307.7179   -1493.8208    499.80099    396.52908   -380.25105    38369.369 
  201100    304.46162   -1500.9916    486.08666    360.92916     57.39121    38369.369 
  201200    293.89814   -1522.2861    489.50442    295.31695    108.99654    38369.369 
  201300    296.33397   -1489.8802    469.03066    318.25641   -134.56975    38369.369 
  201400    294.74939   -1460.8232    496.96074    368.08297    330.96315    38369.369 
  201500    298.14345   -1520.3166    494.55597    321.52215     54.82574    38369.369 
  201600    307.13321   -1505.0723    459.40403    342.23843   -131.20936    38369.369 
  201700    296.04339   -1496.1682    471.88887    313.51349    112.69709    38369.369 
  201800    304.28184   -1521.6664    507.23304    360.58829    244.64213    38369.369 
  201900    297.17883   -1503.3426    458.82837    298.40956    96.466095    38369.369 
  202000    299.68511   -1512.6711    508.78629    350.36465   -481.23785    38369.369 
  202100    306.36183   -1483.6569    480.06134    380.82536   -463.02691    38369.369 
  202200    289.30833   -1460.6944      499.123    345.78634    -15.21878    38369.369 
  202300    288.56521   -1472.6214    492.19453     323.5728    -598.7136    38369.369 
  202400    301.45246   -1508.3496    475.99032    329.87671   -898.05507    38369.369 
  202500    286.28964    -1479.401    454.56052    268.87604   -592.31625    38369.369 
  202600    292.36014   -1490.4905    511.00173    341.65977   -329.63092    38369.369 
  202700    292.26254   -1495.3722    476.13861    301.47396   -491.91089    38369.369 
  202800    295.09506   -1491.0589    493.68723    336.13574   -700.25055    38369.369 
  202900    292.66216   -1474.2753    495.39125    343.62934     -363.233    38369.369 
  203000    293.18284   -1450.1525    501.08994    375.80374   -71.525246    38369.369 
  203100    303.02886   -1521.8283    460.30858    307.83987    242.38976    38369.369 
  203200    300.62894   -1467.0312    478.31659    369.79993    -187.2174    38369.369 
  203300    298.83513    -1431.524      516.377    435.26142    -168.6117    38369.369 
  203400     299.9661   -1467.3837     482.6983    370.83382   -206.62448    38369.369 
  203500    306.93625   -1498.7532     492.3278    380.59128   -302.83198    38369.369 
  203600    297.98703   -1448.2661    503.03243    401.34233    -233.2701    38369.369 
  203700    291.88979   -1455.1762    517.29706    381.14396   -531.26977    38369.369 
  203800     301.9932   -1423.3848     491.9176    433.21235     -660.277    38369.369 
  203900    303.77485    -1465.517    475.40685    382.62043   -288.64494    38369.369 
  204000     306.6745   -1465.8778    492.16378    412.11987    43.260481    38369.369 
  204100    291.46739   -1450.3501     492.8101    359.57432   -303.12974    38369.369 
  204200    301.92208   -1461.9348    461.68609    364.10938    262.15873    38369.369 
  204300    305.20268    -1480.896    482.68379    380.97065   -120.30415    38369.369 
  204400    294.30895   -1474.2339    483.62984    339.35104    11.016859    38369.369 
  204500     303.6457   -1431.0324    474.99524    416.10981    191.78209    38369.369 
  204600    289.20274   -1459.2788    503.04463    350.64642    -384.6586    38369.369 
  204700    304.00619   -1469.8608    497.05927    400.97443    -480.8964    38369.369 
  204800    295.74557   -1460.1457    472.78804    349.08943   -606.81217    38369.369 
  204900     303.7147   -1472.1318    497.05474    397.38174   -123.89467    38369.369 
  205000    301.13927   -1445.8674    500.64821     415.6015   -155.34445    38369.369 
  205100    299.15565   -1436.2325      502.899    418.52335   -421.06075    38369.369 
  205200     288.8498   -1403.6169    487.62452    389.29328   -921.39935    38369.369 
  205300    299.39377   -1399.1076    517.15944    470.98477    -662.2506    38369.369 
  205400    298.51652     -1434.98    515.97258    429.96128    -628.1252    38369.369 
  205500    297.66448   -1399.4291    494.44154    440.13082   -696.65424    38369.369 
  205600    293.97423   -1431.2161     505.6729    402.89931   -225.30596    38369.369 
  205700    297.29218   -1456.4427    512.14237    399.13571   -325.38665    38369.369 
  205800    308.55501   -1491.2388    502.51391    405.60682   -405.85035    38369.369 
  205900    309.08578   -1442.6768    456.76739    410.82081   -115.85524    38369.369 
  206000    296.10227   -1458.6177    483.32924    362.77047    -501.5479    38369.369 
  206100    295.55523   -1452.7043    504.90869    387.79129    -396.4032    38369.369 
  206200    306.27758   -1472.4477    488.84818    400.44069    385.34609    38369.369 
  206300    310.15103   -1462.8487    495.63643    434.33165   -63.326294    38369.369 
  206400    296.66516   -1486.6031    496.32003    350.31947   -281.31586    38369.369 
  206500    301.31012   -1490.4975    506.84282    377.93801   -428.44244    38369.369 
  206600    301.80695   -1503.0025    475.98279    336.81811   -239.72517    38369.369 
  206700    304.59624   -1486.1403     495.3231    385.62515    57.366903    38369.369 
  206800    292.40102   -1494.4098     517.8292    344.75269   -267.84768    38369.369 
  206900    302.41218   -1469.3287    485.87817    383.12229   -200.70622    38369.369 
  207000    308.62548   -1463.7243    487.26754    418.19338     -366.218    38369.369 
  207100    297.58508   -1446.1059    488.77841    387.43212   -426.17884    38369.369 
  207200    300.62453    -1422.808    502.45748    438.14413    105.64181    38369.369 
  207300    301.18823   -1468.3384    494.16006    386.86363    -355.7037    38369.369 
  207400    289.22478   -1453.3836    486.04918    339.64572   -34.100504    38369.369 
  207500    297.96182   -1479.1084    474.88449    342.23821    164.33742    38369.369 
  207600    301.85143     -1492.41    513.85398    385.48286   -65.478358    38369.369 
  207700    303.71609    -1464.718    465.48938    373.23648    509.79648    38369.369 
  207800     307.3534   -1462.8102    506.13347    432.22503    6.6014563    38369.369 
  207900    293.24965   -1430.9147      484.527    378.78047   -15.123248    38369.369 
  208000    305.56818   -1446.6903    489.45092    423.59513   -40.626458    38369.369 
  208100    299.93082     -1417.31    509.47227    447.52202   -94.335842    38369.369 
  208200    292.54019   -1460.4201    527.32822    388.87029    69.797202    38369.369 
  208300    292.38099   -1447.1138     512.2089    386.33791    415.77614    38369.369 
  208400    300.59647   -1460.2181    474.34093    372.49066    421.09433    38369.369 
  208500    306.93894   -1425.8913    515.80325    476.94079    68.205056    38369.369 
  208600    298.13443   -1425.0692    503.87689    426.04981    499.33142    38369.369 
  208700    312.63945   -1458.9185    481.74884    435.61929    452.69571    38369.369 
  208800    294.96529   -1440.0306    515.94334    408.83376     803.5916    38369.369 
  208900    293.59919   -1455.6405    500.99805    372.10523   -538.14903    38369.369 
  209000     309.2062   -1454.7019    499.38873    441.96119    -354.5682    38369.369 
  209100    301.01328   -1484.6149     495.8037    371.44011   -109.43275    38369.369 
  209200    311.86029   -1514.1552    478.79338    373.90613   -192.26126    38369.369 
  209300    301.02797   -1508.0539    486.50307    338.76692   -330.96834    38369.369 
  209400    300.82171   -1484.7178    520.70278    395.37065   -798.38231    38369.369 
  209500    305.92245   -1470.1395    514.03717    426.33308   -877.13777    38369.369 
  209600    308.43697    -1462.987    471.67953    402.49083   -45.094956    38369.369 
  209700    294.43201   -1419.7158    490.38785     401.1832    -218.6174    38369.369 
  209800     298.5321   -1490.1527    480.69089    339.57728   -448.84467    38369.369 
  209900    302.97411   -1465.7607    500.20429    403.55566   -514.38096    38369.369 
  210000    298.31428   -1457.5993    487.72178    378.17725   -319.28719    38369.369 
  210100    295.50071   -1497.7226    507.40403    345.02196    131.32258    38369.369 
  210200    297.54815   -1503.1375    518.09096    359.54622    569.02433    38369.369 
  210300    295.49149   -1514.9372    459.91628    280.27792     189.8489    38369.369 
  210400    305.66113    -1445.307    526.37512    462.32268   -242.98331    38369.369 
  210500     299.4893   -1491.1568    501.94408    364.15188    151.75075    38369.369 
  210600    312.21772   -1480.4181    486.74059    417.20568   -382.51395    38369.369 
  210700    306.08001   -1469.3815    511.07284    424.83872   -307.92274    38369.369 
  210800     298.8316   -1459.6357    502.37651    393.13328   -31.011474    38369.369 
  210900    305.32775   -1522.3234    476.53829     333.9629    133.49878    38369.369 
  211000    296.96722   -1536.4513    495.82392    301.34016    343.48419    38369.369 
  211100    303.31855   -1512.5869    507.36145    365.44324    275.41384    38369.369 
  211200    306.22436   -1491.5753    498.60357    390.82801    59.493383    38369.369 
  211300    302.34798    -1475.799    503.37075    393.85451   -40.013565    38369.369 
  211400    298.49964   -1486.0978    523.48836    386.28299   -501.93257    38369.369 
  211500    311.65776   -1531.7385    467.68789     344.3021     397.4041    38369.369 
  211600    302.07739   -1491.8981    515.60842     388.7702    890.73953    38369.369 
  211700    307.26966   -1505.5262    516.75618    399.75332    1272.5495    38369.369 
  211800    310.63734   -1447.4774     515.8098      472.074      1030.86    38369.369 
  211900    302.47609   -1506.4584    511.33013    371.73337    648.93062    38369.369 
  212000    286.61399   -1469.3907    489.09535    314.88688    308.58073    38369.369 
  212100    306.70384    -1497.032    497.75253    386.68692    158.86527    38369.369 
  212200     306.1069   -1479.7679    499.22681    402.72786    319.89321    38369.369 
  212300    303.40179   -1516.5793      484.572    339.03752    17.436652    38369.369 
  212400    300.42755   -1494.5688    510.03101    373.06668   -307.82571    38369.369 
  212500    291.77838   -1483.9801    501.42638    335.96593   -1265.8879    38369.369 
  212600    300.94181   -1474.7523    507.32269     392.4987   -746.62536    38369.369 
  212700    314.00309   -1435.5992    505.35515    488.70699   -153.97188    38369.369 
  212800    306.55704   -1444.9684    498.13842    438.47308    -407.2126    38369.369 
  212900     298.1651    -1480.815    509.03482    375.60044   -114.03241    38369.369 
  213000    301.47595   -1481.9986    503.18644    383.52992   -315.55738    38369.369 
  213100    305.99379   -1441.1348    507.60519    449.22821    311.54445    38369.369 
  213200    300.87944   -1481.6304    472.77099     350.7871    86.437596    38369.369 
  213300    311.92143   -1447.7274     527.8531    489.67002    332.93691    38369.369 
  213400     300.4431   -1499.1515    484.48123    343.00449    -367.0418    38369.369 
  213500    296.90645   -1463.9266    473.92497    351.69126   -323.99621    38369.369 
  213600    300.70169   -1460.9192    475.40673    373.33078   -396.03376    38369.369 
  213700    297.62064   -1456.4536    487.29511    375.76179   -174.97014    38369.369 
  213800    298.07269   -1446.8196    496.87796    397.02143   -459.62523    38369.369 
  213900    288.24486   -1438.7836    518.19142    381.95983    248.72436    38369.369 
  214000    303.83648   -1454.3147    481.96069    400.65512    -231.9378    38369.369 
  214100    290.65329   -1489.9235     484.0113    307.52323   -564.79243    38369.369 
  214200    299.09548   -1492.3076    473.36117    332.63857    -382.8276    38369.369 
  214300    299.43901   -1465.0689    505.24118     393.3096   -304.64714    38369.369 
  214400     304.7947   -1464.1279    512.53334     425.7447   -83.459354    38369.369 
  214500    302.09039   -1437.5435    468.28596    395.86115   -29.144687    38369.369 
  214600    301.46793   -1444.3403    507.13667    425.10221   -617.41333    38369.369 
  214700    293.68976   -1427.0032    468.09966    368.25348    66.044896    38369.369 
  214800    308.28931    -1429.702    503.04114    466.47012    -703.9401    38369.369 
  214900    284.31534   -1447.9105    478.79205    315.67649   -976.74706    38369.369 
  215000    307.30375   -1389.5225    491.11745    490.27237   -1045.5449    38369.369 
  215100    280.59084   -1440.2293     497.3113    325.04623   -569.63937    38369.369 
  215200    301.67077   -1407.8548    493.03573    448.40338   -531.19827    38369.369 
  215300    304.84545   -1389.7106    513.06534    500.92332    233.88063    38369.369 
  215400    300.30092     -1412.35    497.21959    441.90179     134.9638    38369.369 
  215500    302.13184   -1434.3381    493.75189    424.71978    393.70805    38369.369 
  215600     302.3452   -1407.8916    496.55062    454.92915    821.76967    38369.369 
  215700    300.60239   -1461.7794    470.63819    367.25339    944.09998    38369.369 
  215800    308.64276   -1468.0477    472.68893    399.36946    729.79133    38369.369 
  215900    300.73728   -1448.1539    478.77435    389.62455    717.35347    38369.369 
  216000    294.10446   -1489.5345    511.17978    350.67629    881.34643    38369.369 
  216100    299.41091   -1492.5237    480.32348    340.81016    1011.4514    38369.369 
  216200    309.14534   -1454.4446    472.20687    414.76159    1081.3418    38369.369 
  216300    305.56728    -1462.124    508.95445    427.66085    778.43862    38369.369 
  216400    295.04572   -1491.6978    486.39211    327.97873    703.67609    38369.369 
  216500    301.44848   -1504.9523    485.37509    342.64075    630.92428    38369.369 
  216600    299.58881   -1529.8396    500.69142    324.66607   -14.077592    38369.369 
  216700     299.5136   -1521.5031    470.16853    302.13987   -163.26491    38369.369 
  216800    287.05261   -1495.7766    486.27703    287.66472   -57.795507    38369.369 
  216900    301.77927   -1515.7189    459.19583    307.18966   -313.66718    38369.369 
  217000    298.11632   -1466.9037    523.27707    403.53358    420.46151    38369.369 
  217100    303.26339   -1462.8362    474.76792    382.35107    272.52311    38369.369 
  217200    291.12107   -1474.4313    478.72791      319.846   -263.12533    38369.369 
  217300    306.93102   -1461.2887    487.09338    412.79777   -374.87627    38369.369 
  217400    303.95939    -1427.325    499.76071    446.00027    64.384025    38369.369 
  217500    302.61851   -1441.5363    505.82002    431.78893    337.92161    38369.369 
  217600    304.97195   -1483.1908    473.23292    368.18229    105.39702    38369.369 
  217700    295.80135   -1475.1133    508.95113    370.53695   -44.352982    38369.369 
  217800    299.00873   -1464.9099     479.9796     366.2626   -203.96645    38369.369 
  217900    304.27205   -1462.5942    489.31937    401.70252    -11.08716    38369.369 
  218000    291.84927   -1488.6516    481.84574    312.03411    295.15653    38369.369 
  218100    293.59119   -1548.1214    481.73666    260.32686    521.79104    38369.369 
  218200    306.00724   -1485.5897    504.33704     401.5659    618.68606    38369.369 
  218300    310.95411   -1494.6318    481.99391    392.53508     652.2934    38369.369 
  218400    294.50801    -1472.575     487.9706    346.25018    749.03012    38369.369 
  218500    294.10237   -1467.4696    504.62132    366.17326    419.99473    38369.369 
  218600    297.05491   -1445.6066    510.98879      407.746    330.13113    38369.369 
  218700    302.99154   -1444.9703    503.11431    427.33494   -91.974951    38369.369 
  218800    300.78553   -1458.6113    522.97255    423.58335   -408.01762    38369.369 
  218900     304.6711   -1426.9333    508.61791    458.46528    15.284867    38369.369 
  219000    297.03864   -1448.2955      471.678    365.67279   -411.48351    38369.369 
  219100    312.12253   -1403.7227    504.99246    511.72272    -153.0738    38369.369 
  219200     307.1954   -1487.5408     490.5352    391.18214   -555.55538    38369.369 
  219300    298.11111   -1438.8391    461.97003    370.26762   -506.53186    38369.369 
  219400    301.04887    -1458.821    487.29502     388.8862   -513.39934    38369.369 
  219500    302.23396   -1484.8782     494.7358     375.6251    -686.4601    38369.369 
  219600    299.69797   -1519.9339    476.43753    310.81116    48.459985    38369.369 
  219700    299.44737   -1514.3398    500.28605    339.12136   -771.51707    38369.369 
  219800    295.63545   -1488.1893    494.59127    342.35135   -468.60807    38369.369 
  219900    308.80926   -1472.3048    494.34773    417.52358    660.74815    38369.369 
  220000    295.61868   -1477.9639    498.69382    356.60358      510.735    38369.369 
  220100    297.88625   -1492.7878    479.86404    333.19678    233.17821    38369.369 
  220200    297.27291   -1501.8536    485.34334    326.83871   -364.14427    38369.369 
  220300    293.04387    -1497.162    487.91177    314.98807   -203.46899    38369.369 
  220400     310.8878   -1512.2479    476.37044    368.99589    172.42529    38369.369 
  220500    311.26703   -1531.1588    479.87169    355.29996   -237.94155    38369.369 
  220600    289.79017    -1493.959     488.8837    304.45982    102.89889    38369.369 
  220700    302.12659   -1481.6994    496.99173    380.57461    15.397297    38369.369 
  220800    295.21086   -1468.5961    470.30248    335.73706    154.95006    38369.369 
  220900     302.0943   -1479.5585    490.38771    375.96554    -785.2957    38369.369 
  221000    295.31915   -1476.5712    503.14409    361.09298   -282.02872    38369.369 
  221100     303.9656   -1487.8395     485.9772    371.73034   -527.26229    38369.369 
  221200     296.3031   -1472.7276    477.03767     343.2765    -619.9079    38369.369 
  221300    296.39586   -1395.9573    490.02707    433.45535   -352.81556    38369.369 
  221400    297.90489   -1442.1931    491.76357    395.77526   -369.64648    38369.369 
  221500    299.17794   -1432.9988    483.35865    402.31744   -414.85583    38369.369 
  221600    300.30036   -1436.5478    496.37854    416.86044    83.476068    38369.369 
  221700    299.72728   -1468.2276    482.22036    368.43283   -131.01293    38369.369 
  221800    305.88562   -1451.5658    475.50255    406.20575   -335.99651    38369.369 
  221900    302.64928   -1460.0331    520.68812    428.29927    -29.89623    38369.369 
  222000     298.8137   -1483.9459    471.91353    338.27928    143.42081    38369.369 
  222100    295.65263   -1460.8462    474.66744    349.84834   -15.884388    38369.369 
  222200    301.91277   -1435.1644     503.2291    432.38076   -280.21345    38369.369 
  222300    303.62423   -1438.7598    475.41982    408.70995    613.27168    38369.369 
  222400    306.42779   -1402.5929    511.75397    493.88008    -441.5471    38369.369 
  222500    302.52613   -1404.1654    483.13043    446.05281    55.265195    38369.369 
  222600    303.45438   -1413.1135     509.3334    467.50233   -45.619494    38369.369 
  222700    292.53362   -1439.1767    501.27987    384.03571     55.37517    38369.369 
  222800    289.44673   -1464.3231    480.60766    324.26773   -668.82583    38369.369 
  222900    291.64622    -1474.093    493.82409    337.65355    -857.0767    38369.369 
  223000    298.50967   -1431.3219    495.85402     413.4699   -720.25242    38369.369 
  223100    302.27761   -1438.7796     498.6123    425.79738   -65.519226    38369.369 
  223200    302.49535    -1438.306    520.02336    448.66607    191.51739    38369.369 
  223300    289.01688   -1445.6426    525.87479    386.27293      172.654    38369.369 
  223400    298.65692   -1448.8814    485.68237    386.40412     96.99672    38369.369 
  223500    302.61238   -1407.8694    507.80147     467.4096    539.37589    38369.369 
  223600    292.56587   -1456.8011    488.56768    353.84484    65.165035    38369.369 
  223700    286.14588   -1470.7161    489.04637    311.39715   -167.98965    38369.369 
  223800    303.78945   -1471.0921    494.62256    396.32707   -693.52277    38369.369 
  223900    304.86704   -1495.6776    457.95124    339.93978   -769.28789    38369.369 
  224000    313.02508   -1483.6526    465.27735    396.15626   -902.57079    38369.369 
  224100    290.68669   -1489.0062    484.19314    308.77339   -689.47953    38369.369 
  224200    291.68226   -1501.2989    479.96075    296.74719   -599.73259    38369.369 
  224300    299.81097   -1481.3868    484.00279    357.43414    165.72895    38369.369 
  224400    309.57409   -1462.4111    492.99378    429.51949    152.28357    38369.369 
  224500     299.9659   -1471.9968    484.15413    367.67565    324.25093    38369.369 
  224600    307.92107   -1516.3346    491.34906    366.48142     981.8936    38369.369 
  224700    295.95556   -1488.6884    491.16673    339.87425    880.96297    38369.369 
  224800    299.59762   -1465.7184    504.23517    392.37083    1270.9024    38369.369 
  224900    297.11111   -1452.9683    482.37949     372.0289    1256.8515    38369.369 
  225000    294.94308   -1466.8536    530.05296    396.02003    668.36956    38369.369 
  225100    310.45708   -1447.2355    504.45525    460.14675    234.79465    38369.369 
  225200    301.73678   -1508.3342    510.39008    365.57662    209.58123    38369.369 
  225300    299.95899   -1463.5394    497.25639    389.20405    68.429124    38369.369 
  225400     297.2977   -1481.8349    507.83082    369.45685   -56.918306    38369.369 
  225500      293.292   -1489.1058    488.12426    324.37807    -795.7644    38369.369 
  225600      300.996   -1437.6441    508.63318    431.16233   -478.64582    38369.369 
  225700    299.38518   -1471.8491    484.27049    365.31546   -273.90107    38369.369 
  225800    294.68097   -1463.0511    483.68901    352.27408   -291.78187    38369.369 
  225900    287.94025   -1461.1402    497.68352    337.71883    96.702596    38369.369 
  226000    298.05912   -1470.6833    536.94218    413.16062    455.04415    38369.369 
  226100    289.29421   -1465.2819    501.28188    343.29392    689.45396    38369.369 
  226200    309.45152   -1449.7064     488.3944    437.07094   -280.27258    38369.369 
  226300    297.13282   -1454.5867    485.39288    373.52203    71.240661    38369.369 
  226400    304.76682   -1479.1656    484.42189    382.46952    85.236861    38369.369 
  226500    305.22328   -1438.1117    528.84053    470.00478   -22.239455    38369.369 
  226600    294.73452   -1499.5379    471.52704    303.86735   -255.97013    38369.369 
  226700    301.40954   -1453.2483    533.21391    442.00761    7.7210541    38369.369 
  226800     300.7645   -1491.9804    479.05084    346.19753   -590.26347    38369.369 
  226900    293.46254   -1451.7762    468.79394    343.14796    149.66384    38369.369 
  227000    298.99468   -1495.5794    516.16611    371.71618    17.545466    38369.369 
  227100    294.92668   -1476.5781    496.45426     352.6227   -149.25953    38369.369 
  227200    290.01798   -1455.9585     493.4606    348.06666   -40.324438    38369.369 
  227300    306.27318   -1474.6075    477.91399    387.32683   -84.092915    38369.369 
  227400    301.35971   -1470.0028    486.52088    378.33487    31.238147    38369.369 
  227500    303.06706    -1516.451    482.13879    335.21995    155.98189    38369.369 
  227600    303.00067   -1484.8204    486.77974    371.19149    354.18906    38369.369 
  227700    303.84285   -1480.6908    482.08803     374.4351    473.34407    38369.369 
  227800     302.9584   -1452.8447     498.0526    414.24905    436.13337    38369.369 
  227900    307.71429   -1477.5841    491.02197    403.97045    118.63915    38369.369 
  228000    293.17178   -1431.7393    494.71343    387.79043     126.0663    38369.369 
  228100    296.54484   -1466.5984    501.15505    374.61549    349.90958    38369.369 
  228200    302.79229   -1449.1049    516.60861    435.79424    600.56738    38369.369 
  228300    308.20741   -1451.6274    481.46513     422.5987    698.33842    38369.369 
  228400    301.09699   -1439.9938    486.92493    407.56069    626.18343    38369.369 
  228500     310.5751   -1460.6141    520.64157    463.48779    837.50426    38369.369 
  228600     293.6253   -1434.8364    509.30639    401.33572    7.9111213    38369.369 
  228700     308.2091   -1468.5212    506.97685    431.22427      228.606    38369.369 
  228800    292.39217   -1457.1116    531.71175    395.89349    331.62938    38369.369 
  228900    306.87714   -1419.3506    513.04448    480.44341   -306.49573    38369.369 
  229000    297.20887   -1440.7034    503.30561    405.66179   -662.90477    38369.369 
  229100     307.3344    -1440.337    482.53127     431.0102    378.91705    38369.369 
  229200    307.00862   -1470.9096    509.48231    425.91639    552.10471    38369.369 
  229300    303.92304    -1450.906    505.11008    427.60435    348.68593    38369.369 
  229400    299.53755   -1432.5045    489.62559     410.7037    391.40938    38369.369 
  229500    303.13928   -1479.3869    503.22566    393.69731    411.90959    38369.369 
  229600    293.73295   -1469.0603    524.37836    382.67024      152.196    38369.369 
  229700    301.02258   -1438.3079    479.13116    401.11667    222.62161    38369.369 
  229800    310.16314   -1415.2556    498.26019    484.60326    561.80824    38369.369 
  229900    292.41593   -1415.3697    498.97123    405.00224    358.86363    38369.369 
  230000    302.94686    -1419.377    481.66257    431.27454   -124.88155    38369.369 
  230100    295.14233   -1436.5823    492.63009    389.76882   -177.81441    38369.369 
  230200    295.12252   -1421.1479    491.61247    404.09612   -595.87013    38369.369 
  230300    302.07232   -1411.3198    491.29823    445.01545   -90.052875    38369.369 
  230400     304.0379    -1410.396    492.96732    456.49066   -4.8927186    38369.369 
  230500    306.48876   -1434.1586    491.17389    442.00979   -18.953692    38369.369 
  230600    304.82586   -1412.3353    492.85266    457.99737   -188.27591    38369.369 
  230700    308.26198   -1444.4067    518.49754    467.09838   -95.097485    38369.369 
  230800    298.66541   -1462.8895    512.15249    398.90448    603.80523    38369.369 
  230900    306.54893   -1419.4656    471.99643    437.79724    283.81521    38369.369 
  231000    299.99548   -1423.7824    512.51644    444.38601    639.29501    38369.369 
  231100    296.14334   -1473.7219    485.99663     350.5192    224.81289    38369.369 
  231200    302.40255   -1439.3857    482.95016    410.09379    311.75563    38369.369 
  231300    298.57323   -1465.5318    515.00031    398.69348    688.58982    38369.369 
  231400    299.33549   -1475.4855    473.94209    351.12613    705.55772    38369.369 
  231500    309.06245   -1485.0316      486.101    397.69422    338.99032    38369.369 
  231600    296.96741   -1485.4413    483.84489    340.37198    32.870384    38369.369 
  231700    288.84259   -1477.1614    481.42263    309.51435   -85.091587    38369.369 
  231800     307.8429   -1455.9479    502.19161    437.35743   -55.116831    38369.369 
  231900    308.77972   -1450.0023    473.72186    419.06667    418.64248    38369.369 
  232000    311.64297   -1451.9855    502.51157    458.81195    -16.04654    38369.369 
  232100    298.34963   -1508.2272    499.43089    339.41825    200.41023    38369.369 
  232200    297.53592   -1502.6737     489.7182    331.58192   -74.017653    38369.369 
  232300    299.36275   -1494.9918     496.1162    353.91709   -466.36226    38369.369 
  232400    299.54396   -1465.8898     486.4128     374.1346   -357.20975    38369.369 
  232500    295.95785   -1542.0148    464.03356    259.42507    -405.6521    38369.369 
  232600    301.01842   -1496.6413    501.45912    365.09238   -381.57123    38369.369 
  232700     292.6989   -1444.4492    488.57948    366.80974   -167.46869    38369.369 
  232800    302.74606   -1515.0306    462.32778    315.37876    94.196117    38369.369 
  232900    291.94827   -1448.4892     487.3915    358.18974   -237.90326    38369.369 
  233000    307.82741   -1471.7257    475.88035    395.19835   -169.50169    38369.369 
  233100     311.0329   -1539.6777    465.18661    331.03798   -317.34356    38369.369 
  233200    290.93903    -1508.779    484.76827      290.716    564.88957    38369.369 
  233300    294.64056   -1490.9052    501.55859    342.10699    336.38842    38369.369 
  233400    297.83824   -1485.5494    486.98515    347.33939    454.36965    38369.369 
  233500    315.40345   -1463.5157    492.28223    454.04577    225.96998    38369.369 
  233600    300.42512   -1474.1031    484.57213    368.06252    415.48681    38369.369 
  233700    306.85722   -1452.1819    503.13252     437.6102   -260.23798    38369.369 
  233800    299.34962   -1439.6627    496.14605    409.21678    -935.4633    38369.369 
  233900    290.86967   -1440.5518    507.91133    381.77283   -636.83216    38369.369 
  234000    292.83339   -1469.7971    497.51564    351.00568   -465.24133    38369.369 
  234100      302.524   -1467.5264    493.35601    392.90775    61.305452    38369.369 
  234200    301.46721   -1451.9289    480.83843    391.21209    278.86909    38369.369 
  234300    314.18588   -1477.0254    468.23882    410.99056    79.832538    38369.369 
  234400     306.0806    -1460.899    470.55459    392.80572    96.845844    38369.369 
  234500    297.44653   -1459.1864    472.02993    356.97704    6.5222532    38369.369 
  234600    305.26973   -1456.9802    503.72531    426.23091    109.28927    38369.369 
  234700    295.31921   -1435.0675    509.02851    408.48133    486.80233    38369.369 
  234800     292.8015   -1457.1181    484.34585     350.3708    186.33392    38369.369 
  234900    305.30572   -1488.0369    522.44315    414.05469    188.93304    38369.369 
  235000    291.97467   -1487.0086    454.29318    286.69124   -106.02804    38369.369 
  235100    307.60065   -1401.8433    491.11287    479.28866    59.662023    38369.369 
  235200    290.76646   -1465.4639    496.52505    345.00802   -329.44318    38369.369 
  235300    307.59074   -1480.4691    470.24803    379.75318    578.56028    38369.369 
  235400    310.86593    -1521.857    454.22425     337.1418    379.39489    38369.369 
  235500    308.36691   -1498.8675    495.99836     390.6126    229.32623    38369.369 
  235600    296.07181    -1467.775    486.34925    356.49549    74.204729    38369.369 
  235700    301.46759   -1486.9882    487.51249    362.82857    392.47879    38369.369 
  235800    292.70349   -1491.1753    492.66914    324.19398   -189.44311    38369.369 
  235900    303.73106   -1406.4162    482.92721    449.04377    320.89491    38369.369 
  236000    309.12544   -1466.7452     499.7578    429.92204    84.005225    38369.369 
  236100    297.77493   -1484.7297    493.17923    354.06704    441.64605    38369.369 
  236200    296.44938   -1459.9432    454.29533    333.97967    364.26042    38369.369 
  236300    305.48576   -1477.0502    501.44916    404.86106   -131.65133    38369.369 
  236400    291.98726   -1494.2705    493.15764    318.35068    83.099237    38369.369 
  236500    297.99761    -1479.115    490.56745     358.0762    391.87486    38369.369 
  236600    300.04545   -1462.6773    473.84118    367.04171    294.23257    38369.369 
  236700    298.59538   -1439.3508     499.7241    409.69839   -202.48193    38369.369 
  236800    296.15467   -1490.2653    498.70148    346.73188   -801.24481    38369.369 
  236900    305.33673   -1525.4754    505.31508    359.62826   -406.77053    38369.369 
  237000    300.67587   -1475.4762    493.40457    376.65499    -853.6986    38369.369 
  237100    306.18997     -1442.28    471.86807    413.23242   -659.04485    38369.369 
  237200    302.75128   -1500.7971    483.40141    350.70944   -305.43726    38369.369 
  237300    300.85786   -1443.4147    498.24433     414.3786   -356.55561    38369.369 
  237400    287.25229   -1484.3835    486.78662    300.46981   -132.75072    38369.369 
  237500     309.1353   -1476.2195    492.72681    413.46133    513.01305    38369.369 
  237600    298.33936   -1444.9038    482.72799    385.99233    599.82092    38369.369 
  237700    285.20803   -1447.3057    504.74726    346.27039   -45.035847    38369.369 
  237800    303.35721   -1439.4249    512.83008    444.24856   -164.74607    38369.369 
  237900    291.78721   -1456.9049    480.04449    341.69917    36.768923    38369.369 
  238000    300.57788    -1440.479    506.91663    424.72141   -111.89814    38369.369 
  238100    297.08788   -1452.4646    493.43256    383.48075    146.55935    38369.369 
  238200    295.10854   -1457.1742    510.36576    386.75988   -158.82442    38369.369 
  238300    297.42643   -1453.5544    492.61094    383.09918   -46.638015    38369.369 
  238400    294.35519   -1491.3514    482.80057    321.61319   -598.43994    38369.369 
  238500    301.65832   -1461.6378    505.60763    407.13602   -186.46389    38369.369 
  238600    313.64117   -1492.2102    513.54974    438.65515   -199.11347    38369.369 
  238700    304.62268   -1457.9627    461.81232    380.41149    350.86249    38369.369 
  238800      306.871   -1467.6456    508.05134    427.12754   -185.26558    38369.369 
  238900    292.97355   -1473.9456    481.63754    331.61246    566.92759    38369.369 
  239000    314.23117   -1475.7737    505.07886    449.28695    760.70203    38369.369 
  239100    303.46826   -1434.7934    494.55657    431.10835    747.78203    38369.369 
  239200    298.59849   -1461.0503     505.0901    393.37891     192.8014    38369.369 
  239300    304.85493   -1443.2506    513.26422    447.62506    280.24833    38369.369 
  239400    303.22881   -1482.9484    501.86976    389.18452    203.70568    38369.369 
  239500    306.92385   -1520.0127    477.24083    344.18879    130.18265    38369.369 
  239600    310.59142   -1483.4743    503.55207    423.61186   -224.50454    38369.369 
  239700    303.86004   -1465.5759    462.43953    369.97924    410.54411    38369.369 
  239800    307.60743   -1493.2907    457.34831    354.10724    603.87584    38369.369 
  239900    304.32354   -1497.1782    486.44934    364.48126    348.87425    38369.369 
  240000    305.84484   -1430.5191    515.86803    467.43362    358.12888    38369.369 
  240100    302.21704   -1449.9426    498.82351    414.57189   -138.80752    38369.369 
  240200    306.71212   -1453.6871     500.6732    432.98999   -180.78505    38369.369 
  240300    300.42576   -1457.3909    532.47031    432.67572   -494.62977    38369.369 
  240400     312.4153   -1411.7873    486.60539    486.59406     259.3524    38369.369 
  240500    297.84065   -1446.2791    521.26904     420.9044    615.20635    38369.369 
  240600    297.05554   -1457.5584    495.92363    380.73188   -78.244415    38369.369 
  240700    302.04884   -1464.6335     513.4663    413.76368    355.80509    38369.369 
  240800    300.83842    -1444.344    547.46127    462.57845    249.00751    38369.369 
  240900    292.78945   -1462.8417    466.84582    327.09268    486.59143    38369.369 
  241000    308.29388   -1467.3472    511.90765    437.71219   -146.37511    38369.369 
  241100    299.17395   -1466.2904    487.92166    373.57084    144.55685    38369.369 
  241200    295.63063   -1473.1209      471.509    334.31576    3.2718867    38369.369 
  241300     294.9913   -1478.1109    510.32755    365.25523    133.05767    38369.369 
  241400     304.4712   -1465.7625    487.07047    397.18532    396.29406    38369.369 
  241500    311.35317   -1497.4103    512.10769    421.67371    337.42301    38369.369 
  241600    290.43924   -1534.4263     483.4816    261.52349    43.919447    38369.369 
  241700    301.01098   -1525.7592     519.1279    353.60966    636.23793    38369.369 
  241800    290.51866   -1487.1811    484.04339    309.68942    219.80344    38369.369 
  241900    298.59532   -1517.6852    512.21823    343.85784    35.890949    38369.369 
  242000    311.92554   -1542.8923    454.00145    320.67197    -569.0866    38369.369 
  242100    301.90791   -1504.7278    491.51104    351.07735   -499.44399    38369.369 
  242200    300.49192   -1493.6331     503.8922    368.15441    13.366944    38369.369 
  242300    297.16956   -1551.2504    519.83311    311.46458    729.62685    38369.369 
  242400    299.87427    -1509.222    479.86905     325.7513    191.18563    38369.369 
  242500    302.41216   -1525.6155    504.50242    345.45961    342.57806    38369.369 
  242600     291.0322   -1530.6104    463.64141     248.1788    1205.1862    38369.369 
  242700    300.28794   -1553.8657    489.09407    292.20196    1000.2957    38369.369 
  242800    309.38978   -1523.2328    495.03157    369.90272    892.69894    38369.369 
  242900     290.3198   -1502.3371    528.50193    338.09333     1127.764    38369.369 
  243000    291.23544   -1507.6681    529.85481    338.25291    364.09821    38369.369 
  243100    305.88809   -1509.5337     476.0937    348.84011    147.18753    38369.369 
  243200    303.76912   -1509.8073    485.46852    348.36596    170.80916    38369.369 
  243300    302.99177   -1495.2672    525.35568    399.28042   -165.27421    38369.369 
  243400    289.41843   -1508.7681    489.38554    288.47275   -344.17779    38369.369 
  243500    310.90879   -1460.9301    479.17303    423.21113   -168.46039    38369.369 
  243600    293.16747   -1476.9517    470.69499    318.54013    -329.8986    38369.369 
  243700    310.86051   -1503.1023    513.88372     415.5315   -288.48813    38369.369 
  243800     316.5529   -1455.7969    494.11107     468.7876   -569.97426    38369.369 
  243900    294.60436   -1460.9547    490.55963     360.8949   -884.97567    38369.369 
  244000    293.44861   -1490.6872    493.21993    328.60002   -1456.2181    38369.369 
  244100    307.73768   -1502.2517    493.38195    381.76848   -69.720418    38369.369 
  244200    306.85036   -1486.0495    483.71801    384.29701   -292.23272    38369.369 
  244300    291.34678    -1499.419    500.15277    317.30306   -703.14442    38369.369 
  244400    298.21589   -1469.5489    512.54994    390.61125   -220.07079    38369.369 
  244500    294.84778   -1478.0707    488.60376    342.92307   -475.73946    38369.369 
  244600    303.26907   -1471.6293    482.35617    381.17191    466.51226    38369.369 
  244700    295.09925    -1480.073    505.40071    358.85413     380.9472    38369.369 
  244800    302.14517   -1482.7145    509.66885    392.32053    482.85948    38369.369 
  244900    298.55866   -1470.7051    486.25267    364.70668    143.07314    38369.369 
  245000    293.34381   -1461.2342     503.5422    367.90168    210.93738    38369.369 
  245100    303.17929   -1506.0851    498.46182    362.41601    -142.9747    38369.369 
  245200    301.71682   -1500.1607    492.09338    355.36326    -64.90171    38369.369 
  245300    313.59674   -1443.8006    478.28599    451.60023   -56.748018    38369.369 
  245400    290.88467   -1478.4644    503.09948    339.11613    332.55638    38369.369 
  245500    302.99166   -1540.7567    499.92059    328.35532    362.77332    38369.369 
  245600     310.0103   -1543.7627    500.76909     357.9144    997.13733    38369.369 
  245700     310.0014   -1492.6356     486.8087    395.04096    391.21775    38369.369 
  245800    304.12322   -1509.6095    501.04963      365.745    319.25989    38369.369 
  245900    305.84194   -1502.4154    495.91289    375.56912    54.315772    38369.369 
  246000    310.02242   -1501.5483    484.81784    384.23233   -201.81847    38369.369 
  246100    299.07885   -1501.2258    522.24879    372.53276    141.29486    38369.369 
  246200    298.47972   -1504.3068    515.07512    359.57074    101.68367    38369.369 
  246300    296.40268   -1493.6229    488.89942    334.69297   -34.424036    38369.369 
  246400    301.16508   -1490.1724    501.56168    372.32657    222.14985    38369.369 
  246500    303.86483   -1512.5053    489.82152    350.45341    -11.64395    38369.369 
  246600     295.2728   -1478.1418     487.9525    344.12132   -216.86266    38369.369 
  246700    304.71105    -1498.083    511.82135    390.69949    40.615438    38369.369 
  246800    290.17415   -1483.5076    486.45486    314.21759   -683.22281    38369.369 
  246900    308.52038   -1492.9421    465.68316    366.91633   -333.93596    38369.369 
  247000    303.11521   -1543.5657    491.10858    317.29263   -1090.7219    38369.369 
  247100    286.25834   -1556.7597    514.70523    251.52066   -434.20387    38369.369 
  247200    298.89421   -1530.2421    463.94867    284.38207    120.61788    38369.369 
  247300    294.66272    -1537.908    496.00765    289.65334    -256.1309    38369.369 
  247400    306.49791    -1509.259    496.29264     372.0695   -50.296205    38369.369 
  247500    298.43036   -1509.0806    489.54666    329.04535   -298.51481    38369.369 
  247600    297.47597    -1484.685    492.01642    351.59797    177.89499    38369.369 
  247700    301.14948   -1472.8783    495.65083    383.63935      330.433    38369.369 
  247800    303.10227   -1469.8534    489.23634    389.07421    29.954191    38369.369 
  247900    299.55238   -1515.2511    509.47475    347.87331    243.52272    38369.369 
  248000    298.63039    -1468.194     490.5499    371.83912    410.61203    38369.369 
  248100    306.13163   -1518.6053    478.65875    343.43415    370.49079    38369.369 
  248200    301.93956   -1486.5759     517.0485    394.90966    125.48687    38369.369 
  248300    297.06892   -1468.8985     502.5741    376.10272   -78.419178    38369.369 
  248400    294.63618   -1440.4606     500.0862    391.05938   -53.774338    38369.369 
  248500    292.48646   -1481.8661    476.06181     315.9151   -643.12664    38369.369 
  248600    302.33737   -1442.0885    488.79427    412.94053    -268.2407    38369.369 
  248700     286.7601   -1417.8954    494.22099    372.16812   -630.30293    38369.369 
  248800     297.3484   -1471.3195     487.5384    359.90903    55.117442    38369.369 
  248900    297.46223   -1514.2158    481.12494    311.11363   -565.94257    38369.369 
  249000    299.41592   -1491.4934     485.9592    347.49879   -130.76158    38369.369 
  249100    299.54896   -1479.0636    476.93812    351.50868    -244.2575    38369.369 
  249200    298.88531   -1483.4958    484.71137    351.85086    167.07419    38369.369 
  249300    307.06371   -1449.9075    484.51838    422.20356    390.59869    38369.369 
  249400    293.72061   -1456.3989    500.98682    371.88431    83.250004    38369.369 
  249500    302.51555   -1455.9868    492.69974    403.75289    547.62499    38369.369 
  249600    307.97832    -1480.252    463.47666    374.95032    -144.2495    38369.369 
  249700    293.25556   -1492.2816    485.91367    318.82701    543.29853    38369.369 
  249800    312.31899   -1437.5794    508.41727    482.17866   -121.11487    38369.369 
  249900    294.64964   -1467.5957    476.03485    339.93384    276.38697    38369.369 
  250000    303.50479   -1459.5792    494.18294    406.11401    168.79273    38369.369 
  250100    288.35457   -1482.7769    489.61434    309.88525   -179.10202    38369.369 
  250200    296.79557   -1477.1055    460.27824    324.36463    65.052126    38369.369 
  250300    305.80736   -1460.2891    480.08489    401.71106   -413.12842    38369.369 
  250400    298.89753   -1496.9421    485.58441    339.33278   -151.61897    38369.369 
  250500    296.90807   -1491.2586    486.04613    336.48777   -299.92674    38369.369 
  250600    301.42532   -1468.4117    487.38376    381.08531    257.53107    38369.369 
  250700    304.17805   -1469.1156    471.44749    376.88449    15.001763    38369.369 
  250800    294.74979   -1465.6883    489.36684    355.62577    555.77456    38369.369 
  250900    298.41153    -1468.062    498.39793    378.83015    356.03525    38369.369 
  251000    302.59021   -1481.4644    476.36682    362.27974    635.16451    38369.369 
  251100    298.89475   -1431.8375    507.65297    426.49339    211.81254    38369.369 
  251200    285.78369   -1465.2564    505.71539    331.88917    306.06611    38369.369 
  251300    308.20833   -1466.7594    477.33738    403.34309    393.04419    38369.369 
  251400    293.17397   -1473.8228    490.44554    341.44892    469.18215    38369.369 
  251500    298.59921    -1492.874    503.19693    359.66527    176.71485    38369.369 
  251600    312.10988   -1492.9159    475.75774    393.23766    328.08375    38369.369 
  251700    303.35499   -1461.4118    467.91325    377.33479   -372.18565    38369.369 
  251800    305.78992   -1499.3612    496.09271    378.56799   -760.59492    38369.369 
  251900    291.08655    -1456.469    506.74768    365.67203   -225.21689    38369.369 
  252000    304.86856   -1452.4349     469.3948    394.63291    220.49516    38369.369 
  252100    297.27708   -1449.3452    484.96922     378.9918   -90.052628    38369.369 
  252200    302.31271   -1496.3732    485.75033    355.50041    487.93152    38369.369 
  252300    288.11056    -1495.673    470.66273    276.93482    303.89893    38369.369 
  252400    306.07619   -1477.7204    481.20752    386.61722    208.02561    38369.369 
  252500    293.32376   -1500.5941    474.52579     299.4348   -93.846014    38369.369 
  252600    306.86226   -1501.9261    479.32403    364.08022     417.1156    38369.369 
  252700    303.84127   -1534.5948    478.74716    317.18316    588.59176    38369.369 
  252800    290.57264   -1472.6424    483.75466    324.18327    316.94654    38369.369 
  252900    297.65835   -1471.9026    505.51032    378.69848    798.74279    38369.369 
  253000    298.11153   -1440.4195    480.25407    386.97313    405.47032    38369.369 
  253100    295.46218    -1448.895    483.10763    369.37901    471.65643    38369.369 
  253200    298.05885   -1452.5037    493.37758     387.7744   -41.721243    38369.369 
  253300     300.0906   -1494.4568    482.68651    344.31152    340.78053    38369.369 
  253400      290.155   -1470.1766    490.06747    331.07465    42.245685    38369.369 
  253500    301.45829   -1494.3859    493.67218    361.54857    245.68543    38369.369 
  253600    292.12828    -1454.551    503.19144    368.74123   -151.31549    38369.369 
  253700    295.18011   -1422.3351    511.50978    423.06646    92.792467    38369.369 
  253800    298.75871   -1431.8687    508.50567    426.70014   -123.53774    38369.369 
  253900    301.30985   -1455.3992    486.98772    393.18002   -93.391087    38369.369 
  254000    300.60988   -1478.9999    485.65065    365.07916   -41.384281    38369.369 
  254100    293.17675   -1442.2628    485.25436    367.83034    102.50413    38369.369 
  254200     293.4795   -1494.3968      502.556    334.36605    32.636869    38369.369 
  254300    308.44515   -1512.8487    491.51808    372.50467   -89.742846    38369.369 
  254400    291.10455   -1472.9601    513.26798    355.78261    856.88854    38369.369 
  254500    298.68402   -1461.1629    504.48637    393.04906    284.14974    38369.369 
  254600    295.73587   -1469.2205    497.72938    364.91203    4.9420376    38369.369 
  254700    297.72176   -1469.1252    482.70152    358.95353   -291.16282    38369.369 
  254800    297.52309   -1460.5539    507.79331    391.71891   -72.471307    38369.369 
  254900     307.1808   -1496.1472    498.39822    390.37282    96.006154    38369.369 
  255000    301.77856   -1449.3133    509.49224    423.88854   -1.2560458    38369.369 
  255100    302.99416   -1453.1434    496.79893    412.85821    184.42473    38369.369 
  255200    308.40226    -1463.408    487.77765    418.01106    170.29027    38369.369 
  255300    296.79443    -1459.332    487.99273    369.84743    91.158129    38369.369 
  255400     299.5721   -1509.3668    516.25698    360.62893     -343.133    38369.369 
  255500    301.63126   -1464.8918      503.772    401.92406    519.59544    38369.369 
  255600    291.23991   -1456.0621    501.34898    361.37321    567.94148    38369.369 
  255700    300.97073   -1491.9974    498.54552    366.60717    709.32306    38369.369 
  255800    292.36863    -1456.492    504.94454    369.63947    494.36424    38369.369 
  255900     297.7117    -1464.514    489.48908    370.30685    200.83912    38369.369 
  256000    296.97587   -1468.7485     498.0838    371.34192    167.76539    38369.369 
  256100    311.65227   -1412.1671    508.99063    505.15154    518.40812    38369.369 
  256200    305.57819    -1441.453    513.81107    453.23783    127.62168    38369.369 
  256300    297.09334   -1455.7957     501.5135    388.25532    41.118261    38369.369 
  256400    289.89047    -1444.461    487.38151    352.90891    170.63419    38369.369 
  256500    308.22302   -1466.5113    497.93655    424.25671   -396.25987    38369.369 
  256600    293.36213   -1444.2086    507.43167    388.89955   -150.72535    38369.369 
  256700    307.33173   -1450.7608    480.52667    418.56973   -162.58837    38369.369 
  256800    293.47673   -1457.2348    489.51534    358.47491   -682.67822    38369.369 
  256900    296.03385   -1445.2822    498.02696    390.49452    131.92405    38369.369 
  257000    302.80231   -1479.6006     495.3137    384.04886   -158.46636    38369.369 
  257100    290.72047   -1513.3417    519.16845    319.56585    117.20458    38369.369 
  257200    300.24204   -1488.1478    482.52173    351.14013   -675.83321    38369.369 
  257300    303.38283   -1522.8434    485.30972    333.42543    42.846692    38369.369 
  257400    308.23345   -1505.8902    499.66712    386.65552    334.26212    38369.369 
  257500    303.49176   -1514.2441    457.59186    314.79908    264.29167    38369.369 
  257600    290.69597   -1520.1379     492.2068    285.69723   -408.36944    38369.369 
  257700    298.75762   -1530.5239    482.20405    301.73838   -372.74223    38369.369 
  257800    299.80025   -1495.4418    498.98639    358.31435    646.79435    38369.369 
  257900    301.16102   -1498.2089    518.56522    381.27521    459.02556    38369.369 
  258000    300.80336   -1486.5896    478.33058    351.04369    289.20363    38369.369 
  258100    297.86908   -1464.8468    513.57118    394.76734    186.37146    38369.369 
  258200    291.95979   -1487.9455     508.5875    339.98143   -25.114814    38369.369 
  258300    299.93405   -1486.4608    495.80339    364.71699    -29.14525    38369.369 
  258400    289.15058   -1484.0851     507.7203     330.2801     20.46836    38369.369 
  258500    299.72353   -1452.4833      515.006    416.94574    504.11962    38369.369 
  258600    303.74703   -1456.3503    487.57048    403.82508   -38.544133    38369.369 
  258700    301.72455   -1498.5356    477.40043    342.33032   -639.37046    38369.369 
  258800    301.47657   -1508.6428     479.0781    332.78022   -441.46693    38369.369 
  258900     303.9859   -1483.8186    487.49918    377.36497    96.846476    38369.369 
  259000    283.71675   -1465.9065    529.79798    345.98134    443.68743    38369.369 
  259100    295.94645     -1488.48    504.14089    353.01565    202.61838    38369.369 
  259200     294.1346   -1528.7853    478.93882     279.3207    375.54929    38369.369 
  259300    298.65234   -1501.0572     508.1784    356.70362   -51.684897    38369.369 
  259400     299.9407   -1500.7203    487.65246    342.33658   -89.312706    38369.369 
  259500    296.41789   -1498.4898    520.86986    361.86522    77.739903    38369.369 
  259600    287.56924   -1473.4547    520.94605    346.99033    45.586924    38369.369 
  259700    299.84914   -1440.4878     495.4675    409.97039   -343.01405    38369.369 
  259800     290.9866   -1474.5223    499.03523     339.4546    210.57921    38369.369 
  259900    291.09458   -1484.6852    503.69318    334.43762    161.41565    38369.369 
  260000    309.11404   -1469.6971    489.75978    416.92061    24.084239    38369.369 
  260100    301.53862   -1439.6673    506.11591    429.07388   -349.22957    38369.369 
  260200    301.82359   -1474.1139    509.33867    399.13779   -53.272024    38369.369 
  260300    295.51862   -1472.7229    515.95748    378.65599    242.36014    38369.369 
  260400    306.07298   -1482.3924    488.50941    389.23262   -31.088357    38369.369 
  260500    305.60229   -1453.1198    485.88494    413.75377    182.78827    38369.369 
  260600     306.9824   -1454.1921    489.69554    422.72868    153.86401    38369.369 
  260700    301.44326   -1470.3138    505.75175     397.6323   -619.75812    38369.369 
  260800    305.88672   -1479.3582    487.52216    390.43794   -485.24343    38369.369 
  260900    298.07316   -1514.8354    511.61053    343.74031   -107.42535    38369.369 
  261000     292.1512   -1507.8279    505.36221    317.73871   -243.79929    38369.369 
  261100    298.40319   -1466.0209    533.90679    416.34246   -152.33715    38369.369 
  261200    302.44622   -1469.7236    504.30674    401.30978   -252.13013    38369.369 
  261300    303.67292   -1449.1898    489.17021    412.25036   -343.59011    38369.369 
  261400    295.91994   -1449.3906    511.26435    399.10875    461.36142    38369.369 
  261500    299.07233   -1457.3266    526.59785    420.75158    374.82796    38369.369 
  261600    301.00946    -1456.803    495.10755    398.53865    491.53242    38369.369 
  261700    297.56574   -1436.4014    525.82545    434.09624    653.13933    38369.369 
  261800      292.611   -1501.5062     539.2998    360.07575    680.09469    38369.369 
  261900     296.4652   -1528.8391    497.09391    307.95379    354.30485    38369.369 
  262000    296.13749   -1500.3081     496.3902     334.3002    218.17087    38369.369 
  262100    304.02945   -1512.6113    486.00537    347.27516    584.27607    38369.369 
  262200    297.30747    -1490.463    497.65539    350.69753    414.57738    38369.369 
  262300    298.68883   -1433.7381    507.97566    423.98486   -3.2640877    38369.369 
  262400    298.17971   -1475.4659    518.15459    390.13541    76.501062    38369.369 
  262500    299.03696   -1459.0729    527.06558    419.31325   -456.61801    38369.369 
  262600    297.01077   -1486.5013    509.25917    364.92223   -83.671715    38369.369 
  262700    313.35218   -1468.0039    506.00974    454.01552   -106.28663    38369.369 
  262800    300.84545   -1508.5621    514.96296     365.8938    300.91111    38369.369 
  262900    306.52126   -1519.7562    465.71474    331.09993    407.49566    38369.369 
  263000    310.53974   -1528.4188    526.69041    401.57219    798.81413    38369.369 
  263100    301.89858   -1488.8523    499.73252    375.13218    712.15427    38369.369 
  263200     295.9233   -1473.2697    494.88173    358.86227     860.9195    38369.369 
  263300    305.34914   -1507.6561     516.7069    388.89546    675.99973    38369.369 
  263400    298.72712   -1477.7622    526.61758    398.77572    813.67888    38369.369 
  263500    296.42911   -1525.6178    525.96795    339.88608    152.76191    38369.369 
  263600    297.63071   -1476.6835    495.10676    363.38905   -232.29663    38369.369 
  263700    302.86129   -1454.9748    506.85423    420.48171   -279.26359    38369.369 
  263800    301.89528   -1428.5021     476.7447    412.47965   -142.65951    38369.369 
  263900    298.58903   -1443.4353    527.37526    433.23636   -647.46734    38369.369 
  264000    303.51911   -1470.7145    499.35907    400.21954   -371.30665    38369.369 
  264100    305.84477   -1471.2474    484.34581    395.18283   -792.30726    38369.369 
  264200    308.93556   -1421.9802    508.75716    482.82833   -340.79751    38369.369 
  264300     294.3569   -1446.1061    500.50991    384.57561   -103.59991    38369.369 
  264400    293.19274   -1448.3745    505.90615    382.44271    -178.9043    38369.369 
  264500    305.43527   -1461.3778    517.37135    436.22741    115.42634    38369.369 
  264600    300.84086   -1519.3305    503.54099    343.68266   -24.576885    38369.369 
  264700    300.51558   -1486.1786    478.68796    350.51164    -114.4126    38369.369 
  264800    304.08817   -1450.1134    491.79625    415.82935   -402.64276    38369.369 
  264900    302.25385   -1455.7956    510.70594    420.76772    267.46725    38369.369 
  265000    299.91116   -1471.2748    497.68352     381.6797    32.427699    38369.369 
  265100    316.14126   -1496.5454    507.60985    439.67775    111.98336    38369.369 
  265200    300.68562   -1492.0788    513.95188    380.64372    182.40794    38369.369 
  265300    305.39918    -1484.146    507.62864    403.55349    800.06954    38369.369 
  265400    300.11344   -1490.8895    494.19454    359.49007    365.09973    38369.369 
  265500    307.87844   -1519.9654    529.80825    401.11715    258.19206    38369.369 
  265600    310.55994   -1493.3431    504.66417    414.71288    450.62329    38369.369 
  265700    300.38042   -1458.3834    529.14754    428.15569    317.67808    38369.369 
  265800    287.74571   -1470.1926     496.0782    326.18194    120.15284    38369.369 
  265900    303.05604   -1491.0799    517.52326    395.92573    640.95769    38369.369 
  266000    287.72764   -1520.6452    521.49455    301.06415     737.9715    38369.369 
  266100    307.82932   -1528.2338    494.42129     357.2399    688.06925    38369.369 
  266200    302.30278   -1547.6331    504.16671    322.61209    625.21125    38369.369 
  266300    305.66872   -1500.3102    484.61483    365.59352    1015.6097    38369.369 
  266400    296.34523   -1497.7208    500.46407    341.90015   -559.71372    38369.369 
  266500    298.21152    -1498.299     518.3454    367.63679   -635.80387    38369.369 
  266600    301.57604    -1547.276    506.37628    321.89463    230.25459    38369.369 
  266700    304.51272   -1534.1467    496.79877    338.71703    840.73671    38369.369 
  266800    298.13927   -1525.1269    496.60724    318.74427    445.75145    38369.369 
  266900    308.51634   -1513.0362     525.8303    406.95108    308.14043    38369.369 
  267000    293.38414    -1499.304     489.6506    316.12248    245.91372    38369.369 
  267100    308.11902   -1457.3272    508.45591    443.49025   -250.72185    38369.369 
  267200    293.75022   -1507.9224    500.23683    319.74464    -392.7356    38369.369 
  267300    303.70394   -1487.1586    514.58822    399.83982   -288.89001    38369.369 
  267400    296.24226   -1525.8932    522.52293    335.32123   -624.97543    38369.369 
  267500     306.1299   -1532.6642    494.99487    345.70354   -700.63832    38369.369 
  267600    296.26587   -1523.9839    486.93447    301.74883   -124.30493    38369.369 
  267700    304.55844   -1484.5123    514.95274    406.71208   -207.97471    38369.369 
  267800     304.3138   -1494.0163      487.995    369.14481   -296.73221    38369.369 
  267900     299.4618   -1489.9318    521.33165    384.64017    353.82559    38369.369 
  268000    294.19108   -1503.7117    508.81726    334.52798   -119.32573    38369.369 
  268100    297.61732   -1528.7925    486.59363    302.70647   -36.452803    38369.369 
  268200    308.27086   -1512.4416    509.45008    390.05612   -729.52173    38369.369 
  268300    296.91041   -1503.4662    507.15004    345.39463    -863.1324    38369.369 
  268400    291.73274   -1510.5776    507.51999    315.25584   -1211.7466    38369.369 
  268500    299.31156   -1474.7514    505.05067    382.86075   -771.57911    38369.369 
  268600    291.02143   -1482.8485     465.9625    298.21303   -807.49768    38369.369 
  268700    306.53797   -1536.5886    509.79305    358.42137   -439.41879    38369.369 
  268800    296.86094   -1506.9561    489.88231    324.41346    -347.7479    38369.369 
  268900    296.09441   -1530.2474    510.50556    318.28155    211.18872    38369.369 
  269000    305.97163   -1532.5317    525.54355    375.66955     876.7343    38369.369 
  269100    293.88507    -1557.456    499.42914    270.01278     973.1694    38369.369 
  269200    297.25882   -1549.0648    498.36002    292.58054    396.00228    38369.369 
  269300    300.64951   -1537.4874    491.02128    312.14141   -128.36025    38369.369 
  269400    297.87405    -1481.718    499.73989     364.0873    24.696749    38369.369 
  269500     297.3516   -1504.5346    516.73928    355.90919    -36.94769    38369.369 
  269600    289.72582   -1514.1225    499.15912    294.28095    301.78759    38369.369 
  269700    302.98585   -1556.6506    477.07323    289.58782    249.79196    38369.369 
  269800    293.44075   -1535.0361    501.72043    292.71607   -133.57733    38369.369 
  269900    298.92452   -1507.7333    511.51416    354.59324    630.85825    38369.369 
  270000    305.63664    -1509.718    509.41444     380.8403    603.66184    38369.369 
  270100    306.96972   -1549.8096    514.52499    351.88327    406.58244    38369.369 
  270200     306.5682   -1512.7849    495.29754    367.86615    303.66334    38369.369 
  270300    308.38703   -1497.2181    499.82567     396.1802   -378.43546    38369.369 
  270400    296.51919   -1467.8271     521.5409    393.65672   -446.43931    38369.369 
  270500    308.86351   -1456.8087    498.43644    437.35355   -74.691523    38369.369 
  270600    299.53967   -1460.1257    517.35579    410.82232   -357.82995    38369.369 
  270700    307.31999    -1468.248     493.7454     414.2482    51.768082    38369.369 
  270800      302.871   -1448.8999    519.99708    439.74339    110.03494    38369.369 
  270900    292.62433   -1478.3497    489.50777    333.50054    594.52635    38369.369 
  271000    300.76932   -1481.9851    509.43521    386.59904   -117.90246    38369.369 
  271100    292.22921   -1490.4703    492.51508    322.60175    -63.27669    38369.369 
  271200    290.18347   -1465.7752    482.88209     328.4193   -157.18552    38369.369 
  271300    298.14256   -1488.8844    493.16238    351.55678   -113.77314    38369.369 
  271400    308.28192   -1508.5985    494.48737    378.98651   -78.217189    38369.369 
  271500    292.99072   -1479.5097    519.18312    363.67152  -0.78692711    38369.369 
  271600    292.83291   -1515.8666    516.47261    323.89102    -365.6889    38369.369 
  271700    300.36383   -1514.6244    501.93075    344.62286    31.787649    38369.369 
  271800    303.40786   -1540.2742    489.69188    320.48986     590.1947    38369.369 
  271900    298.52856   -1554.2943    490.13221    284.86098   -293.66673    38369.369 
  272000    300.61657   -1534.3327    480.30331    304.42922    -856.2109    38369.369 
  272100    313.73536    -1508.548    486.87172    396.06496   -266.12167    38369.369 
  272200    302.65064   -1488.4185    505.89674    385.12861   -116.29059    38369.369 
  272300    308.49148   -1497.1434    510.18393    407.08516   -347.35499    38369.369 
  272400    291.58897   -1510.8972     501.8113     308.5778   -100.73073    38369.369 
  272500    301.54191   -1490.9464    541.73048    413.42427    78.456333    38369.369 
  272600    299.52357   -1509.7714    512.08741     355.8355   -254.68073    38369.369 
  272700    296.90564   -1497.7078    493.59819    337.57967   -85.876456    38369.369 
  272800    304.21088   -1509.6801    534.62675    399.64761    219.92362    38369.369 
  272900     289.7896   -1506.0727    495.54921    299.00907    63.585353    38369.369 
  273000    307.71841   -1525.0328    512.95224    378.47061    362.53741    38369.369 
  273100    311.98379   -1521.3675    500.81281    389.27141   -182.20962    38369.369 
  273200    299.21172   -1487.8284     477.7791    342.06089    -351.8776    38369.369 
  273300    304.24453   -1507.3088    501.52087    369.06517   -300.22182    38369.369 
  273400    286.19554   -1528.0656     488.6034    253.82914    246.99361    38369.369 
  273500    300.17839   -1575.0742    507.93289     289.3372   -141.24098    38369.369 
  273600    299.51544   -1533.3485    485.12869    305.26292   -27.644041    38369.369 
  273700     299.8153   -1531.1602    503.34422    327.02174   -951.61117    38369.369 
  273800    293.58324   -1513.0225    511.60582      325.259   -321.29778    38369.369 
  273900    310.54283   -1508.3148    508.82287     403.8226    358.35747    38369.369 
  274000    292.54409   -1526.6786    512.06966    307.37091     694.5948    38369.369 
  274100    301.83849   -1548.5614    480.21785    295.63679    592.91505    38369.369 
  274200    307.51131   -1574.5545    490.89722     305.9581    128.76366    38369.369 
  274300    293.18817   -1556.1807     505.6797    274.38933   -1.2642536    38369.369 
  274400    312.55248   -1518.0486    475.31475    369.66208   -527.70405    38369.369 
  274500    297.73678   -1550.7616    505.45318    300.13668   -616.15452    38369.369 
  274600    296.44249    -1536.884    490.18984    292.90219   -361.28795    38369.369 
  274700    310.71784   -1512.2885    492.44948    384.26635   -279.99377    38369.369 
  274800    294.16939   -1539.6537    503.74697    293.41768    6.6297754    38369.369 
  274900    287.80593   -1491.5467    480.37895    289.40076     280.4964    38369.369 
  275000    301.68601   -1573.0203    504.85849    295.12958   -422.86931    38369.369 
  275100    302.61391   -1551.4602    487.34687    303.37105   -472.49107    38369.369 
  275200    294.24318   -1544.4375    520.25066    305.47098   -349.71759    38369.369 
  275300    293.66651   -1527.6546    486.33127    285.72862   -820.22591    38369.369 
  275400    293.15057   -1510.3157    501.78708    316.19182   -15.616245    38369.369 
  275500    282.59358   -1506.1203    480.34339    251.23748    233.83291    38369.369 
  275600    299.55206   -1416.9911     517.9501    454.60715    711.94341    38369.369 
  275700    302.92419   -1475.5298    508.49052    401.84731    731.97612    38369.369 
  275800    304.70114   -1471.9638    519.36939    424.32197    232.53603    38369.369 
  275900     302.9111   -1477.9829    499.36382    390.20837    17.981779    38369.369 
  276000    306.04089   -1501.8183    498.87363    380.02599   -722.17273    38369.369 
  276100    299.65659   -1485.5749    477.56981    346.11552   -435.20614    38369.369 
  276200    299.72045   -1479.9747    498.45362    372.88805   -574.57559    38369.369 
  276300    290.79829   -1503.9038    500.52766    310.71461   -592.83295    38369.369 
  276400    296.41799   -1493.9738    497.41831    342.93013    65.388954    38369.369 
  276500    305.77148   -1490.3433     486.8494    378.25931    8.2744094    38369.369 
  276600    307.93547   -1453.7772    512.88473    450.63963    10.024283    38369.369 
  276700    288.79315   -1431.4936    516.75777    390.29383    -634.4212    38369.369 
  276800    302.22277   -1443.2869    515.44167     437.8717   -39.343731    38369.369 
  276900    300.49722   -1477.1426    524.85684    405.63347    37.684155    38369.369 
  277000     318.1339    -1510.972    501.68981    428.33567    178.46042    38369.369 
  277100    306.42022    -1473.514     510.2211    421.39183    618.90607    38369.369 
  277200    305.26753   -1528.9428    510.25956    360.79259      711.447    38369.369 
  277300     302.6028   -1532.4223    515.59567    350.60755    1328.9608    38369.369 
  277400    290.71479   -1480.9445    471.93714    304.70604    1135.6137    38369.369 
  277500    294.09306   -1501.3378    500.46009    328.10179    524.42932    38369.369 
  277600    306.27523   -1558.8351    475.33201     300.5265    962.47433    38369.369 
  277700    297.52122   -1526.7872    492.15059    309.83443    629.69365    38369.369 
  277800    293.57068   -1534.0776    481.39435    273.93564   -229.28183    38369.369 
  277900    294.38361   -1523.4374    505.42624    312.28126   -70.063177    38369.369 
  278000    304.99986    -1543.647    489.83104    324.45032   -178.45473    38369.369 
  278100    297.19082   -1520.4632    500.74402    323.25882   -402.11508    38369.369 
  278200    305.91114   -1505.3721    499.93149    376.94373   -205.90475    38369.369 
  278300    303.33386   -1527.6027    496.68376    339.81889   -4.8520842    38369.369 
  278400     299.2234   -1501.2165    498.86178    349.80838   -53.893512    38369.369 
  278500    291.88528   -1483.4054    539.49211    375.08948   -125.23937    38369.369 
  278600    306.89638   -1460.3599    497.39735    423.87401    43.037764    38369.369 
  278700    301.06331    -1506.398    481.75932    335.83875   -43.758394    38369.369 
  278800    290.58433   -1498.3414    496.43129    311.21375   -341.91965    38369.369 
  278900    287.64753    -1501.314    509.32315    307.86193   -490.65932    38369.369 
  279000     294.8477   -1465.7903    494.19917    360.79854    31.528687    38369.369 
  279100    296.66255    -1459.028    501.24724    382.81001    47.290153    38369.369 
  279200    299.49011   -1556.4793    490.07874    286.96774    704.08303    38369.369 
  279300     298.0861   -1540.1796    503.12119    309.96522    288.74199    38369.369 
  279400    296.58918   -1483.0092    492.70491    349.95494     692.4039    38369.369 
  279500    304.91835   -1477.9988    491.41623    391.31546    419.31303    38369.369 
  279600    305.80676    -1462.931    509.04231    428.02394    404.35081    38369.369 
  279700    302.91208   -1488.6433    498.54731    378.73583    809.90852    38369.369 
  279800    292.62717   -1485.6737    491.89922    328.58082    903.98243    38369.369 
  279900     290.8225   -1521.2527    496.40885    289.35628    622.21148    38369.369 
  280000    290.36068   -1477.0929    517.86124    352.88159    292.92103    38369.369 
  280100    291.98988   -1473.6781    463.80082    309.59818    818.28227    38369.369 
  280200    300.31576   -1485.2767    506.32722    378.14979    1195.5053    38369.369 
  280300    301.09082   -1458.3204    496.43153    398.71283    885.96879    38369.369 
  280400    304.81067   -1461.9235    518.28849    433.77637    835.66699    38369.369 
  280500    301.21237   -1457.9209    517.99155    421.22165    1039.2588    38369.369 
  280600    293.92735   -1467.4397     496.6159    357.40687    772.11749    38369.369 
  280700    304.24885   -1463.2119    498.47678    410.13748    366.34008    38369.369 
  280800    302.45864   -1463.4867    499.81161    403.10764    75.957975    38369.369 
  280900    309.73316   -1482.1668    507.10087    424.58977     365.1271    38369.369 
  281000     292.6032    -1492.751    479.38966    308.88563    132.14078    38369.369 
  281100    306.92563   -1505.2308    524.38277    406.12067    17.890351    38369.369 
  281200    295.66163   -1454.4196    491.25132    372.89938    402.27187    38369.369 
  281300     300.8372   -1430.6037    519.30277    448.15473    556.72796    38369.369 
  281400     302.2596   -1451.9577    530.35989    444.28549    230.61875    38369.369 
  281500    295.87237   -1461.7347    498.07758     373.3629    695.40421    38369.369 
  281600    297.18182   -1453.0395     499.8255    389.72337    592.03075    38369.369 
  281700    304.20703   -1447.1988    516.45651    443.94135     533.7618    38369.369 
  281800    300.45639   -1423.4147    498.29481     432.6149   -12.795217    38369.369 
  281900    296.47881   -1453.2253    520.35643     406.8916   -191.91474    38369.369 
  282000    296.30878   -1459.0532    509.24263    389.18157   -306.19339    38369.369 
  282100      312.136   -1449.4466    471.35544    432.42266   -473.85582    38369.369 
  282200    305.90486   -1472.0436    528.32417    438.63649    345.02433    38369.369 
  282300    307.97596    -1462.987    503.96125     432.6893    205.85629    38369.369 
  282400    294.26921   -1494.1114    526.49554    362.15965   -2.4937133    38369.369 
  282500    300.19243   -1461.4499    481.77225    376.86437   -228.04453    38369.369 
  282600    303.31328   -1522.1829    497.16328     345.6252    163.51651    38369.369 
  282700    306.83362   -1475.7146    510.46608     421.3044    315.83904    38369.369 
  282800    297.33663    -1473.577    476.73728    346.79714    349.51609    38369.369 
  282900    300.15757   -1498.6759    500.46429    358.17285   -31.016175    38369.369 
  283000    300.96657   -1476.7245     508.8278    392.14357    37.837528    38369.369 
  283100    303.00305    -1489.291    496.75587    376.70775    197.81025    38369.369 
  283200    301.34996    -1468.443    509.94763    403.27737   -665.96385    38369.369 
  283300    299.02522   -1463.2404    487.64676    375.67383   -1082.9547    38369.369 
  283400    300.22894   -1469.5793    504.02869    391.15642   -521.97633    38369.369 
  283500    291.45139   -1471.9754    485.74784    330.81446    -596.7292    38369.369 
  283600    305.82472   -1463.2403    502.73616     421.4897   -69.562103    38369.369 
  283700    297.35948   -1447.1385     493.9342    390.53581    110.07265    38369.369 
  283800    290.32995   -1478.4012    515.06101    348.63418     39.19758    38369.369 
  283900    291.14408   -1456.4498    496.88847    356.09199    605.94929    38369.369 
  284000    303.95854   -1481.1705    512.47426     404.8645    510.11597    38369.369 
  284100    297.01805   -1456.0281    524.22081    410.38998    52.346859    38369.369 
  284200    301.15982   -1481.7935    478.19502      357.315    373.73521    38369.369 
  284300    289.33049   -1448.5122    496.11425    355.05987    177.65246    38369.369 
  284400    300.19523   -1507.7309    499.44434     348.2681    439.37153    38369.369 
  284500    294.55119   -1500.6243    504.46743    334.89282    513.23064    38369.369 
  284600      305.273   -1467.1759    491.47672     403.8014    49.091153    38369.369 
  284700    299.29839   -1483.5294    498.52996    367.50251    39.543056    38369.369 
  284800    298.93548   -1497.0224    507.01815    360.85767    90.839604    38369.369 
  284900    306.67958   -1503.1297    504.06652    386.79361    146.63729    38369.369 
  285000    291.49982   -1504.4581    516.32824    329.13103    719.07339    38369.369 
  285100    294.71974   -1526.9154    510.93554    315.83155    216.31822    38369.369 
  285200    305.11144   -1500.7766    500.72575    378.71975   -113.96444    38369.369 
  285300    308.21859   -1478.1461    487.93848    402.60384   -560.39652    38369.369 
  285400    295.74795   -1467.7919    494.97123    363.63709   -596.69069    38369.369 
  285500    303.80159   -1464.3737    502.59855     411.0763    -756.4898    38369.369 
  285600    301.22761   -1502.3778     491.5646    350.40664    -571.9209    38369.369 
  285700    292.55199   -1470.3842    490.40478    342.03613   -463.73728    38369.369 
  285800    303.76986   -1457.1452    489.29151    404.85435   -762.66333    38369.369 
  285900    304.87906   -1486.2529    506.88219    398.34972   -71.113834    38369.369 
  286000    304.22208   -1483.2803    496.02697    387.49825   -204.74498    38369.369 
  286100    301.19397    -1480.728    504.71834    385.05823    238.67671    38369.369 
  286200    299.14515   -1429.4552    516.60375    438.95792    387.94707    38369.369 
  286300    306.68644   -1427.7866    519.31881    477.42008    844.73487    38369.369 
  286400    289.07886   -1461.1122    506.17778    351.38636    143.11696    38369.369 
  286500    301.80606   -1484.5305    510.12905    389.43241    682.22527    38369.369 
  286600    308.84467   -1500.1385    495.38015    390.88234    699.22354    38369.369 
  286700    306.64216   -1419.4625    499.57563    465.80085    516.82228    38369.369 
  286800    288.87275   -1461.1465    518.47359    362.71649    12.208397    38369.369 
  286900    300.16875   -1446.5504    509.95761    419.84224   -59.441934    38369.369 
  287000    299.21085   -1448.2777    495.22028    399.04889    -446.0642    38369.369 
  287100    293.35258   -1440.4821    472.48406    357.63535   -608.20236    38369.369 
  287200    306.93716    -1486.595    483.33591     383.7617   -619.28181    38369.369 
  287300    288.56435   -1484.3834    492.03139    311.64381   -87.696816    38369.369 
  287400    303.83032    -1468.482    503.09757    407.59687    9.3153172    38369.369 
  287500     291.1235   -1486.0721    531.69857    361.18677   -236.51609    38369.369 
  287600    310.32689   -1482.1796    488.33749    408.49659    268.19433    38369.369 
  287700     289.4969   -1493.8071    513.10993    327.51265    -569.2066    38369.369 
  287800    305.58559   -1438.3604    523.50516    466.05799   -265.15705    38369.369 
  287900     299.5029   -1458.9765    495.82615    390.27575   -366.01439    38369.369 
  288000    290.87678   -1450.9927    523.97197    387.42473   -696.53275    38369.369 
  288100    315.28265   -1504.2502    505.46696    425.95005    91.512411    38369.369 
  288200     298.2552   -1483.3024    509.37636    373.86184   -26.036026    38369.369 
  288300    292.83745   -1480.4645    499.17349    342.01453   -67.806437    38369.369 
  288400    301.67124    -1485.632    495.61805    373.21061     105.3208    38369.369 
  288500    309.70747   -1491.8865    520.16308    427.81616     495.2603    38369.369 
  288600    300.90055   -1496.2037    471.41534    334.95355    479.33812    38369.369 
  288700    305.85366   -1492.5012    537.57218    427.19554    855.14659    38369.369 
  288800    297.78725   -1483.8624    474.77894    336.58971    193.64664    38369.369 
  288900    299.17135   -1461.3909    534.95625    425.49316    705.85981    38369.369 
  289000    303.79743   -1498.6952    485.47405    359.61149    364.83228    38369.369 
  289100    296.83841   -1552.9556    510.50652    298.93639    808.79018    38369.369 
  289200    306.84769   -1494.1833    509.58609    402.01928    438.05985    38369.369 
  289300    303.43872   -1487.5315    479.41378    363.09396    815.18052    38369.369 
  289400    312.04863   -1528.6031    483.30621    364.82218    482.74979    38369.369 
  289500    291.30936   -1545.6604    503.27978    274.01965    300.89981    38369.369 
  289600    304.30176   -1503.6063    484.09126    355.59665    978.76684    38369.369 
  289700    307.09004    -1517.186    513.95021    384.47583    332.49659    38369.369 
  289800    306.20193   -1483.1517    494.81586    395.36254    -19.69016    38369.369 
  289900    297.01237   -1496.3957    499.12684     344.9027    413.77682    38369.369 
  290000    301.96073   -1525.2962     497.5492    336.78573    -71.83717    38369.369 
  290100    300.69935   -1498.9852    474.36667     334.2142   -614.85942    38369.369 
  290200    300.40613   -1534.5653    493.52943     316.4718   -117.94148    38369.369 
  290300    287.02955   -1553.1904    514.08374     257.9535   -762.61775    38369.369 
  290400    292.29101   -1529.0096    469.84265    261.66926   -332.39009    38369.369 
  290500    290.72677   -1509.2834    520.17993    324.66407   -120.16449    38369.369 
  290600    300.11893   -1521.3227     476.1851    311.07223    188.53239    38369.369 
  290700    308.16373   -1499.2237    493.08821    386.42805   -111.78826    38369.369 
  290800    298.67062   -1495.6761    478.67713     332.6661    186.24254    38369.369 
  290900    294.65068   -1496.0874    537.75144    373.16342    50.559037    38369.369 
  291000    305.52312   -1518.8859    484.37769    346.12266   -148.43295    38369.369 
  291100    289.05746   -1483.5776    488.37556    311.02202    138.99468    38369.369 
  291200    293.85837   -1489.0776    510.03983    348.88123   -103.76692    38369.369 
  291300    300.52707   -1492.3072    493.02614    358.77316   -506.68059    38369.369 
  291400    296.12063   -1540.7612    476.02387    273.40454   -502.78771    38369.369 
  291500    300.22462   -1505.0469    506.03469    357.67527   -597.45863    38369.369 
  291600    290.83616   -1484.7157    508.52565    338.07182   -409.40442    38369.369 
  291700     305.4976   -1475.0787     507.0167    412.45356    45.947177    38369.369 
  291800    307.40692   -1429.5273    500.10163    459.71798   -188.99718    38369.369 
  291900    307.02342   -1480.6294    485.68305    392.46428   -95.803506    38369.369 
  292000    302.76615   -1459.3947    501.27333      410.051   -587.23069    38369.369 
  292100    293.53115   -1449.9835    508.02468     384.4814   -892.26235    38369.369 
  292200    300.30123   -1467.3333    543.18595    432.88629   -588.80925    38369.369 
  292300     297.7763   -1466.1576    467.85454    347.32064   -65.909374    38369.369 
  292400    300.61896   -1461.6496    507.64716    404.46698    126.80667    38369.369 
  292500    303.26063   -1444.0976    504.33427    430.64354   -113.92256    38369.369 
  292600    298.95867   -1457.5856    484.51599    377.89716    -332.8967    38369.369 
  292700    293.21308   -1451.4026    523.04318    396.64358   -494.17709    38369.369 
  292800    296.22512   -1484.4006    506.00634    360.21983   -770.20804    38369.369 
  292900      294.537   -1470.6524    492.22877    352.56202   -807.64742    38369.369 
  293000    306.43747   -1442.2202     504.2242    446.76672    94.828858    38369.369 
  293100    297.27047   -1397.5396    509.90855     455.7069   -427.49657    38369.369 
  293200    317.21812   -1426.1331    504.80161    512.14799   -637.21007    38369.369 
  293300    294.18869   -1465.6359    506.57713    370.35281   -376.91244    38369.369 
  293400     297.3132   -1493.8367    518.89802    368.59233   -683.75235    38369.369 
  293500    296.26553   -1517.8976    494.80377    315.70281   -509.28311    38369.369 
  293600    303.38225   -1472.2882    494.76524    393.43353   -294.05435    38369.369 
  293700    309.23498   -1474.7073    506.81366    429.51078   -53.253589    38369.369 
  293800    298.13786    -1463.433    512.76608    396.59063    482.42167    38369.369 
  293900    311.58186    -1486.195    470.99334    392.80814    274.31299    38369.369 
  294000    288.37571    -1495.064    495.02015    303.09951   -185.91945    38369.369 
  294100    296.69895   -1448.6829    498.59017    390.66258    137.18584    38369.369 
  294200    302.08134   -1479.0035    465.28352    351.35786   -671.67172    38369.369 
  294300    309.02335   -1472.7621    488.74682    412.43281   -285.80573    38369.369 
  294400    298.75393   -1466.3189    505.06379    388.78646   -390.42786    38369.369 
  294500    292.95638   -1478.1353    472.71452    318.42212   -269.95622    38369.369 
  294600    296.62281   -1458.7212    497.10808    378.79811   -513.94784    38369.369 
  294700    306.49019   -1460.7259    486.82013    411.09522   -504.96558    38369.369 
  294800    295.42122    -1502.718    500.02817    332.29151   -35.806267    38369.369 
  294900    303.65303    -1526.224    495.40125    341.35738   -115.85008    38369.369 
  295000    300.82287   -1506.7754    468.04125    320.65672    110.19837    38369.369 
  295100    297.99094   -1465.0384    499.48773    381.04295     598.1051    38369.369 
  295200    313.21393   -1436.6534    482.37714    461.10869    537.44209    38369.369 
  295300    298.27604   -1458.7067    505.53681    394.71214    178.96564    38369.369 
  295400     305.3792   -1454.0842    484.32293    410.21925   -197.36772    38369.369 
  295500    294.91931   -1481.5534    468.78107    319.94095   -760.29323    38369.369 
  295600    297.90284   -1477.6223    494.98879    363.56199   -19.308623    38369.369 
  295700    301.57618   -1480.7938    490.55389    372.55514    -107.9243    38369.369 
  295800    285.17893   -1486.3822    501.20709    303.52221   -210.05852    38369.369 
  295900    299.35235   -1503.6077    506.07906    355.21715   -19.802575    38369.369 
  296000    303.09843   -1512.8114    501.16349    358.02601   -284.53906    38369.369 
  296100    302.80544   -1496.8202    495.86908    367.39886    -292.7424    38369.369 
  296200    300.98774   -1517.8886    466.01959    308.26692       18.649    38369.369 
  296300    294.55339   -1506.4362    501.55655    326.18001    104.10909    38369.369 
  296400    301.98178   -1503.5432    491.93208     353.0168    75.995001    38369.369 
  296500    304.71249   -1545.0116    516.20192     348.1581    12.557053    38369.369 
  296600    311.60064   -1512.7039    495.71502    391.10578    466.25638    38369.369 
  296700    293.61449   -1506.0947     490.4265    311.14866   -269.59072    38369.369 
  296800    284.32331   -1502.2481    497.28305    279.86583    141.23573    38369.369 
  296900    297.08554   -1513.8232     490.6435    319.32249   -396.18332    38369.369 
  297000    292.54997   -1461.7628    528.54972    388.79334   -445.74325    38369.369 
  297100    311.89657   -1478.4726    458.58666    389.54597   -379.43319    38369.369 
  297200    301.82406   -1493.9068    488.22849    358.23688   -751.95061    38369.369 
  297300    291.88794   -1474.0548    489.49892    334.45886   -455.74612    38369.369 
  297400     300.7186   -1500.9836    459.58903    317.52516   -853.00261    38369.369 
  297500    300.22167   -1528.4387    485.89708    314.13245   -648.45592    38369.369 
  297600    300.64965   -1502.0299    472.87155    329.44978   -298.08238    38369.369 
  297700    295.56966   -1508.1265    461.59225    289.11781   -194.98952    38369.369 
  297800    298.60206   -1508.9063    496.95393    337.40283    322.48066    38369.369 
  297900    303.64551   -1466.5182    502.63868    408.26664    608.08088    38369.369 
  298000    294.33908   -1465.5053    485.47687    350.06276    663.95425    38369.369 
  298100    302.80922   -1472.0916    482.20621    378.48166    503.31484    38369.369 
  298200    304.97177   -1484.2079    466.82934    360.76077   -94.785812    38369.369 
  298300    297.75921   -1488.1783    463.99291    321.36108    157.88328    38369.369 
  298400    304.03748   -1461.7612    504.91232    417.06858   -449.98903    38369.369 
  298500    298.08212   -1504.9947    490.20336     332.2144   -546.17127    38369.369 
  298600    296.63969   -1490.6096    446.96309    296.84098   -592.44439    38369.369 
  298700    299.96603   -1471.6804     484.7867    368.62523   -115.03203    38369.369 
  298800    296.29724   -1498.6189    487.90275    328.22382   -487.19828    38369.369 
  298900    297.10817   -1465.7949    454.46266    331.27226   -608.11704    38369.369 
  299000    297.72323   -1457.8703    473.43591    360.94947    438.26746    38369.369 
  299100    310.75929   -1456.2292    499.55235    447.61577   -203.66453    38369.369 
  299200    297.36442   -1476.6277    465.37237    332.50715   -631.16887    38369.369 
  299300    296.30738   -1472.6222    499.46291     365.8265   -441.32392    38369.369 
  299400    299.03242   -1439.2779    482.06006    394.08215    79.706291    38369.369 
  299500    299.70986   -1453.4304    485.59503     386.5259   -139.43694    38369.369 
  299600    298.72671   -1425.4729    461.20663    385.65227   -261.93405    38369.369 
  299700    291.61259   -1472.8395    471.46136    316.39238    -279.7513    38369.369 
  299800    305.33654   -1443.4538    501.80733    438.14131    180.69798    38369.369 
  299900    291.97724    -1444.242    505.78566    380.96202    372.12443    38369.369 
  300000    299.86778   -1457.6215    493.09459      390.548    737.96879    38369.369 
  300100    304.68068   -1431.4436    475.55896    420.93935    863.00228    38369.369 
  300200    306.01877   -1436.4325    504.23172    450.66992    1000.8702    38369.369 
  300300    301.22761   -1413.1761    492.73586    440.77961    1147.9116    38369.369 
  300400    310.96968   -1436.4367    488.55179    457.35851    754.64674    38369.369 
  300500    293.91707   -1474.9544    476.79751    330.02736    595.92422    38369.369 
  300600    295.80885   -1461.7414    464.44897    339.44057    22.417342    38369.369 
  300700    309.88439   -1438.0436     488.8698    451.16528   -348.11299    38369.369 
  300800    304.31198   -1493.6665    477.68889    359.18022   -367.94453    38369.369 
  300900    311.10764   -1474.2791    458.82209    390.40982   -73.466174    38369.369 
  301000    291.14199   -1464.5037    473.32247    324.46264   -450.19458    38369.369 
  301100    306.81177   -1473.2477    463.40083     376.6073    312.67839    38369.369 
  301200    300.82114   -1479.4731    432.51992     312.4299    397.39776    38369.369 
  301300    312.06746   -1460.9971    499.32017    448.52719    443.34483    38369.369 
  301400    291.74852   -1439.1655    510.50257    389.72186    290.64459    38369.369 
  301500    301.07633   -1454.6251    459.95906    365.87025    337.22352    38369.369 
  301600    297.50157   -1422.2167    512.93427    435.09976    360.68339    38369.369 
  301700    293.37347   -1422.9216    512.68178    415.48789   -109.45822    38369.369 
  301800    301.65006   -1434.0098    503.63475    432.75387   -258.88189    38369.369 
  301900    291.38654   -1430.2321    479.18266     365.6995   -285.86172    38369.369 
  302000    294.47593     -1429.25    490.37511    391.83481    130.91121    38369.369 
  302100    316.12095   -1469.2919    488.30753    447.53712    865.34478    38369.369 
  302200    300.17389   -1489.2121    496.68991    363.93601    1223.6957    38369.369 
  302300    294.56622   -1463.4956    499.37541    366.99751    872.04647    38369.369 
  302400    291.52728   -1488.4053    490.63383    319.61354     759.6977    38369.369 
  302500    291.49068   -1433.2509    493.69388    377.66254    96.459081    38369.369 
  302600    305.21995   -1409.6944    491.96801     461.5345   -106.02546    38369.369 
  302700    306.78431   -1451.8178    479.66313    414.17545   -562.37995    38369.369 
  302800    300.87349   -1431.3718    513.72424    441.97208   -272.88863    38369.369 
  302900    290.68825   -1454.4969    477.01754    336.11414    71.590294    38369.369 
  303000    288.08281    -1415.333    468.84075    355.32745    284.63023    38369.369 
  303100    297.08021   -1410.9086    487.34788    418.91749    102.80332    38369.369 
  303200    289.17513    -1375.977    506.33883    437.11761    495.61776    38369.369 
  303300    296.79966   -1394.1304    493.25945    440.33946    748.85006    38369.369 
  303400    297.00054   -1417.4736    513.31454    437.95905    582.24588    38369.369 
  303500    298.67853    -1439.346     494.1505    404.50526    336.56786    38369.369 
  303600    285.71274   -1434.0084    507.67826    364.77944    63.092304    38369.369 
  303700    308.90615   -1413.6091     496.4246    478.73402    571.27729    38369.369 
  303800    293.98607   -1384.9713    498.55503    442.07975    -40.87206    38369.369 
  303900    311.53342   -1400.8497    490.31125    497.25245    33.124726    38369.369 
  304000    292.67629   -1431.5471    514.15123    405.18141    304.66003    38369.369 
  304100    309.79408   -1418.2067    507.98805    489.71236    461.88398    38369.369 
  304200    304.71013   -1442.9252    484.85702    418.88891   -369.10778    38369.369 
  304300    295.08843   -1456.6186    478.47376    355.33267   -31.550749    38369.369 
  304400    303.91621   -1437.7864    498.30256    433.88552    307.55476    38369.369 
  304500    310.27819   -1417.4909    513.71024    498.33795    455.28832    38369.369 
  304600    293.11318   -1402.5154    482.92738    404.96349    290.33682    38369.369 
  304700    305.30208   -1451.6797    478.12145    406.07381    439.02543    38369.369 
  304800    299.69175   -1430.4553    490.80885    414.63298   -190.96848    38369.369 
  304900    311.92524   -1396.9784    510.72408    523.30713    171.14936    38369.369 
  305000     302.4836   -1420.3477    482.56412      429.112    139.03791    38369.369 
  305100    297.22604   -1463.2043    470.95065    350.88352   -16.274555    38369.369 
  305200    304.07831    -1422.713    491.80462    443.19356   -630.85177    38369.369 
  305300    302.07599   -1456.3623    470.97966    379.67095   -666.68711    38369.369 
  305400    294.90681   -1471.6108    477.45836     338.5043   -363.41661    38369.369 
  305500    299.75208   -1445.6564    472.74367    381.63934   -34.497702    38369.369 
  305600    303.85474   -1439.5708    511.60995    445.13076    432.04709    38369.369 
  305700    306.10908   -1452.4344    476.14999    406.99435    344.36019    38369.369 
  305800    312.68598   -1438.1713    502.58672    477.41455    -13.88597    38369.369 
  305900    306.48752   -1411.8038    496.24828    469.43344    205.28296    38369.369 
  306000    308.54993   -1398.5254    515.71824    511.50157   -17.355942    38369.369 
  306100    299.43963   -1435.6255    493.49362    411.00823    229.04536    38369.369 
  306200     298.8682   -1433.2449    486.74725    404.06026   -704.99381    38369.369 
  306300     296.7658   -1392.8385    497.85771    446.07656    63.856539    38369.369 
  306400    297.42385    -1429.192    521.95478    436.79378   -242.21383    38369.369 
  306500    305.18001   -1435.3809     513.5182    457.21775   -78.129988    38369.369 
  306600     310.3593   -1410.4118    525.74061    517.81398    699.97028    38369.369 
  306700    299.49374   -1460.7651     472.7687    365.38823   -121.77407    38369.369 
  306800    298.77421   -1455.1986    513.14254    408.07716   -35.402535    38369.369 
  306900    309.67845   -1445.0489    483.57334    437.93292    143.84777    38369.369 
  307000    295.90597   -1426.8535    501.47289     411.7913   -226.64015    38369.369 
  307100    299.54252    -1407.756    487.78451    433.63361    98.232967    38369.369 
  307200    291.37668   -1386.4902    511.83474    442.04896   -171.96782    38369.369 
  307300    302.44605   -1385.5714    504.40841    485.56289    163.80067    38369.369 
  307400    294.36004   -1448.1187     485.4488      367.516    415.44652    38369.369 
  307500    299.62118   -1440.2855    509.16182    422.83689    280.16694    38369.369 
  307600     312.8225     -1428.56     481.9877    467.04378     272.3273    38369.369 
  307700    292.13348   -1415.2066    466.99646    371.91417    17.580917    38369.369 
  307800    298.94078   -1408.5342    478.43725    420.78898   -28.634084    38369.369 
  307900    295.66858    -1426.217    504.66458    414.54674    588.62773    38369.369 
  308000    300.67722   -1443.0033    479.36298    395.09244    751.12405    38369.369 
  308100    290.33552   -1472.7051    512.74463      352.039     59.77239    38369.369 
  308200    301.07944   -1437.1513    510.42569    433.82468    83.160306    38369.369 
  308300    295.32729   -1434.6417    469.25844    369.17357   -2.9043277    38369.369 
  308400    307.30162   -1409.9428    515.52786    494.25283   -58.103189    38369.369 
  308500    289.53384   -1440.3204    489.16506    357.22152    110.53056    38369.369 
  308600    293.99428   -1452.1368    482.24805    358.64438    767.46557    38369.369 
  308700    296.05603   -1452.9415     496.3067     381.2152    667.84276    38369.369 
  308800    305.73623   -1467.1081    490.42456    404.91032    103.88545    38369.369 
  308900    303.77906   -1365.1037    477.84324    485.48912   -16.224623    38369.369 
  309000    306.82441   -1388.6262    511.86125    509.74636   -486.87633    38369.369 
  309100    307.37294   -1396.6713    489.72496    482.04372    263.64096    38369.369 
  309200    297.37794   -1428.2048    485.00857    400.62734   -94.060382    38369.369 
  309300    293.62061   -1395.9999    480.74604    411.59063     50.99455    38369.369 
  309400    305.44385   -1429.5571    511.40542    462.12102    240.68201    38369.369 
  309500    287.05969   -1433.9589     488.2473     351.4847   -67.268675    38369.369 
  309600    290.94812   -1412.1362    505.07533    407.70694    -115.5556    38369.369 
  309700    294.53728   -1377.4129    506.44172    460.01571   -136.47928    38369.369 
  309800     295.3417   -1455.9792    502.71384    381.35663   -173.25159    38369.369 
  309900    302.36983   -1413.0054    475.40894    428.78498    208.72774    38369.369 
  310000    291.25046   -1385.5631    506.66515    437.23611   -17.583299    38369.369 
  310100    293.36696    -1370.017    503.12832    458.80962   -75.040294    38369.369 
  310200    299.26645    -1385.262    497.34561    464.44115   -429.39729    38369.369 
  310300     300.8631   -1390.2108    503.50542    472.86733    183.70031    38369.369 
  310400    302.27346   -1383.7052     489.9918     472.2326    647.87141    38369.369 
  310500    291.12837   -1428.6734    485.05533    371.96426    516.87749    38369.369 
  310600     298.6173   -1391.9818    530.45198    487.89433    316.38829    38369.369 
  310700    311.93921   -1420.6652    494.55358    483.51301    835.64261    38369.369 
  310800    297.85561   -1452.6619    491.96431    385.28451    650.17258    38369.369 
  310900    303.78849   -1416.8055    498.82963    454.81636    642.86306    38369.369 
  311000     308.2159   -1408.8945    521.45412    505.35894   -251.94492    38369.369 
  311100     291.2877   -1412.1761    495.12295    399.24923   -60.962233    38369.369 
  311200    308.31702   -1421.9646    507.73106    479.02277    491.91206    38369.369 
  311300    293.76756   -1437.8005    506.00432    395.71244    699.38792    38369.369 
  311400    297.51687   -1458.8697    501.87119    387.45286    22.717267    38369.369 
  311500    302.28452   -1419.5601    506.86575    453.30156     504.5715    38369.369 
  311600    288.95559   -1371.2244    505.73292    440.27224   -213.51712    38369.369 
  311700     310.9975   -1400.1278    481.76581    487.00705   -265.82368    38369.369 
  311800    310.00316   -1413.7495    487.04213    474.16842    -359.6827    38369.369 
  311900    300.89955   -1434.4253    487.84156     413.1537   -408.80665    38369.369 
  312000     302.8287   -1391.2185    501.05532    478.29182    -478.5049    38369.369 
  312100    306.51211   -1376.7697    497.98562    506.31599   -181.69978    38369.369 
  312200    297.08588   -1429.3484    496.73413    409.88948   -340.54313    38369.369 
  312300    300.52225   -1386.1311    493.61514    465.51649   -715.95995    38369.369 
  312400    301.43598   -1439.4568    448.58462    371.28932    -868.6426    38369.369 
  312500    303.02277   -1422.9849     465.9682     412.3153    -713.8066    38369.369 
  312600    290.48544   -1447.7518    471.85806    336.78322   -669.07801    38369.369 
  312700    291.95813   -1481.7133    493.99991    331.61851   -360.20371    38369.369 
  312800    302.31481   -1460.3918    504.25873     409.9998    187.81684    38369.369 
  312900    302.65704   -1419.0838     486.3904     434.9859    363.40561    38369.369 
  313000    296.52892   -1417.7371    509.96985    432.21971    306.05891    38369.369 
  313100    302.42919   -1502.5548    479.55187    343.64678    373.24172    38369.369 
  313200    312.86744   -1454.4229    496.26487    455.66117    506.09209    38369.369 
  313300    308.38046   -1461.8227    509.26321     440.9835    518.01641    38369.369 
  313400    298.40707    -1465.986    473.57802    356.06617    224.24385    38369.369 
  313500    308.53928   -1435.6035    495.39284    454.04993    302.98221    38369.369 
  313600    306.39374   -1494.3373    479.40128    369.62916    -459.3061    38369.369 
  313700    293.00583   -1484.8984    489.17415    328.34216   -780.06864    38369.369 
  313800    300.03912   -1469.5983      475.297    361.54789   -329.86264    38369.369 
  313900    293.08444   -1478.3633    492.49716    338.55546   -119.34133    38369.369 
  314000    306.11726   -1442.6198    484.79473    425.49073    99.985745    38369.369 
  314100     297.4135   -1444.0932    477.41157    377.30263    -492.4457    38369.369 
  314200    300.65611   -1425.2044    518.34335    451.77629   -399.31834    38369.369 
  314300    312.65514   -1394.7523     505.7428     523.8503   -184.12427    38369.369 
  314400    293.85101   -1437.8197    488.15284    378.21878      214.677    38369.369 
  314500    293.68399   -1464.4099     479.8021    342.52319    262.93823    38369.369 
  314600    295.46451   -1443.8535    483.31125    374.63469    331.52674    38369.369 
  314700    300.40862   -1499.2705    464.46756    322.71601    471.12231    38369.369 
  314800    298.41447   -1516.7795    469.26701    300.99508    511.56138    38369.369 
  314900    305.31461    -1517.202    460.46793     322.9546   -202.94516    38369.369 
  315000    300.61118   -1489.2386    496.24525    365.44092    98.492949    38369.369 
  315100    299.71144   -1486.0861    461.79392    330.07626   -397.04447    38369.369 
  315200    300.54263   -1476.9082    481.94382    363.16013   -41.998577    38369.369 
  315300    300.93284   -1447.4991    485.98548    398.37417   -384.00848    38369.369 
  315400    309.64516   -1453.4411    493.74577    439.56265   -237.22275    38369.369 
  315500    306.63204   -1499.0004    516.53985    403.18146     285.1225    38369.369 
  315600    306.91202   -1470.0743    471.07395    387.90682    687.45962    38369.369 
  315700    299.56559    -1424.087    521.33121    450.95355    649.45909    38369.369 
  315800    296.15259   -1429.7502    475.23776    383.77385    96.157169    38369.369 
  315900     300.0353    -1440.568    501.16905      416.433    253.40193    38369.369 
  316000    305.45244   -1424.6199     489.8094    445.50099     68.11035    38369.369 
  316100    291.08282   -1471.8973    501.02867    344.50787   -219.38956    38369.369 
  316200    305.73338   -1466.8362     478.2674    393.01225    -204.3616    38369.369 
  316300    305.03279     -1459.81     499.4552    418.06036    180.95682    38369.369 
  316400    304.99148   -1451.9807     500.3078    426.55559   -340.59549    38369.369 
  316500    297.39571   -1483.6188    507.06455    367.34962    199.31729    38369.369 
  316600    287.11757   -1472.4828    517.75732    342.73239    36.903119    38369.369 
  316700    293.75618   -1441.2372    507.51292    393.73285    45.139873    38369.369 
  316800    301.06984   -1442.9989    498.09885    415.60691    64.272752    38369.369 
  316900    297.19554   -1454.8718    470.68257    358.81012   -70.901405    38369.369 
  317000    305.17369   -1412.4678    503.76395    470.34804     531.6204    38369.369 
  317100    285.76405   -1443.3394    488.09963    336.10164   -57.200724    38369.369 
  317200     307.9835   -1461.4991     470.5151    400.76511   -138.14116    38369.369 
  317300    306.52305   -1392.0373    525.86062    518.97274    363.64473    38369.369 
  317400    288.34455    -1444.995    512.65348    370.66101    395.15179    38369.369 
  317500    305.99186   -1419.8503     498.1208    461.01962    491.28801    38369.369 
  317600    295.91001   -1423.2448     505.7094    419.65472    79.658822    38369.369 
  317700    291.36897   -1422.0432    491.42521    386.05159    43.029132    38369.369 
  317800    299.23739    -1429.061    494.86458    418.02989   -228.91593    38369.369 
  317900    296.72636   -1462.0873    517.18993    395.98179   -23.012005    38369.369 
  318000    295.63462   -1470.2399    492.11501    357.82072    67.820046    38369.369 
  318100    305.25667   -1493.2322    490.10964    376.30428    128.28365    38369.369 
  318200    300.32957   -1526.6557    500.14186     330.6478   -87.180081    38369.369 
  318300      306.724   -1465.4567    473.82016      394.421    93.052623    38369.369 
  318400    312.00236   -1463.8378    474.82626    420.89849    866.64054    38369.369 
  318500     300.0832   -1456.4579    500.61871     400.2092    713.32614    38369.369 
  318600    285.95001    -1444.044    514.14076    362.27852    136.75223    38369.369 
  318700    292.95041    -1434.771    513.77672    402.82173    249.59923    38369.369 
  318800    293.76504   -1447.9265    509.48612    389.05682    380.13624    38369.369 
  318900    307.83097   -1454.9589    504.90929    441.01025    121.35316    38369.369 
  319000    312.96296   -1462.2302    450.36433    402.38501   -5.4911443    38369.369 
  319100    299.03245   -1496.3567    499.55799    354.50144    -303.2866    38369.369 
  319200    291.60061   -1462.3787     493.0321    348.36979     -146.003    38369.369 
  319300    305.97119   -1436.1269    492.36575    438.89455    -52.18299    38369.369 
  319400    309.55258   -1451.5612    505.71743    452.99588    181.97333    38369.369 
  319500    284.72041   -1486.2296    486.58851    286.98424    15.807534    38369.369 
  319600    293.34031   -1457.0327    497.36009    365.90522   -195.55334    38369.369 
  319700    300.17818   -1449.5019    486.13058     393.1063    33.001488    38369.369 
  319800    296.00552   -1430.1827    472.73675    380.17579    291.26744    38369.369 
  319900     304.2409    -1388.899     505.2458    491.18347    459.89223    38369.369 
  320000    291.51948   -1432.5225    499.51967    384.34686    462.86835    38369.369 
  320100    304.28186   -1449.3479    499.31473    424.98853    434.66828    38369.369 
  320200    298.27896   -1438.2558    507.52096    417.16037   -261.56929    38369.369 
  320300    291.61361   -1418.0047    507.60747    407.37789   -101.65815    38369.369 
  320400     301.3441    -1419.312    506.19815    448.63238   -68.759489    38369.369 
  320500    304.60825   -1372.2653    517.70063    521.93205   -120.34717    38369.369 
  320600    288.43655   -1451.3294    455.06953    307.15832   -137.30484    38369.369 
  320700    303.21337   -1479.4153    516.51513    407.29312   -181.79956    38369.369 
  320800    306.32977   -1477.3449    499.37481    406.30593      80.5705    38369.369 
  320900    288.51906    -1475.048    501.34945    330.09254    164.82181    38369.369 
  321000    290.96992   -1443.5053    472.87271     344.2337   -131.88536    38369.369 
  321100    296.48686   -1428.7212    477.27494    388.35059    214.19029    38369.369 
  321200    291.30437   -1432.3418    498.72667    382.76252   -236.08234    38369.369 
  321300     289.6261   -1423.8794    498.39587    383.31022   -14.775848    38369.369 
  321400    290.42134   -1474.1869    530.14053     368.3409    -78.80604    38369.369 
  321500    299.82165   -1491.4921    493.44182    356.81616    128.08559    38369.369 
  321600    298.58633   -1489.2132     487.3797     347.4507   -99.616172    38369.369 
  321700    305.12145   -1458.4915    510.64986    430.97411   -238.97075    38369.369 
  321800    297.48213   -1491.5571     474.6163    327.35359   -114.72362    38369.369 
  321900    304.10917   -1511.4338    524.05902    386.86659    -215.8747    38369.369 
  322000     294.7783   -1483.6186     498.8208     347.2782   -103.81458    38369.369 
  322100    291.96259   -1458.7272    482.49997     343.1248    158.97219    38369.369 
  322200    293.48944   -1476.7051    516.99287    366.53951    295.96064    38369.369 
  322300    295.47404   -1467.3824    515.20632    383.04395    63.202542    38369.369 
  322400    299.97034   -1465.3668    484.61115    374.78276     172.6842    38369.369 
  322500    303.29185   -1480.4714    503.89869    393.97522    418.66537    38369.369 
  322600    291.43397   -1489.2694    505.59282    333.28674    423.69928    38369.369 
  322700    294.96369    -1482.072    486.88128    337.72305    183.93072    38369.369 
  322800    293.34842   -1481.9305     500.2077    343.89172   -375.81314    38369.369 
  322900      294.009    -1471.252    484.29547     341.6431   -10.801111    38369.369 
  323000    300.25818   -1463.7139     511.9477    405.07293   -44.925581    38369.369 
  323100    309.54518   -1439.5138    500.11405    459.40644   0.53251426    38369.369 
  323200    303.30972   -1432.7269    520.89811    458.79994    703.15029    38369.369 
  323300    300.04713   -1419.0654    533.29268    470.11269    403.26895    38369.369 
  323400    297.55346   -1475.1321     486.7159    356.20051    377.86356    38369.369 
  323500    295.32964    -1468.081    491.53486    358.02131     31.91446    38369.369 
  323600    301.88915    -1523.628    479.76936    320.35069    191.31273    38369.369 
  323700    301.65214   -1463.1431    501.76135    401.75653   -470.07039    38369.369 
  323800    306.56599   -1479.9578    505.86491    411.25068   -341.58231    38369.369 
  323900    297.05975   -1488.5904    463.06499    316.86031   -464.25403    38369.369 
  324000    293.97518   -1484.9199    507.51032    351.03725   -68.222099    38369.369 
  324100    302.74781   -1527.7827    481.83956     322.1464   -554.24474    38369.369 
  324200    296.51012   -1513.5819    501.82384    328.14388    -279.6303    38369.369 
  324300    292.17254   -1469.6453    505.10253    355.75806   -115.99064    38369.369 
  324400    296.62562   -1476.8162    514.22028    377.82802    34.172786    38369.369 
  324500     292.5849   -1480.0337    482.92323    325.05377    184.54048    38369.369 
  324600     297.1508   -1479.7514    508.45457    371.50029    360.88826    38369.369 
  324700    289.04602   -1494.9377    490.36913    301.60381    158.97804    38369.369 
  324800    307.02855   -1483.2396    500.36112    404.55528    232.93022    38369.369 
  324900    301.97713    -1454.939     498.3319    407.99983    123.57289    38369.369 
  325000    301.61696   -1492.3404    477.35339    347.99231     210.0209    38369.369 
  325100    305.91367    -1498.178    476.66635    360.88414    352.92159    38369.369 
  325200    298.91704   -1480.2604    496.61712    367.13529    539.51662    38369.369 
  325300    288.96085   -1486.6378    492.24118    311.39094   -85.433913    38369.369 
  325400    288.36743   -1447.7259    527.55363    382.93367   -130.82631    38369.369 
  325500    303.76561   -1462.7254    515.92307    425.88654    450.63078    38369.369 
  325600    303.25685   -1469.3435    512.03084    413.07715   -156.92185    38369.369 
  325700    296.96674   -1473.5134    476.55671    345.00871    139.28589    38369.369 
  325800    306.10874   -1477.0976    490.58746    396.76706    21.974727    38369.369 
  325900    307.26378   -1478.9054    464.41626    374.00763    170.73856    38369.369 
  326000    300.97673   -1459.5283    490.57195    391.12975    37.659308    38369.369 
  326100    301.08783   -1501.3779    494.91858    354.12888    445.53175    38369.369 
  326200    300.10184   -1488.8392    527.24057      394.534    398.38612    38369.369 
  326300    303.88117   -1500.1312    474.42991    347.50978   -12.087072    38369.369 
  326400    310.67615   -1511.5471    481.86861    374.23843    289.38056    38369.369 
  326500    310.66914   -1477.1805    490.47987    417.18459    120.16612    38369.369 
  326600    312.07653   -1487.8863    483.03026     405.3891   -311.28314    38369.369 
  326700    310.22668   -1446.5662    490.47183     445.7915   -184.09361    38369.369 
  326800    307.91847   -1424.0946    492.73155    460.09221   -392.84345    38369.369 
  326900    291.47576   -1452.9048    499.28536    363.53274   -300.39945    38369.369 
  327000    301.73404   -1469.5194    516.08922    410.07824    91.419803    38369.369 
  327100    293.31132   -1424.6655    494.54598    395.32732    -244.8064    38369.369 
  327200    300.63227   -1455.1936    491.57238    394.90839    148.17529    38369.369 
  327300    292.99079   -1467.2009    493.70148    350.49903     282.2601    38369.369 
  327400    296.83319   -1482.5791    493.28603    352.06884    526.55733    38369.369 
  327500    303.06028   -1475.8727    516.63431    410.26315   -59.741004    38369.369 
  327600    300.29315   -1466.2311    501.88267    392.64872    695.91657    38369.369 
  327700     303.4802   -1424.5367    499.23302    446.09544    268.28531    38369.369 
  327800    300.65921   -1413.7729    504.58886    449.46724    313.76669    38369.369 
  327900    302.12948   -1454.8992    482.57989    392.97601    33.415439    38369.369 
  328000    297.72598   -1444.3429    493.26612    394.31958    72.455203    38369.369 
  328100    310.02717   -1432.5085    516.93059    485.40635    763.50324    38369.369 
  328200    302.85074   -1413.3271    474.64011    429.86769    658.28937    38369.369 
  328300    298.98991   -1417.9047    544.67947    477.88269    129.57481    38369.369 
  328400    295.80271   -1381.3824    543.24446    498.56735    444.59839    38369.369 
  328500    295.00188   -1383.3766    512.78211    462.49193    273.48021    38369.369 
  328600    304.81441   -1443.9435    502.61132     436.0961    138.29927    38369.369 
  328700     306.5317   -1402.1543    483.36208    466.39638    465.64641    38369.369 
  328800    300.61041   -1432.0578    513.89296      440.266    312.71434    38369.369 
  328900    304.14482   -1409.1581    499.59437    464.83873    475.57411    38369.369 
  329000    302.27399   -1427.7602    498.95128    437.13945    598.74855    38369.369 
  329100    300.80861   -1446.2293    498.27871     411.3758   -251.42296    38369.369 
  329200    303.75712   -1446.7759    494.97016    420.84481    20.870279    38369.369 
  329300    296.15583   -1446.2005    496.13787    388.23837   -31.266706    38369.369 
  329400    294.00651   -1446.8384    521.27101    403.02099    501.09404    38369.369 
  329500    303.36007   -1447.3038    487.58445    411.13688    111.04668    38369.369 
  329600    298.48805   -1463.8056    499.36133    384.39578    83.501374    38369.369 
  329700    299.00105   -1451.4869    509.44303    409.11434    224.58866    38369.369 
  329800    294.88524   -1453.4055     505.4202      384.574    347.82657    38369.369 
  329900    295.04254    -1491.296    491.09529    333.06946    243.09231    38369.369 
  330000     298.6306   -1465.8958    530.13226     413.7207    376.23289    38369.369 
  330100    306.54613   -1449.8901    488.33786    423.70151    344.87445    38369.369 
  330200    288.03042   -1472.9145     503.9733     332.6418    748.85999    38369.369 
  330300    295.64563   -1501.9323    494.15123    328.21429    481.05066    38369.369 
  330400    297.89953   -1451.8723    512.31862    406.62691    116.71299    38369.369 
  330500    299.63183   -1496.5086    475.21238    332.71246    94.459732    38369.369 
  330600    299.61001     -1456.86    487.50163    384.55169   -878.65146    38369.369 
  330700    304.25688   -1490.2149    477.41859    362.11252    -674.8987    38369.369 
  330800     306.1799   -1484.5198    515.56151    414.64054   -451.98168    38369.369 
  330900    298.98167   -1480.8669    508.42496     378.6287   -376.76241    38369.369 
  331000     293.2667   -1485.3597    491.98824    331.87378   -481.05726    38369.369 
  331100    307.49098   -1460.1564    498.93342    428.30044   -414.26747    38369.369 
  331200    289.27718   -1494.7659    487.64293    300.09401   -596.18093    38369.369 
  331300    293.17095   -1476.3714      504.659    353.10012   -380.72937    38369.369 
  331400    297.76514   -1480.9315    497.02577    361.66752   -853.14885    38369.369 
  331500    305.04039   -1481.0668    480.29215    377.67483   -184.52842    38369.369 
  331600    302.05279   -1485.0267    500.74792    380.67004    151.99816    38369.369 
  331700    299.11303   -1461.3992    502.31692    392.58205    -56.16145    38369.369 
  331800    306.10302   -1474.9086    492.63052    400.97331   -698.74821    38369.369 
  331900    303.49732   -1480.4068    474.32127    365.39093    -687.1122    38369.369 
  332000    297.17158   -1482.2763    476.41644    337.03121   0.34847218    38369.369 
  332100    304.49609   -1471.9367    502.90003    406.95321   -213.09778    38369.369 
  332200    304.45666   -1478.2946    492.48993    390.00702   -245.69577    38369.369 
  332300    304.75518   -1483.6587    499.57553    393.07749   -484.85968    38369.369 
  332400    297.44542   -1515.2564    469.23947    298.11156   -735.89872    38369.369 
  332500    306.08719   -1509.8004     504.6776    378.05709   -123.45054    38369.369 
  332600    305.33918   -1501.2136    506.73836    385.32445   -125.63674    38369.369 
  332700    297.77819   -1447.8992    498.10944    395.84254    290.12496    38369.369 
  332800    299.28498   -1478.7021    538.97849    412.71766   -276.21238    38369.369 
  332900    296.60498   -1450.0159    509.85274    400.16747   -324.65629    38369.369 
  333000      312.754   -1507.3969    503.30668    409.21628   -199.92891    38369.369 
  333100    294.20599   -1485.7754    497.09235    340.80677   -211.01839    38369.369 
  333200    294.07467   -1509.5839    512.06385    331.37638    -293.7194    38369.369 
  333300    295.04866   -1508.9396     505.1693    329.52751   -171.15839    38369.369 
  333400    288.48485   -1535.5378    484.56023    252.65898    139.66577    38369.369 
  333500    284.75329   -1474.8452     523.7101    335.63882    332.48055    38369.369 
  333600    295.90322   -1480.1867    497.89754    354.87026    564.47685    38369.369 
  333700    302.99785   -1536.7939    498.32501    330.75055    272.36817    38369.369 
  333800     290.4849   -1501.5926    532.84984     343.9318   -177.82122    38369.369 
  333900    297.20646   -1487.3804    490.77168    346.43997   -195.46437    38369.369 
  334000     305.7729   -1512.5198    525.98034    395.22017    -297.7456    38369.369 
  334100    307.27769   -1449.2533    520.79969    460.10598    -59.42419    38369.369 
  334200     299.2702   -1473.5718    519.75902    398.56175   -23.597114    38369.369 
  334300    296.43362   -1505.1114    534.41062    368.85546   -776.11631    38369.369 
  334400    306.51652   -1467.9312    502.52416    419.71295    130.52951    38369.369 
  334500     299.7612   -1513.5229    526.46564    367.53608   -355.41522    38369.369 
  334600    306.18604   -1494.9705    504.67006    393.32615   -205.63949    38369.369 
  334700    296.16999   -1499.4391    524.67834    363.60425    81.965412    38369.369 
  334800    302.68599   -1528.2897    519.45284    358.97325    12.710258    38369.369 
  334900    295.95963   -1534.5936    485.43509     288.2559    417.85875    38369.369 
  335000    302.77767   -1493.1923    522.55772    397.58985    740.45829    38369.369 
  335100    302.74028   -1516.6747    493.85926    345.24007    600.02577    38369.369 
  335200     310.9592   -1496.1919     509.6826    418.68676    169.42006    38369.369 
  335300    292.18108   -1483.8823    516.12727    352.58443   -523.19601    38369.369 
  335400    311.97953   -1485.8128    497.81444    421.80844   -788.92349    38369.369 
  335500    296.12666   -1491.8171    507.35905    353.71114   -1127.5776    38369.369 
  335600    299.73982   -1513.3261    521.37531    362.54589    -1228.294    38369.369 
  335700    295.61092   -1542.1197    508.28371    302.00254   -543.27805    38369.369 
  335800    292.14879   -1545.4074    527.41141    302.19752   -628.91259    38369.369 
  335900     307.5669   -1552.9593     465.7252    302.63247   -438.16987    38369.369 
  336000    299.87572   -1510.6864    535.85453    380.27898    100.66311    38369.369 
  336100    294.21097   -1536.2227    488.72396    282.01352   -35.667051    38369.369 
  336200    307.94914   -1504.3206    501.32349    388.59672    -354.8045    38369.369 
  336300    298.13152   -1510.1123    498.38151    335.49817   -63.942439    38369.369 
  336400    305.59653    -1517.557    519.57848     382.9841   -204.34772    38369.369 
  336500    303.65467   -1538.0563     475.8607    309.99197    333.57611    38369.369 
  336600    296.81458   -1536.3046    497.68152    302.65469    -23.98726    38369.369 
  336700    304.76462   -1530.5599    480.36926    327.01263    409.98146    38369.369 
  336800     305.6199   -1516.7216    527.59748    391.94408    356.34222    38369.369 
  336900     289.9257   -1488.1913    520.20398    342.16024    300.69733    38369.369 
  337000     293.8459   -1518.1404    523.98762    333.70986    108.91984    38369.369 
  337100    303.02797   -1517.4622    518.53876    370.43211   -25.360199    38369.369 
  337200    312.01054   -1527.5851    484.05791    366.41973    83.099363    38369.369 
  337300    294.81956   -1486.4863    507.04279      352.819   -563.55995    38369.369 
  337400    308.92977   -1465.8738    514.47398    444.62543   -131.54636    38369.369 
  337500     304.8647   -1467.3157    517.76131    428.10118   -66.128136    38369.369 
  337600    298.56857   -1491.5325    492.12813    349.79957    144.20851    38369.369 
  337700    294.88946   -1501.2924    490.98164    322.26764   -85.879319    38369.369 
  337800       289.66   -1536.9937    515.60294    287.55615   -192.49663    38369.369 
  337900    292.80543   -1546.2601    484.17041    261.07118    30.786719    38369.369 
  338000    300.51555   -1555.6887    476.21916     278.5326   -681.36303    38369.369 
  338100    296.04103   -1511.2662    507.20534     333.7213   -35.554165    38369.369 
  338200    302.07983   -1484.9121    521.26024    401.41916   -291.66541    38369.369 
  338300     300.2218   -1477.9145    508.67898     387.4392    134.66026    38369.369 
  338400    295.56236   -1505.5317    503.75009    333.83747    597.67735    38369.369 
  338500    306.76792   -1527.3901    487.51125    346.37719    209.15931    38369.369 
  338600    298.36712   -1522.0232    514.32193    340.59235    13.974743    38369.369 
  338700    294.48594   -1547.8411    500.79313    283.70695    468.62053    38369.369 
  338800    300.78126    -1575.894    504.80989     288.1187     285.9647    38369.369 
  338900    300.38049   -1531.8646    499.53896     325.0662    10.952699    38369.369 
  339000    299.69208   -1524.8165    491.35807    320.82249    345.71427    38369.369 
  339100      302.863   -1497.1267    489.46997    360.95329   -14.558038    38369.369 
  339200    292.15075   -1512.7052    506.83517    314.33236    365.11022    38369.369 
  339300    293.58216   -1506.4642    487.60705    307.81367    318.74838    38369.369 
  339400    290.53337   -1484.3161    496.30157      324.879   -419.09227    38369.369 
  339500    304.67198   -1479.9921    531.99595     428.7885    256.81753    38369.369 
  339600    294.88531   -1471.2759    524.63437    385.91809   -97.414181    38369.369 
  339700    290.21722    -1495.479     513.4125    329.39839    80.159643    38369.369 
  339800    285.70639   -1481.3356    505.50614    315.25146   -187.56815    38369.369 
  339900    313.44335    -1499.026    508.87708    426.27273   -656.83331    38369.369 
  340000    299.06804   -1502.7913     480.4309     329.1006   -294.94676    38369.369 
  340100    301.89842   -1500.3849    509.94777    373.81404  0.078465607    38369.369 
  340200    307.36008    -1530.469    494.50962    352.97261    240.94759    38369.369 
  340300    300.13009   -1523.1484    483.84264     316.9545    498.64247    38369.369 
  340400    299.29542   -1515.6079    490.96722    327.84781    648.34316    38369.369 
  340500    304.63105   -1505.7848    502.01501    372.82989    997.77719    38369.369 
  340600    304.87715   -1542.3225     488.0376    323.42693    661.51656    38369.369 
  340700    303.81458    -1565.576    507.74628    315.08042    406.97111    38369.369 
  340800    292.18703   -1550.8475    496.23832     265.7572    34.860051    38369.369 
  340900    302.21699   -1559.2846    485.55428    291.96049    222.18084    38369.369 
  341000    291.64022   -1493.0397    519.00111    343.85679   -331.80803    38369.369 
  341100    295.75264   -1491.1331    501.20896    346.55487   -364.14988    38369.369 
  341200    295.37771   -1495.8522    490.92831    329.86081    84.718056    38369.369 
  341300     295.2374   -1492.9359    480.53307    321.74786   -24.703166    38369.369 
  341400    294.65543   -1450.4065    494.37572    375.49006    347.55557    38369.369 
  341500    288.15399    -1508.709    526.24138    319.67375   -237.24409    38369.369 
  341600    294.70679   -1476.5039    504.23229     359.4813   -143.01288    38369.369 
  341700    306.21655   -1498.7093    499.03669    384.09179   -48.922983    38369.369 
  341800    297.77534   -1458.9776     502.2459    388.88762   -63.191208    38369.369 
  341900    306.15733    -1489.534     555.3905    449.35329    51.324228    38369.369 
  342000    299.42032    -1541.501    468.93039    280.48223   -25.639789    38369.369 
  342100    302.88008   -1516.8467      522.049    373.88952    99.961014    38369.369 
  342200    302.89014   -1530.5063    500.95084    339.17719    811.32823    38369.369 
  342300    296.14553   -1513.1117    533.78131    358.92407    629.18406    38369.369 
  342400    299.90642   -1506.5389    520.19455     368.9052    475.86373    38369.369 
  342500    285.98399   -1503.3453    531.27339    320.26341    45.051973    38369.369 
  342600    292.15295    -1499.984    489.14296    309.37125    76.485804    38369.369 
  342700    294.10716   -1507.2872    500.07312    321.82915   -208.71206    38369.369 
  342800    303.58548   -1483.0288    530.84949    419.69557   -539.39904    38369.369 
  342900    299.55154   -1515.6011     514.8526    352.89738    35.047994    38369.369 
  343000    299.46726   -1501.5443    482.67526    334.39603   -134.18381    38369.369 
  343100    295.91433   -1501.2843    530.80704     366.7324    26.506126    38369.369 
  343200    293.61941   -1482.3327    518.87023    363.37663    310.66133    38369.369 
  343300    302.00666   -1480.5513    498.80514    382.99422    283.73363    38369.369 
  343400    303.85681   -1476.4749    517.44212    414.06815    551.01005    38369.369 
  343500    302.49919   -1429.3991    498.21023    435.77713    347.26071    38369.369 
  343600    298.69472   -1478.6056    530.00079    401.16918   -294.11683    38369.369 
  343700    297.41782   -1449.6855    480.99315    375.31136   -704.31372    38369.369 
  343800    308.53659    -1473.716    499.72681    420.25926   -485.18496    38369.369 
  343900    305.22903   -1481.4237    480.61059    378.48882    -322.6951    38369.369 
  344000    301.84221   -1482.4132     506.3545    387.93851   -359.42733    38369.369 
  344100    288.88808   -1472.8544    504.57276    337.17706   -16.857705    38369.369 
  344200    312.28804    -1508.679    470.51007    373.03204   -70.146415    38369.369 
  344300    301.06368   -1455.8411     514.8379    419.47589    683.89771    38369.369 
  344400    296.18748    -1461.743      535.939    412.63998    409.26061    38369.369 
  344500    298.21738   -1444.8765    505.24664    407.98705    32.958474    38369.369 
  344600    301.95079   -1441.6434    532.42067    455.26507     732.7174    38369.369 
  344700    296.93657   -1452.3629    521.61416    411.08032     995.7168    38369.369 
  344800     293.8953   -1458.4192     496.3694    366.03607    477.37181    38369.369 
  344900    295.74753    -1464.723    497.31807    369.05092    33.517292    38369.369 
  345000    300.70139   -1474.1532    498.83288    383.52163    70.830904    38369.369 
  345100    306.09983   -1456.8453    512.96571    439.35738    878.16727    38369.369 
  345200    301.78295   -1494.4729    486.90808    356.16459   -404.80551    38369.369 
  345300    298.35994   -1525.2833    488.65681    311.63463    9.5474076    38369.369 
  345400    299.05103   -1533.0571    483.45167    301.77865   -267.31322    38369.369 
  345500    308.88387   -1535.5416    489.46243    349.73868   -348.52957    38369.369 
  345600    294.29201   -1522.4685    485.17682    292.58687   -62.660665    38369.369 
  345700    293.68063   -1519.7696    480.64212    287.98832   -390.11686    38369.369 
  345800    300.78542   -1518.4314    486.25701     327.0473    325.63101    38369.369 
  345900    293.81336   -1481.6645     501.2629    347.31394    532.04904    38369.369 
  346000    287.23685   -1515.3185    510.90594    293.58432     302.4393    38369.369 
  346100     304.4689    -1486.973    487.74189    376.63579    546.70154    38369.369 
  346200    304.51058   -1474.6032    490.51328    391.96538   -141.89614    38369.369 
  346300    302.51677   -1469.5349     510.5638    408.07438    277.78338    38369.369 
  346400    302.20335   -1484.7794     526.2175    407.06725     532.2945    38369.369 
  346500    296.68354   -1448.0834    478.75583    371.35806    202.68426    38369.369 
  346600    296.12972    -1438.006    524.00591    424.18291    34.359318    38369.369 
  346700    290.78206   -1443.1409    488.56803    359.44453    57.343493    38369.369 
  346800    303.41215   -1490.4695    511.01156    391.63368    404.59155    38369.369 
  346900    301.44297   -1461.8466    497.10086     397.4473    486.99548    38369.369 
  347000    297.92205   -1462.9519    517.29202    400.62247    400.95447    38369.369 
  347100    309.13281   -1471.2359    509.01177    434.71858    775.88304    38369.369 
  347200    294.25546   -1484.1288    481.33902    326.92362    576.34537    38369.369 
  347300     295.5408   -1463.3845     511.6059    383.74309   0.52459835    38369.369 
  347400    308.96637   -1457.6023      488.238    426.82634   -136.64758    38369.369 
  347500    308.22363   -1465.4641    488.21051    415.58065    463.85667    38369.369 
  347600    294.44608   -1474.0549    521.90575     378.4256    729.77906    38369.369 
  347700    292.89708   -1539.2461    493.07497    277.40385    453.17331    38369.369 
  347800      302.694   -1491.5404    510.90473    387.21065     594.0663    38369.369 
  347900    302.06809   -1509.1909    494.32026    350.14733     287.2408    38369.369 
  348000    289.94189   -1478.5925    505.54113    337.16938   -228.10935    38369.369 
  348100    304.68636   -1494.8256    514.17298    396.19697   -633.35451    38369.369 
  348200    292.85694   -1507.9453    517.89393    333.34219   -314.07413    38369.369 
  348300    300.91142   -1494.9404    512.38134    377.23201   -588.42345    38369.369 
  348400    300.00361    -1505.707    491.03112     341.0128   -1082.5793    38369.369 
  348500    285.07643   -1496.2152    499.97484    291.99383   -699.91935    38369.369 
  348600    297.61944   -1467.2607    489.31812    366.97233   -138.72629    38369.369 
  348700    305.08957   -1475.1422    504.32844    407.85793   -420.44847    38369.369 
  348800    290.36478   -1490.6562    500.45178     321.9273   -226.82743    38369.369 
  348900    305.05222   -1490.0054    488.69022    377.18773   -273.29475    38369.369 
  349000    298.82683   -1530.7665    500.64267    320.24711    107.16431    38369.369 
  349100    296.61175   -1514.4411    496.30155    322.22166    469.97228    38369.369 
  349200    305.13283   -1520.1735    512.16398    370.85771    220.30916    38369.369 
  349300    299.39586   -1509.4022     464.5148      308.055    838.69224    38369.369 
  349400     308.6161   -1495.1875    498.81596     398.2363    -89.73906    38369.369 
  349500    286.16622   -1480.6444    490.68745    303.20191   -2.7573951    38369.369 
  349600    290.70526   -1507.1857    508.44513    314.92974   -364.98604    38369.369 
  349700     302.8817   -1485.5836    501.71468    384.82565   -192.33372    38369.369 
  349800    298.67841   -1491.9183    509.46989    367.25183   -129.23261    38369.369 
  349900    313.37899   -1481.1664    483.84589    418.81032   -167.20289    38369.369 
  350000    295.79531   -1495.2443    495.17494    336.60247   -706.88885    38369.369 
  350100    304.06747   -1453.6108    515.41484    435.85694   -397.23495    38369.369 
  350200     303.4925   -1500.7446    499.53746    370.24753   -334.93159    38369.369 
  350300    302.52953   -1490.0831    508.20697    385.22694   -312.32398    38369.369 
  350400    306.58054   -1502.0438    501.96496    385.33048   -77.814274    38369.369 
  350500    307.55867   -1511.4157    480.40974     358.8234   -433.34981    38369.369 
  350600    297.61031   -1489.0851    487.39724    343.18572   -302.85506    38369.369 
  350700    314.25764   -1481.1533     513.5013    452.44936    -473.0003    38369.369 
  350800    294.77094   -1470.1411    480.75809    342.65969   -180.40525    38369.369 
  350900    298.55391   -1477.3773    496.51204    368.27239    85.083951    38369.369 
  351000    300.93655   -1456.1078    495.09119    398.88799    -179.6717    38369.369 
  351100    301.27742   -1456.3746     503.2549    408.32526   -426.78451    38369.369 
  351200    294.58928   -1482.7655    502.28646    350.74288   -42.754307    38369.369 
  351300    307.77148   -1448.8761    496.89783    438.81269   -177.00454    38369.369 
  351400    303.86789   -1463.3736    493.10621    402.88368   -535.49524    38369.369 
  351500    298.72839   -1430.1733    479.00987    398.76269   -336.20061    38369.369 
  351600    306.01127    -1477.748     510.3563    415.44514    58.947443    38369.369 
  351700    299.72553   -1510.8877    490.14927    333.69372   -343.50488    38369.369 
  351800    306.26112   -1482.0315    492.20429    394.13864    -365.6327    38369.369 
  351900    296.36997   -1437.1034    498.67301    400.83829   -224.30233    38369.369 
  352000     304.4813   -1435.6681    504.64288    444.89775    121.22275    38369.369 
  352100     296.6485   -1480.7581    494.27814     354.0473   -719.50717    38369.369 
  352200     301.1604   -1454.4495     534.8436    441.31024   -445.85273    38369.369 
  352300    297.07942   -1428.4928    497.98573    411.96755   -664.27104    38369.369 
  352400    301.06416   -1493.1395    505.69702    373.03879   -148.13178    38369.369 
  352500    292.11862   -1473.4117    505.72329    352.36878     48.46956    38369.369 
  352600      303.036   -1533.6347    457.61414    293.37126   -29.909196    38369.369 
  352700    298.46192   -1523.9048    515.12635    339.94347   -247.21964    38369.369 
  352800    306.75207    -1518.785    468.37646    335.77584   -71.539918    38369.369 
  352900    301.96675   -1504.2552    525.72318    386.02798    -272.8049    38369.369 
  353000     290.6692   -1508.4736    485.65482    290.68858   -114.35675    38369.369 
  353100    301.38113   -1532.6235    510.16583      339.456    81.479537    38369.369 
  353200    306.01961   -1535.1419    488.72299     336.4555    73.676467    38369.369 
  353300    291.36065   -1550.1903    493.57387    260.01556     861.4125    38369.369 
  353400    301.75337   -1523.1715    508.28298    348.70723    257.45156    38369.369 
  353500    300.88532   -1495.2887    508.42972    372.81407    590.92012    38369.369 
  353600    307.35776   -1493.5003    504.10625    399.52743    560.81289    38369.369 
  353700    297.05793   -1515.1271    504.41681     331.6672    415.93625    38369.369 
  353800    299.23332   -1503.4441    485.86976    334.63358   -219.15631    38369.369 
  353900    303.94398   -1524.3763      504.076    353.19455    114.05626    38369.369 
  354000    295.11028   -1473.6078    504.12798    364.09647     395.9552    38369.369 
  354100    306.59261   -1497.8406    508.45722    396.08043   -9.3664647    38369.369 
  354200    302.95854   -1484.9541    499.85076     383.9384     183.8983    38369.369 
  354300    299.38639   -1483.4271    493.51361    362.98606    440.59306    38369.369 
  354400    305.94951   -1486.9885    487.99217    383.56135   -363.65183    38369.369 
  354500    306.89703   -1464.9132    530.91442    452.84062   -79.951424    38369.369 
  354600    314.82724   -1446.6905    509.73637    485.72118   -185.08479    38369.369 
  354700    301.40405   -1467.9399    512.77488    406.85212    -223.1554    38369.369 
  354800    307.06156    -1479.683    486.36719    394.26716    46.194363    38369.369 
  354900    289.03337   -1478.3174    520.76456     348.5624   -31.729135    38369.369 
  355000    290.37363    -1463.347    511.63268    360.45738   -197.15705    38369.369 
  355100    289.54901   -1473.4904    542.16735    377.12229    175.93383    38369.369 
  355200     295.1725   -1477.7335      502.111    358.23483    523.47408    38369.369 
  355300    302.42007   -1461.9298    523.40728    428.08596    336.30767    38369.369 
  355400    314.58771   -1470.9563    506.32725    456.96387    554.62413    38369.369 
  355500    294.14907   -1462.8912    496.62614    362.96752    420.97763    38369.369 
  355600    296.80302   -1473.5227    535.54795    403.25079    601.51735    38369.369 
  355700    306.51116   -1486.1447     509.2418    408.19286    30.812741    38369.369 
  355800    299.71548     -1487.85    499.50441     366.0411   -243.88895    38369.369 
  355900    305.09288   -1467.6303    523.09462    434.15097    -200.6222    38369.369 
  356000    292.19609   -1467.0641    482.72282    336.06593    -163.9213    38369.369 
  356100    309.25546   -1492.3709    487.77962    392.90571   -202.33424    38369.369 
  356200    303.74749   -1491.2165    489.80952    371.19997   -13.045747    38369.369 
  356300    303.87788   -1461.1432    486.00941    398.06243   -496.90545    38369.369 
  356400    299.46008    -1465.531    524.13545    411.83701   -535.51139    38369.369 
  356500     303.8694   -1471.3478    499.38383    401.19392    -262.3679    38369.369 
  356600    308.96233   -1489.0514    493.86521    400.98619      421.621    38369.369 
  356700    295.77105   -1535.8735     489.9099    290.59862    590.51507    38369.369 
  356800    306.32082   -1540.7629    500.40945    343.88222    138.78546    38369.369 
  356900    294.91593   -1514.7234    526.03931    344.01386   -194.91508    38369.369 
  357000    305.16495   -1514.7441    502.05205    366.32025    308.43711    38369.369 
  357100    307.73371   -1506.0991    500.83159     385.3528    67.701851    38369.369 
  357200    292.96975   -1468.6248    484.36693    339.64549   -373.14556    38369.369 
  357300     305.2118   -1458.9637    545.68772    465.94814   -115.07968    38369.369 
  357400    300.12982    -1485.884    506.13965    376.51476   -540.32101    38369.369 
  357500    294.57425   -1476.6086    503.10057    357.64596   -429.82354    38369.369 
  357600    302.99279    -1402.246    512.35543    479.30596    180.32468    38369.369 
  357700    293.48041    -1501.256     514.1664    339.12138    365.05406    38369.369 
  357800    306.21872   -1499.3246    504.52367    388.97329    231.60977    38369.369 
  357900    303.57919   -1505.9769    527.01577    392.88526   -89.858874    38369.369 
  358000    300.03197   -1502.4401    494.65222    348.02899    451.10973    38369.369 
  358100    294.42418   -1520.5502    519.98787    329.91349   -193.50098    38369.369 
  358200    299.04316   -1488.6631    486.08278    348.76821    -261.1453    38369.369 
  358300     297.2337   -1494.0597    486.58151    335.69361    473.71624    38369.369 
  358400    308.46064   -1517.1769    504.21389    380.94223   -58.126938    38369.369 
  358500    307.90785   -1528.3712    518.87185    381.90793    616.53542    38369.369 
  358600    291.78665   -1495.9385    506.97953    329.59805    94.850484    38369.369 
  358700    297.33495   -1520.8233    517.32242     340.1284    72.420845    38369.369 
  358800    296.90176   -1526.3592    501.03273    316.34529   -258.35238    38369.369 
  358900    311.33166   -1532.0593     489.7566    364.57647    108.71441    38369.369 
  359000    290.01318   -1571.9423    480.75212    219.35269    464.08797    38369.369 
  359100    297.75878   -1508.2467     494.0551    331.35292    77.433788    38369.369 
  359200    302.56286   -1479.2963    501.88129    389.83873    143.10332    38369.369 
  359300    296.45213   -1481.3406    516.08634    374.38568     142.3692    38369.369 
  359400    305.73803   -1509.6028     505.0677    377.06693   -130.42434    38369.369 
  359500    299.21104    -1508.871    522.94572    366.18185    352.66033    38369.369 
  359600    294.72087   -1487.1296    506.85424    351.54109    135.34575    38369.369 
  359700    301.00905   -1535.3597     494.5474    319.41996    671.14224    38369.369 
  359800    304.02286   -1502.9276    511.81951     382.7433    685.01615    38369.369 
  359900    308.08379   -1505.7581    533.85642    420.30063    335.12897    38369.369 
  360000    296.95973   -1507.5406    484.27073    318.66378   -58.814412    38369.369 
  360100    303.32234   -1550.3618    515.78878    336.11278    731.07387    38369.369 
  360200    290.11081    -1558.192    499.95584     252.7479    510.26288    38369.369 
  360300    299.34633   -1538.9779     494.9569    308.69751    663.37689    38369.369 
  360400    291.27857   -1493.5173    504.95311    327.69685   -4.6218762    38369.369 
  360500    289.51724   -1492.4945    507.55622    323.36346   -510.93683    38369.369 
  360600    297.46504   -1535.2921     494.2298    303.15488   -743.29956    38369.369 
  360700    302.34359   -1507.7838    502.54826    361.02732   -661.69967    38369.369 
  360800    299.03248   -1489.6313    507.03806    368.70701    -297.1861    38369.369 
  360900    286.80028   -1536.8933     506.4639     265.5947   -546.62271    38369.369 
  361000    305.53217   -1498.3664    499.75051    382.05589    84.932785    38369.369 
  361100    292.61898   -1522.9419    512.31468    311.69099    29.166581    38369.369 
  361200    305.29518   -1492.9644     509.6854    396.32182    140.63814    38369.369 
  361300    308.75762   -1491.4911    493.01623    396.77242    253.72134    38369.369 
  361400    303.81426   -1521.9863    489.50313    340.42558     441.3487    38369.369 
  361500    298.25182   -1521.4118    515.52187    341.88264   -121.91436    38369.369 
  361600    299.88556   -1535.6931    506.38257    325.84471    27.765057    38369.369 
  361700    297.75673   -1496.4576     490.9946    340.07228   -700.55539    38369.369 
  361800    307.02001   -1481.9212    504.50988    409.98386   -114.79481    38369.369 
  361900    307.41493   -1504.7888    485.57821    369.96919   -108.44986    38369.369 
  362000    306.44692   -1533.7299    501.17847    352.25401   -403.43092    38369.369 
  362100    301.25354   -1515.3692    477.96676    323.93455   -332.58424    38369.369 
  362200    306.46852   -1517.1356    523.74028    391.50775   -446.46372    38369.369 
  362300    302.69149   -1529.5225    512.70717    351.01967   -108.76678    38369.369 
  362400    298.81089   -1544.3558    499.86489    305.80803   -334.29305    38369.369 
  362500    305.93285   -1536.4543    496.14956    342.17765   -419.97605    38369.369 
  362600    293.49522   -1577.1815    495.24022    244.33664    -178.9965    38369.369 
  362700     302.3237   -1547.0358    517.46571    336.60293    292.04695    38369.369 
  362800    298.20558   -1562.7669     475.7718    260.56853    374.12722    38369.369 
  362900     296.9765   -1556.1768     495.1677    281.00038   -175.39671    38369.369 
  363000    298.70967   -1550.7189    486.87355    285.99622    477.71129    38369.369 
  363100    305.13137    -1512.041    520.66768    387.48728    830.10058    38369.369 
  363200    305.07732   -1547.9786    525.09039    355.72812    717.12131    38369.369 
  363300    301.80263   -1572.6436    512.21632    303.39108    705.32959    38369.369 
  363400    305.27265    -1565.358    491.71977    305.86085    908.94506    38369.369 
  363500    294.80924   -1521.3366    500.49174    311.37099    348.67966    38369.369 
  363600    300.44177    -1525.307    513.48725      345.849    223.27394    38369.369 
  363700    303.80896    -1523.686    512.34774    361.54646   -495.44785    38369.369 
  363800    301.29366   -1500.1123    500.17653    361.58259    152.63063    38369.369 
  363900    307.87473   -1517.6442     518.4261    392.03952   -166.55414    38369.369 
  364000    301.10054   -1473.4606    526.13464    413.31969     461.4924    38369.369 
  364100    299.13133   -1530.0299    508.09552    329.81255    266.91328    38369.369 
  364200    303.33412   -1553.0645     526.3562    344.03071    19.512257    38369.369 
  364300    309.61862   -1495.5283    488.67395    392.28366   -421.88769    38369.369 
  364400    308.37824   -1512.9876    507.74523    388.29057    -676.9944    38369.369 
  364500    294.22795   -1514.0133     482.8336    298.40928   -222.85687    38369.369 
  364600    291.95013   -1536.7152    530.33345    312.91403   -304.50472    38369.369 
  364700     303.0287   -1523.7998    496.57642    342.13548   -99.776421    38369.369 
  364800    297.28574   -1559.5604    524.08667    307.93321    113.30638    38369.369 
  364900    302.16701   -1516.8282    503.05862    351.69539   -29.060325    38369.369 
  365000    288.87864   -1495.9177    499.41171    308.91005    232.83567    38369.369 
  365100    299.56552   -1487.5628    509.59221    375.73841    541.05378    38369.369 
  365200    304.51201   -1511.6488    495.12429    359.53724     584.3716    38369.369 
  365300    302.01763   -1523.5499    553.65013    394.89011    781.67156    38369.369 
  365400    301.07051   -1539.6307    480.61574    301.49493    1068.0306    38369.369 
  365500    294.50022   -1534.7267    500.43066    296.52332    774.73155    38369.369 
  365600    294.34419    -1521.985    518.82683    326.95613    364.11777    38369.369 
  365700    301.78138   -1522.2334    501.35679    342.84567    244.60392    38369.369 
  365800    284.66282   -1516.3549    501.98898    271.99922   -40.582221    38369.369 
  365900    308.14167   -1480.6199    501.39291    413.23693   -350.44449    38369.369 
  366000    297.47143   -1507.2571    521.08695    358.07584     174.9475    38369.369 
  366100    295.70792    -1536.206    518.00692    318.07779    1089.1416    38369.369 
  366200    306.70913      -1541.9    503.89794    347.98832    1005.3155    38369.369 
  366300    309.76706   -1551.2977    509.11898     357.6301    917.58505    38369.369 
  366400    301.61047   -1544.1481    508.35551    327.15737    311.70034    38369.369 
  366500    290.97106   -1549.2778    494.25479    259.84841    344.30626    38369.369 
  366600    305.01187   -1540.3737    501.82977    339.77665    170.12083    38369.369 
  366700    294.41364   -1570.8326    484.46498    244.06056   -488.50414    38369.369 
  366800     307.1995   -1597.4605    492.72718    283.47302   -392.08507    38369.369 
  366900    319.42981   -1583.3883    506.56148    366.64709   -356.78931    38369.369 
  367000    302.81281   -1551.1255    509.49152    326.74929   -102.66958    38369.369 
  367100    300.55137   -1527.6164    499.91563    330.46318   -492.46326    38369.369 
  367200    308.15614   -1542.8459    489.45564    339.13906   -260.00538    38369.369 
  367300    293.45094   -1536.6356    518.78136    308.22359     166.8272    38369.369 
  367400    302.63432   -1559.5443    513.21035    321.24275    793.63987    38369.369 
  367500    292.91487   -1552.3417    498.07782    269.39151    429.99475    38369.369 
  367600    299.33377     -1512.11    504.40794    344.95971    571.61382    38369.369 
  367700    309.78999   -1505.8771    503.38873    397.42404    349.38458    38369.369 
  367800    299.04916   -1528.3476     509.1443     332.1723    105.90101    38369.369 
  367900    287.57178   -1526.0706    501.26933    274.70917   -65.949099    38369.369 
  368000    311.42534   -1503.8737    544.27582    447.70459    262.94745    38369.369 
  368100    293.56543   -1541.4617    492.81011    277.94355   -429.71283    38369.369 
  368200    303.72864   -1502.5134    505.16234    375.17072   -224.96903    38369.369 
  368300     301.4402   -1527.5593    492.94529    327.56656    261.20664    38369.369 
  368400    292.65008   -1520.4721     516.4704    318.45712    34.103183    38369.369 
  368500    308.70334   -1532.0722    508.76506    371.69482     337.9694    38369.369 
  368600    300.81105   -1508.7486    494.40449    344.99332    184.52813    38369.369 
  368700     308.4545   -1495.3729    536.26704    434.77168    406.31643    38369.369 
  368800    309.34872   -1540.8778    512.67669    369.71732    556.95449    38369.369 
  368900    297.34568    -1523.172    512.13027    332.63606     356.7139    38369.369 
  369000    302.26948   -1522.6717    510.92341    354.17974    272.16376    38369.369 
  369100    299.39883   -1536.3713    514.11398    330.69846    315.34317    38369.369 
  369200    294.57779   -1479.9568    522.76979    373.98299    315.55476    38369.369 
  369300    290.14657   -1481.2696    511.37116    341.24729    268.04943    38369.369 
  369400    295.67774   -1541.4098    535.21261    329.94329   -427.18568    38369.369 
  369500    294.64635   -1487.3266     499.1674    343.32057   -367.55113    38369.369 
  369600    322.36727   -1501.2915    518.06679    473.52335   -720.69327    38369.369 
  369700    289.94817    -1447.463    499.25064    362.03678    -971.2363    38369.369 
  369800    301.16068   -1517.8345    513.88266    356.96563   -265.08496    38369.369 
  369900    301.26464    -1501.674    525.01647    384.72967    133.23433    38369.369 
  370000    294.60483   -1499.2849    504.82011    336.82733    190.72174    38369.369 
  370100    303.50888   -1484.7735    515.19706    401.95225    256.40264    38369.369 
  370200    298.49103   -1459.5895    535.91991    425.18388    795.95185    38369.369 
  370300    307.10797   -1477.3816    499.18859     409.5996    378.19274    38369.369 
  370400    299.21435   -1520.2266    519.95432    351.84983    272.08535    38369.369 
  370500    298.11579   -1482.0973    489.91851    354.97905    302.93416    38369.369 
  370600     302.4938    -1471.725    511.35144    406.56812   -19.588171    38369.369 
  370700    306.40631   -1541.8616    530.02321    372.78353    259.56477    38369.369 
  370800     289.5876   -1466.3348    521.79856    364.08353   -648.40413    38369.369 
  370900    309.54528   -1474.4255    533.99257    458.37378   -928.57401    38369.369 
  371000    300.65202   -1457.4825    517.42721    418.56352   -1026.7722    38369.369 
  371100    303.75523   -1454.6339    494.39044    412.39853   -462.65324    38369.369 
  371200     309.2115   -1462.2273    525.51298    460.58401    -187.4931    38369.369 
  371300    297.66618   -1486.0352    531.64648    390.73734    247.93273    38369.369 
  371400    309.29896   -1459.0482    510.16265    448.80801    114.62864    38369.369 
  371500    298.35453   -1444.2325    528.63187    432.63602    214.42259    38369.369 
  371600    297.11337   -1473.1627    514.19417    383.65947    299.16206    38369.369 
  371700    297.25949    -1456.978    534.39873    420.70901    466.41683    38369.369 
  371800    309.50453   -1461.0316    491.38727    428.97811    111.09153    38369.369 
  371900    305.66356   -1465.7737    536.49753    451.98936    516.14616    38369.369 
  372000    310.06199   -1462.6379    516.86235    455.36606     78.76676    38369.369 
  372100    291.73892   -1475.6802    521.29723    363.95832   -617.87651    38369.369 
  372200    305.67109   -1484.8058    510.17417    406.66788   -172.78975    38369.369 
  372300    304.14195   -1450.3208    507.44603    431.51471   -376.48856    38369.369 
  372400    299.57679     -1436.56    522.18037    439.38034   -346.33532    38369.369 
  372500    305.33768   -1479.2873      507.921    408.42663   -299.17178    38369.369 
  372600    297.19344   -1461.1785    502.34071    384.15197   -641.33113    38369.369 
  372700     290.4019    -1442.267     505.6922    375.72466   -647.38221    38369.369 
  372800    299.34905   -1445.7546    509.32713    416.30334   -272.61355    38369.369 
  372900      303.509    -1454.271    532.61294    449.87122   -719.38353    38369.369 
  373000    291.51314   -1455.7263    499.75184    361.34664   -494.48006    38369.369 
  373100    303.84097   -1452.6641    488.19468    408.55996   -685.11458    38369.369 
  373200    305.90795      -1461.2    513.71105    434.88092   -373.57103    38369.369 
  373300    298.63859    -1491.647    481.01263    338.88598    375.09074    38369.369 
  373400    301.33702   -1501.7702    518.57365    378.51767    369.40857    38369.369 
  373500    316.65117   -1460.0573     511.0147    481.87498    1109.8099    38369.369 
  373600    300.13569   -1450.7141    530.69558    436.26708    190.75558    38369.369 
  373700    308.32218   -1482.9574    507.04626    417.36844    158.09533    38369.369 
  373800    300.85631    -1506.071    477.35709    330.82813    132.68503    38369.369 
  373900    310.60552   -1469.2425    508.46418    442.81944    972.51994    38369.369 
  374000    312.34839   -1487.2158    502.43832    426.69617    202.63058    38369.369 
  374100    291.40316    -1464.653    504.97283     357.1439    827.53064    38369.369 
  374200    297.36589   -1504.7193    499.15581    338.20559    766.61441    38369.369 
  374300    299.12682   -1492.2946    515.09331     374.5253    529.25102    38369.369 
  374400     290.6197   -1495.3972    474.70571    292.59221    169.10914    38369.369 
  374500    297.37156   -1508.7978    492.66505    327.66193   -94.228202    38369.369 
  374600    302.29692   -1517.8332    532.47696     380.6957   -227.44933    38369.369 
  374700    292.43042   -1490.1847    495.17975    326.46122   -468.33028    38369.369 
  374800    298.52341   -1490.9115    512.23576    370.32411   -365.26058    38369.369 
  374900     304.6951   -1498.5376    510.97067    389.32216   -679.14151    38369.369 
  375000    301.52321   -1449.5446    509.77001    422.78106    -966.2956    38369.369 
  375100    298.61465   -1433.9979    502.66363    418.07782   -1069.4043    38369.369 
  375200    294.39868   -1417.4936    528.52602    441.39301   -1144.3269    38369.369 
  375300    298.39847   -1474.1289    519.17673    393.48306   -693.12248    38369.369 
  375400    324.69634   -1459.8006    491.39765    498.86994   -680.04329    38369.369 
  375500    300.11346   -1417.6434    516.63256    455.17431   -865.19824    38369.369 
  375600     307.9687   -1372.0656    541.62256    561.23923   -742.90253    38369.369 
  375700    286.03039   -1410.2153    525.22448     407.5542   -214.10621    38369.369 
  375800    295.15976    -1432.768    528.91295    429.94473    162.44355    38369.369 
  375900    304.20205   -1425.8349    521.75863    470.58476    7.1883808    38369.369 
  376000    303.31221   -1420.5152     516.7245    466.84923    81.365012    38369.369 
  376100    288.77046    -1460.984    524.13478    368.07792    204.58346    38369.369 
  376200    300.71873   -1459.1215    507.17307     406.9719    671.95275    38369.369 
  376300    303.50421   -1458.8312    497.08864    409.76508   -42.034143    38369.369 
  376400    300.82707   -1406.3512    515.63199    468.69066   -226.98364    38369.369 
  376500    299.87266   -1390.3915    527.62101    492.32651    2.3504435    38369.369 
  376600    305.13407   -1453.5234    490.79068    416.14015    14.566899    38369.369 
  376700    299.68744   -1466.2323     552.6455    440.67322   -231.43535    38369.369 
  376800     301.9825    -1446.592    522.01547    440.05464    113.81066    38369.369 
  376900    302.74225   -1489.8667    492.79392    370.99161    552.54454    38369.369 
  377000    306.25677   -1490.4477    512.28822     405.7867     247.0044    38369.369 
  377100    293.21061    -1496.762    506.29327    334.52301    210.69795    38369.369 
  377200    298.10011   -1498.9992    510.24695    358.33477    514.80521    38369.369 
  377300    296.96028   -1447.5075    504.44354    398.87224     788.7795    38369.369 
  377400    312.14439   -1440.3766    506.37525    476.55041     600.0848    38369.369 
  377500    301.27498   -1474.7541    510.82832    397.50811    882.28226    38369.369 
  377600    300.19911   -1451.1804    506.97676    412.36851    1131.9047    38369.369 
  377700    297.26611    -1475.667    529.58633     397.2376    1039.9482    38369.369 
  377800    296.22434   -1462.3191    501.14041    377.43184    512.17945    38369.369 
  377900    298.67972    -1465.261     510.7554     395.2006    389.34528    38369.369 
  378000    301.55036   -1428.5384    525.76418    459.90412    256.04073    38369.369 
  378100     287.3911   -1468.1758    521.20287    351.72104    72.292202    38369.369 
  378200    304.97418   -1469.3431    468.36049    377.16763    179.30105    38369.369 
  378300    311.45173   -1430.6443    508.06464    484.84203     696.2337    38369.369 
  378400    300.79618   -1477.1663    509.71655    391.82051    268.01319    38369.369 
  378500    298.03185   -1481.4273    515.26235    380.61359    134.04977    38369.369 
  378600    292.63652   -1433.9738     509.0701    397.49387   -158.73863    38369.369 
  378700    294.50405   -1466.4011    471.40803    335.84363    643.17522    38369.369 
  378800    302.20967   -1488.2101    500.22304    377.67068    593.22703    38369.369 
  378900    299.54045   -1492.4776    485.18957    346.30769    391.41709    38369.369 
  379000    283.46862   -1514.9687    510.82226    276.82224   -302.49658    38369.369 
  379100    306.74514   -1449.0626    510.00198    447.09246    -363.9523    38369.369 
  379200     300.4043   -1436.5086    475.74731    396.73815   -116.63549    38369.369 
  379300    300.72562   -1443.7173    535.38667    450.62077   -607.63934    38369.369 
  379400    303.85284   -1476.1123    512.11074    409.08153   -625.57675    38369.369 
  379500    309.50852   -1428.1977    484.05384    454.49663   -715.66044    38369.369 
  379600    304.62539   -1443.0783    536.45276    469.94857   -576.26976    38369.369 
  379700    305.49278   -1451.4907    503.31837     432.3214   -354.90701    38369.369 
  379800    306.59656    -1505.794    496.19287    375.88054   -269.94461    38369.369 
  379900    279.03313   -1464.2432    500.44318    297.12505    -350.2396    38369.369 
  380000    287.11589   -1466.0342    501.70335    333.11944    -319.5767    38369.369 
  380100    288.85147    -1492.884    511.04969    323.45891   -141.00671    38369.369 
  380200    302.50359   -1522.7694    504.58802    348.80454    109.33824    38369.369 
  380300    299.35553   -1523.0773    481.36556    311.04835   -174.25505    38369.369 
  380400    306.84607   -1533.6056    515.39349    368.39709   -45.569368    38369.369 
  380500    297.44446   -1494.3067    503.27596    353.09337   -113.28496    38369.369 
  380600     293.2202   -1458.8328    515.47259    381.67488  -0.80234496    38369.369 
  380700    315.93749   -1503.7482    500.11625    424.06045     254.8709    38369.369 
  380800      303.527   -1519.3787    514.36558    366.59752    125.86549    38369.369 
  380900    297.67345   -1510.6482    510.30059    344.81134    248.76172    38369.369 
  381000    300.07832    -1474.212    520.91589    402.73027    251.91647    38369.369 
  381100    292.24668   -1472.9536    524.31872    372.00096   -111.86677    38369.369 
  381200    294.17614    -1538.681    491.02346     281.6974    407.36166    38369.369 
  381300    299.24115   -1520.1441    491.25869    323.35779    108.72395    38369.369 
  381400    305.83582   -1503.7664    493.89262    372.17015   -584.14648    38369.369 
  381500    298.81107   -1486.0004    491.43988    355.73925   -340.46004    38369.369 
  381600    290.31708   -1486.0473    488.73342    314.60227   -574.42034    38369.369 
  381700    301.46904   -1515.1891    483.19719    330.31898     -801.633    38369.369 
  381800    305.50366    -1458.362    504.31857    426.49947    76.247225    38369.369 
  381900    281.92562   -1495.1556    539.79044    318.63079    49.011552    38369.369 
  382000    300.63206   -1489.6481    497.20806    366.08857    723.92512    38369.369 
  382100    306.54443   -1461.6401    527.22321    450.82915     964.1918    38369.369 
  382200      312.718   -1472.8305    526.07529    466.38865    864.77502    38369.369 
  382300    289.33569   -1507.3998    528.79766     328.8792    932.55506    38369.369 
  382400    302.27091   -1492.4212      470.123    343.63623    207.30253    38369.369 
  382500    296.66728    -1484.368    503.70082    359.94499    424.44491    38369.369 
  382600    300.25019    -1480.915    530.69927    406.58729   -29.462325    38369.369 
  382700    299.10063   -1475.7421    487.92051    363.78665    250.57642    38369.369 
  382800    295.45482   -1424.0569    509.68852    420.76477   -147.84869    38369.369 
  382900    286.52372   -1497.5716     476.6192    273.82196   -16.786321    38369.369 
  383000    299.73649   -1447.6804    537.03575    443.83697    100.28933    38369.369 
  383100    294.25417   -1452.4043    497.17113    374.47435   -431.16676    38369.369 
  383200    298.05431    -1486.199    511.81746    372.49847   -374.82847    38369.369 
  383300    302.02768   -1475.0945    544.65752    434.39834    -529.1035    38369.369 
  383400    294.70239   -1443.4175    525.97085    414.28634   -781.93162    38369.369 
  383500    294.90619   -1450.6468    505.11438     387.1215   -355.35723    38369.369 
  383600    300.63845   -1467.8424    506.14144    396.85655   -4.1167339    38369.369 
  383700    313.88476   -1410.9409    500.75805    508.23346    350.36348    38369.369 
  383800    301.02626   -1468.8123    522.81032    414.30803   -59.909474    38369.369 
  383900    293.47166   -1464.6722    503.66843    365.16767    45.733832    38369.369 
  384000    310.72923   -1464.5028    527.64867     467.3027    124.43074    38369.369 
  384100    317.76872   -1440.6344    500.21181    495.54501    120.29548    38369.369 
  384200    286.73341   -1456.9208    521.58174    360.38286   -637.64666    38369.369 
  384300    306.99716   -1499.4646    492.46113    380.28847   -637.92156    38369.369 
  384400     294.5529   -1534.1418    470.99422    267.90992   -227.45929    38369.369 
  384500    307.24007   -1513.2156     488.7794    363.95343    -270.9304    38369.369 
  384600    315.16265   -1480.1094    474.32676    418.40841   -78.857881    38369.369 
  384700    292.99187    -1450.935    518.71817    391.78645    335.19163    38369.369 
  384800    295.02743   -1464.2937    507.38533    376.29348    404.45008    38369.369 
  384900    299.80766   -1490.8499    491.26302    355.21635    245.98005    38369.369 
  385000    285.80182   -1533.0662    494.11838    252.56429   -445.43524    38369.369 
  385100    308.04589   -1510.0573    503.64797     385.6217   -194.40964    38369.369 
  385200    302.78337   -1516.3155    492.59238    344.52706   -215.26894    38369.369 
  385300    306.45894   -1444.6806    511.36423    451.54337   -123.10511    38369.369 
  385400    295.31055   -1470.1604    491.73689    356.05767   -137.59541    38369.369 
  385500    294.23829    -1456.439    519.28461    392.48137    79.116056    38369.369 
  385600     305.6006   -1458.2774    533.54623     456.2499   -247.61727    38369.369 
  385700    298.17012   -1485.5437    532.14531    394.00496   -77.879135    38369.369 
  385800    298.77195   -1460.0429    483.23816    373.31825   -505.49682    38369.369 
  385900    306.60273   -1439.2342    542.09439    488.36968   -556.67482    38369.369 
  386000    302.91311   -1460.0534    481.05681    389.83988   -565.76435    38369.369 
  386100    305.65484   -1450.2473    511.52353    442.50233    153.03601    38369.369 
  386200    289.70782   -1445.1338    485.99626    350.02544     -527.571    38369.369 
  386300    300.38698   -1460.2638    512.36579    409.52308   -226.37659    38369.369 
  386400    293.84208   -1435.2827    534.52667     427.0893   -361.86835    38369.369 
  386500    302.97729   -1428.0594    506.56611     447.6333    -198.6103    38369.369 
  386600    296.50536   -1459.5862    515.64444    395.93866    54.940238    38369.369 
  386700    305.16703   -1418.7597    527.24122     487.5033     795.2314    38369.369 
  386800     305.7028   -1424.1204    497.42904    454.75152      356.417    38369.369 
  386900    301.70453   -1395.5865    547.04649    514.83501   -282.79125    38369.369 
  387000      304.007   -1391.1923    501.11528    483.70265    -184.6062    38369.369 
  387100    301.48137   -1430.2776    512.42143    444.51047   -288.90819    38369.369 
  387200    308.54007   -1419.3148    537.07373    512.02313    373.62473    38369.369 
  387300    306.21474   -1403.2953    556.51903    536.97997    61.509093    38369.369 
  387400    307.99705   -1432.9898    504.70363    463.52415    35.370362    38369.369 
  387500    308.18849   -1400.6012    526.36101    518.43521   -107.51108    38369.369 
  387600    299.02845   -1389.7908    521.96227    483.45351   -381.82279    38369.369 
  387700    295.14385   -1380.1084    522.03974    475.65931   -389.11574    38369.369 
  387800    295.79876   -1414.1943    477.67315    400.16623    109.84863    38369.369 
  387900    303.30122   -1420.5035    540.80236    490.88925   -119.74639    38369.369 
  388000    293.42848   -1420.7452    502.39233    407.62347   -613.42869    38369.369 
  388100    293.15472   -1468.8546    511.54515    367.42979    -616.0586    38369.369 
  388200    300.51715   -1481.7405    518.11055     394.3794   -329.02676    38369.369 
  388300    308.26027   -1460.7697    486.39515    418.62528   -283.41718    38369.369 
  388400    305.91823   -1483.6217    505.53195    404.32656   -513.32728    38369.369 
  388500    307.60644   -1479.0333    499.29836    410.31032    240.45857    38369.369 
  388600    296.90624   -1420.7983     508.6031    429.49676   -90.702555    38369.369 
  388700    310.28141   -1439.3785    477.37222    440.12693   -279.48168    38369.369 
  388800    306.05617   -1462.5179    482.57995     403.1017   -247.86193    38369.369 
  388900    307.67882   -1441.7741    516.89044    465.48863    356.49588    38369.369 
  389000    290.46497   -1484.4892    511.04143    339.13674    47.650005    38369.369 
  389100    287.65638   -1452.9393    515.72964    362.68306    36.332267    38369.369 
  389200    290.40527   -1500.8927    520.50613    331.92816   -395.27112    38369.369 
  389300    300.82141   -1462.3864    490.77565    387.77348    -322.3649    38369.369 
  389400    294.52954   -1491.4404    497.66553    337.17699    68.838871    38369.369 
  389500    295.76941   -1504.6853    503.30512    335.17459   -401.05359    38369.369 
  389600    306.84965   -1495.1323    507.29214    398.78521    363.88289    38369.369 
  389700    302.46846   -1501.1953    510.22827    375.86013   -754.08964    38369.369 
  389800      292.235   -1471.1817     510.7449    360.14635   -579.72989    38369.369 
  389900    292.37547   -1485.2157    519.06267    355.06478    -457.5321    38369.369 
  390000    299.39627   -1484.9228    502.80272    370.82414   -394.16777    38369.369 
  390100    303.55754   -1516.1754    512.77535    368.34853   -173.67755    38369.369 
  390200    299.56643   -1444.0414    519.43411    429.10584   -197.15816    38369.369 
  390300    305.58394   -1488.9908    542.62415    434.53911   -695.42606    38369.369 
  390400    298.14198   -1462.0165     494.6135    379.87322    261.41986    38369.369 
  390500    289.61243    -1473.142    520.65691     356.2468   -132.51691    38369.369 
  390600    311.90072   -1481.6349    522.38251     450.1983    413.22931    38369.369 
  390700    306.93057   -1456.7728    529.67664    459.89486    711.19548    38369.369 
  390800    310.52498   -1475.6025    502.01511    429.64644   -325.03363    38369.369 
  390900    309.68769   -1454.2079    521.39789    466.64022    497.66908    38369.369 
  391000    291.29338   -1445.0591    502.04754    373.31645   -180.96151    38369.369 
  391100    302.01274   -1481.2953     505.8588    389.33132    63.979866    38369.369 
  391200    298.86177   -1447.7038    509.33906    412.16408    37.936377    38369.369 
  391300    300.94017   -1450.4972     500.2169    409.64071   -116.13919    38369.369 
  391400    302.88187    -1453.949    499.32107    414.06738   -382.66672    38369.369 
  391500    299.45107    -1460.167    511.71291    404.73778   -755.08218    38369.369 
  391600    292.69273   -1491.9514    493.92489    324.62497   -623.73492    38369.369 
  391700    289.33153   -1472.5744      513.313    348.20116   -952.11541    38369.369 
  391800    290.55122   -1489.7223    495.70733    318.95931   -426.25229    38369.369 
  391900    301.93285    -1508.607    497.02034     352.8201    84.816706    38369.369 
  392000     293.5296   -1513.3353    483.17339    296.27139   -89.527883    38369.369 
  392100    301.64637   -1453.2758     513.8284    423.66479    1007.5407    38369.369 
  392200    309.90931   -1469.7742    492.75117    423.42862    553.43141    38369.369 
  392300    296.67617   -1484.4758    522.24215     378.4187    386.26632    38369.369 
  392400    285.16108    -1503.298    492.66393    277.98261    209.16522    38369.369 
  392500    289.49662   -1472.1409    498.24997    334.31767    193.76609    38369.369 
  392600    306.55045   -1473.4973    515.47347    427.24945     538.5687    38369.369 
  392700    303.91788    -1492.773    500.97567    381.57964   -147.62741    38369.369 
  392800    297.13572   -1473.5118    537.25437     406.4716   -532.01495    38369.369 
  392900    293.59068   -1500.0628    500.36854    327.01503    192.46441    38369.369 
  393000    296.17389   -1552.1098    510.13557     296.4083    116.46152    38369.369 
  393100    299.32646   -1490.8304     510.0249    371.82322    142.58338    38369.369 
  393200    303.15032   -1529.4663    503.22138    343.66353    307.59587    38369.369 
  393300    297.01931   -1527.9797    496.36327    310.58656   -127.98666    38369.369 
  393400    305.86671   -1505.7452    502.10543    378.54381   -297.21364    38369.369 
  393500    297.50892   -1476.4394     496.7861    364.76218   -327.87337    38369.369 
  393600    306.25876   -1509.6764    494.19733    368.47606   -207.83764    38369.369 
  393700    296.95526   -1496.8907    495.26061    340.28338   -115.33142    38369.369 
  393800    304.76038   -1494.1182    505.88192    388.94787   -90.524034    38369.369 
  393900     305.1002   -1497.0304    480.09278    361.78208   -115.13137    38369.369 
  394000    303.74453   -1495.2421    500.04934    377.40088   -258.74816    38369.369 
  394100    299.53409   -1524.5446    504.26697    333.28933   -861.34501    38369.369 
  394200     301.3227   -1489.9465    501.00693    372.71003   -644.24208    38369.369 
  394300    306.94284   -1492.9036    491.58819    385.73112   -639.54639    38369.369 
  394400    298.54787     -1487.37    491.79845    353.53888   -355.01169    38369.369 
  394500    308.86433   -1497.6298    488.92382     387.0235   -1175.0774    38369.369 
  394600    306.78334   -1534.6914    489.94485    341.57915   -1571.5445    38369.369 
  394700    294.82313   -1514.6346    479.96528    297.60933    -381.4288    38369.369 
  394800    299.10813   -1514.9592    482.25232    318.93529   -365.95687    38369.369 
  394900    306.18143   -1507.7154    494.62214    370.51244   -158.56022    38369.369 
  395000    301.76946   -1500.9038    499.65802    362.42261   -263.37687    38369.369 
  395100    300.20722   -1486.3996    517.06023    387.26939     186.4884    38369.369 
  395200     300.6757    -1514.351    480.49318    324.86803    231.41764    38369.369 
  395300    299.41106   -1485.1812    484.21828    352.04817     313.4773    38369.369 
  395400    300.69184   -1512.6435    515.24598    361.40123    163.70478    38369.369 
  395500    292.44899   -1511.1683    499.90758    310.28938   -391.87879    38369.369 
  395600    296.81968   -1469.6346    500.82086     372.4871   -96.200282    38369.369 
  395700    302.32554   -1478.2866    506.55322    394.44789   -388.98459    38369.369 
  395800    297.07868   -1543.6594    517.11801    315.92983   -501.86341    38369.369 
  395900    307.86538   -1532.4691    469.75507    328.50134    300.43683    38369.369 
  396000     295.8279    -1532.317    503.19278    307.69489    578.19474    38369.369 
  396100    299.38864   -1519.3153     502.0262    335.62065    424.55292    38369.369 
  396200    312.78268    -1495.114    504.77205    423.09425    376.10059    38369.369 
  396300    294.14229    -1487.167    474.49627    316.53117    550.19429    38369.369 
  396400    309.47789   -1533.0984    497.01401    362.41775   -45.580356    38369.369 
  396500    297.51099    -1510.113    476.53153    310.84335    -64.30192    38369.369 
  396600    298.82369   -1513.7585    514.21677    350.81503   -524.22906    38369.369 
  396700    294.70174   -1479.2999    497.14728    349.57746   -723.24742    38369.369 
  396800    301.00739    -1509.811    475.06561    325.47936   -84.922288    38369.369 
  396900    304.94437   -1488.2077    499.33143    389.13928    -594.3848    38369.369 
  397000    302.82127   -1480.8613    503.93243    391.49257   -582.52864    38369.369 
  397100    293.13525   -1474.2964    495.62196    345.97675    -397.5985    38369.369 
  397200    291.43157   -1488.5774    494.09245    322.46751    74.559963    38369.369 
  397300    303.69874   -1485.5297    486.13938    372.99636    325.54061    38369.369 
  397400     307.4814   -1461.8643    497.39234    425.00825    692.58859    38369.369 
  397500    301.25209   -1467.7159    496.47255    390.08718    497.77058    38369.369 
  397600    295.56449   -1451.6903     503.4095    387.34797    442.25943    38369.369 
  397700    295.99792   -1496.1531    502.26655    343.70079    293.13816    38369.369 
  397800    293.17883   -1480.8366    489.63516     333.6467    602.51787    38369.369 
  397900    299.99381   -1500.9281    498.17401    352.89032    811.69025    38369.369 
  398000    294.22484   -1509.7956    511.28512    331.06451     557.1139    38369.369 
  398100     305.0921   -1500.8782    492.67213    370.47709    802.16804    38369.369 
  398200    306.42314   -1470.2726    493.22917     407.6546    1178.9935    38369.369 
  398300    282.01653   -1537.1361     488.2921    225.56273    386.45482    38369.369 
  398400    291.17956   -1507.6127    499.68171    307.88262    633.89093    38369.369 
  398500    312.47626   -1490.8551    503.71031    424.90665    51.450475    38369.369 
  398600    301.34654   -1497.4453    516.79001    381.10202    1158.8973    38369.369 
  398700    308.13913   -1492.2291    494.11572    394.33897    888.97523    38369.369 
  398800    306.92912    -1503.627    528.21289    411.57032    1528.1634    38369.369 
  398900    294.95592   -1444.6931    493.84989    382.03548    1359.4195    38369.369 
  399000    296.77772   -1512.1472    511.84276    340.80677    286.17138    38369.369 
  399100    304.25352   -1525.2633    509.46423    359.09458    158.60381    38369.369 
  399200    297.39236   -1488.4686    490.40817    345.82823    427.84065    38369.369 
  399300    314.02658   -1470.7079    515.69019    464.03953    145.15023    38369.369 
  399400     290.4976   -1443.7869    518.78089    387.72597   -51.865867    38369.369 
  399500    310.74301   -1432.1711    496.27502      468.323   -174.44542    38369.369 
  399600    297.84061   -1483.8697    504.46625    366.51091    210.06359    38369.369 
  399700    285.79354   -1479.2479      503.095    315.32181    483.02751    38369.369 
  399800    302.73187   -1467.9689    514.60217    414.65082   -223.93133    38369.369 
  399900    303.70377   -1449.7956    498.21864     420.8325    -297.6284    38369.369 
  400000    304.08651    -1485.673     477.7692    366.23518   -412.28058    38369.369 
  400100    305.76649   -1463.5814    491.25756    409.40676   -243.44334    38369.369 
  400200    298.65337   -1472.9233    489.46408    366.12785   -46.261746    38369.369 
  400300    309.47997   -1481.8709    486.08643    402.72703    176.02651    38369.369 
  400400    311.10871   -1494.4965    478.80907     390.1842    179.91277    38369.369 
  400500    306.90196   -1435.0602    493.17018    444.97171    692.70838    38369.369 
  400600    309.36864   -1471.3424    516.95194    443.61796    696.44252    38369.369 
  400700    292.50324   -1457.9921    523.95734    387.76045     914.7851    38369.369 
  400800    302.30266   -1474.9753    489.36875    380.47136    732.20433    38369.369 
  400900     299.9926   -1483.6945    490.07302    362.01749    507.76522    38369.369 
  401000    307.62875   -1405.6494    515.95285     500.4495    414.13605    38369.369 
  401100    296.62238   -1463.1271    478.51672    355.79884    484.52642    38369.369 
  401200    289.87774   -1452.3609    529.47177    387.04168     83.34661    38369.369 
  401300    300.60789    -1450.431     481.1244     389.1128    146.31893    38369.369 
  401400    299.64279   -1450.0248    497.79215    401.82559    -3.773861    38369.369 
  401500    294.78539   -1425.8935    532.50564    438.72027     54.25266    38369.369 
  401600     303.3895   -1441.9557     491.6046    420.63815    178.57965    38369.369 
  401700    297.08476   -1454.0835    506.63067    395.04592   -56.329272    38369.369 
  401800    295.98345   -1456.5401     492.3378    373.31975    351.91283    38369.369 
  401900    293.39608   -1458.4656    512.08206    379.44635    724.92456    38369.369 
  402000     288.4875   -1507.5662    507.96165    304.04394    423.24201    38369.369 
  402100    301.64614   -1464.9306    487.18162    385.36213    521.72566    38369.369 
  402200    282.73453   -1501.7486    497.87209    273.77486   -154.17167    38369.369 
  402300    308.94267   -1488.9535    526.06403    433.19401   -794.96278    38369.369 
  402400    303.29459   -1512.5892    521.12768    379.09882   -203.07774    38369.369 
  402500    298.67968    -1498.957    499.17839    349.92743   -188.60696    38369.369 
  402600    301.49558   -1446.8448    507.83221    423.41815    204.23984    38369.369 
  402700    298.32806   -1428.2535    502.45867     422.3223  -0.66198287    38369.369 
  402800    295.16204   -1411.3202    510.13242    432.62234   -53.675088    38369.369 
  402900    292.81035   -1409.8552    511.07194    424.39974   -225.30793    38369.369 
  403000    294.06126    -1368.174    499.61626    460.27808   -707.65525    38369.369 
  403100    298.73054   -1411.5195    504.11634    442.53263   -779.03224    38369.369 
  403200    296.46193   -1450.5915    507.58369    396.67634   -487.39375    38369.369 
  403300    305.25557   -1464.8143    483.30325    397.91077   -139.22704    38369.369 
  403400    297.58712   -1475.1424    503.71376    373.34022   -133.55587    38369.369 
  403500    296.79873   -1456.5756    504.53247      389.163    251.13283    38369.369 
  403600    298.99275    -1422.058    511.13187     440.1946    66.350242    38369.369 
  403700    291.91441   -1464.0375    516.25233    371.34923    47.330691    38369.369 
  403800    300.23302    -1460.868    501.84967    397.70705   -3.6965129    38369.369 
  403900    290.92634   -1460.4884    486.49687    340.67781    81.134852    38369.369 
  404000    299.66655   -1455.5759    534.04636    432.63608   -168.58719    38369.369 
  404100    292.78393   -1460.7445    505.63403    367.95316    106.29501    38369.369 
  404200    296.98384   -1446.0365    536.46224    432.46841    372.59511    38369.369 
  404300    306.37147   -1464.3653    505.83733    425.93658   -290.12231    38369.369 
  404400    312.11728   -1485.9048    466.73596     391.2604   -737.59138    38369.369 
  404500    302.85456   -1459.1844    487.95536    397.34283   -941.67622    38369.369 
  404600     299.8096   -1432.1348    490.43147    413.10864   -422.88268    38369.369 
  404700    288.35752   -1411.8126    516.17869    407.42724    299.74505    38369.369 
  404800    301.08567   -1441.0181    490.07612     409.6365    265.61207    38369.369 
  404900      306.133   -1438.6045    493.48643    438.26881    364.03664    38369.369 
  405000    287.39354   -1449.2697    505.39412    354.82938   -96.865202    38369.369 
  405100    310.17629     -1410.19    506.20949    497.67765    473.79813    38369.369 
  405200    307.60708   -1456.1807    512.00013    445.86752     294.0188    38369.369 
  405300    284.67201   -1452.0261     508.8319    343.21245    805.05924    38369.369 
  405400    298.98492   -1485.3024    504.40166    370.18461    446.21998    38369.369 
  405500    297.33449   -1506.6588    484.57901    321.54748    77.200526    38369.369 
  405600    300.09622   -1494.2202      489.483    351.36999   -256.40854    38369.369 
  405700    307.97403   -1499.1287    508.83832    401.41593   -20.410635    38369.369 
  405800    287.70304   -1462.1905    478.90692    316.82004    306.08743    38369.369 
  405900    304.62067   -1452.7556     509.3109    433.10812    428.22067    38369.369 
  406000    308.07205    -1460.075    508.38578    440.46005    113.67608    38369.369 
  406100    291.33593   -1473.7634    495.42994     338.1868    508.33586    38369.369 
  406200     295.8182   -1482.4865    508.52037    362.80911    175.44538    38369.369 
  406300    298.82719   -1471.1802    482.12257    361.31494    705.94862    38369.369 
  406400    297.47215   -1471.3557    505.51842    378.41205    519.81069    38369.369 
  406500    305.68969   -1470.6292    499.24917    410.00353    1224.7256    38369.369 
  406600    303.69299   -1499.4198    509.95295    382.89384    451.14455    38369.369 
  406700    286.47064   -1486.5358    497.08319    305.08188    384.84669    38369.369 
  406800    298.55834   -1483.6795    502.38907    367.86721    759.06352    38369.369 
  406900    302.42026   -1492.0451    484.06955    358.63383    254.99962    38369.369 
  407000    296.10654   -1464.4789    488.57904    362.17843    812.73126    38369.369 
  407100    307.39759   -1485.4711    500.10487    403.73526    455.64338    38369.369 
  407200    304.38463   -1460.0774    475.87348    391.28218    503.77389    38369.369 
  407300     299.3739    -1479.553    497.42794    370.71803   -187.76065    38369.369 
  407400    292.79589   -1498.2009    504.50607    329.42288   -511.51646    38369.369 
  407500     305.4674   -1508.7123    495.82043    367.48723    85.584227    38369.369 
  407600    312.26414   -1525.2054    493.96879    379.85626    20.550748    38369.369 
  407700    293.14419    -1500.085    471.33499    295.94159    135.53764    38369.369 
  407800    300.17654   -1465.3682    516.89226    407.99425   -201.18518    38369.369 
  407900    295.37798   -1451.0308    486.20024     369.9554    390.51367    38369.369 
  408000    308.58849   -1474.7394    529.14437    448.88796    44.482897    38369.369 
  408100    295.05469   -1463.9359    515.54676    384.93591    609.69113    38369.369 
  408200    298.70644   -1498.5635    493.56933    344.83278    246.89155    38369.369 
  408300    293.02022     -1490.75    488.16759    321.54898    142.63646    38369.369 
  408400    310.59671    -1523.637    489.53397    369.45494   -35.272655    38369.369 
  408500    291.32667   -1502.5874    475.93884    289.82982    72.519051    38369.369 
  408600    296.91424   -1502.2232    492.70565    332.21055    -54.94496    38369.369 
  408700    302.08856   -1530.6833    471.57519    306.00231     -520.372    38369.369 
  408800    300.56965   -1517.0971    492.68265    333.83213   -746.36063    38369.369 
  408900    290.03192   -1524.9753    467.62674    253.27897   -345.86413    38369.369 
  409000    302.33074   -1527.1879    484.81888    323.83574   -609.27588    38369.369 
  409100    295.91083   -1478.3717      480.543    339.36514   -166.60983    38369.369 
  409200    301.63029   -1519.0561    483.10215    327.08559   -179.88731    38369.369 
  409300    298.28136   -1514.5584    500.96746    334.31512    181.08497    38369.369 
  409400    305.80935   -1468.9997     518.3658    431.29039    252.64457    38369.369 
  409500    303.58786   -1495.1253    499.04787    375.80822    178.53188    38369.369 
  409600    306.70863   -1494.2173    481.65688    373.42772    180.65572    38369.369 
  409700    302.23113   -1485.3272    501.47734     381.9048    292.18907    38369.369 
  409800    294.74659   -1476.5152    494.87272    350.29022   -505.19117    38369.369 
  409900    297.97585   -1465.5334    484.41288     365.4049   -282.45103    38369.369 
  410000    309.81934    -1479.207    492.02697    412.86509    -422.8529    38369.369 
  410100    297.96747   -1472.5607    500.84396    374.77083   -191.29912    38369.369 
  410200    290.80168   -1474.8459    504.11855    343.37875     583.6401    38369.369 
  410300    303.08825   -1480.6232    494.54062    383.54534    999.56507    38369.369 
  410400    298.14012   -1532.7937    501.76651    316.24056     798.7942    38369.369 
  410500    305.05159   -1491.2078    487.58962    374.88188    684.80938    38369.369 
  410600     292.7684   -1507.5916    456.37153    271.77343    582.43334    38369.369 
  410700    302.36319   -1529.5846     499.1141    335.88092    482.97424    38369.369 
  410800    306.90488   -1517.4274     493.6067    363.05422    1041.2472    38369.369 
  410900    313.59508   -1470.0691    516.94753    463.98574    908.75332    38369.369 
  411000    300.70228   -1528.6169     484.8913    315.12038   -53.586836    38369.369 
  411100    306.70272   -1545.9893    494.92025    334.89236   -86.192397    38369.369 
  411200    316.80771   -1489.7536    483.40196    425.27321    159.61428    38369.369 
  411300     307.9594   -1480.6219    476.09707    387.11538   -17.330121    38369.369 
  411400    304.71049   -1480.5068    494.55624     391.0081   -107.84888    38369.369 
  411500    299.38262   -1519.2124    495.56963     329.2397    -251.3695    38369.369 
  411600    306.99904   -1506.1376    471.21291    352.37568   -206.04311    38369.369 
  411700    309.20272   -1485.7301    470.08262    381.61124   -412.59747    38369.369 
  411800    285.17851   -1496.6732    492.39176    284.41404    138.33942    38369.369 
  411900    295.97727   -1517.4269    472.89984    292.96701    345.02762    38369.369 
  412000    293.77478   -1475.8912    516.20991    367.85987    510.30677    38369.369 
  412100    300.73423   -1516.9627    501.72815    343.75574    565.32957    38369.369 
  412200    299.44791   -1509.7569    497.97782    341.39848    902.59544    38369.369 
  412300    286.05115   -1498.9424    512.52451    306.22093    646.45103    38369.369 
  412400    301.40875    -1522.042    464.13994     304.1364    321.01548    38369.369 
  412500    296.05672   -1497.6468    515.45596    355.66224    123.19665    38369.369 
  412600    306.12184    -1488.735     490.8925    385.49395    272.92904    38369.369 
  412700     304.5283     -1479.76    498.59305    394.96842    350.55379    38369.369 
  412800    299.63408   -1502.5097    495.03556    346.54476    493.24065    38369.369 
  412900    297.12034    -1462.699    504.33185    384.29238    108.92684    38369.369 
  413000    293.88098   -1469.1757    501.45462        360.3    2.6297941    38369.369 
  413100    303.77095   -1483.6101    489.36722    378.47015   -313.66391    38369.369 
  413200    299.74402   -1488.6429    494.91865    360.79137    71.924618    38369.369 
  413300    301.37664   -1528.1994    491.02555    324.71952    524.31927    38369.369 
  413400    290.10025   -1489.0747    506.83777    328.69941   -128.00297    38369.369 
  413500    291.96539   -1528.6594    501.19789    291.90324   -174.56662    38369.369 
  413600     314.2899   -1503.0479    502.32565    419.52496    439.69761    38369.369 
  413700    291.06516   -1558.9873     481.5661    237.87552    263.97325    38369.369 
  413800     300.2474   -1565.5429    481.92191    273.16943    479.80446    38369.369 
  413900    301.11277   -1528.0177     512.5558    345.23903    209.57493    38369.369 
  414000    306.24443   -1557.9363    454.74512    280.69927    56.812848    38369.369 
  414100    305.19678   -1569.3769    480.69007    290.46938    339.90591    38369.369 
  414200    299.22293   -1539.4819    505.25468    317.93373    120.28395    38369.369 
  414300    310.57608   -1530.7925    491.75348    364.42574   -220.96476    38369.369 
  414400    296.21687   -1511.1261    485.13694     312.5876   -70.739499    38369.369 
  414500     296.8965   -1470.8847    508.16659     378.9299   -27.786007    38369.369 
  414600    304.95771   -1483.8241    480.81445    375.06622   -707.95422    38369.369 
  414700    297.35427   -1496.6094    492.44487    339.55207   -399.81538    38369.369 
  414800    301.14554   -1478.6804    495.10609    377.27475    121.71686    38369.369 
  414900    294.65721   -1484.4529    500.33985    347.41578    241.55637    38369.369 
  415000    306.71789   -1498.8534    508.40997    395.58655    88.746428    38369.369 
  415100    298.75482   -1492.8978    483.77085    340.91855    385.12219    38369.369 
  415200    301.47892   -1456.9959    502.08694    407.44656     478.7532    38369.369 
  415300    298.27637    -1471.391    479.43906    355.93161    313.86889    38369.369 
  415400    303.80179   -1473.1615    501.54483    401.23574   -20.095102    38369.369 
  415500    291.76222   -1497.8151     504.4247    325.05624    229.49687    38369.369 
  415600     308.3849   -1480.3667    507.01711    420.21339    454.07479    38369.369 
  415700     313.2557   -1507.6405     512.4441    420.37728    366.81838    38369.369 
  415800    306.11125    -1508.459    497.02598    371.85558     590.4559    38369.369 
  415900    291.28661   -1471.6574    521.47514    366.11512    180.62002    38369.369 
  416000     294.3655   -1488.9085    498.80348    340.10562     1057.643    38369.369 
  416100    307.44048   -1459.1626     505.5805    435.71322    692.16895    38369.369 
  416200    292.89221   -1438.0472    488.24059    373.74638     536.1992    38369.369 
  416300    293.56863   -1442.3001    513.66256    397.97209   -8.2663278    38369.369 
  416400    301.03236   -1464.1304    525.31211    421.51925    261.03191    38369.369 
  416500    298.42122   -1493.1503    513.49628    368.88401   -266.49937    38369.369 
  416600    292.86027    -1467.284    523.66913    379.79382   -408.33683    38369.369 
  416700    295.63698   -1465.0551    526.62075      397.522   -416.19096    38369.369 
  416800    305.65317   -1422.0288    512.55221    471.74201    452.14035    38369.369 
  416900    299.46432   -1471.0797     512.2579    394.42993   -193.54877    38369.369 
  417000    291.35063   -1460.0123    506.81638    363.39079   -257.36229    38369.369 
  417100      308.356   -1459.0982    497.97131    432.30546   -341.00582    38369.369 
  417200    308.19202    -1477.225    474.46889    389.93526    381.26476    38369.369 
  417300    309.51514   -1479.9842    512.80759    431.49386    995.26229    38369.369 
  417400    307.05844   -1475.6148    494.87349    406.82752    856.03598    38369.369 
  417500    300.42689   -1490.0498    503.15705    370.70879    387.62051    38369.369 
  417600    296.90623   -1478.3486    506.70485    370.04819   -230.14604    38369.369 
  417700     303.1371   -1469.1231    521.76614     422.4917    515.13484    38369.369 
  417800     290.6362   -1483.4648    495.84028    325.73371    145.22311    38369.369 
  417900    302.13509   -1441.2575    486.26475    410.32794    326.85735    38369.369 
  418000    298.97913   -1431.4356    536.35512    455.97869    218.74874    38369.369 
  418100    295.80794   -1449.6632    495.54243    382.60806   -104.23891    38369.369 
  418200    295.37297   -1439.1576    491.88528    387.49099   -104.00341    38369.369 
  418300    304.32934   -1461.2274    518.10948    432.11836    40.727726    38369.369 
  418400    300.46149   -1488.4621    508.10845    377.40415   -30.228943    38369.369 
  418500    293.19649   -1471.2289    499.36349    353.06252    -88.65483    38369.369 
  418600    282.59131   -1459.7235    516.87082     334.1514    58.879884    38369.369 
  418700    301.11592   -1487.2472    513.75524    387.22326    243.28098    38369.369 
  418800    307.57163   -1466.5736    518.70472    442.01901     649.1602    38369.369 
  418900    293.18585   -1465.0742    484.43494     344.2406   -46.105694    38369.369 
  419000    302.81268   -1442.3925    514.94994    440.94009   -18.125606    38369.369 
  419100    294.46401   -1430.8388    521.69088    421.50788    26.242949    38369.369 
  419200    306.33392   -1458.6215    498.83955    424.51284   -13.928803    38369.369 
  419300     298.5747   -1430.3058    515.32178    434.24763    114.59174    38369.369 
  419400    294.36005   -1420.3634    496.43385    406.25642   -540.44642    38369.369 
  419500    293.33242   -1435.5429     499.5939    389.59321   -255.41777    38369.369 
  419600    305.09206   -1477.6799    514.19419    415.19724   -310.43894    38369.369 
  419700    287.99827   -1489.2098     500.8117    313.03961   -291.02642    38369.369 
  419800    290.70981   -1491.8732    468.50815    290.32585   -95.074529    38369.369 
  419900    303.33428    -1496.957    505.43148    379.21413    445.39603    38369.369 
  420000     300.1645   -1432.4245    520.85299    444.84431    817.87857    38369.369 
  420100    295.66117   -1522.1275    492.36259    306.30071    273.57772    38369.369 
  420200     288.9665   -1483.3327    513.16096    335.64135    300.06338    38369.369 
  420300    305.08434   -1496.3228    493.32759    375.65286    357.34387    38369.369 
  420400    298.10783   -1484.8953    499.30909    361.53563    541.57563    38369.369 
  420500    300.46624   -1460.9657    477.89134    374.70495    884.54763    38369.369 
  420600    296.67878   -1437.3857    509.30321    412.58168    465.15062    38369.369 
  420700    299.63695   -1444.8111    492.56087    401.78162    235.89264    38369.369 
  420800    298.07176   -1464.6965    486.06216    368.32452      257.538    38369.369 
  420900    298.53967   -1459.5608    505.90669     395.4192    839.61191    38369.369 
  421000    305.70224   -1454.6859    494.60115    421.35551   -119.06835    38369.369 
  421100    299.36875   -1445.1142    502.55381    410.25948     -102.971    38369.369 
  421200    301.35926   -1488.2106    477.12329    350.72745   -308.70627    38369.369 
  421300    298.38082   -1505.1187    505.11429    348.35106   -256.07456    38369.369 
  421400    307.28248   -1487.4446    530.74072    431.87733   -450.82305    38369.369 
  421500    293.54574   -1499.2291    452.59531    279.87237   -495.36785    38369.369 
  421600    302.73153   -1466.0295    489.49876    391.48521   -185.31448    38369.369 
  421700    303.03044   -1467.2387    495.49561    397.62357    411.93168    38369.369 
  421800    291.73494   -1487.6795    484.22854    314.87247    489.74805    38369.369 
  421900    300.63849   -1436.1398    500.88648    423.30438   -240.35767    38369.369 
  422000    296.96033   -1478.9179    500.30563    363.32415   -837.80323    38369.369 
  422100    291.61634   -1479.5612     517.8894    356.11561   -86.337938    38369.369 
  422200    309.48104   -1452.6298    499.48558    445.37208    256.02922    38369.369 
  422300    299.68293   -1482.0963    499.82866    371.97198    449.54648    38369.369 
  422400    289.26573   -1515.0254    510.51983    302.65963    71.665813    38369.369 
  422500    315.29295   -1528.8294    508.49443    404.44489   -29.207883    38369.369 
  422600    307.53084   -1483.5867    489.43291    395.54972    517.96315    38369.369 
  422700     299.1879   -1465.6671    503.59095    389.92645   -251.67682    38369.369 
  422800    302.88508   -1506.8451    493.66259    355.52731   -41.427967    38369.369 
  422900    293.51324   -1526.8644    510.33599    309.83089    269.81939    38369.369 
  423000    297.14959   -1505.4954    488.10154    325.39776    258.64767    38369.369 
  423100    293.03928   -1541.1799     483.1513    266.18895   -103.31812    38369.369 
  423200    300.10197   -1514.4605    493.27143    334.94413    239.53924    38369.369 
  423300    295.01354   -1525.8666    455.21254    262.48501    127.69542    38369.369 
  423400    308.04089   -1519.1945    502.73794    375.55188     350.7673    38369.369 
  423500    292.99991   -1545.9867    479.67935    257.73226   -138.05798    38369.369 
  423600    309.43721   -1507.7099    521.95924    412.56759    249.01876    38369.369 
  423700    298.82932   -1501.9857    491.51732    339.91381    423.41001    38369.369 
  423800    291.75811   -1517.1967    486.88165    288.11302     229.0709    38369.369 
  423900    306.50002   -1507.1994    478.66169    356.50766    119.10549    38369.369 
  424000    294.02556   -1471.2381    470.99445    328.43085    304.15515    38369.369 
  424100    288.51869   -1483.9864    509.86912    329.67219   -276.25535    38369.369 
  424200    300.19291    -1488.732    492.34542    360.15756    128.27187    38369.369 
  424300    298.95863   -1523.9969    496.20536    323.17504   -220.97739    38369.369 
  424400    299.85651   -1501.0795    462.28163    316.22611    6.4917733    38369.369 
  424500    288.63663   -1488.4471    492.97289    308.84813   -473.93137    38369.369 
  424600    303.09306   -1486.4666    482.20246    365.38554   -79.983935    38369.369 
  424700    298.74345   -1485.6757    509.92677    374.24524     200.2758    38369.369 
  424800    297.04603   -1497.0791     498.0829    343.32747   -130.95722    38369.369 
  424900    296.50223   -1503.8381    489.94053    325.96869    292.85512    38369.369 
  425000    305.22226   -1488.0636    502.71689    393.92459    22.286293    38369.369 
  425100    301.75036   -1478.4786    474.89443     359.9979   -147.96209    38369.369 
  425200    300.22647   -1493.5915    478.65894     341.7632   -88.152052    38369.369 
  425300    307.24913   -1486.0546    482.04837    384.42432   -316.02501    38369.369 
  425400    306.66262   -1517.8749    486.78648    354.69176   -204.34508    38369.369 
  425500    301.32309   -1495.9099    505.49184    371.23324   -296.25625    38369.369 
  425600    300.82688   -1479.6173    495.00818    374.79983   -322.73285    38369.369 
  425700    302.30919    -1451.632    471.07399    385.54943    2.2772238    38369.369 
  425800    301.31447   -1462.1528    530.53458    429.99416    628.00508    38369.369 
  425900    305.33831   -1451.2733    506.95526    435.47771    427.12962    38369.369 
  426000    304.57468   -1452.4744    510.25938    434.12997    798.24227    38369.369 
  426100    307.37901   -1462.4701    503.87711    430.42444    523.64034    38369.369 
  426200    295.92801   -1414.0932    485.84924    409.02746    691.11146    38369.369 
  426300    303.06182   -1446.9503    498.21612    420.77426     43.81351    38369.369 
  426400    305.87891   -1472.8013     472.9322    382.36956    695.25185    38369.369 
  426500    311.20866   -1436.4299    539.41674    509.31016    617.73081    38369.369 
  426600    292.65061   -1437.0009    501.67918     387.1395    275.43926    38369.369 
  426700    307.06156   -1475.2915    480.04653    392.33795    548.01475    38369.369 
  426800    301.36405   -1473.3293    479.44135     367.9485   -31.260689    38369.369 
  426900    296.51744   -1519.9003    490.16399    310.19869    285.22938    38369.369 
  427000    288.61426   -1547.7503    473.29847    229.76945    487.64804    38369.369 
  427100    310.48574   -1509.1889    472.34328    366.21093    993.08463    38369.369 
  427200    303.41499   -1489.1192     503.3417    385.32698    539.76715    38369.369 
  427300    293.47084   -1499.1668    507.65297    334.65394    339.86213    38369.369 
  427400    310.80186   -1498.1468    499.40213    405.74038    74.705287    38369.369 
  427500    292.27554   -1523.4776    487.85008    285.13874    256.18645    38369.369 
  427600    294.24955   -1498.6103    475.25755     306.3339   -113.11794    38369.369 
  427700    305.39702   -1484.0407    527.88552    423.90582    34.387861    38369.369 
  427800     298.4071   -1483.2363    476.78438     342.0223     -122.506    38369.369 
  427900    303.58977   -1505.0173    513.40752    380.28443    329.95858    38369.369 
  428000    294.91676    -1507.445    497.22629    322.48305    680.90273    38369.369 
  428100    291.25578   -1463.9314    483.68478    335.91148    -278.4317    38369.369 
  428200    289.49511   -1474.0644    475.44074    309.57814   -836.95769    38369.369 
  428300    305.41921   -1525.3059    492.03873    346.89414   -471.27069    38369.369 
  428400    296.83802     -1543.98    494.13907    291.54278   -173.46916    38369.369 
  428500    300.18777   -1510.5046     484.2543    330.27058     35.34081    38369.369 
  428600    306.97316   -1498.8837    491.12704    379.42679    147.96806    38369.369 
  428700    290.65258    -1511.826    487.94129    289.54756   -475.52258    38369.369 
  428800    298.21772   -1492.5101    496.39014    351.49844   -472.21328    38369.369 
  428900    295.90261   -1497.9759    476.65225    315.83306   -457.46286    38369.369 
  429000    296.64978   -1470.9111    490.45198    360.07393   -213.14229    38369.369 
  429100    297.84489   -1497.3123    486.60795    335.22934    288.35154    38369.369 
  429200    308.42648    -1520.749    497.75552    370.75742      189.169    38369.369 
  429300    303.32666   -1488.6826    477.89208    359.91475   -194.46571    38369.369 
  429400    296.39511   -1500.7656    510.31027    348.92691    516.83993    38369.369 
  429500    300.75124   -1536.6221    476.98523    299.43032    561.30007    38369.369 
  429600    310.78897    -1530.579    497.80204    371.64975    157.28471    38369.369 
  429700    295.44119   -1552.0463    516.53859    299.56381    261.80229    38369.369 
  429800    293.83496   -1543.5443    475.66905     259.9379   -349.14755    38369.369 
  429900    297.45589   -1523.8988    468.34314     288.6202   -1164.6741    38369.369 
  430000    299.78413   -1514.4077    504.56508    344.85428   -331.36708    38369.369 
  430100    289.92945   -1516.6681    499.84925     293.3457   -320.52007    38369.369 
  430200    300.77415   -1466.0297    502.13461    395.27564   -9.8462651    38369.369 
  430300    297.17608   -1494.5357    510.94631    359.32203    283.51534    38369.369 
  430400     289.2173   -1495.3869    492.10168    303.66117     667.7486    38369.369 
  430500    308.33635   -1513.1927    502.93347    383.08441    486.68965    38369.369 
  430600    296.82607   -1499.9841    492.65697    334.00257    347.48901    38369.369 
  430700     296.5148   -1524.2075      475.689    291.40466     169.6658    38369.369 
  430800    308.60931   -1480.0511    483.45396    397.97997    58.646793    38369.369 
  430900    298.52242   -1535.0476    497.89383    311.84155    113.02837    38369.369 
  431000    305.35502   -1494.9805     496.9243    381.81509    841.49604    38369.369 
  431100    305.05201   -1469.9436    523.67465    432.23309    147.16408    38369.369 
  431200    296.76393   -1493.2177    493.35911    341.19028    128.87435    38369.369 
  431300    292.17133    -1460.732    507.90825    367.47163   -461.35776    38369.369 
  431400    298.25979   -1490.6672    510.15353     367.2949    296.32558    38369.369 
  431500    290.03776   -1492.4497    500.68056    318.88479   -161.16391    38369.369 
  431600    298.32028   -1459.5504    503.10756    391.63905    38.171331    38369.369 
  431700     305.0174   -1483.6436    504.76822    399.47019   -41.857583    38369.369 
  431800    308.29391   -1464.0096    474.66734    403.80955   -184.48266    38369.369 
  431900    297.79159   -1475.0503    500.87131    371.51381   -347.76187    38369.369 
  432000    301.65127   -1489.2876    481.39321     355.2399    6.5045473    38369.369 
  432100    302.36302   -1471.1272    499.99727    395.22073   -361.87023    38369.369 
  432200    301.56461   -1478.0464    495.15975     379.8561    269.52359    38369.369 
  432300    300.88626   -1492.1716    488.76896    356.27473    677.86942    38369.369 
  432400    300.15475   -1493.0184     514.5721    377.92538     501.6559    38369.369 
  432500    303.18378   -1489.8522    487.26427    367.47166     555.2813    38369.369 
  432600    298.56879     -1536.41    520.45408    333.24905   -33.109083    38369.369 
  432700    301.19462   -1512.3017    492.14745    340.91652    435.26073    38369.369 
  432800    289.84128   -1487.0543    508.98919    331.70095    15.351436    38369.369 
  432900    298.69464   -1448.4357    535.63152    436.96942    498.02433    38369.369 
  433000    295.49623   -1416.9401    513.57237    431.95254    -129.8639    38369.369 
  433100    293.06616   -1429.1156    515.58848    410.81195   -87.337516    38369.369 
  433200    303.62151   -1412.5987    529.36062    488.79959    518.92781    38369.369 
  433300     305.8528   -1445.0442    538.36698    475.44345    512.54286    38369.369 
  433400    293.51425   -1423.7056    493.61392     396.2722    -160.5989    38369.369 
  433500    299.12921   -1443.1187    504.65214    413.27081     152.1738    38369.369 
  433600    308.67087   -1454.9484    508.50552    448.41243    120.90657    38369.369 
  433700    304.83311   -1483.3251    493.35979     387.5475   -72.329465    38369.369 
  433800     304.9688   -1516.0266    504.82857    366.92793    24.179858    38369.369 
  433900     298.5381   -1474.9852    527.61978    401.70087    71.465723    38369.369 
  434000    292.95915   -1456.3001    490.23365    357.78896   -118.43321    38369.369 
  434100    303.73122   -1509.3174    498.46432    361.68037   -323.87511    38369.369 
  434200     294.3011   -1457.3148    496.38523    368.99006   -204.03946    38369.369 
  434300    299.17993   -1449.6733    515.67735    417.97068   -327.91523    38369.369 
  434400    306.76807   -1442.0418    500.07245    444.28731   -430.88837    38369.369 
  434500    293.99065   -1437.5247    506.73029    397.72231    266.03494    38369.369 
  434600    304.10911   -1498.3596    511.47996    387.36145    188.45022    38369.369 
  434700    296.74012   -1505.5321    487.50903    322.91822    704.54815    38369.369 
  434800    307.29557   -1449.1093    490.19518    429.72625    247.46929    38369.369 
  434900      303.095   -1434.5438     512.9217    448.03629   -175.72551    38369.369 
  435000    307.40263   -1466.1093    484.64485    407.65976   -83.317408    38369.369 
  435100    295.78479   -1473.6123    492.18328    355.19522   -517.20494    38369.369 
  435200    288.29624   -1457.4719    522.50326    367.81552   -190.23225    38369.369 
  435300    294.22383   -1480.0967    500.59156    350.06529   -429.78513    38369.369 
  435400    304.05966   -1543.6428    510.02286    340.39773   -120.97879    38369.369 
  435500    304.02981   -1506.0375    502.05225    369.89754   -82.721566    38369.369 
  435600    296.33552   -1489.6224    487.20806    336.69858   -137.34802    38369.369 
  435700    303.62937   -1513.5946    492.72828    351.20688   -52.111891    38369.369 
  435800    289.37969   -1466.8306    488.79874    329.64833   -518.02834    38369.369 
  435900    310.82998   -1530.8928    471.45242    345.17174     38.53284    38369.369 
  436000    306.36025   -1518.8057     501.5549    367.16299    -183.1237    38369.369 
  436100    289.30185   -1503.6652    512.09211    315.75535     165.1145    38369.369 
  436200    305.14312   -1483.4145    500.85203     396.3512    340.19434    38369.369 
  436300     302.1187   -1485.2335    477.08404     357.0972    289.31414    38369.369 
  436400    291.99797   -1497.1685    495.62912    317.97257    31.198924    38369.369 
  436500    299.18427   -1515.5322     479.4138    315.86777    4.8058681    38369.369 
  436600    307.84875   -1480.1428    470.61329    381.61062    268.31177    38369.369 
  436700    303.04703   -1515.1999    497.20093    351.44271   -96.485125    38369.369 
  436800     303.2991   -1475.1651    487.75432    383.16995    303.69299    38369.369 
  436900    289.73893   -1480.9633    509.89287    338.23317    69.698738    38369.369 
  437000    299.08396   -1503.4091    502.19667    350.32046   -94.831119    38369.369 
  437100    300.96539   -1517.9327    492.25988    334.36209    187.37106    38369.369 
  437200    295.80093   -1556.0347    474.71499    255.37747    114.75817    38369.369 
  437300    301.78461   -1569.5014    478.21009    272.44553    246.43257    38369.369 
  437400    300.81639   -1544.3281    466.31135    281.34489    549.72315    38369.369 
  437500    302.07283   -1580.0268    470.82502    255.83757    582.30395    38369.369 
  437600    305.86031   -1539.6597    461.82354    304.31851    111.09223    38369.369 
  437700    301.28976   -1511.6652    506.86822    356.70371    227.46723    38369.369 
  437800    312.91993   -1534.2508    481.03839    360.84391   -58.435534    38369.369 
  437900    286.40608   -1527.7752    482.63892    249.10645   -370.35982    38369.369 
  438000    302.43788   -1564.1695    460.95491    263.47437   -378.24726    38369.369 
  438100    295.35208   -1488.4834    499.67745    345.86296    4.0313899    38369.369 
  438200    299.41637   -1545.1978    476.90028    284.73749   -131.79553    38369.369 
  438300    311.59697   -1508.8262    478.46405    377.71589    325.49805    38369.369 
  438400    299.15983   -1495.2373    509.46286    366.10136    239.05805    38369.369 
  438500    304.55232    -1491.059    512.82543    398.01035    42.413371    38369.369 
  438600    292.85267   -1467.0658    478.03118    334.33967   -138.68087    38369.369 
  438700    296.43811   -1483.3979    495.70443    351.88312   -103.87721    38369.369 
  438800    298.36954   -1458.1608    497.07682     387.2205    -309.1248    38369.369 
  438900    301.27147   -1525.6978    528.88838    364.60862    -230.3715    38369.369 
  439000    292.88313    -1495.649    470.10026    297.96316   -923.81683    38369.369 
  439100    302.87005   -1419.5522    490.31003    439.39977   -570.51726    38369.369 
  439200    296.88291   -1433.4869    487.84304    395.94272   -1266.9339    38369.369 
  439300     304.4615   -1461.6216     492.9816    407.19352   -709.22993    38369.369 
  439400    294.48803   -1408.1245    494.01889    416.65864   -760.02142    38369.369 
  439500     305.9913   -1477.6753     509.4734    414.54468    525.79831    38369.369 
  439600    309.41047   -1474.8555    496.23438    419.57639    175.28061    38369.369 
  439700    309.21639   -1429.1777    495.07616    463.21887    944.11906    38369.369 
  439800    305.14555   -1452.9337    497.21703    423.20804    504.68507    38369.369 
  439900    293.51555   -1468.1123    493.85341    352.11088     387.6949    38369.369 
  440000    307.16182   -1453.8206    497.48831     431.7037    502.32334    38369.369 
  440100    297.20863   -1480.1752    508.48854    371.37182    114.60389    38369.369 
  440200    298.18101   -1475.2191     489.7407     361.9742   -78.050763    38369.369 
  440300    303.24883   -1477.5688    498.60255    391.38734    338.75356    38369.369 
  440400    299.88125   -1445.0661    484.14471    394.21437   -75.598356    38369.369 
  440500    304.11472   -1459.4574    497.15465     411.9637     -221.898    38369.369 
  440600    301.14393   -1490.3752    500.79148    371.25802    57.585898    38369.369 
  440700    289.64481   -1468.9649     495.6979    335.61124    204.46461    38369.369 
  440800    310.43027   -1453.5667    479.97477    429.21391   -254.16874    38369.369 
  440900    297.93742     -1447.75    501.26456    399.86641     -340.482    38369.369 
  441000    295.00398   -1534.0095    488.99136    288.07772   -49.088431    38369.369 
  441100    289.71588   -1481.1931    508.66702    336.67331   -181.27498    38369.369 
  441200    306.01582   -1479.6094    503.23603    406.48394   -339.98455    38369.369 
  441300    304.74549   -1455.7034    511.39598    432.80936     592.2273    38369.369 
  441400    301.67673   -1489.0834    481.73909    355.90507    895.45913    38369.369 
  441500    299.35422    -1487.764    474.52909    339.51922     108.2734    38369.369 
  441600     294.7946   -1455.0899    514.22956    391.28933    482.54102    38369.369 
  441700    294.46986   -1436.5925    494.45564    388.54535   -362.84468    38369.369 
  441800    304.28108   -1440.8154    519.67791    453.88074    36.051744    38369.369 
  441900    292.09526   -1447.0955    487.95655    360.81272   -101.12713    38369.369 
  442000    294.72081   -1438.0786    496.13104    389.86866   -123.91208    38369.369 
  442100    309.10537   -1450.6697    502.69809    448.84714   -232.28116    38369.369 
  442200    297.10066   -1435.4814    512.82796     419.9171   -345.29477    38369.369 
  442300    300.80019   -1429.2778    511.04061    441.05124   -491.42528    38369.369 
  442400    308.39712   -1431.3424    483.87885    446.15467    -47.99134    38369.369 
  442500    295.01367   -1439.6568    493.60627    387.08912   -115.23384    38369.369 
  442600    305.78285   -1410.3983    511.07491    482.48114   -254.54837    38369.369 
  442700    286.42795   -1436.0666    501.00482    359.27978   -534.99924    38369.369 
  442800    305.96509   -1438.0486    497.32202    441.90148   -618.58839    38369.369 
  442900     300.6633   -1423.5933    519.15356    454.23005   -686.23641    38369.369 
  443000     301.0088   -1462.0505    480.67914     378.8597   -319.80328    38369.369 
  443100    295.28719   -1456.1003    521.37938    399.65469    106.69259    38369.369 
  443200    292.86874   -1446.8626    509.20055    385.78491    279.72321    38369.369 
  443300    299.61518   -1477.7108    492.85334    369.07598   -184.57026    38369.369 
  443400    307.33996   -1457.1698    498.24462    429.91579    104.93772    38369.369 
  443500    289.12644   -1438.4766    497.74854    365.80777     239.2254    38369.369 
  443600     304.8287   -1456.9166    528.10043    448.67669    511.07783    38369.369 
  443700    300.25783   -1430.0425    499.08667    425.88164    130.69881    38369.369 
  443800    291.21769   -1457.0657     519.7662    378.68646    46.089532    38369.369 
  443900    288.63249   -1451.4321    522.87402    375.74562     672.7237    38369.369 
  444000    300.54998   -1470.5538     504.7169    392.32084    773.35427    38369.369 
  444100    300.49465   -1457.4132    535.77391    436.26833    1315.1533    38369.369 
  444200    284.37014   -1444.2676    514.74543     355.5203    662.88042    38369.369 
  444300    300.30234   -1481.8969     518.6762    393.81795     1169.452    38369.369 
  444400    295.64172   -1443.6218    505.61501    397.97096    421.08654    38369.369 
  444500     312.3281    -1445.222     511.1911    477.35103    623.94343    38369.369 
  444600    297.03209   -1455.6911    489.65159    376.22117    34.570339    38369.369 
  444700    300.35885   -1454.6459    499.57081    402.21894    191.95962    38369.369 
  444800    307.16635    -1469.085    501.92033    420.89183    621.85475    38369.369 
  444900    296.15988   -1457.5551    495.70437    376.46848    678.34296    38369.369 
  445000     298.0914   -1495.1906     505.6486     357.5056    405.13315    38369.369 
  445100    300.14624   -1463.5631     485.5182    378.28841    12.651957    38369.369 
  445200    305.48914   -1457.6549    503.56309    426.38551   -204.87992    38369.369 
  445300    290.42488     -1479.03    504.68123    338.05452   -443.83386    38369.369 
  445400    299.20977   -1421.6291    497.60284    428.07517    -351.4377    38369.369 
  445500    309.17665    -1436.128    523.21695    484.22983   -406.29615    38369.369 
  445600    307.24491    -1482.611    491.09643    396.89695   -276.73371    38369.369 
  445700    295.55903   -1474.3721    508.15083    369.38285   -232.03768    38369.369 
  445800    305.61253   -1476.9419    504.79427    408.88735   -34.213515    38369.369 
  445900    298.01656   -1443.0818    531.66233       435.29   -224.72615    38369.369 
  446000    292.80134   -1460.4281    522.49547    385.20973    118.27141    38369.369 
  446100    304.61317    -1441.999    524.75629    459.27623    528.16064    38369.369 
  446200     296.9249   -1426.4195    499.17898    414.53575    177.57493    38369.369 
  446300    300.75569   -1470.5142    492.71165    381.28479    174.46578    38369.369 
  446400    297.84198   -1502.9228     523.6649    366.66268    186.46924    38369.369 
  446500    291.35818   -1534.0516    514.66032    297.22948    54.010459    38369.369 
  446600    299.67001   -1524.7356     512.1242    341.56985    356.58987    38369.369 
  446700    305.58836   -1540.3263    496.33793    336.93737   -190.15007    38369.369 
  446800    294.15181   -1520.7679    511.82187    320.29895    49.330782    38369.369 
  446900    297.17675   -1467.0865    482.01408    357.84202    142.34917    38369.369 
  447000    307.84946   -1479.5468    513.53981    425.13644   -171.94665    38369.369 
  447100    293.34081   -1536.2868    482.29549    271.58888     -423.302    38369.369 
  447200    296.49995   -1528.0362    496.76092     308.5807   -247.39295    38369.369 
  447300    303.13144   -1534.6623    495.53999    330.70076   -314.35607    38369.369 
  447400    296.94989   -1533.4059    498.68199    307.16534   -398.21723    38369.369 
  447500    314.30971   -1507.9971    477.07406    389.41368    -255.1596    38369.369 
  447600    307.48845   -1527.2097    475.36211    337.66442    12.435134    38369.369 
  447700    293.11356   -1495.7262    504.29174    333.11878    284.02145    38369.369 
  447800    290.34234   -1520.2711    505.40158    297.16076    131.29018    38369.369 
  447900     293.4098   -1516.6036     513.3848    322.67313    -57.54495    38369.369 
  448000    292.32254   -1531.9326     496.6711    285.71719    238.57224    38369.369 
  448100    293.71955   -1499.1971    507.19206    335.28657    309.06049    38369.369 
  448200    302.23426   -1476.4322     514.3079    403.64455    -142.5145    38369.369 
  448300    314.40588   -1488.2281    493.82553    426.36865   -189.36318    38369.369 
  448400    306.37437   -1435.6268    518.27301    467.12382   -250.62686    38369.369 
  448500    300.57205   -1449.1562    513.20088    422.30209    24.224662    38369.369 
  448600    305.93955   -1464.6625    502.23091    420.08109    437.93832    38369.369 
  448700    304.80611   -1476.6593    492.28542    393.01686     144.0837    38369.369 
  448800    309.08503   -1475.4334    489.61447    410.90791    870.29722    38369.369 
  448900    306.22395   -1495.5467     468.4956    356.74672    299.32993    38369.369 
  449000    291.72558   -1507.9697    509.71927    320.03064    91.416287    38369.369 
  449100    298.13361   -1467.2145    490.44129    370.46515    -189.6424    38369.369 
  449200    307.71193   -1425.9802    524.38938    488.93105   -209.22777    38369.369 
  449300    294.72701   -1476.6406    500.26855    355.47223   -81.386099    38369.369 
  449400    299.04962   -1503.4991    501.25189    349.13049   -121.99475    38369.369 
  449500    293.06181   -1490.6135    485.99686    319.70277    111.25032    38369.369 
  449600    302.37666   -1460.6312    515.39427    421.17535    71.554756    38369.369 
  449700    292.20522   -1485.4452    500.95806    335.96137   -244.79517    38369.369 
  449800    305.44443   -1483.2818    518.70978    415.70327    -249.6418    38369.369 
  449900    302.28749   -1490.4669    495.04798    370.59049    120.86128    38369.369 
  450000    287.60276   -1487.9976    522.70867    334.36147    555.29283    38369.369 
  450100     296.9605   -1482.3753    513.62891    373.19078    1049.5601    38369.369 
  450200    299.35476   -1510.5909    511.79548     353.9612     866.2618    38369.369 
  450300    295.99914   -1436.9034     513.3966    414.08615    278.77085    38369.369 
  450400    305.56872   -1462.3184    524.76338     443.2819    57.740076    38369.369 
  450500    292.88161   -1478.0009    504.25715    349.76132    213.41778    38369.369 
  450600    303.03657   -1458.3712    501.69507    412.71826    435.22513    38369.369 
  450700    300.70076   -1462.1179     521.5872    418.30837    951.62796    38369.369 
  450800    298.47447   -1498.8136    518.43014    368.39523    982.19989    38369.369 
  450900    304.86731   -1517.1286    497.08155    357.62031    665.13704    38369.369 
  451000    309.36671   -1485.4412    542.10993    454.66845    1105.5819    38369.369 
  451100    290.68118   -1473.8335    499.13028    338.85835    395.83845    38369.369 
  451200    296.52167   -1485.0262    524.40298    379.33088    183.35232    38369.369 
  451300    297.32114   -1482.7974    500.57733    361.34679    128.45131    38369.369 
  451400    299.92548     -1444.97    484.41112    394.77677   -396.07325    38369.369 
  451500    299.35551   -1461.9656    517.10472     407.8991   -552.62706    38369.369 
  451600    306.77549   -1456.6686    498.51888    428.14051    164.33164    38369.369 
  451700    298.17115   -1501.0405    498.15847    344.52595     211.8341    38369.369 
  451800    299.03861   -1467.4139    519.56189    403.47597    624.97998    38369.369 
  451900    293.57594   -1456.1931    506.23586    376.68548    602.41035    38369.369 
  452000    299.34409   -1498.9358    529.17679     382.9494    902.12705    38369.369 
  452100    298.92411   -1488.8924    514.51783    376.43595    172.37471    38369.369 
  452200    312.42376   -1466.2146    496.62279    442.22241    714.31779    38369.369 
  452300    300.82687   -1491.9339    488.58922    356.06428     269.3414    38369.369 
  452400    307.45141   -1480.9608    500.54734    408.93122    195.85242    38369.369 
  452500    297.51724   -1478.3284     478.3271    344.45174   -136.60508    38369.369 
  452600    304.68828   -1466.0088    516.35492    427.20443    781.16495    38369.369 
  452700    300.22067   -1493.7667    545.88846    408.79134    666.81618    38369.369 
  452800    292.62542   -1480.2557    507.44669    349.53833    1132.8632    38369.369 
  452900    299.09857   -1495.7687    501.58048    357.41069    1034.4786    38369.369 
  453000    305.38442   -1466.5007    536.23598     449.7394    1362.6869    38369.369 
  453100    289.69032   -1460.0819    547.28085    396.28281    776.97743    38369.369 
  453200    293.08383   -1473.4761    530.15267    381.09545    243.90073    38369.369 
  453300    310.59741   -1492.3006    493.09804    404.35857    7.0720129    38369.369 
  453400    300.46793   -1501.5545    518.49261    374.72502   -128.66604    38369.369 
  453500    295.54676   -1487.9717    512.69165    360.26853   -149.80911    38369.369 
  453600    296.48775    -1558.066    504.30178    286.03664   -1065.3573    38369.369 
  453700    310.08555   -1481.1264    512.41338    432.53505   -318.06084    38369.369 
  453800    291.99097   -1510.4685    502.55032    311.56217   -471.85683    38369.369 
  453900    308.60792   -1498.7172    492.65355    388.50711    221.69032    38369.369 
  454000     304.0404    -1520.355    506.07867    359.65429   -186.66143    38369.369 
  454100    292.60439    -1513.852    501.60844    310.00875   -459.11766    38369.369 
  454200    307.16406   -1480.8128    490.05786    397.29119   -152.90343    38369.369 
  454300     301.7518   -1507.8582    510.32806    366.05848    80.669764    38369.369 
  454400    292.04925   -1478.3357    502.00022    343.40817    232.83533    38369.369 
  454500    288.67204    -1490.487    516.99949    330.99492    335.94953    38369.369 
  454600    303.90966   -1518.1314    516.59019    371.79861    212.05556    38369.369 
  454700    287.80263   -1453.6701    515.48516    362.36869   -194.20149    38369.369 
  454800    299.79432   -1463.4964    521.21725    412.46382    -24.95845    38369.369 
  454900    306.66429   -1469.6325    479.03596     395.1912   -283.71512    38369.369 
  455000    300.04807   -1491.3673    494.43136    358.95373    170.84032    38369.369 
  455100    299.75753    -1460.958    505.68683    399.30557    526.35012    38369.369 
  455200    302.16049    -1507.179    495.31321    353.56962    188.31984    38369.369 
  455300    303.59583   -1516.5025    494.14797     349.5671    412.95071    38369.369 
  455400    307.96507   -1498.9807    472.90635    365.59147    242.80396    38369.369 
  455500    306.43874   -1512.3981    481.03101     353.4014    524.94187    38369.369 
  455600    289.95213    -1523.518    483.62238    270.37142   -29.004108    38369.369 
  455700     293.4396   -1453.6746    504.75163    377.10359   -221.94528    38369.369 
  455800    304.58616   -1461.4458    485.99457    400.94564    20.922245    38369.369 
  455900    305.02098   -1476.4721    497.52904    399.41868   -115.63815    38369.369 
  456000    306.37394   -1463.1171    506.05995    427.41854   -444.96931    38369.369 
  456100    304.55786   -1482.5324    505.80397    399.54058   -648.72522    38369.369 
  456200    303.21916   -1455.2016    483.96298    398.98089   -619.90106    38369.369 
  456300     306.4449   -1465.8793    510.47365     429.3907   -859.45329    38369.369 
  456400    300.56771   -1469.1423    504.99312    394.08873   -1344.1629    38369.369 
  456500    295.12135   -1437.2748    523.10576    419.45724   -713.64705    38369.369 
  456600     298.5038   -1448.8982    513.39635    413.40932   -1042.5873    38369.369 
  456700    298.33926   -1478.0043    495.17484    365.33821   -361.30964    38369.369 
  456800    297.80107   -1519.0265    487.12973    313.83893   -360.64632    38369.369 
  456900    293.91134   -1533.2424    497.57694    292.49288    -174.5396    38369.369 
  457000    299.27519   -1495.8634     497.1283    353.66201    4.5657986    38369.369 
  457100    304.18258   -1485.7554    503.40668    392.22439   -203.84861    38369.369 
  457200    295.65422   -1505.2179    515.46702    346.28329    175.97679    38369.369 
  457300    294.98335   -1505.9035    494.77041    321.86957   -176.34867    38369.369 
  457400    306.42767   -1451.8783    501.09409    433.93427   -68.066736    38369.369 
  457500    291.89484   -1436.4693     507.7382    390.31479     508.8031    38369.369 
  457600    290.31333   -1474.3445    497.42004    334.97484    465.99325    38369.369 
  457700    293.65428   -1456.5448    487.06294    357.51487    12.847266    38369.369 
  457800    291.89466   -1476.9843    497.83082    339.89163   -165.39213    38369.369 
  457900    299.85207   -1472.3832     477.3442    359.96495   -327.24125    38369.369 
  458000    301.79618   -1503.4719    537.36449     397.6818   -221.91523    38369.369 
  458100    293.77439   -1504.6851    514.19305    337.04738   -271.32196    38369.369 
  458200    302.69019   -1504.1075    492.43132    356.15299      -411.34    38369.369 
  458300    295.53103   -1514.5176    500.42501    321.38492   -513.26152    38369.369 
  458400    291.39123   -1505.3278     532.5617    344.00403    35.605036    38369.369 
  458500    299.00806   -1464.4468    506.92353    393.66664    293.86841    38369.369 
  458600    299.00248   -1518.3716    515.50338     348.2965    304.59342    38369.369 
  458700     299.4897   -1485.8903    519.65274    387.12888    34.568605    38369.369 
  458800    302.72102   -1500.1557    510.90981    378.72259   -225.94257    38369.369 
  458900    305.92348   -1481.4986    534.09178    435.03328    42.493241    38369.369 
  459000    300.51393   -1471.9833    479.23447    365.24597    450.91678    38369.369 
  459100    312.74728   -1489.4234    531.22256    455.07537   -33.430544    38369.369 
  459200    305.68663   -1490.3624    506.05059    397.05799     124.0515    38369.369 
  459300    294.79103   -1500.4683    488.01461    319.67986    11.032437    38369.369 
  459400    304.07655   -1487.9278    509.37718    395.54336     820.9559    38369.369 
  459500    301.43974   -1487.8394    532.99486    407.33395    798.88122    38369.369 
  459600    303.56263   -1527.0697     521.4526    366.15457     847.9327    38369.369 
  459700    293.67577   -1458.1184    511.61585    380.59129    312.94092    38369.369 
  459800    291.00976   -1507.2423    485.82411    293.62811    370.79412    38369.369 
  459900    306.73093   -1453.8365    516.66012    448.91245     104.3698    38369.369 
  460000    312.43954    -1496.495     521.0324    436.42298     284.0674    38369.369 
  460100     310.7933   -1525.0504    492.44045     371.8364   -93.123972    38369.369 
  460200    303.22931   -1555.8569    498.46857      312.877    384.14622    38369.369 
  460300    303.57995   -1527.4966    509.18579    353.53908    12.863094    38369.369 
  460400    301.75915   -1553.6278    491.37761    301.37169    317.70631    38369.369 
  460500    313.84632   -1516.9577    491.50702    392.79198    631.40031    38369.369 
  460600    283.96389   -1542.6093    524.33185     264.9293    583.73739    38369.369 
  460700    310.96114   -1538.7669    503.84829    370.28619    977.93349    38369.369 
  460800    295.51272   -1525.9385    517.58749    327.04378    352.26805    38369.369 
  460900    302.26937   -1509.9424    536.42715    392.41222    789.91235    38369.369 
  461000    297.08196   -1494.3996    502.45045    350.53696   -221.01952    38369.369 
  461100    295.20116   -1486.5434     516.4613    363.90479   -44.177108    38369.369 
  461200    306.24784   -1502.9206    504.25796    385.24321    611.08403    38369.369 
  461300    291.63692   -1482.0562    499.08516    334.90937   -386.45332    38369.369 
  461400    305.44093   -1538.7059    504.54451    346.09805   -301.81063    38369.369 
  461500    302.65255   -1519.1174     495.2039    343.74553   -464.97218    38369.369 
  461600    307.23518   -1593.2126    489.27089    284.42583    13.682966    38369.369 
  461700    291.27072   -1592.7587    518.83447    242.30143   -74.506161    38369.369 
  461800    296.61529   -1567.7225    512.72481    285.37953     36.17903    38369.369 
  461900    297.41998    -1559.084     509.3613    294.29086    659.42753    38369.369 
  462000    300.93175   -1555.8715    490.87768    294.88908    274.63843    38369.369 
  462100     299.2353    -1575.493    522.67003     299.3939   -288.25587    38369.369 
  462200    313.79562   -1590.4186    481.00454    308.59954    212.55231    38369.369 
  462300    301.48065   -1569.4147    495.98374     288.9324   -45.741362    38369.369 
  462400    308.38143   -1584.9069    515.77238    324.41279   -50.415143    38369.369 
  462500     299.4439   -1576.8156    507.56446    283.90829    150.90144    38369.369 
  462600    300.15366    -1583.269    495.77011    268.86788    9.0989888    38369.369 
  462700    297.83845   -1555.4894    499.88602     290.3012   -113.18756    38369.369 
  462800    300.95913   -1565.2295    498.24451    293.02166   -63.435315    38369.369 
  462900    298.84382   -1552.2008     508.8962    307.14317   -437.35621    38369.369 
  463000    304.48427   -1547.4321    502.91619    331.42056   -524.03232    38369.369 
  463100    305.37322   -1531.8626    508.65719    356.74806   -327.64841    38369.369 
  463200    309.99509   -1536.6397    504.86197    369.06152   -399.89656    38369.369 
  463300    288.87286   -1538.0212    526.41323    293.78187    362.43592    38369.369 
  463400    296.51785   -1571.7461    512.87612    281.06687   -202.93316    38369.369 
  463500    308.49124   -1521.4825    501.36968    373.93075   -452.86745    38369.369 
  463600    296.04345   -1551.7847    511.26962    297.27803   -580.21153    38369.369 
  463700    308.06393   -1561.0566    487.98578    319.04176    187.35537    38369.369 
  463800    305.91196   -1581.2693    489.12378    290.24244    170.89139    38369.369 
  463900     291.5315   -1574.2184    493.74315    236.92878   -336.90291    38369.369 
  464000    305.49238   -1549.7852    528.57771    359.28449    274.94376    38369.369 
  464100    296.22342    -1561.562    500.97818    278.02255    302.95686    38369.369 
  464200    307.87111   -1557.9325    499.80451    333.11325   -214.37539    38369.369 
  464300    298.89745   -1547.2375    509.05984    312.51239    46.200713    38369.369 
  464400    296.22452   -1563.7466    507.68868    282.55341   -71.572853    38369.369 
  464500    299.57777   -1532.1463    504.13448    325.75262   -166.52572    38369.369 
  464600    301.13403   -1505.5834    506.58345    361.79707    86.790993    38369.369 
  464700    304.90419   -1513.5834    506.70283    370.95338    183.27799    38369.369 
  464800    301.98138   -1488.5333    499.94359    376.03637     339.0743    38369.369 
  464900    297.86966   -1571.0421    525.69711    300.70059    -39.80716    38369.369 
  465000    298.64981   -1516.3505    505.22735    338.44792   -676.11335    38369.369 
  465100    303.53327   -1510.4474    515.45819     376.6497    -426.3999    38369.369 
  465200     295.3612   -1488.1284    535.90342    382.48516     143.2808    38369.369 
  465300    302.60111   -1519.7738     494.2951    341.94786    108.31977    38369.369 
  465400     300.5179   -1514.2955    514.77883    358.49601    351.67616    38369.369 
  465500    298.68509   -1541.0122    509.28783    318.00611   -234.16826    38369.369 
  465600    292.51303   -1511.1649    491.93781    302.61244    199.63619    38369.369 
  465700    307.09498   -1530.3191    495.46961     352.8845   -189.22926    38369.369 
  465800    305.16386    -1544.989    518.81314    352.83152   -285.43617    38369.369 
  465900    306.10403    -1543.899    490.72176    330.07874   -117.17643    38369.369 
  466000    306.25754   -1491.8862    545.14908    437.21253   -364.31977    38369.369 
  466100    298.16561   -1503.7842    504.01113    347.60988   -49.489034    38369.369 
  466200    292.72902   -1545.5544    506.62592    283.88699    352.59379    38369.369 
  466300    305.68071   -1577.2848    503.49831    307.55648    83.033057    38369.369 
  466400    302.33535   -1529.0894    477.68282      314.819   -771.67483    38369.369 
  466500    291.67105   -1520.2932    498.26268    296.00414   -120.99008    38369.369 
  466600    299.91747   -1505.1425    550.76537     400.9223    -342.5387    38369.369 
  466700    301.06206   -1522.2872    513.85104    352.03555   -408.29002    38369.369 
  466800    301.77346   -1545.2003    530.53546    349.02164   -76.047104    38369.369 
  466900    295.83155   -1566.8222     487.4326    257.44599    64.677602    38369.369 
  467000     296.7226   -1514.7176    489.39416    315.53867   -163.02361    38369.369 
  467100    298.32728   -1513.1413    532.27555    367.24778   -572.03492    38369.369 
  467200    296.41302    -1508.884    492.10126    322.68041   -524.12133    38369.369 
  467300    298.20769   -1571.0004    498.93098    275.50375   -419.20605    38369.369 
  467400    298.74339    -1542.675     506.2974    313.61636   -556.30925    38369.369 
  467500    292.18157   -1553.2867    496.70121    263.75611   -574.24737    38369.369 
  467600    307.16658   -1506.8288    516.11064     397.3394    201.18507    38369.369 
  467700    295.35024   -1525.6086    523.85368     332.9056     261.9415    38369.369 
  467800    302.24796   -1485.1589    513.39806    394.06991   -219.32172    38369.369 
  467900    294.43259   -1509.5594    540.97904    361.93343   -610.73501    38369.369 
  468000     295.8307   -1518.3273    499.91258    318.41696    123.09647    38369.369 
  468100    309.66765   -1505.1696    499.31968    393.50976    105.96576    38369.369 
  468200    305.91917    -1517.913    518.79973    383.30733    547.16345    38369.369 
  468300    302.59576   -1537.3007    513.67374    343.77542    326.55743    38369.369 
  468400    299.63271   -1551.8285    501.11962    303.30382      323.395    38369.369 
  468500    304.43075   -1513.6129    553.58156    415.66322    837.29972    38369.369 
  468600      303.917   -1497.8844    486.25215    361.74074    560.32499    38369.369 
  468700    294.17957   -1501.9774    539.12295    366.51598    864.74962    38369.369 
  468800    298.94894   -1516.5488    486.47073    320.84469    215.11848    38369.369 
  468900    305.86655   -1505.0978    501.71846    378.80351    525.42762    38369.369 
  469000    296.59479   -1484.0922    500.34428    356.53668    -415.6791    38369.369 
  469100    301.50916   -1471.7586    517.09677    407.83037    207.96033    38369.369 
  469200    299.86816    -1482.853    508.11399    380.33759   -13.322614    38369.369 
  469300    295.70741   -1521.2065    519.67881     334.7469    361.28419    38369.369 
  469400    304.08018   -1510.4575     524.5817    388.23461   -12.565622    38369.369 
  469500    298.86135    -1499.975    508.38576    358.93771   -17.990017    38369.369 
  469600     303.8627   -1486.6929    488.36793    374.80262   -170.53824    38369.369 
  469700    289.13592   -1475.4633      526.594    357.70935   -539.13082    38369.369 
  469800    303.42784   -1512.7534    545.96951     404.3786   -87.380495    38369.369 
  469900     300.7176   -1503.6082    490.62162     345.9286   -149.57987    38369.369 
  470000    295.22495   -1510.0629    500.31754      324.349   -307.15449    38369.369 
  470100    303.06644   -1520.9116    503.51653    352.13431   -247.96556    38369.369 
  470200    287.04581   -1490.7603     540.5466    346.91992   -75.203889    38369.369 
  470300    296.81735   -1494.4226    539.56995    386.43768   -89.024335    38369.369 
  470400    304.50636   -1463.8599    496.68018    408.85649   -316.19589    38369.369 
  470500    292.83276   -1485.7064    525.71716    363.29504   -450.65405    38369.369 
  470600    298.71111   -1501.3894    503.77535    352.23398    261.05427    38369.369 
  470700    297.90159   -1480.8288    526.35769    391.71878    328.03634    38369.369 
  470800     296.8424   -1501.0273    511.39409    351.77033    53.459488    38369.369 
  470900    285.66748   -1548.4529    499.99615    242.44834    90.835694    38369.369 
  471000     301.5787   -1490.2727    503.33017    375.86391    192.48087    38369.369 
  471100    304.92147   -1520.0264    522.07765    379.96334    366.40582    38369.369 
  471200    306.91894   -1495.0658    493.88663    385.75933    43.320578    38369.369 
  471300    296.25753   -1507.7915    487.09622    318.06523     -357.007    38369.369 
  471400     305.2387   -1509.8427    517.98082    387.48377   -128.13672    38369.369 
  471500    288.22169   -1558.6526    493.73301    237.52772    55.466226    38369.369 
  471600    296.27172   -1586.3902    504.86555    257.30001   -394.48067    38369.369 
  471700    290.14919   -1506.0941    518.85598    323.91941   -491.35857    38369.369 
  471800    305.74369   -1526.1496    527.20875    382.68673   -858.26069    38369.369 
  471900    306.00193   -1477.5008    499.90878    405.20259   -985.89405    38369.369 
  472000    305.62887   -1488.6976     501.6037    394.01488   -893.81982    38369.369 
  472100    298.33655   -1491.8399     535.6549    391.97045    -805.5719    38369.369 
  472200    302.92983   -1508.5222     502.5948    362.98467   -412.41202    38369.369 
  472300    300.77159   -1487.7849    524.60394    395.97821   -834.20326    38369.369 
  472400    302.58674   -1511.5258    500.08776    355.92357    182.24656    38369.369 
  472500     309.0368   -1553.3143    503.12511    346.31972   -188.43528    38369.369 
  472600    302.69973   -1526.0832    507.11729    348.90638    -276.6563    38369.369 
  472700    291.23449   -1496.8541    510.90239    330.11014    -628.2888    38369.369 
  472800    279.46898   -1477.3254    494.75442    280.32362   -463.76514    38369.369 
  472900    297.58373   -1499.4563    511.86147    357.15868     184.9884    38369.369 
  473000     290.3149   -1500.8615    535.77474    346.81958    68.776828    38369.369 
  473100    300.96035   -1485.2019     522.0594    396.86969    79.720644    38369.369 
  473200    310.42037   -1511.2302    528.27994    419.81089    81.594256    38369.369 
  473300    294.99489   -1508.1743    507.81711     332.6976    375.06043    38369.369 
  473400    309.39315   -1519.5598    538.44344    417.00285    200.96949    38369.369 
  473500    297.14812    -1534.879    499.23257    307.13862   -187.57055    38369.369 
  473600    301.11795   -1549.7275    515.72417    326.72096   -831.27417    38369.369 
  473700    291.62814   -1534.4305    488.93783    272.34804   -868.31593    38369.369 
  473800    305.11593   -1519.5933    517.09339    376.29096   -723.69766    38369.369 
  473900    292.21983   -1510.7955    511.90484    321.62384   -428.30815    38369.369 
  474000    297.09913   -1507.6656    483.22461    318.12266   -645.43876    38369.369 
  474100    308.65759   -1524.2623    516.07803    386.61103   -80.256261    38369.369 
  474200    305.35277   -1511.0832      487.812     356.5899    35.858185    38369.369 
  474300    288.49011    -1482.227    514.19925    335.63254    307.15603    38369.369 
  474400    292.41893    -1488.572    508.81745    341.65973   -108.06431    38369.369 
  474500    304.34484   -1458.4947    524.05737    440.86899   -335.11347    38369.369 
  474600    295.38263   -1495.3385    515.85526    355.32365   -325.55196    38369.369 
  474700    292.18813   -1505.0394    499.53995    314.87186   -142.01579    38369.369 
  474800    305.77987   -1499.8272    518.80198    400.76588    287.32231    38369.369 
  474900    305.83489   -1487.2221    529.31926    424.13695    539.84266    38369.369 
  475000    300.64788   -1507.3172    521.29162    372.57454   -132.26079    38369.369 
  475100    308.22672   -1480.0082    489.89466    402.73467   -396.87325    38369.369 
  475200    290.63349   -1482.7104    512.16063    342.79631   -647.00055    38369.369 
  475300    311.64732   -1500.2492    506.51223    414.56863   -408.94932    38369.369 
  475400    308.14347   -1504.4559      512.006    400.02205    49.581833    38369.369 
  475500    297.18768   -1490.0808     505.3089    358.19187    247.07576    38369.369 
  475600    305.37957   -1493.6509    537.18399    423.51526    587.38446    38369.369 
  475700    294.87121   -1534.3241    519.20984    317.38164    547.00267    38369.369 
  475800    300.25538   -1519.6506    514.79773    351.97363    643.81998    38369.369 
  475900    301.15503   -1492.4298    497.08566    365.54771    583.28108    38369.369 
  476000     291.9095   -1506.0172    522.08786    335.18283    -150.4343    38369.369 
  476100     300.7828   -1497.1079    503.98647    366.08837   -303.70322    38369.369 
  476200    284.64559   -1470.5746    532.02809    347.74076   -535.98187    38369.369 
  476300    288.35943   -1525.6216    539.31022    316.75835   -184.63039    38369.369 
  476400    294.51027   -1505.2661    501.43395    327.03267   -311.91045    38369.369 
  476500    298.77307   -1505.1071     508.3593    353.38021    11.776535    38369.369 
  476600    294.60292   -1474.6981     521.5375    378.12287   -427.54822    38369.369 
  476700    311.84759   -1492.2921    522.34886    439.26733    189.19801    38369.369 
  476800     289.8616   -1514.0408    488.72435    284.54146   -99.403841    38369.369 
  476900    300.37004   -1493.5392     530.4609    394.26628     239.4813    38369.369 
  477000     297.6192   -1494.8205    525.05355    375.14686   -237.03325    38369.369 
  477100     297.9079   -1559.3387    523.96984    310.84955    169.20344    38369.369 
  477200    297.77158   -1533.1132    484.62095    297.11008    91.267379    38369.369 
  477300    299.81889   -1557.3916    512.93763    310.40004    254.25871    38369.369 
  477400    307.49844   -1551.9514    530.41578    368.02157    216.76643    38369.369 
  477500     307.5278   -1516.9634    516.85078    389.57725    166.55635    38369.369 
  477600    303.39836   -1511.9893    503.60826    362.64827    -136.8905    38369.369 
  477700    293.69905   -1460.2902    510.25158    377.16042    439.76891    38369.369 
  477800    305.41292   -1487.6328    503.69336    396.19346     279.7134    38369.369 
  477900    296.19647   -1515.9996    528.17165    350.65663   -8.0976851    38369.369 
  478000    311.74688   -1494.4281    508.35011    422.67751    290.30465    38369.369 
  478100    309.98568   -1464.0645    530.13685    466.86916   -344.76885    38369.369 
  478200    302.27265   -1514.5476    516.21028    367.60501   -424.12009    38369.369 
  478300    300.41957   -1476.7222    490.44886    371.29506   -244.09131    38369.369 
  478400    310.43907   -1513.1345    513.90384    403.61492   -569.66721    38369.369 
  478500    305.40199    -1474.417    503.22128    408.88783   -435.41988    38369.369 
  478600    286.68732   -1486.9717    526.33546    334.87744   -450.90677    38369.369 
  478700    299.39839   -1486.7309    523.26292    389.48579    378.45359    38369.369 
  478800     288.0868   -1461.9239    495.00011    334.91397    454.92734    38369.369 
  478900     291.0172   -1504.3472    507.02819    317.76101    919.59008    38369.369 
  479000    294.31647   -1482.5228    496.38051    343.84681    47.454362    38369.369 
  479100    309.68388   -1490.7201    531.65296    440.36579     466.8953    38369.369 
  479200    306.39787   -1485.8634    509.45683    408.17721    454.98846    38369.369 
  479300     304.5803   -1486.2648    506.47407    396.57961   -114.01842    38369.369 
  479400    295.71916   -1460.7096    519.69931    395.31735   -485.50594    38369.369 
  479500     300.8928   -1481.7909     490.2102    368.12619   -338.16968    38369.369 
  479600    293.85116   -1478.5155    500.93536    350.30619    134.43599    38369.369 
  479700    297.48828     -1475.73    506.05872    374.65093    407.56544    38369.369 
  479800     286.6232   -1458.0845    523.95586    361.09521    432.79233    38369.369 
  479900    298.55965   -1491.5552    517.68676    375.29515   -202.85949    38369.369 
  480000     299.9476   -1489.5033    496.01986    361.95221    36.628087    38369.369 
  480100    307.45263   -1494.7879    531.75944    426.32164    157.27998    38369.369 
  480200    296.62938   -1469.1516    509.36425    380.65353   -224.48323    38369.369 
  480300    298.76789   -1451.3625    496.84943    395.59155    153.27434    38369.369 
  480400    311.83339   -1480.0845    519.78442    448.84631    42.659436    38369.369 
  480500    307.70939   -1462.8865    524.84528    452.46924   -540.51478    38369.369 
  480600    286.99422   -1472.9039    534.31145    358.30808   -726.72556    38369.369 
  480700     305.2373   -1461.9674    541.01467    458.38656   -482.73588    38369.369 
  480800    298.94414   -1451.5066    531.09971    430.49414   -302.58591    38369.369 
  480900    304.77717   -1449.4053     508.6318    436.48653   -75.030824    38369.369 
  481000    308.37568   -1462.3268    549.77058    480.96511     115.9452    38369.369 
  481100    299.80942   -1478.9069    507.14542    383.04974   -290.67879    38369.369 
  481200    295.22216   -1481.3414    516.14637    368.88678    43.121968    38369.369 
  481300    291.56378   -1527.6138     510.1183    300.05439   -223.84578    38369.369 
  481400     302.5556   -1507.2672    510.28137    370.23513     104.1775    38369.369 
  481500    301.01262   -1471.4761    521.02876    409.80101    705.37373    38369.369 
  481600    295.80158   -1502.3729    520.12467    354.45188   -220.74063    38369.369 
  481700    294.31743   -1522.1593    492.60229    300.43644    105.73807    38369.369 
  481800    308.17843   -1494.0354    507.94401    406.53857    82.561226    38369.369 
  481900    299.06052   -1472.9228    514.93175    393.43596    374.21434    38369.369 
  482000    289.99609    -1507.311    517.53181    320.68649    19.810576    38369.369 
  482100    292.00969   -1499.9764    543.81909    363.40766    698.87222    38369.369 
  482200    297.11184   -1524.0541    525.44232    344.00927    285.73574    38369.369 
  482300    305.76025   -1522.6674    524.38154    383.41656    156.84687    38369.369 
  482400    298.67227   -1575.3024    528.78808     303.1582   -98.713132    38369.369 
  482500    293.38456   -1530.4865    512.98108    308.27246   -697.27858    38369.369 
  482600    295.80465   -1500.6865    513.75619    349.78367   -747.28713    38369.369 
  482700    301.03488   -1495.5074    521.65469     386.4962   -806.30734    38369.369 
  482800    302.27793   -1464.9249    509.99315    411.03446   -494.45244    38369.369 
  482900    299.80455   -1482.0519    490.56168    363.29898   -898.54304    38369.369 
  483000    306.00158   -1482.4658    528.99631    429.32353   -1098.6986    38369.369 
  483100    297.82308   -1497.8362    483.34865    331.34754   -810.55607    38369.369 
  483200    299.09286   -1499.9599    483.70386    335.31711   -908.25606    38369.369 
  483300    304.53417   -1496.8703    513.32978     392.6214   -724.27689    38369.369 
  483400    295.41875   -1528.5158    489.67349    296.12783   -491.86131    38369.369 
  483500    300.66305   -1521.7306    490.96895    327.90706   -425.60538    38369.369 
  483600    294.70755   -1499.2641    506.53952    339.03174   -296.65899    38369.369 
  483700    304.01247   -1487.8279    521.76661    407.74305    -535.1902    38369.369 
  483800    297.62592   -1499.1201    526.92531    372.74941   -171.48747    38369.369 
  483900    305.47111   -1515.0115       507.12    372.50434    252.74901    38369.369 
  484000    284.42997   -1505.4866    510.53647    290.36272    227.44199    38369.369 
  484100    303.32133   -1497.7839    506.82842    379.72574    298.41317    38369.369 
  484200     292.9614   -1511.7003      497.904    310.06927    20.513727    38369.369 
  484300    309.04615    -1483.671    527.53833     440.4184    766.72687    38369.369 
  484400    299.25797   -1497.9441    497.65667    352.03181    458.70035    38369.369 
  484500    291.45851   -1516.1244    521.16483    322.11468    20.847378    38369.369 
  484600    302.87423   -1529.5557    509.77326    348.87838    157.39881    38369.369 
  484700    294.01125     -1537.29    508.59949    299.91932    114.26245    38369.369 
  484800    311.92782   -1540.7115    490.50901    359.37063     215.1326    38369.369 
  484900    299.52066   -1521.0071     511.7501    344.24926    346.62238    38369.369 
  485000    295.04837   -1479.9467    504.68426    358.03405     105.7971    38369.369 
  485100    296.73269   -1486.0895    508.04777    362.86597    6.2095709    38369.369 
  485200    272.78367   -1530.6214    543.43669    245.49955     311.5572    38369.369 
  485300    304.91936   -1520.9895    489.52218    346.43519    584.68965    38369.369 
  485400    304.82907    -1542.982    491.21183    325.72435    265.13003    38369.369 
  485500     299.8169   -1514.3416    500.14175    340.64511   -166.89205    38369.369 
  485600    301.67974   -1538.4693    476.03675    300.83043    49.272978    38369.369 
  485700    307.14546   -1504.5886    514.16325    397.53677    304.47827    38369.369 
  485800    303.79809   -1580.3135    483.49304    276.01517    -346.3032    38369.369 
  485900    310.95746   -1556.0261    498.92201    348.08414    157.22023    38369.369 
  486000    290.15507   -1553.1479    512.59376    270.62989    86.153966    38369.369 
  486100    301.70236    -1550.506    500.90489    313.76412    365.77929    38369.369 
  486200    304.80204   -1524.8328    506.94384    359.48344     274.6546    38369.369 
  486300    299.25308   -1531.0715    500.12998    321.35565    370.16131    38369.369 
  486400    312.07523   -1534.1178    510.73645    386.85793    244.34988    38369.369 
  486500    300.70453   -1543.2234    469.82347     285.4562   -66.520589    38369.369 
  486600    308.12691   -1517.5652    494.31233    369.14431    68.399984    38369.369 
  486700    299.71879   -1545.4506    523.17102     332.1221    763.17369    38369.369 
  486800    308.45327   -1558.7573    501.37176    336.48645    471.99391    38369.369 
  486900    295.20904   -1477.6157    496.54761    352.95447    259.42925    38369.369 
  487000    297.92222   -1557.6822    516.20853    304.80949    894.73076    38369.369 
  487100    289.36108   -1543.9992    514.95794    278.55487    592.45204    38369.369 
  487200    299.80127   -1534.3645    489.07927    309.48913    74.775334    38369.369 
  487300    291.86971   -1503.9384    495.62086    310.61478   -24.180827    38369.369 
  487400    295.13285   -1475.5049     511.5768    369.75013     575.5865    38369.369 
  487500    306.50834    -1466.441    484.66011    403.30212    396.91605    38369.369 
  487600    290.76278    -1462.523    500.11335    351.52061    172.96844    38369.369 
  487700    295.99534   -1533.3747     502.2843    306.48532   -36.799726    38369.369 
  487800    294.81364   -1526.1016    482.55235    288.68652     221.4548    38369.369 
  487900    297.66171   -1529.4938    483.93771    299.54975    264.32491    38369.369 
  488000    296.32902   -1513.5075    511.71456    337.29063    567.06658    38369.369 
  488100    293.33892   -1516.8655    503.22605    311.93215    509.95364    38369.369 
  488200    300.01324   -1494.7152    488.51877     349.5358     -2.65259    38369.369 
  488300    304.36486   -1472.7134    530.41474    433.09818    -2.410832    38369.369 
  488400    305.14281   -1501.6375    489.18917    366.46393   -54.732973    38369.369 
  488500    307.53088   -1521.8789    506.90967    374.73457    86.773369    38369.369 
  488600    302.26111   -1538.8218    483.93626    311.00459     326.2574    38369.369 
  488700    304.91893   -1557.3119    498.76724    319.35594   -61.371075    38369.369 
  488800    286.10089   -1549.8703     470.2831    213.27641    84.966784    38369.369 
  488900    299.40583    -1542.942    492.73297     302.7784    434.59385    38369.369 
  489000    302.20051   -1533.4914    495.70036    327.82531    30.910386    38369.369 
  489100    293.95493   -1518.0031     485.8285    296.18076    58.977354    38369.369 
  489200    298.68202   -1506.4956    521.11756    364.33854    134.05386    38369.369 
  489300    302.87979   -1538.1504    485.80456    316.34006   -285.97555    38369.369 
  489400    306.86828   -1496.8689    507.91361    397.75421    201.41109    38369.369 
  489500    288.30672    -1531.139    504.40508    276.09763   -359.18632    38369.369 
  489600    298.62383    -1527.077    525.69829    348.07496    124.73258    38369.369 
  489700    311.97562   -1547.5907    483.32695    345.52543   -586.32044    38369.369 
  489800    292.04208   -1557.6998    477.80582    239.81731   -107.07507    38369.369 
  489900    310.49998    -1544.094     488.7898    347.81667    220.60955    38369.369 
  490000    304.85121   -1544.2401    472.60505    305.95955    305.02785    38369.369 
  490100    299.91047   -1566.2002    490.82849    279.89607    202.19062    38369.369 
  490200    292.86976   -1563.9905    498.63199    258.09297    -141.3474    38369.369 
  490300    297.26042    -1523.757     490.2325    309.76803   -205.13855    38369.369 
  490400    296.69316   -1521.4021    524.85515    344.18219   -126.13269    38369.369 
  490500    300.49355   -1500.5185    493.10221    350.48644   -389.77548    38369.369 
  490600    295.22314   -1492.2049    508.61286    350.49423   -35.177882    38369.369 
  490700    298.93142   -1528.8221    525.89077    347.91224    56.031044    38369.369 
  490800    285.06337    -1460.649    497.43854    324.96463   -168.63871    38369.369 
  490900    298.19778   -1446.6868    530.34562    431.18716   -571.84078    38369.369 
  491000    302.63379   -1463.5142      510.631    414.69107   -296.60296    38369.369 
  491100    297.46852   -1453.1361    501.30774    392.40449    67.783118    38369.369 
  491200    308.28041   -1486.3752    498.37618     405.0918    510.33108    38369.369 
  491300    306.28048   -1528.4262    520.87318    376.50035    316.75455    38369.369 
  491400     294.4997   -1516.8814    516.91186    330.84751    462.92456    38369.369 
  491500     299.1007   -1494.8625    512.51425    369.26032    469.55756    38369.369 
  491600    293.84362   -1485.5361    501.85169     344.1679    50.230273    38369.369 
  491700    293.43868   -1505.6015    521.20588    341.62681    463.99959    38369.369 
  491800     297.7534   -1514.6087    500.73475    331.64634    317.87849    38369.369 
  491900    303.70615   -1523.0068    512.23862    361.65199    61.658525    38369.369 
  492000    302.16371   -1548.2458     513.8612    331.06546    46.111343    38369.369 
  492100    304.84749   -1538.6911    493.54508    332.43176    587.15163    38369.369 
  492200    306.12584    -1543.858     526.8166    366.31309    510.03959    38369.369 
  492300    303.49037   -1512.9982    488.36796    346.81479    199.12988    38369.369 
  492400    298.98706   -1504.9317    520.06567    366.22896   -154.34585    38369.369 
  492500    291.38683   -1510.0303    497.09991    303.81993    28.466002    38369.369 
  492600    295.42377    -1504.662    512.03852    342.36943   -87.509449    38369.369 
  492700    298.63954   -1510.3336    478.45097    317.64197    113.40729    38369.369 
  492800    293.85253   -1529.2992    492.11905    290.71244   -31.935762    38369.369 
  492900    300.83068   -1521.3466    503.74977    341.82939    38.112754    38369.369 
  493000    302.90889   -1528.6576    491.45218    331.61195    163.68454    38369.369 
  493100    302.40843   -1526.0599    488.44462    328.94057   -19.948414    38369.369 
  493200    302.61506   -1504.4545    492.81564    355.85079    96.883077    38369.369 
  493300    293.46088   -1518.7635    512.60031    319.95954   -16.176854    38369.369 
  493400    306.65338   -1527.9706     506.8852    364.65302   -97.393185    38369.369 
  493500    304.69954   -1528.2724     502.5866    351.22338    117.67253    38369.369 
  493600    300.39039   -1550.5514    498.67173    305.55687    117.20044    38369.369 
  493700    294.84429   -1540.2818    488.12351    280.21599    91.670804    38369.369 
  493800     306.2012   -1551.4472    490.29608    322.54394    440.17169    38369.369 
  493900    297.66831   -1499.4064    499.76938    345.49867    13.569361    38369.369 
  494000    303.32274   -1455.0837    511.70918    427.31306   -170.22659    38369.369 
  494100    304.79072   -1498.9158    504.44102    382.84646    102.45463    38369.369 
  494200     301.3777   -1438.1656    508.08578    431.81831    393.71261    38369.369 
  494300    309.81865    -1428.722     505.9497    477.26971   -247.32373    38369.369 
  494400    291.87996   -1457.8707     513.0396     374.1476   -520.83309    38369.369 
  494500    289.76329    -1436.798    501.01764    373.63327   -739.03777    38369.369 
  494600    300.81631   -1452.8333    507.26614    413.79406    1.2902487    38369.369 
  494700    306.06415   -1464.8395    517.12317     435.3594   -37.414384    38369.369 
  494800    295.54565   -1475.6494     486.8011    346.69528   -144.27859    38369.369 
  494900    304.48724    -1493.382    532.98896    415.55677   -315.97479    38369.369 
  495000    294.06368   -1482.1953    493.38537    340.03681   -176.16788    38369.369 
  495100    300.70772   -1473.5572    498.12593    383.43927   -582.72441    38369.369 
  495200    304.23677   -1492.6291    501.57393    383.76279   -203.53802    38369.369 
  495300    305.38291   -1456.2182    506.96794    430.74704   -124.75576    38369.369 
  495400    297.86265   -1474.7015    534.42589    405.73836    113.79605    38369.369 
  495500    301.91548   -1452.9861    534.46984    445.81204    789.80548    38369.369 
  495600    294.33637   -1468.3884    488.06323    349.75385    1020.1686    38369.369 
  495700    301.82814   -1477.2027    507.96684     394.6977    88.421952    38369.369 
  495800    304.20197   -1496.0687    494.68852    373.28051     435.6485    38369.369 
  495900    322.16961   -1536.2767    501.30766    420.88587    203.48885    38369.369 
  496000    299.42287   -1490.4894    501.20094    363.77597    632.15435    38369.369 
  496100    305.27969   -1471.8478    526.61853    434.30152    651.01428    38369.369 
  496200    291.52964   -1519.9127     491.6726    289.15549    836.29641    38369.369 
  496300     297.9147   -1535.8006    495.57981    306.02829    720.30701    38369.369 
  496400    303.95481   -1512.7409    507.83712    368.64001    199.67529    38369.369 
  496500    296.00012   -1513.1268    535.76113     360.2317   -107.36865    38369.369 
  496600    301.99763   -1511.3068    529.89673    383.28947    -33.29629    38369.369 
  496700    302.21225   -1507.1235    515.42331     373.9692    6.0020753    38369.369 
  496800    297.09577    -1485.946    506.19727     362.7997    -426.3033    38369.369 
  496900    307.27172   -1515.5356    498.44854     371.4456   -572.04235    38369.369 
  497000    288.84334   -1494.3211    510.85166    321.78709   -696.63258    38369.369 
  497100    309.43985   -1506.5061    508.17405    399.99817   -154.04947    38369.369 
  497200    289.88681   -1427.7813    530.78211    412.97267   -101.93222    38369.369 
  497300     299.2148   -1490.7495    517.46691     378.8416    111.90944    38369.369 
  497400    298.00158    -1452.985    510.10096    403.75772   -74.952548    38369.369 
  497500    298.21684   -1499.5037    503.32331    351.43406    41.298569    38369.369 
  497600    295.64933   -1495.6669    506.56079    346.90603    -676.0649    38369.369 
  497700    306.88884   -1517.8117    516.82394    385.81472   -148.19099    38369.369 
  497800     294.8179   -1538.6772    522.58417    316.16195    96.582894    38369.369 
  497900    303.36349   -1543.0154    482.78626     310.6426    390.83702    38369.369 
  498000    305.34068   -1488.5875    508.09725    399.31621    119.42559    38369.369 
  498100     297.5139    -1523.682    524.61433    345.37029   -93.236714    38369.369 
  498200    299.79313   -1539.7574     489.2298       304.21    238.30426    38369.369 
  498300    287.97524   -1501.8893    507.82328    307.26767    225.18788    38369.369 
  498400    298.75831   -1538.9741    526.13989    337.22713    511.17927    38369.369 
  498500    300.54034   -1537.9208    497.53629    317.72969    413.28751    38369.369 
  498600    309.33376   -1475.4157    512.54401    434.97917    1168.3528    38369.369 
  498700    297.70539   -1491.7063    534.46242    388.05936    567.09875    38369.369 
  498800    289.60162   -1501.7353    506.41993    313.36769    354.85413    38369.369 
  498900    304.76498   -1486.3259    504.09686    394.97593    490.55885    38369.369 
  499000    309.00833   -1481.8395    512.69825    427.23894    194.77311    38369.369 
  499100    302.07319   -1470.3509    539.86452    434.55457    614.46778    38369.369 
  499200    292.87555   -1483.0083    502.88669    343.35609   -9.9512688    38369.369 
  499300    296.53047   -1503.4647    529.15432    365.68357     282.9924    38369.369 
  499400    303.29886   -1526.2966    505.56763    349.85067   -37.134872    38369.369 
  499500    301.37382   -1522.6628    520.81488    360.03268   -172.18685    38369.369 
  499600     309.2983   -1511.6345    513.87434    399.93041    228.48932    38369.369 
  499700    300.21521   -1499.9001    490.19387    346.93873    415.74311    38369.369 
  499800    308.99442   -1538.3308    520.51613    378.50267   -89.515917    38369.369 
  499900     300.5479   -1509.2988     502.6796    351.52913    315.02191    38369.369 
  500000    313.84308   -1520.6658    530.32093    427.88314    342.03978    38369.369 
  500100    301.01269   -1513.9757    530.79557    377.06853   -356.95207    38369.369 
  500200    295.33908   -1497.3482    488.51494    325.77693   -117.47175    38369.369 
  500300    305.20889    -1547.324    505.85949    337.74641   -645.26583    38369.369 
  500400    300.02733   -1535.4551    504.44919    324.79005   -625.94597    38369.369 
  500500     306.2255   -1497.4136    510.51581    396.90703   -207.74982    38369.369 
  500600    290.17253   -1533.7748    523.78541    301.27361   -814.78521    38369.369 
  500700    315.95928   -1531.1283     497.5344    394.19699     100.0181    38369.369 
  500800    303.16985   -1514.8752    501.72909    356.85059   -766.07503    38369.369 
  500900    307.64279   -1508.3365    513.62462    395.49761   -564.15479    38369.369 
  501000    297.73573   -1502.5555    492.12802    335.01289   -1229.1195    38369.369 
  501100    302.81071    -1485.479     518.9948    401.88958   -1176.0424    38369.369 
  501200    311.87416   -1489.5422    498.16163    417.95011   -1101.8535    38369.369 
  501300    309.12624   -1478.8071      495.029     413.1349   -759.09932    38369.369 
  501400    304.09755   -1499.2218    509.80407    384.77119   -444.06826    38369.369 
  501500    307.16631   -1506.8054    503.87169    385.12258   -494.42548    38369.369 
  501600     311.2463   -1500.7464    492.67583    398.42286   -296.27435    38369.369 
  501700    295.94936   -1528.0441    498.19282    307.51659    137.62469    38369.369 
  501800    295.07335   -1499.3675    507.85566    341.89749    8.1504759    38369.369 
  501900     304.6353   -1473.1658    511.29213    414.74522   -600.37489    38369.369 
  502000    305.54135   -1499.7377      511.799    392.77452    238.47085    38369.369 
  502100    306.96301   -1523.5301    485.90992    349.51749    356.69739    38369.369 
  502200     312.7443   -1550.8175    487.49583    349.94105    416.30147    38369.369 
  502300    301.79193   -1548.8214    493.98087    308.92938    739.95096    38369.369 
  502400    300.49623   -1513.6096    524.87571    369.18094    717.77821    38369.369 
  502500    305.05275   -1524.8662    515.58996    369.22903    142.15585    38369.369 
  502600    295.57484   -1507.5564     489.8215    317.94064    304.44239    38369.369 
  502700    291.12492   -1499.9611    494.59037    310.19603    752.44399    38369.369 
  502800    298.31364   -1501.0776    520.83721    367.81154    37.448797    38369.369 
  502900     302.3451    -1480.637    526.26578    411.89846   -237.49684    38369.369 
  503000    296.51555   -1531.2262    531.56562    340.26589   -796.92994    38369.369 
  503100    292.04368   -1497.7445    536.23226    358.20634   -293.77693    38369.369 
  503200    295.45739   -1496.8364    511.38543     349.6938   -31.129578    38369.369 
  503300    301.32373   -1531.7707    501.37098     331.2545   -317.92704    38369.369 
  503400    299.35847   -1547.8836    506.27933    311.16911   -320.86168    38369.369 
  503500    295.73668   -1501.8947    520.73326    355.24542    372.37201    38369.369 
  503600    306.47316   -1486.4103    515.40053    413.91432    450.90778    38369.369 
  503700    303.51452   -1470.6237    502.02738    402.95787    276.70518    38369.369 
  503800    316.62387   -1503.9918    487.32151    414.12381    448.64091    38369.369 
  503900    303.52269    -1526.676    499.46491       344.38   -73.302039    38369.369 
  504000    301.13182    -1534.514    544.50077    370.77376   -66.283647    38369.369 
  504100    290.00525   -1516.1819    531.08985    325.41505     157.2717    38369.369 
  504200    302.71292   -1539.7566    512.42724    340.60249    346.11009    38369.369 
  504300    300.08241   -1552.8031    493.83139    297.07312    309.15891    38369.369 
  504400    305.40105   -1507.9351     529.7618    401.90599   -111.21225    38369.369 
  504500     300.8126   -1521.7499    491.99038    329.58495   -226.10147    38369.369 
  504600    293.28639   -1518.8184    500.34956    306.86537    170.21005    38369.369 
  504700    299.19157   -1562.0483    514.15309    304.12402    82.931414    38369.369 
  504800     298.7468   -1526.1202    504.36109    328.25019      -286.56    38369.369 
  504900    307.63962   -1537.9271     520.6533    372.92129     94.96444    38369.369 
  505000    299.42814   -1521.1005    532.29298    364.28075   -209.79356    38369.369 
  505100    304.75321   -1487.4816    505.80521    395.47533     6.871298    38369.369 
  505200    305.31788   -1472.7417    509.40328    416.36503    227.93208    38369.369 
  505300    299.58161   -1469.7857    507.72609    391.72218    295.53361    38369.369 
  505400    299.13249   -1499.7046    518.84738    370.89501     97.80242    38369.369 
  505500    292.91476   -1494.2372    536.92237    366.34008    536.27763    38369.369 
  505600    296.11864   -1436.2083    516.09546       418.02    132.24721    38369.369 
  505700    302.72805   -1479.4612    530.61423    419.15326    439.29559    38369.369 
  505800    313.50656   -1519.9179    522.21325    419.00269    820.88271    38369.369 
  505900    308.20949   -1504.9799    508.87138    396.66186   -93.965269    38369.369 
  506000    303.61428   -1496.8454    493.60684    368.76642   -499.75056    38369.369 
  506100    309.75083   -1513.3838    511.22666     397.5784   -248.70945    38369.369 
  506200     302.5863   -1496.2312    523.16069    394.28908    136.45109    38369.369 
  506300    299.38152   -1481.1803    494.04637    365.74362    22.090015    38369.369 
  506400    302.46182   -1470.3848    515.40182    411.81418   -35.814133    38369.369 
  506500    315.24292   -1493.7358    524.77296    455.59094   -208.25668    38369.369 
  506600    296.45653   -1511.5906    476.06773    304.13691    58.160307    38369.369 
  506700     295.2034   -1549.1472    553.42662    338.27648    94.863514    38369.369 
  506800     305.5733   -1543.5828     490.8998    328.17464    307.90664    38369.369 
  506900     304.8847   -1547.5998     522.0818    352.22787   -101.21275    38369.369 
  507000    299.76949   -1534.2721     508.2934    328.65209   -120.83317    38369.369 
  507100    305.16983   -1497.3081    521.22287    402.94915   -90.156811    38369.369 
  507200    300.56893    -1560.944    494.21537    291.51474   -392.99286    38369.369 
  507300    295.14797   -1536.6049    502.88373    300.02533   -872.46272    38369.369 
  507400    301.72803   -1526.6352    509.98042     346.8265   -767.24334    38369.369 
  507500    293.80317   -1499.5334    472.03213    300.16821   -335.73609    38369.369 
  507600    296.99323    -1469.635    528.69542    401.14551   -327.12211    38369.369 
  507700    303.73543   -1428.0894    537.29623    481.75928   -261.16752    38369.369 
  507800    294.57784   -1455.0993     538.1329    414.20375   -137.34102    38369.369 
  507900    301.69561   -1481.3209    513.13491    395.14875     143.3214    38369.369 
  508000    291.76867   -1477.1071    515.20872    356.57743    721.08876    38369.369 
  508100    296.04243   -1506.1154    518.46598    350.13905    26.605016    38369.369 
  508200    307.48423   -1495.6829    505.87573    399.68578    220.58257    38369.369 
  508300    303.43496    -1482.791    518.94959    407.35326    156.20872    38369.369 
  508400    298.06356   -1469.0955     513.6111    391.43741   -126.17035    38369.369 
  508500    295.23792    -1503.788    518.36625    348.73128    537.68006    38369.369 
  508600    295.22132   -1459.4337    538.25419    412.89851   -166.93203    38369.369 
  508700    285.13339   -1498.2223    503.69696     293.9662   -416.66603    38369.369 
  508800    308.40411   -1465.1123    530.24505    458.78259   -423.17249    38369.369 
  508900    308.07758   -1460.8431    496.10068    427.43185   -119.33644    38369.369 
  509000    305.52474   -1446.0612    534.25059    468.82758    449.14715    38369.369 
  509100    297.78939    -1430.055    542.79233    458.42022    294.51095    38369.369 
  509200    311.46976   -1480.6676    527.68774    454.52336    87.246108    38369.369 
  509300    293.49526   -1488.2217    511.46339    349.51984    197.71796    38369.369 
  509400    293.76485   -1500.7454     493.0663    319.81726   -183.42365    38369.369 
  509500    295.67455   -1434.1858    527.36509     429.3054   -659.89151    38369.369 
  509600    311.64619    -1469.249    520.82841    459.87989    166.45753    38369.369 
  509700    282.55746   -1478.1623    516.91435    315.60323    132.26419    38369.369 
  509800     312.8505   -1505.7235    509.62735    417.64646   -467.85063    38369.369 
  509900     306.4346   -1496.3921     510.3856    398.74327   -451.36577    38369.369 
  510000    303.53264   -1474.8152    494.65591    391.47673   -301.87036    38369.369 
  510100    305.80857   -1495.4253    488.27033    374.76579    -94.51115    38369.369 
  510200    296.75347   -1521.5491    491.24788     310.7004   -483.44676    38369.369 
  510300    291.66594   -1558.1437    502.56804    262.43593   -29.575532    38369.369 
  510400    300.52536   -1546.5552    502.13403    313.62527    226.00021    38369.369 
  510500    305.93449   -1498.6541    506.99414    390.82985    506.81598    38369.369 
  510600    289.87095   -1477.1702     514.2989    347.02885    71.308011    38369.369 
  510700    298.02919   -1481.9871    517.17146    381.95087    190.82413    38369.369 
  510800    300.63661   -1494.3126    498.07968    362.31629    59.296153    38369.369 
  510900    289.69757    -1453.042    521.00497    377.07964   -116.17662    38369.369 
  511000    297.63057   -1506.5618    510.04562    348.44899   -123.66931    38369.369 
  511100    297.05214    -1510.948    520.65767    352.06103    412.52662    38369.369 
  511200    304.74208   -1509.2986     498.3136     366.1164    25.511868    38369.369 
  511300    304.06142    -1494.522     496.3102    375.81385    160.19905    38369.369 
  511400    302.73292   -1513.8408    507.49497    361.67638    513.20074    38369.369 
  511500    285.59321   -1526.1314    493.92998      258.368     694.2842    38369.369 
  511600    299.16167   -1524.3388    508.24921    335.79444     877.8916    38369.369 
  511700    284.26232   -1526.3308    518.23619    276.46068     462.6903    38369.369 
  511800    291.85714   -1498.7963    543.81355    363.89278    783.68776    38369.369 
  511900    308.01691    -1499.753    490.62248    382.76958    488.89666    38369.369 
  512000    293.31671   -1502.7775    493.19841    315.89218    315.73842    38369.369 
  512100    306.49539   -1494.0301    524.95752    415.95193      241.236    38369.369 
  512200    303.05596   -1495.2292    535.35526    409.60803    265.74937    38369.369 
  512300     294.1928   -1493.0325    521.72126    358.11899    124.12265    38369.369 
  512400    294.10445   -1451.8676    526.62228    403.78565   -196.71233    38369.369 
  512500    297.86023   -1495.2335    514.28819    365.05768   -431.70345    38369.369 
  512600    297.12325   -1500.8215    527.05538    368.90654   -443.79308    38369.369 
  512700    295.21604   -1484.3924    504.18272    353.84448   -253.06073    38369.369 
  512800    294.62495   -1503.5255    496.42592    324.28344   -409.70892    38369.369 
  512900    294.38869    -1541.811    510.94825    299.45267   -625.80302    38369.369 
  513000    298.72087   -1484.9581    524.41529    389.34932   -391.91578    38369.369 
  513100    312.17277   -1501.8611    530.25707    439.07598     214.2258    38369.369 
  513200    299.35092   -1476.8629    523.87629    399.75264   -268.63777    38369.369 
  513300     301.7225   -1467.6522    510.93638    406.74042    -490.4257    38369.369 
  513400    287.12312   -1477.4185    505.10285    325.16738   -691.07559    38369.369 
  513500     302.3565   -1477.4867    513.51984     402.3544     555.6713    38369.369 
  513600    305.42466   -1475.8848    514.09503    418.39622   -40.951567    38369.369 
  513700    300.52122   -1497.8171    506.76511    366.97581   -185.56013    38369.369 
  513800    301.75981    -1505.234    510.03689    368.42769   -24.089046    38369.369 
  513900    300.81849   -1506.5724    521.20181    374.00052   -320.02296    38369.369 
  514000    309.06503   -1477.7862     506.9937    425.84398   -274.15394    38369.369 
  514100    291.28267   -1485.7374    507.22987    337.77206   -200.58063    38369.369 
  514200    299.69505   -1438.1127    529.93969    446.12131   -15.983349    38369.369 
  514300    289.02831   -1501.0421    492.93372    297.98401   -374.56846    38369.369 
  514400    301.18419   -1485.0722    511.32993    387.28134   -36.630024    38369.369 
  514500    299.74016   -1468.9295    515.75005    401.31882    184.97901    38369.369 
  514600    299.44579   -1463.3503    516.83734    406.65502   -328.29834    38369.369 
  514700    303.10216   -1462.4803    539.65063    446.86111    212.30949    38369.369 
  514800    295.25192   -1470.2037    499.95254    363.96513   -57.005713    38369.369 
  514900    299.14578   -1481.9745    505.29282    375.13063    340.62074    38369.369 
  515000    299.03229   -1450.4227    515.23688    416.11365    204.11679    38369.369 
  515100    293.82165   -1453.6524    548.44481    422.54546    38.287153    38369.369 
  515200     312.8734   -1503.1388    510.74044    421.44779   -40.123164    38369.369 
  515300    296.45655   -1476.4027      529.226    392.48319   -1.2120065    38369.369 
  515400    297.47142   -1462.5378    534.44463    416.15289    176.91074    38369.369 
  515500    299.69576   -1475.8658    522.20737    400.63915    345.27943    38369.369 
  515600    299.54342   -1489.5368     513.9664    378.03882    309.39198    38369.369 
  515700    301.29118   -1509.1294    494.18732    346.56502    626.92275    38369.369 
  515800    294.19653   -1498.4618    526.82753    357.81279    105.78978    38369.369 
  515900    299.88276   -1447.4206    503.72666    411.44863   -6.9682227    38369.369 
  516000    304.45073   -1490.2639    515.85481    401.37573    539.54918    38369.369 
  516100    293.02022   -1454.0701    520.35913    390.42049    770.82767    38369.369 
  516200    293.55239   -1480.0148    526.77645    373.29796    305.69118    38369.369 
  516300    300.53077   -1509.8057     521.9817    370.24687    727.87089    38369.369 
  516400    296.24613   -1475.4739    518.64058    381.87569    205.72527    38369.369 
  516500    299.86547   -1466.8259    510.02376    398.26237    295.25093    38369.369 
  516600    305.33222   -1487.8969    520.67647    412.54777    790.53168    38369.369 
  516700    289.89139   -1510.1873    502.46297    302.26815    158.59697    38369.369 
  516800    291.10995   -1435.8576    525.04307    404.68457    726.93675    38369.369 
  516900     312.6786   -1459.6327    517.97723     471.3104    548.06061    38369.369 
  517000     306.2338   -1463.3855    516.09229    436.54921    129.36894    38369.369 
  517100     285.7174   -1476.1953    541.48009    356.41539   -403.60777    38369.369 
  517200    294.09363   -1480.7614    491.35099    339.57164    50.054019    38369.369 
  517300    298.80597   -1471.2152    493.96128     373.0228    72.779497    38369.369 
  517400      300.032   -1480.5334    522.46103    397.74468    130.19571    38369.369 
  517500    297.69113   -1474.0153    501.74608    372.96959    551.22707    38369.369 
  517600    302.71225   -1445.4182    524.32266     446.8333    23.186179    38369.369 
  517700    297.89279    -1434.851    516.77605     428.0751   -843.98284    38369.369 
  517800    291.40339   -1436.6576    532.36925    412.53674   -406.65911    38369.369 
  517900    307.40667   -1497.1774    509.93856    401.90367    102.60381    38369.369 
  518000    293.91846    -1521.055    508.91121    316.04667   -367.91239    38369.369 
  518100    307.43869   -1524.9107    493.98507    358.36158   -235.44809    38369.369 
  518200    309.02321   -1547.7153    497.90631    346.63851   -332.95185    38369.369 
  518300    294.79513   -1572.2572     491.5865    251.48133   -143.55035    38369.369 
  518400    302.47117   -1526.0712    485.49175    326.25993    546.05954    38369.369 
  518500    302.47293   -1509.8905    526.56436    383.52119    672.84856    38369.369 
  518600    295.72606   -1504.3292    539.29523    371.32487    372.70165    38369.369 
  518700    300.24655   -1534.3425    508.49479    330.93882    36.233402    38369.369 
  518800    296.29724   -1496.2111    519.96171    362.69055    298.41809    38369.369 
  518900    299.75716   -1504.7154    499.14879     349.0084     121.7398    38369.369 
  519000    298.96127   -1534.5333    504.21178    320.65694    -267.6552    38369.369 
  519100    304.18064   -1510.9592    499.59728    363.20241   -457.17474    38369.369 
  519200    294.55315   -1524.3171    492.39496    299.13641   -437.99646    38369.369 
  519300    304.93762    -1549.491     499.7538     328.2479   -582.34321    38369.369 
  519400    297.91604   -1577.4928    496.42299    265.18537    233.56677    38369.369 
  519500    295.81348   -1585.0011    493.04609    244.79894    395.41745    38369.369 
  519600    310.80166   -1559.0539    506.78791    352.21812    943.47324    38369.369 
  519700     294.9414   -1521.8246    508.95811    319.94657    252.51481    38369.369 
  519800    296.43898   -1550.0546    509.40497    298.93089    23.129294    38369.369 
  519900    300.94012   -1527.2721    492.82995    325.47855     441.4868    38369.369 
  520000    305.34327    -1491.722    534.35659    422.45277   -7.8758675    38369.369 
  520100    310.30204   -1499.9293    503.64382    405.94091   -22.297632    38369.369 
  520200    292.71826   -1539.8946    483.51691    266.38926   -458.60315    38369.369 
  520300    295.45237   -1545.3181    494.25354    284.05751   -59.664323    38369.369 
  520400    297.45576   -1478.9373    493.58151    358.81951   -38.753761    38369.369 
  520500    296.33668   -1518.9065    480.97645    301.18813   -325.43806    38369.369 
  520600    297.82388   -1513.7838    483.52691    315.58183    23.583638    38369.369 
  520700    301.59901   -1493.8705    482.94535    351.97304   -428.47954    38369.369 
  520800    297.59759   -1489.3879    508.35299    363.78128   -256.88526    38369.369 
  520900    302.24816   -1475.9947    530.11982    419.95678    -373.3906    38369.369 
  521000    295.88237   -1461.9394    504.27175    379.39761   -24.906331    38369.369 
  521100    291.26165   -1465.9866    507.01662     357.2146   -717.47357    38369.369 
  521200    301.12293   -1476.6385    491.70636    375.81465   -761.71081    38369.369 
  521300    298.77925   -1475.5726    504.99388    379.57726   -784.74808    38369.369 
  521400    297.07847   -1499.8276    493.07017    335.71284    -624.4725    38369.369 
  521500    296.23326    -1455.524    501.08283    384.20967   -825.41245    38369.369 
  521600     301.5052   -1449.9077    508.75277    421.31937   -915.85996    38369.369 
  521700    312.80414   -1451.1766    512.16157    474.51811   -484.95724    38369.369 
  521800    293.06016   -1461.6233     520.5141    383.20272   -147.00936    38369.369 
  521900    301.96471   -1432.2784    511.03558    443.30796     242.1262    38369.369 
  522000    294.47477   -1491.7173    518.22031    357.20742   -58.883763    38369.369 
  522100    308.49007   -1475.4903    534.16263    452.71058   -38.799634    38369.369 
  522200    297.00442   -1519.8977    506.10143    328.33935   -43.637431    38369.369 
  522300    311.78316   -1462.3982    505.47501    451.99628    94.939424    38369.369 
  522400    299.73052   -1498.4048    499.43874    355.48861    338.34513    38369.369 
  522500    307.93491   -1509.0368    484.13807    366.63077   -592.93938    38369.369 
  522600    304.06574   -1510.5208     471.3463    334.87059   -392.07577    38369.369 
  522700     296.5049   -1516.2249    502.19745     325.8509   -570.28379    38369.369 
  522800     299.6263   -1507.9598     495.6194    341.64325   -376.84739    38369.369 
  522900     285.6052   -1492.7385    505.53655    303.42173   -470.97063    38369.369 
  523000    309.44969   -1505.0545    511.79691    405.11714     187.7651    38369.369 
  523100    297.00669   -1457.4187    519.36679    404.09397    410.18641    38369.369 
  523200    311.07187   -1492.6749    518.44807    431.47837    928.91123    38369.369 
  523300    304.72135    -1517.303    469.53927      329.244    1012.2389    38369.369 
  523400    287.80851   -1506.6021    538.21072    332.18875    752.06175    38369.369 
  523500    302.14155   -1506.6855    517.84623    376.51057    651.67453    38369.369 
  523600    297.72172   -1498.0776     490.3472    337.64672    170.80338    38369.369 
  523700    302.49184   -1472.0571    510.26676    405.14245    370.07631    38369.369 
  523800    301.01999   -1474.9932    512.78823    398.07664    160.53021    38369.369 
  523900    297.47796   -1506.4615    502.59622    340.41026   -6.0913713    38369.369 
  524000    300.38146   -1504.9529    513.04233    365.48567    245.30627    38369.369 
  524100      303.738   -1483.9633    517.40123    406.00201    290.21953    38369.369 
  524200    305.87616   -1499.5589     491.2789    373.94625    185.62652    38369.369 
  524300    306.61965   -1499.3613    483.86924    370.09397     748.6996    38369.369 
  524400    310.83194   -1509.7576    498.94899    393.81232    369.63568    38369.369 
  524500      292.623   -1514.7508    491.94237    299.52804    208.93426    38369.369 
  524600    295.96718   -1544.5983    489.57044    282.42061    261.07452    38369.369 
  524700    299.74381   -1514.1926    533.82165    374.14377    69.944429    38369.369 
  524800    292.08948   -1514.9451    506.64853    311.62894    3.4228914    38369.369 
  524900    308.43912   -1508.9706    494.12348    378.96093   -199.62277    38369.369 
  525000    304.01967   -1509.4808     518.1011    382.45726   -19.798805    38369.369 
  525100    310.23324   -1472.8506    507.78509    436.84992   -70.157165    38369.369 
  525200    303.31302   -1517.2567    510.24133    363.62829    270.32717    38369.369 
  525300    300.45827   -1483.0182    497.04657    371.77172     99.66046    38369.369 
  525400    303.27918   -1502.3325    501.73178    369.89005    300.87664    38369.369 
  525500    295.40412   -1465.4744    503.69464    373.12434    432.16447    38369.369 
  525600    302.22712   -1495.2136    496.67627     367.1992    368.63573    38369.369 
  525700    308.29731   -1483.3306    523.05359     432.8902    515.03995    38369.369 
  525800     289.4688    -1467.662    503.42493    343.84581     396.9069    38369.369 
  525900    288.72982   -1436.5972    551.28545    419.43174    299.88912    38369.369 
  526000    301.61512   -1489.6026     500.3092    373.67755    357.65172    38369.369 
  526100     305.7103   -1484.3986    545.72364    442.80177   -278.58518    38369.369 
  526200    302.80992   -1479.1568    495.64455    384.85798    252.87607    38369.369 
  526300    296.25908   -1480.2335    501.19926    359.73328    117.08503    38369.369 
  526400    300.37695   -1483.8794    527.55212    401.04852   -28.996039    38369.369 
  526500    305.87321   -1490.4075    504.84318     396.6486   -198.15612    38369.369 
  526600    310.19839   -1465.8736    503.57841    439.46281     324.3568    38369.369 
  526700    306.16688   -1495.1405    488.31016    376.70965   -720.62387    38369.369 
  526800    293.14306   -1458.5471    508.34423    374.48366   -488.64243    38369.369 
  526900    292.77925   -1458.8198    518.09394    382.31662   -628.56696    38369.369 
  527000    308.00096   -1474.5859    503.04358    420.28564   -224.28763    38369.369 
  527100    301.21676     -1476.35    502.92818    387.74903   -334.80249    38369.369 
  527200    306.71426   -1510.7351    485.71693     360.9954   -866.90713    38369.369 
  527300    301.19159   -1511.8117    506.14545    355.39087   -220.49936    38369.369 
  527400     308.3816   -1493.5287    482.23348    382.25281    420.61567    38369.369 
  527500    292.71663   -1458.4361    495.85295    360.17644    57.563946    38369.369 
  527600    299.99206   -1450.1884    498.53994    403.98807    118.01377    38369.369 
  527700    301.38915   -1431.2875       512.33    442.99237    519.08628    38369.369 
  527800    299.50261   -1473.1244     522.7398    403.04012    476.67203    38369.369 
  527900    305.69578   -1502.1753    506.19629    385.43209    211.75015    38369.369 
  528000    293.87442   -1466.3527    494.28184    355.92065   -299.79899    38369.369 
  528100    296.97762   -1472.5043    489.68024    359.19044   -494.23215    38369.369 
  528200    307.95114   -1411.5902    499.61259    479.62524    15.721029    38369.369 
  528300    293.70896   -1451.6841    514.80406    390.36368    23.983206    38369.369 
  528400     304.4853   -1468.8065    498.99359    406.12812    343.84903    38369.369 
  528500    303.08849   -1435.7072    505.67357    439.59542    384.57222    38369.369 
  528600    290.93596   -1482.7421     518.8877    350.85846   -73.498326    38369.369 
  528700    309.98461   -1477.2798    500.86402    424.37619    194.89099    38369.369 
  528800    305.03944   -1453.3979    472.78065    397.82794   -218.37919    38369.369 
  528900    300.46728   -1474.5512    507.31581    390.54867    136.72046    38369.369 
  529000     311.9185   -1445.0919    500.99723    465.43639    608.44478    38369.369 
  529100    293.44671   -1450.2272    500.52833    376.35979   -49.465137    38369.369 
  529200    298.98621   -1430.6028    506.50347    426.99183   -317.35093    38369.369 
  529300    298.27615   -1415.1848    489.46977     422.1675    209.60964    38369.369 
  529400    307.09419   -1416.1346    487.90398    459.49974    323.40275    38369.369 
  529500    302.68962   -1459.6943    501.36051    409.49281    190.87869    38369.369 
  529600    297.23889   -1438.9857    493.47762     397.6871   -127.19865    38369.369 
  529700    304.31246    -1465.757    509.54266    418.94569    136.84123    38369.369 
  529800    291.73539    -1468.883    484.44914    333.89148   -342.26138    38369.369 
  529900    300.32237   -1475.9809    509.29569      390.444   -132.56088    38369.369 
  530000    303.16662   -1465.2651    499.98118    404.69814    279.67182    38369.369 
  530100    291.59947   -1443.6802    492.69083    366.72185    245.23042    38369.369 
  530200     308.8405   -1449.7614    505.02962    450.89007    61.214936    38369.369 
  530300    297.32567   -1477.5674    490.21428    356.23426   -124.89553    38369.369 
  530400    297.98488   -1467.1856    512.23963    391.62029    -47.16317    38369.369 
  530500    305.41729   -1427.6299    502.78004     455.3028   -175.15574    38369.369 
  530600    293.36584   -1416.1436    502.82757    412.37723     11.42387    38369.369 
  530700    295.11892   -1453.6817    493.03013    372.96367    115.36351    38369.369 
  530800     308.3718   -1442.3902    523.29269    474.40635    642.07492    38369.369 
  530900    304.49858    -1452.894    489.08388      412.191    380.67576    38369.369 
  531000    292.78634   -1487.6757    507.02407    342.42293   -193.16667    38369.369 
  531100    297.74373   -1504.7831    496.68887    337.38228   -836.27177    38369.369 
  531200    312.47417    -1486.801     476.6896    401.93061   -177.05957    38369.369 
  531300    302.79855   -1498.2827    493.92153    363.95761   -363.38343    38369.369 
  531400    300.17704   -1522.6251    493.56493     327.4123   -188.57651    38369.369 
  531500    295.51862   -1459.1753     505.2685    381.51465   -328.05052    38369.369 
  531600    310.94823   -1480.2923    506.34254    431.19673   -366.52153    38369.369 
  531700     309.2212   -1489.7685     476.7244    384.29814    142.97082    38369.369 
  531800     297.8973   -1539.7061    512.40984    318.87423   -46.745155    38369.369 
  531900    297.38967   -1517.6627    499.46973    325.68361   -137.67051    38369.369 
  532000    291.94962   -1503.3175    487.93004    303.90602    429.95709    38369.369 
  532100    306.19023    -1494.203    513.66819    403.11065    268.92184    38369.369 
  532200    299.39557   -1520.8298    477.11082    309.22201    91.498113    38369.369 
  532300    315.27904   -1514.3945    529.22904    439.55158   -97.975527    38369.369 
  532400    300.35425   -1519.9134    500.88842    338.24824   -664.00723    38369.369 
  532500    293.78122   -1528.9382     471.2803    269.91246   -266.37779    38369.369 
  532600     305.6296   -1515.4618    499.16358    364.81386   -345.41183    38369.369 
  532700    303.71184   -1481.4558    538.78716    429.77724   -602.78673    38369.369 
  532800    302.72284   -1543.2195    497.65553    322.41272   -276.52083    38369.369 
  532900    300.92375   -1476.8808    516.12398    399.08989    321.69505    38369.369 
  533000    294.57366    -1513.316    501.71086    319.54613    14.826911    38369.369 
  533100     299.1084   -1521.5723    506.56403    336.63505   -376.03612    38369.369 
  533200    297.32225   -1504.4688    485.32272    324.42578   -585.27088    38369.369 
  533300    301.26963   -1529.6127    496.90203    328.69912   -573.40193    38369.369 
  533400    305.10812   -1469.2163    471.38825    380.92747   -537.96909    38369.369 
  533500    298.98545   -1513.0026    496.83343    334.91862    415.86914    38369.369 
  533600    294.48097   -1496.6149    497.20254    331.32006    126.31257    38369.369 
  533700    302.25925   -1470.8169    497.18585    392.25074    161.16765    38369.369 
  533800    300.37618   -1517.5897    489.65675    329.43933   -585.01982    38369.369 
  533900    306.88164    -1493.313    494.97739    388.43436    137.98478    38369.369 
  534000    297.29729   -1480.5026    499.48939    362.44589   -252.46142    38369.369 
  534100    305.51013   -1474.6014    510.52585    416.49667   -188.28366    38369.369 
  534200    299.97304    -1457.326    489.58346    387.80803   -336.99148    38369.369 
  534300    301.56016   -1522.8367    506.09916    345.98509   -197.32968    38369.369 
  534400    303.75009   -1487.4296    494.54018    379.72928    283.31365    38369.369 
  534500    304.77303   -1507.9101    491.77774    361.10899    196.97507    38369.369 
  534600    292.83798   -1548.5515    520.31157    295.06795   -262.68739    38369.369 
  534700    291.13647   -1530.8024    505.74635     290.5629    227.27624    38369.369 
  534800    300.91374   -1516.7245    487.74011    330.81711   -267.73591    38369.369 
  534900    301.94799   -1513.6195     500.6895     351.5452    342.15899    38369.369 
  535000    306.03688    -1527.553    466.26689    321.66645    1167.9666    38369.369 
  535100    295.89435   -1518.5067     527.3409     345.9536    33.691337    38369.369 
  535200    297.08596   -1473.7969    517.05177    385.75898   -57.840348    38369.369 
  535300    308.85678   -1552.3978    497.56678    340.86437   -54.397376    38369.369 
  535400    304.57606   -1519.7829     503.4178    359.98608    45.880064    38369.369 
  535500    304.43476   -1520.8101    489.88074    344.78331    212.08927    38369.369 
  535600    306.95158   -1567.7726    492.33327    311.64668    310.91405    38369.369 
  535700    296.43419   -1519.0869     506.0624    326.53435    620.91912    38369.369 
  535800    298.78904   -1499.9034    498.77298    349.06974    120.66717    38369.369 
  535900      299.268   -1540.7017    495.10674    306.76963    17.788008    38369.369 
  536000    305.99747   -1569.6877    491.31648    304.40325     52.36054    38369.369 
  536100    294.75211   -1552.4423    506.75998    286.27536    233.15718    38369.369 
  536200    297.82222    -1514.994    494.57291     325.4101    443.99706    38369.369 
  536300     290.4565   -1523.0066     500.9227    290.46235     330.6519    38369.369 
  536400    300.10372   -1536.6611    507.09646    326.57645    461.02293    38369.369 
  536500    299.44257   -1477.8303    494.34009     369.6632    841.30503    38369.369 
  536600    297.51225   -1472.5029    509.59688    381.52444    277.87126    38369.369 
  536700    296.57666   -1492.4329    495.43934    343.20909   -372.39259    38369.369 
  536800    308.09705   -1470.9797    512.85486    434.13741    303.52637    38369.369 
  536900    298.12881   -1469.4135    509.61272    387.41594    683.11328    38369.369 
  537000    305.90834   -1490.9519    519.34889    410.76866    928.66912    38369.369 
  537100    293.63957   -1457.1272    501.60512    371.40818    444.19577    38369.369 
  537200     315.5959   -1448.6818    499.35775    476.82477    601.74468    38369.369 
  537300    305.49186   -1468.3304    523.02038     435.1796    188.78043    38369.369 
  537400    304.86658   -1467.3113    504.09187    414.44465    218.13229    38369.369 
  537500    298.60497    -1494.452    483.67117    338.58755   -65.953245    38369.369 
  537600    298.73924   -1532.6784    502.53304     319.8298   -88.269798    38369.369 
  537700    304.07742   -1530.5824     518.6628    362.17833    310.43055    38369.369 
  537800    301.48171   -1498.3983    502.36957     366.3394   -67.656494    38369.369 
  537900    299.33231   -1531.5137    493.07197    314.21347    278.53226    38369.369 
  538000    295.83782   -1504.2916    518.41663    350.98889    162.60635    38369.369 
  538100    299.10461   -1478.0239      502.246     375.8483    412.78547    38369.369 
  538200    290.26267   -1501.5051    512.65567    322.82085    347.86613    38369.369 
  538300    290.73023   -1500.4674    506.68086    319.99664    117.39825    38369.369 
  538400    304.40069   -1490.4048    523.51852    408.67243    666.66893    38369.369 
  538500     292.3849   -1481.7203    501.85592    341.39605    41.081216    38369.369 
  538600    302.75348   -1492.2898    506.90576    382.73104     66.69725    38369.369 
  538700    292.87254   -1517.5965    517.97468    323.84226   -665.94745    38369.369 
  538800    302.73347   -1481.6998    507.23199    393.55691   -417.54465    38369.369 
  538900    305.72312   -1467.2292    483.14627    397.45173   -360.09424    38369.369 
  539000    295.51572   -1500.3003     523.1534    358.26145   -940.57558    38369.369 
  539100    293.22382   -1470.1697    514.03767    368.91948     406.1559    38369.369 
  539200    293.49773   -1479.7433    500.68195    347.22786    158.60849    38369.369 
  539300    297.05446   -1453.5387    542.46315    431.28625    367.94499    38369.369 
  539400    305.43995   -1465.9048    495.95567    410.30593    13.702624    38369.369 
  539500     293.1037   -1496.0819    509.23537    337.66217   -38.224723    38369.369 
  539600      306.475    -1484.762    526.82323    426.99351    725.29559    38369.369 
  539700    297.93584   -1557.3156    500.67224    289.70129    11.820433    38369.369 
  539800    300.40398   -1532.4119     500.1909    325.27693   -73.454054    38369.369 
  539900    300.26478   -1509.6176     504.0667    351.31801   -23.050559    38369.369 
  540000    302.90436    -1529.127     519.8072    359.47715    7.8360641    38369.369 
  540100    304.80255   -1548.7215    488.01418    316.66739   -186.93176    38369.369 
  540200    296.78703   -1555.6415    489.62834    275.14015    49.354468    38369.369 
  540300    297.85719   -1520.1736    525.33297    351.14865    242.20942    38369.369 
  540400    297.81949   -1537.3979    484.07441    292.49543    220.21494    38369.369 
  540500    294.05824   -1535.2561    518.00054    311.56658    364.19961    38369.369 
  540600    291.54049   -1525.3867    513.03734    305.09528    680.32647    38369.369 
  540700    307.87953   -1516.7574    488.46816    362.99007    773.77027    38369.369 
  540800    315.18928   -1547.7629    493.72054    370.26905    692.48048    38369.369 
  540900    301.13782   -1493.6474     495.5115    362.67819   -136.24091    38369.369 
  541000    295.36969   -1495.3551    489.08011     328.4735   -103.04603    38369.369 
  541100     296.9561   -1513.9567    491.61174    319.57229   -387.59454    38369.369 
  541200    298.02994   -1516.4093    490.61416    320.97473   -513.48535    38369.369 
  541300    299.75589     -1490.39     519.2594    383.43868   -393.85594    38369.369 
  541400    298.22857   -1570.6304    483.49544    260.53255   -7.7525756    38369.369 
  541500    296.44863   -1545.2289    476.83937    271.23453    192.95524    38369.369 
  541600    300.40852    -1531.447    490.24863    316.32007    216.79039    38369.369 
  541700    301.65386   -1540.9926    504.28863    326.44204    97.114376    38369.369 
  541800    299.87661   -1569.1191    526.74917    312.74488    273.27765    38369.369 
  541900    301.72694    -1504.035    495.99574    355.43703     270.1102    38369.369 
  542000    304.33326   -1513.9399    484.72743    346.04151   -204.27059    38369.369 
  542100    306.05685   -1463.0584    478.72207    398.70645    248.55737    38369.369 
  542200    307.65189   -1494.0643    489.66625    385.85251    612.68787    38369.369 
  542300    302.93012   -1513.2593    502.66886    358.32294    520.71297    38369.369 
  542400    305.27899   -1540.3719    467.00006    306.15578   -442.88331    38369.369 
  542500    314.25252   -1507.2455    500.73688    413.56964    108.90032    38369.369 
  542600    310.57289   -1520.2491    504.08471    387.28597   -141.58745    38369.369 
  542700    307.13113   -1513.4255    487.56998    362.04184   -782.65243    38369.369 
  542800    303.85251   -1504.3446    501.52019    370.25715   -597.14403    38369.369 
  542900    305.16439   -1481.2412    490.32078    388.08938   -616.72681    38369.369 
  543000    306.86236   -1487.3373    463.56262    362.90807    39.357613    38369.369 
  543100    306.99338   -1508.6697    470.22083    348.82599   -21.077384    38369.369 
  543200    299.89293    -1494.246     510.4345    371.37705    315.98194    38369.369 
  543300    293.81936   -1506.5042     499.2049    320.44335     368.1908    38369.369 
  543400    291.94945   -1510.3069    519.17191    328.15775    361.02283    38369.369 
  543500    304.70604   -1509.6944    477.26938    344.51362   -37.392344    38369.369 
  543600    299.09884   -1509.6764    480.65361    322.57733   -597.43486    38369.369 
  543700    296.77145   -1467.6093    508.58744    382.06101   -43.786084    38369.369 
  543800    304.00782   -1528.2384     506.3564     351.9014   -645.41522    38369.369 
  543900     305.6539   -1512.9851    504.19225    372.42907   -576.28922    38369.369 
  544000    303.98385   -1477.2172     505.4269    401.88477    39.655115    38369.369 
  544100    291.38039    -1482.112    495.97285    330.58208    125.54354    38369.369 
  544200    302.39908   -1505.1721    485.79195    347.13348    389.58427    38369.369 
  544300    304.42661   -1564.4184    522.58196     333.8394    315.44004    38369.369 
  544400    302.79633    -1529.434    493.82833    332.70307    606.28992    38369.369 
  544500    286.53104   -1542.3838    510.78785    263.21143     75.11577    38369.369 
  544600    310.32915   -1528.5145    475.41137    349.24571    59.090129    38369.369 
  544700    296.45757   -1545.3053    497.83469    292.19389   -717.29557    38369.369 
  544800    293.35159    -1561.476     497.5041    261.65696   -366.63541    38369.369 
  544900    295.87254   -1541.2447    497.34504    293.12109   -113.18362    38369.369 
  545000    302.49954    -1502.808    496.84711    361.00673   -421.12665    38369.369 
  545100    293.52095   -1532.1813    471.01337    265.22623    -613.3797    38369.369 
  545200    297.36135   -1566.0621    507.71331    285.39985   -407.87359    38369.369 
  545300    307.54917   -1552.2361    489.17996    326.73031    -266.5598    38369.369 
  545400    301.43053   -1525.9892     500.9233    337.07093    -250.5729    38369.369 
  545500    308.98353     -1540.18    498.00118    354.08939   -28.120347    38369.369 
  545600    296.20468   -1486.7046    501.58566    353.40277   -293.09387    38369.369 
  545700    304.97994   -1501.2901    526.98416    403.87032   -108.64246    38369.369 
  545800    305.87115   -1508.9487    481.43413    354.68904   -196.99366    38369.369 
  545900    302.31567    -1561.577    481.13557    285.69526   -346.19611    38369.369 
  546000    299.06307   -1496.1949    514.12867    369.37224   -189.84998    38369.369 
  546100     296.8453   -1491.2485    487.75692      337.925   -971.90441    38369.369 
  546200    290.52722   -1507.5482    504.90738    310.22502     -731.347    38369.369 
  546300    303.97362   -1520.1556    480.21619     333.6894   -529.53976    38369.369 
  546400      296.965   -1501.3118    511.15707    351.80277    -502.6557    38369.369 
  546500    303.17401   -1500.9331    478.83423    347.91657   -354.92777    38369.369 
  546600    295.49475   -1473.8999    497.35576    358.76946    178.31432    38369.369 
  546700    298.76753    -1478.641    519.87788    391.33989    417.29534    38369.369 
  546800    298.03296   -1509.3749    489.86422    327.27282    881.84161    38369.369 
  546900    303.22278   -1568.4658    500.30003    302.07008    511.55964    38369.369 
  547000    296.02238   -1513.2469     506.5627    331.01372    153.16807    38369.369 
  547100     292.6774   -1471.3373    500.09385     351.3388   -130.42152    38369.369 
  547200    297.88528   -1521.9862    502.73349     326.8635    225.50903    38369.369 
  547300    301.59785   -1502.6126    513.14526    373.42563     584.9425    38369.369 
  547400    300.49603   -1530.7094    503.88638    331.09086    322.96841    38369.369 
  547500    301.26436   -1509.8429    508.44794    359.99098   -159.54896    38369.369 
  547600    299.21528   -1444.8746    499.41152    406.66327    147.11734    38369.369 
  547700    295.58465   -1432.0559    527.06305    430.72702   -80.192903    38369.369 
  547800    301.11052   -1479.7407    530.23053    411.18057    300.31154    38369.369 
  547900    303.63823   -1464.5157    489.82967    397.42724    69.235467    38369.369 
  548000    310.52712   -1432.9635    533.79895    504.07898   -237.27758    38369.369 
  548100     289.7788   -1496.4705    488.48683    301.50004   -641.23746    38369.369 
  548200    309.03693   -1536.0471    524.93889    385.40128   -171.61779    38369.369 
  548300    289.98856   -1478.9361    515.60504    347.10059   -228.51792    38369.369 
  548400    299.31128   -1478.4411    520.49032    394.60935    107.86745    38369.369 
  548500    309.97073    -1488.139    494.54794    407.13816    473.81404    38369.369 
  548600      302.062   -1464.6166     520.8617    421.23547    135.45877    38369.369 
  548700    287.98008   -1466.1652    524.69098    359.88125    397.36785    38369.369 
  548800    298.46096   -1452.9089    501.97786    397.78656    338.05204    38369.369 
  548900    307.90012   -1422.4146    520.83382    489.79157    118.13533    38369.369 
  549000    300.70737   -1414.2652    507.16253    451.76631    66.271231    38369.369 
  549100    295.93705   -1398.6183    545.39557    484.08954    242.23848    38369.369 
  549200    301.85673   -1429.6042    498.53131    432.98994   -550.28453    38369.369 
  549300    300.43026   -1424.5772    518.52224    451.56177   -36.240771    38369.369 
  549400     301.5074   -1452.5387    498.50787    408.45338   -289.18168    38369.369 
  549500    301.16611     -1443.38    522.14091    439.70284   -352.92856    38369.369 
  549600    304.50723    -1435.723     505.0813    445.39842   -586.19174    38369.369 
  549700     294.3209    -1439.625    516.94752    407.33165   -167.04754    38369.369 
  549800    307.19478   -1425.1514    511.32537    474.35888    299.34548    38369.369 
  549900    291.78858   -1442.9368    528.94367     404.5727    703.53221    38369.369 
  550000    301.37679   -1440.2559    510.28431    431.92244     1114.044    38369.369 
  550100    308.10584   -1434.5233    499.99235    457.77107     580.6389    38369.369 
  550200    296.24745     -1467.53     510.1503     381.3353    503.30102    38369.369 
  550300    295.68425   -1406.2019    528.74858     458.7166    312.57655    38369.369 
  550400    296.45041   -1494.6369    497.42759    342.42283    390.79103    38369.369 
  550500    307.57958    -1476.528    489.37852    402.77433    522.63205    38369.369 
  550600     296.0732   -1498.2108    503.78088    343.49765    482.34502    38369.369 
  550700    292.82474   -1493.4945    489.02932    318.78292    528.51554    38369.369 
  550800    297.79795   -1483.8655    490.78797    352.64404   -110.33955    38369.369 
  550900    303.88116   -1430.0221    512.41178    455.60069    227.93613    38369.369 
  551000    307.46699   -1462.5911     524.9729    451.79687    74.050131    38369.369 
  551100    292.01916   -1480.6635    491.39592    330.34012   -98.382113    38369.369 
  551200    297.88242   -1485.2843    506.18259    367.00155    136.44488    38369.369 
  551300    314.33092   -1419.5061    502.94703    503.87346    650.07971    38369.369 
  551400    301.52903   -1458.7408    473.77804    377.61916    224.46642    38369.369 
  551500    307.49072    -1443.617    498.76671    444.67202    213.36808    38369.369 
  551600    303.76162   -1458.2097     505.0145    419.47565    26.406371    38369.369 
  551700    306.56294   -1448.8328    487.84888    424.34576    330.77134    38369.369 
  551800    294.64941    -1444.056    521.43177    408.86938    349.09258    38369.369 
  551900    304.30333   -1401.7495    514.50023    487.86949    526.56211    38369.369 
  552000    293.46235   -1448.4851    520.25502    397.89928    339.99591    38369.369 
  552100    287.12731    -1442.684    510.58151    365.39946     -40.6593    38369.369 
  552200    302.09378   -1459.4931     485.6447    391.28558   -577.19102    38369.369 
  552300     295.6052   -1494.6312    476.01756    317.19908   -371.21741    38369.369 
  552400    296.22143    -1468.897    504.89811    374.59853   -307.46099    38369.369 
  552500    299.90249    -1477.692    505.54711    383.08687    259.13896    38369.369 
  552600    294.88865   -1500.5466    471.13111    303.15921    565.20613    38369.369 
  552700    306.27008   -1465.4576    492.03169    410.58043    144.97291    38369.369 
  552800    301.53661   -1427.4025    507.09737    442.31107    215.75001    38369.369 
  552900     297.5747   -1409.3149    517.48023    452.87805   -107.28472    38369.369 
  553000     311.0128   -1371.4586    504.81082    538.79051   -37.681512    38369.369 
  553100    296.09496   -1407.8621    501.37219    431.53605   -170.15311    38369.369 
  553200    295.30379   -1422.2721    504.31796    416.49651   -580.27225    38369.369 
  553300    297.59365   -1439.9974    512.37894    417.17987   -505.91605    38369.369 
  553400    299.49063    -1451.988    488.94094    390.32356   -416.46013    38369.369 
  553500    299.23815   -1412.8866    510.26444    449.60749    -899.9199    38369.369 
  553600    298.70913   -1432.7397    472.70902     389.8084   -613.36365    38369.369 
  553700     298.3246   -1474.9403     514.1218    387.28291    -884.1371    38369.369 
  553800    297.76882   -1459.4074    501.68387     387.8664   -254.12769    38369.369 
  553900    296.85522   -1461.6829    514.08077    393.85934   -196.71443    38369.369 
  554000    295.53909   -1466.9661    485.02484    353.57276   -132.15534    38369.369 
  554100    295.57887   -1504.2146    496.03419    327.51331   -81.650448    38369.369 
  554200     297.7741   -1454.3915    479.70991    370.93213   -21.194823    38369.369 
  554300    293.58525   -1462.0471    475.47117    340.10878   -678.35737    38369.369 
  554400    297.50363   -1508.5174    491.15472    327.02887   -242.21228    38369.369 
  554500    298.69764   -1466.1523    497.43144    381.06633    203.84163    38369.369 
  554600    304.60885   -1481.8345    510.13627    404.80119    332.97924    38369.369 
  554700    297.29323   -1490.8211    494.13167    346.75128    500.54114    38369.369 
  554800    293.50631    -1443.054    489.84702    373.12109    555.63932    38369.369 
  554900    304.15676   -1534.5192    498.62423    338.56148    169.32753    38369.369 
  555000    296.92826   -1463.7339     491.8009    369.85853    368.60909    38369.369 
  555100    299.00462   -1463.3175    500.54208    388.39895  -0.29666049    38369.369 
  555200    294.40288   -1443.3086    536.71658    423.78754    187.74327    38369.369 
  555300    302.72848   -1449.8281    493.71933    411.89338    7.5736837    38369.369 
  555400    304.44078   -1444.3394    503.83534    435.23583    253.58769    38369.369 
  555500    308.04475   -1428.1586    528.35609    492.22343    793.87898    38369.369 
  555600    298.42714   -1485.5587     516.5177    379.52377    241.80769    38369.369 
  555700    310.03739   -1504.3186    474.80371    371.51558    532.70902    38369.369 
  555800    292.55956   -1482.0818    478.26653    318.23448    141.43069    38369.369 
  555900    298.11976   -1525.9746    473.06179    294.26292    282.85622    38369.369 
  556000    297.95601    -1529.453    514.78728    331.77015    251.18079    38369.369 
  556100     295.2209   -1512.5943    492.09455     313.5763   -2.7750164    38369.369 
  556200    299.65636   -1527.0961    496.87152    323.89497    209.82699    38369.369 
  556300     311.5543   -1568.6196    457.66905    296.93467    163.06638    38369.369 
  556400    301.10986   -1544.7574    507.48752    323.41783   -110.26075    38369.369 
  556500    298.56972   -1532.7611    507.78226    324.23022    110.94168    38369.369 
  556600    295.14866   -1523.9863    471.10902    280.87234     204.4625    38369.369 
  556700    296.41704   -1466.3287    491.05747    364.21009    591.63547    38369.369 
  556800    300.72325   -1497.6095    511.60939    372.94063    542.42767    38369.369 
  556900    297.71201   -1468.5225    489.62255     366.4333    584.54954    38369.369 
  557000    306.16233   -1525.5485    529.89565    387.86654    502.02994    38369.369 
  557100    294.32249   -1515.4311    492.11346    306.69864    2.0222469    38369.369 
  557200    303.27891    -1476.544    489.11368    383.05914    506.20191    38369.369 
  557300    300.10377   -1490.8403    497.03016    362.33116    208.41737    38369.369 
  557400    315.67495    -1524.229    491.49722    393.77425    218.38267    38369.369 
  557500    301.71936   -1469.1611    496.18459    390.46547   -299.51552    38369.369 
  557600    297.51372   -1468.2131    496.38066    372.60467   -402.21709    38369.369 
  557700    303.37045    -1461.188    480.38829    390.10349   -343.32338    38369.369 
  557800    309.02858   -1530.3561    494.50985    360.62551   -501.02657    38369.369 
  557900     304.5087     -1507.92    463.40558    331.53243    -723.4454    38369.369 
  558000    290.31441   -1482.8431    482.83794    311.89902   -446.00874    38369.369 
  558100    301.79096    -1514.293    490.62709    340.09966   -218.81386    38369.369 
  558200    290.51685   -1516.8667    504.42299    300.37526   -6.1733468    38369.369 
  558300    297.30977   -1502.2825    490.95692    332.18992    367.93764    38369.369 
  558400    297.47753   -1543.7455    491.39112    291.91924    176.54554    38369.369 
  558500    302.62287   -1521.4982    504.11854    350.14526    695.12741    38369.369 
  558600    303.45247   -1485.8817    500.64019    386.03231    485.35143    38369.369 
  558700    309.80864   -1506.3946    463.48328    357.08541    152.19627    38369.369 
  558800    307.03271    -1473.337    509.06249    423.17812   -244.49681    38369.369 
  558900    296.40747   -1507.5898    479.66426    311.51252   -320.39401    38369.369 
  559000    296.95079    -1458.357    505.41662    388.95289   -667.01106    38369.369 
  559100    296.94563   -1420.3507    524.53685    446.05613    148.94428    38369.369 
  559200     297.3072   -1484.1146    496.19471    355.58401   -530.25378    38369.369 
  559300    300.29996   -1438.6045    498.63529     417.0587    448.17729    38369.369 
  559400    307.31282   -1439.1894    495.66105    445.19004   -65.073242    38369.369 
  559500    306.13493   -1470.8492    478.57227    391.11869    414.52835    38369.369 
  559600    300.09177   -1461.9423     507.7122    401.85702    309.54624    38369.369 
  559700    303.27613   -1475.9398    519.60704    414.14419    546.15721    38369.369 
  559800    299.26609   -1477.5768    499.63495    374.41411    728.83918    38369.369 
  559900     300.3505   -1483.7627    539.53524    413.02882   -77.761126    38369.369 
  560000    302.55353    -1465.194    461.74235    363.75991   -248.85822    38369.369 
  560100    286.09018   -1486.9072    520.54275    326.45081   -163.88953    38369.369 
  560200    299.23518   -1432.7728    506.64577     426.0892   -90.993136    38369.369 
  560300    309.86319   -1441.1194     507.2268    466.35068    613.58194    38369.369 
  560400    292.61528   -1462.7489    537.87052    397.42312    692.17761    38369.369 
  560500    303.44114   -1445.1003    507.38215     433.5045    1145.4738    38369.369 
  560600    302.88279   -1489.1317    523.95634    403.52413    706.23776    38369.369 
  560700    302.34384   -1473.9784    514.12116     406.4068    573.49262    38369.369 
  560800    296.46248    -1450.219    506.97987    396.44755    891.55604    38369.369 
  560900    309.69934   -1467.3835    514.98963    447.10899    651.20241    38369.369 
  561000     293.4625   -1440.8484    502.40462    387.68623    279.90832    38369.369 
  561100    258.15744   -1465.6436    497.69854    198.64463    78.568464    38369.369 
  561200    284.51286   -1440.5102    513.01382    358.19106   -122.69698    38369.369 
  561300    301.42021   -1510.7573    502.35284    353.68573   -261.40827    38369.369 
  561400    301.07637   -1490.7434    520.43233    390.22541   -466.09031    38369.369 
  561500    302.80674   -1501.8345    513.83485    380.35612    89.938568    38369.369 
  561600    299.66392   -1525.2402    498.83776    327.75127     180.7338    38369.369 
  561700    297.92904   -1514.6671    473.86935    305.51621    213.20324    38369.369 
  561800    304.45492   -1557.7798    501.61169    319.63564    -23.10475    38369.369 
  561900    301.32023   -1527.0612    486.74046    321.31769   -80.322408    38369.369 
  562000     302.3429   -1522.1062    505.94323    350.09684   -301.88474    38369.369 
  562100    287.44643    -1532.617    486.28924    252.61621   -793.21718    38369.369 
  562200    292.19362   -1530.9459    506.71494    296.16515   -295.89868    38369.369 
  562300    303.87672   -1520.2729    480.66348    333.58157    247.86245    38369.369 
  562400    294.64152   -1519.9638    527.74161    339.23575    451.48725    38369.369 
  562500    289.22433   -1526.4897     479.9188    260.40724    267.96813    38369.369 
  562600    294.66776   -1508.9331    509.81908    332.46252    202.84786    38369.369 
  562700    307.50401   -1529.6742    481.58349    341.49159    378.60412    38369.369 
  562800    304.32242   -1494.7783    516.85436    397.28112   -20.078781    38369.369 
  562900     306.1873   -1511.6129    495.61045    367.62974    35.899807    38369.369 
  563000    302.45056   -1518.2228    496.21094    344.73441    277.14644    38369.369 
  563100    301.52252   -1492.5222    505.85537    375.88571    66.348851    38369.369 
  563200    286.34244   -1485.2354    488.99414    297.71394    379.36377    38369.369 
  563300    309.08199   -1507.7029    514.45822    403.46842    501.01877    38369.369 
  563400      301.823   -1477.4121    516.99429    403.49256    714.57887    38369.369 
  563500    300.84241   -1441.2511    514.61922    432.84729    298.72174    38369.369 
  563600    306.51111   -1444.9166    490.14493    430.32383   -134.72993    38369.369 
  563700     307.0979   -1438.0686    519.77195    469.45055   -143.29046    38369.369 
  563800    295.60461   -1455.3501    506.10037    386.56032    42.035158    38369.369 
  563900    295.41028   -1446.0878    513.75991    402.60393   -686.05837    38369.369 
  564000    298.89351   -1483.4851     495.0878    362.27495   -368.29784    38369.369 
  564100    295.29634    -1463.861    522.22689    392.78291   -32.889615    38369.369 
  564200     298.6858   -1512.1226    492.98199    330.59307    114.57316    38369.369 
  564300    301.64392   -1504.6561    493.37253    351.81754    146.84828    38369.369 
  564400    292.47745   -1529.7264    489.05277    281.00509   -203.06367    38369.369 
  564500    284.03316   -1483.5789    501.78006    301.72093   -653.84223    38369.369 
  564600    303.98233   -1487.6254    529.28688    415.32965    -949.4523    38369.369 
  564700    299.70776   -1534.9761    481.49028    300.86596   -378.44697    38369.369 
  564800    287.76257   -1476.3352    515.64601    339.68337   -116.21005    38369.369 
  564900     301.6233   -1490.3463    497.18613    369.84773    110.90137    38369.369 
  565000    306.97203   -1532.2567    497.26799     352.1897   -42.124947    38369.369 
  565100    297.55735   -1488.6526     507.9528    363.93451     240.6974    38369.369 
  565200    301.46641    -1429.973     510.4518    442.77778    234.86189    38369.369 
  565300    303.74173   -1452.4846    479.90031    399.99664    93.830993    38369.369 
  565400    297.15592   -1508.9309     484.6602    318.54955   -326.87036    38369.369 
  565500    304.79626   -1451.0629    494.57716    420.86053   -238.98165    38369.369 
  565600     305.0399   -1493.5926    494.61439      379.469   -187.12753    38369.369 
  565700    300.83516   -1444.6822     492.5947    407.35897   -83.702891    38369.369 
  565800    293.49678   -1460.3538    529.59992    395.53112   -68.945007    38369.369 
  565900    297.37154   -1447.6391    527.47402    423.62954    311.63381    38369.369 
  566000    305.76163   -1456.9742    496.45572    421.19018    279.40899    38369.369 
  566100    303.77342   -1432.0589    515.30529     455.9706   -101.67378    38369.369 
  566200     291.4057   -1416.7459     501.3766    401.46625   -439.76222    38369.369 
  566300     307.0432   -1435.6794     495.6455    447.46613    175.38402    38369.369 
  566400    300.62194    -1460.395    493.17182    391.25972   -81.076269    38369.369 
  566500    305.29757   -1452.7486    496.13804    423.00107    446.31369    38369.369 
  566600    299.26876   -1462.1291    501.53108    391.77001    41.157152    38369.369 
  566700    297.59362   -1422.9016    484.63782     406.5344    102.76502    38369.369 
  566800    309.60447   -1441.8447    503.89852    461.12793   -94.366902    38369.369 
  566900     294.5127    -1450.694    509.73628    389.91803   -305.73086    38369.369 
  567000    299.45496   -1447.6437    498.24557    403.81134    34.796944    38369.369 
  567100    307.98969   -1445.3041    500.09491    446.56792    332.87752    38369.369 
  567200    297.58288    -1447.422    514.75355    412.08123     498.6162    38369.369 
  567300    297.10222   -1455.8105    473.28003     360.0471    887.18037    38369.369 
  567400    290.56759   -1425.0226    502.88004    390.90563    299.99865    38369.369 
  567500    293.77359   -1469.4139    521.36531     379.4873    560.30634    38369.369 
  567600    296.95951    -1472.117    489.72693    359.54261   -423.36302    38369.369 
  567700    304.34884   -1489.2127    480.98665    367.09837   -148.20277    38369.369 
  567800    292.21733   -1451.3812    508.27753    377.39961   -520.60052    38369.369 
  567900    304.95635   -1471.6549    493.22818    399.64299   -264.60146    38369.369 
  568000    294.82256    -1477.937    487.07572    341.41479   -473.31915    38369.369 
  568100    291.04559   -1514.5726    509.16524    309.80092    42.530015    38369.369 
  568200    289.49077   -1445.3817     522.4153    385.21576    280.52579    38369.369 
  568300    296.49223   -1478.1917    477.17987     338.8093    572.25833    38369.369 
  568400    294.46308   -1472.7338    525.34076    383.25853   -32.987409    38369.369 
  568500    299.00439   -1420.8097     494.4901    424.85379   -84.757288    38369.369 
  568600    300.94689   -1411.6581    486.58743    434.88065    28.670298    38369.369 
  568700    304.68468   -1473.3246    467.51189     371.0294   -136.57559    38369.369 
  568800    315.02744   -1480.1592    478.31169     421.7325    615.58426    38369.369 
  568900    304.41901   -1494.0775    480.03322    361.59727    107.08416    38369.369 
  569000    300.09965   -1487.6376    487.18667    355.67174    217.59807    38369.369 
  569100      305.736   -1491.0371    493.32375    383.87954    258.68921    38369.369 
  569200    300.88098   -1468.5876    513.92833    404.99421    290.66612    38369.369 
  569300    293.28201   -1477.3814     452.4254    300.35841   -297.43301    38369.369 
  569400    302.46109   -1465.8918     487.2304     388.1325   -237.17375    38369.369 
  569500    305.91454   -1473.6864    499.98822    408.70145   -1139.0802    38369.369 
  569600    302.71677   -1492.1573    507.71203    383.50401    -804.5868    38369.369 
  569700    295.31081   -1468.9647    514.47776    379.99549   -664.34429    38369.369 
  569800    305.22757   -1517.8277    509.53848    371.00614   -459.58981    38369.369 
  569900    303.60377   -1486.1372    455.65403    341.47428   -446.38262    38369.369 
  570000    303.04533   -1447.7002     506.4054    428.13922   -154.40962    38369.369 
  570100    302.94113   -1477.2488    483.01155     374.7259   -378.03633    38369.369 
  570200    299.96535    -1440.337    492.68172    407.86057   -120.30022    38369.369 
  570300    292.34892   -1471.9511    474.25554    323.40233   -113.70785    38369.369 
  570400    300.42694   -1473.9219    513.79654    397.47636    75.162893    38369.369 
  570500    300.03059   -1453.0871    494.99075    397.71432   -66.212594    38369.369 
  570600     305.3361   -1487.2454      467.383    359.92342     -146.799    38369.369 
  570700     297.5745   -1420.0593    537.66961     462.3221    658.06127    38369.369 
  570800     294.8573    -1465.077    488.29628    355.65229    491.30384    38369.369 
  570900    302.87223   -1500.7159     481.4666    349.40241    492.38657    38369.369 
  571000     295.8679   -1471.2905    495.53301    361.24233      366.741    38369.369 
  571100    290.79591   -1448.5779    487.92915    353.43119    233.34299    38369.369 
  571200    296.22456   -1451.3813    496.95354    384.18382    206.14238    38369.369 
  571300    308.54449   -1473.8974    486.89988    407.28661     301.1183    38369.369 
  571400    286.98237   -1437.7675    501.58167    360.66112    267.25093    38369.369 
  571500    301.51017   -1465.3262     516.3492    413.51972   -17.789875    38369.369 
  571600    288.78675   -1450.0487    488.08997    343.04204    -223.4104    38369.369 
  571700    296.99252   -1455.8911    496.06397    382.25476   -121.56632    38369.369 
  571800    300.57449   -1437.2286    494.36616    415.40604   -389.00429    38369.369 
  571900    296.08155   -1444.1018    486.42184    380.28531   -692.06053    38369.369 
  572000    297.82009      -1441.7    489.72492    393.84648   -192.58272    38369.369 
  572100    305.73867   -1485.0424    498.75606    395.31863   -168.48911    38369.369 
  572200    293.09929   -1443.0778    500.29304    381.70398   -214.85672    38369.369 
  572300    303.49306   -1458.0753    483.21522    396.59718    203.97511    38369.369 
  572400    297.22593   -1453.2691    487.25384    377.12142    -7.093388    38369.369 
  572500    307.78701   -1468.7367    489.73123    411.85572    -27.30419    38369.369 
  572600    302.98675    -1418.944    490.64664    440.87189   -542.28088    38369.369 
  572700    310.85922    -1436.752    486.03936    454.03156   -494.25153    38369.369 
  572800    306.96911   -1423.4803    482.28973    445.97459   -362.11456    38369.369 
  572900    303.63708   -1437.3454    502.09474    436.85741   -388.50142    38369.369 
  573000    302.32201   -1423.5692    519.71843     462.3146    317.50814    38369.369 
  573100    302.19083   -1427.8658    506.36034    444.06717    509.99636    38369.369 
  573200    288.86997   -1419.8723    508.02345    393.52804    177.42654    38369.369 
  573300    301.04834   -1395.7619    500.39356    465.04148    286.94782    38369.369 
  573400    304.88123   -1421.0938    476.20772    432.84415   -559.63794    38369.369 
  573500    291.99306   -1463.7518    471.10657    326.84459   -771.37664    38369.369 
  573600    309.52178   -1447.3034    507.83337    459.23039   -262.71742    38369.369 
  573700    297.14988   -1435.4756    495.14028    402.45764   -897.69573    38369.369 
  573800    307.87863   -1420.3266    509.37034    480.31896   -287.41993    38369.369 
  573900    304.00631   -1466.5119    491.95892    399.22361   -623.08192    38369.369 
  574000    296.23298   -1416.7202    512.96647    434.89587    -363.8278    38369.369 
  574100    293.57815   -1441.1959    503.37265    388.82941    528.46744    38369.369 
  574200     300.0984        -1455    506.12093    407.23802     635.0312    38369.369 
  574300    302.81784   -1481.4134    488.27547    375.26803    662.03177    38369.369 
  574400    304.67986   -1470.9257    483.31862    389.21316    981.25745    38369.369 
  574500    290.66963   -1499.9127    507.92882    321.52544    298.15933    38369.369 
  574600    309.76021   -1482.1764    489.69783    407.29939    196.15793    38369.369 
  574700    290.59211    -1475.868    486.69872    323.98974   -317.75728    38369.369 
  574800    293.66745   -1517.9487    483.50914    292.61662   -231.18992    38369.369 
  574900     300.7146   -1521.5312    477.98363    315.35408   -157.27313    38369.369 
  575000    307.89102   -1498.3827    481.16565     374.1142   -51.022862    38369.369 
  575100    296.76145   -1491.3381     483.8909    333.59048    536.08179    38369.369 
  575200    296.82985   -1483.1542    464.79033    322.98295    573.14464    38369.369 
  575300    295.10204   -1494.3419    513.34585    352.54288    558.87851    38369.369 
  575400    293.96916   -1500.1216    489.89396    318.19192   -82.710716    38369.369 
  575500    307.70553   -1468.5934    489.51999    411.41958    934.70589    38369.369 
  575600    287.26016   -1493.3657    479.46631    284.20289    687.51152    38369.369 
  575700    308.12165    -1507.263    481.39439     366.5048    690.76254    38369.369 
  575800    300.15679   -1463.0827    506.36702    399.66529    520.92657    38369.369 
  575900    302.86876   -1460.0092    496.15138    404.77825    666.85716    38369.369 
  576000    297.46819    -1440.264      494.026    397.99342    15.564027    38369.369 
  576100    296.63266   -1448.5664    486.91995    378.80923    226.65135    38369.369 
  576200    300.02251   -1462.7744    485.43575     378.4355    56.434018    38369.369 
  576300     289.5386   -1450.6392    490.11288    347.87197   -384.15675    38369.369 
  576400     302.1103   -1455.3076    489.23077    399.13181   -3.9277914    38369.369 
  576500    295.29599   -1441.0675    501.64147    394.98937    418.43678    38369.369 
  576600    303.92301   -1440.8349    503.09669    435.66191    136.84273    38369.369 
  576700    292.39191    -1441.732    506.78644    386.34657   -125.12767    38369.369 
  576800    317.72435   -1491.6408    498.56513    442.69151    334.86744    38369.369 
  576900    304.53701   -1452.0066    493.56909    417.73722    577.23547    38369.369 
  577000    300.41372   -1455.4974     494.1764    396.22097    186.48104    38369.369 
  577100    297.12606   -1453.7133    497.95707    386.92909    36.350086    38369.369 
  577200    300.16854    -1451.126    501.10377    406.41178   -84.874861    38369.369 
  577300    300.27632   -1408.9861    500.32817    448.26311    259.78012    38369.369 
  577400    302.07169   -1411.0835    505.02801    458.97866   -76.709573    38369.369 
  577500    283.63295   -1418.8147    528.23819    391.13467    -565.1254    38369.369 
  577600     290.8784   -1422.4772    480.72746    372.70299   -785.86979    38369.369 
  577700    307.03309   -1399.4355     485.3869    473.40576   -618.54056    38369.369 
  577800    297.12551   -1361.9227    491.81898    472.57914   -829.93713    38369.369 
  577900    305.98444   -1403.5645    500.67147    479.82249   -175.14644    38369.369 
  578000    293.25702    -1412.717    494.39937    406.88385    198.44854    38369.369 
  578100    291.27644   -1453.8135    487.86555    350.30347   -360.60834    38369.369 
  578200    312.44111    -1456.065    494.24114    450.06879   -206.02425    38369.369 
  578300    303.42139   -1435.1994    484.71537    420.64937     576.1684    38369.369 
  578400    307.47052   -1441.2785    510.14811    458.30065     674.3222    38369.369 
  578500    302.71435   -1456.4722    479.11066    390.57676    665.65072    38369.369 
  578600    305.41408   -1459.6439    495.07069    415.56489    1197.0179    38369.369 
  578700    294.74034   -1434.3778    491.42727    388.95394    679.91757    38369.369 
  578800    300.85819   -1426.7935    501.21227    433.96925    207.71721    38369.369 
  578900    293.74895   -1432.3571    487.78833    382.85569   -221.39924    38369.369 
  579000    296.76776    -1470.593    468.87289     339.3461   -20.257475    38369.369 
  579100    311.38252   -1438.0116    477.71511    446.81251    27.551009    38369.369 
  579200    299.34452   -1438.5997    494.16579    408.27641    -451.5564    38369.369 
  579300    297.11959   -1469.5542     494.3888    367.49075   -59.684493    38369.369 
  579400    303.12548   -1426.6805    503.07906    446.19476   -210.42538    38369.369 
  579500    297.05134   -1419.7736     504.4588    427.03288   -67.972027    38369.369 
  579600    308.64566   -1433.0292    463.36304    425.07519    47.548067    38369.369 
  579700    296.80727    -1418.782    473.21215    395.67493   -310.74459    38369.369 
  579800    293.55261   -1430.5214    499.32445    395.34032    -525.0364    38369.369 
  579900     306.2369   -1458.6617     475.5519    400.74662    -318.3574    38369.369 
  580000    301.20653   -1449.9622    510.19132    421.35378    232.75789    38369.369 
  580100    291.97932    -1440.789    496.10468    374.74338    187.19358    38369.369 
  580200    301.87705   -1449.8719    476.55843     390.8412    209.43624    38369.369 
  580300    297.09951   -1458.0841    496.42427    380.90558    450.87358    38369.369 
  580400    294.71305   -1455.1378    508.94962    385.59297    227.69044    38369.369 
  580500     289.1372   -1466.4909    490.06298    330.15647    585.77273    38369.369 
  580600    305.97954   -1453.2039    488.94507     418.4346    942.98723    38369.369 
  580700    295.83881    -1466.247    479.78984    350.41121    633.15133    38369.369 
  580800    298.81237   -1462.7463    512.58343    400.14275    367.89873    38369.369 
  580900    301.92343   -1495.1598    472.51221    341.71663    90.295497    38369.369 
  581000    297.63558   -1460.4077    508.33862    392.91876   -249.61062    38369.369 
  581100    289.48034   -1436.3577    490.99186    362.76918   -650.37625    38369.369 
  581200    305.75368   -1420.0352    467.42129    429.05887   -411.29085    38369.369 
  581300    288.65769   -1396.0255    524.43685    432.82896   -556.46931    38369.369 
  581400    288.73093   -1402.7133    480.44175    382.47695   -869.13978    38369.369 
  581500    291.68073   -1429.2637    501.04919    389.86389   -345.54565    38369.369 
  581600    295.67821   -1436.7017    495.82324    395.26415   -160.51186    38369.369 
  581700    303.36117   -1431.5473    505.26293    444.57687   -86.814768    38369.369 
  581800    293.69546    -1450.341    509.25862    386.10039   -85.718187    38369.369 
  581900    318.36576   -1423.3282    462.37589    477.71324   -17.344368    38369.369 
  582000    301.85622   -1446.8584    505.83356    423.03569    142.59452    38369.369 
  582100    311.31695   -1426.3253      485.538    466.02534    261.74944    38369.369 
  582200    294.37485   -1468.5655    509.71005    371.39746    551.68693    38369.369 
  582300    291.14159   -1451.0687    519.37094    383.94437    99.900813    38369.369 
  582400    302.09819   -1462.6925    491.18308    393.64448    461.53503    38369.369 
  582500    302.22694   -1449.1412     501.2759    417.87044    529.93789    38369.369 
  582600    293.23272   -1446.4899    515.17539    393.77722    445.62071    38369.369 
  582700    293.82151   -1443.5756    472.36262    356.53934    329.33027    38369.369 
  582800    298.70193   -1427.9609    473.25918    395.10488   -17.259122    38369.369 
  582900    291.70595    -1461.457    466.86902    323.60437    237.22057    38369.369 
  583000    310.78374   -1428.5049    476.79301    452.69123    636.26551    38369.369 
  583100    296.67294   -1434.3597    504.14316    410.42118    291.01182    38369.369 
  583200    288.28617   -1454.9367    500.19394    347.99588   -582.08355    38369.369 
  583300    293.48469   -1413.3087    495.81182    408.73344    154.05275    38369.369 
  583400    291.94103   -1414.1862    509.13117    414.19959   -253.50144    38369.369 
  583500    295.56947   -1420.7178    485.15192    400.08537   -577.36176    38369.369 
  583600    296.84965   -1410.8289    515.24927    445.85662   -577.47797    38369.369 
  583700     298.8226   -1436.0209    496.57351    410.90448   -428.90973    38369.369 
  583800    298.39126     -1430.58    486.50251    404.32517    -618.4838    38369.369 
  583900    308.94512   -1464.3875    476.08239    407.78948   -565.17807    38369.369 
  584000    310.68403   -1461.3465     486.5284    429.13447   -338.85623    38369.369 
  584100    308.59947   -1438.2008    472.90857    429.24038    107.95956    38369.369 
  584200    299.73748   -1480.5108    489.73443    363.70967    11.663958    38369.369 
  584300    293.24269   -1470.8212    468.53159    322.84707   -260.86327    38369.369 
  584400    305.16555   -1480.7537    486.82336    385.08473   -474.79931    38369.369 
  584500    301.56571   -1483.5313    484.47153    363.68794   -548.62053    38369.369 
  584600    284.14688    -1474.759    511.17341     320.4481   -229.86377    38369.369 
  584700    284.75176   -1455.7112    486.34029     317.3961   -225.62567    38369.369 
  584800     305.6531    -1442.567    515.71266    454.36388    348.88036    38369.369 
  584900    294.02768   -1454.7795    495.66096    369.56553     213.1001    38369.369 
  585000    296.31197   -1467.4905    509.73492    381.25095    447.54348    38369.369 
  585100    304.94676   -1479.1696    482.83762     381.6944   -58.032643    38369.369 
  585200    304.54672   -1493.1314    496.34249    379.42967   -352.49636    38369.369 
  585300    297.70744   -1436.3243     492.6587    401.64692    84.486824    38369.369 
  585400     304.6931   -1457.7456    479.09039    398.22493   -97.750566    38369.369 
  585500    313.99281   -1432.2447    509.76365    496.42355    193.43436    38369.369 
  585600    295.68382   -1468.5017    473.26857    340.93482   -588.41292    38369.369 
  585700    301.22284   -1475.1001    510.11753     396.2158    193.30855    38369.369 
  585800    304.94094   -1490.3099    477.58481    365.27503   -308.50322    38369.369 
  585900    295.05579   -1544.7227     501.4746    290.08187     127.0685    38369.369 
  586000     292.3488   -1483.9139     496.8081    333.99156    82.625701    38369.369 
  586100     308.5148   -1520.6861    491.77518     365.2391   -294.98706    38369.369 
  586200    297.36405   -1485.5799    492.97525    351.15614   -149.75721    38369.369 
  586300      279.937   -1458.2448    476.70982    283.47457   -391.65069    38369.369 
  586400    307.54305      -1488.8    488.04159     389.0004    72.971263    38369.369 
  586500    298.80113   -1522.9647    455.54438    282.83444    374.69055    38369.369 
  586600    293.99169   -1497.7459    495.01628    325.79182    436.17215    38369.369 
  586700    296.78362    -1467.421    490.90272    364.61957    297.72181    38369.369 
  586800    289.17929   -1502.0017    466.13515    270.90811     336.3993    38369.369 
  586900    291.56624   -1534.8311    516.34597    299.07585    345.69347    38369.369 
  587000     298.6984   -1533.6546    484.84517    300.98121    664.21959    38369.369 
  587100    305.20995   -1494.6773     488.1715     372.7099    812.78388    38369.369 
  587200    294.38472   -1490.1118    485.48368    325.66938   -169.86133    38369.369 
  587300    325.78287    -1533.336    483.28702    422.13387    303.46034    38369.369 
  587400    296.16633   -1507.4194    479.86595    310.79489    60.546401    38369.369 
  587500    293.29269   -1525.7237    484.80706    284.44603    282.26547    38369.369 
  587600    307.52864   -1511.6514    466.53677    344.57906    158.72688    38369.369 
  587700    302.69858   -1492.9492    517.60703    392.52492    157.02349    38369.369 
  587800    295.67103   -1508.4889    473.23719    300.85852   -163.12933    38369.369 
  587900    308.14803   -1501.5809     480.4546    371.36629    46.133944    38369.369 
  588000    289.08164   -1518.9296    470.05546    257.45921    28.725078    38369.369 
  588100    294.23282   -1541.6419    503.11344    291.08255    76.266273    38369.369 
  588200    292.87563    -1531.979    466.80816    258.30718   -188.77391    38369.369 
  588300    292.32377   -1515.5564     478.8548    284.28264   -202.21068    38369.369 
  588400    300.08698   -1542.7589    498.12098    311.42756   -39.477291    38369.369 
  588500    285.02571    -1494.315    528.74051    322.43045   -12.815189    38369.369 
  588600    292.61511   -1484.4001    473.28707    311.18774    377.93513    38369.369 
  588700    290.06965   -1530.2904     484.6449    265.15259    67.156604    38369.369 
  588800    296.49207      -1534.1    485.94304    291.66347    155.32096    38369.369 
  588900    309.92843   -1513.1763    463.81791    351.17968    310.86322    38369.369 
  589000    289.94101   -1482.6625    506.75187    334.30615   -220.85335    38369.369 
  589100    299.07816   -1476.4234    502.73917    377.82243   -261.78919    38369.369 
  589200     295.9451   -1453.7521    485.27008    368.86668    396.78143    38369.369 
  589300    298.25485   -1479.0895    492.10774    360.80444   -91.938219    38369.369 
  589400    301.88767    -1490.534    471.45473     345.1234    272.32074    38369.369 
  589500    309.34169   -1444.5354    516.06176    469.41306    623.99546    38369.369 
  589600    294.05344   -1470.2503    496.09092    354.64111    724.27915    38369.369 
  589700    300.00343   -1463.0943    485.25904    377.85262     616.1629    38369.369 
  589800    303.13898   -1481.7676    490.55334    378.64289    420.52865    38369.369 
  589900    298.69267   -1488.3816    498.89245    360.27558    327.33472    38369.369 
  590000    301.91945   -1518.4517    491.95983    337.85431    104.98692    38369.369 
  590100    307.75552   -1445.0294    495.91935    441.60889    199.14062    38369.369 
  590200    298.16245   -1475.5477    503.89689    375.71792    430.15056    38369.369 
  590300    297.06157   -1437.7976    506.15427    410.75059   -213.58617    38369.369 
  590400    307.14736   -1420.4198    489.23028    456.78114   -8.2253899    38369.369 
  590500    292.19354   -1415.4712    555.04951     459.9741   -428.67037    38369.369 
  590600    304.45646   -1441.5039    504.58626    438.89315   -277.83908    38369.369 
  590700     288.2242   -1405.4017    509.14841    406.20535     201.9844    38369.369 
  590800    314.48349   -1424.5615    504.01421    500.57467    286.13347    38369.369 
  590900    305.43085   -1427.7232    482.78294    435.27361    21.388616    38369.369 
  591000    302.18291   -1436.5198    486.58313    415.60009    526.60064    38369.369 
  591100    297.68056   -1393.4602     501.1322    452.86305    -138.2261    38369.369 
  591200    294.30033   -1422.3719    503.45269     410.9969   -110.66171    38369.369 
  591300    310.96063    -1410.764    500.54651    494.98496    42.428458    38369.369 
  591400    291.23492    -1436.215    496.06157    375.91044    185.00626    38369.369 
  591500     295.0423    -1452.365    501.13693    382.04099    403.15804    38369.369 
  591600    295.29499    -1460.764    492.27637     365.9233    704.56535    38369.369 
  591700    301.35279   -1468.6022     490.5515    383.73488    537.32791    38369.369 
  591800    305.13555   -1505.1565    502.25595    375.97897     847.6125    38369.369 
  591900    305.85699   -1496.9614    500.01759     385.1958    685.90026    38369.369 
  592000    302.43059   -1463.2669    482.73197    386.12112    409.99679    38369.369 
  592100     295.5174   -1479.1043    513.60099     369.9126    634.44642    38369.369 
  592200    290.21205    -1444.814    516.49349    383.12109    443.35461    38369.369 
  592300    304.19977    -1467.387    487.02927    394.29309   -80.366323    38369.369 
  592400    303.14106   -1421.4415    494.01528    442.44037    35.692286    38369.369 
  592500     304.1687   -1458.5885    504.05127    419.97317    23.278552    38369.369 
  592600    292.12014   -1464.9852    500.49038     355.5692    76.160441    38369.369 
  592700     297.1515   -1460.4029    514.87714    397.27461      -487.18    38369.369 
  592800    315.04509   -1461.6423    475.54682     437.5643    109.43271    38369.369 
  592900    322.10145   -1454.1289    510.37359    511.79151    170.93046    38369.369 
  593000     306.8256    -1506.575    479.79212    359.73381    290.48076    38369.369 
  593100     305.2356    -1521.932    469.34562    326.74523    742.44525    38369.369 
  593200    303.18648   -1510.9687    503.22713    362.33026    23.471303    38369.369 
  593300     291.2587   -1482.8553    473.39096     306.7069   -229.93987    38369.369 
  593400    299.55164   -1450.8258     499.1124    401.93292    77.646271    38369.369 
  593500     294.5605   -1441.9229    488.44972    377.61864   -428.93461    38369.369 
  593600    307.06591   -1430.4158    515.94718    473.13397    31.008446    38369.369 
  593700    293.73914   -1418.1249    511.94363    421.19887   -702.08395    38369.369 
  593800    308.48609   -1413.9554    478.16414    458.22899   -526.86579    38369.369 
  593900    297.51327   -1443.2722    498.76381    399.92673   -431.05365    38369.369 
  594000    292.06102   -1449.8903    506.50058    376.40717    13.194106    38369.369 
  594100    302.42676   -1464.4107    492.59645    394.82444   -85.845582    38369.369 
  594200    308.23161   -1436.3263    508.42771     464.9717   -376.16789    38369.369 
  594300    300.60951   -1416.5341    492.09738    433.98999    384.71855    38369.369 
  594400    304.78256   -1452.4846    497.38552    422.18525   -55.424307    38369.369 
  594500    302.68004   -1429.8935    490.47384    428.36367    198.82896    38369.369 
  594600    306.25512   -1398.8952    519.25997    504.30355    589.33101    38369.369 
  594700    300.13742   -1416.0784    493.26241     433.4774    780.68886    38369.369 
  594800    293.21661   -1434.4839     507.3699     397.9049    350.84599    38369.369 
  594900     309.7215   -1495.9471     485.2589    388.91479    830.74605    38369.369 
  595000    310.29721   -1470.5197    505.21428    436.89917    1125.4769    38369.369 
  595100    302.65117   -1454.5645    482.41697    395.50528    652.61605    38369.369 
  595200    294.60359   -1443.3654    504.11598    392.03707    281.38403    38369.369 
  595300     299.9708   -1426.3495    509.49319    438.68417    644.12717    38369.369 
  595400    304.44455   -1431.1803    507.22823    451.80487    587.77399    38369.369 
  595500    293.45646   -1431.0111    480.44599    375.53766     323.0177    38369.369 
  595600    297.76942   -1490.2647    476.84162    332.16959    399.94362    38369.369 
  595700    292.94129   -1500.0927    491.59918    315.28121   -70.129964    38369.369 
  595800    308.02954   -1493.0618    498.82913    397.72454   -121.37535    38369.369 
  595900    298.70144   -1477.1979    475.31164    347.91807   -495.58182    38369.369 
  596000    303.89438   -1455.5317     484.1428    401.88182   -612.30332    38369.369 
  596100    299.02638   -1464.5147    514.41898    401.17697   -284.17452    38369.369 
  596200    302.77674   -1465.8053    481.51259     383.9275   -250.39997    38369.369 
  596300    293.05962   -1482.2908    494.91167    336.93033   -565.76821    38369.369 
  596400    290.08913   -1490.5066    489.05682    309.43635   -266.67487    38369.369 
  596500     293.1688   -1471.1872    509.63654    363.25221    76.422675    38369.369 
  596600    293.79545    -1422.671    489.78367    394.74734   -180.31632    38369.369 
  596700    298.77723   -1476.2526    481.67626    355.57042   -108.83471    38369.369 
  596800    303.79981   -1486.2874    483.28047    369.83653    -446.9845    38369.369 
  596900    306.43939   -1466.5648    503.07472     421.2813   -397.51088    38369.369 
  597000    292.49965    -1500.171    526.67797      348.286   -743.60284    38369.369 
  597100    297.52214    -1463.015    481.76579    363.22597   -298.01666    38369.369 
  597200    306.61744   -1488.5024    490.74817    387.82177    -482.4481    38369.369 
  597300    291.68448   -1519.5843    510.63031    309.14131    108.18348    38369.369 
  597400    310.50126   -1489.5751    507.72084    421.27235    266.16934    38369.369 
  597500    295.84194   -1476.7816    503.15847    363.25938    359.57564    38369.369 
  597600    308.14727   -1444.1375    489.83298    438.18461   -186.83255    38369.369 
  597700    304.01993    -1475.307    473.74672    372.27781   -402.37681    38369.369 
  597800     296.9774   -1460.2691    506.70716    388.45161   -37.915614    38369.369 
  597900     307.3902   -1455.2419    517.46436    451.29047    -390.0148    38369.369 
  598000    296.28943   -1419.6191    506.04831    425.33388    241.01151    38369.369 
  598100    307.07319   -1462.1864    521.25705    446.70614    354.38956    38369.369 
  598200    295.63633   -1454.0835    500.84967    382.71952    694.02711    38369.369 
  598300    294.06466   -1467.7704    525.96018    387.04099    663.37932    38369.369 
  598400    307.67219   -1489.0951    499.22262    400.46983    141.74949    38369.369 
  598500    286.58719   -1493.7479     503.3728    304.68613   -106.68641    38369.369 
  598600    308.52792   -1509.6686    474.19139    358.73204    98.028399    38369.369 
  598700    297.02884   -1508.3808    493.03101    326.89618     208.3085    38369.369 
  598800    301.72619   -1509.3582    505.59011    359.70481    320.51857    38369.369 
  598900      290.199   -1492.6232    490.65351    309.41288   -106.64881    38369.369 
  599000    292.93493   -1497.1657    491.31912    317.89944   -242.29684    38369.369 
  599100    308.95624   -1432.7088    488.19291      451.629   -440.09166    38369.369 
  599200    303.47665   -1494.1134     493.6458    370.91549    273.85631    38369.369 
  599300    306.24791    -1514.298    501.23346    370.84157   -272.66225    38369.369 
  599400     295.3997   -1496.0259    487.39594    326.25411   -286.79514    38369.369 
  599500    302.54728   -1479.1313    502.64276    390.69478   -169.40842    38369.369 
  599600    305.97745   -1484.1638    515.68826    414.20836    523.03567    38369.369 
  599700    305.25692    -1494.826    484.06819    368.67012    413.25721    38369.369 
  599800    302.44484   -1464.0696    530.90774    433.55852    950.88161    38369.369 
  599900    290.71305   -1471.0669    483.86736    326.50603   -37.651116    38369.369 
  600000    299.77012   -1470.7094    490.61544    374.53958    154.92908    38369.369 
  600100    297.21128    -1482.759    483.91577    344.22715    108.79635    38369.369 
  600200     303.7253   -1526.0148    488.69841     335.1903    407.22902    38369.369 
  600300    295.68601   -1515.7008    525.77148    346.24857    344.98083    38369.369 
  600400     297.4048   -1501.4137    484.59146    327.12269    214.98314    38369.369 
  600500    301.39138   -1478.7165    518.22659    401.47005     355.5567    38369.369 
  600600    289.35945   -1484.6354    504.69618    327.64957    281.10193    38369.369 
  600700     290.2501   -1485.6503     507.5438    333.50699    308.03861    38369.369 
  600800    304.73454   -1476.3571    480.24053    380.95077    201.29461    38369.369 
  600900     296.2228   -1441.6301    493.19112    390.16455    355.11363    38369.369 
  601000    295.59298    -1445.184    511.89802    402.47152    222.62133    38369.369 
  601100    301.19727    -1504.905    504.29457    360.47233    416.76338    38369.369 
  601200    298.77322   -1486.0834    487.74561    351.79096   -153.92114    38369.369 
  601300    307.46467   -1482.9548    515.50849    421.95827   -128.47859    38369.369 
  601400    302.43924   -1478.9768    482.03982    369.75813   -175.62732    38369.369 
  601500      295.321   -1459.2821    501.39996    376.64631    269.55547    38369.369 
  601600    300.43149   -1486.4806    510.63509    381.77679   -151.42562    38369.369 
  601700    295.79564   -1495.5874    481.30011    322.38598   -254.56052    38369.369 
  601800    301.15008   -1462.6265    490.17245    388.41548   -63.731628    38369.369 
  601900    308.83439   -1484.8579    481.41072    392.14706    -18.38723    38369.369 
  602000    301.15436   -1471.1652    511.91653    401.64023    101.44216    38369.369 
  602100    295.96465   -1541.5354    469.82792    265.72953    181.60486    38369.369 
  602200    301.95644   -1525.6013     510.4939    349.40601    650.32584    38369.369 
  602300    295.13026   -1503.5605    477.10453    307.21055    309.92987    38369.369 
  602400    298.99266    -1506.871    515.75061    359.99996    35.803969    38369.369 
  602500    301.06513   -1538.9265    472.54778    294.10697   -382.94556    38369.369 
  602600    299.73162    -1539.515    484.43465    299.37924    269.16763    38369.369 
  602700    295.12334   -1551.4191     493.0613    275.27738    433.86569    38369.369 
  602800    320.09839   -1501.9381    481.03697    425.59405    327.96191    38369.369 
  602900    302.94307   -1455.2742    502.24441    415.94205    345.12091    38369.369 
  603000    288.14612   -1506.2218    486.64286     282.5269   -166.11947    38369.369 
  603100    297.81023    -1502.184    521.51347    365.10652   -303.76191    38369.369 
  603200    293.71927   -1512.7334    462.87646     277.4334   -58.301121    38369.369 
  603300    302.42503    -1561.927    490.23261    294.93656   -167.55897    38369.369 
  603400    287.06595   -1546.4142    486.94919    237.75963    117.27965    38369.369 
  603500    308.20924   -1538.9347    467.43979    321.27428    713.72437    38369.369 
  603600    301.11016   -1539.9931    474.37087    295.06691    222.07189    38369.369 
  603700    301.00593   -1552.2546    458.31503    266.27853     175.7142    38369.369 
  603800     299.1211   -1499.2171    525.36708    377.85075   -107.58982    38369.369 
  603900    298.16227   -1503.0815    453.45815    297.74449    28.897371    38369.369 
  604000     309.8404   -1488.1399    474.92924    386.92965   -47.722683    38369.369 
  604100    302.82827   -1481.5434    502.38225    389.29198   -893.55647    38369.369 
  604200    298.26347   -1449.7529    497.94924    396.02152   -405.89927    38369.369 
  604300    304.50783   -1471.1417    482.93286    387.83402   -316.38055    38369.369 
  604400    301.59387   -1503.3273    498.32515    357.87278   -74.572821    38369.369 
  604500    310.87147   -1490.4097    495.94115    410.33105    304.30721    38369.369 
  604600    301.87894   -1487.6972     477.6256    354.09155   -117.57659    38369.369 
  604700    307.05218   -1496.6397    519.52741    410.42823    464.64341    38369.369 
  604800    302.65019   -1478.9831    500.91232     389.5776     398.3087    38369.369 
  604900    300.91557   -1497.4737    492.30979    354.64586    182.72042    38369.369 
  605000    294.27177   -1492.8669    504.38096    341.30116     348.2405    38369.369 
  605100    293.12684    -1551.021    485.74537    259.33757    250.48815    38369.369 
  605200    306.01768    -1530.476    496.70798    349.09776   -382.71211    38369.369 
  605300    305.56707   -1501.3806    468.01464    347.46358   -520.25235    38369.369 
  605400    304.61279   -1485.8203    495.20282    385.89968   -403.92682    38369.369 
  605500    302.09385   -1497.9963    481.14858    348.28656   -685.75224    38369.369 
  605600    303.61555   -1504.0178    510.49577    378.48873   -676.17762    38369.369 
  605700    307.63093   -1493.0873    477.38363    374.45218    151.41918    38369.369 
  605800    299.67342   -1531.7238     483.3566    305.82942   -3.2693933    38369.369 
  605900    302.41593   -1524.4534     519.8095     361.9459    443.35527    38369.369 
  606000     295.2463   -1520.2684    507.95853    321.88105    569.63145    38369.369 
  606100    301.83957    -1504.654    473.12386    332.45514     918.1627    38369.369 
  606200    307.68025   -1486.4845    486.99924    390.89346    726.71111    38369.369 
  606300    296.76763   -1478.6249     490.7272    353.16792    429.83896    38369.369 
  606400    304.95089   -1516.0924    475.57104    337.52374     297.0241    38369.369 
  606500    292.45667   -1488.8157    497.89763    330.66673   -508.00632    38369.369 
  606600    302.38868   -1475.1555    464.94949    356.26062   -817.00949    38369.369 
  606700    299.31559   -1505.2016    500.53518    347.91318   -614.48898    38369.369 
  606800    293.50741   -1518.3891    521.19932     329.1432   -294.33514    38369.369 
  606900    301.64922   -1492.2604    487.15368    358.01835    274.65134    38369.369 
  607000    300.17223   -1501.0443    514.37853    369.78489    529.22874    38369.369 
  607100    307.84278   -1528.4239    478.40429    341.09363    261.07572    38369.369 
  607200     290.7628   -1525.6241    495.09892    283.40513    449.67912    38369.369 
  607300    308.59022   -1496.7196    501.69856    399.46976    162.68177    38369.369 
  607400    295.33597   -1480.9278    506.43468    360.10303    186.20127    38369.369 
  607500    299.05954   -1504.8409    492.23073    338.81238   -130.24899    38369.369 
  607600    296.66513   -1468.1576    506.97202    379.41685    781.42761    38369.369 
  607700    300.21605   -1486.7449    527.79625     397.7001   -548.89044    38369.369 
  607800    303.25936   -1502.4165    493.33064    361.31535   -179.10467    38369.369 
  607900    301.63231   -1500.9472    487.77062    349.87203   -310.88718    38369.369 
  608000    289.73281   -1463.3467    501.84445    347.77365    2.3134999    38369.369 
  608100    307.67729    -1485.545    475.63006    380.45039    73.782412    38369.369 
  608200     308.3894   -1485.5268    501.16021    409.21673   -248.43945    38369.369 
  608300    311.38601   -1471.2649    527.47111    463.33091    353.38251    38369.369 
  608400    295.56596   -1511.1319    499.93999    324.44343    396.55523    38369.369 
  608500    297.78144   -1537.6935     513.6689    321.62236    354.67306    38369.369 
  608600    296.95304   -1519.8203    504.02542    326.10856    79.967875    38369.369 
  608700    295.53202   -1513.4202    503.51295    325.57478   -98.273106    38369.369 
  608800    300.71992    -1487.926    499.13907    370.13873   -227.38804    38369.369 
  608900    304.51066   -1476.7261    490.85225    390.18184     118.2261    38369.369 
  609000    304.16242   -1527.5361    511.53361    358.47953    138.68428    38369.369 
  609100    294.16446    -1527.559    522.31683    324.05997    -32.29195    38369.369 
  609200    301.91819   -1481.2311    512.24594     395.3554   -243.18238    38369.369 
  609300    298.09735   -1533.7041    514.95752    328.32791   -324.36634    38369.369 
  609400    291.13488   -1496.9138    523.02255     341.7205   -258.64211    38369.369 
  609500    297.96812   -1479.8068    519.73313    386.41692    223.48671    38369.369 
  609600    299.37842   -1482.8402    503.59677    373.62016    8.8638301    38369.369 
  609700    294.94273   -1454.3981    469.56432    347.98533   -412.48572    38369.369 
  609800    303.76053   -1560.1356    497.07466    309.60494   -390.58096    38369.369 
  609900    303.93928   -1523.2517    482.96802    333.18996    -129.3689    38369.369 
  610000    301.48452   -1496.4408    482.33735    348.27738   -110.90108    38369.369 
  610100    301.82882   -1465.3521    488.56872    387.15333   -48.512296    38369.369 
  610200    303.67355   -1492.9546    501.56455    380.88284   -129.91526    38369.369 
  610300    287.52371   -1523.8865    516.89996    292.30662    329.05689    38369.369 
  610400    303.86443   -1562.4117    492.87434    303.59809    190.10756    38369.369 
  610500    311.31346    -1531.468    512.77969    388.10856    774.63751    38369.369 
  610600    298.97141   -1534.3223    511.64091    328.34291   -112.42593    38369.369 
  610700    302.13943   -1535.3747    499.89033    329.85593   -71.826651    38369.369 
  610800    295.61596   -1531.0146    503.23945    308.08621   -91.181685    38369.369 
  610900    297.00086   -1502.5529    535.04282    374.60954   -365.62722    38369.369 
  611000    302.50459   -1546.6984    479.09296    299.38494    310.99109    38369.369 
  611100    302.48926   -1516.5131    508.24052    358.64855    480.56414    38369.369 
  611200    303.75528   -1505.6793    515.85187    382.81478    20.518851    38369.369 
  611300    294.66825   -1456.7669    502.93206    377.74391   -226.00699    38369.369 
  611400    312.77771   -1457.7942    531.20962     486.8291   -187.72551    38369.369 
  611500    291.71862   -1508.7427    499.85141    309.35835   -389.82885    38369.369 
  611600    301.61572   -1492.3726    500.49112    371.09225    -285.0804    38369.369 
  611700    293.46532   -1480.8958    495.37116    340.61812   -56.189028    38369.369 
  611800    298.96721   -1509.9989    483.49569    324.50208   -346.00541    38369.369 
  611900    300.45395   -1474.5309    530.29376    413.48666    291.65882    38369.369 
  612000    297.43262   -1491.3451    543.85958     396.5851    76.958443    38369.369 
  612100    298.52189   -1535.6321    506.63664    319.99747    253.18342    38369.369 
  612200    299.34479   -1506.9456     491.1685    336.93444   -6.9157278    38369.369 
  612300    298.71814   -1503.4053      505.405     351.8795    247.07536    38369.369 
  612400     304.9192   -1494.9282    499.81545    382.78913   -121.01204    38369.369 
  612500    303.71933   -1502.7956    497.35564    367.03977    179.00777    38369.369 
  612600    289.93677   -1507.1333    532.27943    335.34372    383.50415    38369.369 
  612700    288.98821   -1513.3985    485.46852    277.98119    260.49919    38369.369 
  612800    298.99628    -1524.248    495.62887    322.51762    217.70154    38369.369 
  612900    297.98922   -1523.9256    515.61104    338.27131     188.1653    38369.369 
  613000    299.07659   -1489.4822     514.7139    376.73133    492.94689    38369.369 
  613100    294.22232   -1504.5945    526.21349    351.18254    261.35361    38369.369 
  613200     293.4845   -1510.5348    521.06084    336.75549    197.62915    38369.369 
  613300    288.21078   -1476.2897    497.57546    323.68374   -29.440278    38369.369 
  613400    305.76315   -1490.0904    512.97036    404.59546    280.88793    38369.369 
  613500     298.5979   -1514.3947    501.77479     336.7165    12.677728    38369.369 
  613600    308.30542   -1532.8188     504.8883     365.2733   -102.17796    38369.369 
  613700    296.43341   -1513.7831    498.50165    324.27386    416.15637    38369.369 
  613800    291.94152   -1508.6256    530.62598    341.25727   -37.404679    38369.369 
  613900     306.0309   -1513.2519    503.93718    373.61081    226.04769    38369.369 
  614000    297.66996   -1469.8878    534.37999    409.63536    888.35723    38369.369 
  614100    290.50866    -1491.124    518.66952    340.32745    346.34023    38369.369 
  614200    302.68888   -1505.4092    514.11451    376.52858    882.24116    38369.369 
  614300     290.0611   -1508.1319    496.79312    299.42067   -140.52735    38369.369 
  614400    301.83523   -1506.9238    509.80668    366.84853    224.82346    38369.369 
  614500    300.23945   -1487.4712     518.6669    387.95015    166.52175    38369.369 
  614600    299.21439   -1471.2212    535.35343    416.25456    384.94599    38369.369 
  614700    300.13679   -1473.8473      483.794    366.23726    11.673392    38369.369 
  614800    293.29085    -1484.101    520.05451    361.30788   -109.73579    38369.369 
  614900     300.1483   -1497.9013    505.55208    363.99335     76.35492    38369.369 
  615000    305.91327   -1527.8716    491.67538    346.19768   -145.46049    38369.369 
  615100     306.9334   -1479.3684     514.0616      421.697    383.13284    38369.369 
  615200    299.55218   -1498.7818    525.51548    380.38239    133.73529    38369.369 
  615300     306.3506    -1478.152    517.17207    423.39023    25.492497    38369.369 
  615400    306.63254   -1471.7142    512.27502    426.20506   -364.32549    38369.369 
  615500     296.6931   -1479.0021    497.36997    359.09667    81.822307    38369.369 
  615600    300.32282   -1499.7517     493.5017    350.88121   -243.48184    38369.369 
  615700     287.9092    -1491.495      563.029    372.56917    52.225657    38369.369 
  615800    297.85506   -1444.6456    508.34844    409.68242    155.32219    38369.369 
  615900    307.46714   -1459.2567     504.7216    434.88059   -44.265998    38369.369 
  616000    302.23162   -1456.0633    538.00424    447.69781    22.538112    38369.369 
  616100    294.44804   -1478.6791    499.06494    350.96945    244.29764    38369.369 
  616200      304.929   -1439.4446     518.2942    456.79576   -84.370504    38369.369 
  616300    300.57062   -1435.8731    502.82879    425.20666   -76.740963    38369.369 
  616400    301.05516   -1443.5315    553.05134    469.96039   -81.648522    38369.369 
  616500     311.0075   -1407.1582    530.91548    529.17155   -47.009873    38369.369 
  616600     299.0305   -1418.0028    490.90434    424.19284    12.015837    38369.369 
  616700    299.68691   -1448.0499    513.32176    419.52947   -195.71355    38369.369 
  616800    301.67362   -1477.2471    517.18898    403.17721   -833.44222    38369.369 
  616900    290.26549   -1457.8323    501.09317    354.94387    4.7900216    38369.369 
  617000    290.49567   -1480.1539    519.24971    351.81905    163.55151    38369.369 
  617100    304.01233   -1477.4845    515.91291    412.23215    451.54262    38369.369 
  617200    297.52603   -1498.8127    492.57435     338.2544   -140.97126    38369.369 
  617300    296.21171   -1491.3433    500.96597    348.17613    65.581157    38369.369 
  617400    305.05708   -1511.2895     482.1383    349.37367   -282.39469    38369.369 
  617500    293.83895    -1509.577     497.7133    315.96748    -185.9125    38369.369 
  617600    302.36609   -1510.3205    488.35516    344.39925   -660.83183    38369.369 
  617700    304.96089   -1453.4939    474.38786    398.98417   -112.91944    38369.369 
  617800    316.04204    -1473.222    484.26018    439.20311   -260.22615    38369.369 
  617900    301.42008   -1525.1003    514.58027    351.56954    56.542689    38369.369 
  618000    301.55637   -1498.7497    504.44053    368.39638    -562.9601    38369.369 
  618100    305.04899   -1488.5523    521.40458    411.34063    -646.6747    38369.369 
  618200    306.83516    -1468.851    484.74624    402.45515   -551.74994    38369.369 
  618300    304.55681   -1511.7809    490.27234    354.75568   -411.52966    38369.369 
  618400    302.13442   -1486.2286    512.20267    391.29172    343.36492    38369.369 
  618500    296.17007   -1480.1854    495.58819    353.76814    723.99367    38369.369 
  618600    299.54401   -1476.3315    519.01676    396.29708    860.23099    38369.369 
  618700    298.43463   -1492.1548    518.78326    375.22711    866.92433    38369.369 
  618800    294.74751   -1507.1687    508.72189     333.4901    188.24608    38369.369 
  618900    296.14918   -1477.3754    537.67513    398.57058   -593.04345    38369.369 
  619000    307.47214   -1443.5791    518.96538    464.82459   -224.91805    38369.369 
  619100    303.36593   -1445.6116    516.18738    441.45858   -30.345107    38369.369 
  619200    301.35206   -1427.7824    513.19437    447.19421   -418.69658    38369.369 
  619300    298.79159   -1429.0598    507.84454     428.9964   -690.79268    38369.369 
  619400    298.97491   -1417.8339    520.90701    454.11321   -307.55004    38369.369 
  619500    295.67922   -1410.6011    511.49781    437.04393    57.573177    38369.369 
  619600    300.23117   -1448.3407    503.65877    412.03515    71.769345    38369.369 
  619700    304.15356   -1440.9155    509.43022    442.95671    471.31552    38369.369 
  619800    303.48097   -1413.2567    512.50666    470.65258    157.83771    38369.369 
  619900    308.17061   -1401.7663    506.18062    497.00899   -182.80639    38369.369 
  620000    292.73385   -1387.1323    527.78942    463.49447   -166.83459    38369.369 
  620100    299.95498   -1400.8694    506.61192    461.21148    160.66075    38369.369 
  620200     289.7338   -1410.2849    544.49641    443.49189   -156.36242    38369.369 
  620300    294.06391   -1410.4746    498.74555    417.11877    400.61656    38369.369 
  620400    299.90453   -1453.0898    522.68509    424.83626   -152.02776    38369.369 
  620500     291.0838   -1465.6391    511.64716      361.389   -33.573364    38369.369 
  620600    301.09894    -1437.018    477.18184    400.80227    184.41975    38369.369 
  620700    294.17882   -1483.4421    512.21323    358.13821   -271.56335    38369.369 
  620800    292.95393   -1429.2174    512.10735    406.72178   -232.81926    38369.369 
  620900    307.06693   -1446.1225    492.15579    433.64045   -54.334952    38369.369 
  621000    301.90642   -1512.2453    489.15586    341.19793    309.40381    38369.369 
  621100    302.66937    -1482.621    488.72566    373.83974    306.69706    38369.369 
  621200    307.75083   -1470.6252    527.22089    447.29338    368.51792    38369.369 
  621300    309.52389    -1437.998    502.54372     463.2557    9.5839577    38369.369 
  621400     296.8549   -1437.5254    500.47876    404.41336   -144.89984    38369.369 
  621500    294.20751   -1455.2164    507.04338    381.32361   -147.77937    38369.369 
  621600    299.18283   -1451.1965    484.27824    385.06149   -71.866351    38369.369 
  621700    295.58174   -1419.3741    497.19314    413.52576   -51.020672    38369.369 
  621800    310.86774   -1439.9459    473.44611    438.28292    168.92769    38369.369 
  621900    299.09048   -1453.2169    472.24173    370.58716    564.94733    38369.369 
  622000    307.97262   -1490.4814    488.25376    389.47233    93.811676    38369.369 
  622100    291.46383   -1483.5925    466.25421    299.75994   -412.99998    38369.369 
  622200    300.86556   -1465.1061    480.65101    375.12867   -770.29882    38369.369 
  622300    285.23673   -1469.5919    506.32519     325.6918   -699.46792    38369.369 
  622400    296.98315   -1439.9241     511.1196    413.23505    50.682327    38369.369 
  622500    297.17303   -1444.5784    522.01869    420.33789    151.70947    38369.369 
  622600    292.14602   -1428.5663    497.19113    388.80586   -274.54319    38369.369 
  622700    301.91568   -1455.4474     492.6592      401.541   -92.383415    38369.369 
  622800    310.38388   -1446.6153    490.85808    446.83902    205.98756    38369.369 
  622900    294.97887   -1470.0439    502.86938    365.80782    696.31411    38369.369 
  623000    299.60696    -1502.686    499.55158    350.76187    711.83039    38369.369 
  623100    306.42971   -1480.0845    487.31659    391.95978    750.25232    38369.369 
  623200    309.07164   -1490.0992    487.69989    394.26705    137.59559    38369.369 
  623300    302.20914   -1482.7936    486.41259    369.27433    253.27884    38369.369 
  623400    303.23598   -1471.2509    484.82322    383.86785    536.47793    38369.369 
  623500    290.22175   -1465.2942    462.02011    308.21131    253.67659    38369.369 
  623600    303.23402   -1451.1383    486.70144    405.84976    523.70806    38369.369 
  623700    295.26748    -1474.025     494.1893    354.45084    149.56307    38369.369 
  623800    306.01762   -1463.7913    481.63153    400.70574    379.63685    38369.369 
  623900    298.31856   -1476.1478    468.26696    340.19336    38.699507    38369.369 
  624000    301.48991   -1441.1856    518.98376    440.20333   -201.94681    38369.369 
  624100    306.14305   -1462.0501    492.54261    413.92483   -212.09423    38369.369 
  624200    301.98726   -1448.3436    490.25454    406.56356   -693.88951    38369.369 
  624300    297.91176   -1458.8841    509.14799    396.49972   -668.03963    38369.369 
  624400    312.20786   -1452.5052    485.39332    443.72673   -301.15803    38369.369 
  624500    292.64795   -1428.1655    494.10946    388.39319    73.334339    38369.369 
  624600    303.92313   -1475.0435    496.80977    395.16694   -53.236519    38369.369 
  624700    306.26105   -1465.0632     486.5239    405.42624   -183.39685    38369.369 
  624800    298.74739   -1475.0459    490.07226    365.03828    232.99522    38369.369 
  624900    313.56462   -1484.0341    502.51052    435.44614    396.29811    38369.369 
  625000    296.57801    -1479.425    479.14976    339.93353    213.28854    38369.369 
  625100    313.98404   -1486.4201    493.24507    425.68997    183.21481    38369.369 
  625200    291.87221   -1522.0307    497.08236    293.99535    383.16172    38369.369 
  625300    298.05189    -1468.465    491.99247    370.39653   -116.57689    38369.369 
  625400    305.01847   -1460.9228    483.83711    401.26469   -105.32397    38369.369 
  625500    304.88805   -1496.1431    488.11581    369.73379    209.38595    38369.369 
  625600     302.1215   -1485.2677    504.28375    384.27528   -164.32775    38369.369 
  625700    302.34003   -1496.8651    470.00713    339.38878    201.02247    38369.369 
  625800    293.80475   -1532.5389    478.99977     274.1375    36.121309    38369.369 
  625900     296.0343   -1537.5366    495.37667    295.59181   -24.338216    38369.369 
  626000    312.21512   -1480.2936    497.74654    428.32436     -70.0239    38369.369 
  626100    294.54256   -1529.9364    473.28767    274.36199   -262.58652    38369.369 
  626200      301.009   -1503.0677    468.04748    325.21182   -12.870876    38369.369 
  626300    313.51272   -1492.5065    492.41196    416.64057    199.36223    38369.369 
  626400    299.31812   -1547.3959    466.49735    271.69253   -70.569348    38369.369 
  626500     299.8771   -1523.7036    481.50865    312.92213   -102.57473    38369.369 
  626600    306.98845   -1537.8015    488.56367    338.01477     71.55993    38369.369 
  626700    294.20487   -1534.1203    488.29525    283.65974    21.845104    38369.369 
  626800    289.81405   -1558.1151    460.51198    212.03988    236.02794    38369.369 
  626900     300.2481   -1572.2829     491.4308    275.94142    621.75324    38369.369 
  627000    297.16461   -1567.2705    489.19246    264.78154    389.01147    38369.369 
  627100    301.30093   -1528.4207    471.59043    304.72094    237.64901    38369.369 
  627200    306.58191    -1502.698    487.87402    370.59148   -243.99665    38369.369 
  627300    303.56547   -1470.0978    509.69486    411.38146    -224.4439    38369.369 
  627400     304.6123   -1479.0066    502.55082    400.05924    228.81936    38369.369 
  627500    300.95505   -1476.0297    514.05545    398.01397   -118.05128    38369.369 
  627600    295.59252   -1506.1579    507.38047    336.97796    62.475601    38369.369 
  627700    304.68218   -1493.2039    465.47484    349.10166   -126.68603    38369.369 
  627800    291.75306   -1485.0764    483.37423    316.70305   -20.924188    38369.369 
  627900    294.81904   -1492.6839    500.03043    339.60661   -216.84765    38369.369 
  628000    303.38813   -1484.5451    486.72735     373.1653    383.98614    38369.369 
  628100    305.69894   -1501.3579    492.70482    372.77225    234.24015    38369.369 
  628200    305.45565   -1502.3671    506.82459    384.78354    288.53705    38369.369 
  628300    309.20301   -1532.8488    477.64468    342.05587    571.60555    38369.369 
  628400     296.6852   -1551.4235    473.45025    262.71989    44.813244    38369.369 
  628500    308.01179    -1548.696    504.56051    347.74143    384.64152    38369.369 
  628600    300.43525   -1523.7276    504.60484    338.51654    452.56216    38369.369 
  628700     300.1901   -1531.5493    457.22573    282.20793    236.68368    38369.369 
  628800    299.35292   -1528.0408    505.80579    330.51332    64.523052    38369.369 
  628900     297.7115    -1476.861    487.37346    355.84337     121.4755    38369.369 
  629000    299.66692   -1529.2534    488.72375    313.63765    315.10912    38369.369 
  629100    297.69973    -1534.266    521.68158    332.69333    532.51019    38369.369 
  629200    290.53164   -1487.7379     502.8671    328.01493    90.513056    38369.369 
  629300     301.9141    -1528.431    500.09651    335.98754   -364.25698    38369.369 
  629400     301.6757   -1446.6391     503.5491    420.15477   -44.867958    38369.369 
  629500    290.34129   -1496.7786    495.61114    310.85812   -402.82055    38369.369 
  629600    304.71118   -1468.3979    483.23294    391.79686   -43.412801    38369.369 
  629700    303.68435   -1458.1321    516.92213    431.11167   -829.67643    38369.369 
  629800    296.18053   -1464.7899    520.72733    394.35001   -505.11636    38369.369 
  629900    297.47613   -1484.6456    481.82733    341.44901   -690.01436    38369.369 
  630000    298.37838   -1430.5958    526.28887     444.0375   -556.34839    38369.369 
  630100    292.96732   -1447.5654    474.22279    350.54976     -492.193    38369.369 
  630200    295.80391   -1474.2261    499.72669     362.2113   -200.45649    38369.369 
  630300    307.16746    -1469.303    508.44139    427.19987   -74.956467    38369.369 
  630400    305.72654   -1450.5381    498.30726    429.31924    21.680389    38369.369 
  630500    291.53233   -1437.4195    501.66543    381.65369   -54.608015    38369.369 
  630600    300.72327   -1456.8178    480.30874    382.43173    193.07311    38369.369 
  630700    301.46189   -1475.9141    481.99421    368.35871    75.515826    38369.369 
  630800    295.97946   -1432.6643    506.41532    411.25501    329.80369    38369.369 
  630900    297.55002     -1452.97     515.1532    406.78437    383.37232    38369.369 
  631000    309.42131    -1461.802    513.33524    449.77972    256.92869    38369.369 
  631100    292.38355   -1442.2679    512.44366    391.43016     209.9799    38369.369 
  631200    300.35156   -1406.9133    495.05639    445.40421     158.2681    38369.369 
  631300    303.92276   -1480.3625    518.71208    411.74858    338.46742    38369.369 
  631400     300.9631   -1458.5496    496.24492    397.71994    57.194803    38369.369 
  631500    294.69458   -1528.5602    510.66352    313.80102    39.396961    38369.369 
  631600    305.10008   -1498.6243    494.62107    374.71603    530.66136    38369.369 
  631700    296.75281   -1489.6938    487.47859    338.78349    305.38097    38369.369 
  631800    305.40935   -1460.4728    502.64742    422.29135     45.09934    38369.369 
  631900    296.01797   -1404.7009    487.22204    420.19906    525.17664    38369.369 
  632000    299.84729   -1489.2719    482.60467    348.31507   -433.42652    38369.369 
  632100    292.75157   -1440.7512    501.63213    383.79836    41.139574    38369.369 
  632200    294.17476   -1483.4496    467.98768    313.88671    277.73728    38369.369 
  632300    297.95833   -1452.2193    482.74816    376.97513    114.59501    38369.369 
  632400    296.09983   -1503.4586    504.98222    339.57155    175.06646    38369.369 
  632500    298.67713   -1557.9367    435.10478     226.8626   -12.612028    38369.369 
  632600    304.53962   -1544.6362    486.12182     317.6721    814.85562    38369.369 
  632700    309.82535   -1535.1288    516.07065     381.0141    302.87609    38369.369 
  632800    287.33167   -1491.7264    475.91233    282.61126    512.36496    38369.369 
  632900     301.2415   -1461.3503    488.41246    388.34474     267.1696    38369.369 
  633000    303.83416    -1512.129    472.76436    333.63394    399.86907    38369.369 
  633100    293.25844    -1475.051    489.51362    339.67048    421.95121    38369.369 
  633200    300.52648   -1474.6915    540.72925    424.08933   -95.953562    38369.369 
  633300     300.7117    -1469.262    455.15468    344.78116     9.711715    38369.369 
  633400    301.37253   -1501.1953    489.81544    350.49489   -231.67305    38369.369 
  633500    294.59672   -1472.6742    457.73489    316.31622   -365.13733    38369.369 
  633600    305.33383   -1460.1034    515.11042    434.78248   -253.16896    38369.369 
  633700     302.5651   -1493.9325    464.13358    337.46498   -262.17589    38369.369 
  633800    290.90664   -1500.6191    488.38479    302.34609   -124.76194    38369.369 
  633900    309.69712   -1473.6657    477.23337    403.06049    450.17091    38369.369 
  634000    290.12002   -1452.5406    469.32457    327.80967   -752.21147    38369.369 
  634100    303.61362   -1460.9091    476.65592    387.74888   -459.14426    38369.369 
  634200    306.53331   -1479.4963    501.31999    407.01955   -492.74426    38369.369 
  634300    295.32538   -1426.1694     514.3308     422.7096    59.847769    38369.369 
  634400    298.02018   -1462.7286    470.02753    354.02469   -256.62651    38369.369 
  634500    293.62659   -1438.9781    502.83914    390.73255     110.2591    38369.369 
  634600    300.78234   -1464.6495    489.08005    383.63824     247.0799    38369.369 
  634700    295.79265   -1436.8121    490.95223    390.79992    648.99638    38369.369 
  634800    306.20109   -1498.6758    498.24321    383.26196     234.0277    38369.369 
  634900    298.05096   -1460.6485    489.34513    375.56148    713.59948    38369.369 
  635000    302.48194   -1455.7657     529.9239    441.04628    586.53046    38369.369 
  635100    304.34936   -1471.7888    494.45337    397.99134    393.14716    38369.369 
  635200    297.12661   -1498.3234    472.38908    316.75345    621.26258    38369.369 
  635300    301.30099   -1492.8599     487.8952    356.58677    331.54635    38369.369 
  635400    290.81971   -1464.7618    498.40309    347.82882    309.23763    38369.369 
  635500    305.73939   -1484.8012    477.35696    374.16401    253.99157    38369.369 
  635600      303.538   -1422.9819    470.82677    419.50522   -311.50169    38369.369 
  635700    313.72724   -1455.8694    456.67323    418.50843    140.21371    38369.369 
  635800    316.57221   -1470.2592    469.29182    429.59334    374.42719    38369.369 
  635900    308.57565   -1430.9278    499.34299    462.84017    711.32366    38369.369 
  636000    301.53852    -1417.227    503.15169    448.54957    288.52123    38369.369 
  636100    291.41357    -1408.981    459.62313    367.51326   -330.34763    38369.369 
  636200    312.42169   -1373.6282     506.8997    545.07638    482.10629    38369.369 
  636300    306.23934   -1396.6314    476.31848    463.55447   -347.46567    38369.369 
  636400    316.96478   -1411.7761    510.32339      530.882    108.15703    38369.369 
  636500    295.57505   -1416.0569    488.18261    407.80216    96.181594    38369.369 
  636600    305.23655   -1406.7012    493.04412    465.67884    115.70875    38369.369 
  636700    298.22365   -1387.5524     492.0216    452.11443   -63.839498    38369.369 
  636800     308.0664   -1390.9044    494.68047    495.89981   -370.62562    38369.369 
  636900    305.05826   -1365.5851    512.66076    525.60591    -64.00753    38369.369 
  637000    309.83579   -1393.4425    506.31218    512.98911   -84.325268    38369.369 
  637100    301.66399   -1415.9242    485.93286    433.20051   -655.11841    38369.369 
  637200    293.67797   -1427.3473    511.11427    410.87074   -717.19646    38369.369 
  637300    310.43892   -1394.2503    477.99475    486.58935   -327.51799    38369.369 
  637400    297.38183   -1419.3333    491.53484    416.04268    -818.2783    38369.369 
  637500    288.16944   -1405.5982    485.61804    382.23108   -96.831536    38369.369 
  637600    303.93192   -1447.6075    513.18298    439.01588    495.51838    38369.369 
  637700    294.74111    -1458.714    482.51711     355.7111   -347.12349    38369.369 
  637800    302.03335    -1448.813    507.30679    423.35476    240.53046    38369.369 
  637900    297.51274   -1444.9858    474.97776    374.42463    178.00545    38369.369 
  638000    307.78088   -1429.6273    494.66142    455.86762    487.32001    38369.369 
  638100    294.51373   -1475.7932    482.10754    337.19485    595.84199    38369.369 
  638200    301.05827   -1483.3282    474.95322    352.07971     618.1604    38369.369 
  638300    303.06989   -1475.4756     459.1897    353.25908    -51.06294    38369.369 
  638400     304.0624   -1499.8289    500.35049     374.5516   -139.37262    38369.369 
  638500    283.08485   -1493.6917    443.14975    228.69249    581.48989    38369.369 
  638600    303.32216   -1476.4371    517.95179    412.19961   -394.25479    38369.369 
  638700     298.9247   -1466.1802    485.75392      370.387    397.10384    38369.369 
  638800    299.70982   -1456.0312    455.11557    353.44548    563.67219    38369.369 
  638900    288.19759   -1471.4096    504.13048    335.05924    128.04599    38369.369 
  639000    302.05778   -1464.7298    480.86435    381.10588    182.91879    38369.369 
  639100    289.41212   -1440.3063    478.15643    345.67694    102.77851    38369.369 
  639200    290.08048   -1505.2221    503.45423    309.07911   -319.99157    38369.369 
  639300    292.30454   -1532.8979    468.84636    256.84577    192.92179    38369.369 
  639400    306.42796   -1508.8004    488.63024    364.54956    292.90593    38369.369 
  639500    298.37411    -1490.973    475.59499    332.94718   -245.27475    38369.369 
  639600    301.35138   -1489.8026     497.2007    369.17731    96.013181    38369.369 
  639700    292.81955   -1509.2591    468.66939    282.63488    77.266178    38369.369 
  639800    296.89095   -1477.1533    477.71584    342.18539    364.92275    38369.369 
  639900     309.1144   -1447.2262    524.68476    474.31804     375.0566    38369.369 
  640000    308.70904   -1421.8083    474.19937    447.41885     40.30239    38369.369 
  640100    297.04202   -1445.5785    499.98008    396.70717   -161.85965    38369.369 
  640200    300.87847   -1441.5053    484.61201    402.74885   -1025.0496    38369.369 
  640300     310.8626   -1407.4916    504.90604    502.17393    -865.9584    38369.369 
  640400    301.39021   -1454.3743    488.13055    395.71087   -912.96578    38369.369 
  640500     310.6962   -1458.4378    469.13119    414.70097   -180.16801    38369.369 
  640600    300.41005   -1455.1684    500.32466    402.68167   -475.60031    38369.369 
  640700    285.17417   -1445.5247     503.3587    346.50985   -412.68198    38369.369 
  640800    306.79317   -1449.3815    466.52331    403.51193   -90.308261    38369.369 
  640900    301.01251   -1449.8035    519.08111     429.5255   -735.90787    38369.369 
  641000    296.95815   -1452.6724    506.02883    395.28302   -335.69143    38369.369 
  641100    298.39324   -1494.5138    485.80986    339.70772   -507.87953    38369.369 
  641200    289.98561   -1485.0403    484.87734    310.25528    67.377975    38369.369 
  641300    299.20794   -1488.0858    508.10913    372.11652   -86.661281    38369.369 
  641400    289.71008    -1483.112    512.83842    338.89969   -36.362701    38369.369 
  641500    301.36235   -1461.5423    508.02888    408.31529    295.34522    38369.369 
  641600     307.5694   -1455.6322    488.19086    422.43648    316.56407    38369.369 
  641700    300.69176   -1459.9337    483.32298    382.18767     245.8927    38369.369 
  641800    307.09659   -1471.5677    489.22335    405.39688    74.672517    38369.369 
  641900    303.53399   -1483.3501    506.65472    394.94684   -156.41194    38369.369 
  642000    296.06073    -1443.787    490.76586    384.85004   -355.07843    38369.369 
  642100    291.65275   -1445.2853      519.354    392.02066    156.10745    38369.369 
  642200    298.40887   -1459.2756    504.17921    393.38585    460.14947    38369.369 
  642300    290.55221   -1461.2432    511.30292    363.03838    544.66918    38369.369 
  642400    295.56678   -1462.5248    518.35993     391.4742    135.49308    38369.369 
  642500    296.68398   -1391.6425    499.74382    448.78889   -164.32738    38369.369 
  642600    293.77126   -1463.0203    494.87673    359.38172   -320.39679    38369.369 
  642700    293.65564   -1449.5454    483.95938    361.41681   -991.09485    38369.369 
  642800    295.96521     -1460.81    479.06324    355.69284   -724.28586    38369.369 
  642900    304.96122   -1462.9513    470.71646     385.8569    65.219088    38369.369 
  643000    296.05565   -1445.3671    530.26604    422.74716    600.37893    38369.369 
  643100    307.41942   -1467.1868    496.96641    418.97966    552.49714    38369.369 
  643200    306.03553   -1510.9089    491.91257    363.95011    256.40331    38369.369 
  643300    303.31742   -1476.4308    518.72895     412.9617    277.37293    38369.369 
  643400    295.34187   -1462.7713    506.65767    378.50906   -115.11575    38369.369 
  643500    293.34441   -1446.7237    498.59329    377.46599    -293.6879    38369.369 
  643600    289.68093   -1489.2285    482.45411    302.26715    150.96914    38369.369 
  643700    293.96723   -1499.8932    455.07652    283.59419   -508.67291    38369.369 
  643800    305.19562   -1460.2004    493.32286    412.27346   -255.46886    38369.369 
  643900    298.36527   -1442.5751    478.08993    383.80003   -272.44914    38369.369 
  644000    294.68263   -1473.6988    475.36708    333.31204   -20.173863    38369.369 
  644100    300.55739   -1441.1596    493.36034     410.3919    24.513909    38369.369 
  644200    301.48166   -1492.3848    473.06249    343.04563    -51.61708    38369.369 
  644300    306.70041   -1491.1612    513.62794     408.4177    367.45903    38369.369 
  644400    308.04007   -1489.5138    476.68986    379.18086    465.32488    38369.369 
  644500    303.31141   -1457.3477    511.79808    425.08677    567.75451    38369.369 
  644600    290.02162   -1462.1477    489.17742    337.61079    50.142948    38369.369 
  644700    299.32975   -1479.2864    480.27287    353.63008    151.23472    38369.369 
  644800    303.16374   -1485.3801    501.85938     386.4484   -154.52655    38369.369 
  644900    301.11215   -1522.3002    485.40886    323.80681    -24.25654    38369.369 
  645000    293.32707   -1473.1478    495.87849    348.24876   -208.14695    38369.369 
  645100    304.26136   -1450.8892    481.81949    405.85938    760.23706    38369.369 
  645200    295.95422   -1442.3951    498.23448    393.22924    71.682415    38369.369 
  645300     292.3371    -1457.052    491.51459    355.50703    199.64382    38369.369 
  645400    303.24849   -1485.7697    511.13715    395.71948   -80.885416    38369.369 
  645500    301.77065   -1453.3908    500.50637    410.78938   -99.933507    38369.369 
  645600    306.06393   -1394.6675    534.84558    523.25286    411.95004    38369.369 
  645700    291.00904   -1439.7319     505.4845    380.79573    316.57697    38369.369 
  645800    305.80322   -1459.8723    503.81769    425.84202    367.67156    38369.369 
  645900    299.35522   -1476.5459    493.93531     370.1481   -42.742416    38369.369 
  646000     306.0925   -1448.6205    527.29557    461.87891    339.04994    38369.369 
  646100    305.62831   -1455.3517    506.15498    431.90951    107.82581    38369.369 
  646200    301.52401   -1437.1551    484.05182    409.45597    329.94095    38369.369 
  646300    305.64932   -1490.4784    515.86324    406.58604   -159.22242    38369.369 
  646400    305.28238   -1497.5517    498.11978    380.11111   -189.72146    38369.369 
  646500    305.46373   -1470.5683    511.48589    421.28008    39.383171    38369.369 
  646600    293.62419   -1432.0509    489.28696    384.09676   -518.18077    38369.369 
  646700    296.47332   -1498.3258    492.77876    334.18859   -297.41234    38369.369 
  646800     299.5719   -1495.4887        506.1    364.34918   -43.369686    38369.369 
  646900    286.81145   -1509.1556      492.741       279.66   -341.22875    38369.369 
  647000    300.73248   -1505.2172    485.59911    339.36435   -139.51327    38369.369 
  647100     300.0782   -1508.6089    509.04187    356.45878     94.70363    38369.369 
  647200    299.05142   -1506.3483    467.80972    312.84727    28.590158    38369.369 
  647300    290.54896   -1500.9721    528.70658    340.69856   -662.64136    38369.369 
  647400    307.06056   -1505.6331    494.82563    376.77091   -127.40409    38369.369 
  647500    304.42856    -1462.852    506.46616     419.2988    13.452489    38369.369 
  647600    307.12567   -1471.1227    491.24847    407.99846   -337.61429    38369.369 
  647700    305.07402   -1452.1641    476.86244    403.29982    224.89622    38369.369 
  647800    299.26662   -1506.1006    484.30429    330.56197    82.332796    38369.369 
  647900    304.45002   -1530.3611    507.86061    353.28118    518.15265    38369.369 
  648000    302.11093   -1509.7218    493.13341    348.62307   -483.29743    38369.369 
  648100    293.56509   -1474.5477    477.78561    329.83153   -490.49933    38369.369 
  648200    295.17066   -1466.7705    498.08604    365.16459   -388.72201    38369.369 
  648300    299.60661   -1473.9227    473.57161    353.54364    18.491759    38369.369 
  648400    293.31891   -1475.6281    509.15008    359.00319    45.148357    38369.369 
  648500    294.57924   -1511.8697    499.30642    318.61325    267.89699    38369.369 
  648600    297.35842   -1489.2462    513.52774    368.01694   -78.005969    38369.369 
  648700    297.59184   -1511.9315     516.0049    348.86361   -125.92514    38369.369 
  648800    311.39332   -1450.3952    520.74714    477.50975    53.583099    38369.369 
  648900    307.09075   -1495.2869    513.17667    405.60462    77.098768    38369.369 
  649000     285.8014   -1483.5063    480.09178    288.09568   -193.34915    38369.369 
  649100    302.42948   -1476.0535    521.75883    412.35633    -190.0552    38369.369 
  649200    300.22416   -1465.4068    490.70416    381.98272    503.20863    38369.369 
  649300    296.85142   -1478.0377    493.65629    357.06289    855.50071    38369.369 
  649400    302.87972    -1481.232    514.60166    402.05521     649.4176    38369.369 
  649500    299.47784   -1479.3038    500.75706    374.76614    374.13913    38369.369 
  649600    293.76731   -1466.6787    514.38175    375.21052    235.13083    38369.369 
  649700    301.23658   -1511.7731    486.87501    336.36227     512.0861    38369.369 
  649800    292.80324   -1490.0786    501.27727     334.3496    276.37137    38369.369 
  649900    300.87223   -1490.3188    497.00248    366.29758   -544.44926    38369.369 
  650000    293.40104   -1450.7501    486.44638    361.54861   -254.74001    38369.369 
  650100    293.43585   -1418.3249    515.73252    423.41722   -153.31889    38369.369 
  650200    291.88513   -1468.9162     515.0535    365.13935   -461.71938    38369.369 
  650300    291.95285    -1436.444    492.91879    375.78293   -378.37807    38369.369 
  650400    293.66999   -1457.0968    499.64352    369.61441   -284.83337    38369.369 
  650500    297.85022   -1436.1032    505.49365    415.34827   -437.05446    38369.369 
  650600    301.95834   -1457.5018    480.65553    387.67575   -596.30817    38369.369 
  650700    306.19613    -1445.773    495.21318    433.11236   -608.85185    38369.369 
  650800    295.42874   -1420.3955    516.72306     431.3429    214.78144    38369.369 
  650900    298.80193   -1432.0368    490.33068    408.55228    234.92606    38369.369 
  651000    297.44738     -1465.95     508.5114    386.69872    42.100821    38369.369 
  651100    299.84488   -1457.7645    518.51602     415.7229   -34.585408    38369.369 
  651200    291.90333   -1438.7719    464.92136    345.23379   -322.52405    38369.369 
  651300    302.97852   -1494.7139    502.77562    377.19376   -264.34751    38369.369 
  651400    299.58711   -1444.9896    493.87515    402.69216    282.89914    38369.369 
  651500    293.74581   -1486.5013    503.58341    344.49237    528.08868    38369.369 
  651600    306.84807   -1497.5683    483.96301    373.01289   -106.49354    38369.369 
  651700    292.20791   -1443.3554    492.17036    369.27559   -525.38794    38369.369 
  651800    300.40738   -1447.9771      493.448     402.9842   -267.89509    38369.369 
  651900    300.99144   -1425.5374    484.93967    419.55486   -458.55922    38369.369 
  652000    305.48604   -1434.7811    494.02953    439.71179   -79.679233    38369.369 
  652100    304.57616    -1422.677    504.04358    457.71827   -189.65619    38369.369 
  652200    295.28398   -1395.2282    535.04917    474.18209   -268.33567    38369.369 
  652300    299.24998   -1423.4406    496.19513    425.03767    139.68638    38369.369 
  652400    297.61346   -1413.2509    520.22704      451.864   -109.77041    38369.369 
  652500    298.78724   -1407.2947    512.42271    455.32008   -349.32249    38369.369 
  652600    311.79006    -1427.697    505.07103    486.32459   -382.43386    38369.369 
  652700     303.3969   -1437.0234    519.37312    453.37241   -271.60328    38369.369 
  652800    314.31764   -1454.6872    508.50065    474.18597    266.66924    38369.369 
  652900    302.38189   -1459.0859    483.45984    390.80988   -56.183374    38369.369 
  653000     310.6238   -1454.9531    526.68613    475.41344    -13.90879    38369.369 
  653100    294.24072   -1499.8493    455.90124    285.69863   -224.74925    38369.369 
  653200     303.3415   -1437.5217     485.8249    419.07553   -434.97258    38369.369 
  653300    303.58327   -1450.4003    494.34638    415.81098    484.54287    38369.369 
  653400    305.90424   -1488.6796    507.75461    401.42814    241.84708    38369.369 
  653500    297.49267   -1475.4657    516.29165    385.16801    228.67896    38369.369 
  653600    292.97431     -1438.57     495.2844     380.6384    58.942426    38369.369 
  653700    290.34036   -1471.4476    490.56348    331.13729   -40.911349    38369.369 
  653800     295.1612   -1488.4139    513.73585    359.12827   -751.97467    38369.369 
  653900    304.65655   -1505.9261    516.35987    387.14865    -734.2569    38369.369 
  654000    307.45989   -1498.5105    484.94141    375.81391   -382.61782    38369.369 
  654100    304.34424   -1513.3133    472.69119    334.68154   -406.03864    38369.369 
  654200    298.77456   -1478.9881    485.36556    356.51221   -653.58083    38369.369 
  654300    296.18453   -1476.1259    483.55815    345.86293   -194.08184    38369.369 
  654400    294.62648   -1483.0055    474.96679    323.35126     117.3427    38369.369 
  654500    300.70923   -1492.2384    496.86214    363.50107   -91.764332    38369.369 
  654600    300.93583   -1507.7123    484.31572    336.50479    151.17707    38369.369 
  654700    297.24773   -1476.6147    515.64694    382.26739    574.55263    38369.369 
  654800    296.41253   -1443.2509    480.45775    376.66788    281.62083    38369.369 
  654900    290.99511   -1454.7696    519.35822    379.56876    594.62155    38369.369 
  655000    300.71351   -1465.7777    486.74887    379.86782    651.80372    38369.369 
  655100    303.65229   -1414.9407    508.46647    465.70253      150.096    38369.369 
  655200    285.24388   -1442.9589    481.70699    327.73898    -129.0732    38369.369 
  655300    292.93663   -1448.4511     490.6273    365.92992     -102.232    38369.369 
  655400    308.17848    -1471.701    480.84306    401.77227    -181.3675    38369.369 
  655500    300.59756   -1464.9059    481.03146    374.49828   -144.37663    38369.369 
  655600    303.43917   -1464.2453    487.23517     394.2036   -306.17508    38369.369 
  655700    291.09728    -1452.785     475.7995    338.45637   -593.97881    38369.369 
  655800    305.31206   -1477.6648    487.82895     389.8413    69.673311    38369.369 
  655900    286.86034   -1448.5562    506.34172      354.081    -3.464993    38369.369 
  656000    299.79214   -1454.6311    501.13895    401.24099    138.34365    38369.369 
  656100    297.78276   -1427.6706     508.4009     426.3832    143.66702    38369.369 
  656200     307.0465   -1493.1895    462.44303    356.76838   -241.83783    38369.369 
  656300    300.40777   -1446.1631    508.09239    419.44434    297.11048    38369.369 
  656400    301.72133   -1456.0951    453.02247    360.37826    384.09716    38369.369 
  656500    293.25913   -1506.6586    473.21286    291.76523    170.92948    38369.369 
  656600    290.68986   -1437.3383    498.04412    374.30653    271.32655    38369.369 
  656700    295.09633   -1467.5253    487.34036    353.32821    277.68861    38369.369 
  656800    303.73506   -1466.0157    490.15301    396.68807    267.72603    38369.369 
  656900    292.57347   -1470.9797    480.28085    331.41371    189.84008    38369.369 
  657000    311.53134   -1463.6753    507.68826    451.79444    203.93121    38369.369 
  657100    304.10058   -1486.9141    491.15728    378.44579    227.76844    38369.369 
  657200    298.09509   -1496.2892    490.67419    341.44928    213.82409    38369.369 
  657300    308.57289   -1438.4958    495.64939    451.56605    591.02383    38369.369 
  657400    314.44388   -1450.7437    481.83679    452.03612    662.61169    38369.369 
  657500    297.38569   -1479.8811    461.87865    325.85617    199.34718    38369.369 
  657600    307.17031   -1483.7631     506.5454    410.85674    33.500526    38369.369 
  657700     293.4609   -1449.5605    476.00355    352.56586    362.12002    38369.369 
  657800    306.23758   -1448.3329    500.78146    436.30797    701.70893    38369.369 
  657900    305.20339   -1495.3645    484.00322    367.82477    103.17525    38369.369 
  658000    307.91435   -1447.5641    495.84987    439.72238    90.055322    38369.369 
  658100    292.74087   -1453.0973    477.19814    346.96997    106.04147    38369.369 
  658200     300.9323   -1465.8147    482.29382    376.36452    256.79034    38369.369 
  658300    308.58586    -1466.305    479.68664    407.85279    133.43531    38369.369 
  658400    308.77315   -1447.2291    513.80008    461.88845    455.24012    38369.369 
  658500    303.81076   -1471.5264    489.72354    391.09006    340.72209    38369.369 
  658600    299.27365   -1414.3792    484.64462     422.6555    274.82908    38369.369 
  658700    301.34329   -1399.2783    551.12245    513.58682   -285.30316    38369.369 
  658800    304.72237   -1385.5143    495.08417    486.58225   -167.39324    38369.369 
  658900    307.62352   -1416.1056    500.95359    474.97039   -515.40724    38369.369 
  659000    305.59431   -1410.5561    521.50576    491.90224   -163.48915    38369.369 
  659100     285.9113   -1395.7543     482.0485    378.30101   -539.79749    38369.369 
  659200     309.3945   -1411.7281    497.17291    483.57013   -376.37818    38369.369 
  659300     300.8787   -1446.3894    496.81077    410.06458   -641.20453    38369.369 
  659400    306.78845   -1448.1886    501.25593    439.41612   -163.15394    38369.369 
  659500    304.41908   -1464.8097    473.85329    384.68546    181.86415    38369.369 
  659600      297.866   -1482.4301    481.53121    345.13015   -746.22954    38369.369 
  659700    303.52581    -1435.349    508.86013    445.11631   -388.83136    38369.369 
  659800    289.20989   -1496.0863    476.07124    286.89782   -1022.9365    38369.369 
  659900    299.14915   -1442.9235    502.18874     411.0927   -288.71523    38369.369 
  660000    311.11828   -1475.7413    511.96075    442.13436   -219.46038    38369.369 
  660100    310.51981   -1474.5002    480.81117    409.52138   -259.45553    38369.369 
  660200    296.62023   -1510.2203    497.83407    328.01324    280.87599    38369.369 
  660300      293.736   -1490.2655     510.8934    347.99389    675.50691    38369.369 
  660400    294.88021   -1461.6695    490.06177    360.92876    796.02282    38369.369 
  660500    298.60956   -1430.5341    512.36284    431.21786     136.0656    38369.369 
  660600    298.49089   -1440.0659    516.65553     425.4425    654.90802    38369.369 
  660700    300.04076   -1413.1686    528.24586    470.93391    497.13832    38369.369 
  660800    304.45358   -1398.8897    488.35559    465.26364   -26.311121    38369.369 
  660900    301.06436   -1431.5893    518.46899    447.36184   -217.60371    38369.369 
  661000    301.50691   -1431.1898    496.19396    427.48615   -525.30755    38369.369 
  661100    296.83802   -1444.6969    486.69181     383.3786    82.572503    38369.369 
  661200    297.04215   -1444.3294    495.08581    393.06257    -232.1496    38369.369 
  661300    289.77777   -1467.6207    492.50086    334.35928   -362.42562    38369.369 
  661400    305.28305   -1473.4352    479.70618    385.81702   -359.32148    38369.369 
  661500    307.57738   -1468.1388    492.62037    414.39546   -465.73111    38369.369 
  661600    302.22145   -1453.4962    467.53244    379.74713    -350.5894    38369.369 
  661700    303.56991   -1427.4796    489.88869    434.21358    -519.0842    38369.369 
  661800    306.75978   -1427.1824    490.66593    449.70277   -266.02218    38369.369 
  661900    301.08104    -1461.574    486.58957    385.57309   -400.93652    38369.369 
  662000     304.2718   -1469.5921    516.85748    422.24168   -207.68643    38369.369 
  662100    301.52787   -1500.7239    481.84802    343.70083    59.304044    38369.369 
  662200    300.56514   -1501.4423    505.23016    362.01406    404.64886    38369.369 
  662300    303.91967   -1480.1459    475.88326    369.12241    176.24429    38369.369 
  662400    313.53113   -1446.4265    505.04217    475.43401     495.8077    38369.369 
  662500    302.74163   -1495.9539    517.62187    389.72958    877.23267    38369.369 
  662600    303.76271   -1505.3729     512.1427    379.44555    535.83304    38369.369 
  662700     302.6093   -1474.4007    486.66617    379.72904    276.50092    38369.369 
  662800    298.34802   -1500.2797    490.11712    338.04472   -198.15073    38369.369 
  662900    294.65227   -1462.3575    482.35023    351.49924   -277.33824    38369.369 
  663000    293.68188   -1523.3845    491.74413    295.48102     136.5585    38369.369 
  663100    291.03666   -1491.8092    496.40403    319.76269    -8.848943    38369.369 
  663200    299.31575   -1489.3825    519.87763    383.07549    136.98949    38369.369 
  663300    294.51344   -1490.2255    518.88677     359.5404    493.32588    38369.369 
  663400    304.10978   -1488.5724    503.26715    388.93892    54.237271    38369.369 
  663500    307.76005    -1511.619    475.69421    354.81453    107.57561    38369.369 
  663600    293.50504   -1552.4481     474.2689    248.14309   -648.91024    38369.369 
  663700    298.33227   -1483.8168    520.21121    384.53048    93.632363    38369.369 
  663800    296.27448   -1567.6098    473.04756     244.2749    232.85536    38369.369 
  663900    297.60068   -1549.8348    506.27238    301.26762    60.565004    38369.369 
  664000    304.79662   -1488.9532    505.23648    393.63123    551.91247    38369.369 
  664100     292.7238   -1487.3258    496.52624    331.99234    293.10788    38369.369 
  664200    304.38885   -1443.2323    511.21844    443.49138    44.198961    38369.369 
  664300    295.90475   -1405.1195    518.39344     450.4403   -467.87679    38369.369 
  664400    302.16428   -1424.9929    489.29776    429.75744   -444.97141    38369.369 
  664500    305.75437   -1447.6685    521.85535    455.86269    496.17973    38369.369 
  664600    300.20975   -1450.1533    500.28127    406.74826   -478.39576    38369.369 
  664700    302.92469   -1448.1653    512.95504    433.67855    124.38428    38369.369 
  664800    297.36786   -1462.9849    501.26064    382.05375   -528.68102    38369.369 
  664900    297.22579   -1463.9248    478.90534     358.1165   -112.89508    38369.369 
  665000    279.90938   -1430.7614    497.80333    331.92671   -745.20901    38369.369 
  665100     296.6993   -1518.8048    479.12152    301.07363   -380.73024    38369.369 
  665200    301.10729   -1506.1776    464.89964    319.39823   -154.91721    38369.369 
  665300    313.44852   -1506.9979    492.64217    402.08931   -1050.9246    38369.369 
  665400    297.72114    -1473.603    483.73199    355.50348   -563.56838    38369.369 
  665500    301.78703   -1500.8087    513.52635    376.46552   -367.87327    38369.369 
  665600    299.08021   -1546.0687    487.87111    293.31837   -245.96399    38369.369 
  665700    294.33317   -1503.2143    512.75328    339.60352    587.02469    38369.369 
  665800    290.95871    -1450.409     516.6484    381.05504    9.0227642    38369.369 
  665900    308.91868   -1473.6337    493.42127    415.76274    19.125911    38369.369 
  666000     300.5098   -1504.7843    490.14204    343.33393   -755.83459    38369.369 
  666100    296.41349   -1466.9898    486.41212    358.88761   -176.07372    38369.369 
  666200    303.70485    -1470.841     540.1848    441.75808    67.662604    38369.369 
  666300    291.06917   -1482.6066    519.52462    352.23286     158.2602    38369.369 
  666400    305.12678   -1473.0978    498.64278    404.38487    467.99818    38369.369 
  666500     303.1635   -1416.3748    512.83526    466.42839    803.31888    38369.369 
  666600    300.53005   -1393.7785     516.9917    481.28086    757.58065    38369.369 
  666700    295.09142   -1420.7942    515.95171    428.64853   -90.285513    38369.369 
  666800    293.98115   -1436.2149    527.61556    419.87443    33.896287    38369.369 
  666900    287.35101   -1407.7231    518.83476    409.62445   -602.65907    38369.369 
  667000    304.29194   -1449.1366    506.09824    432.02892   -640.07239    38369.369 
  667100    310.29132    -1424.591    525.76637    503.35331    -120.0955    38369.369 
  667200    297.54448   -1412.9267     497.1651     428.8145   -535.76826    38369.369 
  667300     307.7174   -1440.3379    541.12463    491.33334   -184.77766    38369.369 
  667400    296.05081    -1441.827     513.7132     409.7126    706.35387    38369.369 
  667500    292.56054   -1461.1269     495.8684     356.7957    32.762047    38369.369 
  667600    306.61826   -1464.3446    508.06007    429.29525   -133.99237    38369.369 
  667700    294.87817    -1436.437    528.77596    424.86629      130.615    38369.369 
  667800    295.29677   -1439.3744    510.97085    406.01541   -95.517251    38369.369 
  667900    302.80926   -1446.0617    517.85037    440.15586    130.75597    38369.369 
  668000    301.45276   -1429.3401    508.43891    441.33612    382.51615    38369.369 
  668100    300.08221   -1489.8607    496.85258    363.03585     266.2143    38369.369 
  668200    303.12458   -1468.8153    508.70797    409.68481    588.64835    38369.369 
  668300     298.4528   -1431.9986    488.01619    404.69838    228.00446    38369.369 
  668400    303.03786   -1449.8054    526.02749    445.62232    4.0447049    38369.369 
  668500    294.50506   -1483.6134    511.35394    358.58181   -141.12231    38369.369 
  668600    293.08195   -1455.6471    483.80055    352.56382   -452.01307    38369.369 
  668700    293.91306   -1480.7691    502.31208    349.70912   -256.72049    38369.369 
  668800    291.91858   -1451.5443    494.25806    361.86702   -58.059957    38369.369 
  668900    289.54188   -1463.5647    500.06274    344.91118   -242.93613    38369.369 
  669000    299.79372    -1513.796    498.79188    339.73616    476.93213    38369.369 
  669100    298.48302   -1468.5675    498.39043    378.64028    109.19368    38369.369 
  669200    303.43928    -1468.335    496.30811    399.18732     252.3783    38369.369 
  669300    302.20141   -1476.4114     502.4932    391.70215    294.22218    38369.369 
  669400    296.20187   -1479.6543    479.76419    338.61891   -21.455528    38369.369 
  669500    293.14577   -1483.4903    491.51274     332.7212    317.90318    38369.369 
  669600    290.32329   -1484.2469    494.28911     321.9865    574.11485    38369.369 
  669700    297.20852   -1454.2868    510.28147    399.05262   -198.32963    38369.369 
  669800    299.60698   -1472.4911    502.10258    383.50793    204.95703    38369.369 
  669900    298.29691   -1500.1046     479.2253    327.09706    52.953013    38369.369 
  670000    295.98805   -1473.0523    498.86656    363.35709   -183.19344    38369.369 
  670100     299.3817   -1479.9219    496.78098    369.73748   -104.86924    38369.369 
  670200    302.95473   -1482.2978    481.66706     368.3938   -832.90905    38369.369 
  670300    298.87917   -1527.6056    483.57937    306.58124   -678.91435    38369.369 
  670400    296.37382   -1485.0066    495.51593    349.79536     358.2233    38369.369 
  670500    292.80822   -1519.5943     516.8128    320.39192    520.39395    38369.369 
  670600    305.07167   -1514.6041    497.83191    361.81864    461.15359    38369.369 
  670700    296.35252   -1455.5939    514.17686    397.77279    728.26386    38369.369 
  670800    303.52865   -1439.4963    500.92012    433.04185    634.42487    38369.369 
  670900    293.76484   -1501.3641    504.47287    330.60503    37.992815    38369.369 
  671000    297.38533   -1490.9839    488.58064    341.45371    137.66093    38369.369 
  671100    309.14528    -1513.864    463.64136    346.77646    447.13651    38369.369 
  671200    301.32292   -1474.5104      488.979    376.11915    27.611291    38369.369 
  671300    304.85819   -1463.5447    507.82959    421.91097   -59.639454    38369.369 
  671400    290.62787   -1431.2893    504.14287    386.17414   -668.21843    38369.369 
  671500    306.15244   -1425.9144    520.21675    477.77705   -913.86414    38369.369 
  671600    306.16001   -1475.0166    493.29917     401.7915   -506.20807    38369.369 
  671700    306.80185   -1469.1782    492.28339    409.51451   -483.77229    38369.369 
  671800    303.31064   -1491.6018    502.87302    381.90416   -867.20604    38369.369 
  671900    302.67185    -1473.432    511.34058    405.65484   -610.58088    38369.369 
  672000    300.62918    -1452.479    490.56156    396.59818    -787.9768    38369.369 
  672100      301.006    -1463.303    511.19909    408.11451   -2.3033574    38369.369 
  672200     304.0106   -1468.8365    519.26103    424.22041    198.13774    38369.369 
  672300    291.25825   -1438.1896    493.11489    371.09449    543.75794    38369.369 
  672400    293.34045   -1443.1827    512.23865    394.63443   -313.29803    38369.369 
  672500    299.48829   -1457.7785    486.25095    381.83254   -11.036845    38369.369 
  672600    305.18415   -1445.7492    497.86866    431.21855   -241.03803    38369.369 
  672700    305.27073    -1475.947    512.26894    415.81229   -163.22707    38369.369 
  672800    293.06431   -1502.3765    492.47665    314.43082    361.32467    38369.369 
  672900    300.68792   -1478.1949    501.17249    381.75864    262.97822    38369.369 
  673000    298.54074   -1476.3772    493.65785    366.35884   -70.239733    38369.369 
  673100    288.07424   -1453.3215    496.00451    344.46406    594.27847    38369.369 
  673200    292.58138    -1488.868    500.88843    334.16877    883.90633    38369.369 
  673300    305.02755   -1522.3312    492.85628     348.9166    271.04259    38369.369 
  673400    294.28726   -1497.6665    507.70168    339.89222   -325.26431    38369.369 
  673500    297.27078   -1477.8903    507.01076    372.45975   -402.99698    38369.369 
  673600    293.97713   -1441.1257    505.50676    392.83664   -482.62365    38369.369 
  673700    297.15368    -1458.434    491.65568    376.03179   -493.02713    38369.369 
  673800    311.42005    -1516.765    484.05346    374.56701   -96.799273    38369.369 
  673900    298.73055   -1475.1729    488.07226    362.83529   -427.63263    38369.369 
  674000    296.79557   -1448.2097    488.23353    381.21568   -244.79204    38369.369 
  674100    302.67724   -1439.4961    492.31101    420.58553    388.55563    38369.369 
  674200    295.77367   -1444.6309     526.6367    418.57986   -35.381427    38369.369 
  674300    303.65999   -1467.5132      488.187    392.88536    592.79247    38369.369 
  674400    294.38202   -1489.1544    475.77568    316.90659    418.51992    38369.369 
  674500    309.11994   -1493.0134    491.83344    395.70467    687.23509    38369.369 
  674600    306.00751   -1503.9494    474.69199    353.56237   -97.167754    38369.369 
  674700    297.40976   -1481.0197    492.05795    355.00561   -84.832874    38369.369 
  674800    291.84421   -1476.2132    495.49384    338.09775   -239.95633    38369.369 
  674900      298.317   -1450.7572    519.49237    416.80232   -151.62073    38369.369 
  675000    296.88709   -1455.4357    499.45928    385.62908   -175.01679    38369.369 
  675100    297.72769   -1461.8499    496.81387    380.36799    63.611359    38369.369 
  675200     294.7326   -1473.7475    503.17156    361.29355   -112.16991    38369.369 
  675300    311.42589   -1423.1823    501.95431    486.07698    279.50434    38369.369 
  675400    303.51956   -1441.7404    509.82824    439.66482   -307.85577    38369.369 
  675500     299.9653   -1499.6975    452.75835    308.57643    25.280959    38369.369 
  675600    292.34949   -1495.8907      487.775    312.98477   -304.63704    38369.369 
  675700    299.28566   -1482.9347     492.5785    362.08817   -323.37777    38369.369 
  675800    297.09793   -1446.5152    479.74915    375.79217    267.64374    38369.369 
  675900    305.22659   -1455.6979    505.83641    429.42939   -399.53624    38369.369 
  676000    296.01987    -1443.305    486.25842    380.64002    22.528478    38369.369 
  676100    297.06954   -1454.4099    474.02404    362.04401   -30.932026    38369.369 
  676200    314.52868   -1443.9272    490.58998    467.98894   -147.76148    38369.369 
  676300    304.46465    -1463.462    492.37893    404.76464   -307.83223    38369.369 
  676400    291.97893   -1457.1601    488.10116    350.36697   -506.56347    38369.369 
  676500    298.38147   -1419.3376    508.81627    437.83709   -126.51757    38369.369 
  676600    307.89944   -1446.2335    494.22697    439.36273   -308.90645    38369.369 
  676700    299.93974    -1451.425    501.66747    405.64256    170.76892    38369.369 
  676800    285.07024   -1504.5394    466.60663    250.27348   -44.141022    38369.369 
  676900     300.2415    -1484.252     477.8297    350.34142   -0.2543402    38369.369 
  677000    296.94996   -1473.3855    491.59903     360.1031   -420.51578    38369.369 
  677100    292.57242   -1485.6535    477.21584    313.67015   -200.55734    38369.369 
  677200    294.90347   -1488.0662    522.15683    366.73227    334.03779    38369.369 
  677300    296.48583   -1452.5041    499.90879    387.19692    158.71191    38369.369 
  677400    306.12543   -1461.6318    458.46899    380.18981    389.87459    38369.369 
  677500    301.71392    -1459.144    507.85978    412.13329    497.37276    38369.369 
  677600     305.8959   -1427.1619    485.95013    441.10366    314.38035    38369.369 
  677700    299.45798   -1454.1293    497.72186    396.81569    -193.3144    38369.369 
  677800    319.42248   -1485.4098    464.04406    422.07506    276.22998    38369.369 
  677900    312.08127   -1468.5309    479.09488    420.83059    218.62683    38369.369 
  678000    287.36701   -1418.7513     483.3753    363.20908    26.718801    38369.369 
  678100    304.44967   -1450.1558    502.64999    428.27422    160.47779    38369.369 
  678200    305.90664   -1440.3798    474.00146    415.98565     526.5826    38369.369 
  678300    298.32412   -1448.8446    503.03617    402.29089    402.37777    38369.369 
  678400    302.73303   -1446.4798    471.99798    393.54087    488.89426    38369.369 
  678500    301.34985   -1463.6589    504.19408    402.30745   -87.036343    38369.369 
  678600    308.35405   -1448.9602    501.30329     445.7667    338.42038    38369.369 
  678700    296.56951   -1427.5933    506.14224    418.71925  0.042715459    38369.369 
  678800    297.66412   -1471.5914    493.44469    366.97011    -270.7043    38369.369 
  678900    299.93592    -1437.512    502.41967    420.29049    152.01624    38369.369 
  679000    298.80426   -1462.1214     498.2101    386.35768    206.97333    38369.369 
  679100    294.35634    -1507.343    477.64538    300.47159   -272.61742    38369.369 
  679200    290.08629   -1486.5283    463.17898    287.52394   -41.076561    38369.369 
  679300    302.88947   -1481.6282     493.8676    380.96907   -254.75601    38369.369 
  679400     299.3581   -1501.2331    480.85725    332.39589     -260.531    38369.369 
  679500    289.29971   -1489.0302    459.95065    278.23924    200.87912    38369.369 
  679600     292.5503    -1515.392    497.53981    304.15573    283.16391    38369.369 
  679700     294.1159   -1470.4764    488.01455    346.62084   -87.094261    38369.369 
  679800    303.98352   -1501.7991    494.96776    366.84224   -20.902883    38369.369 
  679900    298.30544   -1480.3046    474.73884    342.44907   -166.97272    38369.369 
  680000     302.0288   -1493.1145    503.88854    375.61438    311.29027    38369.369 
  680100    292.40406   -1517.1189    464.93431    269.16243    232.03302    38369.369 
  680200    304.09828    -1492.298    485.00736    366.90146    767.78511    38369.369 
  680300    293.27512   -1527.3473    484.39692    282.33295     799.0508    38369.369 
  680400    302.01265   -1524.2773    485.38781    325.87785    143.84217    38369.369 
  680500    305.75218   -1548.1824    457.62866    291.11229    83.207291    38369.369 
  680600    299.50045   -1505.7771    488.50736    336.14525   -288.80075    38369.369 
  680700    307.27225   -1533.1625     464.8738    320.24632    -55.82011    38369.369 
  680800    305.82753   -1493.5029    464.66023    353.16378   -640.16009    38369.369 
  680900    295.68932   -1516.8116    471.80033    291.18158   -575.90182    38369.369 
  681000    297.85811   -1507.3744    460.43945    299.05845   -13.043436    38369.369 
  681100      295.108   -1536.5196    476.78302    273.82929     139.4845    38369.369 
  681200    291.99389   -1538.8319    479.48374    260.14537    420.64734    38369.369 
  681300    309.69186   -1571.9285      455.049    282.58953    741.93452    38369.369 
  681400    290.78807   -1577.3573    473.23719    209.92443    420.34002    38369.369 
  681500    301.77248   -1597.7398    472.29606    238.23837    871.30991    38369.369 
  681600    298.07124   -1535.6555    465.59526    276.89633    797.10142    38369.369 
  681700    297.28748   -1520.5339    471.57115    294.45202    260.37625    38369.369 
  681800    298.53094   -1478.2699    426.52408    297.28807    299.36755    38369.369 
  681900    294.97376   -1494.6871     494.7713    333.04354   -757.51229    38369.369 
  682000    302.80371   -1517.9466      453.186    303.58151    38.634096    38369.369 
  682100    304.23154   -1515.8578    495.68406    354.62059    342.26328    38369.369 
  682200    309.58855   -1498.8411    479.59049    379.75153    532.49839    38369.369 
  682300    301.11405   -1495.3674    476.22004    341.55931    637.46653    38369.369 
  682400    304.67881   -1468.3416     494.8121    403.28599    76.950872    38369.369 
  682500    309.06736     -1454.36    465.04243    407.32941   -179.72555    38369.369 
  682600    290.28146    -1441.029    474.94717    345.67339   -289.28252    38369.369 
  682700    296.51008   -1462.2174     474.7893    352.47366   -575.45339    38369.369 
  682800    305.92791   -1515.7133    447.33835    314.08519   -1250.5245    38369.369 
  682900    301.74901   -1474.7806    465.47506     354.2705   -717.45177    38369.369 
  683000    292.26904    -1476.083    503.43742    348.09131   -1045.2464    38369.369 
  683100    302.21227   -1478.6432    477.26921    364.29545   -313.72964    38369.369 
  683200      295.707   -1462.6414    465.71457    339.34586   -584.34241    38369.369 
  683300    306.69975   -1496.2153    497.51598    387.24863   -384.50254    38369.369 
  683400    303.54955   -1504.8068    477.10896    344.01462   -893.33628    38369.369 
  683500     296.7937    -1507.942    472.78098    306.02245   -619.28862    38369.369 
  683600    304.78292   -1502.8708     481.0836    355.49882     165.0149    38369.369 
  683700    302.30106   -1484.2899    473.79964    355.58048    548.02877    38369.369 
  683800    294.58715   -1469.5417      484.615    346.28554    517.74617    38369.369 
  683900    308.43531   -1498.0658    490.26505    385.99001    969.06362    38369.369 
  684000    306.36747   -1507.7602    489.58304    366.26923    471.58931    38369.369 
  684100    312.50976    -1515.622    456.40458    352.98543   -43.686411    38369.369 
  684200     304.9448   -1460.0499    508.42032    426.38794    -41.59018    38369.369 
  684300    300.71419   -1448.2747    493.10603    403.73105   -4.6635531    38369.369 
  684400    304.99056   -1435.5454    507.59163    450.27047    281.36292    38369.369 
  684500    305.18678   -1450.4708    490.11392    418.75411    334.21281    38369.369 
  684600    300.85612   -1430.9136    498.98838    427.61591   -261.27644    38369.369 
  684700     297.9157    -1458.217    490.15299    378.18962    150.54126    38369.369 
  684800    305.05184   -1433.7987    504.73246    449.43491    247.93398    38369.369 
  684900    288.70187   -1429.0811    485.97401    361.51012    62.776933    38369.369 
  685000    302.09203   -1415.2968    479.19962    429.02898    192.44649    38369.369 
  685100    304.83239   -1420.3853    482.86672    439.99093   -133.94029    38369.369 
  685200    294.73641   -1436.0724    494.65985    390.47417    -154.7614    38369.369 
  685300    295.98087   -1468.3603    501.23584     370.3859   -279.07321    38369.369 
  685400    307.66672   -1476.6138    472.72573    386.42957   -256.84554    38369.369 
  685500    299.90885   -1444.0007    498.64222    409.90203   -796.89947    38369.369 
  685600    298.67719   -1440.6439    489.97652    399.02738   -153.63655    38369.369 
  685700    297.24338   -1446.1796    487.05511    384.09099    184.18168    38369.369 
  685800    300.50595   -1444.4112      502.414    415.96154   -49.969669    38369.369 
  685900    294.80849   -1412.9738    500.63432    419.87299   -52.209527    38369.369 
  686000    294.35617   -1460.0336    480.49865    350.63349    157.17636    38369.369 
  686100    306.49367   -1458.4992    473.29916    399.81663   -376.49727    38369.369 
  686200    290.56152   -1442.6837    477.03007    347.36722   -290.07074    38369.369 
  686300    297.31995   -1458.4126    483.94017     369.0891    35.719987    38369.369 
  686400    290.68245   -1438.5948    496.07838    371.05083    192.73711    38369.369 
  686500    295.85512   -1420.5773    482.97423    399.33904    251.71372    38369.369 
  686600     296.3195   -1457.0952    499.09884    381.04421    -50.36757    38369.369 
  686700     303.9447   -1460.0313     497.4139    410.88078   -28.596134    38369.369 
  686800    298.09251   -1427.2288    506.62292    426.44672   -160.45546    38369.369 
  686900    298.41968   -1449.3831    481.23545    380.38341   -25.935596    38369.369 
  687000    298.51912   -1400.2742    497.87528    446.58151    51.535299    38369.369 
  687100    305.69439   -1409.3799    479.49629    451.52124    60.949076    38369.369 
  687200    294.99532   -1395.9317    500.10069    437.22567    404.38915    38369.369 
  687300    295.94503   -1435.1009    503.44071    405.68821    -403.6131    38369.369 
  687400    304.90028   -1454.2151    481.46255    405.06383    96.122921    38369.369 
  687500    297.77037   -1466.5804    490.36018    369.37673    874.41267    38369.369 
  687600    302.57185   -1459.5804    496.81248    404.52642    633.66121    38369.369 
  687700    303.30719   -1424.5256    505.91519    452.00686    576.84992    38369.369 
  687800     295.1111   -1456.1706    499.72718    377.13651    431.84278    38369.369 
  687900    307.34683   -1460.4281    511.86008    440.30408    483.77239    38369.369 
  688000    298.93556   -1452.7907    469.72804    367.79962    218.72722    38369.369 
  688100    309.75032    -1457.052    502.32123     445.0025    -422.2911    38369.369 
  688200    299.85537   -1453.0642    495.73754    397.69217   -320.16615    38369.369 
  688300    297.50952   -1449.4151    491.58871    386.59173   -483.26233    38369.369 
  688400    300.65287   -1422.8925    516.62096    452.35108    270.11286    38369.369 
  688500    300.57192   -1462.8503    494.31937     389.7259     411.8911    38369.369 
  688600    302.13963   -1461.8782    498.63736    402.10034   -32.605249    38369.369 
  688700    294.41302   -1467.5112    470.45399    333.36821   -680.04194    38369.369 
  688800    298.16901    -1476.219    496.13886    367.31823   -283.19052    38369.369 
  688900    293.53394   -1496.3144    479.18114    309.31961    92.610125    38369.369 
  689000    299.66676   -1476.3864    480.82291    358.60308   -43.835681    38369.369 
  689100    303.49545   -1502.4662    471.93057     340.9324    811.04061    38369.369 
  689200    292.04127   -1460.9214    482.84861    341.63488     164.2457    38369.369 
  689300     306.4259   -1454.7467     493.9158    423.87952   -32.553933    38369.369 
  689400    294.51325   -1431.4144    506.35605    405.81993   -585.31424    38369.369 
  689500    302.26592   -1433.4383    490.40147    422.87505   -340.02821    38369.369 
  689600      290.912   -1409.8456    502.19618    406.95517   -67.206981    38369.369 
  689700    305.44164   -1430.0165    510.99019    461.23633    311.87515    38369.369 
  689800    291.12766   -1425.2455    479.05111    369.38467    243.50768    38369.369 
  689900    305.10235   -1470.6927    488.00003     396.0368    211.63742    38369.369 
  690000    309.39758    -1466.097    472.68869    404.73086    104.76983    38369.369 
  690100    309.81191    -1445.748    482.29412    436.55764   -462.15401    38369.369 
  690200    300.80091   -1443.9662    503.83768    419.16312   -130.87392    38369.369 
  690300    295.29926   -1460.1136    478.53464    352.85126    269.68566    38369.369 
  690400    303.97893   -1454.4477    488.44407    407.64918    483.62354    38369.369 
  690500    299.82842   -1457.6863    492.64376    389.85448    407.34993    38369.369 
  690600    305.81402   -1466.7496    496.69791    411.89378    508.72842    38369.369 
  690700    314.06403   -1471.7356    486.61864    434.10947    703.16159    38369.369 
  690800    293.48098   -1437.8656     490.8759    379.22388    225.41142    38369.369 
  690900    304.19487   -1440.5676    512.14795    446.20897    536.24539    38369.369 
  691000    301.51347   -1464.1403    490.66113    389.03248    458.32373    38369.369 
  691100    299.28582   -1465.9061    494.22204    380.76103     494.0484    38369.369 
  691200    308.95447   -1487.4496    502.18684    410.87402    473.67301    38369.369 
  691300    295.56804   -1459.9703    490.52513    366.19968    362.36385    38369.369 
  691400    315.02039   -1481.5159    490.78055    432.81281    572.93219    38369.369 
  691500    304.62797    -1429.222    487.86269    435.22645   -59.582089    38369.369 
  691600    300.63882   -1397.8405     508.5649     469.2836    334.31176    38369.369 
  691700    306.23192   -1444.1757    500.80476    440.46298    214.64328    38369.369 
  691800    309.24064   -1452.6791    480.41149    425.16243     36.66806    38369.369 
  691900     289.2076   -1460.8977    498.93607    344.94086   -454.82996    38369.369 
  692000    305.52064   -1446.5482    490.91946    424.99088    497.46892    38369.369 
  692100    307.57488   -1457.3589    484.28054     416.8242   -354.44447    38369.369 
  692200    294.80407   -1433.5085    520.42857    419.11249   -121.28506    38369.369 
  692300    304.96473   -1458.5284    471.76443    391.34357   -50.344861    38369.369 
  692400     314.0036   -1425.1486    518.15568    511.96046   -391.11817    38369.369 
  692500     305.3652   -1424.6302    503.49916    458.78623   -90.009099    38369.369 
  692600    296.17702    -1449.833    498.56873    387.13245   -370.09221    38369.369 
  692700    306.54112   -1465.1663    474.17903    394.24391    130.24064    38369.369 
  692800    295.67983   -1472.3778    477.33936    341.11157   -23.605761    38369.369 
  692900    292.39386   -1510.0641    496.50916    307.74598   -396.67997    38369.369 
  693000    304.50432   -1479.2195    495.99131    392.79883   -560.67476    38369.369 
  693100    292.99472   -1511.0336    468.57707    281.55964   -519.61363    38369.369 
  693200    304.47204   -1470.5891    478.09883    383.39086   -438.30504    38369.369 
  693300    303.12608   -1491.0249    483.18569    361.95971   -570.69961    38369.369 
  693400    307.56175   -1437.7352    481.99135     434.0994   -422.91281    38369.369 
  693500    307.54758   -1434.9011    491.43019    446.30833   -136.24262    38369.369 
  693600    306.92591    -1479.138    464.67986    372.51175    326.48402    38369.369 
  693700    290.32751   -1499.1538    490.64758    303.45707    186.76859    38369.369 
  693800    298.53461   -1493.4654    507.94941    363.53446   -25.767137    38369.369 
  693900    302.76492   -1505.7004     502.4846    364.95098    155.61423    38369.369 
  694000    310.58945   -1448.3119    496.51543    451.72874    383.18843    38369.369 
  694100    289.22959   -1440.0842    477.79367    344.71137    512.44656    38369.369 
  694200    296.85608   -1479.9774    490.89495    352.38288    126.60372    38369.369 
  694300    301.60062   -1466.2542    490.48559    387.13685     353.8207    38369.369 
  694400    303.26037   -1458.5739    496.25773    408.08951   -2.8687684    38369.369 
  694500    297.30255   -1452.3149    480.02297    371.19091   -104.23404    38369.369 
  694600    296.05327   -1478.1823    509.80538    369.46055   -51.944169    38369.369 
  694700    299.79457    -1511.436    499.27473    342.58281     386.0648    38369.369 
  694800    303.23986   -1494.5401    490.01714    365.79005    856.35107    38369.369 
  694900    293.98008   -1460.8949    492.11459    359.68869    296.98493    38369.369 
  695000    294.75138   -1472.4152    514.84915    374.38834    142.64913    38369.369 
  695100    293.47303   -1513.2706    511.79854    324.70558    9.1347683    38369.369 
  695200    298.17629   -1497.5299    479.73974    329.64112   -224.04386    38369.369 
  695300    300.28884   -1483.4489    502.52228    376.05107   -250.80782    38369.369 
  695400    296.34734   -1491.2407    489.77675    337.70239    122.99331    38369.369 
  695500    312.11981   -1472.7604    481.79553    419.47591    196.78618    38369.369 
  695600    296.75585   -1497.2323    486.51598    330.29605    174.55816    38369.369 
  695700     287.3766   -1513.6145    490.53007    275.54402     365.8141    38369.369 
  695800    310.22809   -1508.1075    489.62719    383.41188    327.34754    38369.369 
  695900    301.91478   -1442.6964    502.59471    424.22342    168.54559    38369.369 
  696000    293.14029   -1484.5514    457.99543    298.11802    93.155683    38369.369 
  696100    305.88619   -1497.6679    493.24082    377.84449    -197.9472    38369.369 
  696200    293.97935   -1487.1459    488.73452    330.05427   -16.339576    38369.369 
  696300    296.65143   -1467.7296    508.72879    381.53974    480.36159    38369.369 
  696400    297.90369   -1475.5098    529.73829    400.42789    206.86894    38369.369 
  696500    310.72698   -1479.7367    494.80612    419.21607     26.92601    38369.369 
  696600    299.01354   -1464.6265    495.77875     382.3669    392.66847    38369.369 
  696700    300.34008   -1462.1414    489.08492    384.15271    -177.4879    38369.369 
  696800    298.97914   -1470.9691    507.96324    388.05332   -22.213158    38369.369 
  696900    304.15124    -1445.283    498.54401    427.69249   -6.3905633    38369.369 
  697000    296.06037   -1421.6032    517.86681    434.13318   -190.79295    38369.369 
  697100    290.40574   -1476.1991    515.44005    351.55777    117.03081    38369.369 
  697200    291.38415   -1445.1005    498.56302    370.20069    119.61952    38369.369 
  697300     297.5046   -1483.3083    489.77788    350.86556    294.87433    38369.369 
  697400    310.21635   -1456.3487    506.59967    452.09008    756.33437    38369.369 
  697500    294.85649   -1479.6826    517.27781    370.02454    556.88234    38369.369 
  697600    309.74744   -1470.2426    506.37729    435.85484    290.19907    38369.369 
  697700    299.66977   -1474.7212    524.91226    404.37121    194.96088    38369.369 
  697800     305.0279   -1484.7305    483.43866     377.1012    44.727774    38369.369 
  697900     302.3183   -1497.4067    464.55044    333.29237    422.81454    38369.369 
  698000    297.79838   -1457.4018    468.32093    356.64265    171.70115    38369.369 
  698100    295.47674   -1441.1407    503.51177    397.60333    44.108375    38369.369 
  698200    313.08292   -1480.6345     493.7169    427.87534   -201.65733    38369.369 
  698300    297.47546   -1488.8172    465.95894    321.40605     175.5281    38369.369 
  698400    302.53532   -1482.7162     504.5805    388.99359    110.24449    38369.369 
  698500    300.37981   -1466.0502    471.81273     363.1513    315.52303    38369.369 
  698600    296.17154   -1482.6384    508.25899    363.99252    436.71594    38369.369 
  698700    294.93881   -1462.7555    489.45947     359.5054     22.36027    38369.369 
  698800    295.70197   -1451.9977    493.39734    377.64967     516.8252    38369.369 
  698900    296.42618   -1463.3605    477.84299    354.00509    411.35588    38369.369 
  699000    302.52483   -1480.7333     493.7969    380.14551   -396.30329    38369.369 
  699100    303.16443   -1495.4293    500.45898    375.00182   -191.04665    38369.369 
  699200    292.26172   -1489.3971    494.00778     325.3145   -157.17757    38369.369 
  699300    295.42785    -1493.913    478.39186    319.49019    31.234853    38369.369 
  699400    291.94223   -1493.4357    513.22041    339.04479    522.38944    38369.369 
  699500     289.8265   -1492.2985     508.7943    326.19505    502.47931    38369.369 
  699600    308.52999   -1475.3874    493.37265    412.20393    117.42341    38369.369 
  699700    293.18399    -1486.044    494.98742    333.81489    -287.3364    38369.369 
  699800    302.35973    -1454.263    499.49629    411.56911   -789.86428    38369.369 
  699900    297.39564   -1400.8949     508.1309     451.1396    -336.9271    38369.369 
  700000    302.42598   -1438.3727    497.05494    425.31742   -763.15804    38369.369 
  700100    299.35351   -1435.2369    524.34238    441.85644    -486.2059    38369.369 
  700200    306.14941   -1424.1567    518.85376    478.15811   -108.85304    38369.369 
  700300     295.5459     -1435.99    485.15539    384.71016   -692.80281    38369.369 
  700400    301.02192   -1420.2974     524.0166    464.00956   -289.59057    38369.369 
  700500    297.86144   -1381.9759    493.44342    457.47599   -298.72646    38369.369 
  700600    294.62831   -1436.4794    495.52377    390.44263   -290.48762    38369.369 
  700700    311.32325   -1456.5086     514.8037    465.13626   -339.24184    38369.369 
  700800    296.83626   -1442.8829    510.91285    409.40569   -542.36676    38369.369 
  700900    300.32994    -1459.094    506.99984    405.06919    0.3834086    38369.369 
  701000    295.65876   -1431.4728    508.22267    412.80463   -95.469644    38369.369 
  701100    296.97187   -1422.5732    512.58925     432.0046    281.55026    38369.369 
  701200    301.52524    -1422.034    514.42827    454.95908    375.40155    38369.369 
  701300    304.41033   -1416.8831    490.43562    449.15483   -61.808774    38369.369 
  701400    298.45912   -1457.5436     482.4169    373.58255    420.15791    38369.369 
  701500    298.30133   -1454.1661    502.52461    396.35474   -115.21212    38369.369 
  701600    296.10944   -1469.9321    482.43259    350.59182    652.62555    38369.369 
  701700    292.38419   -1473.7778    483.28268    330.76219    448.74228    38369.369 
  701800    294.11403   -1453.8092    484.15571    359.42082    760.22551    38369.369 
  701900     298.2489   -1442.1117    524.35244    430.00013   -242.80213    38369.369 
  702000    300.52529   -1452.4815    480.90061    386.46522    349.08891    38369.369 
  702100    302.93317   -1450.0692     475.1779    394.03584    450.87516    38369.369 
  702200    296.24501   -1455.6588     493.0278    376.07298   -5.3527707    38369.369 
  702300     306.0849   -1459.3021    485.29377    409.16124    259.65231    38369.369 
  702400    299.67166   -1485.3482    473.23182     342.0723   -131.06822    38369.369 
  702500    293.95011   -1461.6112    517.37215    384.09442   -104.18521    38369.369 
  702600    300.48792   -1454.4764    496.43772    399.83861   -407.92091    38369.369 
  702700    306.01072   -1429.3692    521.40496    474.87005    137.54797    38369.369 
  702800    316.71156   -1430.5912    506.18846    506.78769      354.031    38369.369 
  702900    302.08512   -1421.3776    502.86457    446.58182    505.21085    38369.369 
  703000    286.91058   -1458.6557    504.25219    342.11905    273.05835    38369.369 
  703100    299.95013   -1444.0614    487.09165    398.47729    499.34743    38369.369 
  703200    299.66038   -1479.4222    475.44475    350.16028    200.44969    38369.369 
  703300    299.66187   -1490.6903    483.05789    346.51207   -73.878328    38369.369 
  703400    296.55808    -1483.879    500.79359     357.0333    340.25725    38369.369 
  703500    301.65631   -1522.8877     474.0982    314.36762   -107.75509    38369.369 
  703600     294.9724   -1476.7474    495.24756    351.45331   -8.9784633    38369.369 
  703700    306.90613   -1436.9568    476.27586    426.19962   -91.447743    38369.369 
  703800    298.16067   -1476.3118    488.68868    359.73753   -426.72018    38369.369 
  703900    292.60044   -1470.6273    493.85745    345.46464   -228.54878    38369.369 
  704000    295.77322   -1504.5036    476.90437    308.97279   -137.73655    38369.369 
  704100    293.72827   -1509.4814    507.09194    324.94157    310.44907    38369.369 
  704200    297.68192   -1478.3831    525.48246    392.29657   -204.76173    38369.369 
  704300      284.882    -1469.639    493.46334    311.17996   -182.86741    38369.369 
  704400    291.62051   -1503.6351    509.45176    323.62292     -183.291    38369.369 
  704500    300.70049   -1492.4294    484.05644    350.46486    132.17758    38369.369 
  704600    306.13139   -1506.4049    495.97791    372.95265    301.14814    38369.369 
  704700      309.065   -1477.6396    478.99684     397.9935     563.0159    38369.369 
  704800    295.46755   -1457.5356    467.24213    344.89724   -26.997999    38369.369 
  704900    298.55118   -1491.0521    485.32595    343.39916    230.47451    38369.369 
  705000    292.36915   -1469.5073    489.85286    341.53485    769.65305    38369.369 
  705100    307.99019   -1473.1337    484.58219    403.22784     493.2971    38369.369 
  705200    296.55767    -1476.645    471.16454     334.6364    117.43086    38369.369 
  705300    290.77107   -1481.9126    481.10183    313.15698   -54.802433    38369.369 
  705400    295.53472   -1459.5744    513.34963    389.26946   -386.19004    38369.369 
  705500     292.9288   -1466.9183    497.20163    354.00168    192.66541    38369.369 
  705600    299.74452    -1499.145    478.43344    333.80632   -300.17746    38369.369 
  705700     298.0245   -1466.3138    511.66958    392.10109   -566.75791    38369.369 
  705800    296.09363   -1437.4327    510.02946    410.61664   -212.89482    38369.369 
  705900    311.51893   -1432.6701    496.56861    471.62387    189.07223    38369.369 
  706000    292.45442   -1471.5438    510.07233    360.10316   -127.30315    38369.369 
  706100    299.65626   -1455.4617    483.05664    381.71402   -60.415497    38369.369 
  706200    305.36847   -1446.6137    505.14969    438.46802   -642.34221    38369.369 
  706300    302.34519   -1449.7509    488.91758    405.43682   -723.29923    38369.369 
  706400    309.25222   -1479.8698    495.86873    413.48129   -165.89104    38369.369 
  706500    307.64214   -1498.7145    499.48276    390.97476    287.68573    38369.369 
  706600    298.28364   -1479.3964    507.36479    375.88476    279.08012    38369.369 
  706700    287.14692   -1463.2392    507.29472    341.64603    4.4783017    38369.369 
  706800    302.99948   -1484.7508    505.01203    389.48798   -139.49617    38369.369 
  706900    302.58535   -1489.4569    506.81123    384.70971   -105.50191    38369.369 
  707000    302.49178   -1481.9765    498.03093    382.98696    209.08515    38369.369 
  707100    296.86861   -1465.0307     490.8892    367.38048    451.12686    38369.369 
  707200    301.52507   -1476.1776    508.22251    394.60902    683.72114    38369.369 
  707300    295.47729   -1489.4149    480.81926    326.63901     308.6212    38369.369 
  707400    292.73676   -1425.0888    501.51327    399.27496   -289.59957    38369.369 
  707500    297.77568   -1490.5608    487.07768    342.13778   -321.62191    38369.369 
  707600     295.4201   -1496.5705     492.3011    330.70685   -462.73353    38369.369 
  707700    290.58723   -1495.4314    482.16067    299.86623   -234.46432    38369.369 
  707800    292.28126   -1496.2358    521.05059    345.60691   -130.81335    38369.369 
  707900    301.94732   -1509.2951    498.76841    353.94551   -344.43974    38369.369 
  708000    306.03077   -1517.0642    484.51643    350.37714   -17.891127    38369.369 
  708100     287.0785   -1513.6949    486.09004    269.67648   -433.72823    38369.369 
  708200    299.39167   -1529.3148    504.50261    328.11121   -373.98706    38369.369 
  708300    297.65304   -1520.4099    460.65398    285.31085   -554.63171    38369.369 
  708400    301.78292   -1517.2009    502.60579     349.1341    40.649827    38369.369 
  708500    297.82885   -1488.1251     468.5943    326.33037   -194.55037    38369.369 
  708600    306.73351   -1499.4967    482.77941    369.38325   -74.387019    38369.369 
  708700    312.75356    -1540.712    480.10944    352.70199    115.67416    38369.369 
  708800    299.46909   -1498.8406    505.39281    359.82553   -18.635307    38369.369 
  708900    310.52253   -1491.8324    501.30975     412.7001    637.18833    38369.369 
  709000     298.4514   -1482.2522     531.9344     398.3566    441.55717    38369.369 
  709100    301.41135   -1505.5422    506.31175    362.81977    317.51418    38369.369 
  709200    304.41611   -1496.6466    500.69675    379.67859    546.11768    38369.369 
  709300     281.7584   -1475.1425    498.10893    296.20674   -261.63654    38369.369 
  709400    303.44745   -1468.2728    485.79281    388.77113    153.56443    38369.369 
  709500    293.75502   -1493.6008     493.6022    327.45337   -503.89868    38369.369 
  709600    300.91992   -1484.0263     481.1087    356.91184   -330.65183    38369.369 
  709700    291.99961   -1443.5511    493.83977    369.80807    297.09317    38369.369 
  709800    286.94883   -1479.6584     500.5075    317.54444    73.993147    38369.369 
  709900    306.48667   -1482.2967    501.95957    404.64793    368.01936    38369.369 
  710000     301.7007   -1442.4786    518.54962    439.42871    658.74636    38369.369 
  710100    311.82391   -1506.9329     489.1106     391.2813    340.34539    38369.369 
  710200    301.00651   -1473.7511    498.01617    384.48582    307.18591    38369.369 
  710300    298.16668   -1494.0899    498.26587    351.56372    250.04756    38369.369 
  710400    309.48714    -1470.897    495.25332    422.90021    269.17484    38369.369 
  710500    309.08318   -1466.2806    510.69462    441.13248   -77.863103    38369.369 
  710600    307.56003   -1477.9155    488.34345     400.2634    424.06632    38369.369 
  710700    298.17506   -1498.6529    496.53508    345.30787    55.068767    38369.369 
  710800     304.6039   -1527.2856    472.67012    321.86153    109.50106    38369.369 
  710900    300.67912   -1455.5209    483.82253    387.04297     742.1159    38369.369 
  711000    306.57265   -1465.7036    482.55171     402.2217    404.04276    38369.369 
  711100    286.41552   -1479.3217    496.05947    311.02317   -111.01659    38369.369 
  711200    294.87248   -1479.0493    508.07487    361.52716   -22.497853    38369.369 
  711300    295.24943   -1467.1979    490.78688    357.79396    137.34327    38369.369 
  711400    301.39063   -1485.2831    508.98965    385.66315    301.83146    38369.369 
  711500    286.19032   -1490.7595    490.92169    293.42994   -253.86426    38369.369 
  711600    297.55058   -1469.7864    483.35131    358.16863    188.60768    38369.369 
  711700     293.0405   -1482.7388    495.12015    336.60439    217.86862    38369.369 
  711800    298.38127   -1513.9703    497.27904    331.66632    502.41281    38369.369 
  711900    290.00599   -1500.9877    494.68679     304.2095     80.53191    38369.369 
  712000    307.04233   -1492.6334    507.90975    402.77242   -523.88917    38369.369 
  712100    292.96775   -1476.3256    493.51942    341.08811   -280.36823    38369.369 
  712200    299.27543   -1488.6648    487.73014    351.46346   -824.96849    38369.369 
  712300    311.95785    -1473.591    521.54329    457.66114   -356.61088    38369.369 
  712400    290.49916   -1455.5929    485.93236     343.0785   -241.24424    38369.369 
  712500    300.94363   -1475.8715    515.44703    399.51207    312.68633    38369.369 
  712600    299.87135   -1444.6328    485.68802     396.1463   -188.76526    38369.369 
  712700    299.34997   -1498.1922     486.2683    340.81109    181.73188    38369.369 
  712800    300.47799   -1471.3692     537.1423    423.60556    177.84496    38369.369 
  712900    292.31286   -1503.5879    480.34399    297.69103   -276.11403    38369.369 
  713000    299.33222    -1473.666    485.62336    364.61215    62.066766    38369.369 
  713100    293.66134   -1493.3081    468.13204    301.85252   -412.80038    38369.369 
  713200    307.47952   -1467.4787    476.43185    398.42479    110.11454    38369.369 
  713300    304.01881   -1514.2955    492.79359    352.33112   -705.86315    38369.369 
  713400    299.66717   -1545.5865     491.9249    300.50678   -789.08081    38369.369 
  713500    307.35351   -1548.6661    478.98055    319.21668   -593.92563    38369.369 
  713600    310.72288   -1519.2056    446.49093     331.4135   -832.16593    38369.369 
  713700    302.48306   -1516.3396    504.47076    355.02428   -743.37093    38369.369 
  713800    294.96312   -1486.4518    494.19397    340.65333   -442.15919    38369.369 
  713900    305.57772   -1461.9626    476.58811    395.50317   -176.26245    38369.369 
  714000    303.10331   -1486.6318    493.68878    376.75296   -71.934795    38369.369 
  714100    293.88524   -1485.8425    487.02903    329.22691   -333.81545    38369.369 
  714200     303.8186   -1467.2863    493.25631    398.89833   -81.957562    38369.369 
  714300    310.05435   -1478.7861    483.63392     405.9549    367.44164    38369.369 
  714400    299.21006   -1475.1128    500.96478    377.95479    611.27653    38369.369 
  714500    292.70515   -1455.8031    508.10442    375.00897   -120.97523    38369.369 
  714600    301.73107   -1495.0598    476.50041    344.93554   -265.08519    38369.369 
  714700     298.3699   -1496.8137    488.54991    340.04238   -64.171498    38369.369 
  714800    297.34214   -1486.4415    479.92937    337.14963   -668.18117    38369.369 
  714900    308.88855   -1493.2216    479.13847    381.75578   -206.74436    38369.369 
  715000    292.23958   -1436.8346    497.33634    381.10553   -215.24643    38369.369 
  715100    300.40618   -1432.9022    508.22537    432.83106     74.68032    38369.369 
  715200    311.90106   -1468.1159    488.55719    429.89348   -120.36555    38369.369 
  715300    296.33238   -1449.8453    469.83395    359.08741    119.31001    38369.369 
  715400    303.61147   -1481.1415    503.86451    394.71527   -383.17877    38369.369 
  715500    295.75365   -1423.9686    499.18867    411.70359    156.55552    38369.369 
  715600    297.09499   -1476.4918    503.90717    369.96036    529.45194    38369.369 
  715700    288.47772   -1470.3147    521.74647    355.03601    409.87455    38369.369 
  715800     291.5437   -1480.1588    517.45694    354.75733     138.9357    38369.369 
  715900    291.50695   -1499.1086    489.00648      307.191   -48.819483    38369.369 
  716000    293.23603   -1476.6413    498.05423     346.5196    502.27941    38369.369 
  716100    303.99594   -1493.0419    486.24071    366.92849     -323.559    38369.369 
  716200    283.23047   -1451.2444    505.51198    334.16003     244.6798    38369.369 
  716300    306.02834   -1482.8944    499.14383    399.16337   -42.033432    38369.369 
  716400    289.15728   -1507.1955    496.92279    296.40241   -125.50819    38369.369 
  716500    302.72694   -1521.8027    494.88306    341.07559    84.665404    38369.369 
  716600     300.4441     -1522.67    475.38528    310.39449    167.14195    38369.369 
  716700    298.20458   -1544.9637    502.66056    305.25594    658.71034    38369.369 
  716800    300.14619     -1467.81    506.48358    395.00659    575.42692    38369.369 
  716900    303.88164   -1454.9912    504.33133     422.5533    367.21465    38369.369 
  717000    300.51106   -1504.4741     503.5132     357.0209    201.49272    38369.369 
  717100     295.4791   -1513.7312    486.14461    307.65631    37.022593    38369.369 
  717200    294.01501   -1478.3217    504.48663    354.79169    142.27776    38369.369 
  717300    289.40349   -1494.0641    517.86384    331.58747      777.144    38369.369 
  717400    301.73218   -1527.5647    492.99811     328.9334    453.07424    38369.369 
  717500    302.88853   -1550.5586    487.83115    305.99794    750.84429    38369.369 
  717600    305.71999   -1519.3567    499.42677    361.59057     617.2113    38369.369 
  717700    285.74557      -1508.1    508.17796    291.33597    434.24493    38369.369 
  717800    298.85338   -1482.7749    480.18873    347.90473    88.473074    38369.369 
  717900    310.10882   -1521.0206     495.8776    376.21022   -43.513048    38369.369 
  718000    302.26226     -1470.11    476.11644    371.90182   -212.88332    38369.369 
  718100    297.32741   -1477.0789    486.19887    352.71517   -337.86037    38369.369 
  718200    302.80495   -1475.6324    482.93751    375.65288   -783.71659    38369.369 
  718300    293.43499   -1477.6091    476.87272    325.26938   -820.69123    38369.369 
  718400     309.3156   -1454.9042    499.63605    442.50061    -252.0342    38369.369 
  718500    302.67221   -1461.6607    459.25916    365.34639   -248.05099    38369.369 
  718600    316.74045   -1441.8944     497.5699    486.99644    201.40218    38369.369 
  718700    303.70052   -1490.1041    488.07236    370.36298   -432.20638    38369.369 
  718800    295.12319   -1440.7136    463.99481    356.91576   -647.11055    38369.369 
  718900     292.5451   -1462.0088    505.85802    365.83366   -942.63104    38369.369 
  719000    316.29816   -1461.9736    486.28605    453.63476   -770.46313    38369.369 
  719100    298.95958   -1461.0377    483.55023    373.48338   -310.98831    38369.369 
  719200    303.29392   -1460.7986    520.46049    430.21919    649.33439    38369.369 
  719300    306.14008   -1492.4402    510.51715     401.4958   -150.98989    38369.369 
  719400    303.96723   -1435.7074     489.8811    427.77364    273.29341    38369.369 
  719500    300.53349   -1439.8917    494.39487    412.58633    48.614634    38369.369 
  719600    305.47356   -1457.4985     486.8076    409.71604    106.80627    38369.369 
  719700    301.69061    -1452.478     529.2304    440.06448   -244.23021    38369.369 
  719800    293.60146   -1437.8205    486.10774    375.04526   -332.45078    38369.369 
  719900    306.94285   -1439.2005    508.63558    456.48161    61.157749    38369.369 
  720000    312.62203   -1478.1925    489.72681     424.2445     352.2934    38369.369 
  720100    307.82423   -1472.1644      503.451    422.31603    452.36501    38369.369 
  720200    297.86722   -1461.2417    496.75087     381.5438    842.49668    38369.369 
  720300    304.26334   -1419.8349    504.18434    459.28749    780.01652    38369.369 
  720400    298.55068   -1429.6797    516.58262    436.02601    924.85966    38369.369 
  720500    299.06739   -1420.1402     510.2058    441.52364    705.29044    38369.369 
  720600    300.72049    -1429.212     500.9541    430.67033    118.62413    38369.369 
  720700    300.62171   -1453.2832    509.89392    415.09255    46.593061    38369.369 
  720800    286.62812    -1417.982    536.75034    414.01442   -19.326399    38369.369 
  720900    294.81592   -1452.6539    458.51884    338.11093    153.78808    38369.369 
  721000    299.58644   -1458.2588    503.00415    398.54896     133.8869    38369.369 
  721100    299.58554   -1419.7599    488.98463    423.02425    278.16927    38369.369 
  721200    306.76214   -1427.6184    524.13054    482.74205    453.79568    38369.369 
  721300    300.46886   -1410.3939    528.66095    476.05817    302.29419    38369.369 
  721400    293.13385   -1395.7448    507.06562    435.96572     188.4302    38369.369 
  721500    299.83961    -1434.386    530.73422    451.29586    248.27134    38369.369 
  721600    292.11043   -1471.1891    512.62018     361.4512   -94.939418    38369.369 
  721700    291.55972   -1499.3323    485.50129    303.70055     445.6479    38369.369 
  721800    303.97325   -1523.4341    481.87495      332.068    82.427562    38369.369 
  721900    307.62063    -1531.208    479.24489    338.14624    46.309255    38369.369 
  722000    307.73824   -1519.0167    502.98258    374.60673    338.11817    38369.369 
  722100    295.56499   -1524.9397    460.56486    271.25619     282.1002    38369.369 
  722200      298.442   -1536.6121     482.5983    294.61812   -637.27169    38369.369 
  722300    289.05699   -1505.3092    511.49631    312.40907    189.88516    38369.369 
  722400    302.79584   -1546.6912    499.67824     321.2936    100.47295    38369.369 
  722500    302.97987   -1523.3423    484.17869    329.97462    6.3872792    38369.369 
  722600    297.49786   -1518.9429    464.20413    289.62671    127.92889    38369.369 
  722700    298.34845   -1509.2553     508.4333    347.38724    128.82268    38369.369 
  722800    295.35367   -1487.1366    503.95147    351.49096    97.798631    38369.369 
  722900    292.85847    -1476.152    471.21419    318.46266    373.99868    38369.369 
  723000     300.5762   -1460.0487     466.0792    364.30674    755.95164    38369.369 
  723100    306.59261   -1447.9355     515.7519    453.28018    509.17335    38369.369 
  723200    307.45557   -1440.2661    491.23025    440.32763    806.65922    38369.369 
  723300    302.20412   -1476.5176    498.20822    387.32327    72.077253    38369.369 
  723400    301.63728   -1501.6234    508.28589    369.73364   -227.94441    38369.369 
  723500    298.83204   -1487.6957     463.3004    325.99919   -89.673452    38369.369 
  723600    303.98289   -1495.8073    505.27138    383.13483    -400.8604    38369.369 
  723700    299.52787   -1495.6479    461.33022    319.22121    -317.0602    38369.369 
  723800    299.87991   -1468.4467    515.07282    401.75583   -120.34914    38369.369 
  723900    300.47194   -1464.2411    521.86123    415.42518    82.388837    38369.369 
  724000    298.10583   -1438.7451     471.7015    380.06922    245.51177    38369.369 
  724100     299.0168   -1511.2423     534.7674    374.75452    152.12511    38369.369 
  724200    300.01875   -1487.8453    501.29963    369.21152   -73.622565    38369.369 
  724300    381.88846   -1540.6268    491.21724     676.3093    577.93481    38369.369 
  724400     284.4439   -1493.3418    449.34147    241.37547   -50.635612    38369.369 
  724500    243.81187   -1485.4781    573.65952    189.94483   -80.907037    38369.369 
  724600    326.31993   -1472.4844    436.98143    439.10676    775.97792    38369.369 
  724700    352.60914   -1468.8377    477.05562    601.62617    363.20036    38369.369 
  724800    244.33765   -1477.9537     525.8737    152.05935   -241.50252    38369.369 
  724900    279.76006   -1466.6763    477.34589    274.87959   -220.19983    38369.369 
  725000    376.93812   -1504.5647    494.72297    693.50697    667.04526    38369.369 
  725100    269.14177    -1516.807    478.33526    177.75522   -29.993361    38369.369 
  725200    302.34306   -1495.2032    518.25263    389.30992    634.20127    38369.369 
  725300     286.6826   -1487.1166    530.58475    338.96041   -170.02393    38369.369 
  725400    301.99603   -1541.5291    509.89474    333.05799   -432.91976    38369.369 
  725500    306.26206   -1513.6521    489.61926    359.93728   -95.396027    38369.369 
  725600    302.68595   -1507.8473     484.2574    344.22006    -154.3515    38369.369 
  725700    299.17547   -1505.6807    475.69654    321.96224   -111.97308    38369.369 
  725800    294.00077   -1535.0233    495.94003    289.47917    52.225069    38369.369 
  725900    305.48341   -1511.1613    481.70998     351.0001     250.4557    38369.369 
  726000    303.58698   -1552.9306    491.64403    310.59504    853.59119    38369.369 
  726100    301.67481   -1514.0032     528.5871    377.82465    41.811249    38369.369 
  726200    294.72935   -1519.6657    507.45105    319.64017    31.301057    38369.369 
  726300    294.95049    -1526.061    501.42593    308.21905    144.38787    38369.369 
  726400    302.69906   -1529.4818    493.81424    332.20162   -122.40662    38369.369 
  726500    299.30489   -1482.3152    521.18374    391.39978   -81.122661    38369.369 
  726600    303.32888   -1484.8549    491.26819     377.1286   -309.80848    38369.369 
  726700    301.35702   -1492.4938    485.66111    354.97197    130.50096    38369.369 
  726800    309.98712   -1498.5718    509.38816    411.61965    316.80396    38369.369 
  726900    293.86145   -1467.7954    535.37951    395.51693    58.018377    38369.369 
  727000    304.81484   -1464.8426    512.67069    425.25829    3.9106373    38369.369 
  727100    308.04199   -1508.7875    484.54357    367.76954   -194.53613    38369.369 
  727200    303.42125   -1507.7438    517.64028    381.02918     106.1189    38369.369 
  727300    292.53884   -1526.5985    522.22462    317.58227      59.5258    38369.369 
  727400    304.33491   -1517.8436    505.81112    363.22895   -256.77857    38369.369 
  727500    304.60337   -1503.4416    519.71928    392.75235    225.35774    38369.369 
  727600    305.36812    -1527.801    500.66835    352.79782    137.72007    38369.369 
  727700    306.33032   -1489.4148    515.46996    410.33372   -176.96936    38369.369 
  727800    296.40682   -1542.2839    491.42102    288.57225   -826.50774    38369.369 
  727900    304.13869   -1492.9527    519.05596    400.47805   -245.21519    38369.369 
  728000    278.20944   -1473.3161    502.69912     286.5859   -401.45606    38369.369 
  728100    304.58606   -1513.7413    498.13148    360.78659   -434.56286    38369.369 
  728200    294.77107   -1480.5264     517.9627    369.47965   -656.96735    38369.369 
  728300    301.04201   -1474.6097    518.48899    404.26041   -261.50907    38369.369 
  728400     300.1962   -1465.8705    513.85665    404.54517   -228.50955    38369.369 
  728500    290.48074   -1495.2219     482.5361    299.96995    101.17951    38369.369 
  728600    303.57169   -1504.8851    493.49758    360.42508    391.09949    38369.369 
  728700    306.06627   -1495.9585    502.61288     389.7397    269.68985    38369.369 
  728800    296.04521    -1469.672    501.45425    369.58329    561.24196    38369.369 
  728900    306.39981   -1492.1387    512.82875    405.28263    586.87583    38369.369 
  729000      302.503    -1483.939    508.69885    391.74305    797.08301    38369.369 
  729100    303.38095   -1491.3651    488.22766    367.81317    977.91464    38369.369 
  729200    302.18351   -1508.5715    503.53859    360.50659    497.22837    38369.369 
  729300    306.78278   -1516.3523    489.71658    359.68741    516.66793    38369.369 
  729400    290.77507   -1486.9715    509.45624     336.4705   -171.98028    38369.369 
  729500    299.93865   -1515.7094    506.62338     346.3091   -415.48382    38369.369 
  729600    305.60073   -1535.6126    500.56534    345.93439  0.033239633    38369.369 
  729700    302.70454   -1499.5711    498.13728    366.46013   -142.96342    38369.369 
  729800    305.53755   -1467.5014    491.84844    405.04316    215.90194    38369.369 
  729900    297.55847   -1512.8801    528.95687     360.7161    241.82989    38369.369 
  730000    295.87526   -1486.3193    480.50803    331.22178   -163.63065    38369.369 
  730100    303.04751    -1446.229    502.18378    425.39865   -35.305555    38369.369 
  730200    310.13788    -1457.114    483.18339    427.55391   -100.24193    38369.369 
  730300     304.2226    -1451.672    500.20906    423.29105    23.805446    38369.369 
  730400    305.36328   -1443.9781    495.09853    431.02895   -281.62317    38369.369 
  730500    305.09648   -1440.3005    499.93667    438.33909   -86.482993    38369.369 
  730600    307.28383   -1473.0743     566.3477    481.86082   -472.48488    38369.369 
  730700    299.61314   -1471.6233    480.91324    363.21414   -203.98719    38369.369 
  730800     298.8775   -1438.8554    516.03077    427.77531   -512.88906    38369.369 
  730900    311.63145   -1417.9157    510.10529    500.42343   -487.82227    38369.369 
  731000    290.56234   -1440.3398    508.27051    380.95524   -791.95487    38369.369 
  731100    297.04448    -1456.193    508.34031    394.46401   -365.91205    38369.369 
  731200    303.14495   -1457.1388    509.99499    422.74036   -611.90549    38369.369 
  731300    307.01363   -1468.0578    504.32312    423.63172   -928.09246    38369.369 
  731400    307.09433   -1469.7899    513.33054    431.27171   -482.75923    38369.369 
  731500    292.09603   -1446.5745    521.10913    394.48971   -879.14617    38369.369 
  731600    301.73219   -1494.8485    493.28623    361.93776   -347.78741    38369.369 
  731700    291.99675   -1472.8408    503.35687     350.0225   -577.09227    38369.369 
  731800    293.27228     -1501.58    487.46788    311.15831    -392.1179    38369.369 
  731900    305.27236   -1457.1365    515.49289    437.85405   -1002.0564    38369.369 
  732000    297.45071   -1470.3533    473.32595    347.12504   -329.72167    38369.369 
  732100    302.80424   -1486.8711    521.80202    403.27537   -158.96516    38369.369 
  732200    303.63837   -1510.2786    508.42525    370.26049    145.34207    38369.369 
  732300     295.5954   -1525.6175    506.91651    317.06741    116.14393    38369.369 
  732400    294.10349   -1515.1056     514.9008    328.82182   -71.401991    38369.369 
  732500    301.63293   -1520.2765    507.96442    350.73934   -44.629431    38369.369 
  732600    303.62691   -1493.0157    498.12506     377.1714   -514.63545    38369.369 
  732700    288.16271   -1463.4116    489.02739    327.79655   -273.69005    38369.369 
  732800    304.87054   -1480.6134    517.78071    414.84925   -471.06234    38369.369 
  732900     293.3058   -1511.5583     481.4712    295.33481   -31.496052    38369.369 
  733000     303.7016   -1494.4822    542.00106    419.91845   -120.11438    38369.369 
  733100    298.12235   -1538.7051    512.44926    320.93166   -382.46027    38369.369 
  733200    302.97141   -1518.7722    493.79104    344.11882    337.82735    38369.369 
  733300    295.52783   -1553.1657    497.06404    279.36142    276.18664    38369.369 
  733400    310.20818   -1541.6849    501.81948    361.93685   -288.21985    38369.369 
  733500    299.72414   -1537.4238    496.19113    313.19317   -196.47546    38369.369 
  733600    300.18227   -1482.2146    529.99056    404.27203   -22.218169    38369.369 
  733700    298.22365   -1487.5421    516.56992    376.67301    301.10531    38369.369 
  733800    300.11922   -1497.1676    526.07162    385.11514    596.85197    38369.369 
  733900    301.38649   -1494.6524    518.56114    385.84659    535.39192    38369.369 
  734000    291.31548   -1518.9393      526.232    323.72055    307.34173    38369.369 
  734100    290.14232   -1487.0546    511.01025    335.08214    360.60502    38369.369 
  734200    307.45899   -1468.7864    532.77927    453.37179    464.00189    38369.369 
  734300    305.93131    -1495.164    503.60976    390.92124   -106.27937    38369.369 
  734400    304.88526   -1496.3111    498.09149    379.52888     527.6387    38369.369 
  734500    304.59567    -1518.465    518.07139    376.04623   -106.25762    38369.369 
  734600    307.69964   -1498.9639    502.21764    393.72016    385.60965    38369.369 
  734700     300.7374   -1463.4721    511.83748    407.37002   -591.85607    38369.369 
  734800    289.74426   -1477.1783     503.4721     335.6215   -140.23403    38369.369 
  734900    314.20017   -1474.3678    525.43495    470.90887     180.0967    38369.369 
  735000    293.20959   -1506.3486    506.97828    325.61686    667.64826    38369.369 
  735100    299.52746   -1508.3383    498.39117    343.58992    410.94508    38369.369 
  735200    297.86452   -1489.5691    511.50627    367.95955   -19.150994    38369.369 
  735300    300.05026   -1477.9319    527.16365    405.13132    458.61362    38369.369 
  735400    296.01273   -1461.3951    510.65868     386.9179    478.31978    38369.369 
  735500    304.47635   -1441.8079    517.80832    451.90107    283.90603    38369.369 
  735600    298.53612   -1456.8806    503.03373    395.21042      7.00249    38369.369 
  735700    307.27149   -1457.1785    512.04661    443.39971    343.90842    38369.369 
  735800    306.12698    -1488.099    549.18135      444.442    308.81625    38369.369 
  735900    294.73053    -1500.645    492.35765    323.57284    279.38188    38369.369 
  736000    296.88992   -1531.1907    510.05657    320.48413    155.61895    38369.369 
  736100    306.81607   -1461.4601    524.91797    449.93149    514.35869    38369.369 
  736200     296.7332   -1525.9915    497.75312    312.67163    36.927669    38369.369 
  736300    293.29963   -1527.0466    505.96226    304.30974    115.90942    38369.369 
  736400    313.33337   -1505.6215    494.90139    405.20459    782.81575    38369.369 
  736500    295.22659   -1451.1471    480.38559    363.34032    272.57218    38369.369 
  736600    307.49527   -1480.2773     505.4462    414.71174    108.83312    38369.369 
  736700    302.06532   -1474.5681    512.37303    402.81031    361.75918    38369.369 
  736800    306.21236   -1464.3527     516.9014    436.29425    381.25632    38369.369 
  736900    302.83217    -1474.816    500.99076    394.64554    328.96251    38369.369 
  737000    305.85766   -1484.2829    490.98314    388.84285    877.39192    38369.369 
  737100    308.26393   -1491.6343    486.07114    387.45317    631.33171    38369.369 
  737200    301.86598   -1466.0291    529.01313    427.08865  -0.49103376    38369.369 
  737300     303.3181   -1465.7697    488.12897    393.02588    263.16427    38369.369 
  737400    310.35966   -1518.4865    481.65431    365.65455   -42.142879    38369.369 
  737500    296.12715   -1507.2746    515.23847    346.13527   -12.964131    38369.369 
  737600    299.33859   -1501.5704      499.836    350.94918    437.08005    38369.369 
  737700     293.1075   -1466.6291    538.62654     396.5233     192.2899    38369.369 
  737800    300.80333   -1477.8852    523.97159    405.38896    493.19423    38369.369 
  737900    298.90213   -1444.4634    535.52368    441.77155    228.23227    38369.369 
  738000    301.04892    -1447.179    500.83075    414.06409   -13.526814    38369.369 
  738100    307.34453   -1459.1908    489.34774    419.01856   -28.770414    38369.369 
  738200    306.66989   -1430.2473    508.73664    464.30235    504.03848    38369.369 
  738300    300.47336    -1507.903    506.49723    356.40569    382.51669    38369.369 
  738400    307.70586   -1499.4228    517.64605    408.71778    232.09016    38369.369 
  738500    302.43731   -1481.7748    510.00127    394.91283    413.14807    38369.369 
  738600    292.20207   -1510.7364    519.84684    329.54475   -214.73446    38369.369 
  738700    301.50271    -1487.515    460.78509    335.73316    59.374353    38369.369 
  738800    297.91172   -1470.3405    489.61379    365.50897   -401.73423    38369.369 
  738900     295.7866   -1461.8989    519.98738    394.72094   -659.26403    38369.369 
  739000    302.94711   -1455.1841    489.41473    403.22076    46.767112    38369.369 
  739100    293.29931    -1457.276    513.14294    381.25948   -57.726468    38369.369 
  739200    310.17353   -1460.8712    511.54525    452.31969   -9.3753073    38369.369 
  739300    290.99664   -1479.6938    484.77207    320.06532    130.42108    38369.369 
  739400    300.61836   -1495.0936    514.53022     377.9033    23.967134    38369.369 
  739500     300.9928    -1524.286    506.70252    342.57531    599.74227    38369.369 
  739600    293.29505   -1456.5379    492.24971    361.08514    379.77734    38369.369 
  739700    301.02883   -1436.6555    512.84993    436.51603     603.4375    38369.369 
  739800    296.68732   -1441.9706     533.8206    432.55273   -118.86186    38369.369 
  739900    293.12851   -1467.7433    514.02855     370.9061     127.4671    38369.369 
  740000    304.18009   -1469.3313    513.70761    418.93814    199.68967    38369.369 
  740100     298.5117    -1440.884    505.66738    413.73029   -222.65721    38369.369 
  740200    303.85818    -1421.335    496.32357    448.09578   -303.08106    38369.369 
  740300    303.33236   -1432.2917    500.25329    438.69263    -460.4189    38369.369 
  740400    301.25798   -1452.8585    526.72938    435.22793    68.616548    38369.369 
  740500    301.39822   -1422.3313    505.57212    445.23167     39.11175    38369.369 
  740600     306.0125     -1420.35     534.2626    496.75496    316.77498    38369.369 
  740700    307.49703   -1456.0515    527.84115    461.34043    502.54389    38369.369 
  740800    295.43347   -1469.3683     521.3744    387.04281    339.90322    38369.369 
  740900    294.29608   -1459.8233    474.00691    344.08054    93.731567    38369.369 
  741000     300.8324   -1452.8652    507.86479    414.43352    265.91567    38369.369 
  741100    299.68247   -1505.4469    492.72711    341.51777    930.19566    38369.369 
  741200    292.85713   -1461.4194     507.9337    369.90874   -171.64416    38369.369 
  741300    309.15413   -1489.5929     485.4879    392.93411     152.7516    38369.369 
  741400    296.39745   -1477.9905    499.99259    361.39493    234.94811    38369.369 
  741500    312.69863   -1484.8587    512.13265    440.33035    698.83034    38369.369 
  741600    300.04922   -1465.9757    514.01099    403.93008    908.20904    38369.369 
  741700    292.72043   -1473.0203     530.9117    380.66807    317.24237    38369.369 
  741800    301.93005   -1478.8943    516.02936    401.52916    851.46395    38369.369 
  741900    295.53922   -1489.2363    489.12059    335.39882    342.45648    38369.369 
  742000    303.81361   -1480.0909    510.70254    403.51742    29.832257    38369.369 
  742100    294.45537   -1477.7771    507.30497    360.14463    214.12835    38369.369 
  742200    281.73237   -1462.2247    514.29637    325.19432    337.22672    38369.369 
  742300    299.33081   -1500.0135    519.37014      372.005    310.83316    38369.369 
  742400    300.55643   -1500.2169     510.8256     368.7955    185.34036    38369.369 
  742500    306.12337    -1480.472    522.61839    425.48976    454.28139    38369.369 
  742600    288.34182   -1484.9088    515.25622    333.33764    115.87472    38369.369 
  742700    300.38248   -1490.7802    503.17223    369.79285    497.49607    38369.369 
  742800    289.94473   -1463.4413    522.20159    368.99385    156.42651    38369.369 
  742900    299.05964   -1464.2153    511.18735     398.3951   -117.75948    38369.369 
  743000    305.88387   -1459.7356    509.26908    431.79458    369.36606    38369.369 
  743100    301.56547   -1473.4405    521.15795    410.46411    413.47532    38369.369 
  743200    298.00505   -1472.9902     499.9112    373.57839    613.26746    38369.369 
  743300    291.99571   -1532.7952    494.08192    280.78847   -24.797637    38369.369 
  743400    298.86482   -1490.7348    509.11132    368.91913    75.926635    38369.369 
  743500    306.51379   -1505.2056    511.29584     391.1979   -302.25312    38369.369 
  743600    298.90538   -1517.2818    507.23148    340.67558   -476.41762    38369.369 
  743700    306.13728   -1539.0141    509.28563    353.67771   -420.80459    38369.369 
  743800    298.09266   -1529.6422    497.00617    314.41733   -272.25347    38369.369 
  743900    308.90008   -1503.0181    514.88815    407.76114   -301.57412    38369.369 
  744000    307.39462   -1528.0972    505.51311    366.50389   -482.03932    38369.369 
  744100    295.29676    -1495.699    516.28704    355.00696    18.269918    38369.369 
  744200     309.7774   -1522.0079    504.96792    382.81558    219.17667    38369.369 
  744300    302.86058    -1513.012    524.63669    380.22385    68.688199    38369.369 
  744400    293.42904   -1500.9573     498.4663    323.48786    -66.78177    38369.369 
  744500    308.12368   -1533.5352    484.52471    343.37208    180.99015    38369.369 
  744600    299.58747   -1530.0582     506.1833    329.93332    416.02663    38369.369 
  744700     302.8955   -1554.5693    507.25214    321.43973    464.34444    38369.369 
  744800    295.41562   -1534.3067     481.3367    281.98603    247.09063    38369.369 
  744900     291.6805     -1531.37    505.11346    291.82083    281.56933    38369.369 
  745000    280.10018   -1521.8079      508.526    252.46508    309.13598    38369.369 
  745100    303.91184   -1485.5492    550.27394     438.0744    -345.6161    38369.369 
  745200    295.65452   -1466.7828    509.85459    379.10742   -7.8562495    38369.369 
  745300    293.73772    -1482.125    518.13142    363.38016   -76.508867    38369.369 
  745400    301.65542   -1473.1814    509.67614    399.64779   -324.26702    38369.369 
  745500    296.77748   -1473.6155    523.21145    390.70609   -621.36217    38369.369 
  745600    298.07954   -1523.2393    495.83694    319.59162   -259.39435    38369.369 
  745700    302.19101   -1551.9002    513.59355    327.26671    61.488585    38369.369 
  745800     312.0285   -1544.4929     517.5155    383.05074    240.13648    38369.369 
  745900    295.10465   -1498.4128    499.60248    334.74045    472.87647    38369.369 
  746000    299.98078   -1502.8462    528.60928    381.34864    205.98995    38369.369 
  746100    305.57606   -1469.6917    533.74987    444.92824    405.63922    38369.369 
  746200     300.5198   -1467.7452    502.28844    392.56458    337.23913    38369.369 
  746300    297.79335   -1439.4217    495.30727    401.58635   -36.446375    38369.369 
  746400    293.17157   -1463.2311    518.50447    380.08871   -96.420459    38369.369 
  746500    282.73553   -1447.9953    502.28435    331.94494    126.50824    38369.369 
  746600    304.79709   -1505.0992    520.51412    392.76491    242.79811    38369.369 
  746700    299.87709   -1475.3236    518.29075    398.08416     167.8065    38369.369 
  746800    297.08897   -1470.9739    507.22987    378.77369   -345.84794    38369.369 
  746900    292.81554   -1457.5074     485.4852    351.18427   -34.079589    38369.369 
  747000    295.62382   -1500.4152    519.57308    355.05478    -201.2458    38369.369 
  747100    297.85562   -1521.0916    497.43873    322.32933   -88.645591    38369.369 
  747200    305.47261   -1510.2475    489.14281    359.29797   -241.70186    38369.369 
  747300    303.54523   -1506.2849    517.05973    382.46781     61.90188    38369.369 
  747400    301.18506   -1512.7133    491.88125    340.19555    138.38323    38369.369 
  747500    297.51807    -1525.176    510.48913    329.76991   -504.20035    38369.369 
  747600    302.33459   -1491.4389    488.68631    363.46961    149.64411    38369.369 
  747700    306.16639   -1505.2064    518.91876    397.25015   -47.862722    38369.369 
  747800    305.04816   -1552.9861    504.20735    329.70581    788.95752    38369.369 
  747900    300.82637   -1503.6467    510.24364    366.00366    445.37818    38369.369 
  748000    293.45804    -1539.634    508.86188    295.33775     629.6746    38369.369 
  748100    304.60008   -1511.4717    508.24761    373.23571    96.685334    38369.369 
  748200    296.07918     -1490.93     515.5819    362.60649     186.2135    38369.369 
  748300    300.98978   -1493.3997    483.08555    349.83096    106.03566    38369.369 
  748400    297.73248   -1473.7692    510.44309    382.09956   -104.34287    38369.369 
  748500    306.46155   -1495.5285    526.67081    416.01385    408.21085    38369.369 
  748600     303.8096   -1514.4176    541.72491      400.195    429.60474    38369.369 
  748700    295.96107   -1518.1015    506.64484    325.96418   -34.039315    38369.369 
  748800    300.42457    -1522.281    505.98311     341.2931    -281.6049    38369.369 
  748900     302.8315   -1519.0466    519.52035    368.94147   -127.63694    38369.369 
  749000     294.7248   -1537.4141    508.88463    303.30478    726.03954    38369.369 
  749100    313.35521   -1522.0341    519.57872    413.56801    811.51917    38369.369 
  749200    294.08673   -1493.3757    510.98088     346.5561     101.4426    38369.369 
  749300    298.06519     -1478.87    498.60016    366.65936    7.9888801    38369.369 
  749400    302.81865   -1521.8107    539.90084    386.49983   -194.54733    38369.369 
  749500    298.62668   -1526.0616    501.21853    324.62342   -454.68928    38369.369 
  749600    296.61552   -1499.1147    487.20116     328.4647    49.753928    38369.369 
  749700      310.153    -1499.985    524.41652    425.98437   -517.42598    38369.369 
  749800    295.34445   -1492.6629    524.80282    366.77434    116.72775    38369.369 
  749900    292.22281    -1500.554    505.67625    325.65022    441.83348    38369.369 
  750000    299.44098   -1511.9178    507.99532    349.22377   -11.900316    38369.369 
  750100    302.78173    -1497.659    502.57055    373.15435    424.65559    38369.369 
  750200    296.01739   -1519.6284    527.21001    345.25694     104.6382    38369.369 
  750300    289.28819   -1540.8388    492.59869    259.02657   -451.75918    38369.369 
  750400    300.72273   -1519.5939    503.51877    342.86323    -540.4795    38369.369 
  750500    304.22182   -1501.4089    518.29661    391.63816    150.03381    38369.369 
  750600    297.59676    -1517.085     497.7849    325.51228   -325.91077    38369.369 
  750700    302.97269   -1552.3817    501.71928    318.44335   -286.15245    38369.369 
  750800    287.06723   -1537.6199    492.63621    252.24669    376.07838    38369.369 
  750900    303.66907   -1569.3678    498.70069    301.58549    413.11147    38369.369 
  751000    296.89201   -1527.5779     488.6662    302.71602    839.45062    38369.369 
  751100    301.91805   -1494.4841    496.39707    366.25288     680.1253    38369.369 
  751200    301.60532   -1500.4821    538.94941    401.39403    64.003912    38369.369 
  751300    295.91294   -1523.6613    481.02749    294.56957     -26.3873    38369.369 
  751400    313.61406   -1571.5336    512.16442    357.82389    220.04746    38369.369 
  751500    305.15074   -1524.6911     498.0396    352.29665   -58.974219    38369.369 
  751600    300.01599   -1518.6238    480.82295    317.94377   -206.06705    38369.369 
  751700    299.58143   -1536.3074    519.40541    336.87893   -337.96089    38369.369 
  751800    299.80886   -1529.3996    496.73713     322.1462   -355.81208    38369.369 
  751900    300.50675   -1569.0943    511.37805    300.24615   -79.191905    38369.369 
  752000    301.79997   -1572.2755     494.3749    285.90574    101.82968    38369.369 
  752100    301.93306   -1558.6755    497.80704    303.53923   -50.768013    38369.369 
  752200    297.90911   -1531.1551    507.88444    322.95317   -234.79249    38369.369 
  752300      309.759   -1558.2944    519.24621    360.72427    204.18409    38369.369 
  752400    300.10575    -1537.893    474.61953    292.87685   -38.377142    38369.369 
  752500    288.99081   -1557.5136     515.9387      264.348   -224.28359    38369.369 
  752600    305.86461   -1529.3868    525.15086    377.93811   -190.71125    38369.369 
  752700    293.76784    -1541.826    506.72795    292.41183   -479.74206    38369.369 
  752800    297.83926    -1478.899    499.52185    366.53107   -519.62024    38369.369 
  752900    300.05062    -1471.857    522.78942     406.8336   -577.48428    38369.369 
  753000    306.09039   -1494.0101    517.27184    406.45605   -356.48462    38369.369 
  753100    295.14305   -1493.4452    508.97834    349.25743    180.90569    38369.369 
  753200    298.39727   -1512.3365    519.18107    355.27438     75.17148    38369.369 
  753300    296.33413   -1468.5615    533.95638    404.50153   -427.37641    38369.369 
  753400    307.33014   -1519.5575    493.84634    363.08551   -325.88475    38369.369 
  753500     295.2008   -1464.7971    504.97612    374.16434   -170.20603    38369.369 
  753600    290.25793   -1475.0026    500.14487    336.79114    549.39209    38369.369 
  753700    299.15476   -1548.5331    490.05808    293.37784    473.92672    38369.369 
  753800    299.21544   -1497.4889     515.6395     370.2777    828.65048    38369.369 
  753900    291.25245   -1491.2807    511.82096    336.68333    634.80717    38369.369 
  754000    303.54542   -1447.1896    501.49339     425.9976    783.59556    38369.369 
  754100    303.16546   -1490.4938    515.89532    395.37837    327.01247    38369.369 
  754200    307.91282    -1485.414    494.45698    400.47268   -79.813486    38369.369 
  754300    288.80809   -1492.3565    501.15962    313.90035   -419.69266    38369.369 
  754400    298.18456   -1463.5111    497.66761    381.62512   -276.72805    38369.369 
  754500     299.3802   -1458.9101    515.77546    409.73693   -228.09176    38369.369 
  754600    299.56525    -1463.131    527.58941    418.16624   -875.36197    38369.369 
  754700    299.30654   -1478.0647    507.84648     382.3205   -757.91498    38369.369 
  754800    293.95978   -1486.9878    489.32762    330.71703   -409.32979    38369.369 
  754900    287.94688   -1484.2431    527.99647     344.9588   -298.78472    38369.369 
  755000    294.93983   -1464.6634    505.27158    373.41418   -165.42401    38369.369 
  755100    302.68916   -1483.8891    526.49647    410.43189   -474.89195    38369.369 
  755200    310.26006   -1497.4785    485.65956    390.21773   -210.28399    38369.369 
  755300    300.34111   -1471.5959    480.60984    366.22778   -770.75623    38369.369 
  755400    302.47336   -1473.7677    486.69545    379.77708   -283.10456    38369.369 
  755500    299.37557   -1511.8868    498.72413    339.68797   -67.575624    38369.369 
  755600    307.30083   -1499.7639    500.38778     389.2881    12.337717    38369.369 
  755700     294.4284   -1519.3271    496.61285    307.78058    59.762032    38369.369 
  755800    312.58141   -1580.4981    492.57124    324.59975    253.00169    38369.369 
  755900    309.46969   -1526.4812    525.23142    397.21527    353.18674    38369.369 
  756000    301.63827   -1537.7845    510.83477    336.12582    -314.7603    38369.369 
  756100    301.36834   -1530.2782    485.63806    317.21569   -483.53012    38369.369 
  756200    300.36779   -1525.9329    472.77245    304.17398   -104.81975    38369.369 
  756300    302.54121   -1530.0516    486.64585     323.7502   -550.08811    38369.369 
  756400    310.56735   -1539.9159    501.89964    365.40901   -30.952952    38369.369 
  756500    296.81864   -1579.8814     501.4966     262.9113   -371.33203    38369.369 
  756600    302.69516   -1579.5277    479.32155    267.64542    79.034407    38369.369 
  756700    300.40701   -1560.7484    485.75129     282.5145   -309.29649    38369.369 
  756800    302.21496   -1576.4436    497.25107    286.48911   -204.99177    38369.369 
  756900    302.61313   -1555.4493    483.51082    295.54245   -459.30445    38369.369 
  757000    301.10657    -1578.231      489.402    271.84392   -678.76863    38369.369 
  757100    295.45525   -1551.1931    488.75216    272.69411    -301.4149    38369.369 
  757200    297.44603   -1572.2666    499.61469    271.47934   -201.65284    38369.369 
  757300    297.99083   -1546.1092    504.87383    305.35778    71.994572    38369.369 
  757400    295.95197   -1556.4594    511.51017    292.43048    249.85421    38369.369 
  757500    299.63234   -1541.7688    490.39566    302.63783    807.26647    38369.369 
  757600    299.35334   -1532.4403    521.28573    341.59567    353.58268    38369.369 
  757700    300.19795   -1572.1251    488.25529    272.69711    232.61632    38369.369 
  757800    308.07028   -1527.5914    502.59947    367.14936    443.99785    38369.369 
  757900    297.07967   -1567.9483    495.79434    270.32178    241.48238    38369.369 
  758000    292.54023    -1520.866    493.12013    294.21651    427.48347    38369.369 
  758100    309.06247     -1542.52    483.95847    338.06339   -222.61425    38369.369 
  758200    294.17719   -1555.6626    498.52588    272.22293   -96.398264    38369.369 
  758300    311.42555   -1541.0596    501.52816    367.77201   -521.35021    38369.369 
  758400    310.73229   -1498.9673    494.56392    399.76726   -519.33525    38369.369 
  758500    307.18143   -1540.9063    505.94282    353.16113   -769.28625    38369.369 
  758600    301.41735   -1483.5635    520.91609    399.42985   -754.62329    38369.369 
  758700     294.5616   -1524.9215    519.40829    325.58356    -1112.533    38369.369 
  758800    302.28928   -1525.7239    500.49928    340.79284   -836.27692    38369.369 
  758900    300.94898   -1510.0013    520.91804    370.87755   -244.35953    38369.369 
  759000    309.84302   -1504.3877    512.84616    408.61061    77.246602    38369.369 
  759100    303.72347   -1502.5811     532.1758    402.09319    8.8963502    38369.369 
  759200    299.70643   -1578.6371    493.94143    269.65017   -639.92862    38369.369 
  759300    305.31472   -1544.7664    498.56867     333.4914    515.73433    38369.369 
  759400    295.91075   -1498.7535    514.20459    352.64459    118.53384    38369.369 
  759500    296.27831   -1531.2984    491.71203    299.26804    502.91533    38369.369 
  759600    300.75002   -1477.4243    483.12509    364.76247    232.52755    38369.369 
  759700    295.97524   -1545.9396    497.16104    288.70628   -248.91303    38369.369 
  759800     303.5846    -1490.988    508.03503    388.91791    553.01165    38369.369 
  759900     301.1618   -1512.4158    517.82383    366.33048    151.21328    38369.369 
  760000    294.90789   -1538.5476    506.66232    300.77638    188.91606    38369.369 
  760100    299.23853   -1516.6519    519.20243    354.78194     302.2543    38369.369 
  760200    299.05554   -1507.0706     515.0115    359.34534   -596.04191    38369.369 
  760300    307.87162   -1475.2742    523.91975    439.88913    239.21566    38369.369 
  760400    300.10676   -1527.6811    494.36229    322.83609    91.182744    38369.369 
  760500     300.5719   -1513.8249    494.84977    339.28164    374.41276    38369.369 
  760600    288.54169   -1530.6068    507.93418    281.22081    62.267201    38369.369 
  760700    294.02677   -1540.7949    499.95296    287.83799    298.49434    38369.369 
  760800    292.59649   -1520.8436    472.51157    273.88456    612.15941    38369.369 
  760900    287.90631   -1534.3917    480.00114     246.6316     28.13653    38369.369 
  761000    308.58229   -1516.8354    531.38718    409.00676    341.25925    38369.369 
  761100    298.06215   -1526.9106    478.47247     298.4773    474.62773    38369.369 
  761200    290.68377   -1527.6639    507.99074    293.90011    635.36685    38369.369 
  761300    306.33972   -1520.8371    516.32862    379.81249    268.62324    38369.369 
  761400    288.23711   -1508.9568    484.23116    277.79138    503.26434    38369.369 
  761500    296.48297    -1563.538    518.98192    295.22318    389.91564    38369.369 
  761600    310.94073   -1559.5329    494.10601    339.68562    241.66852    38369.369 
  761700    301.16028   -1480.4009    503.47533    383.99004    361.01924    38369.369 
  761800    309.78311   -1495.8601     514.5136    418.53486   -408.40044    38369.369 
  761900    311.65867   -1517.1695     508.0904    399.27773    231.21679    38369.369 
  762000    301.72342   -1496.4001    505.62716    372.68739    134.21653    38369.369 
  762100    294.31124   -1533.3893    534.27287    330.84898    235.15757    38369.369 
  762200    302.85828    -1531.623    487.81332    324.77905    10.052026    38369.369 
  762300    296.41927   -1479.4391    520.56267    380.61501     43.89995    38369.369 
  762400     293.0693   -1496.0569    495.23906    323.53532    71.817925    38369.369 
  762500    315.01017   -1515.3767    511.94062    420.06592    187.63343    38369.369 
  762600    308.81783   -1534.3806    499.16852    360.30729   -4.5393354    38369.369 
  762700    293.86207   -1464.4985    498.48396     361.9211   -259.04682    38369.369 
  762800    294.42523   -1437.6489    491.01527    383.84694   -552.74263    38369.369 
  762900    298.72162   -1477.8059    518.67335    390.76298   -335.13886    38369.369 
  763000    311.18327   -1457.6359    515.56115     464.1338   -91.808578    38369.369 
  763100    292.30712   -1514.2726    507.76065    314.39707   -163.34605    38369.369 
  763200    289.29983   -1528.2781    505.73022    284.77139   -300.33437    38369.369 
  763300    298.48644   -1515.2894    457.73952    291.28285    497.23379    38369.369 
  763400    293.52797   -1515.7981     500.2674    310.89519    31.815054    38369.369 
  763500    301.04553   -1479.0659    501.26334    382.59448    671.33054    38369.369 
  763600    303.86897   -1489.1293    507.73938    391.76599    171.23553    38369.369 
  763700    302.82295   -1492.7491    530.35421    406.03411    649.77163    38369.369 
  763800    319.63086   -1450.5704    487.62956     481.4416    400.35527    38369.369 
  763900    289.03143   -1479.7816    507.72842    334.05325   -200.99337    38369.369 
  764000    302.10159   -1445.6732    488.43971    407.93584     49.60989    38369.369 
  764100    299.44037    -1484.475    509.52517    378.19361   -573.65669    38369.369 
  764200    297.55948   -1477.2796    485.55944    352.92375   -745.43027    38369.369 
  764300    307.73812   -1480.8237    506.96816    416.78469   -669.89059    38369.369 
  764400     312.0457   -1453.4122    515.27387     471.9675   -873.58563    38369.369 
  764500    311.29571   -1459.7784    515.70992    462.64825    -941.0748    38369.369 
  764600     292.4193   -1468.0489    483.78784    337.15483   -692.13819    38369.369 
  764700    300.16884   -1487.7102     548.1988    416.92394   -645.16644    38369.369 
  764800    305.31749   -1452.3915     486.1417    413.45188    542.33359    38369.369 
  764900    298.35443   -1513.9575    488.74256    323.02127    294.41541    38369.369 
  765000    300.95538   -1525.5075    517.38146    351.86364    173.96488    38369.369 
  765100    295.22894   -1538.9973    467.35717    262.47228   -280.80119    38369.369 
  765200    287.52128   -1536.2741    504.38211    267.39019   -127.86886    38369.369 
  765300    300.52193    -1527.722    517.11915    347.42808    241.48667    38369.369 
  765400    306.61975   -1508.7941    497.34398    374.13636   -288.84064    38369.369 
  765500    301.10671   -1464.5143    488.38477    384.54401     12.51789    38369.369 
  765600    293.37076   -1521.2597    512.16155    316.61736   -3.6665219    38369.369 
  765700    297.94836   -1529.0149    490.49902    307.88539    483.85616    38369.369 
  765800     302.4397   -1501.2185      533.778    399.25665    1041.0971    38369.369 
  765900     294.1906   -1495.0573    533.00022    367.36319    637.99598    38369.369 
  766000     297.7602   -1494.3576    523.82734    375.02074    638.07065    38369.369 
  766100    306.11669   -1495.2104     493.9134    382.01612    140.11798    38369.369 
  766200    307.22451   -1512.8592    519.00279    394.46288    78.137943    38369.369 
  766300    299.07711   -1520.6672     483.1348    313.96952   -233.98396    38369.369 
  766400     309.4356   -1502.1998    496.97643    393.08765   -74.572389    38369.369 
  766500     308.5104   -1523.2559    510.15043    381.02463   -402.74526    38369.369 
  766600    302.11866   -1488.4792    478.56049    355.32777   -214.35731    38369.369 
  766700    310.24437   -1502.6752    492.30373    391.59427   -246.05681    38369.369 
  766800     290.4078   -1510.2925    493.99677    296.03042   -226.74751    38369.369 
  766900    304.07946   -1487.3728    506.83354    393.56789     328.5109    38369.369 
  767000     307.1385   -1459.7693    512.02377    440.18512    248.52735    38369.369 
  767100    292.06173   -1449.0649    500.74972    371.48485   -64.775538    38369.369 
  767200    306.61122   -1486.6595    514.84238    413.73081     251.6251    38369.369 
  767300    308.31042   -1491.8761    497.29902    398.64932    193.13558    38369.369 
  767400    300.50303   -1481.3038     505.2708    381.91253     249.3228    38369.369 
  767500    296.62038   -1499.6883    497.49148     338.2034    161.91491    38369.369 
  767600    296.51046    -1514.019    506.46901    332.35354     120.0108    38369.369 
  767700     292.5828    -1468.627    494.69552    348.22333     764.0938    38369.369 
  767800    297.32883   -1504.4198     473.6463    312.82815      48.9206    38369.369 
  767900    301.98638   -1491.2839    521.03247    394.39728    170.79102    38369.369 
  768000    303.85251   -1495.8967    485.53154    362.71635   -45.721571    38369.369 
  768100    300.10228   -1566.4026    493.73434    283.46634     205.2743    38369.369 
  768200    304.01972   -1509.7364    497.72434    361.82515   -102.42874    38369.369 
  768300    293.94777   -1491.4176    494.12463    331.02997   -600.56929    38369.369 
  768400    312.54895   -1494.3087     512.6829    430.75417   -365.42462    38369.369 
  768500    297.29603   -1492.4575    498.78121    349.77716    205.24535    38369.369 
  768600    294.99814   -1511.2918    485.73636    307.51404   -723.18934    38369.369 
  768700    307.29433   -1476.4802     498.3762    410.53079   -331.89965    38369.369 
  768800    300.04081   -1496.7355     492.9415    352.06287   -705.42487    38369.369 
  768900    304.40781   -1495.9514    483.39457    363.03404   -377.07828    38369.369 
  769000    311.78513   -1488.3491    502.68353    423.26275   -591.87591    38369.369 
  769100    303.70073   -1492.7745    507.85623    387.47743   -680.75152    38369.369 
  769200    305.98422     -1489.12    492.77773     386.3723   -82.745276    38369.369 
  769300    312.79686   -1479.4843    504.02319    438.03908    462.32365    38369.369 
  769400    304.27915   -1531.0546    490.28846    334.24333    941.35326    38369.369 
  769500    311.65443   -1487.7731    505.76268    426.32729    113.35189    38369.369 
  769600     299.2447    -1510.392    501.26577    343.13305   -231.32544    38369.369 
  769700    291.05537   -1489.8422    498.34274    323.75301   -470.83631    38369.369 
  769800    299.61299   -1517.6122      482.473    318.78432   -196.47597    38369.369 
  769900    288.82696    -1516.528    512.12365    300.77812   -269.03291    38369.369 
  770000    304.23603   -1504.4671    495.53333    365.88087   -368.21257    38369.369 
  770100    300.60191   -1504.4949    494.25037    348.14785    155.31155    38369.369 
  770200    312.96891   -1516.9363    472.62633    369.96771     464.0208    38369.369 
  770300    297.45449   -1541.2111    508.06692    311.02525    45.773429    38369.369 
  770400    297.02014   -1548.2614    502.13001    296.07534    401.62889    38369.369 
  770500    291.57766   -1505.8426    480.38734    292.15735    843.29452    38369.369 
  770600    285.75423    -1502.314    494.06811    283.05116    134.70827    38369.369 
  770700    298.15455   -1477.0599    519.59444    389.86748    387.00438    38369.369 
  770800    294.40787   -1490.6894    525.82603    365.53875    751.26005    38369.369 
  770900    302.45316   -1514.8848    506.16658    358.03984    154.83772    38369.369 
  771000    291.11625   -1448.5528    506.82376    373.79855    12.307587    38369.369 
  771100     310.5548    -1438.341    494.67977    459.70738   -96.261438    38369.369 
  771200    292.13178   -1480.4806    501.35303    340.98904    27.189528    38369.369 
  771300    310.57306   -1469.6456    505.57634    439.38182   -111.17827    38369.369 
  771400    297.60583   -1456.3016    504.88135     393.4331   -550.77899    38369.369 
  771500    301.09077   -1498.7622    498.21786    360.05715   -176.47173    38369.369 
  771600    286.96638   -1495.6992    513.12625    314.20173   -98.676002    38369.369 
  771700    301.46042   -1471.4131    501.31886    392.17767    645.54881    38369.369 
  771800    301.82872     -1446.35    509.88425    427.47049    183.76715    38369.369 
  771900    294.61137   -1495.6419    479.38707    315.06684   -406.57584    38369.369 
  772000    293.65967   -1489.6239    501.98378    339.38092   -413.00996    38369.369 
  772100    305.49445   -1446.3544    469.32276    403.46972   -529.76409    38369.369 
  772200     303.9707   -1400.9075    497.68276    470.39089   -335.36694    38369.369 
  772300     295.1347   -1425.8742     482.5521    390.36444   -78.768354    38369.369 
  772400    301.49517    -1413.173    509.20357    458.45952    -248.4595    38369.369 
  772500    298.31006   -1472.7373    485.76096    361.05936   -397.61413    38369.369 
  772600    307.14966    -1505.785    518.60267    400.79868    153.24796    38369.369 
  772700    297.93021   -1488.5351    495.84901    353.63309   -246.46804    38369.369 
  772800    304.85209   -1449.6602    493.23427    421.17265    94.470892    38369.369 
  772900     301.4586   -1473.5341    509.58598    398.31556    25.354728    38369.369 
  773000    295.20199   -1486.6743    512.71587    360.03223    212.10752    38369.369 
  773100    303.13631   -1462.7262    486.99395     394.1129    502.79199    38369.369 
  773200    295.87891   -1448.3656    514.91793    403.60192    123.18127    38369.369 
  773300    303.41439   -1466.8513    487.39453    391.64493    524.41321    38369.369 
  773400    296.58691   -1493.6287    486.31101    332.93125    174.50097    38369.369 
  773500     293.6599   -1443.8424     520.2967    403.47634    204.39304    38369.369 
  773600    302.96721   -1448.5833    498.58807    419.08571    442.54652    38369.369 
  773700    289.94611    -1468.747     541.7318    383.22455   0.39431109    38369.369 
  773800    304.26659    -1443.039    514.54086     446.4546    167.49194    38369.369 
  773900    286.11741    -1472.696    460.57651    280.81876   -321.93808    38369.369 
  774000    320.58835   -1484.7215    490.21117    454.19892   -200.93257    38369.369 
  774100    289.37115   -1476.6565    480.16179    311.14688    89.608019    38369.369 
  774200     291.7396   -1470.0821    488.34404    336.60635   -365.73737    38369.369 
  774300    303.21318    -1498.867    497.82831    369.15382    299.21474    38369.369 
  774400    303.58787   -1537.9658    485.12396    319.04388    178.28515    38369.369 
  774500    282.23497   -1489.0403    483.31656    269.67015   -534.31459    38369.369 
  774600    308.06843   -1463.2757    490.74941    419.60657    132.74407    38369.369 
  774700    307.38178   -1519.5778    502.37417    371.82638    -337.5865    38369.369 
  774800     296.9425   -1458.6193     486.8735       370.11    71.738373    38369.369 
  774900    307.47968   -1453.9651    507.79875    443.30608    83.733497    38369.369 
  775000    299.20469   -1447.9189    494.25026     398.4099   -25.412204    38369.369 
  775100    311.47423   -1443.3423    506.04075    470.22182   -109.79351    38369.369 
  775200    308.45041   -1439.8786    504.71694    458.69745    97.050666    38369.369 
  775300    284.62641   -1463.6322    480.67142    303.23975    659.03127    38369.369 
  775400    301.47395   -1479.3587    513.63101    396.60537    344.17218    38369.369 
  775500     300.0093   -1440.5303    509.15512    424.33927   -432.20727    38369.369 
  775600    292.05498   -1472.4472    480.14108    327.46344   -51.039821    38369.369 
  775700    293.94116    -1426.533     485.4873    387.24738   -68.909068    38369.369 
  775800    298.34756    -1462.614    519.30034    404.89148   -106.99598    38369.369 
  775900    297.59649    -1477.001    486.67758    354.48768    52.978808    38369.369 
  776000    302.29544   -1491.1107    496.96768    371.90233     288.2568    38369.369 
  776100    294.68174   -1462.9395     487.6514    356.35159   -332.52147    38369.369 
  776200    297.46183   -1464.0533    493.58565    373.73499   -399.04363    38369.369 
  776300    302.33545   -1506.5906    499.06643    358.70191    160.93179    38369.369 
  776400    299.51857   -1518.6907    497.79923    332.60542     379.7097    38369.369 
  776500    311.78245   -1486.0998    475.44077    398.25718    627.58988    38369.369 
  776600    300.49295    -1500.762    520.13828    377.27632    302.57903    38369.369 
  776700    296.83984   -1501.8848    498.88655    338.39365    504.80671    38369.369 
  776800    298.81194   -1483.8582    451.02275    317.46823    49.588315    38369.369 
  776900    306.81184    -1452.222    533.45332    467.68584    409.97093    38369.369 
  777000    297.13567   -1435.0731    497.90127    405.55696    471.45961    38369.369 
  777100    306.91482   -1468.2386    516.95327    435.63455    198.08497    38369.369 
  777200    288.22473   -1468.4651    500.31489    334.31087    205.07971    38369.369 
  777300    302.20464   -1495.9467    489.19388    358.88211    -381.5763    38369.369 
  777400    301.38177   -1474.3493    503.41426    390.98148   -224.78603    38369.369 
  777500    292.58722   -1498.5121    499.16018    322.82286    290.05407    38369.369 
  777600    309.22277   -1437.4575    497.16666    457.05839    169.38578    38369.369 
  777700    302.19376   -1459.0678    501.38242    407.90041    462.48187    38369.369 
  777800    297.61825   -1468.3729    491.12925    367.66583    783.94855    38369.369 
  777900    306.22378   -1459.5503    508.82379    433.07061    455.05227    38369.369 
  778000    318.20126   -1451.3882    502.56659    489.10064    195.67832    38369.369 
  778100    294.39977   -1456.5394    479.29308    353.11919    40.477693    38369.369 
  778200    309.69724   -1469.4996    518.21596    448.20978   -130.43669    38369.369 
  778300    312.16154   -1452.3026     463.3566    421.68329   -93.989198    38369.369 
  778400    299.06989   -1449.9586    519.16795     420.6787    49.730613    38369.369 
  778500    299.14924    -1437.791    500.78037    414.81722    5.0439597    38369.369 
  778600    300.52549   -1439.5785    511.39373    429.86232    210.70325    38369.369 
  778700     298.5339   -1453.5556    511.85182    407.34344    180.10567    38369.369 
  778800    304.52832   -1498.0159    499.12454    377.24408   -371.95033    38369.369 
  778900    305.40502   -1468.8762    488.79914     400.0202   -68.990294    38369.369 
  779000    299.05586   -1495.2212     490.1944    346.37917    214.49337    38369.369 
  779100    296.51667    -1462.755    486.22836    363.40492    157.35788    38369.369 
  779200    301.99751   -1480.2161    516.56338    401.04628   -246.13496    38369.369 
  779300    300.97638   -1476.7087    489.41996    372.79578   -29.006616    38369.369 
  779400    298.84005    -1497.963    498.76893    351.23663   -283.90241    38369.369 
  779500    307.04651   -1490.2505    484.63853    381.90302   -101.77875    38369.369 
  779600    296.81997    -1466.688    504.11234    378.72649    9.9421131    38369.369 
  779700    297.88406   -1445.6889    505.09767    405.51944   -154.39101    38369.369 
  779800    312.96583   -1463.7539    508.18096    458.69089   -219.08863    38369.369 
  779900    305.11293   -1512.0459    465.33372    332.06515   -57.919197    38369.369 
  780000    299.70901   -1450.3634    516.63725    420.63135   -446.15641    38369.369 
  780100    300.72532   -1405.2971    503.37354    457.02653   -882.18287    38369.369 
  780200     313.3409   -1420.8171    504.20746    499.34913   -579.24301    38369.369 
  780300    296.25088   -1430.2324    506.23224    414.73031   -282.06751    38369.369 
  780400    308.37313   -1419.1217    512.27902    486.66717    189.39853    38369.369 
  780500    304.55185   -1448.6583    485.84579    413.42933   -4.2140281    38369.369 
  780600    294.28903   -1424.4174    484.53592    389.98358    815.02358    38369.369 
  780700    304.58653   -1447.7975    528.22992    456.83092    488.34593    38369.369 
  780800    299.49345   -1468.5567     503.1532     387.9798    608.70469    38369.369 
  780900    313.96809   -1493.4592    479.05466    404.38839    85.643991    38369.369 
  781000    310.46941   -1451.4305    544.82329    496.37551   -356.30256    38369.369 
  781100    298.19879   -1462.7475    488.17322    372.95861   -221.45625    38369.369 
  781200    302.41529   -1456.7058    507.00618    416.88724   -650.71613    38369.369 
  781300    306.18792   -1470.7268    505.75529    418.66357   -151.35962    38369.369 
  781400    296.25412   -1461.0037    507.52736    385.26878   -498.90124    38369.369 
  781500    295.64989    -1469.941    505.51087    371.58453    182.53607    38369.369 
  781600    302.92721   -1463.3518    515.51262    421.06106    -329.2203    38369.369 
  781700    295.77119    -1451.263    513.32779    398.62762   -163.57586    38369.369 
  781800    307.88546   -1465.1866    516.80594    442.92544    61.466279    38369.369 
  781900    293.60228   -1476.7325    513.98498     364.0142   -19.861562    38369.369 
  782000    306.70862   -1486.8459    501.40338    400.54557    729.27254    38369.369 
  782100     300.3513   -1462.5892    508.64425      403.315    745.30948    38369.369 
  782200    304.40215   -1475.6669    514.34116    414.23956    776.14439    38369.369 
  782300    298.06486   -1444.9587    513.51085    415.47982   -27.660936    38369.369 
  782400    302.28625   -1432.1701    510.05308    443.88678   -21.243086    38369.369 
  782500    299.70891   -1437.1968    520.69505    437.85524   -58.874895    38369.369 
  782600     313.8419   -1461.1587    511.49723    468.56118    140.45938    38369.369 
  782700     301.5609    -1493.545    495.53008    364.71106    260.29136    38369.369 
  782800    301.55062   -1498.4312    510.74018    374.98847     143.0814    38369.369 
  782900    306.41325   -1468.9226    510.12947    425.86022   -1.5914117    38369.369 
  783000    307.47757   -1413.2308    508.66664    484.89877    438.36883    38369.369 
  783100    302.45907   -1452.0091    478.18674    392.96241    364.65164    38369.369 
  783200    304.81452   -1472.2382    488.18175    393.37233    647.68182    38369.369 
  783300    294.83648   -1522.7198    482.33755    291.95666    353.48653    38369.369 
  783400    309.61622    -1479.715    515.59309    435.00528    470.52802    38369.369 
  783500    299.41047   -1461.2037     510.5395    402.34413   -122.47285    38369.369 
  783600    306.95569    -1460.508    486.28331    412.87984    750.40173    38369.369 
  783700    296.99299   -1443.3218    497.15388    395.91604    364.21611    38369.369 
  783800    296.33812     -1452.05    524.19347    411.26824    289.53789    38369.369 
  783900    305.83323    -1435.242    487.09727    433.88754    230.40465    38369.369 
  784000      292.777    -1454.258    499.12992    367.90426    360.89178    38369.369 
  784100    310.01317    -1463.956    504.11196    441.07696    230.71497    38369.369 
  784200    287.18052   -1446.6694    479.79084    330.86378    475.52146    38369.369 
  784300     305.6484   -1400.6586     492.7082    473.24655   -51.061559    38369.369 
  784400    303.24832    -1395.652    517.50912    492.20841   -19.833697    38369.369 
  784500    307.66155   -1426.8461    509.18676    472.63487    49.591315    38369.369 
  784600    300.50776   -1462.7564    504.00511    399.21561    156.12567    38369.369 
  784700    301.65417   -1480.2499     514.5656    397.46315   -113.61031    38369.369 
  784800     294.3493   -1500.4202    504.97508    334.69236    247.76094    38369.369 
  784900    293.41234    -1449.282    512.27759    388.89899    17.399351    38369.369 
  785000    295.59343   -1448.1956    515.67468    403.23856    156.12264    38369.369 
  785100    301.65307   -1446.4326     485.8329    402.54282   -40.398899    38369.369 
  785200     309.8234    -1451.917    518.05319    466.19965   -403.42157    38369.369 
  785300    308.35736   -1489.7283    486.47458     390.1848    -783.1774    38369.369 
  785400    292.02709   -1433.8142     513.3075    399.13693    39.992913    38369.369 
  785500    304.81403    -1426.305    528.01466    479.13629   -265.55438    38369.369 
  785600     295.9104   -1455.4139    535.84584    417.62381   -514.07554    38369.369 
  785700    306.64143   -1478.9517    484.48564     391.2184   -215.51009    38369.369 
  785800    303.10773   -1447.3774    502.80614    425.14472   -357.92353    38369.369 
  785900    288.18793   -1426.4975    502.98956    378.78679   -757.02999    38369.369 
  786000    301.26822   -1411.6002    504.55555    454.35872   -1288.3372    38369.369 
  786100    306.66759   -1463.9379    518.76074    440.62543   -388.38847    38369.369 
  786200    307.73145   -1479.1845    502.76877    414.19437    -304.8098    38369.369 
  786300    300.18376   -1422.8024    513.01798    446.71839   -721.07071    38369.369 
  786400    307.62184   -1474.9201    487.17975    402.37447   -1008.3081    38369.369 
  786500     302.6331   -1465.2611    501.21547    403.52555    -954.7636    38369.369 
  786600    294.45911   -1491.5693    486.49506    325.55942   -752.07392    38369.369 
  786700    303.27921   -1527.1476    521.80847    365.15176   -857.15338    38369.369 
  786800    308.53043    -1476.015     509.0392    427.24488   -499.08962    38369.369 
  786900    301.12399   -1501.4484    513.05763    372.36087   -270.73123    38369.369 
  787000    298.11054   -1471.9854    517.06996    392.21864    29.361567    38369.369 
  787100    289.15146   -1506.1437    502.29085    302.79603   -527.07791    38369.369 
  787200    303.44669   -1498.9619    500.88037    373.16613   -546.48415    38369.369 
  787300     290.7465   -1472.2782    520.44722    362.02574   -434.91332    38369.369 
  787400    302.08152    -1489.627    518.19879    393.65037    196.87587    38369.369 
  787500    304.86939   -1457.0674    484.61769    405.22698    372.80203    38369.369 
  787600    310.51922   -1488.1402    528.59913     443.6667    516.52528    38369.369 
  787700     294.5877   -1517.3326    507.13636    321.01847    76.812544    38369.369 
  787800    300.32162   -1520.1996    522.96746    359.89366     580.3649    38369.369 
  787900    298.34622   -1492.3039    500.73671    356.63191   -466.45542    38369.369 
  788000    308.99781   -1511.2448    480.70221     365.7901   -642.49599    38369.369 
  788100    300.01122   -1559.5146    483.24467     279.4532   -247.41677    38369.369 
  788200    304.07897    -1506.602    497.73886    365.24175    150.83126    38369.369 
  788300    291.14965   -1533.0782    489.72966    272.32991   -303.10017    38369.369 
  788400    305.01266   -1518.0663    495.96086    356.21873    203.03509    38369.369 
  788500    305.31171   -1536.3132    492.31905     335.6814    513.41772    38369.369 
  788600    294.72049   -1489.8676    503.37794    345.32511    720.45655    38369.369 
  788700    313.15423   -1504.6595     482.6257    393.08141    268.10756    38369.369 
  788800    310.56915   -1552.9166    506.03253    356.54938    240.10445    38369.369 
  788900    301.29924   -1524.4128    515.27703     352.4078    104.33072    38369.369 
  789000    301.03626   -1501.5334    474.72313    333.54492   -548.65045    38369.369 
  789100    298.47741   -1483.9996    528.47161    393.26396   -24.203538    38369.369 
  789200    291.33174   -1504.6916    502.45326    314.26296   -242.36901    38369.369 
  789300    293.48591   -1508.3297    510.77282    328.67896    177.45293    38369.369 
  789400    308.29145   -1513.7826    483.94932    363.30743   -834.93162    38369.369 
  789500    298.39394   -1519.0341    498.53914     327.9198   -258.28453    38369.369 
  789600    315.58457   -1452.9496    536.77161    509.91962    -355.4935    38369.369 
  789700    302.20116   -1458.7574     490.1331    396.99498    28.361971    38369.369 
  789800    297.06301   -1490.9253    511.85482    363.32994   -262.89519    38369.369 
  789900    293.11188   -1441.7312    496.93792    379.75238    40.526665    38369.369 
  790000    303.63006   -1505.0913    482.72234    349.70731     -209.244    38369.369 
  790100     303.6123   -1458.9975    539.00339    452.00199   -107.84639    38369.369 
  790200    300.81484   -1487.4783    495.84985    367.72613   -145.30832    38369.369 
  790300    302.12556   -1444.5982    522.99445     443.6738    81.003548    38369.369 
  790400    302.87758   -1496.5231    503.48975    375.64255     288.4806    38369.369 
  790500    292.86902   -1505.1949    504.29345    322.54666      51.3646    38369.369 
  790600    306.48767    -1514.076    513.17955    384.09316    250.55125    38369.369 
  790700    301.09733   -1515.2951    523.27484     368.6109    61.395687    38369.369 
  790800    303.69761   -1505.5288    496.29492    363.14767      443.136    38369.369 
  790900    310.46816   -1495.2537    523.11482    430.83817    311.14878    38369.369 
  791000     303.9651   -1511.4431    486.97249    349.11967    375.26047    38369.369 
  791100    289.84958   -1542.1995    480.94924    248.55331    613.94029    38369.369 
  791200    300.91147    -1514.096    523.57499    369.27028   -171.93182    38369.369 
  791300    290.20401   -1496.2567     497.1047    312.25319    14.568087    38369.369 
  791400    307.89964   -1525.7144    509.39018    375.04597   -305.22138    38369.369 
  791500    300.23365   -1462.3946    492.42497    386.75864    290.99143    38369.369 
  791600     297.3282   -1434.1401    509.52471    418.98342    342.58998    38369.369 
  791700     296.2493   -1479.0572    530.91585    390.58195    597.39088    38369.369 
  791800    309.73461   -1481.8883    502.85793    420.63187    454.70938    38369.369 
  791900     290.4209   -1462.0844    521.52703    371.82796   -294.88706    38369.369 
  792000    300.22331   -1449.0415     516.9526     424.5926    114.46669    38369.369 
  792100    297.35057    -1485.432    534.64521    392.91308    308.30186    38369.369 
  792200    300.97673    -1487.193    513.37917    386.27229    840.09761    38369.369 
  792300    303.69479   -1463.6753    506.87319    415.56669    727.74753    38369.369 
  792400    288.83094   -1489.5765    531.89138    347.51532    613.33346    38369.369 
  792500    295.27185    -1465.146    511.10989    380.27024    642.88936    38369.369 
  792600    300.14864   -1499.9026    511.96484    368.40636    388.26866    38369.369 
  792700    298.56078   -1487.2955    516.77058    378.64383    284.93658    38369.369 
  792800    302.30661   -1489.5372    519.10913    395.66773    107.15388    38369.369 
  792900    293.08477   -1515.4882    484.01643    292.95134    238.98474    38369.369 
  793000    306.42992    -1461.168    498.05982    421.62047   -569.87409    38369.369 
  793100    315.10659    -1479.006     492.4509    437.38263   -386.77657    38369.369 
  793200    293.17889   -1491.9638    525.50642    358.39108   -325.44902    38369.369 
  793300    300.94358     -1519.92     507.2372    347.25357    115.33241    38369.369 
  793400    300.18595   -1482.0769    505.24931    379.68507      204.133    38369.369 
  793500    295.60518   -1443.2594      525.013     417.5662   -115.93452    38369.369 
  793600    296.05273   -1504.3403    524.93713    358.43186   -260.50173    38369.369 
  793700    301.10974   -1473.8981    488.72473    375.51388    -155.1223    38369.369 
  793800    308.88294   -1444.5179    544.45695    495.75261    218.42171    38369.369 
  793900    293.05576    -1475.272    505.08688    354.10695    563.37488    38369.369 
  794000    305.31009   -1469.7912    497.81276    407.68973     1212.198    38369.369 
  794100    306.98523   -1447.5403    516.50906    456.20677     522.2505    38369.369 
  794200    303.66075   -1469.4891    514.82272    417.54868    669.72849    38369.369 
  794300    313.80758   -1457.7486    560.32075    520.63979     679.7106    38369.369 
  794400     306.5596   -1540.2677    474.78247    319.82943    313.97466    38369.369 
  794500    303.70345   -1523.7025    521.27033    369.97583    588.05786    38369.369 
  794600    307.09163   -1479.4396    508.24878      416.528    37.855328    38369.369 
  794700    294.85394   -1462.6281    522.88748    392.67717    351.38149    38369.369 
  794800    292.16367   -1485.6749    505.86304    340.44887    276.29461    38369.369 
  794900    294.86011   -1487.5031    511.72983    356.67248    344.92809    38369.369 
  795000    297.54664   -1471.0568    514.44981    387.97884    361.47773    38369.369 
  795100    295.51699   -1484.2385    483.26349    334.43912    127.38728    38369.369 
  795200    309.34516   -1495.4458    483.00031    385.45691    617.02097    38369.369 
  795300      287.513   -1493.3963    506.76946    312.61794    561.98906    38369.369 
  795400     296.0277   -1501.9522    518.89067    354.66044    623.07907    38369.369 
  795500    289.38484   -1492.3048    472.24277    287.64149      50.0914    38369.369 
  795600     308.0294   -1512.9232    484.84896    363.88228    31.247011    38369.369 
  795700    292.98016   -1504.4005     511.1233    330.67316    438.86937    38369.369 
  795800    303.33271   -1499.5718    513.95328    385.11409   -519.12998    38369.369 
  795900    294.92331   -1497.2188     485.9475    321.45999   -120.94011    38369.369 
  796000    306.53034    -1480.575     514.6845    419.29196    32.260915    38369.369 
  796100    299.17372   -1489.9153    501.99596    364.01922   -454.15666    38369.369 
  796200     302.4785   -1491.8737    508.97189    383.97076   -155.19405    38369.369 
  796300    301.78266   -1536.5176    494.04552    321.25599   -788.97186    38369.369 
  796400    303.86706   -1469.8373    494.94812    398.25809   -272.91483    38369.369 
  796500    298.89291   -1451.5899    486.36455    385.44424    84.121298    38369.369 
  796600    303.45854   -1489.2371    511.44844    393.51258   -271.56977    38369.369 
  796700    297.01283   -1514.0709    501.47654     329.5793    171.97148    38369.369 
  796800    302.12609   -1511.2761    515.86089    369.86482   -97.745285    38369.369 
  796900    296.83579   -1548.3557    473.83897    266.85691     91.36805    38369.369 
  797000    320.52993   -1554.1486    495.23991    389.53654   -521.63127    38369.369 
  797100    293.17944   -1472.8537    505.50111    357.49832   -192.96625    38369.369 
  797200    307.70718   -1505.3292    499.14164    384.31294    652.00791    38369.369 
  797300    303.14881   -1531.9702    514.45249    352.38383    730.72898    38369.369 
  797400     299.7745   -1484.4985    496.80034    366.95522    556.87439    38369.369 
  797500    296.56389   -1504.2924    516.05964    351.91223    17.462521    38369.369 
  797600    298.40139    -1533.726    484.14624    298.86867   -14.260024    38369.369 
  797700    309.09637   -1546.0651    495.79925    346.51218   -330.56978    38369.369 
  797800    301.75318   -1528.4913     501.6202    336.72375    109.41523    38369.369 
  797900    303.39398   -1503.5678     485.2883    352.72996   -65.131973    38369.369 
  798000    300.40282   -1477.5618    515.07648    395.00738    430.84795    38369.369 
  798100    301.16407   -1497.1143    494.44677    358.26517   -121.34309    38369.369 
  798200    307.28338   -1469.5162    499.40857    418.47768    -425.8376    38369.369 
  798300    299.98625   -1467.7306    515.25036    403.13001   -55.491534    38369.369 
  798400    310.52541   -1495.4286    530.60722    438.41441    -6.783257    38369.369 
  798500    294.57026   -1556.6104    516.78783    291.31329   -827.76025    38369.369 
  798600     303.8242   -1486.0045    505.39138     392.3405   -146.07681    38369.369 
  798700    310.46772   -1503.9801    508.80026    407.79518   -55.256498    38369.369 
  798800    294.98845   -1488.8893    522.51022    366.64657    15.463134    38369.369 
  798900    314.47256   -1437.9508    522.64741     505.7692    84.658761    38369.369 
  799000    300.75933   -1485.0302    511.28602    385.35958   -154.73985    38369.369 
  799100    313.02462   -1484.4638    518.73381    448.79952   -242.20776    38369.369 
  799200    303.84085   -1482.3578    514.74431     405.4154    -276.5344    38369.369 
  799300    307.26954   -1441.3814    507.93164    455.07309   -256.97364    38369.369 
  799400    305.52678   -1463.5367    518.55777    435.66851   -381.48088    38369.369 
  799500    296.36728   -1477.3037    502.92822    364.88099    99.808852    38369.369 
  799600    296.55855   -1515.0097      506.116    331.22709    163.07183    38369.369 
  799700    291.72727   -1511.0089    496.31076    303.59054    88.631145    38369.369 
  799800    290.70281   -1482.5108    505.13397    336.28246    18.824415    38369.369 
  799900     297.0372   -1489.0481    524.63162    377.86736    130.05308    38369.369 
  800000     297.2454   -1537.0931    512.56117     318.6927   -98.760298    38369.369 
  800100    315.24164   -1513.8936    494.22706    404.88141    321.67699    38369.369 
  800200    296.37809   -1485.3503    488.01974    341.97472    545.56703    38369.369 
  800300    295.54103   -1507.5891    507.82675    335.76044    356.67995    38369.369 
  800400    297.70765   -1526.1681    501.73653    320.88193     194.0646    38369.369 
  800500    288.18766   -1501.2706    477.59815    278.62104   -17.012541    38369.369 
  800600    301.56289   -1475.5435    504.55341    391.74492      -60.125    38369.369 
  800700    301.93688   -1486.1491    525.64953    403.92539   -427.71885    38369.369 
  800800    287.12573   -1430.1068    502.41031    369.79825   -301.86289    38369.369 
  800900    307.03973   -1467.4955    494.88843    414.87726    429.25509    38369.369 
  801000     305.9815    -1507.233    518.78382    394.25309    330.88757    38369.369 
  801100    311.76568   -1470.7529    519.75281    457.84035   -29.147172    38369.369 
  801200    298.55892   -1429.6105    512.39693    431.94672    115.34517    38369.369 
  801300    316.85328   -1465.4558    521.73317    488.10821    401.19627    38369.369 
  801400    300.35835   -1485.9127    497.74922    369.12828    121.25034    38369.369 
  801500    307.98207   -1490.5061    503.47516    404.71175    -55.01089    38369.369 
  801600    296.35869   -1455.7328    519.43589     402.9208     153.3253    38369.369 
  801700    302.22222    -1471.309    497.92671    392.33213    143.45381    38369.369 
  801800     296.3928   -1449.9393    528.25869    417.69121    70.317775    38369.369 
  801900    292.08581    -1452.854    507.55609    374.61101   -285.56671    38369.369 
  802000    292.99432   -1471.2506    483.10041    335.86417   -760.82087    38369.369 
  802100    304.83017   -1433.6751    479.10566    422.93004   -558.21229    38369.369 
  802200    303.52841   -1430.0177    505.23905    446.83832   -3.6165423    38369.369 
  802300    289.99146   -1515.8202    494.08905    288.71357   -84.882958    38369.369 
  802400    304.65763    -1486.103    499.80606    390.42287     956.4056    38369.369 
  802500    301.08706     -1483.86    522.10462    398.82938    289.09513    38369.369 
  802600    290.12572   -1489.9306    530.57602    351.69681    490.44434    38369.369 
  802700    315.05621   -1462.6304    509.85636    470.93602    120.10264    38369.369 
  802800     289.2185   -1518.1437    474.34004    263.14818     170.1864    38369.369 
  802900    306.31642   -1550.1054    509.24825    343.35856     82.73794    38369.369 
  803000     298.8402   -1520.5628    496.97444    326.84301    325.10106    38369.369 
  803100    300.06824   -1497.8314    504.22218     362.3715   -443.18041    38369.369 
  803200    297.60001   -1483.4922    514.78462    376.11954   -530.08866    38369.369 
  803300    311.19085   -1490.4891    491.98279    407.73649   -186.87038    38369.369 
  803400    302.23515   -1487.2318    469.26619    347.80718   -214.60395    38369.369 
  803500    295.65375    -1497.601    513.59114    352.02222   -584.86989    38369.369 
  803600    292.92324   -1504.0955    511.08271    330.68038    -682.8883    38369.369 
  803700    307.09731   -1455.8518    512.58591    444.47865   -394.96861    38369.369 
  803800     292.4405   -1462.7804     481.9905    340.72187    39.547384    38369.369 
  803900    304.63636   -1532.2652    516.32192    360.68039    -99.91147    38369.369 
  804000    310.13615   -1499.0752    479.68785    382.08945    455.72865    38369.369 
  804100    301.02125   -1489.3929     474.0422    344.93662    596.76096    38369.369 
  804200    298.27433   -1503.2147    498.75914    343.41869    421.68879    38369.369 
  804300    303.79582   -1477.0289    500.53448    396.33099    794.93811    38369.369 
  804400    290.39924   -1488.3553    481.54372    305.47586    1041.3548    38369.369 
  804500    299.95724    -1545.268    487.37722    297.58835      1023.41    38369.369 
  804600     300.9206   -1533.6151    508.28834    334.50576    847.34776    38369.369 
  804700     310.4886   -1547.9749    476.90273    331.99724    386.09276    38369.369 
  804800    301.44697   -1555.9109    491.47562    297.77589    33.954234    38369.369 
  804900    296.01238    -1470.838    514.27364    381.08832    75.792527    38369.369 
  805000    306.38639   -1514.8146    478.12259    347.83997    279.21552    38369.369 
  805100    306.17179   -1536.7036    482.95764    329.81623    414.14168    38369.369 
  805200    297.83434   -1554.5671    479.98557    271.30448    219.06078    38369.369 
  805300    301.68728   -1561.0321    501.05072    303.31572    41.067901    38369.369 
  805400    301.48912   -1516.5366    492.26381    338.12879     87.22215    38369.369 
  805500    296.84877    -1491.544     460.6193    310.50757    134.92381    38369.369 
  805600    301.85576   -1546.6495    501.85755    319.26649    86.351829    38369.369 
  805700    302.66063   -1500.9458    493.62901    360.37876   -443.04849    38369.369 
  805800    306.13873   -1534.2172    494.29307    343.48865    203.03307    38369.369 
  805900    300.81617   -1484.6921    500.35795    375.02643    688.62815    38369.369 
  806000    296.61436   -1484.4196    508.60725    364.56067    87.737811    38369.369 
  806100    312.97096   -1474.0818    514.01746    454.22259     88.15624    38369.369 
  806200    302.85377   -1489.4019    469.81909    348.98551   -448.15673    38369.369 
  806300     294.0167   -1465.5533    485.27973    348.36088   -473.15863    38369.369 
  806400    309.73993   -1500.4187    512.44934    411.71691   -627.22423    38369.369 
  806500    298.32991   -1477.1895    493.86485    364.80075   -508.01123    38369.369 
  806600    294.36171   -1498.8934    489.75839     321.0585    -647.3949    38369.369 
  806700     305.2687    -1531.592    498.38975    346.27891   -909.78487    38369.369 
  806800    298.04317   -1550.0039    479.59857    276.42439   -587.69651    38369.369 
  806900    291.52538   -1555.8958    505.12089    266.60144   -38.853633    38369.369 
  807000    296.86353   -1538.4603    488.24481    291.28355    723.91843    38369.369 
  807100    294.57054    -1544.923    488.28718    274.50135    1040.3434    38369.369 
  807200     304.0547   -1543.3079    493.77675    324.46404    671.65201    38369.369 
  807300    307.43115   -1501.0807    508.21715    396.38953    678.89118    38369.369 
  807400    289.31921   -1463.3249    513.08178    357.16377    629.29823    38369.369 
  807500     293.5093   -1497.8724     520.7583    349.22749    507.54557    38369.369 
  807600    301.59437   -1485.5885     478.1687    355.45742    402.75923    38369.369 
  807700    303.51445   -1465.9765    495.32624    400.90363     476.1966    38369.369 
  807800    295.27067   -1471.2379    508.36447    371.42756    196.93274    38369.369 
  807900    308.55163   -1469.7663    513.59654    438.14674    569.49134    38369.369 
  808000    294.73534    -1503.859    492.18753    320.21042    89.645311    38369.369 
  808100    289.81006   -1463.0365    503.21765    349.80617   -256.83971    38369.369 
  808200    298.56946   -1475.2894    494.00777    367.92636   -389.91604    38369.369 
  808300    294.16129   -1502.0323    496.90253     324.1581    238.96105    38369.369 
  808400    303.84893   -1487.6571    498.99811    384.40634    333.35762    38369.369 
  808500    307.53659   -1488.0249    529.22478    430.92944    711.65151    38369.369 
  808600    301.29955   -1460.7481    498.54285    399.33973    64.356853    38369.369 
  808700    293.39182   -1475.5154    520.98391    371.27912   -274.51921    38369.369 
  808800    302.57025   -1469.2594    477.85139    375.87913   -355.13408    38369.369 
  808900    306.14663    -1485.586    492.63689     390.4993   -14.713488    38369.369 
  809000    308.04673   -1490.6922    474.57534    375.91797   -218.66806    38369.369 
  809100    303.55105   -1511.4083    501.41243    361.72337   -115.21477    38369.369 
  809200    291.35635    -1491.713    486.04529    310.94478    204.64195    38369.369 
  809300    297.74644   -1544.6407    473.96548    274.81354    296.81177    38369.369 
  809400    300.79803   -1482.8178    491.21911    367.67994   -62.916328    38369.369 
  809500    305.37967   -1540.7022    488.79177    328.07221    214.07941    38369.369 
  809600    296.45785   -1511.6133    505.45283    333.50528   -224.08029    38369.369 
  809700    295.07075   -1497.8829    502.15503     337.6697   -92.730953    38369.369 
  809800    300.02792   -1506.1507    494.85787    344.50577    179.31565    38369.369 
  809900    313.05235   -1487.9741    515.59141    442.27211     819.8142    38369.369 
  810000    304.82156   -1538.8535    482.20827    320.81536    683.49935    38369.369 
  810100    291.61345   -1525.0048     481.9256    274.69512   -310.47659    38369.369 
  810200    306.58463   -1498.2066    504.51469    391.73584    45.289533    38369.369 
  810300    293.19654   -1509.5037    477.48397    292.90852    320.25672    38369.369 
  810400    299.52194   -1510.5631     503.4875    346.43653   -51.129936    38369.369 
  810500    298.36205   -1496.8774    490.59351    341.98679   -8.0155807    38369.369 
  810600    295.67522   -1500.3052    494.84266    330.66656   -568.37978    38369.369 
  810700    305.58461   -1484.8676    498.76239    394.80354   -615.31189    38369.369 
  810800    305.47749   -1477.6519    500.50261    403.27533   -275.14151    38369.369 
  810900    307.77166   -1489.4361    481.42647     382.7822   -476.27672    38369.369 
  811000    300.22711    -1515.129    498.56411    340.13387    335.68809    38369.369 
  811100    293.18464   -1503.4069    501.52544    322.99298    291.56305    38369.369 
  811200    296.92265   -1489.7135    489.65359    341.70618    248.17679    38369.369 
  811300    290.38255   -1501.5324    486.57881    297.25846   -124.18289    38369.369 
  811400    296.39712     -1486.65    471.65717    324.39857   -243.14976    38369.369 
  811500    304.22408   -1467.4012    508.73809    416.09755   -127.54114    38369.369 
  811600    301.07096   -1484.3613    500.90869    377.05933   -296.07414    38369.369 
  811700     302.1834   -1476.9489    482.01911    370.60923     321.3332    38369.369 
  811800    304.94726   -1500.1665    501.43173    379.29385    94.519282    38369.369 
  811900    294.35488   -1461.2446    526.86189     395.7799   -290.04627    38369.369 
  812000    297.28381   -1460.4384    489.73304    372.69281   -313.63847    38369.369 
  812100    299.14935   -1495.6334    526.44419    382.63918   -33.269829    38369.369 
  812200    301.56987   -1518.5211    496.58509    340.83046    233.45088    38369.369 
  812300    304.80868   -1546.1632    489.51658    320.75579    68.707804    38369.369 
  812400    296.13963   -1532.8112    481.57286    286.98939    -295.5514    38369.369 
  812500    296.99769   -1504.4947    517.18445    354.79503   -216.25398    38369.369 
  812600    306.02427   -1481.4413    490.15915    391.61342    220.25154    38369.369 
  812700    299.76263   -1479.8662    470.59758    345.33114   -95.119233    38369.369 
  812800    295.32952   -1473.2166    502.80451    364.15482   -527.03649    38369.369 
  812900    298.64979   -1485.3421     494.4474    358.67621   -53.995335    38369.369 
  813000    295.59136   -1465.0003    494.68627    365.43615     207.8783    38369.369 
  813100    301.06197   -1557.0832    512.20506    315.59324    477.88756    38369.369 
  813200    290.24603   -1522.6044    513.25487    302.24555   -337.55116    38369.369 
  813300    303.76821   -1517.2624    497.50034    352.93852   -324.07036    38369.369 
  813400    292.22854   -1517.2605    519.35296    322.64635   -640.17234    38369.369 
  813500    301.35308   -1499.3595    508.38219    370.80953   -180.35162    38369.369 
  813600    296.98283   -1478.2039    513.18154    377.01578    87.651869    38369.369 
  813700    307.18037   -1493.1836    496.47133    391.40751     551.6045    38369.369 
  813800     289.8681   -1470.4476    516.45484    355.89457    114.18288    38369.369 
  813900    307.26014    -1454.638    488.05847    421.90079    531.62247    38369.369 
  814000    308.72484   -1481.3438    509.50146    423.25681    700.98106    38369.369 
  814100    295.89058   -1501.5694    523.60749    359.14045    820.94875    38369.369 
  814200     290.9991   -1467.8581    512.71848    359.85855    736.67118    38369.369 
  814300    298.84785   -1463.0959    503.22327    390.59336    479.71919    38369.369 
  814400    293.91395   -1466.9995    503.71418    364.88478    565.72497    38369.369 
  814500    303.10548   -1475.9655    500.63535    394.37569    405.53574    38369.369 
  814600    301.63738   -1489.3556    555.19853    428.91448    523.68463    38369.369 
  814700      293.213   -1497.7818    487.29992    314.52067    26.071018    38369.369 
  814800       302.74   -1485.9764     510.7995    392.87729    860.62794    38369.369 
  814900    293.49184   -1455.3187    526.64384    397.58779    50.662542    38369.369 
  815000    295.11281   -1420.4334    501.95579    415.10999   -262.60275    38369.369 
  815100     295.4275   -1510.5409    483.15123    307.62005   -591.10618    38369.369 
  815200    291.20968   -1491.3731    499.64798    324.22466   -101.33946    38369.369 
  815300    301.74924   -1462.6975    508.67441    409.55401   -14.303304    38369.369 
  815400    297.37104   -1494.9305    507.36894    356.23087    307.28827    38369.369 
  815500    290.19109   -1474.3751    516.01131    352.98303    572.80899    38369.369 
  815600    295.33994   -1477.8724    506.86532    363.60698   -104.62555    38369.369 
  815700    293.04942   -1452.7189    511.93681    383.48126   0.47009998    38369.369 
  815800    298.34679   -1454.5827    514.80221    408.42126   -549.01678    38369.369 
  815900    301.21579    -1479.432    489.70579    371.44028   -152.31297    38369.369 
  816000    292.73961   -1475.0646    523.95167    371.75042   -309.35906    38369.369 
  816100    292.92686   -1445.5735    501.55349    379.68957    -627.0698    38369.369 
  816200     308.1097   -1455.7013    517.80768     454.4258   -433.67145    38369.369 
  816300    298.85574   -1472.8779    528.82569    406.44939    85.130481    38369.369 
  816400    303.79366   -1475.1221    478.17204     375.8656    442.28417    38369.369 
  816500    294.26548   -1500.6457    509.15578    338.26874   -50.662528    38369.369 
  816600    299.82164   -1507.1418     479.8954    327.62002   -81.284084    38369.369 
  816700    302.07851   -1539.0745    480.25223    306.24271   -203.74772    38369.369 
  816800    304.55935   -1473.2373    503.60744    406.64584   -263.17632    38369.369 
  816900    302.80861   -1487.9819    485.07989    365.46228    -276.8974    38369.369 
  817000    289.43297   -1483.6227    509.65553    333.95383    307.85942    38369.369 
  817100    294.14872   -1502.6769    505.40575    331.95988   -60.434356    38369.369 
  817200    292.61209   -1477.9515    467.43006    311.76567   -289.15166    38369.369 
  817300    294.28507   -1455.9172    523.19805    397.12805   -873.56263    38369.369 
  817400    302.85806   -1468.9129    472.25917    371.93403   -362.49214    38369.369 
  817500    297.21155    -1501.544    495.86723    337.39485   -210.19619    38369.369 
  817600    293.17372   -1455.7481    509.21537    378.29236   -133.48039    38369.369 
  817700    303.15605   -1444.1351    505.12615    430.92532    242.05399    38369.369 
  817800    294.65554   -1459.8669    492.09334    363.74773    397.57493    38369.369 
  817900    301.88439   -1460.5582    509.07931    412.70891      173.667    38369.369 
  818000    301.88455    -1503.307    503.96432     364.8459    369.25624    38369.369 
  818100    286.77842   -1490.5903    533.22159    338.55665    394.86115    38369.369 
  818200    304.75235   -1465.2415    506.80362    418.71001    266.29788    38369.369 
  818300    307.91278   -1520.2706    511.57001    382.72896    18.858882    38369.369 
  818400    293.97144   -1473.5762    499.68207     354.5358    -282.1075    38369.369 
  818500    299.84302   -1499.0659    511.97383    367.87101   -199.83739    38369.369 
  818600    303.05554    -1448.413    486.95026    408.01738   -206.17057    38369.369 
  818700    300.78273   -1408.2327    524.65383    475.63067   -158.02516    38369.369 
  818800    292.62776   -1462.8266    507.84154    367.37286    297.49041    38369.369 
  818900    290.49055   -1484.8725    485.63827    313.46586    349.03242    38369.369 
  819000    292.99173   -1469.5693    497.95021    352.38361   -520.93522    38369.369 
  819100     292.5475   -1455.9268    505.98209    372.05056   -714.31318    38369.369 
  819200    303.19135   -1453.1893    488.54326    405.44782   -917.41462    38369.369 
  819300    297.36942   -1456.3372    502.08306    389.53096    -843.2776    38369.369 
  819400    300.08865   -1497.9576    519.79155      377.907   -509.11006    38369.369 
  819500    299.82989   -1472.4718    490.31823    372.75015   -106.24196    38369.369 
  819600    304.16262   -1486.5868    503.20779    391.10387   -125.78576    38369.369 
  819700    299.53316   -1451.9857    511.57927    413.15637   -722.45891    38369.369 
  819800    300.94649   -1430.3766    515.03808    444.61102    465.76395    38369.369 
  819900    291.71974   -1475.9419    493.47388    335.78665    -28.32863    38369.369 
  820000    298.79679   -1488.9353    494.54815    355.84813    -516.8174    38369.369 
  820100    296.99863   -1477.1397    473.20037    338.17018   -296.03555    38369.369 
  820200    297.98491   -1485.8825    494.66669    355.35055     19.96612    38369.369 
  820300    306.50545   -1470.0052    516.13707    431.20183    85.415767    38369.369 
  820400    302.72606   -1457.0314    468.51613    379.47597    174.35539    38369.369 
  820500    304.17389    -1458.953    498.70555    414.28638    -40.34713    38369.369 
  820600    294.33955   -1452.6028    514.16556    391.65612   -218.41762    38369.369 
  820700    304.11568   -1478.1366    515.99059    412.12483    649.00317    38369.369 
  820800    302.84735   -1461.5494    499.39526    406.38521    806.58959    38369.369 
  820900    298.72442   -1454.5197    500.27091    395.65936    639.66803    38369.369 
  821000    290.14799   -1474.1171    519.16695    356.20196    431.39961    38369.369 
  821100    302.30655   -1493.9703    478.97484    351.10004    222.71423    38369.369 
  821200    289.47899   -1530.9391    494.89362    272.08344      319.333    38369.369 
  821300    301.01395   -1512.8159    512.65233    360.09081    598.24505    38369.369 
  821400    296.00046   -1501.7847    477.99718    313.81137   -262.11024    38369.369 
  821500    314.29388   -1482.4663    507.46576     445.2646   -52.283646    38369.369 
  821600    290.90726   -1478.9904    531.79573    367.38845   -291.19204    38369.369 
  821700    303.23331   -1469.2525    476.08482    377.11576   -111.84056    38369.369 
  821800    306.27245   -1477.8286    490.72329    396.91176   -421.84539    38369.369 
  821900    296.80475   -1490.0356    516.73461    367.93241   -586.77221    38369.369 
  822000    305.64588   -1433.6366    495.25421    442.80322   -497.37287    38369.369 
  822100    310.85479   -1441.3122    529.30828    492.72026   -86.607202    38369.369 
  822200    288.91464   -1442.9518     523.0664     385.6933    548.16922    38369.369 
  822300    316.40296   -1458.1651     542.2004    513.83114    870.02165    38369.369 
  822400    292.37182   -1472.6735    484.90375    333.43164    323.50271    38369.369 
  822500     302.1014   -1463.3557    531.69878    433.51151    91.921767    38369.369 
  822600    299.89008   -1487.2594    497.22881    365.14505    130.95671    38369.369 
  822700     299.7692   -1496.1376     514.7331      373.225    387.71778    38369.369 
  822800    301.66771   -1493.3602    498.92713    368.77558    184.59189    38369.369 
  822900    310.89513   -1482.3532    495.40747    417.96077   -59.525638    38369.369 
  823000     306.4168   -1474.8475    504.22267    414.04449   -179.65717    38369.369 
  823100    301.39226   -1505.6604    478.73377    335.03728    184.96235    38369.369 
  823200    295.56154   -1518.5085    497.74593    314.85286   -19.499574    38369.369 
  823300    290.71672   -1498.9812    496.73868    311.47964    90.359546    38369.369 
  823400    299.20174   -1474.2718    489.75372    367.54712    95.103929    38369.369 
  823500    293.44626   -1440.6057    504.47378    389.92478    102.84258    38369.369 
  823600    302.24172   -1467.7703    505.66159    403.69378   -145.66726    38369.369 
  823700     290.1958   -1475.1043    525.51144    361.77524    55.207651    38369.369 
  823800    305.20013   -1466.4376    532.68097    445.41474   -279.69354    38369.369 
  823900    300.15002   -1448.6737    502.83614    410.51279   -228.81064    38369.369 
  824000    299.12274   -1479.8096    510.16425    382.06277    241.74256    38369.369 
  824100    299.68841   -1428.2868     505.4889    431.46642    545.31037    38369.369 
  824200    291.11219   -1421.0721    509.80371    404.24081    512.96041    38369.369 
  824300     305.1453   -1447.3413    502.55467    434.13695    431.24012    38369.369 
  824400    290.97188   -1484.0933    504.20369     334.9855   -530.02574    38369.369 
  824500      303.004   -1478.2591     484.9966    375.98473   -506.74729    38369.369 
  824600    304.82094   -1490.9961    450.66781    337.12953   -274.53031    38369.369 
  824700    300.92879   -1449.6483    508.65296    418.87415    -326.1098    38369.369 
  824800    305.66596   -1471.4667    507.67253    417.48221   -98.369374    38369.369 
  824900    298.58428   -1433.0819    495.73777    411.93079   -170.63488    38369.369 
  825000    286.33084   -1508.1308    507.72398    293.49596   -429.59298    38369.369 
  825100     299.8082   -1517.3781     507.9349    345.36247     -242.317    38369.369 
  825200    300.73257   -1493.1456    497.65372    363.49099    -320.0956    38369.369 
  825300    308.30884   -1504.2396     490.0032    378.98288   -142.46145    38369.369 
  825400    300.06495   -1452.0489    512.62572     416.5428   -20.721988    38369.369 
  825500    286.27272    -1430.115    479.84728    343.37236    148.75222    38369.369 
  825600    290.13508   -1477.0333    500.75676    334.81717    290.12515    38369.369 
  825700    294.81168   -1481.0234    512.17107    363.37457    811.70524    38369.369 
  825800    307.45571   -1474.3003    507.33464    422.39845   -327.24328    38369.369 
  825900    297.98501   -1495.1342    510.72962    362.16233   -297.04734    38369.369 
  826000    309.79755   -1476.2452    516.38953    440.09095    425.52387    38369.369 
  826100    290.75186   -1463.6123    509.46752    359.73618    716.01288    38369.369 
  826200     308.9846    -1455.766    506.86977     447.3767    706.15754    38369.369 
  826300    298.91342   -1516.1739    476.96655    311.55487     223.9839    38369.369 
  826400    304.29879    -1455.823    501.37008    420.64535    190.53811    38369.369 
  826500    293.66302   -1450.5267      496.006    372.51548   -61.267136    38369.369 
  826600    301.15624   -1445.2214    486.23135    401.90726   -242.92034    38369.369 
  826700    299.74011   -1413.8235    502.37692     443.0514   -184.74418    38369.369 
  826800    307.97677   -1413.3957     477.1516    455.47462   -463.51818    38369.369 
  826900    301.97149    -1457.958    518.75911    425.38251    72.272025    38369.369 
  827000     301.3906   -1456.1938     474.6007    380.36328    -475.3921    38369.369 
  827100    289.67419   -1435.4965    496.69081    370.20535   -543.03203    38369.369 
  827200    295.38764   -1412.0032    507.30254    430.12894   -566.25561    38369.369 
  827300    295.88267    -1444.527    500.79453     393.3341   -427.81454    38369.369 
  827400    295.54809   -1412.7895    505.42976    428.19488   -369.66027    38369.369 
  827500    289.97434   -1443.9912    543.00081    409.37698   -285.02175    38369.369 
  827600    304.39797     -1455.77    514.73204    434.50845   -245.28169    38369.369 
  827700    306.52913   -1459.9454    509.28259    434.51414   -86.814893    38369.369 
  827800    288.09314    -1463.264     492.6221     331.2245    545.38179    38369.369 
  827900    303.59335   -1491.1969    520.80921    401.52273   -258.35826    38369.369 
  828000    305.24473   -1415.0807    485.95979    450.25197    222.32435    38369.369 
  828100    295.31687   -1455.2379    516.33524    395.60716    486.99725    38369.369 
  828200    297.65597   -1440.3006    518.81685    423.59614    1258.1346    38369.369 
  828300     301.9612   -1429.0554    499.06261    434.54215    1079.4082    38369.369 
  828400    301.10301    -1482.025    516.03751    394.66931    804.84834    38369.369 
  828500    296.83983   -1512.5417    466.01067    294.86084    1027.9726    38369.369 
  828600    303.11903    -1482.162    521.30784    408.91281     464.9188    38369.369 
  828700    308.73535    -1469.369     492.4879    418.26558    712.39072    38369.369 
  828800    290.52025   -1526.0008    485.43736    272.27083      179.207    38369.369 
  828900    295.49982   -1551.8132     497.2922    280.81554    366.95239    38369.369 
  829000    293.38115   -1499.9367    486.55824    312.38404    197.77448    38369.369 
  829100    297.79701   -1538.5315    478.14836    285.33415   -175.36218    38369.369 
  829200    293.25179    -1539.724     486.8708    272.32464    201.88859    38369.369 
  829300    300.14058   -1494.8645    494.45548    355.89862    216.50192    38369.369 
  829400    295.71739   -1487.2017    488.93629    338.05429   -349.95012    38369.369 
  829500    294.66417   -1522.1863    503.93339    313.30739   -424.86813    38369.369 
  829600     292.2972   -1503.6894    487.40766    304.58243   -526.91589    38369.369 
  829700    296.23669   -1538.7128    470.07105    270.02459    80.979212    38369.369 
  829800    297.44815   -1514.2768    512.39249    342.25654   -5.4275932    38369.369 
  829900    296.12029   -1514.8865    480.38282    303.63666    62.036903    38369.369 
  830000    304.29132   -1451.2147    502.42365    426.27341    393.97022    38369.369 
  830100    298.27027    -1471.149    502.95874    379.66563    428.71671    38369.369 
  830200    294.79151   -1470.3294    517.63818    379.44455    525.34089    38369.369 
  830300    304.80209   -1435.3138    504.44343    446.50222    525.80234    38369.369 
  830400    304.72049   -1479.7421     496.2068     393.4686    284.97909    38369.369 
  830500     304.3631   -1480.3158     491.4083    386.48131    376.13214    38369.369 
  830600    295.42164   -1438.7205    503.74653     400.0092   -117.28501    38369.369 
  830700    293.15513   -1488.0476    512.41356    349.10705    241.55536    38369.369 
  830800    293.33975   -1455.5366    489.44535    359.48409    173.41839    38369.369 
  830900    292.68322   -1450.5653    489.36248    361.40578    116.34493    38369.369 
  831000    295.16882   -1451.1585    516.85753    399.53974     355.0747    38369.369 
  831100     293.9521   -1470.0494    467.16748    325.46062    490.07538    38369.369 
  831200    308.12458   -1423.3722    499.50631    468.52077    36.822248    38369.369 
  831300    304.95369   -1451.9102    474.53949    400.68693    279.07176    38369.369 
  831400    309.43057   -1469.7654    484.17872    412.70161     55.49741    38369.369 
  831500    299.19539   -1441.1387    505.27381     416.1716    26.058028    38369.369 
  831600    295.69451   -1427.4051    506.86051    415.67173     183.4505    38369.369 
  831700    300.68523   -1419.0784    513.45732    453.14787   -63.428757    38369.369 
  831800    306.56015   -1384.5043    512.87008    513.68288   -51.853229    38369.369 
  831900    300.59791   -1399.2999    521.47096    480.54538   -178.85008    38369.369 
  832000    306.15593   -1398.6444    478.17514    463.02119   -348.73828    38369.369 
  832100    302.51854   -1387.3928    503.80713    483.46779   -224.38629    38369.369 
  832200    309.82836   -1411.8708    482.51034    470.72539     44.62389    38369.369 
  832300    299.09363    -1398.302    514.35668    467.63128    195.92932    38369.369 
  832400    299.37403   -1406.3163    519.30216    465.82953    60.081104    38369.369 
  832500    294.03988   -1377.4545    489.53339    440.81803    123.25922    38369.369 
  832600    290.53359   -1399.0953    489.16108    402.96034   -488.48289    38369.369 
  832700    302.55375   -1457.3474    500.04178    409.90696   -22.691804    38369.369 
  832800    296.71377   -1380.3381    508.05902    468.54317      216.299    38369.369 
  832900    287.21663    -1418.453    487.49993    366.95244    124.53614    38369.369 
  833000    298.80056   -1448.7913    488.03212    389.49309    705.11913    38369.369 
  833100     294.1937   -1477.2573    500.57902    352.75595    722.91707    38369.369 
  833200    289.20498   -1484.3942    519.58697    342.08344    278.72191    38369.369 
  833300    293.09782   -1448.4839    478.06344    354.06165   -15.714226    38369.369 
  833400    303.07901   -1429.9824    489.62657    429.23033   -162.83645    38369.369 
  833500    299.75713   -1438.9145    532.93459    448.59504    -148.7845    38369.369 
  833600    307.69745   -1444.4154    489.85431    435.89535    295.21996    38369.369 
  833700    292.57259   -1499.6202     495.9309    318.41936    632.39802    38369.369 
  833800    293.72348   -1468.1558    485.08662    344.24023    715.29899    38369.369 
  833900    300.32572   -1484.1263     530.2479    403.26598    733.95204    38369.369 
  834000    295.19975   -1471.7877    495.16515    357.35795    864.78281    38369.369 
  834100    301.40866   -1457.8344    513.45345    417.65702    1084.7561    38369.369 
  834200    309.29053   -1448.6959    509.98712     458.9467    591.82594    38369.369 
  834300    281.82149    -1439.913    521.38068    354.99311    1016.6984    38369.369 
  834400    307.94422   -1444.2247    509.24131    456.58821    426.86946    38369.369 
  834500    293.05951    -1451.892    499.66467    372.08165   -55.117367    38369.369 
  834600    303.34571   -1422.7359    504.12227    452.17774   -509.38748    38369.369 
  834700    311.74521   -1462.2557    488.00639     434.4986   -81.069446    38369.369 
  834800    302.36456   -1471.7473    500.65009    395.26045   -63.213207    38369.369 
  834900    303.28339    -1495.247    509.42868    384.69148   -573.06928    38369.369 
  835000    298.75764    -1442.687    498.53827    405.90956   -337.24232    38369.369 
  835100    305.67383   -1448.0981    512.28889    445.50275     -202.107    38369.369 
  835200    300.73029   -1483.1556      476.518    352.33489   -262.32129    38369.369 
  835300    289.84923   -1486.1078    514.75787     338.4521   -335.52996    38369.369 
  835400    299.34473   -1423.6214    514.49222     443.5821     201.1762    38369.369 
  835500    305.02073   -1466.3141    496.25149    408.29804    704.62662    38369.369 
  835600    300.51431   -1420.8109    525.80506    462.99066    432.61024    38369.369 
  835700    299.77723   -1451.7503    498.46262    401.37808    591.29928    38369.369 
  835800     287.0995   -1440.9922    483.01411    339.39813    158.27504    38369.369 
  835900    299.23648   -1468.6596    505.87006    389.43261   -216.23747    38369.369 
  836000    295.14361   -1430.8367    498.22687    401.11702    -264.3765    38369.369 
  836100    311.87891    -1454.259    512.50955    467.60269    134.58583    38369.369 
  836200    303.04064   -1456.1834    516.12621    429.35558   -200.36902    38369.369 
  836300    305.29028    -1462.819    480.98507    397.74482   -715.30667    38369.369 
  836400    293.38265   -1439.0608    498.89702    385.60542   -700.30383    38369.369 
  836500    294.76852   -1441.1363    490.85863    381.75419   -452.04611    38369.369 
  836600    308.65184   -1441.2445     479.2535    432.77832     -270.844    38369.369 
  836700    293.95193   -1472.5141     520.9838    376.81143    266.51122    38369.369 
  836800    306.44517   -1445.2183    476.82894    416.40815    -74.26563    38369.369 
  836900    295.79041   -1445.4827    488.07445    379.24139     167.4495    38369.369 
  837000    288.61033   -1435.9408    502.14443    370.40719   -439.27973    38369.369 
  837100    304.48342   -1430.8512    492.43631    437.51768   -260.29169    38369.369 
  837200    295.32121   -1476.1477    496.90167    355.28338   -271.50941    38369.369 
  837300    303.53308   -1478.1452    490.47679    383.96969   -30.275679    38369.369 
  837400    301.12066   -1488.7829    516.85644    388.81013   -329.01653    38369.369 
  837500    292.61352   -1503.0626     472.5457    291.77671   -191.38402    38369.369 
  837600    303.72942   -1491.1364    510.01605    391.40497   -157.86906    38369.369 
  837700     305.6112   -1498.9395    487.36484    369.45427    -78.42831    38369.369 
  837800    285.23204   -1458.5039    490.51382    320.94726   -324.29821    38369.369 
  837900    299.22809   -1451.6997    504.84274    405.32724     -81.5028    38369.369 
  838000    302.49464   -1545.0886    468.22599    290.08287   -100.41212    38369.369 
  838100     301.2655    -1490.205    476.40762     347.5937    91.167495    38369.369 
  838200    294.23007   -1495.9355    503.26604    336.92913    368.77129    38369.369 
  838300    297.11921   -1475.2408    495.56355    362.97718    243.05844    38369.369 
  838400    295.77595   -1501.0852    500.98031    336.47948    327.11379    38369.369 
  838500    301.52764   -1475.9171    514.39458    401.05318    473.68936    38369.369 
  838600    297.66884   -1479.5881    490.11916     355.6692    343.24977    38369.369 
  838700    296.22446   -1471.4312    522.19483     389.3747    595.79277    38369.369 
  838800     289.3251   -1460.6136    494.81397    341.63386    708.52723    38369.369 
  838900     309.1062   -1450.9484    519.78427    465.65834    569.19047    38369.369 
  839000    300.14831   -1479.9997    493.38292    369.72583    944.12739    38369.369 
  839100    294.85571   -1502.5579    512.24709    342.11499    459.61745    38369.369 
  839200    309.05392   -1490.5595    483.67946    389.70618    655.07417    38369.369 
  839300     293.5991   -1496.0835     493.2858     323.9496   -143.56576    38369.369 
  839400    301.60485   -1509.2989    502.76713    356.39278   -151.82176    38369.369 
  839500    302.45073   -1552.9039    510.24513    324.08829    523.96201    38369.369 
  839600    300.66607   -1501.3344    472.11216    329.46005    285.21577    38369.369 
  839700    294.87977   -1464.5139    484.92847    352.94917    409.94441    38369.369 
  839800    314.30594    -1502.939      476.468     393.8486    320.07654    38369.369 
  839900    295.78824   -1473.3425    488.34542    351.64277    340.65316    38369.369 
  840000    307.88709   -1485.2016    484.96921    391.08106    205.74611    38369.369 
  840100    292.08023   -1459.6381    499.49285    359.73841    524.56646    38369.369 
  840200    308.71542   -1497.7618     507.5306    404.82536    566.13287    38369.369 
  840300    301.46062   -1482.2133    492.68022     372.7398    566.38584    38369.369 
  840400    305.66235     -1533.24    492.78396    340.80398     129.1704    38369.369 
  840500    290.23698   -1495.4228    472.99433    289.12577    329.97905    38369.369 
  840600    300.32585   -1431.3254    474.13788    399.95733   -241.22008    38369.369 
  840700    304.12346   -1460.2203    485.11025    399.19588   -442.51443    38369.369 
  840800     305.8979    -1469.467    463.35876    376.21622   -341.28388    38369.369 
  840900    315.03411   -1437.6918    523.46854    509.38687   -330.13316    38369.369 
  841000    293.27276   -1429.8473    517.52507    412.95036   -345.75206    38369.369 
  841100    294.76776   -1450.0041    510.69548    392.71976    60.747011    38369.369 
  841200    301.67716   -1467.0154    518.11595    414.35188    676.86759    38369.369 
  841300    303.17877   -1489.4754    478.53732    359.09891    67.722243    38369.369 
  841400    303.12133    -1453.208    483.81334    400.38277    174.75244    38369.369 
  841500     298.1871   -1506.8768    471.54405    312.14731    72.989596    38369.369 
  841600    303.66158   -1472.2945    504.09451    404.01876    421.02448    38369.369 
  841700    294.55366   -1487.7104     499.7266    343.07713   -169.45874    38369.369 
  841800    305.74329   -1474.2986    468.18952     375.5167    273.14551    38369.369 
  841900      298.605   -1463.5158     506.4845    392.33717    179.65115    38369.369 
  842000    309.67995   -1465.1161    514.84369    449.14276    -364.9824    38369.369 
  842100    289.05895   -1466.5813    481.65006    321.29957   -768.06884    38369.369 
  842200    301.97028   -1454.4925    491.21643    401.29987   -794.16834    38369.369 
  842300    301.74187   -1490.2265    490.41806    363.73532   -711.19011    38369.369 
  842400    293.05901   -1485.9045    496.11301    334.51522   -216.82024    38369.369 
  842500    301.56685    -1482.654    496.46757    376.56643   -266.05477    38369.369 
  842600    295.90009   -1478.8819    490.87486    349.13829   -302.65502    38369.369 
  842700    311.11114   -1478.7328    499.26572    426.41559   -286.51812    38369.369 
  842800    294.91534   -1477.3429     504.4479    359.80028    67.549221    38369.369 
  842900    292.88969   -1423.9841    523.81749    423.37492    530.91682    38369.369 
  843000    300.77539   -1447.8594    478.18377    389.50068   -47.758876    38369.369 
  843100    302.94405   -1436.8888    494.70333    426.79083   -131.19851    38369.369 
  843200    306.37705   -1460.7163    482.66858      406.442   -331.23105    38369.369 
  843300    304.10131   -1453.6925    482.48996    403.00332    76.069691    38369.369 
  843400    296.70121   -1466.0457    495.51077     370.2305     162.7469    38369.369 
  843500    303.76335   -1481.3988    495.48861    386.76844    290.99759    38369.369 
  843600    300.14932   -1456.1959    467.24261    367.39386    26.510244    38369.369 
  843700    301.90197   -1504.2373    493.66704    353.69697    261.16378    38369.369 
  843800    294.29767   -1474.0172      510.031    365.91791   -52.490066    38369.369 
  843900    295.81122   -1491.9725    485.36144    330.13266   -91.025083    38369.369 
  844000    296.93839   -1503.4104    494.38593    332.81284   -277.98216    38369.369 
  844100    294.36585   -1517.3557    522.13895    334.99544   -112.75736    38369.369 
  844200    301.45844   -1488.7454    493.44553    366.96314    126.05225    38369.369 
  844300    298.06391   -1510.4464    490.30644    326.78343   -20.826796    38369.369 
  844400    299.25535   -1504.4455    512.10132    359.96324   -462.77888    38369.369 
  844500     303.8813   -1515.4069    461.19534    319.00008   -189.46092    38369.369 
  844600     307.5926   -1519.8614    487.98129    358.10255    157.06294    38369.369 
  844700    292.98529   -1539.0884    492.38857    277.27381    131.74968    38369.369 
  844800    296.98718   -1504.3697    475.76825    313.45631    423.01308    38369.369 
  844900    302.55782   -1471.3046    505.02905    400.95545   0.52511437    38369.369 
  845000    295.40258   -1449.3166    516.41016    401.99064    156.02437    38369.369 
  845100    295.89386   -1451.5002      504.961    390.57794     396.7343    38369.369 
  845200     312.8952   -1511.4709    506.90794    409.38165    379.01717    38369.369 
  845300    310.34369   -1482.3309    485.60763    405.69134    585.44626    38369.369 
  845400     295.8172   -1463.3792    512.85914     386.2507    608.43609    38369.369 
  845500    304.96023   -1505.4252    509.15739    381.81939    368.25289    38369.369 
  845600    304.43183    -1480.521    477.76603    372.94449    816.42425    38369.369 
  845700    300.77821   -1463.6229    504.74192    400.30807     262.4907    38369.369 
  845800    286.23068   -1458.5365    518.96865    353.88231   -87.995601    38369.369 
  845900    298.86105   -1475.9867    503.72189    378.26074    354.86871    38369.369 
  846000    294.51105   -1489.5664    496.98279    338.28476    251.27358    38369.369 
  846100    294.02285    -1457.071    489.46619    361.05744    241.79372    38369.369 
  846200    307.09066   -1495.7433    505.00422    396.97536    752.66087    38369.369 
  846300    291.67462   -1514.3433    492.63914    296.34663    619.60719    38369.369 
  846400    299.17902   -1499.8243    493.55126    345.68941    931.66758    38369.369 
  846500    308.22111   -1477.0263    487.26952    403.06606    1364.8926    38369.369 
  846600    303.75939   -1498.8449    495.20861    369.02448    957.94733    38369.369 
  846700    307.79591   -1506.4847    489.13546     373.5522    318.60348    38369.369 
  846800    296.67786   -1498.5211    467.32074    309.45956    337.33229    38369.369 
  846900    292.20375   -1524.2193    501.92045    298.14304    525.63387    38369.369 
  847000    301.41308   -1529.6716    502.87477     335.2612     293.7993    38369.369 
  847100    303.59212   -1518.7034    482.19317    335.39462    187.37896    38369.369 
  847200    306.17431   -1509.8961    477.73815    351.41561     97.54693    38369.369 
  847300    297.03283   -1537.9678    490.39335    294.68957   -333.79194    38369.369 
  847400    289.06436   -1567.6587    504.68531    243.28191   -201.36628    38369.369 
  847500     297.0776   -1558.1833    486.00576    270.28883     282.7272    38369.369 
  847600    292.84987   -1520.7074    509.41055    312.06478   -61.535883    38369.369 
  847700    312.93976   -1491.5457    509.92127     432.5216    510.03702    38369.369 
  847800     299.0869   -1533.5629    488.92295    306.90625   -53.003557    38369.369 
  847900    290.83509   -1521.5294     488.9491     281.6767    -17.41923    38369.369 
  848000     292.7786   -1554.3861    461.17465    229.82811    373.28367    38369.369 
  848100    309.06861   -1551.9328    514.19545    358.91526    250.34901    38369.369 
  848200    297.04257    -1520.253    463.07304    285.12811    326.18475    38369.369 
  848300    304.09847    -1543.168    514.43754    345.46257    445.84755    38369.369 
  848400    292.05713   -1551.3176     478.9935    247.45521   -147.14521    38369.369 
  848500    300.17462   -1546.9738    491.14783    300.63557   -749.46318    38369.369 
  848600     301.3755   -1455.1047    495.04017     401.8237   -181.60042    38369.369 
  848700    299.27093    -1539.973    491.49657    303.90141    154.26895    38369.369 
  848800    301.99363   -1531.1789    482.43799    315.94051   -566.33716    38369.369 
  848900    300.61388   -1571.3529    510.19158    297.28517   -274.30389    38369.369 
  849000    303.52349   -1575.8118    498.72785    294.51085    121.64035    38369.369 
  849100    312.71695   -1511.6637     489.3399    390.81533    197.01124    38369.369 
  849200    308.59864   -1546.0478    513.17153     361.6526    421.23831    38369.369 
  849300    300.36862    -1514.174    538.23923    381.40341    361.68942    38369.369 
  849400    297.78479   -1502.4513    473.62441    316.83522    705.27707    38369.369 
  849500     292.4276   -1494.7546    510.29841    336.99721    405.65873    38369.369 
  849600     306.0938   -1484.5929    492.96253    391.57934   -38.033442    38369.369 
  849700    298.19581   -1473.8826    515.78392    389.42081   -116.38574    38369.369 
  849800    295.17209   -1492.1396    523.89735    365.61328    345.98942    38369.369 
  849900    299.13242   -1444.6955    508.20727    415.26362    632.51572    38369.369 
  850000    299.50105   -1457.2436    513.53558    409.70966    257.78408    38369.369 
  850100     300.7016   -1484.1244    527.93182    402.65033    281.84346    38369.369 
  850200    301.92167   -1486.2459     503.8969     382.0073    256.52463    38369.369 
  850300    302.01115   -1452.0627    524.24054    436.93843    94.938044    38369.369 
  850400    291.19128   -1494.2899    494.61869    316.19541   -116.59626    38369.369 
  850500    300.41049    -1499.206    511.36636    369.68777   -306.55249    38369.369 
  850600    303.58035   -1489.5946    505.59764    387.85472    356.05084    38369.369 
  850700    301.23076   -1530.5213    495.06227     325.7751     106.9239    38369.369 
  850800    297.14306   -1542.3251    515.35966    315.79671    252.34972    38369.369 
  850900    299.31162   -1518.0304    500.53489    335.06615    397.50402    38369.369 
  851000     303.1308   -1532.1045    510.17767    347.89337     466.5172    38369.369 
  851100    305.55449   -1506.6813    533.80337    407.89478    206.48769    38369.369 
  851200    293.54297   -1498.2501    489.34735    317.59092    172.64234    38369.369 
  851300    305.45929   -1508.4263    514.68306    386.59917    70.348949    38369.369 
  851400    288.10118   -1510.9885    491.99624     282.9105    235.10639    38369.369 
  851500     307.1524   -1486.0648    499.55875    401.48739    412.21438    38369.369 
  851600    292.25562   -1471.3108    513.53197    362.89747   -236.58677    38369.369 
  851700    297.95092   -1466.4786    512.49425    392.42845   -436.70177    38369.369 
  851800    298.45114   -1484.0309     524.8045    389.44687   -377.19644    38369.369 
  851900    290.58165   -1455.5044    526.00489    383.61226   -281.60783    38369.369 
  852000    301.51286   -1461.3296    498.11139    399.29064   -389.46226    38369.369 
  852100    303.73701   -1461.9588    518.94713    429.54794    -51.37738    38369.369 
  852200    303.28854   -1419.3795    544.88839    496.04194    209.71096    38369.369 
  852300    292.29433   -1487.8115    531.85296    364.89271    183.73954    38369.369 
  852400     303.7523   -1520.8189    520.70586    372.51566   -560.33633    38369.369 
  852500    299.11321   -1491.5968    499.52252    359.59084   -656.08881    38369.369 
  852600    297.30725   -1496.9895    519.83898    366.35361   -261.24631    38369.369 
  852700    302.26954   -1519.0604    507.29763    354.16554    47.120778    38369.369 
  852800     293.5216   -1496.0135    498.51156    328.89515    -21.66801    38369.369 
  852900    310.71202    -1484.924    494.46819    413.62324    331.47033    38369.369 
  853000     310.3294   -1506.5584    488.55241    384.34403    115.13862    38369.369 
  853100    292.19232   -1525.5135    487.62606    282.50279   -210.07365    38369.369 
  853200     303.0533   -1551.0765    484.47708     302.8706   -154.10212    38369.369 
  853300    303.93876   -1513.9249    510.31928    369.86567    201.93714    38369.369 
  853400    298.68283   -1479.1647    518.14403    388.69951    130.12458    38369.369 
  853500    294.99725   -1476.5991    509.61771    366.08408     233.5803    38369.369 
  853600    304.93527   -1503.9622    516.31324     390.3255   -229.39511    38369.369 
  853700    299.76103   -1522.5455    514.21241    346.25943   -702.47347    38369.369 
  853800    301.98308   -1532.9175    476.48002    308.19623   -642.98495    38369.369 
  853900    301.08748   -1493.9849    514.20199    380.80368   -654.81177    38369.369 
  854000    298.61765    -1494.777    489.21724    343.86594   -567.93799    38369.369 
  854100    295.47065   -1473.2201    500.80146    362.78601   -25.032605    38369.369 
  854200    302.98657   -1518.8975    523.86074    374.13164    292.27364    38369.369 
  854300    310.45601   -1524.9872    488.62589    366.56079    489.50256    38369.369 
  854400    291.99657   -1527.9409    512.84535    304.41011    116.92015    38369.369 
  854500    297.96513    -1515.346    521.69063    352.82161    63.223262    38369.369 
  854600    309.87583     -1543.84    502.85218    359.31254    94.559456    38369.369 
  854700    305.36057   -1493.3842    517.98479    404.49694   -434.69072    38369.369 
  854800    306.61019   -1490.4312    514.48866    409.60075   -223.62511    38369.369 
  854900    291.50178   -1541.8173    495.43197    270.88436   -393.81867    38369.369 
  855000    303.63437   -1505.7819    510.35365    376.66753    239.00707    38369.369 
  855100    299.49619   -1521.3745    494.68035    326.70155   -49.690362    38369.369 
  855200     300.0879   -1530.3097    501.25486    327.01477    550.66038    38369.369 
  855300     290.8878   -1499.2581    518.34525    333.58235    762.95895    38369.369 
  855400    299.21576   -1473.1265    502.41195      381.414    663.02787    38369.369 
  855500    296.63131   -1492.8247    526.94446    374.56934    241.74465    38369.369 
  855600    299.21805   -1466.1367    520.73083      406.733   -210.43972    38369.369 
  855700    292.66246   -1458.1926     508.4589    372.78101    251.76864    38369.369 
  855800    308.63553   -1533.9866     482.1855    342.89454   -40.765895    38369.369 
  855900    294.10109   -1529.8333    494.07916    293.26159    -269.6653    38369.369 
  856000    303.11231   -1474.7645     533.0163    427.98847   -359.61493    38369.369 
  856100    302.93443   -1493.1425    486.08364    361.87398   -84.084583    38369.369 
  856200     309.6517   -1521.1431    517.23788    395.38236    205.03239    38369.369 
  856300    306.74982    -1492.291    506.67551    400.55878    392.27228    38369.369 
  856400    301.02138   -1488.7984    496.27399    367.76352     614.4512    38369.369 
  856500    307.29899    -1522.563    510.41444     376.5073    112.34093    38369.369 
  856600    303.50106   -1485.1193    504.72388     391.0979    41.057177    38369.369 
  856700    306.07685   -1509.5813    478.34153    351.89336    140.73284    38369.369 
  856800    290.66387    -1490.822    512.68099    335.34228   -16.632096    38369.369 
  856900    293.34093   -1492.2814    493.07809    326.37737    44.822916    38369.369 
  857000    302.25635   -1508.0699    496.98645    354.78523   -372.30187    38369.369 
  857100    324.79602   -1470.6989     513.8822    510.90664    173.40543    38369.369 
  857200    304.63824   -1517.0629    528.09995    387.66925   -16.737116    38369.369 
  857300    295.92112   -1516.0032    511.79905    333.03618    -359.7728    38369.369 
  857400    300.84462    -1460.891    492.13099    390.72916    38.655235    38369.369 
  857500    288.97851   -1503.0684    529.14556    331.94442    158.00634    38369.369 
  857600    299.16889   -1516.4403    512.00452    347.48096   -668.45763    38369.369 
  857700    300.29432   -1511.6292    505.81188    351.18505    432.49997    38369.369 
  857800    290.74181   -1498.4137    491.28322    306.70503   -227.27213    38369.369 
  857900    290.45788    -1516.781     509.9878    305.75922     150.2525    38369.369 
  858000    294.49074   -1536.7737    499.89858    293.90147    289.89767    38369.369 
  858100    305.68122   -1493.8546    493.13098    380.62163    507.05185    38369.369 
  858200     296.3491   -1440.7978    514.70106    413.07756    792.00409    38369.369 
  858300    303.17881   -1505.3599    515.53866    380.21593    134.45503    38369.369 
  858400    296.82642   -1509.0193    505.34803    337.66006    19.405017    38369.369 
  858500    305.13663   -1537.0402    498.73236    340.57654   -320.14168    38369.369 
  858600    304.64182   -1511.1178    491.36258    356.89313    45.310845    38369.369 
  858700    301.96089   -1501.3599    474.25482    337.42842      9.45902    38369.369 
  858800    298.05521   -1516.5646    498.62029    328.93971   -222.04264    38369.369 
  858900    294.44556   -1489.5024    494.53005    335.60011   -582.26137    38369.369 
  859000    304.44567   -1531.3382    487.52664    331.95043   -148.98252    38369.369 
  859100     307.6075    -1554.649    475.80192    311.20292   -161.34443    38369.369 
  859200    305.36542   -1551.8307    491.09724    319.18482    -142.3616    38369.369 
  859300    304.03644   -1512.0237    499.09531    360.98428   -340.15976    38369.369 
  859400    298.89302   -1565.6176     515.1567     300.2092   -27.569055    38369.369 
  859500    292.84938   -1539.6242    505.41734    289.15252    86.166725    38369.369 
  859600    292.58689   -1565.5408    508.67001     265.3025     673.0285    38369.369 
  859700    300.14708   -1535.8506    502.40625    322.89273    687.97432    38369.369 
  859800    307.01459    -1496.715    509.16079    399.81653   -143.97229    38369.369 
  859900    300.21462   -1505.3033     500.7236    352.06256   -386.76092    38369.369 
  860000    300.35084   -1513.3261    487.23137    331.16312   -145.27131    38369.369 
  860100    302.71697   -1551.4986    514.21392    330.66547   -262.73033    38369.369 
  860200    295.18303   -1540.7998    473.76968    266.87487   -885.93295    38369.369 
  860300    284.77065   -1532.2502    477.98843    232.59064   -598.79612    38369.369 
  860400    305.19669   -1531.0081    490.13777    338.28543   -362.38408    38369.369 
  860500    291.34815   -1538.1263     504.2335    282.68267   -406.46929    38369.369 
  860600    299.95832   -1556.6679    504.73323    303.54939     969.7587    38369.369 
  860700    301.79623   -1520.2941    524.55628    368.05161    368.91094    38369.369 
  860800    291.87349    -1529.982    507.80927     296.7767    88.049025    38369.369 
  860900    293.90508   -1506.4594    500.71422    322.38483    270.01045    38369.369 
  861000    297.32704   -1494.3606    488.11846     337.3514   -246.94943    38369.369 
  861100    296.87814   -1482.5344    515.25296    374.28359    482.42356    38369.369 
  861200    296.68481   -1481.6928    482.80743    341.80599   -377.34289    38369.369 
  861300    298.02018   -1466.0798    485.85316     366.4991    111.63554    38369.369 
  861400    292.67289   -1439.1009    495.78908    379.25012   -207.18474    38369.369 
  861500    302.27014   -1491.0021    485.61185    360.54071   -730.76017    38369.369 
  861600    310.82735   -1484.5422    482.41672    402.47473    171.38214    38369.369 
  861700    303.20192   -1508.3256     489.7335    351.54949   -272.72055    38369.369 
  861800    307.63744   -1510.2773    512.20908    392.11711   -91.563762    38369.369 
  861900    300.57521   -1524.3662    484.26856    318.17406   -85.952529    38369.369 
  862000    292.67048   -1483.4385    490.46727    329.57976    13.847108    38369.369 
  862100     299.4487   -1469.3906    510.21587    394.00643   -47.732931    38369.369 
  862200    303.29173   -1444.0983     510.9263    437.37547   -140.44898    38369.369 
  862300    306.78791   -1456.9381    498.43561    427.84382   -52.814873    38369.369 
  862400    302.22619   -1452.3871    470.72872    384.07396    -443.9126    38369.369 
  862500    295.52649   -1464.4638    494.21679       365.21   -541.34951    38369.369 
  862600    290.00436   -1463.9517    500.74518    347.29653   -379.14928    38369.369 
  862700    298.76166   -1463.3836     479.7284    366.42119   -372.69729    38369.369 
  862800    295.30149   -1487.3395    512.08367    359.18446   -123.18807    38369.369 
  862900    299.04807   -1448.7812    511.61051    414.20001   -447.46514    38369.369 
  863000    302.81384   -1451.4885    502.57246    419.47184   -749.54344    38369.369 
  863100    302.51635   -1413.0956    475.32401    429.27193   -522.24629    38369.369 
  863200    297.51123   -1433.1992    501.74371    412.97035   -157.20271    38369.369 
  863300     300.6164   -1431.4721    514.77106    441.75681    -92.72964    38369.369 
  863400    308.07393   -1398.9102    495.97143    489.21898    306.53358    38369.369 
  863500    304.34972   -1428.7079    523.87829    470.49878   -259.24673    38369.369 
  863600     300.2307   -1464.3655    509.83385    402.18327   -40.466744    38369.369 
  863700     305.9421   -1446.1002    476.95073    413.37476     5.394695    38369.369 
  863800    305.65058   -1469.6503    472.21027    383.76681    170.45874    38369.369 
  863900    300.12142   -1461.3411    511.76131    406.64134   -339.13519    38369.369 
  864000    297.06077   -1431.3506    452.47309    363.51276   -294.36546    38369.369 
  864100    309.72142   -1479.3485    502.42517     422.6793   -199.56576    38369.369 
  864200    289.64631   -1445.0093    468.44858    332.32425   -21.832519    38369.369 
  864300    313.05378   -1426.0548    475.23807    463.84453    308.61539    38369.369 
  864400    297.54236   -1484.5221    466.25852    326.30299   -144.20273    38369.369 
  864500    291.52112   -1480.3283    472.82956    309.85837    94.807716    38369.369 
  864600    306.01911   -1475.6997    484.01783    391.19032    107.68781    38369.369 
  864700    293.84107   -1393.4406    506.82994    441.23013    56.397232    38369.369 
  864800    299.10117    -1410.793    463.82722    404.64491   -278.82909    38369.369 
  864900    302.89484    -1410.453    500.91974    459.22071   -410.50785    38369.369 
  865000    306.24161   -1426.4812     470.0123    427.40878   -327.89438    38369.369 
  865100    295.54444   -1459.3232    505.69717    381.91211   -642.45251    38369.369 
  865200    295.65676    -1449.764    496.01441    382.29613   -727.18272    38369.369 
  865300    296.60802   -1431.0507    488.65614    397.94977   -197.20924    38369.369 
  865400    295.13728   -1421.6512    504.11445    416.16144   -453.74614    38369.369 
  865500     296.5632   -1388.2912    475.54179    427.39237   -171.06096    38369.369 
  865600     299.9612   -1446.4053    490.51144     399.6032   -358.47851    38369.369 
  865700    293.56644   -1417.8696    486.14982    394.87994    88.129096    38369.369 
  865800    295.77617   -1464.6459    468.67693    340.61632    152.50396    38369.369 
  865900    300.05441    -1432.051    501.64144    425.50876    878.82273    38369.369 
  866000    307.94104   -1445.9844    481.65535     427.2282    422.22107    38369.369 
  866100    296.28364   -1470.2404    470.60196    339.24004    258.17275    38369.369 
  866200    305.08903   -1479.8665    478.01354    376.81628   -123.80172    38369.369 
  866300    289.74154   -1452.4204    510.42834    367.32336   -418.54841    38369.369 
  866400    292.54736   -1454.4559    482.56683    350.10559    524.42064    38369.369 
  866500    289.02562   -1455.8962    501.84813    352.03209    558.80934    38369.369 
  866600    300.80341   -1514.1693    484.08399    329.21758    665.84099    38369.369 
  866700    292.84382   -1449.7356    475.11794    348.71661     1074.024    38369.369 
  866800    300.53359   -1424.1782    502.79672    436.70214    944.20568    38369.369 
  866900    305.95586   -1401.6323    518.92199     499.8761    764.61708    38369.369 
  867000    297.18129   -1463.9327    485.19424    364.19646    239.88491    38369.369 
  867100    288.03455   -1437.2275    487.04498    351.41916    181.14018    38369.369 
  867200    301.20673   -1426.4393    465.98727    400.67351   -265.81678    38369.369 
  867300    299.25932   -1410.2394    494.44748    436.53342    18.223087    38369.369 
  867400    294.78054   -1480.3167    486.65451    338.42391    56.630565    38369.369 
  867500    301.69602   -1470.7201    475.06994     367.6864    486.58534    38369.369 
  867600    311.84159   -1459.9305    504.76952    454.02246    181.54857    38369.369 
  867700    297.54272   -1411.2269    506.91725    440.25854    805.49092    38369.369 
  867800    301.11758   -1479.4172    493.40789    374.71334    94.947631    38369.369 
  867900    296.99055   -1485.5752    489.14381    345.64158   -117.17672    38369.369 
  868000    304.56882   -1441.4993    484.33795    419.15709   -72.018676    38369.369 
  868100    311.84389   -1430.7661    493.57941    472.00713    70.217782    38369.369 
  868200    296.73244   -1456.3568    505.43546    389.98525   -125.10165    38369.369 
  868300    309.55301   -1428.7105    490.65143    460.78255   -139.40292    38369.369 
  868400    301.28456   -1433.6766    476.66627    404.46689    24.860952    38369.369 
  868500    306.45546   -1437.3835    467.47439    414.93496   -399.61616    38369.369 
  868600    295.88785   -1440.4038    514.36335    411.04953   -160.85511    38369.369 
  868700     311.4074   -1462.1382    501.45815    446.54138    222.19489    38369.369 
  868800    309.48101   -1485.3882    513.87976    427.00781    385.35366    38369.369 
  868900    299.04646   -1432.3544    545.66869    464.67773   -129.92192    38369.369 
  869000    310.87158     -1434.41    470.48734    440.87743   -124.96695    38369.369 
  869100    301.35453   -1430.0565     505.3296     437.0665   -670.48218    38369.369 
  869200    301.39415   -1443.5664    485.66285    404.06891   -383.63834    38369.369 
  869300    304.18925   -1425.2794    509.41144    458.73526   -62.861859    38369.369 
  869400    293.40964   -1432.9124    491.30985    384.28857    -254.8101    38369.369 
  869500    299.77549   -1425.8205    526.59414    455.43149   -635.93071    38369.369 
  869600    297.00845   -1406.2367    495.92917    431.84635   -230.58716    38369.369 
  869700      289.898   -1426.2127    513.21317    397.02285   -764.39816    38369.369 
  869800    304.22798   -1437.3831    501.69295    439.08814   -710.75316    38369.369 
  869900    300.64152   -1398.4649    495.95029    456.05673   -264.78584    38369.369 
  870000    310.99211   -1401.6338    499.40672    503.11769   -275.78763    38369.369 
  870100    304.22073   -1404.9987    517.52181    487.26857   -284.80353    38369.369 
  870200    293.21438   -1400.6247    494.11189    418.49604   -753.77111    38369.369 
  870300    299.90504   -1442.1491    488.41484      401.509     167.9051    38369.369 
  870400    300.25212   -1433.8172    502.61714    425.61169    170.74108    38369.369 
  870500    293.07272   -1441.1535    508.03991    391.25501     190.2513    38369.369 
  870600    296.90302   -1433.5022    511.46951     419.6447     761.4768    38369.369 
  870700    299.99737    -1437.451    516.96677    435.17632    177.13109    38369.369 
  870800    301.56328   -1427.9224    487.51141     422.3257    524.14663    38369.369 
  870900    293.11693    -1462.189    476.46552    338.84498   -281.95376    38369.369 
  871000    301.17108   -1470.5201    478.48325    368.92757   -96.183353    38369.369 
  871100    307.84412   -1457.6108    491.82163    425.33011   -45.099215    38369.369 
  871200    302.03894    -1480.786    499.99137    384.09154    785.25246    38369.369 
  871300    300.21405    -1531.534    513.63951    338.74518    571.33564    38369.369 
  871400    302.84958   -1488.2551    493.58688    373.88118    103.39332    38369.369 
  871500    293.78106   -1487.1441    473.01925    313.44481    55.192887    38369.369 
  871600    294.32273   -1499.2338     510.6056    341.38914   -540.14315    38369.369 
  871700    298.99775   -1449.8864    508.29887    409.55577    107.11234    38369.369 
  871800    299.90817   -1479.9617    488.20208    363.49785   -371.97166    38369.369 
  871900    307.60196   -1475.5368    483.45804    397.94619   -318.29374    38369.369 
  872000    298.96662   -1444.7575    519.69826    425.94341   -97.327717    38369.369 
  872100    302.58301   -1432.1229    495.20366    430.42555   -52.999306    38369.369 
  872200    308.84827   -1480.4681    483.96058    399.14941    175.34182    38369.369 
  872300    297.75606   -1462.9182    499.01218    381.62618    204.42036    38369.369 
  872400    304.74089   -1445.2293    514.54966    446.41639    336.22975    38369.369 
  872500    297.30711     -1456.09    477.76583    365.17936    499.09898    38369.369 
  872600    297.41261   -1451.1151    523.69327    416.55842    429.29509    38369.369 
  872700    298.68185   -1492.9895     476.1061    332.83241    294.18293    38369.369 
  872800    309.31744   -1478.4563    488.55092    407.87164    765.26332    38369.369 
  872900    298.95648   -1473.0111    495.20682    373.15259    214.79727    38369.369 
  873000    297.52364   -1477.0153    499.64804    367.11469   -29.487568    38369.369 
  873100    300.63491   -1459.7636    487.89116    386.66909    143.48843    38369.369 
  873200    303.15769   -1385.5927    507.04921    491.39823   -425.24482    38369.369 
  873300    303.29834   -1412.0329    517.46869    476.01304   -482.76615    38369.369 
  873400    299.10129   -1415.4737    504.63578    440.77327   -1048.3673    38369.369 
  873500    296.02211    -1386.075    495.53595    447.15768    20.305009    38369.369 
  873600    309.09054   -1397.3928    506.83692    506.19585   -236.96044    38369.369 
  873700     297.8717   -1468.6525    473.68841    351.09072   -448.94254    38369.369 
  873800    302.22797   -1421.7073    482.84835    426.88149   -6.4771098    38369.369 
  873900    288.32931   -1444.1348    488.64164    347.44051   -402.14565    38369.369 
  874000    293.73694   -1472.7498    497.31537    351.93577     147.7415    38369.369 
  874100    302.64937    -1481.372    488.29746    374.57017    498.31941    38369.369 
  874200     286.1448    -1474.636    488.47638    306.90244      468.947    38369.369 
  874300    301.94372   -1423.8731    474.14063    414.72346   -410.00065    38369.369 
  874400    301.05002   -1418.9849    485.30753    426.73998   -392.91167    38369.369 
  874500    302.23951   -1409.3966    512.28577    468.68176   -645.47983    38369.369 
  874600     300.3015   -1433.6728    512.50894      435.871   -463.97575    38369.369 
  874700    303.14522   -1438.7698    495.03877    426.15434     242.1981    38369.369 
  874800    300.16582   -1413.7646    504.42726    447.08444    130.21075    38369.369 
  874900    301.44828   -1429.3301    500.69505    433.58205    246.16282    38369.369 
  875000    306.17794   -1458.7719    507.07937     431.8974    452.02873    38369.369 
  875100    298.40089   -1483.5471    473.22404    338.12312    334.61519    38369.369 
  875200    302.84381   -1474.6317    512.73358    406.62514   -113.02043    38369.369 
  875300    303.78878   -1461.0237    507.37454    419.14436    -651.2797    38369.369 
  875400    310.27146   -1452.4989    469.30993    418.89919   -905.92549    38369.369 
  875500    310.99069   -1432.4123    491.68317    464.60916   -462.70466    38369.369 
  875600    304.28879   -1466.1825    504.79289     413.6635   -112.17638    38369.369 
  875700    298.94073   -1433.0704    496.12676    413.94205    236.28041    38369.369 
  875800    291.79775   -1482.1876    502.21047    338.63005    44.999914    38369.369 
  875900    306.17226   -1468.9913     507.2925    421.86548    57.659161    38369.369 
  876000    295.80714   -1464.4819    501.37803    373.62143    165.46383    38369.369 
  876100    301.17571   -1468.7607    487.26404    379.48868   -254.44434    38369.369 
  876200    302.88945   -1451.6401    515.75418    432.84362    408.50668    38369.369 
  876300    309.91377    -1477.371    484.05231    407.15309     523.3236    38369.369 
  876400    301.79584   -1447.4864    530.95571     447.2569    894.96864    38369.369 
  876500    300.66155   -1437.6213    497.90011    418.94073    682.28965    38369.369 
  876600    309.60883   -1460.6002    532.55999    471.05357    793.52477    38369.369 
  876700    299.13454   -1466.1867    504.41333    389.98809    445.93666    38369.369 
  876800     310.0016   -1494.6851    510.80109    416.98477    415.90168    38369.369 
  876900    303.23774    -1482.579    493.21908     380.9436   -314.85587    38369.369 
  877000     301.1857   -1479.0147    495.19984    377.21564   -789.79453    38369.369 
  877100    296.33151   -1489.0585    467.30749    317.34378   -1279.8237    38369.369 
  877200    293.96747   -1455.8039    473.45079    346.05883   -1438.5367    38369.369 
  877300    302.59265   -1448.7426    489.09661    407.74233   -1083.5342    38369.369 
  877400    293.43915   -1459.9064     501.7665    367.88466   -662.50808    38369.369 
  877500    302.75132   -1490.9151     497.2399     374.4302   -721.05565    38369.369 
  877600    296.95112   -1495.8053    507.92147    354.01094   -489.31342    38369.369 
  877700    292.80504   -1465.0067    506.17293    364.32531    49.917568    38369.369 
  877800    305.84093   -1471.4934    487.91732    398.49095   -151.67744    38369.369 
  877900    300.12385   -1458.7417      504.014    401.50433    51.563133    38369.369 
  878000    292.84624    -1481.915    504.66135    346.09158     471.1025    38369.369 
  878100    293.60615   -1474.6463    498.81054    350.94347    169.87616    38369.369 
  878200    296.69107   -1473.1359     498.0223    365.60612    481.09613    38369.369 
  878300     305.5992   -1489.3538    497.89064    389.51151    164.79449    38369.369 
  878400    299.77291   -1476.5874    475.93315    353.99193    102.10812    38369.369 
  878500    311.31405   -1429.6042    499.70918    476.90455    312.16885    38369.369 
  878600    292.66055   -1482.2409    489.14129    329.40653   -155.58439    38369.369 
  878700    302.22589   -1451.3738    506.50669     420.8639    413.79424    38369.369 
  878800    307.95184   -1447.5014    509.97263    454.07728   -325.69547    38369.369 
  878900    295.42149   -1521.7134    498.93447    312.20363   -379.37441    38369.369 
  879000    294.70084   -1503.0476     499.3317     328.0101   -452.82363    38369.369 
  879100    308.60006   -1497.9964    501.68139    398.22028   -121.12184    38369.369 
  879200    302.67926   -1502.2323    507.95161      373.499   -524.09286    38369.369 
  879300     293.3551   -1529.5488    492.94383    289.03974   -323.15837    38369.369 
  879400    301.49778   -1517.0248    504.93694     350.3529   -163.69157    38369.369 
  879500    293.00203   -1530.2079    502.91899     296.7603    287.42579    38369.369 
  879600    299.63091   -1491.4941    506.80114    369.31153    70.916172    38369.369 
  879700    300.05522   -1551.4811    498.69017    303.13098    713.37323    38369.369 
  879800    305.74699   -1512.8606    485.72833    354.51029    144.39602    38369.369 
  879900    288.47642     -1484.56    510.04211    329.08054   -703.39223    38369.369 
  880000    298.86223   -1491.9975    487.36137    345.89481   -522.08682    38369.369 
  880100    295.33049   -1449.6479     525.7624    410.68581   -828.55718    38369.369 
  880200    290.01681   -1489.9522     490.5354     311.1425    -572.7377    38369.369 
  880300    294.02918   -1474.2207    519.83207    374.30224   -636.24949    38369.369 
  880400    291.98024   -1512.5869    521.08739    327.93235    195.63032    38369.369 
  880500     297.3949   -1491.7605    489.63261    341.77227    143.05383    38369.369 
  880600     300.4299   -1501.5699    505.02435    361.06958    161.57301    38369.369 
  880700    300.08235   -1534.9201    497.98103    319.10545   -249.43255    38369.369 
  880800    299.73627   -1514.0861    505.68801     346.0826   -119.73769    38369.369 
  880900    306.72056   -1490.1894    509.69019    405.54278    -118.3166    38369.369 
  881000    307.78739   -1502.5497    469.15884    357.47204   -253.17411    38369.369 
  881100    297.13591   -1512.9339    507.93237    337.72828   -375.89736    38369.369 
  881200    305.09107   -1477.2821    490.23653    391.63289   -736.47894    38369.369 
  881300    303.93615   -1447.3548    522.06076    448.16547   -744.12447    38369.369 
  881400    295.58148   -1480.2696    497.89913    353.33508   -608.32034    38369.369 
  881500    303.69072   -1537.3331    515.51548     350.5328   -110.63721    38369.369 
  881600    299.04286   -1551.0453    507.57736    307.87924   -75.746102    38369.369 
  881700    309.46415   -1527.0002    508.06699    379.50682   -302.03738    38369.369 
  881800    299.00544   -1558.8678    504.96784    297.27812   -453.17747    38369.369 
  881900    300.42497   -1568.8013    504.50136    293.29284   -104.17781    38369.369 
  882000    306.57132   -1551.3328     472.8057    306.84052   -912.87467    38369.369 
  882100    301.73928   -1548.0829    488.99828    304.44746   -741.79654    38369.369 
  882200    296.38633   -1548.9185     527.3419    317.76602   -946.04134    38369.369 
  882300    300.74864   -1565.8189    501.82063    295.05717   -438.07485    38369.369 
  882400    302.03169   -1510.2702    471.19117    325.77438   -73.535212    38369.369 
  882500     297.0824   -1517.4094    493.47949     318.5581    -430.5984    38369.369 
  882600    309.16834   -1514.5906    519.99343     402.5061   -687.56263    38369.369 
  882700    311.40999    -1512.729    479.99052    374.49464    -171.4365    38369.369 
  882800    301.59237   -1565.8743    497.11795    294.11182    187.23961    38369.369 
  882900    312.92858   -1551.1671    491.65206    354.58038    33.873236    38369.369 
  883000    290.03156   -1534.2091    469.63485    246.05175   -146.78665    38369.369 
  883100    302.53176   -1515.8875    505.43771    356.66341    17.312195    38369.369 
  883200     304.8136   -1512.0943     495.0708    360.40113   -143.53675    38369.369 
  883300    299.20098   -1512.5785    482.14282    321.62604    -302.6646    38369.369 
  883400    299.65164   -1496.6087    503.54977     361.0393    174.24253    38369.369 
  883500    293.90617   -1503.1806    497.35633    322.31069   -42.087263    38369.369 
  883600    302.85266   -1522.6713     492.4861    338.37817    259.50839    38369.369 
  883700    296.09362   -1523.0385    504.61723    319.59861    485.03508    38369.369 
  883800    287.73531    -1518.389    521.90271    303.76316    -208.9299    38369.369 
  883900    295.81384   -1536.4772    503.76048    304.03882    232.59583    38369.369 
  884000    306.18132   -1540.1456    484.23143    327.69101    239.08727    38369.369 
  884100    303.78072   -1511.1982     500.4417    362.00058    289.41157    38369.369 
  884200    294.30785   -1550.5229    468.90164     248.3288   -9.6114649    38369.369 
  884300    293.89153   -1534.7962    518.02154    311.29418   -288.24841    38369.369 
  884400    297.82008   -1531.9293    490.39385    304.28611   -529.44597    38369.369 
  884500    303.49456   -1466.7701    527.46101    432.15494    195.25469    38369.369 
  884600     301.3732   -1438.7224    498.87394    422.02927   -125.29748    38369.369 
  884700    300.90798   -1505.9122    485.84806     339.7114    113.70813    38369.369 
  884800    296.93864   -1475.3695    521.46569    387.93458   -214.88809    38369.369 
  884900     302.5198   -1493.9914    479.03653    352.10428   -328.66364    38369.369 
  885000    294.47709   -1481.9754    491.15979    339.89923   -515.08147    38369.369 
  885100    309.60423   -1499.1328    485.23069    385.17094   -163.23655    38369.369 
  885200    302.44903   -1488.3185    520.20433    398.62521    77.701899    38369.369 
  885300    302.00908   -1454.3298    525.71056    436.13196    10.164828    38369.369 
  885400    293.95657   -1447.1453    507.58529     388.8027    95.009164    38369.369 
  885500    297.83071   -1447.9204    498.11993    396.06912   -70.518526    38369.369 
  885600    306.12833   -1471.0153    496.07827    408.42877    83.911856    38369.369 
  885700     297.6248   -1505.8714    481.35487    320.42251   -54.091006    38369.369 
  885800    301.37935   -1478.6433    506.11688     389.3791   -348.83145    38369.369 
  885900      300.392   -1494.6277    471.28826    334.10444    48.467826    38369.369 
  886000     305.3233   -1548.3873     509.5571    340.89772   -454.69365    38369.369 
  886100    303.51981   -1528.1506    498.78923    342.21678   -44.860409    38369.369 
  886200    304.52987   -1484.7629    496.45533    387.83492   -157.17839    38369.369 
  886300    306.53476   -1485.4571    532.51179    432.25708   -68.689272    38369.369 
  886400    292.08041   -1502.2167    472.51775    290.18556   -526.50102    38369.369 
  886500    306.38361   -1478.2229    504.32007    410.61648   -267.08237    38369.369 
  886600    295.08079   -1499.1533     491.3755    325.66513   -223.68679    38369.369 
  886700    300.40728   -1491.2969    508.69646    374.91243    229.08422    38369.369 
  886800    294.37987   -1451.3104    524.36018    403.32539   -63.906059    38369.369 
  886900    294.64416   -1501.0918    525.81795    356.19603   -317.04339    38369.369 
  887000    291.32852   -1436.8839    517.48903    397.09191     90.79685    38369.369 
  887100    308.65585   -1516.0066    487.95249    366.73328   -174.73948    38369.369 
  887200    289.42223   -1511.0504    502.77403    299.59612   -503.37065    38369.369 
  887300    295.61776   -1486.7182    521.12416    370.27545   -228.73284    38369.369 
  887400    309.30332   -1495.2024    500.90761    403.41846    17.024002    38369.369 
  887500    298.34233   -1502.6165     512.5975    358.16253   -67.008428    38369.369 
  887600    288.34634   -1466.1001    503.77583     340.6863   -10.595443    38369.369 
  887700    309.79584   -1512.1801     494.5514    382.31021    365.37141    38369.369 
  887800    290.48209   -1479.1941    494.07908    327.54682   -583.99703    38369.369 
  887900    299.62819   -1443.7169    530.47499     440.7503   -618.86427    38369.369 
  888000    302.50807   -1436.4233    477.56878    408.15167    189.74708    38369.369 
  888100      308.199    -1479.639    506.10885    419.19274   -253.75219    38369.369 
  888200    295.01487   -1471.3008    515.07828    376.92259   -348.36337    38369.369 
  888300    310.48911   -1464.6536     500.0008    438.41894   -369.99756    38369.369 
  888400    301.10465   -1475.9731    490.72193    375.41299   -654.67952    38369.369 
  888500    300.77826   -1466.1942    505.03398    398.02909   -567.04417    38369.369 
  888600    300.38647   -1436.5398    520.18405    441.06313    575.55169    38369.369 
  888700    299.57653   -1482.3461    518.36832    389.78097     335.7952    38369.369 
  888800    301.30392   -1422.3556    514.75139     453.9605     369.0468    38369.369 
  888900    307.77699   -1435.1116    516.03685    471.74112    16.333447    38369.369 
  889000    302.88441   -1433.7752    516.43547    451.36711   -379.05641    38369.369 
  889100    298.80627   -1465.7927    505.20285    389.68822   -291.85069    38369.369 
  889200    313.98344    -1456.921    496.89986    458.84118   -534.91782    38369.369 
  889300    303.46405   -1467.4787    489.01324    392.86069   -394.79996    38369.369 
  889400    312.34774   -1441.0646    512.66319     483.0693    332.77927    38369.369 
  889500    306.24638   -1480.5408    525.11077    428.46919    403.12418    38369.369 
  889600    292.81014   -1481.3615    511.62764    353.44827   -303.76502    38369.369 
  889700    317.06258   -1473.2851    506.31539    465.80693    164.65907    38369.369 
  889800    298.74519   -1505.3619    503.73812    348.37831   -119.13925    38369.369 
  889900     293.5534   -1472.3896    494.60586    348.75705   -593.53504    38369.369 
  890000    305.08089   -1471.9525    513.49024    420.17022   -317.38639    38369.369 
  890100     301.1151   -1476.6293    494.40174    378.48392   -617.47467    38369.369 
  890200    300.87855   -1501.9876    503.65022    361.30511   -768.32867    38369.369 
  890300    304.02285   -1484.1934    488.06023    377.71809   -471.96871    38369.369 
  890400    299.09485   -1514.2962    477.01208    314.29798   -928.93878    38369.369 
  890500    304.56761   -1453.5642    499.21251    421.96129   -598.13067    38369.369 
  890600     295.4114   -1470.9972    499.88757     363.8273    -846.4386    38369.369 
  890700    308.64846   -1487.9935     498.6121    405.37262   -478.80033    38369.369 
  890800    292.24699   -1485.7458    461.77499    296.66651   -844.63797    38369.369 
  890900    295.98408   -1482.3884    493.77964    348.91605   -367.60218    38369.369 
  891000    306.26264   -1475.3867    514.37499    422.96094   -893.06431    38369.369 
  891100    304.07837   -1492.8561    500.37426    381.62032    -335.1763    38369.369 
  891200    304.43263   -1504.4133    478.38813     349.6779   -345.48899    38369.369 
  891300    309.93887   -1489.0082    509.48754    421.06454    -589.8307    38369.369 
  891400    305.02048   -1479.1784    484.64699    383.82808    307.25136    38369.369 
  891500    305.30268   -1465.4954    523.92418    438.06354    533.84597    38369.369 
  891600    304.54575   -1455.1842    505.42561    426.45567     805.7273    38369.369 
  891700    296.07202   -1498.9029     496.7029    335.72218    565.78282    38369.369 
  891800    298.37933   -1494.2075    483.71965    337.86085    748.54384    38369.369 
  891900    302.02345    -1492.522    505.15566    377.44985    742.18268    38369.369 
  892000    294.96714   -1462.8879    527.21025     397.2517    746.40453    38369.369 
  892100    300.12497   -1489.3992    500.22231    367.06027    687.98777    38369.369 
  892200    305.72998   -1459.9347    520.02981    441.66073    529.90088    38369.369 
  892300    295.44563   -1457.2471     509.7735    387.61804    212.90536    38369.369 
  892400    294.67515   -1447.1744    481.12006    365.55558    251.42749    38369.369 
  892500    291.46546    -1466.252    507.34087    358.19448    538.49804    38369.369 
  892600    309.26327    -1502.195    478.61004    373.94733    552.19701    38369.369 
  892700      299.333   -1474.0215    480.84464    359.48141    472.11203    38369.369 
  892800    308.44038   -1497.4638    510.21272    406.56266    999.53469    38369.369 
  892900    306.70879   -1487.2899    487.37514    386.07403    587.21162    38369.369 
  893000    300.55012   -1431.3644    499.31736    426.11133    545.33917    38369.369 
  893100    298.93709   -1447.8056    502.75715    405.82072    235.21193    38369.369 
  893200    302.71046   -1427.6544    496.20868    436.47499   -63.556375    38369.369 
  893300    291.61416   -1459.7171    506.48021    364.54069   -109.01075    38369.369 
  893400     308.8932   -1479.8512    495.21581    411.22457    250.28744    38369.369 
  893500     295.8358   -1466.2227    507.44071    378.07278    134.83389    38369.369 
  893600    306.74656   -1478.6476    492.26479    399.77668    201.70531    38369.369 
  893700    289.40096   -1469.7709    514.43884    352.44426    16.772585    38369.369 
  893800    303.46413   -1489.3996    495.21652    377.14339    -100.8275    38369.369 
  893900    303.09854   -1459.4931    506.51498    416.69629     240.7111    38369.369 
  894000    307.25944   -1496.7213    490.73332    382.48913   -222.73404    38369.369 
  894100    303.85609   -1497.7476    494.29649    369.64663    287.78244    38369.369 
  894200    290.86306   -1472.7281     454.7006    296.35596    214.23157    38369.369 
  894300    310.12105   -1457.6984     494.0001    437.71019   -380.95846    38369.369 
  894400    301.06376   -1483.1635     511.1204    388.43637    314.08502    38369.369 
  894500     292.2852   -1432.9943    496.74754    384.56323    118.24658    38369.369 
  894600    298.92092   -1435.7364    499.02161    414.08136   -159.28118    38369.369 
  894700    293.00885   -1460.9749     505.1084    368.21356    202.98969    38369.369 
  894800    293.59167   -1456.8847    510.42594    380.25497    198.27812    38369.369 
  894900    295.27626   -1489.3988    501.38427    346.31175    417.51464    38369.369 
  895000    298.92678   -1514.9352    495.98564    331.87306    405.85794    38369.369 
  895100    295.98298   -1483.9167     496.9638    350.56693    379.57041    38369.369 
  895200    305.28109   -1513.7493    497.64735    363.43523    257.32799    38369.369 
  895300    299.24269   -1491.2196    477.36845    338.39903    531.14827    38369.369 
  895400    302.89828   -1505.2595    512.32565    375.83564    343.50632    38369.369 
  895500    296.40527   -1483.5847    472.26073    328.10422    148.06356    38369.369 
  895600    307.73991   -1470.3143    505.20325    425.53731   -84.373417    38369.369 
  895700    305.87199   -1474.9487    505.95062    413.20932   -422.03151    38369.369 
  895800    302.81225   -1465.0999    505.34288    408.62365   -231.78204    38369.369 
  895900    301.23747   -1524.0717    494.65488    331.84758   -424.26831    38369.369 
  896000    305.71594   -1501.3309    479.41748    359.58877    205.87909    38369.369 
  896100    306.95898   -1457.5753    492.39676    421.94084    687.07076    38369.369 
  896200    289.89118   -1417.3371    511.55404    404.20857    22.122189    38369.369 
  896300    292.90766   -1436.9226    519.65354    406.35377   -4.6811268    38369.369 
  896400    291.46896   -1481.9909    515.22427    350.35479   -144.63722    38369.369 
  896500    301.18141   -1464.2865    532.72844    429.45298    52.757111    38369.369 
  896600    291.02242   -1405.3352    474.44378    384.21212   -380.13245    38369.369 
  896700    310.98314   -1450.7727    521.35684     475.8884   -387.22689    38369.369 
  896800    297.06889   -1469.0437    485.31222    358.69551     568.5795    38369.369 
  896900    307.85304   -1473.1792     495.3331    413.31348    352.71561    38369.369 
  897000    300.28148   -1436.2185    502.80343    423.52931   -155.94305    38369.369 
  897100    306.26227   -1477.6312    496.38054    402.72038   -24.342579    38369.369 
  897200    304.85202   -1486.0382    480.46735    372.02738   -170.66201    38369.369 
  897300    305.40344   -1486.4435    523.69998     417.3465   -39.228741    38369.369 
  897400     295.2022   -1448.4494    504.71997    390.26215    -465.5355    38369.369 
  897500    299.97429   -1435.0142    510.82215    431.36419   -654.44109    38369.369 
  897600    286.73711   -1449.0964    506.95649    353.59867   -618.38103    38369.369 
  897700    290.29834   -1450.9593    514.45615    375.32831   -180.75237    38369.369 
  897800    304.19982    -1462.315    488.30137    400.63733   -256.02451    38369.369 
  897900    300.88496   -1454.8426    515.43212    420.26096   -21.688956    38369.369 
  898000    292.57785   -1451.6997    501.08435    371.51706   -348.47361    38369.369 
  898100       298.62    -1419.159    513.69911    443.97649   -204.74988    38369.369 
  898200     295.5136   -1466.9484     491.7506    360.20099    225.18223    38369.369 
  898300    301.53016   -1452.4935    507.26347    417.35702    351.81089    38369.369 
  898400    297.33358   -1473.5208    493.94348    364.04578    1.4070751    38369.369 
  898500    299.06532    -1457.499    480.44095    374.39059   -158.39014    38369.369 
  898600    308.05629   -1464.2653    537.72923    465.54199    528.28313    38369.369 
  898700    303.69191   -1474.3266    478.30491    376.33412    76.952984    38369.369 
  898800    303.93401   -1445.0822    509.87506    438.24269    109.46285    38369.369 
  898900    312.85975   -1504.5606    498.87927    408.10306    232.05986    38369.369 
  899000    292.45458   -1507.9213    494.40091    308.05503    85.172697    38369.369 
  899100    294.98361   -1475.1987    508.07956    365.88464    42.922835    38369.369 
  899200    301.71774   -1454.0716    500.30038     409.6635     70.53505    38369.369 
  899300     301.7882   -1454.5068    526.60625    435.85252   -373.64127    38369.369 
  899400    303.27431   -1414.5733    512.38443     468.2799    141.80901    38369.369 
  899500    312.73483   -1477.3503    483.35361    419.22328    446.46115    38369.369 
  899600    295.80545     -1425.83    517.45509    428.34269    62.675187    38369.369 
  899700     303.4072   -1451.4193    511.17354    430.82346    494.82714    38369.369 
  899800    301.07666   -1465.2258     502.5017    397.81364    30.371651    38369.369 
  899900    301.31969    -1450.994    499.69785     410.3398    66.207463    38369.369 
  900000    305.35434   -1470.4518    525.29612    434.71254    19.467918    38369.369 
  900100    304.35576   -1463.1746    540.66586    452.84697    -210.9281    38369.369 
  900200    296.41505   -1456.6644    493.35897    376.16694    193.79188    38369.369 
  900300    300.61376   -1420.5467    552.11006    490.00926   -218.69161    38369.369 
  900400    289.46027   -1435.7342    488.55833    360.86845    105.05391    38369.369 
  900500    301.76141   -1469.9544     512.3875    406.06517   -256.65568    38369.369 
  900600    293.90059   -1455.9565    520.81148    392.96469    4.3748475    38369.369 
  900700     306.5805   -1490.8746    485.39024    379.92473     278.4046    38369.369 
  900800    288.12506   -1506.1704    508.34325     304.1835     325.7794    38369.369 
  900900    301.89028   -1491.7694    494.03723    366.48221    578.83236    38369.369 
  901000    306.41955   -1454.1177    489.27585    419.83989    117.68197    38369.369 
  901100     305.1422   -1467.7257    529.88349    441.06736   -315.07007    38369.369 
  901200    292.24655   -1446.5147    467.30997    341.43052    -89.56485    38369.369 
  901300    301.13797   -1459.0201    495.89727    397.69193   -439.45813    38369.369 
  901400    303.67639   -1463.4619    486.76748    395.59128   -231.96553    38369.369 
  901500     287.5236   -1541.2327    513.40208    271.46208   -672.32947    38369.369 
  901600    303.39812   -1495.7553    490.88079    366.15368    37.859829    38369.369 
  901700    296.04515   -1481.0466    487.72039    344.47464   -200.62288    38369.369 
  901800    307.93846   -1475.3631    494.57925    410.76171    28.637188    38369.369 
  901900      299.187   -1476.8039    496.19007     371.3847   -213.09471    38369.369 
  902000    291.29081   -1466.1543    497.68457    347.84669   -283.56482    38369.369 
  902100    307.80229    -1503.325    484.04788     371.6531   -245.25194    38369.369 
  902200     294.4583   -1452.1349    487.44743    365.94248   -259.18214    38369.369 
  902300    298.07776   -1423.5869    537.87927     461.2784   -223.83874    38369.369 
  902400      306.646   -1433.6656    540.00375    492.04319   -254.08215    38369.369 
  902500    296.99881   -1475.1475     492.9909    359.95372   -253.87609    38369.369 
  902600    287.00554    -1415.433    509.23506    390.75367   -325.39845    38369.369 
  902700    298.48798   -1426.1646    513.43794    436.11302   -490.34147    38369.369 
  902800    299.53805   -1429.1651    491.57623    415.99602    39.012354    38369.369 
  902900    303.07681   -1447.5872    499.00727    420.99625    33.358289    38369.369 
  903000    295.36602   -1446.1501    532.35716    420.93896   -455.41054    38369.369 
  903100    292.81774   -1427.8503    481.35117    376.71727    15.039642    38369.369 
  903200    299.93105   -1431.5068    489.60393    413.45797   -406.29056    38369.369 
  903300    305.58918   -1448.3279    522.70031     455.3018   -433.69194    38369.369 
  903400    283.66209   -1494.2844    457.09217    244.65065    41.555561    38369.369 
  903500    288.70116   -1473.7623    507.63245    338.48411    50.310292    38369.369 
  903600    302.51896   -1495.5856    492.77853    364.24827    485.67512    38369.369 
  903700    310.30951   -1476.6161    499.81179    425.45589    1029.8865    38369.369 
  903800    295.11588    -1486.206    516.21003    363.60553    979.06729    38369.369 
  903900    296.88409   -1501.1681    526.96248    367.38626    708.46205    38369.369 
  904000     299.9415   -1479.9431     493.4297    368.89467    486.84325    38369.369 
  904100    299.55534   -1484.1949    490.61673    360.08491    40.704362    38369.369 
  904200    292.25745   -1462.2071     509.9925    368.46995    45.582359    38369.369 
  904300     293.2712   -1466.2419    494.31609    353.33983   -334.84076    38369.369 
  904400    293.46365   -1475.7828    505.82221     356.1747   -196.47237    38369.369 
  904500    308.18714   -1490.5236    512.90585    415.05161    289.69896    38369.369 
  904600    306.64103   -1468.4546     493.7997    411.02773     596.8746    38369.369 
  904700    296.23344   -1491.1524    509.14308    356.64235     49.74282    38369.369 
  904800    290.43103   -1504.8978    497.31225    304.84558     153.9245    38369.369 
  904900    302.48434   -1470.6389    476.40941    372.66945   -105.17484    38369.369 
  905000    294.47516   -1457.9388    512.44015    385.20754    403.38382    38369.369 
  905100    293.08099   -1437.9568    516.44975    402.89905   -86.623972    38369.369 
  905200    292.24133    -1431.922    524.90901    413.59875   -765.84013    38369.369 
  905300    305.75154     -1470.06    474.75868    386.36178   -672.74439    38369.369 
  905400    297.69134   -1474.9677    486.11422    356.38629   -938.55868    38369.369 
  905500    305.62926    -1471.197    492.99571    402.90924   -389.92195    38369.369 
  905600    304.16721   -1450.9198    511.58483    435.16869    257.58877    38369.369 
  905700    300.53152   -1456.7873    501.26521    402.55219    253.77927    38369.369 
  905800    297.67122   -1452.6269    503.89137    396.41331   -89.190949    38369.369 
  905900    313.28244   -1514.4679    497.91329    399.13991    328.34227    38369.369 
  906000    290.58215   -1474.4851    500.07016    338.69911    609.21101    38369.369 
  906100    293.28651   -1449.1611    537.66176    413.83539    256.47265    38369.369 
  906200    289.81998    -1462.429    526.60987    373.85073     370.0433    38369.369 
  906300    281.52282   -1467.1579    508.23434    313.25216    240.18703    38369.369 
  906400     297.4697   -1491.0453    501.42564    354.61858    -784.2599    38369.369 
  906500    299.49832   -1482.1916    492.45877    363.67258    -535.7187    38369.369 
  906600    299.83683   -1495.3331    495.03402    354.63594   -213.85053    38369.369 
  906700    302.95516   -1474.4247     516.9717    411.57352    277.12752    38369.369 
  906800    305.95082   -1442.8066    501.82649    441.58355    77.305248    38369.369 
  906900    293.95997   -1479.3642    504.74011    353.75398    209.45081    38369.369 
  907000    292.47773   -1529.4289    493.50252     285.7536   -110.55365    38369.369 
  907100    294.23078   -1527.9003    485.68405    287.38556   -201.13765    38369.369 
  907200    290.02794   -1473.7286    527.81222    364.69324    109.03549    38369.369 
  907300    309.43112   -1469.0217    526.46629    455.73541   -318.09062    38369.369 
  907400    306.34221   -1531.9506    503.58492    355.96657   -535.92217    38369.369 
  907500    301.57666    -1493.213    520.92744    390.51166   -133.49447    38369.369 
  907600    300.06902   -1522.5487     511.2544    344.69004   -325.26129    38369.369 
  907700    299.13123   -1509.2344    508.42684    350.93895   -76.374761    38369.369 
  907800     308.6807   -1524.9333    506.00193    375.96839   -117.14618    38369.369 
  907900    303.66187   -1521.4915    526.54984    377.27845    697.15297    38369.369 
  908000    305.91959   -1508.4943    492.94409    366.87231    182.90659    38369.369 
  908100    299.30526   -1496.5096    501.74496    357.76829    58.196876    38369.369 
  908200    302.89524   -1519.3143    504.26338    353.70482    60.199991    38369.369 
  908300    296.08552   -1503.9736    493.90069    327.91029    347.81852    38369.369 
  908400    308.15629   -1514.9485    508.51225    386.09364   -270.27493    38369.369 
  908500    294.83893   -1496.3646    482.69884    318.68425   -33.365803    38369.369 
  908600    301.90307   -1551.1725    517.43424    330.53395    628.28611    38369.369 
  908700    311.26826   -1548.9453    487.36043    345.00775    518.12677    38369.369 
  908800    295.41278   -1571.9887    504.48753    267.44207    1099.0089    38369.369 
  908900    302.60668   -1576.5213    496.56144    287.49194    1425.4248    38369.369 
  909000    299.64624   -1513.1935    549.84403    390.72435    1130.6412    38369.369 
  909100    302.04684    -1525.695    527.70482    366.93173    1419.1894    38369.369 
  909200    302.19956   -1539.9288    505.49715    331.18034    956.42407    38369.369 
  909300    300.46438    -1541.843    519.31985    335.24782    706.81288    38369.369 
  909400    295.14182   -1521.9184    514.43162    326.23198    420.79026    38369.369 
  909500    287.83227   -1479.7451    508.44762    329.39006   -461.45032    38369.369 
  909600    304.33431   -1473.2045    517.15981    419.21402   -216.87696    38369.369 
  909700    299.03522   -1447.6486     527.5985     431.2626    123.08148    38369.369 
  909800    310.13307   -1474.8101    507.96744    434.62021    128.56286    38369.369 
  909900    307.02946    -1496.745    537.53506      428.228    272.61729    38369.369 
  910000    296.16837   -1475.4108    499.02387    361.97064    1035.0605    38369.369 
  910100    298.83112   -1448.6501    524.46501    426.20523    789.33107    38369.369 
  910200    297.55592   -1464.6246    507.76832    387.77153    349.65391    38369.369 
  910300    295.51401   -1468.8528    507.46926    374.01714    498.69178    38369.369 
  910400    312.08126   -1497.2723    530.45739    443.45163   -385.80289    38369.369 
  910500    289.41286   -1478.4241    509.50671    338.91273    755.23106    38369.369 
  910600    299.70371   -1503.8501    493.98937    344.47279    232.56527    38369.369 
  910700    301.78749    -1524.881     498.4482    337.31714   -626.67529    38369.369 
  910800    303.44585   -1484.2718    527.09824    414.07031    328.87724    38369.369 
  910900     299.7143   -1469.9604     524.3075    408.72841    493.14674    38369.369 
  911000    311.74632   -1469.5629    525.95595    465.14603    340.79102    38369.369 
  911100    307.10856   -1483.1981    523.74237    428.33958   -356.23181    38369.369 
  911200    292.80981   -1444.3381    510.39666    389.23914    24.201195    38369.369 
  911300    299.46154    -1519.047    496.38141    330.57352   -144.45758    38369.369 
  911400    295.86551   -1490.2682    523.89934    370.62019    224.56102    38369.369 
  911500    307.41192   -1486.7494     507.7402    410.15698    424.03707    38369.369 
  911600    304.44927   -1473.1935    538.17044     440.7552    433.08591    38369.369 
  911700    295.80084   -1455.5661    520.37268    401.50335    141.14866    38369.369 
  911800    300.43459    -1497.759    561.86286     421.7401    153.95184    38369.369 
  911900     309.6991   -1479.1985    522.71232    443.01559    391.23454    38369.369 
  912000     297.6272   -1469.9599    516.61091    391.60094    82.142681    38369.369 
  912100    303.24628   -1489.2037     508.5157    389.65408    448.74439    38369.369 
  912200    306.23961   -1486.2741    483.90959    381.50415    132.20261    38369.369 
  912300    287.49503   -1505.3643    519.56056    313.35985   -135.12364    38369.369 
  912400    299.76968   -1497.8143    515.19514    372.01243    345.53533    38369.369 
  912500    298.89976   -1529.4628     516.9405    338.17823   -452.62208    38369.369 
  912600    290.12878   -1519.0141    516.88304    308.93423    306.34281    38369.369 
  912700    305.96851   -1523.8577    499.14322    357.92908    456.91566    38369.369 
  912800    305.36083   -1502.4273    500.99446    378.46462    558.24508    38369.369 
  912900    286.03449   -1526.5459    501.13494    267.15258    856.42224    38369.369 
  913000    294.94602   -1536.2583    510.98948    307.56513    857.35197    38369.369 
  913100    295.21591   -1533.5037    514.11446     314.6643    598.17449    38369.369 
  913200    307.93299   -1520.4721    506.67132    377.72012    233.37433    38369.369 
  913300    297.79678   -1501.1306     530.8076    375.39324    53.519028    38369.369 
  913400    294.77767    -1521.449    490.36928    300.99343    281.91985    38369.369 
  913500    294.07738   -1529.6721    502.05722    301.29375   -452.75484    38369.369 
  913600    298.70989   -1499.0324    499.09373    349.90389    -448.5365    38369.369 
  913700    309.26821   -1539.7165    500.37009    358.20818    -947.2502    38369.369 
  913800    311.35901   -1506.3415    519.42331    420.08457   -39.202826    38369.369 
  913900     293.1797   -1491.5761    506.64152    339.91755   -78.511528    38369.369 
  914000     298.0036   -1519.1891    497.51081     324.9726    303.97565    38369.369 
  914100    305.41082   -1481.4252     539.6007    438.29895    152.56759    38369.369 
  914200    294.68617   -1463.5989    484.73893    352.79967    218.08452    38369.369 
  914300    295.09591   -1480.2887    513.64225    366.86481    317.21476    38369.369 
  914400    306.26341   -1534.7171    525.10753    374.36661    321.38536    38369.369 
  914500    301.93594   -1489.7322     530.8823    405.57088     369.9251    38369.369 
  914600    293.47908   -1469.0692    490.61446    347.75019    469.70288    38369.369 
  914700    292.57136   -1484.6189    516.56924    354.05346    251.03008    38369.369 
  914800     295.0047   -1513.1921    513.84856    333.75556   -82.728208    38369.369 
  914900    295.59072   -1548.0412    505.86122    293.56725   -403.12968    38369.369 
  915000    302.77802   -1496.6578    519.59049     391.1587    4.2490037    38369.369 
  915100    303.47396   -1519.8436    501.94695    353.47431    36.442008    38369.369 
  915200    305.23434     -1514.24    531.90916    396.99507    273.19566    38369.369 
  915300    302.81494   -1473.1687     507.7958    403.01998    351.93173    38369.369 
  915400    304.40303   -1479.3201    496.15421    392.40343    421.74939    38369.369 
  915500    289.88292   -1492.5761    516.51316    333.89131    131.05658    38369.369 
  915600    290.50866    -1501.007    507.84698    319.62187    148.04365    38369.369 
  915700     310.7805   -1476.0683    520.08315    448.40338    292.65577    38369.369 
  915800    300.29172   -1494.2846    500.60999    363.31604    509.31437    38369.369 
  915900    302.16575   -1519.5856    515.87118    361.74485     193.3547    38369.369 
  916000    295.89782    -1534.348    512.71292    315.49995    133.32338    38369.369 
  916100    305.11488   -1495.2267    511.01936    394.57869    81.322844    38369.369 
  916200    290.58908   -1467.0281    492.06793    338.18513   -205.60036    38369.369 
  916300    306.14733   -1478.2988    538.97037    444.12318    434.58513    38369.369 
  916400    297.43405    -1497.077    489.52985    336.52997    178.07778    38369.369 
  916500    304.01554   -1525.5435    547.04616    395.32092    166.77093    38369.369 
  916600    306.61328   -1514.4544     477.9991    349.10189    190.44511    38369.369 
  916700    305.99949   -1537.2424     502.4468    347.98795     413.9646    38369.369 
  916800    303.61853   -1483.3312    492.95354    381.64654    162.48291    38369.369 
  916900    306.03815   -1482.4991    517.04142    417.50054   -535.91303    38369.369 
  917000    296.37614   -1508.2762    504.20326    335.22354    38.187815    38369.369 
  917100    299.82948   -1487.2531    524.68555    392.33434    97.103678    38369.369 
  917200    294.52442   -1520.0254    493.83556    304.73889   -637.24588    38369.369 
  917300    311.59762   -1501.1088    518.27753    425.24974   -167.17879    38369.369 
  917400    306.39408   -1483.1004    514.40413    415.87035    386.15311    38369.369 
  917500    308.52782   -1512.8878    506.63656    387.95757    535.77763    38369.369 
  917600    293.98366   -1586.5181    495.75805    237.72504     54.17336    38369.369 
  917700    308.91975   -1555.9341    498.25042    338.29627    -345.7303    38369.369 
  917800    302.62602   -1547.0293    481.09163    301.60154   -231.98214    38369.369 
  917900     301.3966   -1503.0257    490.86653    349.82439    -163.1123    38369.369 
  918000    299.85208   -1464.4946    508.66579     399.1752    -139.3144    38369.369 
  918100    300.14169    -1512.737    515.56796    359.14363   -139.87858    38369.369 
  918200    306.26502   -1484.8957    513.63847    412.72621   -153.19397    38369.369 
  918300    290.03998   -1484.7511    529.19363     355.1065   -379.81011    38369.369 
  918400    292.68179   -1463.6498    516.80094    375.75324   -153.45717    38369.369 
  918500    295.21249   -1497.9786    496.49545    332.55492   -31.770824    38369.369 
  918600    301.52399   -1458.7197    533.53707    437.37656    128.54964    38369.369 
  918700    297.31333   -1454.9504    497.40741    385.98862    313.42705    38369.369 
  918800    312.59576   -1508.7124    485.31204    389.19112    902.16757    38369.369 
  918900    306.04198   -1520.4941    509.41634    371.89779    201.75695    38369.369 
  919000    300.44506   -1517.3646    505.61109     345.9301    209.55973    38369.369 
  919100    298.75481   -1504.9953    516.59539    361.64558    -292.2345    38369.369 
  919200    286.86236   -1483.6232     515.0616    327.74301   -339.85828    38369.369 
  919300    312.57665   -1480.5604    485.87156    417.81626    61.823174    38369.369 
  919400    308.93663   -1467.0047    520.76844    449.81997    86.848581    38369.369 
  919500    298.78305   -1468.6742    501.76988    383.26885   -727.70917    38369.369 
  919600    313.73631   -1476.9384    502.00865    442.81576   -634.53491    38369.369 
  919700    293.39853   -1496.7481    507.01858    336.11143   -804.36238    38369.369 
  919800     292.9177   -1512.5597    489.15038    300.25886   -519.68206    38369.369 
  919900    283.19735   -1504.4137     523.6969    299.02602   -442.45995    38369.369 
  920000    296.05548   -1496.2049    496.64125    338.28384    -140.7463    38369.369 
  920100    313.15046   -1504.0094    521.58911     432.6778    348.92897    38369.369 
  920200    299.20455    -1517.533    508.92442    343.46921    201.54159    38369.369 
  920300    304.77774   -1550.9758    491.75207    318.03884   -24.441041    38369.369 
  920400    296.98905   -1523.0412     499.0211    318.04614   -76.400902    38369.369 
  920500    303.03279   -1503.2495     506.8885    373.01625    -300.2928    38369.369 
  920600    293.27644   -1541.3662    527.08884    311.01186    106.69396    38369.369 
  920700     295.3152   -1512.6372    498.31384    320.17889    72.870348    38369.369 
  920800    296.63104   -1535.2603    500.28899    305.47713   -156.24805    38369.369 
  920900    307.81808   -1545.0335    506.05211    352.02018    365.93899    38369.369 
  921000    306.32094    -1506.207    514.27217    392.30128     875.2084    38369.369 
  921100    302.42845   -1532.3668    496.58687     330.8664    394.85909    38369.369 
  921200    302.50384   -1481.8239    516.25063    401.41374    214.10655    38369.369 
  921300    301.88556   -1499.2308    518.36171    383.32396   -28.413512    38369.369 
  921400    294.67606   -1451.8327    515.81084     395.5922   -392.51105    38369.369 
  921500    308.38863   -1475.6409     508.0301     425.9691   -707.07796    38369.369 
  921600    299.60142   -1464.1096     533.3735    423.13518   -496.37366    38369.369 
  921700     295.2595   -1532.9472    509.59994    310.90328    422.43795    38369.369 
  921800    295.88441   -1481.4716    522.23647     377.8393    416.71123    38369.369 
  921900    300.11101     -1482.98    505.74804     378.9421    176.15833    38369.369 
  922000     309.4542   -1482.4299    505.91422    421.87932    364.73162    38369.369 
  922100    290.86854   -1475.2759    518.67094    357.80322    433.19309    38369.369 
  922200    297.27257   -1487.8365    502.54214    358.05302   -180.27346    38369.369 
  922300    291.80984   -1458.6511    538.98041    398.99114     398.7517    38369.369 
  922400    301.76291   -1501.8866    499.15785    360.91005   -25.989495    38369.369 
  922500    298.25201   -1474.9761    532.74763    405.54488    278.42868    38369.369 
  922600    307.25922   -1478.9587    505.88484    415.40231   -95.942207    38369.369 
  922700    302.91777   -1464.0239    509.02666     413.8603   -481.43952    38369.369 
  922800    305.60012    -1474.132    521.62822    428.47505   -56.950469    38369.369 
  922900    302.29505    -1449.034    526.39602    443.40559   -454.97653    38369.369 
  923000    295.13218    -1497.107    507.79977    344.36794    262.14024    38369.369 
  923100    300.58015   -1449.6624    516.36629    424.99792    658.68182    38369.369 
  923200    298.76312   -1448.4591    527.76753    429.39149    773.71555    38369.369 
  923300    294.52149   -1457.4232      497.369    370.86137    866.47839    38369.369 
  923400    301.48158   -1522.7146    536.78551    376.43845    256.35728    38369.369 
  923500    294.64127   -1500.1306    529.62888    360.95509    476.72235    38369.369 
  923600    298.32319   -1479.5328    521.48992    390.05215    517.06123    38369.369 
  923700    299.45587   -1434.0561    530.95421    450.11166    82.101524    38369.369 
  923800    300.95935   -1434.5352    527.77578    453.24819    332.37031    38369.369 
  923900    313.77764   -1462.0832     513.3483    469.19735    584.74766    38369.369 
  924000     296.4683   -1477.0784    501.18652    363.82109   -43.634796    38369.369 
  924100    308.03806   -1446.7428    524.95242     470.2053   -64.509875    38369.369 
  924200    299.18305    -1464.214    524.57105    412.33776    -274.0552    38369.369 
  924300    292.48904   -1473.0671    499.11352    347.77753   -61.595406    38369.369 
  924400     301.5548    -1489.875    509.90978    382.73316   -389.89222    38369.369 
  924500    296.73509   -1537.0408    524.11291    327.99068   -318.66795    38369.369 
  924600    304.00997   -1512.5132    513.35002    374.62994   -212.42948    38369.369 
  924700    293.14756   -1472.1534    512.11789    364.67142    -248.0109    38369.369 
  924800    294.25628   -1468.8765    545.15127    405.99181   -164.17626    38369.369 
  924900     291.0345   -1495.2617    495.85283    315.74927   -126.13152    38369.369 
  925000    298.94311   -1460.6031    531.14072    421.43407    475.94044    38369.369 
  925100    290.95861   -1523.4413    490.04919    281.42307    103.82673    38369.369 
  925200    309.47631   -1540.9574    495.86674    353.40432    359.54488    38369.369 
  925300    303.10063   -1522.6544    501.06084    348.09034   -442.04085    38369.369 
  925400    289.88283    -1513.183    508.50061    305.27143    -543.4585    38369.369 
  925500    285.74881   -1497.8958    517.54293     310.9197   -87.974262    38369.369 
  925600    293.30806   -1529.0071    529.28011    325.70516    212.81232    38369.369 
  925700    303.58183   -1511.6464     489.2234    349.43536    813.57239    38369.369 
  925800     296.7157    -1493.414    536.79049    384.20741    721.71763    38369.369 
  925900    294.86381   -1473.5604    486.12498    345.02706   -70.404831    38369.369 
  926000    303.83932   -1501.2383    482.74588    354.52956   -396.68724    38369.369 
  926100    294.21663   -1498.5095    473.77349    304.80191   -845.43238    38369.369 
  926200    300.10432   -1514.8657    509.03783    350.31592   -563.83573    38369.369 
  926300    293.96595   -1511.4789    503.00591    319.93215   -138.34476    38369.369 
  926400      286.678   -1467.8248    501.26272    328.90949   -430.06263    38369.369 
  926500     307.3598    -1526.415    507.35997    369.87564    184.01216    38369.369 
  926600    296.87633   -1526.0014    488.44871    304.00412    177.91241    38369.369 
  926700    299.60392    -1547.239    488.94284    295.58637    278.05351    38369.369 
  926800    290.63841   -1496.0668    503.70802    321.00945     452.0951    38369.369 
  926900    301.14039   -1499.1095    490.34526     352.0615    -654.1608    38369.369 
  927000    308.11544    -1478.716    473.61465    387.24398    -108.6263    38369.369 
  927100    292.61989   -1496.5129    528.24558      354.055    580.19732    38369.369 
  927200    296.24579   -1454.1669    479.82012    364.36071    457.66992    38369.369 
  927300    311.36815   -1438.0685    537.27814    506.25367    273.15375    38369.369 
  927400    302.57482   -1503.5967    504.72041    368.43153    242.05942    38369.369 
  927500    299.04832   -1489.6792    509.53354     371.2262    783.71894    38369.369 
  927600    304.50046   -1490.2471    518.17392    403.93636     242.2808    38369.369 
  927700    296.40063   -1474.4457    501.21752    366.17897     128.3156    38369.369 
  927800    296.36691   -1460.9659    509.00611    387.29497    151.18325    38369.369 
  927900    309.51374   -1427.0043    527.87801     499.5379    527.37723    38369.369 
  928000    292.54418   -1431.7199    510.20687    400.46729   -264.16885    38369.369 
  928100    301.15336   -1477.9262    501.59083    384.54895   -239.48986    38369.369 
  928200    298.46964   -1455.5318    481.56601    374.79107   -492.88188    38369.369 
  928300    296.26674   -1446.9802    532.81526    424.63714   -207.60132    38369.369 
  928400    306.82525   -1498.4413    504.77374    392.84754    167.19015    38369.369 
  928500    293.68375   -1469.6126    501.18271    358.69995    27.316761    38369.369 
  928600    304.07612   -1471.7435    512.83268    415.18118     263.1029    38369.369 
  928700    301.86161   -1465.7278    499.89492    398.25201     67.63641    38369.369 
  928800    311.56238   -1476.1828    505.68433    437.42334    255.32021    38369.369 
  928900    291.05504   -1471.5008    498.84811    342.59828    66.193455    38369.369 
  929000    306.39135    -1436.295    488.83517    437.09453    332.85021    38369.369 
  929100    299.16179    -1450.442    497.64696    399.08961   -252.55843    38369.369 
  929200    292.61066    -1441.147    529.55075    410.68439   -456.26082    38369.369 
  929300    307.32801   -1447.7741    498.86072    439.87363    780.03694    38369.369 
  929400    302.68939   -1490.2683    502.80503    380.36221    131.96923    38369.369 
  929500    297.41173   -1465.3713    498.55981    377.16471   -543.03933    38369.369 
  929600    293.14667   -1515.7114    508.94821    317.93963    191.22695    38369.369 
  929700    298.46544   -1490.8873    515.63254    373.48309   -58.065051    38369.369 
  929800    294.98505   -1501.4238    506.67834    338.26485   -232.26442    38369.369 
  929900    306.53323   -1495.4574    489.94323    379.68128   -583.78146    38369.369 
  930000      292.813   -1507.2803    472.88177    288.79647   -211.01344    38369.369 
  930100    300.81484   -1531.9247    466.54492    293.97484   -570.56982    38369.369 
  930200     291.1582   -1451.0738    496.05821    360.70149   -456.72866    38369.369 
  930300    305.03136   -1518.5873    495.74984    355.57119   -239.55324    38369.369 
  930400    299.35991   -1468.2478    514.63919    399.17123   -460.23471    38369.369 
  930500    296.04752   -1495.0724    507.35976    350.09891   -1244.1276    38369.369 
  930600    301.60334   -1499.3357    491.55629    355.13831   -451.18064    38369.369 
  930700    305.52893   -1524.3988    511.20156    367.45985   -448.95029    38369.369 
  930800     300.3577   -1524.2438    484.44164    317.48662     232.7225    38369.369 
  930900     306.1897   -1544.9228    470.76158    309.48184    965.73323    38369.369 
  931000    312.77208   -1529.0087    476.65242    361.03198   -141.43851    38369.369 
  931100    299.78989   -1472.2194     490.8563    373.35987    182.47923    38369.369 
  931200     297.4907   -1494.5308    491.59042    341.39273    217.77062    38369.369 
  931300    295.52588   -1493.4506    523.03439    365.03804     28.04732    38369.369 
  931400    292.12401   -1490.4363    506.06527    335.71051    253.67451    38369.369 
  931500      309.258   -1479.8587    501.32439    418.97415    646.33821    38369.369 
  931600    290.87014   -1509.7327    521.43921    326.12188    129.49228    38369.369 
  931700    305.18658   -1502.0473    491.17458    368.23731    382.54877    38369.369 
  931800    307.78065   -1437.3109     505.9084     459.4299    542.28517    38369.369 
  931900    296.95654   -1452.3559    512.27437    401.83779    254.70202    38369.369 
  932000    303.48261    -1441.252    505.42245    435.58041    242.30644    38369.369 
  932100    297.39186   -1420.2466    501.91699    425.55686   -620.21878    38369.369 
  932200    288.48201   -1417.6169    515.97473    401.98156   -632.52196    38369.369 
  932300    296.16536   -1444.9775    500.92735    394.29388   -161.43918    38369.369 
  932400    307.23786    -1440.839    500.69978    448.24037    359.37956    38369.369 
  932500    300.91206   -1472.6535    502.69295    389.83334    99.286625    38369.369 
  932600    291.34555   -1458.9702    503.48543    361.07895   -192.78471    38369.369 
  932700     290.1179   -1430.8522    510.15847    390.32238   -919.68954    38369.369 
  932800    292.01329   -1467.8983    516.20223    367.88516   -284.23138    38369.369 
  932900    301.07574   -1444.3749    514.57732    430.73602    54.600003    38369.369 
  933000    300.47639   -1484.2742    499.17005    372.72102   -43.363272    38369.369 
  933100    296.75489   -1435.6411    501.37422    406.74113   -151.79655    38369.369 
  933200    294.43966   -1480.2741     526.7342    377.00588   -1522.5852    38369.369 
  933300    307.97909   -1480.7275    494.46645    405.46809   -1031.9301    38369.369 
  933400    306.07787   -1432.3203    492.75638     443.5738   -745.42018    38369.369 
  933500    301.51398   -1437.3427    518.90852    444.07974   -333.42171    38369.369 
  933600    295.64047   -1439.4767    517.61551    414.11086     -1212.93    38369.369 
  933700    292.74429   -1464.2163      488.485    347.15327   -568.73531    38369.369 
  933800    301.80478    -1459.382    503.25977    407.70586   -267.24501    38369.369 
  933900    307.31705   -1469.0928    513.06136    432.70608    191.33277    38369.369 
  934000     304.3027   -1473.7036    485.70723    387.11955    140.23795    38369.369 
  934100    298.21589   -1460.6476     485.2487    372.21129   -73.610507    38369.369 
  934200    304.39914   -1492.2496    541.26066    424.56281    -389.3671    38369.369 
  934300    304.30122   -1486.4415    503.90473    392.57247    275.80596    38369.369 
  934400    304.19363   -1502.9809    480.51795    352.16007   -181.19953    38369.369 
  934500    302.71208   -1483.5936    491.22186    375.55631   -395.95705    38369.369 
  934600    298.22807   -1453.5299    524.91175    419.04702   -1219.8876    38369.369 
  934700    298.06518   -1458.0492     500.5595    389.43938   -679.34709    38369.369 
  934800    305.00638   -1435.4894    514.08373    456.89016   -709.13032    38369.369 
  934900    291.08312   -1443.0041    519.71229      392.086   -317.49108    38369.369 
  935000    301.12085   -1450.0233    500.76927    411.48343   -31.905333    38369.369 
  935100    291.75206    -1468.918    505.23462    354.71737    834.13324    38369.369 
  935200    299.33924   -1481.2215    512.75529    384.22026    619.11002    38369.369 
  935300    302.39231   -1486.3091    530.52336    410.69733    713.46997    38369.369 
  935400    301.09022   -1517.6033    501.56244    344.55822    554.19458    38369.369 
  935500    291.84375   -1463.1231    513.03717    368.72918   -42.069617    38369.369 
  935600    300.33442   -1477.2769    505.42641    385.33318    229.04699    38369.369 
  935700    299.62384    -1483.926    490.71922    360.76579    278.47428    38369.369 
  935800     309.6452   -1461.3677     539.7291    477.61963   -577.51712    38369.369 
  935900    308.52825   -1478.4759    507.99215    423.72707    209.40317    38369.369 
  936000     307.7403   -1521.4941     501.7042    370.86024   -108.05978    38369.369 
  936100    307.38771   -1446.7686    510.74818    453.03635   -150.30563    38369.369 
  936200    303.23093   -1463.7314    507.35553    413.89675    154.31528    38369.369 
  936300     297.4251   -1457.2344    516.94015    403.74242    55.895583    38369.369 
  936400    292.59893   -1454.9272    506.11392    373.41437   -266.84761    38369.369 
  936500    301.04224   -1504.7666    512.97944    368.59505   -477.14327    38369.369 
  936600    291.39263   -1504.2091    510.06015    322.62756   -117.62254    38369.369 
  936700    280.02703   -1519.3406    503.45118    249.52701    235.43943    38369.369 
  936800    307.97389   -1528.6976    486.61422    349.62234    789.45609    38369.369 
  936900    291.22363   -1501.7167    499.67043    313.96656   -148.64925    38369.369 
  937000    299.05824   -1503.9417    502.79449    350.26949   -222.24837    38369.369 
  937100    293.60214   -1496.1114    500.43148    331.08116   -40.066182    38369.369 
  937200    298.10143   -1506.2446     523.1241    363.97244     293.8215    38369.369 
  937300    292.24557    -1503.063    498.56392    316.13183    7.5615286    38369.369 
  937400    301.84442   -1508.9893    502.12307    357.14093    71.991422    38369.369 
  937500    312.23129   -1540.4597     498.1905    368.67525    198.47202    38369.369 
  937600    301.59935   -1475.0948    486.89486     374.6998    624.39868    38369.369 
  937700    304.01454   -1515.3299    510.82147    369.30527    648.46738    38369.369 
  937800    288.11459   -1504.1071    509.36636    307.22255    575.30133    38369.369 
  937900    303.64706   -1489.9415    489.81129    372.02297    445.49021    38369.369 
  938000    305.86061   -1491.7668      493.412    383.80118    509.88269    38369.369 
  938100    303.37826   -1508.4313    491.00009    353.50722   -237.40869    38369.369 
  938200    296.19017   -1510.8789     506.8783    334.45558   -302.14314    38369.369 
  938300    297.41908   -1516.4119    506.99933    334.59691   -765.99103    38369.369 
  938400    288.35849   -1506.5558    507.21233    303.72204   -895.62948    38369.369 
  938500    302.84613   -1498.4731    498.20221    368.26293   -238.48899    38369.369 
  938600    302.66229    -1533.309    508.83375    343.22779   -1334.4596    38369.369 
  938700    294.21765   -1478.2282    512.87163    364.18588   -392.14261    38369.369 
  938800    295.85309   -1507.9371    508.70837    337.70421   -530.14482    38369.369 
  938900    310.42375   -1524.1277     491.6589    370.30762      160.023    38369.369 
  939000    311.90522   -1509.6694    501.68758    401.48918    31.679704    38369.369 
  939100    305.41972    -1492.719    523.43961    410.88419   -73.012829    38369.369 
  939200    290.65134   -1512.8519    508.35375     308.9285    493.52037    38369.369 
  939300    301.54481   -1518.6481    511.20862    355.21385    374.52521    38369.369 
  939400    290.44014   -1533.4225    506.41921    285.46903    374.54289    38369.369 
  939500    299.28197   -1569.0367    484.71797    268.10898    237.06378    38369.369 
  939600    298.64991   -1508.3977     529.7815    370.95525    280.98947    38369.369 
  939700    300.76979   -1493.7735    494.89063    360.26814      328.079    38369.369 
  939800    302.13649   -1482.4225    504.77262    387.67709    498.13213    38369.369 
  939900    304.75843   -1504.3255      499.937    372.78683    589.67179    38369.369 
  940000    293.78073   -1501.6514    505.27786    331.19455      563.587    38369.369 
  940100    300.82274   -1534.4473    507.33019    332.27318    360.90127    38369.369 
  940200    308.85852   -1513.0197    517.80943      400.493    671.35705    38369.369 
  940300    297.44522   -1507.4767    511.50495    348.15586    442.59538    38369.369 
  940400    295.57233   -1502.9846     508.1608    340.84043    11.209298    38369.369 
  940500    306.75334   -1535.3977    513.33197    364.12439   -503.20258    38369.369 
  940600    296.06376   -1542.2671    511.96306    307.58087   -686.35922    38369.369 
  940700     306.1098   -1541.2331    510.61048     352.6594    157.61241    38369.369 
  940800    298.34785   -1524.6457    509.61357    333.17435   -29.180525    38369.369 
  940900    298.68245   -1487.9763    497.49981    359.24206    129.64971    38369.369 
  941000    300.16068   -1535.8149    497.93481    318.51838   -378.19659    38369.369 
  941100    311.14235   -1562.6089    498.39555    341.81025   -413.95893    38369.369 
  941200    291.29879   -1504.1043    524.83963    337.08779   -494.31523    38369.369 
  941300    292.06013   -1559.5831    517.27568    277.48545   -177.84238    38369.369 
  941400    291.87536    -1547.006    502.67144    274.62332   -717.87157    38369.369 
  941500      295.307    -1541.935    509.46724    301.99745   -560.25166    38369.369 
  941600    302.72197   -1535.6846      483.326    315.61415   -241.23376    38369.369 
  941700    297.59264   -1496.3649    520.56742    368.99633   -68.241733    38369.369 
  941800     303.3418   -1519.8678     525.1695    376.07541    207.37139    38369.369 
  941900    295.45631   -1532.9541    500.37177    302.55755    276.49476    38369.369 
  942000    305.87662    -1532.521    494.81151     344.5188   -572.71843    38369.369 
  942100    301.24199   -1557.2137    517.48789    321.55907   -1127.3848    38369.369 
  942200      296.901   -1539.9216     523.0168     324.7635   -948.89867    38369.369 
  942300    295.17455   -1545.7627    520.21401    308.31795   -182.73766    38369.369 
  942400    300.80499    -1529.041      514.986    345.25503   -138.79842    38369.369 
  942500    301.90085     -1533.85    504.01642    334.42862      222.408    38369.369 
  942600    305.62431   -1542.0456    530.35079    369.39328     457.0176    38369.369 
  942700     298.5409   -1504.9865    500.49728    344.58965    276.36049    38369.369 
  942800    294.65263   -1468.4972    514.16012    377.17103   -118.35821    38369.369 
  942900     292.8874   -1459.1692    506.26927     370.6313    50.181853    38369.369 
  943000    303.66326   -1493.3896    508.71279     387.5495   -418.83099    38369.369 
  943100    301.41183   -1476.0432    503.75222     389.7614   -56.481684    38369.369 
  943200    300.49164   -1470.8283    537.83591    424.90166   -639.13913    38369.369 
  943300    306.21429   -1427.6773    542.74556    498.82244   -628.10541    38369.369 
  943400    288.47411   -1438.1592    528.90636    394.33514   -818.42764    38369.369 
  943500     301.3057   -1470.2237    491.45776    382.80675    -531.7066    38369.369 
  943600    297.55506   -1528.3315     537.9446    354.23705    229.97847    38369.369 
  943700    295.80404   -1528.0934    501.36057    309.97839    -302.7212    38369.369 
  943800    300.37812   -1490.1328    504.04592    371.29426    -233.1639    38369.369 
  943900    304.02494    -1481.546    497.96822    390.28291   -457.93781    38369.369 
  944000    291.28097   -1482.0046    494.27603    328.54332   -438.35033    38369.369 
  944100    296.14132   -1517.3728    511.83194    332.69457   -216.16837    38369.369 
  944200    296.20541   -1554.7947    496.40753    280.13788    556.76663    38369.369 
  944300    306.87347   -1540.8597    506.88608    352.75937     632.1965    38369.369 
  944400    295.97992   -1533.7161    524.96964    328.75955    464.66017    38369.369 
  944500    299.37597    -1534.845    522.61981    340.62726    437.18686    38369.369 
  944600    289.73857    -1505.186    495.33805    299.45398    312.25971    38369.369 
  944700    298.13579   -1499.3317    479.24702     327.1635   -436.53524    38369.369 
  944800    302.48039   -1499.4002    507.16732    374.64818   -327.50614    38369.369 
  944900    301.50737   -1486.1653    531.90036    408.21914   -663.50987    38369.369 
  945000    297.48046   -1478.5805    500.05694     365.7633   -675.77182    38369.369 
  945100     306.2744   -1499.5501     504.8516    389.32735   -209.87321    38369.369 
  945200     286.7011   -1500.7227    497.69106    292.54427    -654.5559    38369.369 
  945300     299.6118   -1500.4879     532.2834    385.71365   -344.00393    38369.369 
  945400    302.11896   -1480.3235     495.0861    380.01045   -370.22825    38369.369 
  945500    297.03028   -1467.8294    515.13289    389.55596   -126.62044    38369.369 
  945600    305.06178   -1448.7994    521.94185    451.68855   -267.96115    38369.369 
  945700    298.72848   -1482.6874    492.07735    359.31645   -148.49926    38369.369 
  945800     295.1151   -1434.2733    534.82911    434.15383    141.85491    38369.369 
  945900    304.89625   -1479.5421    497.62851    395.88453   -173.73705    38369.369 
  946000      293.872   -1505.3432    542.14854    364.78589   -655.22333    38369.369 
  946100    289.58326   -1490.7521    532.60638    350.45443   -226.11927    38369.369 
  946200    308.10877   -1481.9561    508.06823    418.42737   -255.59595    38369.369 
  946300    299.59728   -1437.7331    513.90837    430.02783    55.069629    38369.369 
  946400     291.1639   -1440.9348    512.16667    386.97474    365.45584    38369.369 
  946500    299.05983   -1483.0299    540.86949    409.26346   -332.74402    38369.369 
  946600    304.82581   -1467.9718    492.07756     401.5856     67.03577    38369.369 
  946700     310.6935    -1483.547    536.24009    456.68847    282.81952    38369.369 
  946800     290.6732   -1474.4018    498.19143    337.31514   -544.52903    38369.369 
  946900    298.40904   -1466.4664    525.90013    407.91675    124.38608    38369.369 
  947000    287.47256   -1476.1392    504.61326    327.53608   -38.846383    38369.369 
  947100    299.44035   -1476.5488    506.60362     383.1982   -72.050238    38369.369 
  947200    296.72682   -1465.3787    516.30314    391.80562   -376.59728    38369.369 
  947300    297.55813   -1450.8338    523.48521    417.28918    56.199923    38369.369 
  947400    294.89403   -1457.4963    513.62824    388.73098   -87.153785    38369.369 
  947500    295.72729   -1449.6517    530.44082    417.15357    396.68822    38369.369 
  947600    300.87075   -1436.1045    530.06549    453.56826   -237.53647    38369.369 
  947700    300.69613   -1469.0979    527.50832    417.22859   -726.94186    38369.369 
  947800    294.37217   -1416.0358    507.30243    421.50736   -299.17604    38369.369 
  947900     298.4071   -1469.9502    523.21993      401.744   -514.40651    38369.369 
  948000    306.41899   -1454.4749    501.21541    431.41979   -648.03568    38369.369 
  948100    291.84098   -1445.8152    483.49536    356.48271   -591.04373    38369.369 
  948200    297.91392   -1431.9466    502.64941     416.9484   -982.01264    38369.369 
  948300    297.93832   -1509.0774    497.52412    334.80263    -394.3956    38369.369 
  948400    302.04272   -1453.1066    497.55237      409.349    94.576053    38369.369 
  948500    291.21547   -1484.9609    497.45574    328.47079    10.987319    38369.369 
  948600    298.56168   -1490.9635    477.90739    336.11666    369.02085    38369.369 
  948700     303.5294   -1479.9382    499.72509    391.40833    194.37387    38369.369 
  948800    303.10846   -1463.0905    503.47734    410.10609   -12.810312    38369.369 
  948900    308.25401   -1447.6028    546.63181    492.00049     30.50496    38369.369 
  949000    294.42727    -1403.002    489.45194    416.93968    103.80818    38369.369 
  949100     290.8971   -1444.6538    534.02108    403.90455   -192.96428    38369.369 
  949200    300.40911   -1463.3197    513.60895    407.81039    134.55799    38369.369 
  949300    300.73268   -1502.0152    505.52617    362.49424   -200.98267    38369.369 
  949400    303.43289   -1465.1662    520.91141    426.93054    151.48669    38369.369 
  949500    301.05256   -1498.0896    505.60287     367.9421    603.43127    38369.369 
  949600    293.53646   -1419.1942    514.30466    421.57478   -291.30382    38369.369 
  949700    298.61964   -1462.2537    521.51012    408.69116   -438.53692    38369.369 
  949800    295.84473   -1485.1184      513.275     365.0517    208.94536    38369.369 
  949900    297.23746   -1482.3577    514.21886    375.04985    35.124136    38369.369 
  950000    299.21754   -1448.1342    509.32811     413.3305   -215.47604    38369.369 
  950100    307.22257   -1454.0007    528.81034    463.12014   -560.74321    38369.369 
  950200    293.62135   -1491.8569    508.52624    343.51715    -742.7422    38369.369 
  950300    306.72128    -1516.501    508.86807    378.41235   -217.79633    38369.369 
  950400    300.74135   -1504.2564    530.34761    385.11368    70.067267    38369.369 
  950500    300.10111   -1498.8899     490.6221    347.86155   -703.19822    38369.369 
  950600    294.42256   -1504.8084    488.27398    313.93405   -662.30143    38369.369 
  950700    299.92823   -1518.0332    494.27116    331.58607   -985.15887    38369.369 
  950800    298.58835   -1521.9769    502.90462    330.22105    -279.6888    38369.369 
  950900    301.38369   -1531.7922    504.95256    335.08555   -359.66566    38369.369 
  951000    309.30683   -1502.9941    507.20715    401.94212    18.287219    38369.369 
  951100    299.57251   -1516.5466    485.89643    323.09046   -138.06219    38369.369 
  951200    303.46684   -1510.5887     515.9259    376.67591   -788.12253    38369.369 
  951300    296.47885   -1526.3436    485.68303     299.1001    333.41866    38369.369 
  951400      298.339    -1530.296    510.00138    327.87182    123.54004    38369.369 
  951500    288.02097   -1498.6216    531.13495    334.05361   -207.24622    38369.369 
  951600    291.92798   -1486.5731    516.21964    348.84226   -190.49647    38369.369 
  951700    290.19423   -1459.7645    485.55854    337.15511   -340.48762    38369.369 
  951800    302.71451   -1451.4979    533.41303    449.85418   -523.30759    38369.369 
  951900    307.08257   -1465.1116    499.00034    421.56668   -750.99216    38369.369 
  952000     295.6173   -1504.5312    504.26655    335.60276   -724.00831    38369.369 
  952100    304.25909   -1466.9809    495.53605      403.474   -17.460292    38369.369 
  952200    295.45483   -1501.2149    479.04721    312.96549   -239.82038    38369.369 
  952300    301.70449   -1506.4893    519.68436    376.56993    224.44034    38369.369 
  952400    295.00787   -1532.5728    521.74793    322.28854     389.7705    38369.369 
  952500    296.43627   -1496.7285    507.19727    350.03705    -64.39148    38369.369 
  952600    294.25198    -1489.286    506.91877    347.33046   -395.67974    38369.369 
  952700    298.78172   -1450.9525    501.14953    400.36415   -185.05277    38369.369 
  952800    303.31638   -1483.9998    499.16849    385.82755     -923.129    38369.369 
  952900    297.86476    -1481.366    496.10348    360.76094   -450.23912    38369.369 
  953000    293.24958   -1438.8524    510.25417     396.5697   -326.53651    38369.369 
  953100    299.36923   -1515.4894    502.54437    339.87699   -360.27088    38369.369 
  953200    298.26405   -1475.9804    506.13672     377.9841   -215.54931    38369.369 
  953300    292.59104   -1567.1549    483.51289       238.55   -110.87588    38369.369 
  953400    297.07279    -1505.337    487.16564    324.27322     38.00227    38369.369 
  953500    307.66765   -1554.3924    507.01869    342.94811    105.71388    38369.369 
  953600    302.94848   -1554.3064    501.58898    316.27891    562.11307    38369.369 
  953700    300.27637   -1593.1079    495.29246    259.10587     511.5831    38369.369 
  953800    297.14166   -1536.8822     501.1402     307.0138   -131.53753    38369.369 
  953900    293.42785   -1531.2824    511.19269    305.88379   -290.36064    38369.369 
  954000    304.78227   -1517.9622     487.7339    347.05478   -56.388459    38369.369 
  954100    292.13926   -1565.8674    486.81534    241.09845   -52.573613    38369.369 
  954200    294.54744   -1570.8098     480.2837    240.50668   -736.78416    38369.369 
  954300    300.83467   -1555.0639    480.56157    284.94186    21.361125    38369.369 
  954400    295.24304   -1532.3548    491.70644    293.52775   -455.28606    38369.369 
  954500      300.926   -1508.8957    518.79977    369.76101   -75.275589    38369.369 
  954600    295.95167   -1508.0151    510.72485    340.08808    704.84204    38369.369 
  954700    290.98195   -1475.0419    493.24325    333.12205   -26.325371    38369.369 
  954800    289.97261   -1487.8488    497.98176    320.49251    327.28443    38369.369 
  954900    304.71045   -1524.4282    512.62105    365.15133   -150.83817    38369.369 
  955000    314.01469   -1502.7956    482.74484    398.95273   -38.166387    38369.369 
  955100    294.73572   -1455.4574    522.61284    399.03908   -1100.6143    38369.369 
  955200     300.2499   -1466.2136    475.03607    365.62414    -316.4213    38369.369 
  955300    304.43136   -1462.0527    496.30385    409.94844   -489.36252    38369.369 
  955400    302.68854   -1482.6853    493.45006    378.58647   -467.97517    38369.369 
  955500    303.43484   -1473.2849    496.06831    393.97755   -62.322922    38369.369 
  955600    292.85496    -1485.392    504.66187    342.65453   -24.672143    38369.369 
  955700    303.34189   -1469.7385    507.08676    408.12241    193.09702    38369.369 
  955800    303.18301   -1488.9972    499.66562    380.72458    847.70371    38369.369 
  955900    286.63351   -1479.3925    517.58599    333.46393    825.19897    38369.369 
  956000     296.4394   -1510.8998    504.49707    333.17964     757.8853    38369.369 
  956100    300.16129   -1458.7664    517.06971    414.70453    321.95459    38369.369 
  956200    303.33942   -1449.8032     504.9154    425.87519    255.55451    38369.369 
  956300    306.22483   -1473.9092    507.47619    417.36879    -3.720575    38369.369 
  956400    309.52478   -1497.9394    519.05285    419.82753    132.93333    38369.369 
  956500    303.83436   -1481.3132    486.67137     378.3577    316.94029    38369.369 
  956600    294.62166   -1502.2653     519.7059    348.80885   -205.54325    38369.369 
  956700    294.52207   -1510.7859      499.456    319.58821   -714.61667    38369.369 
  956800    308.28206   -1448.7858    520.87497    465.18746     243.7815    38369.369 
  956900    295.54776   -1490.5014    527.67387    372.72563    152.27057    38369.369 
  957000    280.97346   -1483.3083     529.6874     316.0723   -880.66015    38369.369 
  957100    304.58071   -1446.7396    509.25286    438.88541   -519.58483    38369.369 
  957200    292.04829   -1460.0983    517.46412    377.10517   -457.76168    38369.369 
  957300    279.71609   -1463.9613    528.56816    328.61821    171.49247    38369.369 
  957400    296.43695   -1449.7007    503.03865    392.90921    397.86234    38369.369 
  957500    295.08602   -1457.3423    531.45439    407.57867    515.91955    38369.369 
  957600    291.39552   -1471.4638    519.88248     365.2082   -601.21806    38369.369 
  957700    296.74119   -1512.0607    515.25272    344.13812    241.27814    38369.369 
  957800    287.21801   -1471.5161    521.31269    347.70833    145.23041    38369.369 
  957900    308.00317   -1478.2361    563.50564    477.10754    99.171404    38369.369 
  958000    301.15583   -1428.5845    485.14072    417.45169   -584.93449    38369.369 
  958100    303.99027   -1460.1758    530.61816    444.14648   -60.174099    38369.369 
  958200     300.2244   -1457.6837    540.11211     439.1149    249.26833    38369.369 
  958300     310.6357   -1450.0321    504.77269    458.47475    455.85498    38369.369 
  958400    308.49259   -1480.8517    522.30859    435.50658   -135.47157    38369.369 
  958500    315.80222   -1455.5517    491.34093    462.87036    577.74561    38369.369 
  958600    301.40473   -1472.3505    519.90012     409.5699    212.54983    38369.369 
  958700     302.6994   -1428.0324    536.92001     476.7584    355.23027    38369.369 
  958800    300.50866   -1506.2619    505.00275    356.71184    395.17112    38369.369 
  958900    297.49375   -1473.8219    516.18324    386.70823    296.82857    38369.369 
  959000    298.00284   -1429.3197    528.93123    446.25892    458.05592    38369.369 
  959100    312.84166   -1457.3508    511.98333    468.33521    643.81831    38369.369 
  959200    294.61083   -1476.5716    516.85742    371.60511    288.85705    38369.369 
  959300    300.66793   -1437.9327    489.28529    410.04327   -215.33666    38369.369 
  959400    312.28581   -1462.8663    524.11163    472.43619   -68.162391    38369.369 
  959500    308.78144   -1436.6038    498.59673    457.34782    31.456774    38369.369 
  959600    306.04264    -1410.322    486.70064    459.35717   -326.05211    38369.369 
  959700    300.84053   -1430.9668    509.08611    437.58996   -534.60454    38369.369 
  959800    294.21485   -1426.3579    503.12354    406.29552   -66.731375    38369.369 
  959900    305.19099   -1430.7409    536.14769    484.53675    117.04552    38369.369 
  960000    299.51183   -1436.6264    503.81922     420.6593   -447.93216    38369.369 
  960100    288.83199   -1446.6386    519.31651     377.8831   -1028.5071    38369.369 
  960200    288.80691   -1459.1548    510.51115    356.44819   -787.99397    38369.369 
  960300    310.60446   -1424.7298    503.84352    482.70672   -45.273732    38369.369 
  960400    308.56723   -1459.5347    538.58374    473.43598   -148.13429    38369.369 
  960500    291.18366   -1448.2583    483.91916    351.49305   -166.97189    38369.369 
  960600    301.22657    -1464.029    534.14935    431.33551   -250.84517    38369.369 
  960700    293.05143   -1456.8078    480.11952    347.58416   -237.27254    38369.369 
  960800     305.8199   -1451.5803    518.13289    448.52461    235.03894    38369.369 
  960900    297.27418   -1424.5254    506.59237     425.4216   -147.93731    38369.369 
  961000    304.25587   -1438.5732    499.66033    435.99142    361.24886    38369.369 
  961100    310.22644   -1439.9436    493.66653    455.60766    278.21143    38369.369 
  961200    304.97397   -1459.7064    509.52699    427.96988    535.25407    38369.369 
  961300    283.00277        -1436    511.20539    354.06888   -55.171366    38369.369 
  961400    298.00331   -1446.9841    524.26061    423.92606   -278.16842    38369.369 
  961500    308.71855   -1453.1427    524.23013    466.15821   -42.937662    38369.369 
  961600    304.18311   -1470.4464    507.71021    411.83934    278.54349    38369.369 
  961700    292.54907   -1502.0625    524.36759    344.30745   -325.20976    38369.369 
  961800    309.06258     -1474.15    489.88575    412.36113   -929.03874    38369.369 
  961900    286.06683   -1503.7727    514.57467    303.51166   -407.18251    38369.369 
  962000     300.2468   -1520.0218     477.8171    314.58298     52.24428    38369.369 
  962100    291.50151   -1515.8356    496.97397    298.40691   -664.96873    38369.369 
  962200    293.84577   -1495.7609    537.12898    369.23014    86.988099    38369.369 
  962300    302.21217   -1538.1045     484.7508    312.31532   -246.32128    38369.369 
  962400    303.60858   -1490.1191    517.68072    399.54088    298.58116    38369.369 
  962500    297.08943   -1489.7868    482.89372     335.6267    397.09824    38369.369 
  962600     296.1487   -1475.2887      524.512    387.49205    64.122654    38369.369 
  962700    311.38599    -1451.149    531.07738    487.05304   -32.267266    38369.369 
  962800    301.32079   -1484.2263    499.88941     377.3041    484.64636    38369.369 
  962900     300.7368   -1499.9147    503.66268    362.74992    466.87142    38369.369 
  963000    306.38508   -1527.8919    503.95783    360.59195    906.58545    38369.369 
  963100    296.12286   -1454.8911     547.5624     430.8233    467.75892    38369.369 
  963200    294.50637   -1450.6671    502.68423    382.86429    586.86031    38369.369 
  963300    294.14755   -1492.3557    503.65829     340.5283   -45.490758    38369.369 
  963400    301.96154   -1525.3347    513.26909    352.47087    455.34183    38369.369 
  963500     299.1314   -1577.9363     471.7231    245.53403    496.95279    38369.369 
  963600    303.95432   -1576.8179    495.75167    292.47542    29.700283    38369.369 
  963700    309.30798   -1514.5986    483.79716    366.93282    372.38245    38369.369 
  963800    302.18786   -1488.4109    517.45425     394.6025    94.038579    38369.369 
  963900    298.66293   -1484.0408     518.6172    384.20672    1000.0067    38369.369 
  964000    304.76767   -1493.1761    514.25605    398.29707    1194.0857    38369.369 
  964100    297.65577    -1464.651    518.13875     398.5668    388.51254    38369.369 
  964200    303.22785   -1471.0177    483.02028    382.26138    723.99709    38369.369 
  964300    293.48008   -1456.4309    518.22059    387.99918    538.39148    38369.369 
  964400    308.15128   -1482.3799     516.8754    427.00281   -45.782751    38369.369 
  964500    291.62049   -1490.4906    494.79769    322.11321   -597.41569    38369.369 
  964600    309.26934   -1493.7446    522.36427    426.17934    30.538468    38369.369 
  964700    294.90362   -1507.3518     501.6657    326.95625    224.43014    38369.369 
  964800    299.34545   -1547.4798    502.21855    307.45333    359.78443    38369.369 
  964900    298.27466   -1500.2205    490.57018    338.22543    4.1808389    38369.369 
  965000    302.90678   -1476.3751    519.67876     412.1115    154.30451    38369.369 
  965100    300.30368   -1480.3848    485.20742    361.86736   -622.20383    38369.369 
  965200    300.47501    -1482.096    512.74727    388.47023     -681.104    38369.369 
  965300    313.48459     -1474.69    497.72687     439.6449   -244.01965    38369.369 
  965400    307.42476   -1440.9187    496.90269    445.20821   -135.65714    38369.369 
  965500    297.55786   -1437.2535    529.09324    436.47629    65.044582    38369.369 
  965600    298.64142   -1432.7147    534.70009     451.5185    163.89668    38369.369 
  965700    303.51403   -1456.4844    497.60265    412.67025   -263.66007    38369.369 
  965800    301.44097   -1527.3929    518.68101    353.47213    -229.3828    38369.369 
  965900    297.74006   -1498.4819    513.30361    360.28166    259.06398    38369.369 
  966000     301.2639   -1533.5405    509.18508     337.0284    480.34667    38369.369 
  966100    302.06111   -1510.8533    491.60769    345.74076    26.133327    38369.369 
  966200    291.62578   -1444.2913    498.62578    372.16457    17.250176    38369.369 
  966300    298.60612   -1487.5316    519.83772    381.67974   -118.75625    38369.369 
  966400    289.50092   -1462.4757    497.59426    343.34662   -222.59095    38369.369 
  966500     314.5003   -1469.0916    507.22846    459.33475    273.31942    38369.369 
  966600    304.98453   -1486.8351    498.28927    389.65126    296.72885    38369.369 
  966700    301.42203   -1510.6118    514.53139      366.018    501.24214    38369.369 
  966800    302.70807   -1513.3004    464.04395    318.65343    3.8385301    38369.369 
  966900    302.40619   -1504.9049    491.24965    352.89048    290.42516    38369.369 
  967000    300.47532   -1488.4636    522.78395    392.14068   -207.85389    38369.369 
  967100    295.12201   -1493.1603    489.11284    329.58175   -108.50032    38369.369 
  967200    297.99039   -1471.3311    476.04292    351.30295    599.41481    38369.369 
  967300    305.40024   -1467.0242    503.53752    416.58887    17.965523    38369.369 
  967400      297.757   -1485.7765    528.76216    388.52215    33.813949    38369.369 
  967500     313.6204   -1483.6099    481.90094    415.51283    458.36833    38369.369 
  967600    305.46833   -1471.8662    486.27809    394.79517    679.58264    38369.369 
  967700     290.9752   -1492.7681    487.14451    309.26656    219.45539    38369.369 
  967800    288.38059   -1537.9549    491.34795    256.55841    101.26868    38369.369 
  967900    289.84822   -1534.7505    486.89515    261.94215    163.55575    38369.369 
  968000    292.87164   -1537.5672     474.5139    260.40666   -223.27349    38369.369 
  968100    306.15091   -1514.8227    487.63317     356.2783   -904.75464    38369.369 
  968200    302.71444   -1524.9033    474.60839    317.64381   -317.65336    38369.369 
  968300    312.56984   -1538.4466     498.1751    372.20284   -322.57484    38369.369 
  968400      307.258   -1520.1614    502.16725    370.47647   -537.40019    38369.369 
  968500     304.6155   -1482.7984    510.58307    404.31407    -202.1761    38369.369 
  968600    310.17144   -1501.5218    489.85883    389.97324   -78.448744    38369.369 
  968700    295.86217   -1499.2922    481.21271    318.89447   -659.68375    38369.369 
  968800     309.6545   -1490.7016    508.42884    417.02747   -673.63317    38369.369 
  968900    292.90132    -1544.151    472.14953     251.5927   -162.21438    38369.369 
  969000    295.74908   -1542.1812    506.51341    300.79511   -188.33048    38369.369 
  969100    299.65377   -1571.2771    465.89769    248.72846    336.64109    38369.369 
  969200    314.08774   -1534.5625    491.83016    376.60127    172.76129    38369.369 
  969300     299.9274   -1552.7336    475.63341    278.24411     214.0165    38369.369 
  969400    313.11549   -1568.6113    482.95596    329.28478     35.68714    38369.369 
  969500    302.13198   -1524.0528    513.10421    354.35807    7.9004921    38369.369 
  969600    292.44883   -1505.7558    501.78859    317.58221    -61.75642    38369.369 
  969700    287.58956      -1501.3    487.90882     286.1996    6.3404312    38369.369 
  969800    298.32356   -1544.2392    489.82135    293.67888    314.13595    38369.369 
  969900    294.34864   -1487.8759    499.61407    341.87265     569.3909    38369.369 
  970000    297.22529   -1521.8624    492.49104    313.76242    320.92846    38369.369 
  970100    300.96313   -1488.2964    483.57417    355.30248    95.259712    38369.369 
  970200     306.8857   -1459.4853    504.07238    431.37536    247.89092    38369.369 
  970300     296.7855   -1483.4176    478.33103    336.05979    397.63543    38369.369 
  970400    289.60483   -1477.4614     518.6341    349.87035    646.40431    38369.369 
  970500    301.57653   -1487.0551    460.50572     336.2472    569.92764    38369.369 
  970600    298.18071   -1443.7489     519.0896    422.79198    412.13003    38369.369 
  970700    301.06596    -1472.719    517.90801    405.67839     321.2443    38369.369 
  970800    290.23572   -1461.3115    490.98744    341.22444      330.685    38369.369 
  970900     287.0058   -1473.8488    508.32174    331.42572    690.60067    38369.369 
  971000    303.78637   -1513.9561     498.3505    357.17706    316.73693    38369.369 
  971100    294.09909   -1477.1708    483.70931    335.54521   -559.20167    38369.369 
  971200    304.03178    -1474.334    490.32391     389.8816   -748.46244    38369.369 
  971300    297.87283   -1535.9873    491.76838    301.84098    167.74428    38369.369 
  971400    304.42612   -1504.7878    461.93299    332.81882    398.63329    38369.369 
  971500    303.84288   -1517.1515    482.92432    338.81089    566.12451    38369.369 
  971600     306.3627    -1507.989    485.56613    362.00199    534.65172    38369.369 
  971700    295.69739   -1499.7044    491.18434    327.70919    224.50157    38369.369 
  971800    314.56657   -1490.9594    499.36087    429.89888   -234.95205    38369.369 
  971900     301.4296   -1460.9672    487.90244    389.06791   -410.93987    38369.369 
  972000     302.9253   -1458.8495    492.73928     402.7813   -656.39205    38369.369 
  972100    291.26262   -1497.3946    480.51958    299.31395   -584.79545    38369.369 
  972200    287.23749   -1460.4847    484.35828    321.87337    20.033416    38369.369 
  972300    290.07644    -1507.969    463.58551     266.4453    624.06604    38369.369 
  972400    303.44809   -1515.2074    473.29913    329.34576    323.31027    38369.369 
  972500    293.53937   -1500.0965    467.81581    294.19675   -670.80602    38369.369 
  972600    301.48383   -1479.7215    473.16191    355.81807   -130.04103    38369.369 
  972700    300.74436   -1516.6238    496.17776     338.5901    187.02262    38369.369 
  972800    298.50057    -1518.304    493.76233    324.35496    566.86009    38369.369 
  972900    309.90278   -1488.4746    502.36719    414.31476    399.80418    38369.369 
  973000    310.68939    -1475.665    492.05469    420.36643    621.09133    38369.369 
  973100    307.03852   -1468.8419    499.48284    418.11982    261.07388    38369.369 
  973200    306.76169   -1512.8871    520.68127    394.02204    728.46462    38369.369 
  973300    304.69808   -1518.2358    494.69396    353.36071    729.50806    38369.369 
  973400    300.07556   -1504.7066    484.29013     335.5974     482.4722    38369.369 
  973500    294.80344   -1512.5464    487.55971    307.20299    164.48211    38369.369 
  973600    307.77035   -1486.3184    499.03475    403.50224   -260.54738    38369.369 
  973700    298.61693   -1492.5535    477.78801    334.65698    106.95945    38369.369 
  973800    293.42989   -1499.0072    494.11089    321.08641   -109.04157    38369.369 
  973900    288.85239   -1479.8623    496.37764    321.81268     466.0349    38369.369 
  974000    296.13172   -1418.0354    535.02657    455.18322    430.51094    38369.369 
  974100    289.50141    -1525.433    497.79522    280.59248     63.64216    38369.369 
  974200    297.47468   -1505.5554    493.95271    332.65807   -21.444635    38369.369 
  974300    296.63233   -1482.0911    514.89936    373.26245    244.11681    38369.369 
  974400    300.71392   -1481.8459    498.42182    375.47447    251.42807    38369.369 
  974500    298.33315   -1476.0626     494.3877    366.46515   -188.35251    38369.369 
  974600    298.14381   -1456.3867     494.5456    385.44338   -179.92689    38369.369 
  974700     305.5675   -1469.6362    519.81729    431.01255   -464.87903    38369.369 
  974800    288.41914   -1467.8984    504.63785    340.07899   -334.36073    38369.369 
  974900     290.8096   -1454.9967    517.42285    376.56796   -164.79594    38369.369 
  975000     300.9834   -1449.6777    491.78242    402.22109    155.08974    38369.369 
  975100    289.17135   -1429.4923    536.03313    413.27952    425.37085    38369.369 
  975200    302.80842   -1506.8563    512.13365    373.64074   -46.390788    38369.369 
  975300    299.41801   -1441.1353    507.90628     419.8134    82.169341    38369.369 
  975400    303.02433   -1479.6822    485.45324    375.11012    374.35065    38369.369 
  975500    306.76033   -1473.2229    468.20795    381.20671    227.31732    38369.369 
  975600    292.74805   -1481.4404    489.76655    331.22769   -508.19206    38369.369 
  975700    304.79506   -1477.9866    502.10403    401.45831   -444.01242    38369.369 
  975800    303.46522    -1494.718     484.6446    361.25798   -375.38959    38369.369 
  975900    305.97999   -1473.7426    479.01315    387.96598   -343.70716    38369.369 
  976000    294.18185   -1431.8659    498.17543    395.69031   -1244.6885    38369.369 
  976100    303.66654   -1486.2947     480.7928    366.73927   -701.38285    38369.369 
  976200    295.96368   -1454.0537    504.05615    387.43507   -685.65231    38369.369 
  976300    299.99835   -1476.8154    492.06811    370.91767   -577.05312    38369.369 
  976400    294.59626   -1464.8932    511.83679    378.19696    12.838438    38369.369 
  976500     292.2442   -1531.5682    489.29256    278.34898   -673.37001    38369.369 
  976600    305.73181   -1477.9336    488.73387    392.37423   -286.54524    38369.369 
  976700    295.96288   -1462.5839     492.8053    367.65042   -822.02879    38369.369 
  976800    306.29774   -1470.0327    485.52172    399.62033   -809.18707    38369.369 
  976900      303.682   -1489.3409    494.40148    377.37162   -386.76039    38369.369 
  977000    287.95749   -1429.0836    496.33215    368.50191   -898.42753    38369.369 
  977100    305.12961   -1433.2195    486.67445    432.30757   -327.92099    38369.369 
  977200    303.51282    -1470.503    484.94044      385.984    394.46026    38369.369 
  977300    306.73434   -1477.7812     501.3695    409.69252    289.45811    38369.369 
  977400    301.92897   -1442.9722     490.0484    411.46549    137.39097    38369.369 
  977500    301.46381   -1449.6179    492.12798    404.79732     255.4423    38369.369 
  977600    297.88071   -1413.5683    496.95299    429.48021    280.03944    38369.369 
  977700    303.34252   -1449.0265    466.88211    388.63252    390.34649    38369.369 
  977800    295.02394   -1478.0887    493.34545    348.44277    384.29645    38369.369 
  977900    313.00163   -1458.1325     501.2926    457.58569     248.8695    38369.369 
  978000    289.38474   -1504.1014    477.62606     281.2277    27.916554    38369.369 
  978100    297.54199   -1421.8348     490.3382    413.06834   -183.08356    38369.369 
  978200    304.47299   -1437.7721    505.04054    443.15392    -521.7048    38369.369 
  978300    305.74026   -1421.4171    504.67684    464.87182   -852.37809    38369.369 
  978400    301.75632   -1459.8003    498.65778    402.46653   -453.76324    38369.369 
  978500    293.25726   -1458.2536    493.46362    360.41265   -200.86387    38369.369 
  978600    304.85639   -1435.7362    508.19675    450.07851   -411.52049    38369.369 
  978700    313.25132   -1415.9529    487.26645    486.86748    37.706067    38369.369 
  978800    292.68706   -1415.9038     490.6399    397.36197    22.485788    38369.369 
  978900    310.09921   -1437.7487    499.14191    462.70303    551.99736    38369.369 
  979000    300.81269    -1402.778    511.78016    468.34705    208.41604    38369.369 
  979100    296.14603   -1427.2602    516.92194    427.91842    601.84903    38369.369 
  979200    304.55997   -1420.2213    496.52118    452.57837    678.88047    38369.369 
  979300    296.24291   -1439.4254    475.61213    374.88123    584.09925    38369.369 
  979400    302.46573   -1419.2524    500.24997    447.81243    131.69902    38369.369 
  979500    306.77417   -1438.5138    489.34653    437.11693    50.423839    38369.369 
  979600    292.68314   -1462.4072    485.53013    345.73116    509.79462    38369.369 
  979700    292.58094    -1445.921    513.35108    389.57645    555.39733    38369.369 
  979800    298.75255    -1490.009    499.77867    359.80502    42.398421    38369.369 
  979900    296.26164   -1464.5749    511.91147    386.11566   -212.74163    38369.369 
  980000    311.06974    -1500.136    482.57688    388.13643   -33.422563    38369.369 
  980100    298.61629    -1460.735    485.02005    373.70459    625.53056    38369.369 
  980200    299.72044   -1466.2011    510.94967    399.15766    337.25978    38369.369 
  980300    296.78028   -1495.6426    498.13434    343.61454    199.31809    38369.369 
  980400     304.6406   -1483.4751    472.29176     365.4595   -118.67597    38369.369 
  980500    306.06067   -1476.0874    501.18431    408.15689    107.60905    38369.369 
  980600    299.29038   -1458.4174    483.41414    377.46243   -116.95993    38369.369 
  980700     302.9219   -1450.7915     496.1259    414.21058   -814.02766    38369.369 
  980800    303.06848   -1410.6703    503.52528    462.39354   -867.52997    38369.369 
  980900    294.86695   -1427.3887    489.09444    394.18234   -508.51856    38369.369 
  981000    310.59584   -1439.5416    469.63708    433.64955    -368.8207    38369.369 
  981100    306.90961    -1461.347    484.00637    409.55567    112.30591    38369.369 
  981200     303.1337   -1481.7013    474.14013    362.27212    239.78459    38369.369 
  981300    308.94741   -1473.1115      468.975    391.96844   -45.175456    38369.369 
  981400    301.40576   -1439.4302    508.10243    430.69714   -269.34312    38369.369 
  981500     309.0335   -1449.5821     476.4102    423.32205    470.23325    38369.369 
  981600    302.61329   -1481.5315    498.28426    384.23439    408.47883    38369.369 
  981700    308.70898   -1418.0756    482.80467    459.75655    423.30103    38369.369 
  981800    306.42561   -1404.6021    505.53702    485.64407    122.28007    38369.369 
  981900    299.18837   -1416.2892    480.96684     416.6824    474.36447    38369.369 
  982000    300.08492   -1466.7195    509.21602    398.55272    249.67848    38369.369 
  982100    289.59646   -1432.4628    487.20406    363.40106    584.20153    38369.369 
  982200    299.16722   -1489.9255    482.35715    344.34082    242.67212    38369.369 
  982300    303.93577   -1467.4908    502.90457    408.87154    335.76546    38369.369 
  982400    296.38725   -1458.3583    500.90586    381.89429    499.72258    38369.369 
  982500    296.48808   -1412.9016    487.58987    414.49064    274.08209    38369.369 
  982600    287.57144   -1443.9656    504.14719    359.69049    812.33139    38369.369 
  982700    303.01444   -1411.2787    497.79199    455.80766    130.67227    38369.369 
  982800    297.65479   -1370.3485    496.54862    471.27468    310.41917    38369.369 
  982900    297.30834    -1403.737    479.06951    418.84161    369.78519    38369.369 
  983000     295.5902   -1406.8434    516.87959    445.78113    300.22441    38369.369 
  983100    291.11769   -1418.5023    513.43312     410.4649    573.22307    38369.369 
  983200    298.42141   -1473.2761    508.38325    383.64609    390.08479    38369.369 
  983300    295.49425   -1453.2177    486.37365    368.46725    276.41724    38369.369 
  983400    305.14212   -1461.5571    529.69799    447.05002   -57.829978    38369.369 
  983500    302.65973   -1467.3432    508.80449    409.15275   -244.60911    38369.369 
  983600     307.5017   -1499.8179    489.89073    379.64474   -446.15511    38369.369 
  983700    298.75745    -1504.559    450.64116     296.1396   -217.67738    38369.369 
  983800     310.1099   -1475.0974    487.08778    413.34854   -507.51245    38369.369 
  983900    300.49834   -1475.8815     473.1793    355.22213   -49.174253    38369.369 
  984000     293.9432    -1492.687    483.16999    318.78527   -692.14127    38369.369 
  984100    302.28318   -1483.5116    502.24526     384.7235    193.41302    38369.369 
  984200    291.20955   -1445.4941    482.51376    352.96881   -371.53678    38369.369 
  984300     300.9271   -1457.9284    498.71841    400.65192   -168.00137    38369.369 
  984400    303.58821   -1473.5437    478.02668    376.37013    530.87865    38369.369 
  984500    294.16556   -1440.6084    492.49597    381.19465   -169.65068    38369.369 
  984600    289.84034   -1433.9157    516.65397    392.50011    -191.9666    38369.369 
  984700    297.62258   -1422.4087    497.81396    420.33436    302.56875    38369.369 
  984800    292.49261   -1488.8529    487.13905    320.03339    105.10579    38369.369 
  984900    306.72299    -1473.081    483.95164    396.92364   -24.182703    38369.369 
  985000    295.18458   -1415.6375    473.06585    391.34036   -317.73567    38369.369 
  985100    293.22564   -1461.1965    482.71797    346.58116   -505.68242    38369.369 
  985200     307.9123   -1451.0488     492.1486    432.52717    274.05508    38369.369 
  985300    295.91166   -1446.9263    475.25002    365.52131    234.76273    38369.369 
  985400    303.98745   -1429.3077    508.42302     452.8066    -29.72887    38369.369 
  985500    301.14248   -1423.5323    477.86481    415.16764   -211.46956    38369.369 
  985600     297.2788   -1460.7887    469.02615    351.61295   -178.56601    38369.369 
  985700      299.168   -1476.6948    492.33581    367.55366   -238.31178    38369.369 
  985800     287.4603   -1476.0052    496.21261    319.21408     -444.158    38369.369 
  985900    275.72675   -1423.9323    493.68459    315.73613   -480.45197    38369.369 
  986000    299.19228   -1413.9683    505.09704     443.1511    72.379055    38369.369 
  986100    296.58143   -1433.8681     488.9525    395.30862    491.52745    38369.369 
  986200     297.1478   -1420.0043    461.84032    384.61963     53.27527    38369.369 
  986300    299.29649   -1486.8872    495.62138    361.22751    990.86353    38369.369 
  986400    302.33322   -1499.1281    482.76509    349.85305    460.60222    38369.369 
  986500    313.16386   -1502.1853    471.83235    384.80575    537.13607    38369.369 
  986600    296.69052   -1488.1576    461.77945    314.33901    509.94066    38369.369 
  986700    299.82603   -1475.7973    499.39934    378.48827    350.83939    38369.369 
  986800    297.71499   -1473.0588     466.5223    338.81021    278.53683    38369.369 
  986900    303.96251   -1479.5032    456.51578    350.59119    282.09072    38369.369 
  987000    299.35874   -1432.3642    488.12171     408.5321    76.151835    38369.369 
  987100    306.28755   -1490.8979    488.17285    381.36018    91.210925    38369.369 
  987200    300.92264   -1489.8155    492.26345    362.28966   -252.93985    38369.369 
  987300    295.05671   -1502.6104    483.31314     314.0369   -97.757063    38369.369 
  987400    300.64641   -1495.0012    484.88446    348.47674   -613.22693    38369.369 
  987500    308.66332   -1492.1571    465.38326    368.04731    -304.7625    38369.369 
  987600    301.64163   -1465.0889    472.19761    370.19954    -314.6714    38369.369 
  987700    287.94467   -1448.0668    467.19727    320.32592    -301.0726    38369.369 
  987800    297.61545   -1439.8123    499.53397    404.61855    192.34046    38369.369 
  987900    307.44991   -1459.1905    472.53992    402.68732    432.49332    38369.369 
  988000    295.52145   -1466.6146    490.57926    359.39889    318.30661    38369.369 
  988100    292.25262   -1465.7816    471.33267    326.21378   -227.41362    38369.369 
  988200    301.29003   -1513.4555    461.15214    309.19858    6.7277813    38369.369 
  988300    312.83417   -1515.6517    446.75628    344.77346   -336.09157    38369.369 
  988400    306.04392   -1458.4723    501.28861     425.8006    181.39395    38369.369 
  988500    311.24863   -1431.1782    469.05926      444.385    482.46299    38369.369 
  988600    296.99054   -1419.3383    490.19607    412.93071    67.615442    38369.369 
  988700    287.55029   -1449.1556    470.45707    320.71482   -238.78138    38369.369 
  988800    301.98278   -1428.9469    485.07612    420.76165   -801.84842    38369.369 
  988900    304.97658   -1444.7726    503.91356    437.30208   -541.79835    38369.369 
  989000    295.03383   -1399.0329    459.76844    393.96625     185.6122    38369.369 
  989100    303.68054   -1369.1631    501.37587    504.51722     80.39898    38369.369 
  989200    300.97312   -1439.6645    486.79911    407.20444    379.88554    38369.369 
  989300    300.51191   -1438.4241    470.02385     389.5854    474.32253    38369.369 
  989400    297.35628   -1441.2866    467.12818    369.56727    583.26573    38369.369 
  989500    301.07418   -1448.9955    487.80612    399.33712    610.03136    38369.369 
  989600    302.71517   -1483.8217    482.44521    366.56554    963.72269    38369.369 
  989700    292.99484   -1455.8206    488.47191     356.6681    1041.7895    38369.369 
  989800    297.20504    -1465.809    478.66311    355.89632    874.06326    38369.369 
  989900    305.44835   -1423.8863    465.01303    421.41968    771.82895    38369.369 
  990000    304.92609   -1461.9183    468.12858    384.14327    233.83112    38369.369 
  990100    302.57688   -1473.6365    470.58759    364.26821    404.20755    38369.369 
  990200    295.31978   -1473.1017    487.02096    348.44215     277.1684    38369.369 
  990300    304.83793   -1459.3759    475.72694     393.8856    400.61127    38369.369 
  990400    296.42521   -1429.8405    490.69774    400.37552   -350.18623    38369.369 
  990500    295.10579   -1456.9782    483.45222    360.02998   -529.01227    38369.369 
  990600    295.58547   -1460.3534    474.97993    350.35011    20.547991    38369.369 
  990700    299.63986   -1453.5464    469.53301    370.03153    239.34841    38369.369 
  990800    297.77942   -1435.2343    492.21666    402.62014    287.20348    38369.369 
  990900    306.06835   -1418.1883    472.12618    437.03267    -102.7441    38369.369 
  991000     290.5754   -1378.6668    499.56779    433.98453   -10.218759    38369.369 
  991100    302.05423   -1398.1583    486.37161    453.16859   -40.261257    38369.369 
  991200    300.37489   -1403.6899    497.69885     451.3754    235.03112    38369.369 
  991300    301.56963   -1402.9173    513.78901    473.63718   -309.55142    38369.369 
  991400    297.09372   -1393.1828    483.75261    433.10898   -495.56768    38369.369 
  991500    295.08579   -1430.7261    503.62925    406.36874   -511.38647    38369.369 
  991600    293.08753   -1481.2288    430.40181    273.60862   -1018.5426    38369.369 
  991700    302.26754   -1417.2543    512.34662    461.01157   -594.30372    38369.369 
  991800    297.73408   -1410.9325    466.10594    400.60641   -583.58253    38369.369 
  991900    297.26426   -1420.6607    456.89224    379.54135   -644.89715    38369.369 
  992000    309.57334   -1486.3026    448.08401    360.71486   -388.56687    38369.369 
  992100     299.4421   -1494.9973    471.28243    329.43643    10.457205    38369.369 
  992200    299.00674   -1493.3608    491.29096    349.11408   -15.433558    38369.369 
  992300    302.02766   -1453.0376    480.39097    392.18863    443.43721    38369.369 
  992400    293.32254   -1487.2875    473.79133    312.00144   -415.16294    38369.369 
  992500    300.31804   -1469.5242     490.1109    377.69631   -302.23614    38369.369 
  992600    294.32843   -1462.3092    478.75403    346.48791   -731.17338    38369.369 
  992700    296.05793   -1433.3116    471.53116    376.07811   -328.92831    38369.369 
  992800    290.97619   -1478.0194    476.85824    313.73354   -329.49506    38369.369 
  992900    311.18362   -1473.5808    499.84946    432.47881    450.09664    38369.369 
  993000    303.38476   -1411.4205    495.62505    455.17241    46.826341    38369.369 
  993100    294.36975   -1472.4977    501.55916    359.29124    175.05668    38369.369 
  993200    304.83362   -1481.9037    473.71736    369.32875   -286.74353    38369.369 
  993300    299.88126   -1504.2209    470.95807    321.87303   -269.05028    38369.369 
  993400    286.23595   -1454.5281    497.70544    336.65128   -340.13722    38369.369 
  993500    307.18253   -1436.6194    514.14585    465.65602    359.69194    38369.369 
  993600     290.3782   -1428.2151    506.21692    390.19421    606.65667    38369.369 
  993700    293.42263    -1448.092    511.39774    389.25566    491.97855    38369.369 
  993800    306.47699    -1430.138    509.76936    464.57266    310.95856    38369.369 
  993900    306.59546    -1430.329    494.39421     449.5419    149.90783    38369.369 
  994000    306.91865   -1450.5628    499.99399    436.36834   -356.63111    38369.369 
  994100    294.02163   -1420.9031    499.94693    407.70048   -513.65352    38369.369 
  994200    307.21928   -1441.3235    498.04827    445.02046    187.78144    38369.369 
  994300    296.71586   -1445.3362    497.88499    393.38051   -90.295457    38369.369 
  994400    295.01486   -1419.2613    503.82897    417.71272    175.00055    38369.369 
  994500    287.28542    -1454.272    489.88017     333.8246    91.177616    38369.369 
  994600    298.70612   -1441.0583    505.24612    414.01328   -173.56403    38369.369 
  994700    313.09027   -1436.8344    497.73863    475.73034    -293.5515    38369.369 
  994800    289.79065   -1428.7866     489.8968    370.64755    69.149378    38369.369 
  994900     301.1415   -1424.0688    490.44358    427.20548   -71.721007    38369.369 
  995000     294.3706   -1444.8417    513.29645    398.68836    8.0145424    38369.369 
  995100    296.08928   -1467.2049     490.8233    361.61863   -94.503297    38369.369 
  995200    297.98709   -1458.4621    496.84392    384.95806    577.12196    38369.369 
  995300    291.13029   -1469.6568    500.57413     346.5084    615.01464    38369.369 
  995400     293.0069   -1483.1815    480.71644    321.60614    666.60196    38369.369 
  995500    300.66635   -1442.3035    483.54903    399.92916    564.75007    38369.369 
  995600     306.0016    -1424.147    496.42905    455.07515     532.1726    38369.369 
  995700    299.58969   -1471.9951    479.57192    361.39505    40.432192    38369.369 
  995800    298.24388   -1502.1147     472.0274    317.64932   -264.26122    38369.369 
  995900    299.75089   -1436.4039    515.84841    433.99118   -538.56207    38369.369 
  996000    292.50416   -1390.6132     516.5851    447.77132   -605.18447    38369.369 
  996100    314.02994   -1466.0238     489.9677    443.01638   -82.543567    38369.369 
  996200     305.0547   -1475.6973    513.95002    416.76687     646.6496    38369.369 
  996300    308.21088   -1483.9084    485.91018    394.77837    760.75733    38369.369 
  996400    288.98648   -1446.6679    513.53498    372.77042    620.65677    38369.369 
  996500    300.43223   -1448.1848    501.91276    411.35357    916.61061    38369.369 
  996600    304.82367   -1444.0919    499.59242    432.97062    906.21045    38369.369 
  996700    291.61654   -1462.6846    512.48149    367.58515    413.39902    38369.369 
  996800    289.75488   -1440.6109    484.15708    352.92183    298.82023    38369.369 
  996900    306.36745   -1395.2635    510.22408    499.40689    299.86344    38369.369 
  997000    294.55758   -1446.2582    484.45387    369.27432    14.011256    38369.369 
  997100    297.36225   -1444.7242    499.45871     398.4872   -71.184885    38369.369 
  997200    282.35559   -1450.3106    493.83499    319.46334   -282.01995    38369.369 
  997300    298.81153   -1465.7708    498.31057    382.84163    572.38626    38369.369 
  997400    306.21195   -1466.9006     489.2894    406.13246    420.02797    38369.369 
  997500    304.48703   -1505.1183    491.93603    362.76662    141.86912    38369.369 
  997600    306.81257   -1469.1582    473.38825    390.68782     9.583623    38369.369 
  997700    299.89641   -1481.3883    482.52599    356.34192   -124.90104    38369.369 
  997800    298.67171   -1466.6469      491.445    374.46811    3.4578583    38369.369 
  997900     292.1826   -1514.8921    483.01829    288.47243   -568.57332    38369.369 
  998000    304.99565   -1496.3986    485.55208    367.40075   -442.64052    38369.369 
  998100    295.23022   -1441.3906    476.82162    369.54924   -816.38845    38369.369 
  998200    299.18947   -1430.3375    488.89844    410.57061   -385.30539    38369.369 
  998300    314.74255   -1512.2972    499.46687    409.46235   -211.18872    38369.369 
  998400    301.36578   -1482.2605    513.08286    392.66662    449.95015    38369.369 
  998500    298.21157   -1494.4313    484.32898    337.48831    198.80324    38369.369 
  998600    296.55466   -1557.3806    509.67116    292.39375    264.84852    38369.369 
  998700    310.15524   -1522.1879     492.1079    371.48307    54.655823    38369.369 
  998800    294.17748     -1529.23    476.09565    276.22658    236.61291    38369.369 
  998900    295.06503   -1507.7483    475.67074    301.29419    167.01072    38369.369 
  999000    305.54197   -1513.1819    510.43447    377.96861    64.424318    38369.369 
  999100    297.90217   -1529.0598    497.64716    314.77984    418.59105    38369.369 
  999200    301.55055   -1500.1575    482.47052    344.99223    2.2640902    38369.369 
  999300    293.13027   -1460.4536    502.50813    366.68326    297.56365    38369.369 
  999400    307.43122   -1494.9867    496.41948    390.68622   -172.56859    38369.369 
  999500     290.1683   -1519.8939    509.36085    300.71083   -289.47069    38369.369 
  999600    298.87461   -1512.7249    488.52379    326.38572   -226.51091    38369.369 
  999700    301.99677   -1488.9275    495.86382    371.63196   -786.87691    38369.369 
  999800    292.21061   -1505.5121    490.90901    305.86975   -938.03641    38369.369 
  999900    304.13942   -1451.7329    480.34419    402.98939    235.83831    38369.369 
 1000000    303.33105    -1467.981    494.41923    397.16337    424.34178    38369.369 
 1000100    294.88442   -1481.4959    503.78665    354.84638    117.61688    38369.369 
 1000200      301.093   -1461.8483    493.31249    392.07573   -367.25866    38369.369 
 1000300    304.56159   -1459.1905    494.24662    411.34197   -500.97146    38369.369 
 1000400    306.59624   -1477.6441    502.65427    410.49035   -149.44311    38369.369 
 1000500    300.30313   -1499.1684    501.94108    359.81497    526.44242    38369.369 
 1000600     298.2112   -1477.0942    487.40901     357.9038    415.98096    38369.369 
 1000700    308.50539   -1517.2406    480.80379    357.67073    96.209851    38369.369 
 1000800     291.3395   -1451.4348    518.41662    383.51825    637.12861    38369.369 
 1000900    295.44516   -1443.8989    523.55788    414.74851    4.8596603    38369.369 
 1001000    314.71928   -1496.3051    489.85554    415.73793   -292.21573    38369.369 
 1001100    290.89426   -1466.4027    509.97804    358.09972   -582.01959    38369.369 
 1001200    292.39804   -1454.0336    493.36845    360.65468   -392.28734    38369.369 
 1001300    301.03929   -1450.3964    515.29798    425.27045     40.46408    38369.369 
 1001400    301.11434   -1496.5683    535.43532    399.57502    112.32222    38369.369 
 1001500     308.1546   -1462.5835    498.86618    428.80502    310.17324    38369.369 
 1001600    308.35195   -1474.4142     495.1637    414.16363    507.59273    38369.369 
 1001700    295.89537   -1466.7609    505.17913    375.54219    480.64366    38369.369 
 1001800    288.58773   -1468.5478    538.51149     374.0651    483.07268    38369.369 
 1001900    297.82767   -1472.2617     473.4677    347.06185    642.26837    38369.369 
 1002000    297.42776   -1485.0339    531.83595    390.85072    399.55825    38369.369 
 1002100    299.96833    -1499.593    503.67641    359.61273    429.02932    38369.369 
 1002200    299.76094   -1474.2405    505.51336      385.865    340.85008    38369.369 
 1002300    302.69147   -1521.9344    518.33215    364.23268    557.26181    38369.369 
 1002400    300.52805   -1522.1554    474.71273    310.61599    461.36062    38369.369 
 1002500    295.53341   -1517.8853    492.29861    309.90157    487.70399    38369.369 
 1002600    300.46413   -1486.9462    487.52432    358.34795   -230.31493    38369.369 
 1002700    301.10536   -1436.0558    498.70508    423.31669   -432.97291    38369.369 
 1002800    304.95421   -1457.6759    480.60433    400.98849   -64.652273    38369.369 
 1002900    306.35904   -1473.6953    463.95978    374.67277   -252.15785    38369.369 
 1003000    296.59626   -1458.2669    486.10256    368.12688   -659.99577    38369.369 
 1003100    303.96974   -1479.4502    511.51307    405.67416   -925.82327    38369.369 
 1003200    307.41843   -1459.9696     487.4099    416.63595   -446.42418    38369.369 
 1003300    291.47951   -1504.4548    500.57143    313.28567   -1023.3004    38369.369 
 1003400    294.92414   -1500.2681    486.57344    319.04043    -422.9666    38369.369 
 1003500    293.40218   -1486.4657     470.0443    309.43602   -202.45506    38369.369 
 1003600    301.67097   -1473.7279    478.40577    367.90117    317.37593    38369.369 
 1003700    287.57217   -1427.6232    490.24918    362.13814   -476.46207    38369.369 
 1003800     302.9912   -1447.9184    497.62487    418.89584   -536.96735    38369.369 
 1003900    311.10395   -1480.0483    466.38811       392.19   -246.68817    38369.369 
 1004000    296.25001   -1499.0905    480.57092    320.20701   -540.94584    38369.369 
 1004100    304.95364   -1475.2701    510.16026    412.94762   -89.203877    38369.369 
 1004200    301.25277   -1520.3891     504.7281    345.67258    217.12334    38369.369 
 1004300    297.06421   -1583.3459    481.46252    240.52248   -192.42439    38369.369 
 1004400    300.66457   -1532.8535    485.75183     311.5739   -27.288096    38369.369 
 1004500    304.56075   -1530.7086    468.22214    313.79554     524.6168    38369.369 
 1004600    294.56639   -1539.8303    480.20409     271.4922    186.72917    38369.369 
 1004700    296.94045   -1550.8124    477.92415    268.95832    740.59069    38369.369 
 1004800    309.22369   -1540.6487    482.24863    338.95333     683.0014    38369.369 
 1004900    303.61684   -1541.5263    495.39183    325.88213    331.26205    38369.369 
 1005000    310.69809   -1518.7007     473.7629     359.0783    257.35523    38369.369 
 1005100    308.10034   -1503.1109    498.39746     387.5637     263.6738    38369.369 
 1005200    289.67748   -1501.1391    506.34547    314.23226    -118.6543    38369.369 
 1005300     300.5372   -1484.0592    480.93263    354.97336    331.26331    38369.369 
 1005400     302.1862    -1476.551    510.55122    399.55184   -405.01341    38369.369 
 1005432    310.24543    -1459.386     503.0927    445.67725   -36.042165    38369.369 
Loop time of 601.701 on 32 procs for 1000000 steps with 1517 atoms

Performance: 143.593 ns/day, 0.167 hours/ns, 1661.956 timesteps/s
100.0% CPU use with 32 MPI tasks x no OpenMP threads

MPI task timing breakdown:
Section |  min time  |  avg time  |  max time  |%varavg| %total
---------------------------------------------------------------
Pair    | 229.3      | 268.31     | 305.14     | 122.4 | 44.59
Bond    | 1.389      | 1.5971     | 1.7377     |   7.4 |  0.27
Neigh   | 39.406     | 39.475     | 39.533     |   0.6 |  6.56
Comm    | 243.97     | 280.6      | 319.7      | 119.5 | 46.63
Output  | 0.38615    | 0.40519    | 0.9034     |  14.1 |  0.07
Modify  | 8.2647     | 8.5563     | 8.8776     |   6.4 |  1.42
Other   |            | 2.755      |            |       |  0.46

Nlocal:        47.4062 ave          83 max          17 min
Histogram: 3 1 3 5 7 4 5 2 1 1
Nghost:        1983.97 ave        2104 max        1871 min
Histogram: 7 8 1 0 0 0 0 3 7 6
Neighs:        5444.44 ave       10876 max        1537 min
Histogram: 5 2 1 8 5 4 2 4 0 1

Total # of neighbors = 174222
Ave neighs/atom = 114.84641
Ave special neighs/atom = 2.0382334
Neighbor list builds = 49796
Dangerous builds = 0

# Output the system volume
variable v equal vol
print 'The system volume is $v'
The system volume is 38369.3687683965

# Outputs
variable A equal xhi-xlo
variable B equal yhi-ylo
variable C equal zhi-zlo
variable D equal xy
variable E equal xz
variable F equal yz
print 'Lattice vectors'
Lattice vectors
print '$A 0 0'
33.7283336072484 0 0
print '$D $B 0'
0 33.7283336072484 0
print '$E $F $C'
0 0 33.7283336072484
Total wall time: 0:10:06
