LAMMPS (29 Sep 2021 - Update 1)
# Test LAMMPS input file for single DeFDe

# Initialize simulation

clear

units real
atom_style full
boundary p p p
dielectric 1
special_bonds dreiding

bond_style harmonic
angle_style harmonic
dihedral_style harmonic
improper_style umbrella
pair_style hybrid/overlay hbond/dreiding/lj 4 9.0 11.0 90 lj/cut 8.50000

# Read data file
read_data frag5.dat
Reading data file ...
  triclinic box = (0.0000000 0.0000000 0.0000000) to (15.000000 15.000000 15.000000) with tilt (0.0000000 0.0000000 0.0000000)
  2 by 4 by 4 MPI processor grid
  reading atoms ...
  1510 atoms
  scanning bonds ...
  3 = max bonds/atom
  scanning angles ...
  6 = max angles/atom
  scanning dihedrals ...
  12 = max dihedrals/atom
  scanning impropers ...
  1 = max impropers/atom
  reading bonds ...
  1009 bonds
  reading angles ...
  515 angles
  reading dihedrals ...
  12 dihedrals
  reading impropers ...
  1 impropers
Finding 1-2 1-3 1-4 neighbors ...
  special bond factors lj:    0        0        1       
  special bond factors coul:  0        0        1       
     4 = max # of 1-2 neighbors
     6 = max # of 1-3 neighbors
     9 = max # of special neighbors
  special bonds CPU = 0.002 seconds
  read_data CPU = 0.017 seconds

# Dreiding potential information

bond_coeff 1 350 1.375
bond_coeff 2 350 1.09
bond_coeff 3 350 0.935
bond_coeff 4 350 0.98

angle_coeff 1 50 120
angle_coeff 2 50 109.471
angle_coeff 3 50 104.51

dihedral_coeff 1 0.0833333333333333 -1 6

improper_coeff 1 40 0

pair_coeff 1 1 lj/cut 0.0774 3.6621
pair_coeff 1 2 lj/cut 0.0857947550844456 3.77835472527395
pair_coeff 1 3 lj/cut 0.0342998542270955 3.42058613398347
pair_coeff 1 4 lj/cut 0.00278208554864871 3.41951536039831
pair_coeff 1 5 lj/cut 0.0860649754545948 3.53100349192691
pair_coeff 2 2 lj/cut 0.0951 3.8983
pair_coeff 2 3 lj/cut 0.0380199947396104 3.52917391183829
pair_coeff 2 4 lj/cut 0.00308382878902186 3.52806914614779
pair_coeff 2 5 lj/cut 0.0953995283007206 3.64309650983885
pair_coeff 3 3 lj/cut 0.0152 3.195
pair_coeff 3 4 lj/cut 0.0012328828005938 3.19399984345648
pair_coeff 3 5 lj/cut 0.0381397430510485 3.29813538230316
pair_coeff 4 4 lj/cut 1e-04 3.193
pair_coeff 4 5 lj/cut 0.0030935416596516 3.29710294046152
pair_coeff 5 5 lj/cut 0.0957 3.4046
pair_coeff 1 1 hbond/dreiding/lj 4 j 9.50 2.75 4 9.0 11.0 90
pair_coeff 1 5 hbond/dreiding/lj 4 i 9.50 2.75 4 9.0 11.0 90
pair_coeff 1 5 hbond/dreiding/lj 4 j 9.50 2.75 4 9.0 11.0 90
pair_coeff 5 5 hbond/dreiding/lj 4 j 9.50 2.75 4 9.0 11.0 90

neighbor 2 bin
neigh_modify every 2 one 10000

# Gemoetric relaxation
fix 1 all box/relax iso 1.0 vmax 0.001
minimize 1.0e-4 1.0e-6 10000 10000
WARNING: Using 'neigh_modify every 1 delay 0 check yes' setting during minimization (../min.cpp:188)
Neighbor list info ...
  update every 1 steps, delay 0 steps, check yes
  max neighbors/atom: 10000, page size: 100000
  master list distance cutoff = 13
  ghost atom cutoff = 13
  binsize = 6.5, bins = 3 3 3
  3 neighbor lists, perpetual/occasional/extra = 3 0 0
  (1) pair hbond/dreiding/lj, perpetual, skip from (3)
      attributes: full, newton on
      pair build: skip
      stencil: none
      bin: none
  (2) pair lj/cut, perpetual, half/full from (3)
      attributes: half, newton on
      pair build: halffull/newton
      stencil: none
      bin: none
  (3) neighbor class addition, perpetual
      attributes: full, newton on
      pair build: full/bin
      stencil: full/bin/3d
      bin: standard
Per MPI rank memory allocation (min/avg/max) = 15.22 | 15.55 | 15.96 Mbytes
Step Temp E_pair E_mol TotEng Press Volume 
       0            0 1.9038509e+16    204.61236 1.9038509e+16 1.5471886e+18         3375 
    4849            0   -1078.8283     22.19313   -1056.6352    75.299174    37599.264 
Loop time of 4.24136 on 32 procs for 4849 steps with 1510 atoms

100.0% CPU use with 32 MPI tasks x no OpenMP threads

Minimization stats:
  Stopping criterion = energy tolerance
  Energy initial, next-to-last, final = 
    1.90385088364899e+16  -1056.04157466628  -1056.13602677239
  Force two-norm initial, final = 3.1473233e+18 89.804565
  Force max component initial, final = 1.8651332e+18 54.725778
  Final line search alpha, max atom move = 1.1094932e-05 0.00060717879
  Iterations, force evaluations = 4849 4851

MPI task timing breakdown:
Section |  min time  |  avg time  |  max time  |%varavg| %total
---------------------------------------------------------------
Pair    | 1.3159     | 2.4293     | 3.4693     |  37.6 | 57.28
Bond    | 0.0053774  | 0.010033   | 0.020696   |   2.8 |  0.24
Neigh   | 0.091222   | 0.091503   | 0.091775   |   0.0 |  2.16
Comm    | 0.35099    | 1.3924     | 2.5101     |  49.8 | 32.83
Output  | 0          | 0          | 0          |   0.0 |  0.00
Modify  | 0          | 0          | 0          |   0.0 |  0.00
Other   |            | 0.3181     |            |       |  7.50

Nlocal:        47.1875 ave          69 max          26 min
Histogram: 3 1 2 8 3 4 5 1 3 2
Nghost:        1938.19 ave        1974 max        1878 min
Histogram: 1 0 3 1 4 4 5 6 6 2
Neighs:        4992.81 ave        7801 max        2699 min
Histogram: 2 3 8 3 1 6 3 1 3 2

Total # of neighbors = 159770
Ave neighs/atom = 105.80795
Ave special neighs/atom = 2.0185430
Neighbor list builds = 90
Dangerous builds = 0

# MD simulation
velocity all create 300.0 12345 rot yes dist gaussian
timestep 1.0
fix 2 all nvt temp 300.0 300.0 1

# Compute interaction energy
group WAT molecule <> 2 501
1500 atoms in group WAT
group MOL molecule 1
10 atoms in group MOL

compute w WAT group/group MOL pair yes
fix 3 all ave/time 10 5 100 c_w file outa

# Outputs
thermo 100 # Output thermodynamic data every nth step
#dump mf1 all xyz 10000 mol_*.xyz

# Run
run 1000000
Neighbor list info ...
  update every 2 steps, delay 10 steps, check yes
  max neighbors/atom: 10000, page size: 100000
  master list distance cutoff = 13
  ghost atom cutoff = 13
  binsize = 6.5, bins = 6 6 6
  4 neighbor lists, perpetual/occasional/extra = 3 1 0
  (1) pair hbond/dreiding/lj, perpetual, skip from (4)
      attributes: full, newton on
      pair build: skip
      stencil: none
      bin: none
  (2) pair lj/cut, perpetual, half/full from (4)
      attributes: half, newton on
      pair build: halffull/newton
      stencil: none
      bin: none
  (3) compute group/group, occasional, copy from (2)
      attributes: half, newton on
      pair build: copy
      stencil: none
      bin: none
  (4) neighbor class addition, perpetual
      attributes: full, newton on
      pair build: full/bin
      stencil: full/bin/3d
      bin: standard
Per MPI rank memory allocation (min/avg/max) = 14.06 | 14.12 | 14.73 Mbytes
Step Temp E_pair E_mol TotEng Press Volume 
    4849          300   -1078.8283     22.19313    292.77756    1715.8826    37599.264 
    4900    303.99496   -1065.6138    95.931813     397.7002    857.97257    37599.264 
    5000      305.504   -1069.4588    220.95431    525.66548   -943.41373    37599.264 
    5100     303.1734    -1109.765    188.74204    442.66385   -584.49942    37599.264 
    5200    292.51004   -1111.5141    177.01983    381.22823   -282.66854    37599.264 
    5300    299.23456     -1074.76     178.0839    449.29362    -164.0599    37599.264 
    5400     298.7862   -1060.2845     174.6798    458.34831   -411.51005    37599.264 
    5500    306.05394   -1034.6031    180.85494    522.89548    64.881504    37599.264 
    5600    306.11864   -1101.9336    180.81931     455.8203    185.23359    37599.264 
    5700    302.81196   -1103.4905    181.84502    440.41556    430.45363    37599.264 
    5800    309.96069   -1095.9831    187.14844    485.38167    229.72842    37599.264 
    5900    302.23635   -1134.9865    181.20767    405.69306    458.17304    37599.264 
    6000    299.80249   -1141.2417     185.5465    392.82913     638.1953    37599.264 
    6100    303.87316   -1161.7245    200.09892    405.20874    389.72551    37599.264 
    6200    301.99346   -1164.6802    194.73625    388.43542    340.77153    37599.264 
    6300    308.84542    -1154.869    175.67804    410.00877    223.51695    37599.264 
    6400    296.63092   -1155.5034    195.33707    374.09209   -146.81021    37599.264 
    6500    293.03613   -1150.6492    216.96097    384.40071     479.8747    37599.264 
    6600    308.44176   -1143.4712    193.46385    437.37679     726.8597    37599.264 
    6700    292.93824   -1113.2918    184.38944    388.74627    536.61968    37599.264 
    6800    298.78231   -1149.0351    202.36879    397.26916    684.00277    37599.264 
    6900    303.02721   -1151.1641    201.99471     413.8598    576.65796    37599.264 
    7000    303.77807   -1140.3801    198.60384    424.63033    591.44386    37599.264 
    7100    293.41061   -1164.1924    197.97379    353.55471    264.79207    37599.264 
    7200    308.87711   -1116.1915     215.1406    488.29143    243.32964    37599.264 
    7300    300.69024   -1111.7196    210.29035    451.08823    9.4137427    37599.264 
    7400    294.04006   -1110.9627     221.4195    433.06147    41.499175    37599.264 
    7500    304.34996     -1126.93    220.79776    462.84678   -207.11044    37599.264 
    7600    288.90781   -1120.2431    222.43266    401.70911    160.50906    37599.264 
    7700    296.23542   -1122.6992    227.25818    437.03846    682.25295    37599.264 
    7800    296.46314   -1125.0765    223.72338    432.15067   -4.9068645    37599.264 
    7900    297.09281   -1120.6179    219.24327    434.96141   -8.9378643    37599.264 
    8000    299.54867   -1119.4168     221.3313    449.29714   -27.308451    37599.264 
    8100    304.80397   -1132.7518    214.88199    453.15131    686.36862    37599.264 
    8200    290.79271   -1173.0472    219.91225    354.86299    468.25696    37599.264 
    8300    302.56758    -1112.543    209.98651    458.40524    775.18059    37599.264 
    8400    303.85268   -1134.6151    210.44595    442.57306    593.34319    37599.264 
    8500    304.53721   -1137.0364    229.14103    461.92592     904.4314    37599.264 
    8600    304.22371   -1133.1708    223.46604    458.70639    329.56871    37599.264 
    8700    294.48829    -1129.678    229.91047    424.85331    192.40109    37599.264 
    8800    297.38476   -1110.7008    236.64351    463.59192    152.03727    37599.264 
    8900    292.41994   -1106.1237    222.16515    431.35875    551.82383    37599.264 
    9000     294.0377   -1097.1528    226.76763    452.20885    377.34451    37599.264 
    9100    293.75157   -1127.5269    234.38653    428.16662    592.18128    37599.264 
    9200    294.03189    -1173.693    240.01482    388.88968    400.87572    37599.264 
    9300    297.46663   -1213.3241    244.16328    368.85666    229.69385    37599.264 
    9400    310.47668   -1177.6816    231.64913     450.5048    138.41124    37599.264 
    9500    294.97566   -1193.6392    249.01319    382.18698    523.38968    37599.264 
    9600    299.89136   -1203.2149    231.42894    377.13811    272.76358    37599.264 
    9700     289.9937   -1175.2672    244.12511    373.26184    399.59657    37599.264 
    9800    306.02469   -1150.4176    240.25084    466.34526    872.94195    37599.264 
    9900      307.894   -1138.8494    239.67216    485.74303    944.21141    37599.264 
   10000    299.15456   -1152.0429     247.4578     441.0248    756.12988    37599.264 
   10100     299.2749   -1158.9332    249.91157    437.12953    952.70681    37599.264 
   10200    291.63036   -1153.8576    246.27701    404.18514    687.19868    37599.264 
   10300     303.9343   -1125.9251    250.99125    492.17552    860.13968    37599.264 
   10400    285.55812     -1167.29    231.61386    348.77635    487.92893    37599.264 
   10500    318.93573   -1177.3293    258.56186    515.81897    504.69644    37599.264 
   10600    296.67733     -1172.57    229.78223     391.6794    -35.70463    37599.264 
   10700    302.71322   -1147.3024    264.18617    478.50066    448.42767    37599.264 
   10800     297.4771   -1184.6193    232.84428    386.28952    110.38811    37599.264 
   10900    305.85512   -1135.0634    240.88479    481.57067    104.66662    37599.264 
   11000    306.14688   -1155.6156    243.23028    464.67633    184.47149    37599.264 
   11100    294.62794   -1193.4245     256.9412    388.76563    140.59006    37599.264 
   11200    299.43581   -1168.6718    249.57787    427.78106    463.84736    37599.264 
   11300    304.46813   -1117.3337    251.14352    503.32033    435.15843    37599.264 
   11400    299.11066   -1164.8389    258.05055    438.62411   -72.270985    37599.264 
   11500     292.1065   -1126.2691    260.42894    448.06724    306.29553    37599.264 
   11600    296.58777   -1120.0945    241.77891    455.74878    -104.2066    37599.264 
   11700      309.425   -1119.9643    267.79465    539.63713     399.2221    37599.264 
   11800    294.60816   -1143.8778     255.2829    436.56509    343.61556    37599.264 
   11900    294.16257   -1156.3315    264.24051    431.06468    451.79554    37599.264 
   12000    298.51804   -1139.3459    266.68858    470.08945    650.89255    37599.264 
   12100    299.55864   -1177.4133    263.21158    433.22575    296.16429    37599.264 
   12200    292.87362   -1124.8858    264.18282    456.65499    457.79739    37599.264 
   12300    297.81979   -1165.1172     276.1647    450.65352   -33.199802    37599.264 
   12400    298.01924   -1165.8142    266.70133    441.39027    42.803447    37599.264 
   12500    305.72013   -1177.0285     259.6977    457.81129   -228.89416    37599.264 
   12600    310.48754   -1162.3434    258.26579    492.50845    115.50514    37599.264 
   12700    300.41061   -1147.3999    267.52843    471.38816    38.464165    37599.264 
   12800    290.70816   -1144.4483    272.30657    435.47584   -52.146662    37599.264 
   12900    304.00759   -1154.7123    266.28965    479.01636    496.84817    37599.264 
   13000    306.09319   -1155.2936    271.33854    492.86512    586.10553    37599.264 
   13100    291.47086   -1143.6729    273.52303    440.89847    723.32257    37599.264 
   13200    297.22068   -1180.0086    269.06655    425.96918    893.38106    37599.264 
   13300    296.56957   -1194.7863    276.06394    415.26018    684.76313    37599.264 
   13400    301.82729   -1194.6183    270.83382    433.84742    578.72062    37599.264 
   13500    303.89915   -1154.9217    276.18766    488.21723    272.92656    37599.264 
   13600    295.24584   -1178.5313    264.84061    414.33761    281.83914    37599.264 
   13700    292.04382    -1191.926    285.37915     407.0787    338.30143    37599.264 
   13800    300.43854   -1167.5097    278.95667    462.83229    438.92049    37599.264 
   13900    298.41021   -1168.5863    265.63689     439.3124    -227.6876    37599.264 
   14000    304.60749   -1201.0048    280.32902    449.46156   -93.198296    37599.264 
   14100    300.59221   -1223.6047    272.81558    401.28733    -131.9095    37599.264 
   14200    297.07636   -1173.8276    291.87665    454.31108    104.12866    37599.264 
   14300    291.96727   -1207.8508    273.45766    378.88798    185.48525    37599.264 
   14400    297.60087   -1190.5147    276.27181    424.37844    258.16241    37599.264 
   14500    304.92265     -1191.22    265.86374    446.19873    72.079604    37599.264 
   14600     307.7179   -1184.2734    271.62678    471.48152    52.473272    37599.264 
   14700    303.38639   -1212.1526    287.67738    440.16965    302.94209    37599.264 
   14800    295.50308   -1139.1822    283.98693    473.99014    286.20852    37599.264 
   14900    295.93118   -1167.2397    284.30074    448.17206    512.51856    37599.264 
   15000    310.62441   -1212.0257    289.78566    474.96178    579.25342    37599.264 
   15100    288.75586   -1223.1007    284.10995    359.84535    494.81751    37599.264 
   15200    306.97437   -1181.2902    284.23608    483.72954    377.42527    37599.264 
   15300    295.96698   -1165.5549    289.31976    455.03686    464.55579    37599.264 
   15400    303.50277   -1225.1221    305.04214     445.0884    659.78871    37599.264 
   15500    296.06338   -1197.0507    302.19855    436.85344    616.60759    37599.264 
   15600    303.04702   -1182.4567    284.89522    465.55683    287.96911    37599.264 
   15700    302.80777   -1190.4652     304.3189    475.89585    118.29619    37599.264 
   15800    293.05921   -1199.5247    287.00824    405.67629   -134.83542    37599.264 
   15900    308.48997   -1163.4997    305.54724    529.64852    4.2615806    37599.264 
   16000    303.37624   -1160.7574    292.99142    496.83316   -68.254878    37599.264 
   16100    297.32301     -1137.63    319.58747    519.32899     205.0033    37599.264 
   16200     296.6766   -1118.0153    305.77772    522.22631    232.39711    37599.264 
   16300    309.49807   -1144.3576    309.80811    557.58591     568.5035    37599.264 
   16400    302.89814   -1144.9063    301.48038    519.02269    543.54576    37599.264 
   16500    297.66232   -1206.9645    317.23362    449.16684    18.305891    37599.264 
   16600    298.84077   -1235.0765     303.3026    412.42451    3.7789241    37599.264 
   16700    283.40239   -1271.8122    298.03085    300.97458    90.541586    37599.264 
   16800    293.71428   -1235.3162    316.34308    402.16613    300.14001    37599.264 
   16900     295.3212   -1197.2874    311.80704    442.88689    79.602821    37599.264 
   17000    309.29601   -1221.3112    300.60434    470.51969   -37.823557    37599.264 
   17100    294.50711   -1227.8866    310.57763    407.39653    545.80922    37599.264 
   17200     292.9554   -1244.9748    301.99784    374.74884   -149.37166    37599.264 
   17300     303.2418   -1255.2121    309.86517     418.6475     186.2156    37599.264 
   17400    293.52432   -1221.0766    319.37579      418.584    143.02475    37599.264 
   17500    305.23662   -1256.0284    307.85059    424.78942    461.49462    37599.264 
   17600    307.56758   -1224.9869    315.06038    473.52551    212.07848    37599.264 
   17700    310.54656   -1258.6888    313.03607    451.19889    353.34195    37599.264 
   17800    285.97561   -1195.0056    317.35274    408.67751    392.64257    37599.264 
   17900    295.96995   -1183.2571    318.63135    466.65964    81.933275    37599.264 
   18000     299.6244   -1187.4154    313.41636    473.72418     137.4004    37599.264 
   18100       305.83   -1169.1764     329.2527    535.71254     348.7859    37599.264 
   18200    304.87222   -1202.9365    306.74921    475.14086   -156.71032    37599.264 
   18300    317.58019   -1208.6829    300.31809    520.12435    -291.9302    37599.264 
   18400    316.85492   -1232.6264    316.86966    509.47014   -192.94337    37599.264 
   18500    311.79952   -1245.8509    325.41335    482.04993   -167.52383    37599.264 
   18600    304.07364   -1233.3934    320.73874    455.08145   -232.17489    37599.264 
   18700     300.5527   -1241.4781    326.41216    436.83285    134.54552    37599.264 
   18800    299.39251   -1297.3195    324.53235    373.89306   -12.525658    37599.264 
   18900     300.0279   -1224.4544    312.68675    437.77056    826.38608    37599.264 
   19000    291.31799    -1224.513    319.25897    405.10661    927.31998    37599.264 
   19100    300.80813   -1261.0172    328.52335    420.55383    358.61017    37599.264 
   19200    310.31134   -1226.6349    321.92408    491.08271    760.95916    37599.264 
   19300    300.13118   -1229.8855    316.04674    436.16396    380.83617    37599.264 
   19400    292.37835   -1249.5635    330.46291    396.02966    199.80472    37599.264 
   19500    282.90471   -1233.4155    339.30543     378.4073     554.8112    37599.264 
   19600    296.65493   -1278.4602    311.28022    367.18644    309.19813    37599.264 
   19700    301.31034   -1265.3321    310.14103    400.11559    300.06544    37599.264 
   19800    311.45584   -1227.9215    326.18344    499.20347    516.69897    37599.264 
   19900     311.2435   -1249.1577    319.27257    470.10135     43.40734    37599.264 
   20000    303.66128    -1208.838    334.21007    491.25336     -285.707    37599.264 
   20100    309.74551   -1248.9594    322.91953    467.20857   -172.65477    37599.264 
   20200    300.02937   -1270.0166    317.39807    396.92628   -367.89902    37599.264 
   20300    294.49548   -1267.3734    310.17283    367.45254   -108.06154    37599.264 
   20400    300.15276   -1269.0837    319.34116    400.35734    673.64399    37599.264 
   20500    307.16035   -1233.2423    336.05891    484.43687    292.31183    37599.264 
   20600    302.85843   -1244.6901    320.67957    438.25949     213.6624    37599.264 
   20700    306.93446   -1250.4379    323.60243    453.76872    479.37576    37599.264 
   20800    291.65823   -1257.5651    332.32628    386.65227    929.89203    37599.264 
   20900    301.52119   -1287.5275      335.478    404.20558    427.40548    37599.264 
   21000    308.70962   -1261.2874    334.93755    462.23907    992.26476    37599.264 
   21100    306.64857   -1259.9184    328.83205    448.23191    315.67014    37599.264 
   21200    299.01249   -1281.8915    331.79512     394.8745    601.70148    37599.264 
   21300    291.22406   -1222.9089    344.87962    431.90888    402.44454    37599.264 
   21400    302.20965   -1253.8738    304.66533    410.14333    219.63188    37599.264 
   21500     297.3414   -1251.8272    322.01123    407.63829   -139.44024    37599.264 
   21600     301.3845   -1285.6928    348.43565    418.38308    261.53097    37599.264 
   21700    307.75545   -1269.1664    334.32382    449.45447    486.61624    37599.264 
   21800    306.78075   -1262.0021    348.87852     466.7893    396.44913    37599.264 
   21900    302.01566   -1301.9629    339.68254    396.19893    828.62048    37599.264 
   22000    309.58524   -1291.0267    333.71367     435.2145    744.03255    37599.264 
   22100    289.42205   -1251.6606    340.36167    390.53371    926.36287    37599.264 
   22200    306.38523   -1285.7861    337.72958    430.07722    305.64495    37599.264 
   22300    302.47882   -1333.2473    342.04268    369.35794    374.10446    37599.264 
   22400    304.64496   -1306.6911     338.1693     401.7841    86.404363    37599.264 
   22500    300.99375   -1283.7571    333.99714    404.12262   -291.73708    37599.264 
   22600    313.09438   -1298.2307    346.30201    456.38312    355.70516    37599.264 
   22700     300.1383   -1276.6837    347.28335    420.63442   -268.15318    37599.264 
   22800    297.81403   -1274.5052    349.55028    414.62519    275.14155    37599.264 
   22900    302.43811   -1285.9163    325.72331    400.18649    186.66721    37599.264 
   23000    315.27192    -1263.216    331.35462    486.24512   -389.25215    37599.264 
   23100     293.3742   -1256.1539    345.29801    408.75363   -200.60893    37599.264 
   23200    301.13525   -1260.5439    337.13716    431.11237    150.71144    37599.264 
   23300    302.35218   -1260.4934    340.31204    439.81154   -293.84298    37599.264 
   23400    299.96659   -1217.3697    343.14574    475.03853   -135.05863    37599.264 
   23500    304.16569   -1250.3404    348.07247    465.88229   -112.69605    37599.264 
   23600    300.13365   -1241.5937    325.27588    433.69606    379.41518    37599.264 
   23700    290.77064   -1241.7098    346.85967    413.04847    722.21196    37599.264 
   23800     293.7684     -1268.02    362.23686    415.59955    572.38168    37599.264 
   23900    313.14722   -1256.7635    354.03219    505.81813    674.65759    37599.264 
   24000     314.8971   -1244.7144    355.64542    527.35148    1023.7636    37599.264 
   24100    295.28559   -1287.4848    342.58959    383.31182    509.97048    37599.264 
   24200    296.06673   -1242.4096     341.4333    430.74436    230.33701    37599.264 
   24300    293.17306    -1260.738    339.56314    397.52997    278.61074    37599.264 
   24400    303.11558   -1247.5674    352.67347    468.53272    90.429753    37599.264 
   24500    295.79599   -1231.9557    361.02807    459.57525    427.22214    37599.264 
   24600    298.64471   -1215.4581     357.4509    485.30931   -170.36924    37599.264 
   24700     296.7345    -1214.525    357.48388    477.68324     2.322597    37599.264 
   24800    298.25786   -1236.4658    355.92611     461.0368    282.40367    37599.264 
   24900    310.83982   -1203.5427    370.41447    565.04248    13.543917    37599.264 
   25000     297.0592   -1241.0096    353.87276    449.04798     194.1174    37599.264 
   25100    294.55327   -1243.4713    363.02605    444.46779    742.05086    37599.264 
   25200    303.50551   -1243.7752    349.74746    471.15292    898.95811    37599.264 
   25300    297.07287   -1278.3664    375.46067     433.3406    721.49004    37599.264 
   25400    306.92627    -1272.946    374.13663    481.75804    695.41911    37599.264 
   25500     306.3349   -1284.5846    343.86246     437.1852   -428.01057    37599.264 
   25600    304.33563   -1262.2108     334.6124    441.31613   -428.49861    37599.264 
   25700    305.54446   -1255.8603    375.26155    493.75316   -269.68809    37599.264 
   25800    299.56838    -1264.612      359.302     442.1612    74.400396    37599.264 
   25900    311.54872   -1264.7011    359.00172    495.65992   -178.10256    37599.264 
   26000    298.43647   -1314.0976    326.54763     354.8299    60.824752    37599.264 
   26100    304.20428   -1292.5332    354.30363     430.0942   -31.098876    37599.264 
   26200    302.42583   -1237.1438    340.81687    463.99727   -320.98382    37599.264 
   26300     295.4915   -1317.9424    353.66302    364.85396   -139.02052    37599.264 
   26400    296.42948   -1261.4535    363.24464    435.14351    175.15083    37599.264 
   26500    296.03379   -1266.5346    358.76683    423.80479    19.260045    37599.264 
   26600    292.37037   -1254.5233    360.91982    421.49083    632.65669    37599.264 
   26700    304.87274   -1303.6734     372.7201    440.37717    430.66571    37599.264 
   26800    300.47216    -1295.917     341.2241    396.84363    170.44678    37599.264 
   26900     304.8985   -1309.5491    352.05398    413.95129     81.39946    37599.264 
   27000    293.66726   -1306.8591    352.91183    366.98049   -12.014077    37599.264 
   27100    297.93962   -1282.2956    355.80506    413.65448   -86.399235    37599.264 
   27200    299.62713   -1296.6536    353.71824    404.80013   -242.12386    37599.264 
   27300    306.55383   -1296.9469    360.20999     442.1552   -330.66545    37599.264 
   27400    305.24298   -1253.2598    366.01183    485.74788    235.98989    37599.264 
   27500    303.67959   -1242.9445    344.01034    467.02947   -251.39266    37599.264 
   27600    293.60765   -1277.2272    359.97215    403.40465   -361.42001    37599.264 
   27700     294.8568   -1242.5105    356.73256    440.50041    -541.3335    37599.264 
   27800    304.10958   -1307.6298    342.65629    402.92425   -565.28497    37599.264 
   27900    294.72427   -1269.4695    353.10834    409.32111   -600.20859    37599.264 
   28000    294.79524   -1296.9064    366.17973    395.27481    66.983554    37599.264 
   28100    303.91729   -1272.7784    364.18281    458.43726    374.08178    37599.264 
   28200    292.09124   -1274.4136    362.80604    402.23127   -138.24107    37599.264 
   28300    296.70651   -1276.8086    362.00076    419.79066    350.94639    37599.264 
   28400    310.18983   -1300.7207    366.32699    460.85326   -230.56434    37599.264 
   28500    293.14999    -1286.962    374.70165    406.34075    342.04927    37599.264 
   28600    297.35027   -1306.6492    373.40186    404.24673    390.77743    37599.264 
   28700    308.74666   -1343.1322    351.37366    396.99696    782.37711    37599.264 
   28800    287.48859   -1272.1889    362.78872    383.73569     493.8915    37599.264 
   28900     288.5572   -1311.3155    360.65118    347.27819    547.23464    37599.264 
   29000    306.11767   -1292.1551    352.91357     437.6887    533.77171    37599.264 
   29100    299.74339   -1256.6189    365.71133    457.35083     280.5308    37599.264 
   29200     296.7625   -1211.9149    351.23961      474.175    568.83294    37599.264 
   29300    297.86696   -1263.2284    370.38265     446.9725    355.02353    37599.264 
   29400    300.90689   -1282.3777    369.53929    440.65356    745.23577    37599.264 
   29500    297.44986    -1301.386    376.70163    413.25771    697.63546    37599.264 
   29600    317.97968   -1292.6239    356.74236    494.40455    1081.6612    37599.264 
   29700    289.78687   -1313.8362    364.45686    354.09429    875.98454    37599.264 
   29800    296.28624   -1298.5876     374.7728    408.89327    177.03684    37599.264 
   29900    297.82042    -1274.098    384.37525    449.88611    214.16167    37599.264 
   30000    306.12755   -1297.3218    374.25621     453.9091    133.50423    37599.264 
   30100    308.07729   -1290.1798     358.4183    453.98324    504.14446    37599.264 
   30200    306.94454   -1290.6179     349.9348    439.96646    370.77095    37599.264 
   30300    313.19425   -1317.1268    363.06873    454.70296    39.122505    37599.264 
   30400    303.02984   -1285.6488    354.03488    431.42711    562.20973    37599.264 
   30500    295.99542   -1286.4878    378.82045    423.73263   -240.40303    37599.264 
   30600    304.13047   -1307.6909    382.79852    443.09931   -107.17904    37599.264 
   30700    308.02444   -1295.8529    377.60115    467.25524   -180.77945    37599.264 
   30800    299.75433   -1283.4024    379.50822    444.41353    -227.9936    37599.264 
   30900    297.53901   -1299.9553    370.97006    409.35779    -167.5108    37599.264 
   31000    305.24973    -1277.997     381.6764    476.70565    469.22562    37599.264 
   31100    294.87247   -1308.0284    341.13014    359.45059    276.67068    37599.264 
   31200    315.42582   -1279.9974    353.49844    492.29978    622.24373    37599.264 
   31300    297.94035   -1319.3525    363.74687    384.54268     381.3703    37599.264 
   31400     300.6014   -1281.4693    361.36555    432.01404    103.50121    37599.264 
   31500    302.29857   -1296.9055    346.79598    409.64228     276.5052    37599.264 
   31600     305.7524   -1257.1884    376.40049    494.49931    99.891909    37599.264 
   31700    302.67077   -1296.9879    406.71075    471.14875    853.18885    37599.264 
   31800    305.79401   -1298.0561    389.67402    467.09239    358.29779    37599.264 
   31900    291.78141   -1314.2007    385.49807    383.74253    405.15205    37599.264 
   32000    301.23569   -1281.0842    379.20921    453.09589    433.59981    37599.264 
   32100    298.07718   -1289.8833    400.64138    451.52189   -330.52996    37599.264 
   32200     304.0031   -1297.1279    392.29004      462.581   -205.16505    37599.264 
   32300    312.15197   -1314.9837    409.15088    498.23996    30.092513    37599.264 
   32400    306.04703    -1279.424    374.04633    471.23483    506.99473    37599.264 
   32500    291.05431   -1302.0825    397.16564    404.25775     398.1386    37599.264 
   32600    302.66109   -1308.2505    378.03976    431.17171    866.75627    37599.264 
   32700    300.77233   -1289.0778    367.20368    431.01256    608.66989    37599.264 
   32800    299.24636   -1297.5909    369.12522    417.55715     327.7775    37599.264 
   32900    297.37104   -1276.0394    369.79785    431.34598    246.68536    37599.264 
   33000    303.37089   -1289.3659    381.33384    456.54307   -37.238445    37599.264 
   33100    310.12788   -1308.5911    356.56255    442.93985    226.33344    37599.264 
   33200    300.29936   -1290.9106    404.13431     463.9829    266.35718    37599.264 
   33300     302.3869   -1302.1157     383.3712    441.40455   -145.87861    37599.264 
   33400    303.00326   -1308.1676    378.53282    433.28667   -155.61186    37599.264 
   33500    302.15208   -1298.7274    398.14525    458.51071   -19.821116    37599.264 
   33600    307.24193   -1305.7241    404.02753    480.29064    806.58932    37599.264 
   33700    296.69229   -1309.1169    375.01406    400.43164    736.02072    37599.264 
   33800    302.75279   -1323.2942    381.40887    419.90954     487.0654    37599.264 
   33900    295.35743   -1345.9604    367.80728    350.37712    963.71762    37599.264 
   34000    285.41339   -1306.4852    396.74399    374.06034    736.28818    37599.264 
   34100     287.3732   -1332.1903    384.65321    345.07973    333.75962    37599.264 
   34200    307.55778   -1343.5943    378.93203    418.74569    302.57075    37599.264 
   34300     293.6191   -1345.9727    360.44698    335.18545    48.595907    37599.264 
   34400    301.76068   -1347.5024    389.21207    399.04201    276.76141    37599.264 
   34500    295.86688    -1324.622    371.16032    377.36012    712.89751    37599.264 
   34600     302.5153   -1305.8995    375.93557    430.76267   -154.42155    37599.264 
   34700    305.40665   -1320.6725    381.73559    434.79512   -219.89621    37599.264 
   34800    299.39857   -1323.4371     374.3815    397.65188    304.30555    37599.264 
   34900    298.79059   -1325.1968    382.16292    400.93888      169.863    37599.264 
   35000    300.51707   -1304.4568    392.68496    439.96666    90.337749    37599.264 
   35100    298.12948   -1308.4457    387.42744    419.98075    280.44036    37599.264 
   35200    287.47914   -1309.8695    371.36947    354.59338    468.10644    37599.264 
   35300    298.29198   -1343.2281    356.36039    354.86229    219.16585    37599.264 
   35400    298.00134   -1321.7828    377.76105    396.40088    776.98984    37599.264 
   35500    314.13084   -1334.8133    358.95984    437.12034    695.45143    37599.264 
   35600    305.83996   -1370.5033    362.15563     367.3334    425.50279    37599.264 
   35700    296.20048   -1342.9884    367.32879    356.66273   -56.972249    37599.264 
   35800    300.47844   -1359.0589    378.35631     370.8622   -268.06447    37599.264 
   35900    314.74347   -1339.4615    355.94926    432.21727    394.70858    37599.264 
   36000    305.90831   -1321.1188    385.21489    440.08463    497.29058    37599.264 
   36100    322.25503   -1305.5388    399.82159    543.79955     384.6137    37599.264 
   36200    296.67615    -1294.546    380.83781    420.75372   -136.91672    37599.264 
   36300    298.76809   -1293.7864    388.94242    439.02756   -406.85204    37599.264 
   36400    298.63766    -1305.136    367.35697    405.50582   -1008.3462    37599.264 
   36500    305.15049   -1290.8348    372.52707    454.27205   -260.31011    37599.264 
   36600     302.5288   -1314.3592    388.40136    434.82949   -338.70394    37599.264 
   36700    289.84569   -1331.7787    398.74072    370.70023   -415.20574    37599.264 
   36800    303.26119   -1340.2219    377.88153    401.74132    -184.1192    37599.264 
   36900    296.62489   -1361.3828    384.89449    357.74301    23.187058    37599.264 
   37000     291.1539   -1393.1191     378.6828    295.18628   -435.69276    37599.264 
   37100     304.5758   -1386.9141    360.08467     343.1654   -218.94721    37599.264 
   37200    296.39954   -1363.6225    372.88823    342.48341    -108.1996    37599.264 
   37300    306.25912   -1345.6966    400.41296    432.28283    767.63712    37599.264 
   37400    310.72481   -1348.7179     384.8432    433.77867    306.87427    37599.264 
   37500    298.14288   -1357.6269    376.99969    360.43215    583.12812    37599.264 
   37600    290.71739   -1335.1931    398.12608    370.59209    23.707833    37599.264 
   37700    299.28585   -1292.4045    398.06559    451.86148    12.935748    37599.264 
   37800    297.59048   -1293.8325     356.2265    400.96861    -545.0794    37599.264 
   37900    307.62688   -1355.2523    398.76391    427.23033   -464.86352    37599.264 
   38000    292.25452   -1355.3192    392.56505    351.81908   -69.096319    37599.264 
   38100    290.48895   -1335.6344    392.61303    363.61019   -53.437467    37599.264 
   38200    302.13302   -1357.5324    394.69223    396.16692    65.729023    37599.264 
   38300    300.14192   -1337.3756    403.31855    415.99401    480.86886    37599.264 
   38400    298.10304   -1325.0314    390.10021    405.94887     289.2931    37599.264 
   38500    300.17391   -1329.5156    397.66047    418.33985    629.24698    37599.264 
   38600    301.89156   -1342.5466    406.44705     421.8215    693.10977    37599.264 
   38700    300.86862   -1317.0604    395.25662    431.51601    493.68818    37599.264 
   38800    296.74111   -1338.0209    385.11241    381.84557   -3.7952167    37599.264 
   38900    297.18424   -1334.3369     378.1693    380.57971    355.86368    37599.264 
   39000    295.04333   -1396.2721    391.64094    322.48623    85.514949    37599.264 
   39100    298.88455   -1370.6224    401.89408    375.66709   -109.75617    37599.264 
   39200    294.88909   -1377.1654     401.1731    350.43127    654.92883    37599.264 
   39300    312.34273   -1373.7097    413.70868    444.92987    321.43041    37599.264 
   39400    300.05192   -1360.1493    407.23977     396.7367    281.29029    37599.264 
   39500    302.42216   -1343.8909    380.74314    397.15992    380.13055    37599.264 
   39600    292.98299   -1350.4253    394.61394    362.03854    115.68544    37599.264 
   39700    296.86464   -1345.6397    413.65334    403.32337    89.742226    37599.264 
   39800    304.05615   -1282.8283    388.79042    473.61953    21.889419    37599.264 
   39900    305.62228   -1301.6902    401.59532    474.60708    576.93939    37599.264 
   40000    305.48605   -1336.8284    409.58117    446.84195    520.91836    37599.264 
   40100     304.1389   -1310.2489    402.72578    460.50649    368.17353    37599.264 
   40200    307.97766   -1367.4679    391.84975    409.67841    117.25325    37599.264 
   40300     305.0916   -1335.3591    392.76717    429.72295    720.92724    37599.264 
   40400    307.58763   -1306.2386    399.57793    476.88151    608.90557    37599.264 
   40500    298.89517   -1299.0709    396.59385    441.96606     98.97893    37599.264 
   40600    294.19145   -1316.3817    384.45957    391.36349    351.66631    37599.264 
   40700    297.87054   -1288.5039    415.03215    466.36261    362.86044    37599.264 
   40800    302.77616   -1306.6161     389.1984    444.48226     74.21618    37599.264 
   40900    300.74892   -1315.9668    389.87904    426.69365   -88.401975    37599.264 
   41000    288.69346   -1329.3444    401.57321    370.78424    297.83004    37599.264 
   41100     296.4196   -1311.3075    404.79317    426.79363    181.37532    37599.264 
   41200    300.55121    -1313.237    403.13135    441.78647   -199.76478    37599.264 
   41300    306.18105   -1312.5834    417.75533    482.38733   -463.03903    37599.264 
   41400    301.62127   -1394.3198    404.46426    366.84978   -356.83844    37599.264 
   41500    300.98475   -1403.6157     396.3917    346.61816   -329.44045    37599.264 
   41600    293.90739   -1395.2223     387.9706    314.75619   -372.20115    37599.264 
   41700    305.47069   -1397.5484    373.84697    350.31863   -138.79707    37599.264 
   41800    294.22334   -1333.3686    399.94467    390.00508   -214.87121    37599.264 
   41900    294.79616   -1375.9108    408.59417    358.68903    198.50777    37599.264 
   42000    304.68772   -1345.7878    387.57639    412.28683    502.43541    37599.264 
   42100    293.31913   -1406.2488    395.83938    308.95248    633.19756    37599.264 
   42200    292.80205   -1334.9059    409.32531    391.45546   -131.84236    37599.264 
   42300    300.38958   -1379.2913    398.34173    370.21549    154.95834    37599.264 
   42400    295.60071   -1315.4432    418.05105    432.23234     161.8402    37599.264 
   42500    297.05301   -1356.8458    411.51822    390.82943    700.37113    37599.264 
   42600    300.01738   -1347.3519     424.1837    426.32272    937.22495    37599.264 
   42700     302.0797   -1311.5564    420.38491    467.59575    709.33286    37599.264 
   42800    303.40619   -1295.5894    414.59567    483.74017    1002.2961    37599.264 
   42900    296.45614     -1326.11    409.77206    417.13436    664.58451    37599.264 
   43000    299.88662   -1335.4665    411.18676      424.623    32.908855    37599.264 
   43100    302.52342   -1321.5458    402.28709    441.50447    926.87863    37599.264 
   43200     299.4828   -1299.4177    392.86482    440.53341    225.54147    37599.264 
   43300    302.56309   -1308.8629    375.21171    427.29038   -258.16026    37599.264 
   43400    302.33175    -1330.499     387.4551    416.85715    235.30676    37599.264 
   43500    285.33774    -1369.102    394.78828    309.14755    420.18363    37599.264 
   43600    301.00325   -1331.0655     389.3604    412.22023    595.24958    37599.264 
   43700    301.93829   -1398.2111    409.48681      369.407   -61.479379    37599.264 
   43800    304.63365   -1359.0811    402.86651    414.04048    588.86134    37599.264 
   43900    294.57734   -1363.2432    415.14149    376.91964   -361.44804    37599.264 
   44000    300.47879   -1338.6276     402.0467    414.98543    -280.8208    37599.264 
   44100    312.11987   -1303.2249    406.65315     507.3566    133.52467    37599.264 
   44200    311.57407   -1313.9803    380.09273    467.58584    24.722519    37599.264 
   44300    294.92417     -1318.15    411.00063    419.43205   -318.90967    37599.264 
   44400    294.37455   -1331.0216    404.57809    397.66571    107.68056    37599.264 
   44500    304.10622   -1318.3016    416.20794    465.78894    279.71287    37599.264 
   44600    305.79117   -1350.6568    420.10571    444.91049   -326.18279    37599.264 
   44700     291.1892   -1354.7341    417.83499    372.88228    272.84153    37599.264 
   44800    304.32349   -1338.0372    410.13866    440.96145    352.69661    37599.264 
   44900    303.96372   -1342.0673    401.40823    426.58264    581.54357    37599.264 
   45000    303.82458   -1346.4548    412.54662    432.70767    707.92296    37599.264 
   45100    311.41324   -1354.9774    401.16865    446.94121    63.129861    37599.264 
   45200    293.14198   -1333.3574    427.96514    413.17275    213.14962    37599.264 
   45300    306.14845   -1315.6245    427.99858    489.44279    400.31179    37599.264 
   45400    294.22209   -1343.8962    418.18917    397.71633   -124.26488    37599.264 
   45500    291.35345    -1327.549    427.06453    410.03571    159.03001    37599.264 
   45600    296.88848   -1338.4414    422.67779    419.65328    437.32351    37599.264 
   45700    308.34037   -1331.8511    424.25739     479.3344    364.24713    37599.264 
   45800    298.52483   -1325.7488     416.2278    433.25638    415.80764    37599.264 
   45900    296.13778   -1333.9166    398.62396    396.74762    71.842368    37599.264 
   46000    305.76222   -1373.4895    407.92369    409.76565   -76.348254    37599.264 
   46100    287.16866    -1356.551    421.28597    356.43182    39.621074    37599.264 
   46200    306.04138   -1348.0998    394.76605    423.25336   -252.13143    37599.264 
   46300    300.13776   -1372.5146    418.12393    395.64172   -224.42754    37599.264 
   46400    303.68533   -1373.1253    410.45591    403.32006    345.49509    37599.264 
   46500    307.90264   -1326.6884    393.25457    451.52532    671.00192    37599.264 
   46600    306.61474   -1329.2097    395.22348    445.17989    602.73563    37599.264 
   46700    303.59486    -1377.137    395.39876    383.84433    619.67257    37599.264 
   46800     306.1754   -1372.0635    377.39889    382.52529    873.37542    37599.264 
   46900    307.58469   -1321.6489    434.92002    496.80006       716.88    37599.264 
   47000    299.34257   -1315.8506    432.32833    462.93333    834.89556    37599.264 
   47100    300.51071   -1341.9472    407.42764    417.19029    577.89831    37599.264 
   47200    297.09843     -1396.43    401.73802    341.66937     133.1136    37599.264 
   47300    304.87559   -1387.2388    408.11675    392.22123    216.86471    37599.264 
   47400    295.57879   -1369.3878    408.16025    368.29837    328.52727    37599.264 
   47500    295.59909   -1345.8741    410.10275    393.84587    27.764792    37599.264 
   47600     308.2427   -1355.7549    406.32576    437.05955     -150.708    37599.264 
   47700    295.28563   -1354.3409    407.71316    381.57951   -299.50512    37599.264 
   47800    299.06054   -1331.0902    398.37724    412.47406   -69.367474    37599.264 
   47900    296.15267   -1317.3179     439.5382    454.32761    416.82541    37599.264 
   48000     297.2423   -1361.6614    398.02936    373.37639    -361.1715    37599.264 
   48100     310.9024    -1378.099    417.22712    437.58027    351.76622    37599.264 
   48200    294.21581   -1401.7954    401.76112    323.36084    563.97927    37599.264 
   48300    299.57389   -1396.4847    437.10316    388.11454    357.03496    37599.264 
   48400    306.74878   -1387.6426    410.98933    403.11568   -87.753326    37599.264 
   48500    298.60554   -1378.1944    401.79785    366.74381   -69.150709    37599.264 
   48600    295.94124   -1371.8486    410.74042    370.04805    65.655642    37599.264 
   48700    295.15755   -1382.8709    393.66876    338.42905    58.814433    37599.264 
   48800    297.29616   -1364.0126    399.25698    372.49509    347.41702    37599.264 
   48900    294.89783   -1375.8201    398.89427    349.53712    123.25376    37599.264 
   49000    301.85985   -1410.4736    403.02984    350.33469    172.14827    37599.264 
   49100    303.60528   -1382.3369    404.09799     387.3905   0.39867642    37599.264 
   49200    310.07933   -1348.5546    414.32613    460.52152   -38.893803    37599.264 
   49300    302.33029   -1387.4804    402.15823    374.57228   -529.38548    37599.264 
   49400    302.04177   -1416.9863    396.49918    338.10955   -50.264495    37599.264 
   49500    291.62021   -1381.9503    422.05181    351.82159   -288.22177    37599.264 
   49600    299.75453   -1367.1784    415.79601     396.9262   -32.085102    37599.264 
   49700     311.5798   -1346.7004    442.95721    497.75595   -273.06246    37599.264 
   49800    312.86252   -1413.3557    412.59802    406.51121    -385.4972    37599.264 
   49900    301.85428   -1377.7781    408.74081    388.71606   -16.084615    37599.264 
   50000    299.72901   -1422.8278    420.09907    345.46501    179.22593    37599.264 
   50100    302.73342   -1418.1977     407.9403    351.45037    14.857542    37599.264 
   50200    293.47292     -1417.79     411.0926     313.3562    328.33057    37599.264 
   50300    303.28575   -1381.1633    425.97966    409.00852   -94.572741    37599.264 
   50400    298.10596   -1377.8743    438.52108    401.54004   -302.58746    37599.264 
   50500    304.71834   -1378.3375    409.76856    402.06703    -238.8285    37599.264 
   50600    300.28491   -1385.4873    421.39959    386.60651    3.0914394    37599.264 
   50700    304.29966   -1437.7065    411.75349    342.79974   -433.54891    37599.264 
   50800    293.85801   -1443.9251    431.63941    309.50013   -132.97742    37599.264 
   50900    293.16173   -1443.6881    410.75274    285.71856   -609.78427    37599.264 
   51000    305.41187   -1404.5379    406.52483    375.74245   -462.37479    37599.264 
   51100    298.33505   -1402.3873    412.72862    352.26499    303.65617    37599.264 
   51200      301.978   -1447.2828    418.11644    329.14352    124.85357    37599.264 
   51300    306.01488   -1431.5619    412.39019    357.29619    498.78782    37599.264 
   51400    299.05636     -1430.75     407.6998    322.11798    451.27519    37599.264 
   51500    300.52635    -1367.523    414.96124    399.21847    396.87511    37599.264 
   51600    314.38137   -1376.9737    414.65647    451.78348    352.40789    37599.264 
   51700     301.3714   -1389.3046    429.16142    395.43815    390.87614    37599.264 
   51800    306.57815   -1395.5537    432.25131    415.69913     444.5329    37599.264 
   51900    311.11551   -1364.3943    414.17262    449.18904    400.77406    37599.264 
   52000    297.50979   -1371.7323    430.84088    397.32023    412.28744    37599.264 
   52100    290.79079   -1372.8399    416.93194    352.08132    94.330626    37599.264 
   52200     294.5036   -1351.1865    417.28113    390.78432   -377.01254    37599.264 
   52300    298.01651   -1410.0338    413.00134    343.45843    -277.7383    37599.264 
   52400    297.66359   -1412.5811    435.73239    362.05475    565.24616    37599.264 
   52500    310.53276   -1384.7255    460.28241    472.34638      1035.34    37599.264 
   52600    298.02051   -1374.1738    422.31454    388.64965    233.85576    37599.264 
   52700    298.24436   -1403.2633    427.39398    365.64644   -171.00821    37599.264 
   52800    301.40755   -1370.7786    428.05631    413.02163   -361.67067    37599.264 
   52900    299.95561   -1384.1097    430.88878    395.99214   -148.12911    37599.264 
   53000    301.08696   -1349.9445    427.23719    431.59461   -515.97429    37599.264 
   53100    303.66066   -1369.4366    432.76685    429.20879   -527.10447    37599.264 
   53200    304.78836   -1387.5182    417.86016    401.29295   -0.4505439    37599.264 
   53300    297.37684   -1378.9726    459.95016    418.59121    694.30655    37599.264 
   53400      301.942   -1376.4741    415.22574    396.89954    753.25617    37599.264 
   53500     299.2029   -1383.6084    400.30579     362.5247     672.7056    37599.264 
   53600    302.25471   -1400.3847    443.32182    402.49165    161.73619    37599.264 
   53700    296.78429   -1391.6742    415.31708    358.59118    242.02399    37599.264 
   53800    296.50697   -1364.6369    441.77483    410.83883    456.45012    37599.264 
   53900    298.64274   -1381.6993    423.99335    385.60171    41.450489    37599.264 
   54000    298.74107   -1367.1958    437.35852    413.91265    238.18867    37599.264 
   54100    298.91716   -1367.5772    413.80807    390.77291    335.10395    37599.264 
   54200    307.98743   -1354.5741    438.52791    469.29433    319.58997    37599.264 
   54300     295.0281   -1345.1195    433.12497    415.05433     400.1064    37599.264 
   54400    302.40325   -1332.6001    427.95917    455.58175    292.33279    37599.264 
   54500    304.86247        -1344    422.81129    450.09564    30.756619    37599.264 
   54600    304.55867    -1328.186    415.09466     456.8265   -143.69193    37599.264 
   54700    302.19981   -1347.5782    438.86606     450.5954    260.47469    37599.264 
   54800    303.00871   -1343.0773     434.1398    454.00851    296.30971    37599.264 
   54900    304.06003   -1381.3818    435.46522    421.75834    412.16604    37599.264 
   55000    291.44815   -1404.7864    430.89815    337.05786    439.62984    37599.264 
   55100    298.58594   -1420.3353    434.61212    357.32901    500.62806    37599.264 
   55200    294.07412   -1374.4784    431.63811    379.91759    528.28224    37599.264 
   55300    289.10181   -1398.0564    439.84674     342.1826     494.9065    37599.264 
   55400    293.01991   -1409.8685    438.41441    346.56187    576.26302    37599.264 
   55500    308.55484   -1415.1874     422.7628    395.46811    259.19151    37599.264 
   55600    288.85289   -1414.2932    442.44936    327.42874    453.41128    37599.264 
   55700    295.14514   -1377.9075    427.23365     376.9015    642.67122    37599.264 
   55800    303.24745   -1429.4272    402.49143    337.08415    337.18735    37599.264 
   55900    302.85199   -1424.0936    449.86431    388.01177    101.94924    37599.264 
   56000    296.60957   -1382.8784    426.96088    378.24492    -346.8893    37599.264 
   56100    312.65054   -1382.8432    442.90371    466.37592   -245.12018    37599.264 
   56200    306.67433   -1409.3724    430.66529    400.72701   -302.29395    37599.264 
   56300    300.79133   -1420.9166    443.41759    375.47312   -4.2555443    37599.264 
   56400    304.55632    -1400.181    395.46167    365.18792    452.47428    37599.264 
   56500    306.09585   -1429.2479    412.20679    359.79096     483.2786    37599.264 
   56600    303.28945   -1402.5037    446.86787    408.57301    1082.3717    37599.264 
   56700    303.22887   -1400.1186     432.3717    396.18943    462.97103    37599.264 
   56800    307.47474   -1428.7011    418.87567    373.20897    156.16846    37599.264 
   56900    303.34694   -1415.6541    427.95407    376.76739    472.43461    37599.264 
   57000     303.9146    -1409.562    441.79189    399.25065   -82.841747    37599.264 
   57100    303.78721   -1439.8693     436.0631    362.64153   -4.1600275    37599.264 
   57200    304.78217   -1419.3693    433.17172    384.72557   -297.26824    37599.264 
   57300    289.69872   -1377.8399    387.08599    312.32327   -883.09308    37599.264 
   57400    305.10413   -1380.2674    418.98264    411.08652   -894.66978    37599.264 
   57500    285.68992   -1412.3071    438.85965    311.59797    -764.3436    37599.264 
   57600     303.3731   -1400.2932    436.12796    400.41976   -355.89158    37599.264 
   57700    282.81376   -1345.8447    465.48146    391.74497   -244.18338    37599.264 
   57800    305.96235   -1375.7193    452.97395    453.48624   -439.41946    37599.264 
   57900    301.46466   -1331.3913     411.7357    436.34524   -419.50617    37599.264 
   58000    291.09925   -1390.5563    447.76911    366.58958   -1030.0807    37599.264 
   58100    308.21872   -1384.2232     416.9002    419.05788   -634.38016    37599.264 
   58200    295.33194   -1386.1222    412.15532    354.44868    -295.4784    37599.264 
   58300    300.48774   -1395.1702     436.5886    393.02497    190.80549    37599.264 
   58400    305.71623   -1414.7471    431.35974    391.73718   -76.821438    37599.264 
   58500    300.09167    -1457.041    438.34583    331.12987    344.68383    37599.264 
   58600    301.30167   -1436.6448    427.81689    346.43976   -167.90554    37599.264 
   58700    300.84284   -1428.0009     420.7669    345.96982   -25.163226    37599.264 
   58800    292.12299   -1453.6907    416.19082    276.48168   -184.99476    37599.264 
   58900    291.78346   -1407.8057    428.91821    333.56689   -134.35079    37599.264 
   59000    291.98271   -1413.6548    428.48539    328.18121   -570.11043    37599.264 
   59100     302.8367   -1402.2641    445.48694     405.3952   -281.64438    37599.264 
   59200    294.20681   -1407.1517    445.47617    361.67918    64.983297    37599.264 
   59300    302.36977   -1434.6416    459.82966    385.26007     439.9869    37599.264 
   59400    299.53809   -1406.6063    432.90998    373.63873   -203.46894    37599.264 
   59500    299.58783   -1379.3858    406.50519    374.67815    417.05581    37599.264 
   59600    316.37867   -1388.7459    448.74239    483.08109    844.04086    37599.264 
   59700    303.87876    -1432.826    416.54481     350.5784    1003.1114    37599.264 
   59800    297.19491   -1420.5572    441.69683     357.9349    460.48257    37599.264 
   59900    307.46377    -1388.126    424.02641    418.88543    131.16747    37599.264 
   60000    295.63434   -1397.8959    425.24959    357.12944    415.27616    37599.264 
   60100    296.88778   -1393.3216    431.36276    373.45502   -114.39589    37599.264 
   60200    301.91856   -1423.9282    423.55809    357.67234    140.13539    37599.264 
   60300    303.30834   -1356.7596    445.22196    452.75611    464.16968    37599.264 
   60400    301.80613   -1441.7187    412.24617    328.06418   -181.48964    37599.264 
   60500    295.12574   -1404.8389    411.78492    334.43412    193.79444    37599.264 
   60600     306.2336   -1410.5613    435.84814    402.73851    182.38356    37599.264 
   60700    300.49904    -1410.449    409.19989    350.40831    479.75956    37599.264 
   60800    292.20542    -1460.968    426.39261    279.77696    177.29923    37599.264 
   60900    290.56743    -1453.952     417.3699    270.40249     27.13486    37599.264 
   61000    292.97775   -1427.6468    414.79368    304.97319    331.45052    37599.264 
   61100    294.25818   -1484.6093    412.73701    251.71347    132.84915    37599.264 
   61200    294.48003   -1461.4339    394.25891    257.40863    247.67156    37599.264 
   61300    290.02321   -1460.1929    413.93848    258.28224    89.418303    37599.264 
   61400    295.77716   -1455.4536    424.34645    299.31102    238.24336    37599.264 
   61500    297.71713   -1473.7389     425.6635    291.06885    23.210963    37599.264 
   61600     294.0758   -1464.3705    442.75096     301.1459    188.59518    37599.264 
   61700    303.66926   -1477.6587    431.84535    320.10385   -560.56381    37599.264 
   61800    295.19198   -1466.4662    387.46926     248.7891    186.84619    37599.264 
   61900    293.44063   -1432.3457    434.15951    321.72223   -375.36702    37599.264 
   62000    300.68099   -1432.3471    421.00619    341.13486   -637.64302    37599.264 
   62100    289.92336   -1441.0814    425.14719    288.15335   -577.58965    37599.264 
   62200    298.63028   -1428.1177    444.99409    360.12805   -95.920559    37599.264 
   62300     297.0737   -1401.4569    402.30208    337.09525   -235.48992    37599.264 
   62400    306.96219   -1385.6087    427.08453    422.20475   -98.414908    37599.264 
   62500    291.43005    -1413.983    433.01008    329.89174   -916.12302    37599.264 
   62600    296.23086    -1454.692    395.85229    273.61919   -184.76986    37599.264 
   62700    299.18874   -1427.1351    440.10358    358.73214   -97.527811    37599.264 
   62800    296.44036   -1406.8845    422.61165    349.12843    22.020739    37599.264 
   62900    298.55206   -1397.9703    426.46813    371.39766    182.73868    37599.264 
   63000    306.41641   -1374.7325    431.93124     435.4727    414.18961    37599.264 
   63100    308.31008   -1398.3069    452.90912    441.39401   -80.841497    37599.264 
   63200    302.07206   -1444.5887      436.613    350.75727    696.95488    37599.264 
   63300    301.71053   -1423.4761    440.68404     374.3147   -17.795521    37599.264 
   63400     297.4126   -1410.5119    464.37333    391.63593    366.40193    37599.264 
   63500    300.95074   -1408.4317     430.1929    375.45031    126.14567    37599.264 
   63600    301.85076   -1419.7392    442.73884     380.7371    24.131931    37599.264 
   63700    299.04043   -1409.4421    435.69416    371.34861   -34.009787    37599.264 
   63800    301.74356   -1401.3167    438.84891    394.78757    174.58896    37599.264 
   63900    306.45048    -1447.165    401.85119    333.11347   -99.351099    37599.264 
   64000    306.07011   -1391.2844    423.92169    409.35356   -326.96065    37599.264 
   64100    303.06863   -1426.9147    440.69603    376.99684   -202.35013    37599.264 
   64200    307.27102   -1408.5693    414.45557    388.00433   -324.06702    37599.264 
   64300    301.11479   -1404.3594    430.00125     380.0689   -145.53307    37599.264 
   64400    309.05325   -1386.0426    430.89288    434.98485   -291.68125    37599.264 
   64500    296.23567   -1402.5276    416.66777    346.62083   -164.78528    37599.264 
   64600    301.10734   -1394.1965    430.56856    390.76558   -298.27519    37599.264 
   64700    302.97406   -1378.9843    439.55061    423.35649   -612.42352    37599.264 
   64800    295.91879   -1395.0806    449.97049    385.94511   -552.20196    37599.264 
   64900    294.94734   -1418.4905    429.65373    337.84882    95.714315    37599.264 
   65000    294.85655    -1380.502    445.53938    391.31467     25.94773    37599.264 
   65100    295.77386   -1374.2614    453.62679    409.76874    87.464504    37599.264 
   65200    294.82594   -1386.4648    429.78878    369.46353    -475.5844    37599.264 
   65300    306.79614   -1389.1993    454.49071     445.2734   -152.34522    37599.264 
   65400    305.64108   -1367.3341    436.42699    443.87945    141.96392    37599.264 
   65500    296.70789   -1378.6393    420.60165    376.56703    -352.1908    37599.264 
   65600    296.08245   -1358.5089    439.74816    413.03062   -257.12203    37599.264 
   65700    313.98819   -1376.8356    429.52622    465.02279   -142.53992    37599.264 
   65800     305.5181   -1395.6374     458.9257    437.52162   -539.46511    37599.264 
   65900    296.83663   -1392.1777    447.51144    390.51747    69.309753    37599.264 
   66000     303.6988   -1417.9376    419.94133    368.05382    244.41732    37599.264 
   66100    292.30192   -1406.1774    452.54598    361.15504    109.28752    37599.264 
   66200    307.50145   -1381.7397    457.88203     459.2969    92.749336    37599.264 
   66300     294.9046   -1449.7984    447.02395      323.719    450.27207    37599.264 
   66400    301.59869   -1452.5608    419.89762    323.94051    126.64526    37599.264 
   66500    307.54867   -1422.0709    443.45604    404.75211    80.081565    37599.264 
   66600    301.57388   -1445.1063    412.85413    324.23996   -114.48404    37599.264 
   66700    309.66372   -1453.5102    420.92577    360.29609   -200.48624    37599.264 
   66800    297.14397   -1397.8217    439.74239    378.48686   -360.62463    37599.264 
   66900    298.54199   -1384.9232    462.76292    420.69423    293.98038    37599.264 
   67000    300.27678   -1393.6024    469.68488    426.74015    341.75953    37599.264 
   67100    297.21542    -1406.162    445.81824    376.54377    326.98968    37599.264 
   67200    314.00765   -1388.6135    434.88335    458.68963    44.768195    37599.264 
   67300    295.13208   -1403.1384    439.11411    363.49226   -287.93803    37599.264 
   67400    308.87475   -1372.4877    442.76678     459.6108   -657.57072    37599.264 
   67500    301.39415    -1409.194    445.10788    391.59754    4.5281697    37599.264 
   67600    287.99308    -1391.763    423.05025    326.69229   -8.8486208    37599.264 
   67700    307.40396   -1424.5786     431.7954    389.93285   -9.1862358    37599.264 
   67800    304.69142   -1393.6627    460.63316    437.48536   -131.06267    37599.264 
   67900    300.44051   -1400.2868    452.05238    403.15974   -114.59773    37599.264 
   68000     308.4194   -1420.7636    437.52089    404.04083   -194.05758    37599.264 
   68100    309.10314   -1381.7579    454.85634    463.45746   -172.98676    37599.264 
   68200    298.09565   -1399.6181    427.65176    368.88053   -520.87709    37599.264 
   68300    291.29427   -1371.6985    442.20979    380.76527   -253.53856    37599.264 
   68400    297.13983   -1416.3345    442.49933    362.71241   -52.415806    37599.264 
   68500    299.95632   -1424.7946    428.98648     353.4081    437.20548    37599.264 
   68600    295.08732   -1426.3083    454.09911    355.10609    640.38229    37599.264 
   68700    307.87133   -1414.1037    435.29286    406.00743    363.76156    37599.264 
   68800    304.90438    -1406.676     424.0341    388.83093    753.12748    37599.264 
   68900    301.52829   -1451.8226    419.50354    323.96791    724.73207    37599.264 
   69000    291.40051   -1438.8943    465.58811    337.42563    552.35848    37599.264 
   69100    307.68938   -1440.6354     431.8163     375.1808   -66.582805    37599.264 
   69200    312.45511   -1437.4685    472.53745    440.50528    5.6353617    37599.264 
   69300    298.47469   -1444.1905    442.36709    340.72837     4.407027    37599.264 
   69400     306.8996   -1452.0909     421.4265    349.78306   -234.01699    37599.264 
   69500    293.18764   -1474.2875    421.62145    266.10433   -190.40457    37599.264 
   69600    303.93991   -1453.8345    449.73281    363.03296    43.408908    37599.264 
   69700    302.20475   -1458.6617    452.94612    353.61417    109.44283    37599.264 
   69800    303.81345   -1475.7412    428.14405    318.96864     791.7468    37599.264 
   69900     303.2292   -1475.0633    433.90273    322.77717    550.70511    37599.264 
   70000    301.58905   -1485.9944    446.11616    316.68207    1248.9038    37599.264 
   70100    296.07141   -1482.2345    432.09996    281.60722    1271.7697    37599.264 
   70200    301.91059   -1485.8495    421.49097    293.64805    588.68657    37599.264 
   70300    297.75612   -1519.1831    434.26671    254.40327    527.20193    37599.264 
   70400    307.26821   -1467.7764    425.30007    339.62907    193.89972    37599.264 
   70500    299.87877   -1488.6259     418.8916    279.13315   -312.93232    37599.264 
   70600    297.20697   -1481.9802    432.92431    287.79366   -609.25836    37599.264 
   70700    302.68706   -1501.5026    433.53037    293.52698   -68.397215    37599.264 
   70800    296.22535   -1506.9911    430.66294    256.10598    68.632161    37599.264 
   70900    312.04533    -1436.921    443.21125    409.88337   -62.567494    37599.264 
   71000    299.73949   -1434.3731    452.69161    366.55941   -78.702271    37599.264 
   71100    299.60286   -1432.1571    433.50427    348.97355    185.29498    37599.264 
   71200    302.98571   -1466.3725    450.10286    346.57294    724.46794    37599.264 
   71300    307.22258   -1489.5446    421.70212    314.05775    264.77928    37599.264 
   71400    301.88202   -1433.6102    417.56286    341.83071    151.28546    37599.264 
   71500    306.65135   -1461.7946    429.18613     346.7223    126.82083    37599.264 
   71600    304.99644   -1457.4652    419.95539    334.37713    128.14735    37599.264 
   71700    297.20747   -1411.3698    459.14699    384.62894    619.20651    37599.264 
   71800    288.00104   -1416.6884    454.85068    333.60315    982.93817    37599.264 
   71900    298.07161   -1448.6179    433.76891    325.88977    655.90271    37599.264 
   72000    309.39719   -1458.4253    432.30533    365.56168    795.98493    37599.264 
   72100    292.19611   -1466.7664    438.04736    285.59147    807.51611    37599.264 
   72200    305.70948   -1487.7497    421.07111    308.41563    137.68786    37599.264 
   72300    301.22703    -1481.075    444.70002    318.55693    153.16682    37599.264 
   72400    305.99204   -1460.1609    419.55438    335.75868     350.9535    37599.264 
   72500    306.17065   -1448.9873    423.44958    351.63083    261.50617    37599.264 
   72600    292.08943   -1438.8825    447.43434     322.3824    323.37801    37599.264 
   72700    304.48814    -1460.367    443.57704    352.81058    56.347193    37599.264 
   72800    305.63715   -1429.5388    435.67957    380.90964     -117.695    37599.264 
   72900     305.3902   -1420.7687    416.91149    369.80089    114.95635    37599.264 
   73000    294.94397   -1423.8137    421.21323    324.06998   -60.553137    37599.264 
   73100    302.46929   -1458.5473    405.70771    307.68009     282.4995    37599.264 
   73200    306.08955   -1462.3037    418.86526     333.3653    327.99751    37599.264 
   73300    302.05408   -1439.8309    432.12433    350.94545    739.16126    37599.264 
   73400    296.02469   -1474.0199    393.21807    250.72973     202.2407    37599.264 
   73500    312.35448   -1448.1948    411.86473    368.65367    59.701687    37599.264 
   73600    301.07426   -1449.8918    436.09747    340.45042   -96.621932    37599.264 
   73700    299.32753   -1451.6789    455.19677    349.90582   -303.42936    37599.264 
   73800    297.04431   -1430.3934    407.08804    312.81249   -85.719183    37599.264 
   73900     298.6936   -1396.8293    420.73525    367.44245   -8.1006798    37599.264 
   74000    308.10154   -1428.6312    420.82229    378.04488     53.83848    37599.264 
   74100    295.98504   -1421.8602    443.62042    353.11346    179.09318    37599.264 
   74200    287.77987   -1430.3387    405.98276    270.09008   -169.85563    37599.264 
   74300    305.13256   -1384.4033    427.11502    415.21086    95.188365    37599.264 
   74400    307.96081   -1420.1845    455.46069    420.49698    126.57537    37599.264 
   74500    300.96897   -1403.7102    448.02797    398.08891    153.47688    37599.264 
   74600    300.72979   -1436.3436    462.66917    379.02096   -24.259685    37599.264 
   74700    299.13518   -1412.4533    451.60134    384.67075    149.22972    37599.264 
   74800    298.12729   -1410.0735    439.62721    370.54288    124.15957    37599.264 
   74900    290.92369   -1451.4248    421.98858    279.15085   -55.378797    37599.264 
   75000    302.87669   -1400.9536    417.03757    378.43615   -683.85248    37599.264 
   75100    298.28474   -1362.5281    452.39755    431.56681   -248.62948    37599.264 
   75200    292.88648   -1384.4148    450.09955    383.10054    -103.7702    37599.264 
   75300    291.02298   -1374.1314    460.01874     394.9211    74.150422    37599.264 
   75400     303.9841   -1375.8052    471.90282    463.43095    440.43834    37599.264 
   75500    293.54479   -1396.5877    448.45356    372.24279    346.54526    37599.264 
   75600    300.91772     -1396.81    420.83044    377.56113    227.48599    37599.264 
   75700    307.93474   -1392.5944    426.50324    419.01235   -106.49255    37599.264 
   75800    291.71486   -1418.8576     450.4764    343.76461    -77.42875    37599.264 
   75900    297.24083   -1375.1276    450.99975    412.87402   -215.35346    37599.264 
   76000    297.26486   -1392.3499    448.30827    393.06832    120.26685    37599.264 
   76100    298.49285   -1379.1009    434.76316    398.29569    74.890969    37599.264 
   76200    300.91403    -1385.127    438.74046     407.1375   -247.96159    37599.264 
   76300    308.32408   -1355.2139    448.35719    479.99809    293.97139    37599.264 
   76400     291.5282   -1370.9811    429.29992    369.62509   -478.92787    37599.264 
   76500    298.97281    -1399.657    454.29902    399.43435     499.8167    37599.264 
   76600    296.19326    -1432.287    444.53652    344.53934    199.65952    37599.264 
   76700    294.43101   -1379.1031    454.44985    399.70992     93.82645    37599.264 
   76800    294.98003   -1422.7126    421.76667     325.8868   -128.99129    37599.264 
   76900    305.07331   -1397.9279     469.3915    443.69627   -489.53016    37599.264 
   77000    313.98493   -1397.9731    432.42266    446.76709   -25.699711    37599.264 
   77100     302.5633   -1356.2727     430.0374    434.70727    310.39079    37599.264 
   77200     314.2533   -1362.5554    434.28673    485.25592    329.28798    37599.264 
   77300    294.74277   -1413.1747    431.93323    344.52396    708.80656    37599.264 
   77400    296.71205   -1394.4964    438.85142    378.97841       529.53    37599.264 
   77500    281.19291   -1379.1546    445.83431    331.49732   -5.0506416    37599.264 
   77600    292.78346   -1367.3078    452.07237    401.71698    419.55144    37599.264 
   77700    296.08117   -1394.3089    440.61158    378.08831    781.04005    37599.264 
   77800    295.25552   -1360.6797    448.98633    416.37848    818.77925    37599.264 
   77900    306.17841   -1402.5915    457.92363    432.53558     781.4912    37599.264 
   78000    301.78835   -1400.7384    449.65121    406.36961    588.02664    37599.264 
   78100    301.12379   -1403.8648    437.41313    388.01589   -356.87318    37599.264 
   78200    286.57751   -1395.9944     440.8521    333.89549   -192.05416    37599.264 
   78300    307.87735   -1423.3236    442.24805    403.76979   -490.31989    37599.264 
   78400    294.10693   -1445.9081    423.36889    300.36617   -151.20892    37599.264 
   78500    297.56206   -1417.2933    406.74032    327.89379   -353.44159    37599.264 
   78600    295.49388   -1409.7983    420.98517    340.33086   -77.390996    37599.264 
   78700     309.0174   -1397.3822    410.50712    403.09824   -371.82299    37599.264 
   78800    296.85316   -1422.1299     433.6097    346.73787   -306.70979    37599.264 
   78900    291.80337    -1409.394    433.45772    336.60763   -115.66162    37599.264 
   79000    298.86111   -1484.2995     414.7995    274.78988   -701.41206    37599.264 
   79100    305.07945   -1413.1055    432.04619      391.201   -454.13059    37599.264 
   79200    302.28348   -1446.3657    438.98884    352.30709    322.65754    37599.264 
   79300    301.80448   -1465.3706    430.14183    322.30057    480.39164    37599.264 
   79400    306.76572   -1457.1227    424.04567    346.76816   -118.00863    37599.264 
   79500    292.33093   -1464.4584    415.55666    266.01514    49.245709    37599.264 
   79600    302.81293   -1454.8898    452.48441    359.65999    11.884009    37599.264 
   79700    295.39612   -1428.9511    441.31538    341.06851    244.63538    37599.264 
   79800    295.16715   -1459.5213    408.07311    276.22619   -441.48655    37599.264 
   79900    298.94809   -1416.9968    432.27103    359.95546   -123.04731    37599.264 
   80000    300.20757   -1423.2947    426.54154     353.5932   -22.770814    37599.264 
   80100    304.21052   -1442.4427     434.2658    360.17493    170.76722    37599.264 
   80200    295.42661   -1439.5512    439.87665    329.16687    451.21207    37599.264 
   80300    300.51987   -1423.0197    437.72042    366.45186    459.50014    37599.264 
   80400    298.13033   -1394.5325    438.38752    384.85787    539.18309    37599.264 
   80500    300.21737   -1415.9215    426.49572    360.96466    549.37588    37599.264 
   80600    298.81341   -1408.0536    413.67046    349.69226    620.71765    37599.264 
   80700     307.3797   -1419.8787    429.45435    392.18254    414.82725    37599.264 
   80800      286.427   -1428.8759    458.85336    318.33825    885.60522    37599.264 
   80900    304.97838   -1450.3095    434.82936    356.32554    382.01361    37599.264 
   81000    298.15511   -1399.7943    454.74159    396.06157    188.97662    37599.264 
   81100    295.50176   -1387.0353    453.57644    395.72062   -274.67422    37599.264 
   81200    298.59934   -1418.6297    448.65147     373.1343   -5.8956752    37599.264 
   81300    292.46848   -1403.0494    431.43623    343.92242   -258.41407    37599.264 
   81400    302.51923   -1422.6539    433.44637    371.53674    48.535031    37599.264 
   81500    299.97585   -1383.3152    445.10131    411.09022    381.89269    37599.264 
   81600    312.92412    -1391.674    444.26697    460.13889    60.831523    37599.264 
   81700    301.57068   -1374.1924    445.87839    428.16369   -442.43871    37599.264 
   81800    297.99026   -1370.8363    430.63077    400.16726   -720.97665    37599.264 
   81900    304.56345   -1361.8393    461.15637    469.25637   -757.31576    37599.264 
   82000    299.45932   -1401.0082    448.36534     394.3378   -566.12891    37599.264 
   82100    295.72378   -1375.7005    415.73612    370.21373   -427.10133    37599.264 
   82200    301.29163   -1394.4105    461.88065    422.69266   -143.34132    37599.264 
   82300     304.4495   -1389.6826    448.82169    428.56579    -205.1165    37599.264 
   82400     292.0003   -1437.2952    468.87304    345.00755   -53.501573    37599.264 
   82500    291.39719   -1381.3316    438.37528    367.76065    243.34871    37599.264 
   82600    300.30057   -1384.0653    437.22288    403.92229    98.692996    37599.264 
   82700    293.58536   -1363.0356    456.05133    413.57516    724.88434    37599.264 
   82800    294.86655   -1385.8645     439.3504    379.80808    439.37215    37599.264 
   82900    296.29676   -1388.7242    445.50764    389.53881    278.70663    37599.264 
   83000    308.12883   -1376.8386    453.20689    462.34477    303.54721    37599.264 
   83100    302.79694   -1385.3904      445.211    421.81405     198.3692    37599.264 
   83200    305.67409     -1396.58    439.85059    418.20558     81.90678    37599.264 
   83300    295.48601   -1400.8568    435.59361    363.84543   -544.32514    37599.264 
   83400    307.38617   -1433.7854     457.2692     406.1198   -583.91302    37599.264 
   83500      303.557   -1428.6778    446.87957    383.61408    1.4764402    37599.264 
   83600    302.62033    -1440.795    444.46999    364.87411   -352.96949    37599.264 
   83700    298.51859   -1429.8168    439.37116    352.30359    14.646566    37599.264 
   83800    298.03817   -1416.4688    455.53147    379.65102    86.275461    37599.264 
   83900    293.56834   -1466.5951    453.22154    307.10928    345.41921    37599.264 
   84000    305.22439    -1452.989    437.18051    357.10373    39.323125    37599.264 
   84100    295.95582   -1459.6357    479.47848    351.06454   -299.08124    37599.264 
   84200    312.50754   -1453.4704    449.31442    401.51613    165.63611    37599.264 
   84300    293.99492   -1461.2799    447.85611    308.97781    592.85439    37599.264 
   84400    293.97136   -1496.6603    436.05026    261.68558    278.25215    37599.264 
   84500    303.38297   -1445.6334    438.29394    357.28997    238.61282    37599.264 
   84600    303.23582   -1466.1409    460.78446    358.61113   -124.55332    37599.264 
   84700    299.68683   -1477.2289    447.20294    317.97812    346.31205    37599.264 
   84800    300.53315   -1554.7815     422.7083    219.73764     107.2311    37599.264 
   84900    296.69531   -1503.3864    463.49039    294.65207   -144.75898    37599.264 
   85000    303.81482   -1503.1536    443.80598    307.22433    22.871203    37599.264 
   85100     293.1171   -1475.6842    452.53185    295.30078    82.394439    37599.264 
   85200    296.20213   -1505.4362    451.64522    278.53881    84.366129    37599.264 
   85300    308.62668   -1433.6103    458.08817    412.69373   -508.95429    37599.264 
   85400    302.77793    -1490.898    481.36306    352.37305    212.11688    37599.264 
   85500    296.75013   -1485.4648    443.28717    292.61704   -520.55333    37599.264 
   85600    292.32611   -1462.5302    453.05109    305.41612    25.316984    37599.264 
   85700    294.96388   -1479.4264    444.90257    292.23618   -522.55777    37599.264 
   85800    298.28553   -1442.5036    453.08676     352.2841   -897.77638    37599.264 
   85900    305.18926   -1416.4432    464.80763    421.11869   -366.16731    37599.264 
   86000    303.11054     -1448.61      442.161    356.95509   -670.60575    37599.264 
   86100    297.75836   -1459.9989     453.8693    333.20013   -433.22868    37599.264 
   86200    290.46271   -1475.4524    437.81617    268.87738   -513.42112    37599.264 
   86300    295.86009   -1432.9809     464.7517    362.56203   -310.30697    37599.264 
   86400    304.40388   -1425.6305    448.81784    392.40895     140.0608    37599.264 
   86500     297.2659   -1430.8815    486.09149    392.32463    -246.4428    37599.264 
   86600    300.01361   -1396.6671    441.05158    393.85843    228.55144    37599.264 
   86700    291.87888   -1424.8498     428.5682    316.60195   -9.6194839    37599.264 
   86800    304.05565   -1482.1857    464.28517    349.75463    163.14477    37599.264 
   86900    299.59829   -1464.9701    442.00947    324.64517    529.02293    37599.264 
   87000    305.87625   -1421.8915    448.45268    402.40549    615.31852    37599.264 
   87100    310.38985   -1449.2315    471.70967    418.62482    233.35296    37599.264 
   87200    295.22323   -1420.9327    465.44222    372.43611    74.576604    37599.264 
   87300    306.96457   -1401.0203    445.95756    425.67684   -26.592549    37599.264 
   87400    294.97388    -1422.061    437.74547    342.48947   -362.82339    37599.264 
   87500    300.64739   -1440.2118    467.42448    379.53733   -287.31304    37599.264 
   87600    295.99536     -1452.49     454.6402    333.54988   -189.46671    37599.264 
   87700    293.64286   -1408.1829    450.48291    363.11802   -421.68821    37599.264 
   87800    308.19533   -1391.9125    449.87838    444.24152    196.81609    37599.264 
   87900    293.80692   -1427.6095    440.13127    334.07778   -156.80479    37599.264 
   88000    305.00052   -1463.5117    432.40749    340.80106   -11.281225    37599.264 
   88100    301.51024   -1462.9248    467.62518    360.90627    918.30479    37599.264 
   88200    297.78337   -1477.3989    445.13462    307.17796    84.894232    37599.264 
   88300     310.1419   -1485.7028     446.5579    355.88653    82.242267    37599.264 
   88400     308.2634   -1478.6723    431.33262    339.24212   -289.30695    37599.264 
   88500    296.98063   -1468.0582    441.42935     309.2026   -822.49087    37599.264 
   88600    305.88363    -1411.908    448.30834     412.2778   -963.51573    37599.264 
   88700     306.5286   -1422.3505    461.65437    418.08246    -469.6749    37599.264 
   88800    295.72037   -1473.4595    464.13024    320.83346   -435.50438    37599.264 
   88900    303.54388   -1466.4836    431.83421    330.70387   -429.30678    37599.264 
   89000    298.39224   -1468.6839    442.51819     316.0152   -430.52782    37599.264 
   89100     303.0498   -1498.2591    442.38821    307.26001   -653.35895    37599.264 
   89200      300.058   -1469.3135    416.83653    297.19663   -619.58617    37599.264 
   89300    291.51846   -1486.4893    435.55796     260.3311   -506.79391    37599.264 
   89400    302.71468   -1431.5148    452.32331    382.43201    -218.4465    37599.264 
   89500    296.50579   -1440.5713    437.50815    330.63243   -377.85367    37599.264 
   89600    291.71477   -1430.6728    447.31114    328.78375     43.67484    37599.264 
   89700    291.84511   -1448.7758    449.69693     313.6528   -388.82896    37599.264 
   89800    294.52398   -1439.3743     439.8553    325.26238   -155.01828    37599.264 
   89900    299.02694   -1456.4504    450.82911    339.41456   -276.11879    37599.264 
   90000    315.00526   -1440.0586    466.76333    443.61173   -608.65593    37599.264 
   90100    301.01174   -1409.8736    420.55686    364.64688    -236.5578    37599.264 
   90200    302.39321   -1439.1272    457.72616    378.77639   -289.75366    37599.264 
   90300    306.38859   -1443.7761     427.0349    361.40765   -228.60112    37599.264 
   90400    298.42561    -1433.113    446.78031    355.99838   -308.07366    37599.264 
   90500    304.07972   -1399.0107    455.11526    423.86809   -340.55815    37599.264 
   90600    289.85062   -1435.7619    440.02874    308.02722    190.08915    37599.264 
   90700    302.42627   -1485.2759     437.6526    312.70285    600.38394    37599.264 
   90800     296.5836   -1481.5422    464.49995     317.0034    666.80351    37599.264 
   90900    298.07272   -1475.4225    444.61759    309.93881    751.05946    37599.264 
   91000    307.83487   -1443.9517    472.42455    413.12714    892.82672    37599.264 
   91100    309.67786   -1456.5167    461.22355    397.65092     827.4079    37599.264 
   91200    299.67024   -1459.2061    457.95253     346.6759    389.33465    37599.264 
   91300    306.44261   -1448.1427    456.17805    386.42717    478.38398    37599.264 
   91400    294.71258    -1428.332    445.32073    342.61838    481.39167    37599.264 
   91500    292.73611   -1456.9273    435.72121    295.53333    576.83468    37599.264 
   91600    290.88996   -1453.6133    458.52882    313.35091   -228.84688    37599.264 
   91700    298.45476   -1425.1014    451.06329    368.42403    68.431118    37599.264 
   91800    302.49757   -1443.8148    445.98773    362.81982    54.678294    37599.264 
   91900    308.75246   -1487.2204    453.51202    355.07324    150.94497    37599.264 
   92000    313.62446   -1432.3868     447.2997    425.60898   -45.769574    37599.264 
   92100    310.73445   -1475.5633    434.98771    357.12111   -615.71693    37599.264 
   92200    294.83262   -1458.2417     452.4579     320.3858   -569.54993    37599.264 
   92300    300.67969   -1434.4661    464.95869    382.96258   -143.61503    37599.264 
   92400    299.61105   -1462.5022    455.51863    340.67964   -170.40782    37599.264 
   92500    290.30777   -1473.1428    451.20062    283.87444   -526.30338    37599.264 
   92600    313.56561   -1464.1315    439.20445    385.50438   -452.66657    37599.264 
   92700    304.44154    -1472.669    453.83863    350.56055   -867.39335    37599.264 
   92800    305.87755   -1482.0768     456.3272    350.10054    159.69803    37599.264 
   92900    314.49277   -1463.6192     442.5983    393.58097    296.72945    37599.264 
   93000     304.9305   -1488.1894    479.10576     362.5067    898.08026    37599.264 
   93100    303.95472    -1463.316    442.09834    345.98356    534.64494    37599.264 
   93200    288.06471   -1493.0872    444.43412    247.07419    245.04252    37599.264 
   93300    294.40022   -1478.9442    462.68445    307.96494    518.91722    37599.264 
   93400    303.59141   -1471.0457    461.02137     355.5427    768.00858    37599.264 
   93500    299.32789    -1478.354    450.33595    318.37151    303.15539    37599.264 
   93600    300.55795   -1481.2388    468.13228    338.81585    -285.6468    37599.264 
   93700    299.30743   -1464.9285    446.58446    327.95349   -570.42226    37599.264 
   93800    313.03937    -1449.719    454.48889     412.8342   -290.88976    37599.264 
   93900    290.70513   -1489.3597    441.87142    260.11566   -438.99151    37599.264 
   94000    302.11185   -1454.6913    454.85811    359.07871   -348.36563    37599.264 
   94100     304.3792   -1437.0155     466.8547    398.94975   -1085.7626    37599.264 
   94200    294.15802   -1430.2664    486.19738    379.06619   -1074.7132    37599.264 
   94300    293.44137    -1429.743     456.6049     346.7736   -720.14345    37599.264 
   94400    293.64462   -1411.4952    485.18706    394.51783   -511.28609    37599.264 
   94500    289.74906   -1440.7834    459.13398    321.65415   -277.06629    37599.264 
   94600    295.32231   -1417.0029    449.36909    360.73847   -137.56639    37599.264 
   94700    294.77182   -1432.9975    463.81128    356.70992   -261.60476    37599.264 
   94800     294.6653   -1404.3031    449.32099    370.43489    -534.7606    37599.264 
   94900     301.6294   -1382.2611    462.76325    437.24397   -877.63105    37599.264 
   95000    295.43432   -1396.6635    490.64184    422.85439   -317.47781    37599.264 
   95100    295.15218   -1429.2075    468.66915    367.06866   -319.16678    37599.264 
   95200    301.52809   -1450.0259     443.9246    350.18478   -197.92171    37599.264 
   95300    309.84464   -1423.2617    442.36168    412.79424   -432.79695    37599.264 
   95400    304.48298   -1440.3562    461.98738    391.20851   -284.76584    37599.264 
   95500    298.81895   -1423.7717    457.52908     377.8577    -582.9916    37599.264 
   95600    299.25291   -1393.1578    489.50106    442.39549     411.2408    37599.264 
   95700    302.45739    -1434.368     439.8406     365.9387     441.1135    37599.264 
   95800     298.9521   -1437.7305    451.56967    358.53844    387.26625    37599.264 
   95900    293.63688   -1427.9826    446.47309    339.28161     55.16232    37599.264 
   96000    293.83028   -1463.7929    473.81405    331.68225    709.93081    37599.264 
   96100    299.89179   -1391.7925    458.37717    415.51069    706.59554    37599.264 
   96200    306.13455   -1436.8433     464.8099    404.97282   -100.12069    37599.264 
   96300    290.29563   -1423.9589    472.25234    354.05548     165.0373    37599.264 
   96400    304.57409   -1425.0575    458.50662    403.43628    39.768917    37599.264 
   96500    308.87357   -1401.0087    460.48493    448.80258   -406.48191    37599.264 
   96600    311.44003   -1484.8599    473.82108    389.83163   -334.27569    37599.264 
   96700     289.9182   -1511.8637    451.57607    243.77673   -401.89494    37599.264 
   96800    300.53429   -1424.1067    435.53455    363.24385   -679.15995    37599.264 
   96900    298.92183    -1444.547    444.99987    345.01592   -706.36509    37599.264 
   97000     295.3646   -1420.5739    439.03623     347.0248   -324.89709    37599.264 
   97100    308.26398    -1445.543     436.2301    377.27157   -563.91698    37599.264 
   97200    301.93043   -1443.7976    439.92685    354.22509   -303.75072    37599.264 
   97300    298.42439    -1442.607    447.79888    347.51747     219.3055    37599.264 
   97400    307.62398   -1463.0672    461.46286     382.1014    492.06471    37599.264 
   97500    304.09044   -1474.4421    465.39473    358.76435    553.94942    37599.264 
   97600    296.03364   -1487.2434    466.01454    310.34297    665.86175    37599.264 
   97700     299.1114   -1482.0471    448.14154    311.51016    344.95738    37599.264 
   97800    307.97521   -1485.7535    469.06905    368.60107    729.20931    37599.264 
   97900    294.25193   -1480.5927    477.35818    320.32315   -32.148818    37599.264 
   98000    296.03579   -1498.9331    466.19885    298.84733    44.201325    37599.264 
   98100    297.37563   -1498.2595    453.53678    292.88549   -137.97158    37599.264 
   98200    299.68052   -1516.2334    436.57211    268.31438    114.22028    37599.264 
   98300    299.27559   -1481.5877    437.09331    301.65995    703.60163    37599.264 
   98400    294.26559   -1461.2408    429.40508    291.78331    235.65105    37599.264 
   98500    297.28686   -1466.6474    435.94515    306.50664     314.9192    37599.264 
   98600    303.61051   -1430.5375    443.61797    378.73341   -24.381716    37599.264 
   98700    305.34516   -1440.6378    449.90318    382.72085    696.63381    37599.264 
   98800    309.13676   -1412.4831    473.74213    451.76924    601.79173    37599.264 
   98900    302.93893    -1452.318    483.58471    393.89888   -350.26835    37599.264 
   99000    291.63315   -1452.9049    435.99689    294.87025    -86.90911    37599.264 
   99100    297.78614   -1451.5432    462.72382    350.63529    -453.5609    37599.264 
   99200    302.83114   -1440.1221    467.15154    389.17678   -234.96694    37599.264 
   99300    307.31282   -1507.8049    438.32281    312.82402    16.026435    37599.264 
   99400     311.0553   -1473.2739    455.10734    380.97335    161.11746    37599.264 
   99500    300.06042   -1426.6482    444.95512    367.99137   -51.432116    37599.264 
   99600      289.576    -1402.506    462.23196    362.25113    231.04305    37599.264 
   99700    303.23236   -1430.0414    455.69898    389.60954    48.869289    37599.264 
   99800    295.87549   -1453.4704    443.22111    320.61116   -368.61787    37599.264 
   99900    301.17002   -1388.4266    466.94597    433.19485    178.76746    37599.264 
  100000    316.74365    -1409.214    446.29562      461.808    466.33185    37599.264 
  100100    298.54756   -1409.2439    481.68294    415.31865     412.4333    37599.264 
  100200    299.79431   -1448.7555    423.80246    323.53445   -55.997274    37599.264 
  100300    293.92961   -1422.1284    449.10774     349.0872   -202.73596    37599.264 
  100400    301.25095   -1442.8362    454.46587    366.66925   -363.28882    37599.264 
  100500    306.04595   -1468.8207    468.24847    376.03539   -142.44178    37599.264 
  100600    296.76515   -1465.5767    442.50716    311.79268   -466.53649    37599.264 
  100700    286.73723   -1501.2718    453.71414    242.19861   -714.74403    37599.264 
  100800     296.2055   -1509.7833    432.72423     255.2858   -503.15952    37599.264 
  100900    298.33792   -1453.3661    460.44027    349.01077   -105.72969    37599.264 
  101000    302.82534   -1483.4128     482.5646    361.27301   -153.78062    37599.264 
  101100    297.72152   -1497.7673    426.99775    268.39446   -246.61434    37599.264 
  101200    298.30564   -1466.6402    458.36623    333.51741   -104.48697    37599.264 
  101300    314.40376   -1487.6201    450.95329    377.53467   -93.494837    37599.264 
  101400    296.91945   -1460.8615    439.33962    314.03432    115.66559    37599.264 
  101500    297.45888   -1451.2189    470.78858    357.55232    425.97379    37599.264 
  101600    298.59566   -1454.5214    459.47474    348.04932    78.557629    37599.264 
  101700    306.65148   -1473.9612    450.01166    355.38185    494.76524    37599.264 
  101800     302.3374   -1468.6324    457.77254    349.06661    488.49488    37599.264 
  101900    290.09071   -1438.6493    450.27878    316.46973    635.58582    37599.264 
  102000    309.77679   -1451.0822    458.63625    400.94319   -78.034917    37599.264 
  102100    296.77026   -1469.9783    439.98394    304.89086   -296.70978    37599.264 
  102200    296.75695   -1459.3069    465.92344    341.44186    156.40357    37599.264 
  102300    284.71434   -1436.4636    474.05248    318.24601   -61.893843    37599.264 
  102400    301.48015   -1463.0778    495.77359    388.76632   -353.49245    37599.264 
  102500     300.1355   -1454.8439    457.06574    352.24406    791.99834    37599.264 
  102600    302.72022   -1418.5684    453.43577    396.51571    97.144345    37599.264 
  102700    306.20525   -1454.6534     459.7104    382.38121     169.3608    37599.264 
  102800    299.40278   -1430.9104    460.14355    375.95955     651.3554    37599.264 
  102900    307.48975    -1452.953    463.88604    394.03499   -180.51338    37599.264 
  103000    290.12494   -1426.6168    446.83781     325.2153   -62.078046    37599.264 
  103100    303.75051   -1475.6903    440.50736    331.09976   -267.20856    37599.264 
  103200     297.7675   -1473.2243    439.45566     305.6022   -560.66698    37599.264 
  103300    303.77081   -1453.0772    457.71914    371.01589   -163.67306    37599.264 
  103400    294.56974    -1476.574    471.26941    319.68258    104.95716    37599.264 
  103500    294.28126    -1452.016    461.16077    332.83435   -265.54733    37599.264 
  103600     297.5529   -1496.9741    436.79378    278.22524   -128.89198    37599.264 
  103700    299.04929   -1459.7545    469.29395     354.6758   -438.17752    37599.264 
  103800    303.17347   -1456.3161    434.11997    341.49097   -239.88993    37599.264 
  103900    297.97167    -1482.336     459.1064    317.05962   -179.62055    37599.264 
  104000    299.74071   -1476.5858    451.77984    323.44044   -643.87274    37599.264 
  104100    299.79496   -1481.8543    444.89791    311.53406   -363.08538    37599.264 
  104200    302.02434   -1500.9946    456.62772    314.15145   -106.01672    37599.264 
  104300    298.39465   -1458.5385    448.99956    332.65283   -326.12455    37599.264 
  104400    301.09848   -1490.9549    449.07276    312.47159    217.76003    37599.264 
  104500    296.24975   -1477.2181    485.65697    340.98279    121.35673    37599.264 
  104600    294.57823   -1469.7905    445.85122    301.08613    214.73358    37599.264 
  104700    301.26548   -1499.2328    441.49058    297.36266    692.49191    37599.264 
  104800    294.44436   -1467.5367    451.20405     308.0905    302.89748    37599.264 
  104900    300.41651   -1457.8393    467.04597    360.49287    400.06625    37599.264 
  105000    282.45857   -1442.9721    436.51968    264.05818    92.723741    37599.264 
  105100    291.85368   -1473.6979    459.54372    298.61605    32.803412    37599.264 
  105200    301.51305   -1440.6976    458.88343    374.40427   -17.817862    37599.264 
  105300    303.30188   -1457.6741    450.49595    357.08657    452.61449    37599.264 
  105400     298.2171   -1475.4061     462.7009    328.68796   -5.2288939    37599.264 
  105500    298.70057   -1434.1771    439.22779    348.61845    200.79171    37599.264 
  105600    313.49768   -1475.1873    460.82254    395.76108   -514.25126    37599.264 
  105700    308.61121   -1460.8899    460.47701    387.73347    504.89543    37599.264 
  105800    294.09623   -1465.5847    500.58988    357.86251   -485.59279    37599.264 
  105900    306.15658   -1420.6676    491.59157    448.02927   -141.39281    37599.264 
  106000    284.78174   -1425.9983    450.36806    305.33005    290.24571    37599.264 
  106100    291.04785   -1444.7138    490.88218    355.31396   -290.99119    37599.264 
  106200    304.81734    -1459.144    449.65285    361.59011    192.65332    37599.264 
  106300    291.69936   -1432.8903    470.18944    349.37525    50.724005    37599.264 
  106400    303.96387   -1429.5395    460.41359    398.11647    202.13053    37599.264 
  106500    300.10145   -1441.0647    488.79853    397.60284    410.32071    37599.264 
  106600    300.46404   -1440.0922    454.54004    365.94779    165.79797    37599.264 
  106700    297.03657   -1462.4196    466.38709    340.05055    82.234902    37599.264 
  106800    306.62343   -1423.7185    475.61969    431.10636    31.851306    37599.264 
  106900    305.18724   -1431.0964    495.08123    436.72993    399.68439    37599.264 
  107000    289.52647   -1461.6911    435.68424    276.29553    277.43199    37599.264 
  107100    312.65263   -1431.2537    474.39484    449.46588    194.07514    37599.264 
  107200    295.92928   -1450.0361    458.25012    339.31641   -69.507371    37599.264 
  107300    303.19634   -1443.1726     471.4867     392.1041    -610.2911    37599.264 
  107400    301.54591   -1435.9512    465.41158    385.82663    3.2483447    37599.264 
  107500    300.93112    -1483.006    447.30131    317.89619    151.70255    37599.264 
  107600    308.54372   -1426.6626    456.60346    417.78362    462.87431    37599.264 
  107700    300.25316   -1442.4695    461.29597     369.3779   -214.99768    37599.264 
  107800    296.11834   -1402.8187     462.7167    391.85086   -268.64648    37599.264 
  107900    292.36341   -1450.3852    466.74603    331.42385    100.26601    37599.264 
  108000    310.25064   -1442.1796    480.75803    434.09892    232.33808    37599.264 
  108100    293.62874    -1454.784    429.01553    294.98608    61.999379    37599.264 
  108200    306.11934    -1453.956    479.11917    402.10091   -45.135313    37599.264 
  108300    295.85383   -1441.7502    448.41031    337.42315    -328.4185    37599.264 
  108400    296.61382   -1420.6032    474.69908    388.27742    224.76096    37599.264 
  108500    309.33721   -1412.5384    473.71897    452.59247    367.40993    37599.264 
  108600    288.31758   -1407.8526    458.72733    347.73943    374.69771    37599.264 
  108700     308.5536   -1444.2079     445.2833    388.96253    168.73921    37599.264 
  108800    302.57264   -1445.2191    476.99349    392.75895   -123.48452    37599.264 
  108900    288.87726   -1454.8206    465.13135    309.69287   -8.2651183    37599.264 
  109000    298.61096    -1461.467    458.26309    339.96084   -382.51692    37599.264 
  109100    307.92005   -1470.9121    433.69674    347.82204   -145.87078    37599.264 
  109200     305.5544   -1455.0023    459.14562    378.54002   -470.93181    37599.264 
  109300    293.33627    -1511.116    449.50842    257.83143   -499.95359    37599.264 
  109400    301.48328   -1411.7913    466.88667    411.17991   -689.67985    37599.264 
  109500     299.7492   -1451.3676    443.14748    340.06454   -401.28171    37599.264 
  109600    283.88811   -1452.9813    456.32646    280.28585      -301.25    37599.264 
  109700    307.49832   -1431.9846    468.19295    419.34877    42.512525    37599.264 
  109800    293.46302    -1462.779    453.05791    310.28804    171.11165    37599.264 
  109900    301.79791   -1461.6322    478.58185    374.44946    63.003726    37599.264 
  110000    298.89194   -1436.5603    474.53258    382.40089    381.99316    37599.264 
  110100    298.98554   -1452.6409    461.11421    353.32293    154.66524    37599.264 
  110200    291.89923   -1448.4163    450.80579    315.36461   -198.11519    37599.264 
  110300    298.44146   -1442.0499    466.89765    367.25012    191.26201    37599.264 
  110400    305.63677   -1458.2434    448.70829    365.23199   -121.05048    37599.264 
  110500    299.92766   -1449.9226    456.29548    355.46017   -434.73567    37599.264 
  110600     290.2056   -1415.6931    491.08636    380.75036   -689.35048    37599.264 
  110700    301.54808   -1427.6104     484.7021    413.46775   -324.04279    37599.264 
  110800    287.57408   -1422.5113    469.70342    340.71251   -362.43903    37599.264 
  110900    295.05692   -1408.9351    453.26901    371.51247   -132.37821    37599.264 
  111000    303.39697   -1438.1012    466.67911    393.27028    115.42798    37599.264 
  111100    289.76996   -1427.3646    441.51472     317.5477    56.276769    37599.264 
  111200    306.70309    -1444.693    447.86148    382.73195    160.14159    37599.264 
  111300    295.88697   -1444.8052    478.00994    364.11691   -370.17018    37599.264 
  111400    295.70114   -1410.2982    468.22512    388.00318   -413.15992    37599.264 
  111500    284.38447   -1436.6115     461.4452     304.0071    -296.6936    37599.264 
  111600    300.51916   -1463.6975    476.82809     364.8785   -127.93316    37599.264 
  111700    289.25222   -1468.7422    457.50419    289.83073    -56.50764    37599.264 
  111800    295.21122   -1430.9685    472.51813    369.42219    627.87406    37599.264 
  111900    300.67288   -1456.9329    466.87841     362.3849    862.31104    37599.264 
  112000    321.28207   -1447.3759     485.0867    482.85111    1342.3356    37599.264 
  112100    307.52841   -1435.7512     490.8518    438.37642     1065.276    37599.264 
  112200    302.93915   -1487.0071    452.66396    328.28998    380.33376    37599.264 
  112300    290.77419   -1471.3477    430.19881    266.76578   -422.90718    37599.264 
  112400     301.7015   -1490.2691    496.36504    363.16206   -577.11335    37599.264 
  112500    295.03839   -1517.1157    461.25838    271.23784   -684.25801    37599.264 
  112600    293.65629   -1502.4333    456.02347    274.46858   -685.33294    37599.264 
  112700    294.68328   -1503.3912    470.26323    292.36995    -704.6191    37599.264 
  112800    305.08132   -1457.0863    476.87579    392.05819   -623.11699    37599.264 
  112900    300.98594   -1439.2985    475.21291     389.7619   -1393.9196    37599.264 
  113000    299.10884   -1423.9092    467.73968    389.23469   -748.08659    37599.264 
  113100    294.34628   -1474.6506    461.58579    310.91724    200.75237    37599.264 
  113200     301.5377   -1435.4637    456.53228    377.39794    267.22302    37599.264 
  113300    301.14906   -1428.4658    457.79516    383.91063    518.06368    37599.264 
  113400    307.17831   -1458.0137    484.09325    407.78058    317.01122    37599.264 
  113500    284.91863   -1464.3722    425.79508    242.99895   -172.39612    37599.264 
  113600     295.9048   -1461.6391    451.12316    320.47636    325.71584    37599.264 
  113700     295.1673   -1409.9704    477.97892    395.68354    189.45983    37599.264 
  113800    293.31906   -1462.0643    452.40526     309.7025   -142.45037    37599.264 
  113900    294.75754   -1446.1797    442.11271     321.7649    152.25327    37599.264 
  114000    304.16766   -1441.3405    468.44277    395.26131    399.66403    37599.264 
  114100    297.11802   -1463.9326    478.54835    351.06521    29.259981    37599.264 
  114200    294.78624    -1445.208    454.32746    335.08047    97.324282    37599.264 
  114300    305.69284   -1433.2873    474.62928     416.3613    -23.02453    37599.264 
  114400     292.3961   -1444.0831    466.10037     337.2273    25.008754    37599.264 
  114500    294.80803    -1447.505    457.50625     336.0603   -56.825589    37599.264 
  114600    304.54266   -1460.9075    461.48598    370.42431   -187.28043    37599.264 
  114700    296.53638   -1409.2767    477.53128    402.08777     36.82632    37599.264 
  114800    298.36083   -1426.6128    458.35511    373.78194   -222.83406    37599.264 
  114900    311.05777   -1405.9892     476.1224    469.28428   -211.98301    37599.264 
  115000    296.06955   -1388.8703     451.1959    394.05899   -147.08139    37599.264 
  115100     310.1015   -1425.0488    467.59113    437.39206   -150.96456    37599.264 
  115200    294.60624   -1403.6973    475.76748    397.22156    539.81202    37599.264 
  115300    311.77726   -1419.0339    486.37291    469.72631   -51.185175    37599.264 
  115400    298.63402   -1430.3322    458.79983    371.73609    312.31813    37599.264 
  115500    308.84055    -1444.798    433.21769     377.5976    53.158987    37599.264 
  115600    302.67461   -1459.8456    462.50594    364.10358   -6.2458563    37599.264 
  115700    298.52383   -1427.0029    482.89498    398.66493     94.16215    37599.264 
  115800    300.20438   -1415.3264    468.86009    403.86572    628.76408    37599.264 
  115900    305.10237   -1447.6361    457.24442    381.97175    664.57619    37599.264 
  116000    301.58259   -1428.6504    468.34908    396.22999   -30.646777    37599.264 
  116100    301.26306   -1465.1839      417.064    306.97412   -380.10842    37599.264 
  116200     303.4651   -1461.7093    455.46784    358.75742   -707.85851    37599.264 
  116300    299.96417   -1424.9285    447.99342    372.31647   -1113.3659    37599.264 
  116400    301.27995   -1429.9415     449.2456    374.47409   -647.11442    37599.264 
  116500    302.38276   -1468.7493    463.47394    354.85511    -376.6532    37599.264 
  116600    290.65552    -1476.672    445.92817    276.63699   -515.29014    37599.264 
  116700    297.25828   -1461.1225    446.40283    322.36065   -773.48213    37599.264 
  116800    293.27145   -1459.4755    456.56651     316.2384   -303.36074    37599.264 
  116900    306.87082   -1467.7237    442.79612    355.39035   -215.82696    37599.264 
  117000    303.56726   -1499.2021    441.73954    307.99581   -276.48822    37599.264 
  117100    303.61608   -1495.5164     460.7167    330.87833    432.44409    37599.264 
  117200     296.0539   -1465.9864    439.26115    304.93774    779.07849    37599.264 
  117300    306.12815   -1444.3461    441.59716    374.22842    90.026474    37599.264 
  117400    304.31658   -1435.6347    456.38069    389.57492   -371.96544    37599.264 
  117500    309.88444   -1422.8411    433.74813    404.78035    148.10951    37599.264 
  117600    303.55347   -1409.3311    477.97074      434.036    529.15802    37599.264 
  117700    299.08003   -1424.9832     459.7902    380.08166    499.34845    37599.264 
  117800    287.91548   -1413.1595    467.49727    349.39379    553.95883    37599.264 
  117900    297.83572   -1458.1706    451.71837    333.22542   -148.42401    37599.264 
  118000     294.1264   -1424.5681    463.88718    362.31206    -176.8853    37599.264 
  118100    302.44667   -1446.7781    465.50747    379.14734   -86.285424    37599.264 
  118200    293.24575    -1478.974    459.92663    299.98441   -276.87448    37599.264 
  118300    295.20407   -1508.4594    441.57222    260.95326   -276.99384    37599.264 
  118400    300.56475   -1472.3651    444.51741     324.1053   -196.91289    37599.264 
  118500     300.4083   -1465.8027    448.58809    334.03466    79.958819    37599.264 
  118600    296.24949   -1445.4099    437.46463    324.59745   -217.91836    37599.264 
  118700    306.21542   -1445.2367    480.81924    412.95245   -517.00653    37599.264 
  118800    301.10656   -1486.8149    455.17128    322.74649   -79.805326    37599.264 
  118900     310.1268   -1478.5922     474.0275     390.3988   -31.305476    37599.264 
  119000    297.94506   -1468.4651    456.49796    328.20239   -143.59362    37599.264 
  119100    300.77933   -1453.4874    455.79147    355.22222   -588.61743    37599.264 
  119200     303.1427   -1447.6596    465.65537    381.54447   -23.685227    37599.264 
  119300    300.49441   -1511.7564     455.4805     295.3607   -379.71457    37599.264 
  119400    293.84456   -1472.3197    477.97213    327.37769   -450.00037    37599.264 
  119500    294.25686   -1486.3435    462.47647    299.71277   -473.73409    37599.264 
  119600    296.24878   -1491.4739    477.98021    319.04589   -731.57303    37599.264 
  119700    299.73437   -1473.2287    434.83298    309.82217   -544.02319    37599.264 
  119800    290.31527   -1478.3697    464.42522    291.90591   -296.68779    37599.264 
  119900    310.76557   -1479.1123     455.0284    373.75277   -481.75265    37599.264 
  120000    297.99377    -1478.791    486.48093    348.07856   -5.2751876    37599.264 
  120100     310.5789   -1468.1783    470.30943    399.12814   -158.49093    37599.264 
  120200    289.85456    -1470.247    476.89009     310.4212   -167.18652    37599.264 
  120300    310.31755    -1477.971    455.78065    373.63112   -217.45596    37599.264 
  120400    293.48452   -1435.4746      467.465    352.09622   -171.12707    37599.264 
  120500    294.60898   -1464.0636     461.6013    322.70137   -75.946359    37599.264 
  120600    295.75222   -1450.9693    455.79234    335.12907   -815.43726    37599.264 
  120700    293.17274   -1472.3819    460.22909    306.55062   -283.17913    37599.264 
  120800    305.74825   -1496.3357    452.47805    331.41092   -631.90739    37599.264 
  120900    290.21107    -1490.732      465.963    280.61274   -182.25953    37599.264 
  121000    299.96605   -1480.9422    465.00874    333.32659    285.49376    37599.264 
  121100    307.58829   -1492.3566     440.1467     331.3353    76.553519    37599.264 
  121200    306.71652   -1471.8109    447.48265    355.29566    676.68023    37599.264 
  121300    297.37311   -1423.5806    477.74795    391.76421    163.35791    37599.264 
  121400    306.59618     -1437.99    461.66285    402.75546     358.6791    37599.264 
  121500    291.13136    -1458.376    440.09365    291.23883   -471.40577    37599.264 
  121600    295.74681   -1455.9045    463.78723    338.16439   -1140.1915    37599.264 
  121700    303.95474    -1423.162    473.87814     417.9174   -448.06062    37599.264 
  121800    303.38303   -1444.5821    474.05955    394.10718   -179.15591    37599.264 
  121900    301.01701    -1457.695    477.57256    373.86487    42.263671    37599.264 
  122000    308.80838   -1475.3331    478.40377    392.10389   -18.457938    37599.264 
  122100    302.75612   -1447.3412    473.21477    387.68347   -94.959282    37599.264 
  122200    299.86956   -1451.8205    460.81817    357.82368    198.45778    37599.264 
  122300    300.16201   -1466.0722    479.11564    363.18492    67.633058    37599.264 
  122400    301.47733   -1463.2053    451.71151    344.56406    13.058177    37599.264 
  122500    297.53466    -1492.772    462.51758    308.06913    159.49149    37599.264 
  122600    298.07105   -1516.0277    448.88876    273.59724   -232.34416    37599.264 
  122700    289.42198   -1514.5087    476.85371    264.17732    87.878666    37599.264 
  122800    293.88156   -1472.1526    453.15425     302.8934   -572.77996    37599.264 
  122900    288.30255   -1495.3141    454.53372    256.01673   -931.00709    37599.264 
  123000    298.85098   -1448.9121     467.1498    362.48206   -351.19693    37599.264 
  123100    293.31446   -1465.5331    466.73028    320.53802   -443.30934    37599.264 
  123200    303.38694   -1489.6543    457.81773    332.81069    149.33169    37599.264 
  123300    296.06433   -1498.9877    433.28206     266.0043    446.51081    37599.264 
  123400    297.09388   -1471.8533    464.54369    329.03127    37.692935    37599.264 
  123500    300.52065   -1483.7885    494.45883    362.42494    317.84779    37599.264 
  123600    307.00398   -1475.9659    445.37357    350.32459   -39.245435    37599.264 
  123700    292.41663   -1463.1031    496.82213    349.02137   -306.83951    37599.264 
  123800    309.22681   -1422.3802    478.76878    447.30387     105.2964    37599.264 
  123900    295.82292   -1428.3047    465.87601    368.19532   -453.03918    37599.264 
  124000    304.31329   -1443.2803    465.72374    391.25753   -275.03487    37599.264 
  124100    296.86392   -1446.0272    443.69334    332.97266    73.585294    37599.264 
  124200    292.93408   -1406.8675    472.92929    383.69171    514.72535    37599.264 
  124300    307.29855   -1436.6188    475.24203    420.86518   -193.00433    37599.264 
  124400      302.048   -1455.3799    469.21269    372.45747   -198.79781    37599.264 
  124500    304.16559   -1451.5003    448.37678    365.02616   -215.76705    37599.264 
  124600     299.6956   -1421.6286    463.60784    390.02276   -342.27713    37599.264 
  124700    303.14345   -1424.6768    454.49251    393.36781    99.019879    37599.264 
  124800    296.05578   -1483.3574    452.97287    301.28688   -481.86116    37599.264 
  124900    302.62239   -1446.6782    451.67496    366.20507   -1.6410386    37599.264 
  125000    300.03681   -1455.8047    458.35672    352.13025    4.0303401    37599.264 
  125100    305.97812   -1436.0312    453.95598    394.22733    462.97008    37599.264 
  125200    294.63128    -1459.089     477.4329    343.60785    662.94403    37599.264 
  125300     304.4161   -1449.2788    481.61502     401.6127    986.78778    37599.264 
  125400    296.92474   -1457.8162    458.29949    336.06328    688.91343    37599.264 
  125500    307.03614   -1461.9536    449.37489    368.48285    471.65417    37599.264 
  125600    302.17936   -1476.8718    474.84646    357.19027    489.37002    37599.264 
  125700     296.2961   -1416.1467    467.88218     384.4879    329.37061    37599.264 
  125800    308.59603   -1442.3764    480.55387    426.25545    239.68156    37599.264 
  125900    304.47551    -1469.979    435.90409    335.46881   -450.59118    37599.264 
  126000    303.69276   -1452.7328    477.28036    390.57047   -101.01937    37599.264 
  126100    308.32178   -1490.6357    463.61894    359.82761   -42.338682    37599.264 
  126200    312.62635   -1442.7547    470.03851    433.49038   -829.90402    37599.264 
  126300    310.61214   -1477.1714    458.05484    378.03004   -454.15434    37599.264 
  126400    290.24288   -1486.4094    472.65042    291.76576    218.78361    37599.264 
  126500    316.21665   -1481.5408    471.99728    412.81235    451.88741    37599.264 
  126600    301.12535   -1466.4673    464.89253    352.89984    43.032614    37599.264 
  126700    293.78112   -1464.3658    457.10156    314.17573    -135.6731    37599.264 
  126800    304.91035   -1486.4163    468.69465      353.778    181.44013    37599.264 
  126900    297.67294   -1454.0231    470.51145    355.43386   -396.20034    37599.264 
  127000    306.94664   -1429.2816    465.69009    417.06753    68.005323    37599.264 
  127100    297.64771   -1462.3248    455.28057    331.78776   -253.70368    37599.264 
  127200    296.70838   -1462.6542    471.52282    343.47551   -708.95526    37599.264 
  127300    306.51428   -1440.4183    462.38203    400.67796   -206.59704    37599.264 
  127400    306.57355   -1453.6182     449.7381    375.10066   -127.15214    37599.264 
  127500    298.56028   -1475.8831    475.88206    342.93582   -411.56954    37599.264 
  127600     304.2176   -1527.8148    435.58119    276.15009   -646.69807    37599.264 
  127700    297.22703     -1480.77    482.55647    338.72621   -459.55776    37599.264 
  127800    302.46045   -1482.5375    466.09554    344.03791   -501.65691    37599.264 
  127900    292.09766   -1464.8132    452.41582    301.47024   -568.04874    37599.264 
  128000    300.51283   -1448.3775    490.48189    393.82381   -216.38992    37599.264 
  128100    304.01026   -1476.5877    467.50841    358.37174    116.53665    37599.264 
  128200    305.06291   -1476.6454    474.99443    370.53488   -30.953063    37599.264 
  128300    294.54941   -1439.9994    485.46029    370.35665    521.37007    37599.264 
  128400    297.18889   -1490.4884    458.02489    304.30474    803.62232    37599.264 
  128500    304.05821   -1472.6267    474.50137     369.5414    701.79129    37599.264 
  128600    303.37527    -1497.743    465.81544    332.66726    128.61759    37599.264 
  128700    305.92853   -1486.1504     455.8346    345.76369     858.8206    37599.264 
  128800    296.76532   -1430.6588    486.12741    390.33158    408.53591    37599.264 
  128900    304.85155   -1458.0855    462.06573    375.21544    169.30901    37599.264 
  129000    303.55621   -1527.8144    477.21872    314.81304    667.82889    37599.264 
  129100    307.99826   -1511.5746    439.87082    313.68545    637.30867    37599.264 
  129200    295.62655   -1513.4834    471.44923    287.70658    241.48132    37599.264 
  129300    314.31333   -1544.8062    442.61277    311.60121    469.34894    37599.264 
  129400    312.42711   -1548.7378    456.55324    313.12578     912.0371    37599.264 
  129500    305.83486   -1517.4799     475.8045    333.98281    423.87801    37599.264 
  129600    283.46503   -1519.2529    485.46632    241.25109   -50.849212    37599.264 
  129700    300.26341   -1535.9204    471.07228    285.74944    319.66313    37599.264 
  129800    290.19374   -1539.6479    449.19746    214.85331    475.35716    37599.264 
  129900     313.2752   -1484.8329    448.37194    372.66413    336.62486    37599.264 
  130000    301.76416   -1505.9143    491.56696    343.00063   -58.584075    37599.264 
  130100    290.47246   -1489.0917    493.29129    310.75708   -12.470377    37599.264 
  130200    299.47589   -1502.6406    463.82448    308.23909    52.263818    37599.264 
  130300    297.37011   -1512.3993    463.11024    288.29433    122.18422    37599.264 
  130400    301.43463   -1498.4811     444.9425    302.32717    694.17422    37599.264 
  130500    296.77533   -1507.7627    490.38062    317.52592    774.62238    37599.264 
  130600    307.97378   -1514.3829    452.80034    323.69658    377.09466    37599.264 
  130700    294.01157    -1560.255    455.97532    218.19683    505.06229    37599.264 
  130800    310.08522    -1551.516    433.60466    276.86514    93.665133    37599.264 
  130900    302.40478   -1520.4446    467.95288    307.73777    104.94427    37599.264 
  131000    296.82542   -1461.8353    463.77335    337.07136   -32.907004    37599.264 
  131100    300.44191   -1510.5631    462.74627    303.58366    258.29608    37599.264 
  131200    302.79064   -1549.2681    462.44081    275.13782    625.15278    37599.264 
  131300    304.00474   -1506.0073    496.13831    357.55714    523.62978    37599.264 
  131400    292.66484   -1506.3277    455.52756    265.61868   -279.03893    37599.264 
  131500    286.62855   -1514.3688    481.80187     256.7004   -522.72899    37599.264 
  131600     295.8073   -1487.5431    479.47803    322.48874    -943.1819    37599.264 
  131700    287.22543   -1497.6707    473.07315    267.35456   -704.99939    37599.264 
  131800    292.04905   -1485.3303    473.79533    302.11401   -751.94934    37599.264 
  131900    307.54738   -1491.6091    463.30927    355.06129   -577.48241    37599.264 
  132000    305.98196   -1495.9255    470.80488    351.19919    51.424513    37599.264 
  132100    293.67387    -1543.539    416.03757    193.45611   -55.384318    37599.264 
  132200    303.65214   -1503.3278    494.23567    356.74807    331.65061    37599.264 
  132300    297.45771   -1470.2329    470.08306    337.82753    58.963033    37599.264 
  132400    302.91919   -1470.7696    460.61739     352.3911    -343.5988    37599.264 
  132500     308.2486   -1476.1946    469.98075    380.30141   -495.99234    37599.264 
  132600    304.91601   -1495.4265    458.06595    334.16452    28.444975    37599.264 
  132700    287.79552   -1488.8508    474.92729     280.5929    96.480124    37599.264 
  132800    297.60233   -1469.6257    462.00056    331.00278    232.00595    37599.264 
  132900    295.74624   -1451.8293    486.50389    364.95369    1515.0571    37599.264 
  133000    303.44876   -1467.5824    479.53803    376.88102    240.45688    37599.264 
  133100    288.28355   -1478.3884    465.88305    284.20627    9.3070043    37599.264 
  133200    307.26698   -1494.9469    463.00545    350.15846   -136.71817    37599.264 
  133300    292.93756   -1511.4906    464.49993    270.65491    309.57402    37599.264 
  133400    305.10388   -1540.2558     452.1477    284.26205    0.6404942    37599.264 
  133500    286.97261   -1457.5751    460.86827     294.1081    21.683439    37599.264 
  133600    307.35445   -1486.3457    475.12675    371.27442   -482.77984    37599.264 
  133700    297.54718   -1488.1544    482.80204    333.02751   -376.43167    37599.264 
  133800    302.34094   -1510.4466    463.75901    313.25481   -263.55288    37599.264 
  133900    290.74425   -1488.5342    456.25791    275.50373    225.56084    37599.264 
  134000    306.30423   -1529.5403    452.90671    301.13579    294.89628    37599.264 
  134100    299.23602    -1516.579    451.52298     280.9203    513.99491    37599.264 
  134200    307.22277   -1479.1773    490.34019    393.06399    610.03585    37599.264 
  134300    298.45626   -1518.0582    494.52624    318.93696    -30.33283    37599.264 
  134400    298.52214    -1542.719    450.71142    250.75765    45.007079    37599.264 
  134500    306.22606   -1554.4797    458.17884    281.11692   -201.58546    37599.264 
  134600    294.64231   -1525.0431    464.35086    264.62137    28.203187    37599.264 
  134700     293.8131   -1511.8035    473.84757    283.62781    70.056386    37599.264 
  134800    309.85606   -1510.8224    468.14749    351.07073    379.10493    37599.264 
  134900    302.01686   -1500.2169    449.88456    308.15225     413.3802    37599.264 
  135000    302.64847   -1496.3417    477.83687    342.82083    246.36373    37599.264 
  135100    289.35252   -1453.1807    475.29182    323.63099    298.05233    37599.264 
  135200    292.51246   -1498.9831    496.79364      313.544    205.51936    37599.264 
  135300    305.21977   -1506.4969    476.64155    343.03608    421.87302    37599.264 
  135400    299.99691   -1464.8438    488.27926    372.83422    412.00593    37599.264 
  135500    305.98242   -1439.7264    473.33624    409.93178    463.61504    37599.264 
  135600    305.76895   -1498.4368    474.41828    351.34316    213.20657    37599.264 
  135700    303.08495   -1462.9566    479.54263    379.87493   -26.401056    37599.264 
  135800    297.44516   -1483.2741    488.50229    343.14907    117.85343    37599.264 
  135900    304.14258   -1521.5968    480.39092    326.84035    572.37801    37599.264 
  136000    298.64798   -1491.2075    459.63211     311.7559   -200.76351    37599.264 
  136100    293.04214    -1496.885    484.92196    306.15294   -4.4108108    37599.264 
  136200    303.37885   -1488.2659     459.1421    335.48711   -151.26159    37599.264 
  136300    302.14398   -1431.0765    471.48215    399.46203    104.17675    37599.264 
  136400    287.51801   -1479.7447    465.08124    278.60472   -595.61364    37599.264 
  136500    313.63077   -1456.4723    504.80715    459.05935    167.10602    37599.264 
  136600    306.81664   -1500.6684    487.52525    366.93109    92.482811    37599.264 
  136700    299.96479   -1502.4866     460.4422    307.20992   -114.97452    37599.264 
  136800    293.46412    -1495.086    466.09101    291.01906    250.62361    37599.264 
  136900    284.91901   -1458.7572    472.20816    295.02875    182.33666    37599.264 
  137000    298.47932   -1468.5336    501.17942    375.21843      344.724    37599.264 
  137100    300.51911   -1462.8551    454.29293    343.18549    538.95437    37599.264 
  137200    296.39666   -1423.7018    478.16245    387.66539    421.50829    37599.264 
  137300    286.90392   -1456.4952    493.80718    327.81799    364.45908    37599.264 
  137400    293.73838   -1398.0278     507.6501    430.86996    432.93093    37599.264 
  137500    303.14045   -1455.1286     482.8083    391.21827    729.72241    37599.264 
  137600    297.71288   -1492.2197    492.05951    338.96494    559.11451    37599.264 
  137700    308.46524    -1466.487    471.03333    392.03601    817.01099    37599.264 
  137800    309.48571   -1454.3199    491.43992    429.19988    559.02331    37599.264 
  137900    294.25261   -1478.2353    484.74015     330.0655    220.49701    37599.264 
  138000    296.23588   -1445.2676    488.17195    375.38588    168.37689    37599.264 
  138100    299.58519   -1463.7035    458.89095    342.73431    875.08444    37599.264 
  138200    298.05216   -1494.4821    506.02696    352.19613    909.45809    37599.264 
  138300    289.88399   -1501.1377    449.48447    252.25721    59.280802    37599.264 
  138400    300.07879   -1513.9716     474.7406    310.53611     97.43077    37599.264 
  138500    295.58194   -1496.7142    459.07182    291.89772   -143.81029    37599.264 
  138600    309.35581   -1488.3745     503.0342    406.15524    225.80968    37599.264 
  138700     297.8365   -1511.7154    496.59395    324.55974    290.96868    37599.264 
  138800    300.57992   -1535.7786    463.44042    279.68299    182.12748    37599.264 
  138900    311.43027   -1497.8364    508.69476    411.68484    369.83634    37599.264 
  139000    296.83313   -1517.5794    431.89291    249.48152    68.899547    37599.264 
  139100    308.14182   -1551.8531    509.04912    343.23096    314.20866    37599.264 
  139200    300.48556   -1526.8543    493.08996    317.83246    400.36484    37599.264 
  139300    298.17617   -1494.9029    469.42467    315.73079   -459.48685    37599.264 
  139400    291.76522     -1507.87     479.1828    283.68511   -788.81735    37599.264 
  139500    301.45328   -1538.5955    471.47211    288.82622    42.362975    37599.264 
  139600    307.62202   -1522.1737    474.24087    335.76407   -115.69969    37599.264 
  139700    288.80703   -1525.4067    474.68567    248.34525    112.77962    37599.264 
  139800    298.59245   -1578.5653    505.96684    270.48305    69.216526    37599.264 
  139900     299.7614   -1522.2993    484.98533    311.02551     650.8174    37599.264 
  140000    312.67173   -1508.0641    473.87451    372.22107    123.98736    37599.264 
  140100    299.49784   -1507.4173    468.70308    308.43978    386.64315    37599.264 
  140200    301.44206   -1546.6734    489.44388    298.66965    454.72252    37599.264 
  140300    297.65398   -1503.0307    486.35573    322.18526    647.09781    37599.264 
  140400    285.30876   -1504.7522    461.54203    240.12068    170.52061    37599.264 
  140500     304.7593   -1527.5631    473.60818    316.86537    291.50234    37599.264 
  140600    299.83354   -1573.3254    460.98531    236.32386    86.621081    37599.264 
  140700    302.32097   -1544.8435    482.67961    297.68865   -141.03814    37599.264 
  140800    305.43174   -1555.1762    493.09884    311.76759    244.90865    37599.264 
  140900    298.41644   -1495.5698    465.45637    312.17637   -61.156454    37599.264 
  141000    303.74509    -1491.318    488.19766    363.13798    167.17306    37599.264 
  141100    298.81195   -1515.4274    491.64324    320.28472    286.09836    37599.264 
  141200    302.03323   -1495.5735    486.85458    349.83931    657.64625    37599.264 
  141300    295.26707   -1487.5054    488.07278    328.69122   -31.255749    37599.264 
  141400    297.78734   -1467.4973    481.32798    353.29073   -305.08893    37599.264 
  141500    287.49336   -1510.3085    472.91101    255.75987   -561.80509    37599.264 
  141600    303.98982   -1536.9007    448.75663    279.21505   -115.45198    37599.264 
  141700    292.51612   -1487.7855    473.91348    301.87793      446.161    37599.264 
  141800    297.74567   -1513.6837    481.60943    307.19838     13.25313    37599.264 
  141900    305.83304    -1511.294    459.81938    324.17535    269.48011    37599.264 
  142000    296.95966   -1494.2865     494.1565    335.60714   -60.105498    37599.264 
  142100    297.90637   -1533.5237    479.97328    286.44505   -10.882085    37599.264 
  142200    293.24592   -1526.1397     470.1201      263.013    215.08666    37599.264 
  142300    307.11196   -1536.5868    464.50502    309.32083   -316.31866    37599.264 
  142400    310.08183   -1510.6267    443.90785    328.04238   -364.54913    37599.264 
  142500     305.1987   -1490.2797    470.22118    352.73813   -126.34626    37599.264 
  142600    290.95046   -1477.8222    476.03883    306.92415   -172.64542    37599.264 
  142700     308.7683   -1520.6769    469.09796    337.27394     -323.623    37599.264 
  142800    311.95896   -1483.6144    472.33212    391.92237   -291.41232    37599.264 
  142900    299.84401   -1491.2953    465.67561    323.09132    85.965906    37599.264 
  143000    295.03949   -1484.5037    457.48996    300.08639   -388.83575    37599.264 
  143100    299.64866    -1476.638     483.8574    355.05182   -227.52421    37599.264 
  143200    296.93668    -1513.487    482.69339    304.84017    209.10919    37599.264 
  143300    293.56902   -1454.7721    494.71453    360.42829    337.65673    37599.264 
  143400    296.79232   -1449.1364    472.44642    358.29442   -792.28979    37599.264 
  143500    303.54336   -1441.3454    481.08407    405.08958   -353.28704    37599.264 
  143600    293.08479   -1447.0093    504.66335    375.96184   -204.41512    37599.264 
  143700    306.01617   -1451.4772    482.28089    407.27737   -88.596337    37599.264 
  143800    301.58555   -1469.6199    480.12665    367.05137    424.87217    37599.264 
  143900    298.46464   -1509.8757    494.95786    327.58878    520.04972    37599.264 
  144000     300.6608   -1481.4119     503.4697    374.44275    558.70153    37599.264 
  144100    297.27574   -1482.9094     484.8812    339.13068    431.56021    37599.264 
  144200    289.49795   -1460.7105    481.38259    322.84619   -166.26419    37599.264 
  144300     296.1869   -1487.8652    486.50055    330.89654    325.12662    37599.264 
  144400     301.2622   -1491.8459      467.778    331.02228    300.63848    37599.264 
  144500    290.46587    -1541.769    467.44126    232.20006   -665.44065    37599.264 
  144600    291.60604    -1518.699    470.22105    263.17835   -661.91306    37599.264 
  144700    306.66827   -1486.3028    467.49839     360.6025    311.68143    37599.264 
  144800     295.5974   -1496.9786    488.10163     320.7327    818.89906    37599.264 
  144900     301.2393   -1525.8223     448.3052    277.47001     199.6911    37599.264 
  145000    299.60997   -1554.4332    460.40669    253.63181   -215.45956    37599.264 
  145100    295.36482   -1517.6428    495.54781    306.46846    527.87889    37599.264 
  145200     296.4616    -1526.277    446.29705    253.51686    356.35854    37599.264 
  145300    300.72716   -1515.5989    475.80901    312.89365    72.988452    37599.264 
  145400    299.80783   -1529.1944    467.30049    286.65444    642.29112    37599.264 
  145500    299.61452   -1504.1802    488.94887    332.44748    471.76716    37599.264 
  145600    301.58955   -1528.0363    496.36502    324.89131    797.29587    37599.264 
  145700    300.73398   -1521.8478    464.08731    294.95371    437.83674    37599.264 
  145800    306.98644   -1512.7439    482.96778    351.06194     367.7312    37599.264 
  145900    296.91958   -1460.6219    473.40731    348.34226    123.15698    37599.264 
  146000    290.57911   -1449.0191    497.22888    355.24688   -32.561368    37599.264 
  146100    302.90833   -1437.3043    472.01844    397.20861    -510.4207    37599.264 
  146200    286.73568   -1475.3275    463.31761    277.73938   -359.03575    37599.264 
  146300    299.64873   -1508.7146     492.8227    331.94077      41.1125    37599.264 
  146400    302.73608   -1511.6891    469.93713    319.96771    298.99004    37599.264 
  146500    300.17058   -1516.9002    459.83559    293.11541    314.40032    37599.264 
  146600     296.9305   -1503.8095    475.18514    306.98161   -89.806234    37599.264 
  146700     302.0719    -1522.791    469.18378    305.12501    243.74082    37599.264 
  146800    300.64876   -1534.6997    445.43319    263.06437       731.21    37599.264 
  146900    295.51877   -1531.7506    481.22067    278.72605    739.72087    37599.264 
  147000    287.89946   -1521.2286    469.33373    243.08916    909.72166    37599.264 
  147100    305.22868   -1515.6982    456.45615    313.68947    708.95393    37599.264 
  147200    303.27346   -1502.9266    514.72271    375.93295    341.68709    37599.264 
  147300    296.43528   -1567.2496     428.7806    194.90943    180.12246    37599.264 
  147400    309.18972   -1510.8925     483.2835    363.13946   -125.42423    37599.264 
  147500     302.0133   -1545.2864    426.36237     239.5446   -441.60909    37599.264 
  147600     305.2812   -1522.8054    471.53532    321.89765    124.51865    37599.264 
  147700    295.67153    -1514.685    484.23724    299.49528   -89.402458    37599.264 
  147800    303.89413   -1522.6901    479.46564    323.70419    649.54853    37599.264 
  147900    294.36024   -1537.4052    479.53041    266.17001    345.45619    37599.264 
  148000    308.12126   -1544.7212    442.53771    283.75895    675.78397    37599.264 
  148100     300.1303   -1563.2227     455.6048    242.38092    578.17312    37599.264 
  148200    304.08432   -1547.3435     472.5398    292.98048    728.81183    37599.264 
  148300    298.85477   -1506.0433    456.70704    294.92514   -67.834832    37599.264 
  148400    302.04982   -1484.6254    489.96133    363.96875   -64.421672    37599.264 
  148500    300.88823   -1482.5953    485.57393    356.38664    60.052321    37599.264 
  148600    307.53108   -1499.0351    465.61648    349.86924   -104.45387    37599.264 
  148700    311.03634   -1478.3916    470.14847    390.81153   -127.69626    37599.264 
  148800    299.95753   -1491.0922    471.37084    329.50029   -401.33149    37599.264 
  148900    300.09169   -1502.2808    480.70093    328.24526   -146.37671    37599.264 
  149000    292.89262   -1508.5971    434.73129    243.57763    245.09151    37599.264 
  149100    307.80328   -1511.7772    476.04461    348.77962    -231.2243    37599.264 
  149200    285.40722   -1470.1018    450.24674    263.91876    362.76622    37599.264 
  149300    294.27311   -1467.1281    478.30193    334.82675    604.20093    37599.264 
  149400    292.17754   -1517.8793    469.02568     265.3734    177.87997    37599.264 
  149500    293.32902   -1497.4974    470.65821    292.56719    500.65514    37599.264 
  149600    306.27561   -1493.5336    454.29731    338.40434    805.69031    37599.264 
  149700    296.54825   -1475.3661    464.97719    323.49766    587.19902    37599.264 
  149800     303.6178   -1481.2837    476.72725    361.12926   -279.04038    37599.264 
  149900    307.74608   -1457.2644    460.89998    387.89044    43.960811    37599.264 
  150000    292.89165   -1458.3583    496.75788    355.83858   -715.92101    37599.264 
  150100    297.87662   -1461.9982    492.08026    369.94374   -581.42366    37599.264 
  150200    298.77394   -1503.5824    466.87919    307.19461   -279.98283    37599.264 
  150300    301.82628   -1478.1682     472.7949     352.2541   -615.68413    37599.264 
  150400    300.10068   -1436.4378    463.67421    377.10193   -599.90149    37599.264 
  150500    297.68794   -1509.7462    461.52673    290.79345   -85.831667    37599.264 
  150600    294.75506   -1484.9468      458.666    299.53992    -354.0191    37599.264 
  150700    289.21537   -1490.7215    490.56415    300.74564   -125.71453    37599.264 
  150800    303.54199   -1526.1831    460.93468    300.09636   -474.11872    37599.264 
  150900    304.37156   -1524.9289    456.70179    300.84913   -331.04518    37599.264 
  151000    312.34551   -1508.7244    484.38324    380.60217    1.2676383    37599.264 
  151100    297.71984   -1505.7557    468.88096    302.28172    12.415077    37599.264 
  151200    295.95571   -1516.7953    464.69174    279.11779    334.96832    37599.264 
  151300    307.42578   -1504.7973    475.81349    353.83035    333.21484    37599.264 
  151400    303.57552   -1474.7252    467.44218    358.21251    335.05838    37599.264 
  151500    298.29714   -1491.8975    450.76951    300.62518    497.43862    37599.264 
  151600    293.35058   -1468.6606    478.55708    329.39979    487.99021    37599.264 
  151700    300.88114   -1470.8917    500.30866    382.79308    686.54572    37599.264 
  151800    298.93702   -1504.7724    470.85534    310.71427    260.83814    37599.264 
  151900    304.22089   -1532.6266    478.77202     314.5439     395.9236    37599.264 
  152000    293.82117   -1530.5557    455.07807    246.14243    630.04094    37599.264 
  152100    301.81761   -1500.1208      453.281    310.74856    200.88628    37599.264 
  152200    292.42648   -1515.9528    452.51267     251.9066   -20.939314    37599.264 
  152300    311.06211   -1494.0662     478.3104    383.41478   -30.820574    37599.264 
  152400    302.24531   -1525.5848    484.03988    317.96726    -214.4764    37599.264 
  152500    302.89653   -1530.3897    466.15427    298.20607   -726.15587    37599.264 
  152600    290.00241   -1518.0778    467.33068    253.69596    -1085.575    37599.264 
  152700    304.45529   -1520.9715    453.12106    301.60235    -943.4579    37599.264 
  152800     305.9209   -1556.1928    457.40254    277.25495    -717.2233    37599.264 
  152900     298.9795   -1528.9683    455.95449    271.80868   -704.15819    37599.264 
  153000    304.12392   -1524.2118    471.84293    315.59342   -115.87304    37599.264 
  153100    306.49083   -1489.4614    468.57629    357.72357    108.91767    37599.264 
  153200    302.91425    -1469.916    443.75337    336.35851    407.18198    37599.264 
  153300    314.47662   -1510.0318    473.06261    377.55995   -244.69581    37599.264 
  153400    299.09603   -1465.5589    475.16868    354.95636   -298.24477    37599.264 
  153500    296.24394   -1436.3543    441.80716    337.97068   -666.53797    37599.264 
  153600    304.54333   -1470.7377    499.11731    398.22844   -479.28923    37599.264 
  153700    296.31148   -1483.2654    466.86965    316.42589   -624.20314    37599.264 
  153800    297.61974   -1492.4803    476.89917    323.12507   -777.15266    37599.264 
  153900    296.77216   -1452.9037    505.01032    387.00042   -587.53265    37599.264 
  154000    306.44604   -1440.2903    441.82884    379.94583   -218.63176    37599.264 
  154100    301.71977   -1475.6463    467.60286    349.10483    -125.4863    37599.264 
  154200    287.98674    -1498.749    469.69686    266.32436   -764.77484    37599.264 
  154300    294.19477   -1494.8287    452.00099    280.47281    181.31561    37599.264 
  154400     304.2411   -1427.0582    487.45205    428.88323    9.9167197    37599.264 
  154500    309.27208   -1453.7905    461.77736     399.1058   -290.85439    37599.264 
  154600    309.37983   -1483.5733    468.17321    376.20349   -87.668185    37599.264 
  154700    299.09853   -1489.9784    472.95986    328.33925   -385.74031    37599.264 
  154800    303.62186   -1493.8735    478.90071    350.73115   -158.41781    37599.264 
  154900    306.84266   -1435.6164    453.45214    398.02707   -101.08865    37599.264 
  155000    293.38685   -1510.0119     442.4895    252.14412    144.71531    37599.264 
  155100    304.04149   -1509.6495    481.17208    339.11406    624.93878    37599.264 
  155200    307.93803   -1493.2546    479.39648    371.26022    327.29852    37599.264 
  155300    301.63076   -1503.0624    469.72447    323.41005    772.88288    37599.264 
  155400    316.39692   -1522.6095    445.32104    345.87833    287.14129    37599.264 
  155500    307.20091   -1490.6585    515.47757    406.62179    518.64373    37599.264 
  155600    289.15715   -1472.9973    464.84059    292.48437    1084.2167    37599.264 
  155700    305.57286    -1506.213    482.29846    350.56512    727.69949    37599.264 
  155800    293.13255   -1513.0045    485.91667    291.43481    935.01964    37599.264 
  155900    294.25754   -1512.4345    495.78246    306.93089    524.81953    37599.264 
  156000    312.41546    -1453.533    471.12901      422.854     533.0863    37599.264 
  156100    293.02283   -1476.2711    477.20885    318.96689    70.817204    37599.264 
  156200    303.21799   -1474.9389    487.17861    376.12702    363.15891    37599.264 
  156300    291.85903   -1519.2978    446.58997    240.08643    139.30192    37599.264 
  156400    290.81282   -1537.8486    479.21611    249.45594    92.398729    37599.264 
  156500    294.35363   -1459.7416    474.29886    338.57233   -29.773802    37599.264 
  156600    301.81079   -1534.3766    475.49138    298.67256    169.74891    37599.264 
  156700    295.21183   -1518.2035    473.97103    283.64282    640.11504    37599.264 
  156800    300.93158   -1518.2297    489.24131    324.61466   -213.26659    37599.264 
  156900    300.11735   -1490.6512    497.24207    356.53137   -170.53641    37599.264 
  157000    302.68903   -1466.8129    481.02165    375.71678   -470.04227    37599.264 
  157100    304.16838   -1476.8078    488.62693    379.98134   -427.93342    37599.264 
  157200    303.83175   -1522.6146    467.89126    311.92469   -477.52593    37599.264 
  157300    289.71978    -1534.929    501.89099    270.13381    150.65052    37599.264 
  157400    303.93261   -1511.2991    483.27699     339.0797     127.7622    37599.264 
  157500    286.47406   -1527.9184    481.15329    241.80735    145.73089    37599.264 
  157600    289.39734   -1525.9644    456.59914    232.35626   -638.27927    37599.264 
  157700    304.07653    -1515.601     450.8806    303.02867   -446.53976    37599.264 
  157800    287.15336   -1495.6002    470.80065     266.8284   -532.17984    37599.264 
  157900    299.59008   -1509.6473     471.0233     308.9449    -542.6406    37599.264 
  158000    288.35509   -1495.2315     492.0823    293.88417   -269.62603    37599.264 
  158100     301.0503   -1515.4328    467.50651    306.21074    145.92253    37599.264 
  158200    312.32951   -1547.9638    464.54292    321.45046    435.39077    37599.264 
  158300     300.0455   -1572.9666    478.51222      255.163   -52.484399    37599.264 
  158400    307.23097   -1542.6685    480.35761    319.62702    166.57381    37599.264 
  158500     290.9232   -1539.3939    456.28057    225.47159   -365.76806    37599.264 
  158600    292.06878   -1545.5308    474.11429     242.3213    -130.2481    37599.264 
  158700    303.74598   -1533.7879    474.30646    306.78087   -75.809937    37599.264 
  158800    304.46185   -1532.6066    447.82347    284.69918     242.8061    37599.264 
  158900    306.84507   -1534.9007    486.31125    331.61263    348.79372    37599.264 
  159000    300.72238   -1525.3598    480.12475      307.427    141.20989    37599.264 
  159100    301.61537   -1529.4462    471.36694    298.59946    146.86987    37599.264 
  159200    296.56909   -1519.5897    493.56704    307.95766    26.683134    37599.264 
  159300    306.92163   -1502.7836    486.60722    364.37014    172.47262    37599.264 
  159400    299.58628   -1516.0521    470.73824    302.23796   -165.35503    37599.264 
  159500    303.04131   -1509.8385    458.92171    312.17583     220.1847    37599.264 
  159600    297.05714   -1536.2204    451.05528    251.01046   -213.57837    37599.264 
  159700    296.30367    -1547.377    461.63734    247.04682    -523.4493    37599.264 
  159800    301.87198   -1575.6768    460.98491    243.14101    114.27455    37599.264 
  159900    298.69008   -1549.6728    462.73601    256.58388    335.43599    37599.264 
  160000    310.39614   -1524.9017    490.75686    362.03015     189.2128    37599.264 
  160100    295.35547   -1490.1188    482.18964     320.5922    176.16651    37599.264 
  160200     302.6624   -1529.7527    483.64166    315.27728    87.638392    37599.264 
  160300    295.90722   -1515.1443    475.09546    290.95438   -559.63937    37599.264 
  160400    301.18998   -1530.0935    467.54721      292.219   -322.04298    37599.264 
  160500    300.04478   -1511.2248    476.09777    314.48706   -460.24063    37599.264 
  160600    311.19937    -1501.512    472.07193    370.34784    66.389289    37599.264 
  160700     306.8317   -1484.3111    470.89611    366.72703    170.50908    37599.264 
  160800    295.97221   -1474.2704    470.71205    327.73716   -245.20767    37599.264 
  160900    305.66761   -1485.3209    480.80416    370.38914   -21.816582    37599.264 
  161000    298.72516   -1477.1393    482.51153    349.05071   -325.15807    37599.264 
  161100    297.87288   -1454.7331    481.63308     366.7448    234.80961    37599.264 
  161200    299.60488   -1506.0579    488.89926     330.4768    805.02889    37599.264 
  161300    300.53872    -1526.039    465.20917    291.00604    17.737183    37599.264 
  161400    296.31507   -1439.0502    490.83199    384.61954   -126.82013    37599.264 
  161500    295.69957   -1470.8851    484.12746    343.31157   -789.16266    37599.264 
  161600    305.31648   -1501.1468    464.33772    336.51736   -164.00924    37599.264 
  161700    303.18642   -1529.9959    464.79426    298.54375   -378.10862    37599.264 
  161800    299.64031    -1510.963    478.98604     315.8179    124.20871    37599.264 
  161900    295.59716    -1496.477    468.13812    301.26963   -465.27888    37599.264 
  162000    294.39539   -1491.1471    506.86078    339.91659    16.198616    37599.264 
  162100    317.75996   -1491.6213     462.3412     400.0176   -177.36543    37599.264 
  162200    303.03093   -1516.8823    494.04212    340.20575    177.49378    37599.264 
  162300     300.6068    -1502.973    474.92725    324.09643    316.17722    37599.264 
  162400    302.95022   -1500.0229    505.02114    367.68112    85.280107    37599.264 
  162500    296.29133   -1479.4642    505.54151    358.80824     601.3761    37599.264 
  162600    297.40245   -1490.3389    486.59461    333.98447    330.74762    37599.264 
  162700    296.16562   -1463.3121    475.14124    343.99462    142.59302    37599.264 
  162800    307.56027   -1482.0648    463.78273    365.13711    2.4593756    37599.264 
  162900    290.28229   -1478.7956    488.29497    315.20137   -464.07807    37599.264 
  163000    295.54318   -1444.0246    495.51494    380.85611    378.17378    37599.264 
  163100    294.60961   -1459.5581    510.59278    376.20117    427.98493    37599.264 
  163200    298.65976   -1493.1503    472.20754    322.44149    853.14005    37599.264 
  163300    293.05143   -1516.3153    477.79425    279.63668    52.487894    37599.264 
  163400    299.03943    -1472.877    483.56445    355.77952    395.89959    37599.264 
  163500    300.23036   -1515.6685    463.80614    298.58648    10.685577    37599.264 
  163600     308.5596   -1529.3045    494.97991    353.58956    483.28816    37599.264 
  163700    299.08845   -1466.6992    461.69921    340.31249    229.22538    37599.264 
  163800      305.208    -1478.515    491.10459    385.42814   -146.45126    37599.264 
  163900    300.72204   -1465.9318    471.45504    358.18369   -637.18215    37599.264 
  164000    299.38123   -1483.2227    484.89152    348.29831   -445.26747    37599.264 
  164100    302.09939   -1478.7165    492.80551    372.94488    53.635431    37599.264 
  164200    292.22044   -1508.1494    476.35709    282.62758    744.85166    37599.264 
  164300    308.31403   -1528.1384    497.10611    355.77731    9.6404157    37599.264 
  164400      308.655   -1500.1412    456.16778    344.36981   -133.58299    37599.264 
  164500    287.03745   -1474.2173    486.80466    303.69392   -274.09942    37599.264 
  164600    302.80406   -1520.8567    483.30023      324.469    -303.8253    37599.264 
  164700    304.26398   -1485.1801    481.50027    364.91249    36.560414    37599.264 
  164800    300.02524   -1483.8797    519.51127    385.15776   -114.34899    37599.264 
  164900    292.31678   -1488.0181    488.44369    315.27888    -208.0793    37599.264 
  165000    286.00862    -1528.429    491.65107    249.70097   -444.74809    37599.264 
  165100    309.04605   -1442.2433    515.28822    463.14718   -336.34156    37599.264 
  165200     293.6755   -1466.4247    478.52534    333.06546    209.83757    37599.264 
  165300    299.67119   -1476.6322    511.26545    382.56694   -268.79123    37599.264 
  165400    305.13143   -1484.4348    488.85366    376.91298    250.12499    37599.264 
  165500    306.22031   -1493.9661    478.76198    362.18784    637.13905    37599.264 
  165600    291.26857   -1544.6935    508.19446    273.63929    689.28295    37599.264 
  165700    311.75591   -1534.0934    493.39922    361.59711    563.03577    37599.264 
  165800    301.38184   -1505.1657    495.74697    346.20955    170.76982    37599.264 
  165900    307.33709   -1515.9048    476.14189    342.65232    736.81656    37599.264 
  166000    295.73648   -1549.5708    492.75887    273.42333    98.021134    37599.264 
  166100    298.17013   -1531.8554    469.67091    278.99742    100.36855    37599.264 
  166200    305.39049   -1505.3526    504.56094    372.86777    966.50328    37599.264 
  166300    298.80881   -1531.2108    489.94716    302.79099    486.35837    37599.264 
  166400    304.20392   -1560.3152    484.10395    292.11084    -90.25493    37599.264 
  166500    302.97427   -1525.3132    483.81791    321.29581   -72.144591    37599.264 
  166600    299.64613    -1517.356    483.29654    313.76157   -367.79594    37599.264 
  166700    296.59313    -1499.683    486.98279    321.38827   -461.15021    37599.264 
  166800    302.78953   -1533.4735    479.86669    308.35335    118.97374    37599.264 
  166900    296.71009   -1535.1149    496.16461    295.66425    201.95893    37599.264 
  167000    306.86956   -1604.7385     467.6132    243.18699    304.24977    37599.264 
  167100    294.06964   -1618.1433    485.25457    189.84898    -74.82764    37599.264 
  167200    296.02987   -1524.6923    477.25735    284.11998    200.89957    37599.264 
  167300    285.66329   -1543.1415    509.88112    251.66514   -111.48718    37599.264 
  167400    291.90176   -1575.3721    468.10331    205.71771   -891.64354    37599.264 
  167500    304.00923   -1546.7329    487.60585     308.3193   -534.78095    37599.264 
  167600     300.8673   -1539.9311    502.50759    315.89035   -82.240845    37599.264 
  167700    293.44571   -1540.2764     473.9013    253.55618    35.680913    37599.264 
  167800    298.03478   -1551.2506    479.78475    269.10717   -264.79953    37599.264 
  167900    301.79396   -1551.4963       492.61    298.59569   -125.76272    37599.264 
  168000    292.91503   -1544.7416    457.92619    230.72881   -298.49753    37599.264 
  168100    299.06983   -1548.2325    480.42326    277.41949    -804.6792    37599.264 
  168200    300.44512   -1528.5293     494.4111    317.29664   -727.56882    37599.264 
  168300    292.18179   -1506.5483    483.80654    291.50434   -390.98181    37599.264 
  168400     302.1543   -1528.2086    496.75033     327.6446    7.0403358    37599.264 
  168500    307.01243    -1565.339    476.69166     292.3076   -97.270905    37599.264 
  168600    305.57584   -1569.7681    471.00144    275.72642   -332.25584    37599.264 
  168700    305.65099   -1584.2187    454.76092    245.37334   -228.04509    37599.264 
  168800      294.294   -1597.4191    476.43024    202.75805   -59.425399    37599.264 
  168900    306.06697   -1537.7797    478.68301     317.6055    349.11466    37599.264 
  169000    298.37029   -1537.4526    467.33157    271.96119   -155.45367    37599.264 
  169100     301.1041   -1515.3402    474.91229    313.95103    394.04116    37599.264 
  169200    301.84742   -1542.5294     498.0503    313.24342    13.167197    37599.264 
  169300    305.61533   -1543.1291    490.08681    321.62839    637.78768    37599.264 
  169400    303.66834   -1530.8408    475.67276    310.74505   -255.13311    37599.264 
  169500     310.4963   -1474.5759    501.18338    423.23297   -595.92885    37599.264 
  169600    307.28153   -1542.6565    483.27076    322.77954   -333.93669    37599.264 
  169700    313.66511   -1550.5309    471.51871    331.86677   -455.33743    37599.264 
  169800    304.86011   -1574.4552     490.5389    287.35736    -320.8858    37599.264 
  169900    296.14587   -1519.1959    505.57371    318.45444   -234.54169    37599.264 
  170000    301.85826   -1530.1007    465.24539    292.91588    64.070105    37599.264 
  170100    302.37536   -1535.9581    494.54977     318.6888    206.72754    37599.264 
  170200    302.25673   -1525.0028    484.52351    319.08428    255.29548    37599.264 
  170300    297.82092   -1578.4448    475.30539    236.47167     313.6844    37599.264 
  170400     282.8169   -1589.2854     466.4647    149.30166   -110.94435    37599.264 
  170500    310.79006   -1607.9176     465.4405    255.46975    156.26736    37599.264 
  170600    302.58367   -1513.4805    473.71949    321.27317    16.117508    37599.264 
  170700    297.80203   -1561.2884    474.81244    253.05017    164.80244    37599.264 
  170800    300.44935   -1573.1929    490.31883    268.55986    185.16856    37599.264 
  170900    292.43523   -1551.9178    464.56491    228.03314   -156.96023    37599.264 
  171000    307.77928   -1553.2356    507.00077    338.16939     59.53192    37599.264 
  171100     294.4391   -1588.0514    484.32816     220.6763    90.334161    37599.264 
  171200    299.63518   -1591.9438    501.94448    257.77244    276.79888    37599.264 
  171300    304.74996   -1577.5105    475.51847     268.7862    39.647246    37599.264 
  171400    302.46235   -1585.4676    491.29345    266.31428   -665.47071    37599.264 
  171500    299.80016   -1604.1381    505.01135    249.38707   -118.15596    37599.264 
  171600    308.46768   -1597.8954    460.22148    249.82674   -325.05705    37599.264 
  171700    294.34424     -1577.18    465.51239    212.30523   -373.28792    37599.264 
  171800    303.31806   -1537.0192    495.70852    323.02678   -62.905963    37599.264 
  171900    306.63086   -1545.1003    484.43606     318.5744   -440.24734    37599.264 
  172000    300.99833   -1562.4382    463.98849    255.45354   -495.61439    37599.264 
  172100    308.66087   -1568.4768    469.82139    289.71426    320.48557    37599.264 
  172200    294.82072    -1510.675     475.0833    290.52439    -353.7996    37599.264 
  172300    305.62634   -1535.4917    508.91105    348.13963   -318.34043    37599.264 
  172400     305.1797   -1568.9612    494.18087    297.93083    -132.1686    37599.264 
  172500    306.40603    -1610.331    490.07042    257.96671   -197.06142    37599.264 
  172600    300.33452   -1545.2561     501.5789    307.24022   -60.152931    37599.264 
  172700    300.87346   -1548.0791    472.24325    277.50566    142.33991    37599.264 
  172800    293.01024   -1514.2906    494.13251    297.81438   -177.37387    37599.264 
  172900    299.57145   -1508.2039    510.85549    350.13664    413.23316    37599.264 
  173000    307.48213   -1533.3111    490.53138    340.28791    127.52345    37599.264 
  173100    286.48326   -1550.6725    516.87429    254.81565    -326.6977    37599.264 
  173200    295.26513   -1561.0147    498.92844    266.02883    -134.3023    37599.264 
  173300    295.54326   -1535.5784     489.2418    283.02949    58.347895    37599.264 
  173400    301.19073   -1554.8536    476.17278    276.08786    448.16423    37599.264 
  173500    312.36785   -1526.3572    468.48571    347.17228    200.11778    37599.264 
  173600    291.02921   -1511.7712    484.90827    282.19875    78.402952    37599.264 
  173700     297.4603   -1532.7016    486.99923    292.28663    341.91312    37599.264 
  173800    296.16959   -1511.0497    500.52894    321.66262    368.23534    37599.264 
  173900    305.96023   -1508.8688    506.54963    373.90288    255.90038    37599.264 
  174000    288.11532   -1502.4058    491.17404    284.72311   -83.080574    37599.264 
  174100    307.37988   -1492.6873     488.5041     378.4245    154.01737    37599.264 
  174200    306.88185   -1513.2842    492.73645    359.81983   -15.256205    37599.264 
  174300    294.36554   -1470.9066    489.08451    342.24657    32.080077    37599.264 
  174400    303.44358   -1551.6949    463.09338    276.30054   -160.27734    37599.264 
  174500    303.79263   -1490.3964    472.19949    348.27518    208.60084    37599.264 
  174600    308.47845    -1527.552    491.39099    351.38812    91.557707    37599.264 
  174700    298.64882   -1558.1029    476.25715    261.48935   -662.72102    37599.264 
  174800    307.86141   -1534.9122    490.53051    340.39199   -245.87665    37599.264 
  174900      293.476   -1531.8401    474.11699    262.34435    599.54551    37599.264 
  175000    310.33192   -1583.1466    489.70248    302.44201    591.93432    37599.264 
  175100    297.00206   -1562.2968    466.93846    240.56954    106.50818    37599.264 
  175200    304.34982   -1549.9915    472.83885    291.82572    32.434209    37599.264 
  175300    312.78623   -1526.7931    496.90253    377.03513    -608.1533    37599.264 
  175400    308.26998   -1529.5392    479.09221    336.16442    -121.6252    37599.264 
  175500    298.17378   -1490.5415    472.85244    323.50928   -674.95664    37599.264 
  175600      297.648   -1492.4115    476.27826    322.70007    9.1193312    37599.264 
  175700    287.88778   -1505.2417    514.92835    304.61804   -630.39757    37599.264 
  175800    301.11071   -1476.8893    485.17819    362.69765   -92.681133    37599.264 
  175900    294.75037   -1491.0881    486.03081    320.74239    133.85808    37599.264 
  176000    291.59266   -1499.0254    483.62312    296.19379     173.1708    37599.264 
  176100    296.26006   -1515.3474    485.97355    303.21646    274.41258    37599.264 
  176200    299.45457   -1514.7515    496.49083    328.69864    376.80192    37599.264 
  176300    316.99117   -1518.0243    479.99212    387.80755    376.61904    37599.264 
  176400    307.04179   -1547.9955      479.651    312.74249    409.79483    37599.264 
  176500    291.43034   -1535.5721    479.21544    254.50937    938.51064    37599.264 
  176600    304.03628   -1532.2418    504.05003    339.37627     511.8488    37599.264 
  176700    299.87701   -1515.3784    473.93592    307.41701     55.57521    37599.264 
  176800    323.67156   -1457.6276    496.44593    494.70675    25.654678    37599.264 
  176900    302.82661   -1445.9392     482.9885    399.17625   -535.13689    37599.264 
  177000    289.27068   -1478.5227    490.50287    313.13189   -367.83762    37599.264 
  177100    289.30642   -1465.7009    472.99618    308.60777   -443.11323    37599.264 
  177200    310.29225   -1465.9001    500.04872    429.85628   -145.97433    37599.264 
  177300    301.19019   -1476.0852    496.71642    375.39747   -114.57243    37599.264 
  177400    299.85333    -1467.894    504.77323    385.63219    353.12636    37599.264 
  177500    306.91051   -1478.8567    472.21008    373.84986    460.85399    37599.264 
  177600    294.15766   -1470.5362    525.46537     378.0628    525.05632    37599.264 
  177700    303.14147   -1460.1149    501.93818    405.36645    730.13137    37599.264 
  177800    304.75283   -1462.8139    494.25557     402.2328    510.93132    37599.264 
  177900    299.86183    -1466.759    493.90306    375.93522    353.56445    37599.264 
  178000    298.33087   -1461.9725    511.78186    391.71426    111.06978    37599.264 
  178100    306.70871   -1462.7046    509.34061    426.22474    788.89618    37599.264 
  178200    295.68129   -1476.1741    501.81882    355.63166    481.51945    37599.264 
  178300    306.98197   -1482.2512     484.2705    382.83721    282.50167    37599.264 
  178400    317.83818    -1485.664    506.81155     450.7971    320.03632    37599.264 
  178500    300.99751   -1467.1846    495.90126    382.61616    67.804154    37599.264 
  178600    289.35651   -1435.5807     467.6784    333.63552    823.94295    37599.264 
  178700     296.1561   -1468.8058     512.8299    376.14684   -199.50497    37599.264 
  178800     300.5611   -1506.7451     484.0737    329.26516    270.78292    37599.264 
  178900    307.72375   -1511.7651    480.53599    352.92533   -152.85872    37599.264 
  179000    298.79619   -1478.5542    513.09892     378.5427   -314.38204    37599.264 
  179100    291.53796    -1497.394    505.36508    319.32116    429.90826    37599.264 
  179200    294.23149   -1480.6865    524.94898    367.72816     568.9543    37599.264 
  179300    298.49314    -1484.518    502.39207     360.5089   -246.55383    37599.264 
  179400    310.91763   -1436.5462    511.72308    473.69752   -273.06712    37599.264 
  179500    293.46095   -1420.1656     498.3916    398.22583   -132.17842    37599.264 
  179600    308.88727   -1457.8861     498.2474    429.74938    -139.9107    37599.264 
  179700    292.02796   -1453.2319    504.79085    365.11305   -220.14352    37599.264 
  179800    301.51227   -1484.0453    506.79698    378.96666   -249.45687    37599.264 
  179900    300.34549   -1499.6308    479.04696    330.38294   -59.677646    37599.264 
  180000    301.54467   -1452.0164    494.66228    399.00653    90.394587    37599.264 
  180100    295.05418   -1521.9823    496.33615       301.52    244.81351    37599.264 
  180200    304.52855   -1491.6726    530.94661     409.0563    488.84528    37599.264 
  180300    290.68991   -1481.7643    499.52698    325.29822    262.88687    37599.264 
  180400    296.72234   -1483.5763    494.17511     345.2685    270.43391    37599.264 
  180500    296.19608   -1447.4337    492.57579    377.44458   -53.913759    37599.264 
  180600    313.48897   -1438.4552    491.48678    463.11824   -185.43536    37599.264 
  180700    302.89655   -1505.8362    482.80591    339.41125   -269.46288    37599.264 
  180800    303.17997   -1503.3037    488.92194    349.33459    -313.0444    37599.264 
  180900    291.61833   -1515.8295    490.86426    286.74636   -785.79209    37599.264 
  181000    300.79898   -1499.9102    478.12195    331.21829    427.27679    37599.264 
  181100    303.56263   -1516.6067    499.47144    348.30232    240.21171    37599.264 
  181200    304.44769   -1488.3702    493.44928    374.49771    465.59944    37599.264 
  181300    298.19789   -1524.3927    486.58529    303.49935    285.11008    37599.264 
  181400    307.83322   -1503.2049    474.53334    355.97526   -368.77707    37599.264 
  181500    295.89893   -1532.5084    483.16597    281.62353   -268.89138    37599.264 
  181600    309.16355   -1515.3829    494.20767    369.45559   -434.51034    37599.264 
  181700    296.95294   -1440.3824    493.70989    389.03445   -353.66701    37599.264 
  181800    308.71661     -1473.34    475.51744    390.79778   -489.64868    37599.264 
  181900    296.74281   -1487.1663    491.06796    338.66341   -568.03489    37599.264 
  182000    301.12563   -1471.6943    519.49825    402.27983     -516.185    37599.264 
  182100     300.6604   -1491.7742     487.7971    348.40608   -296.07632    37599.264 
  182200    308.91951     -1486.43    496.65936    399.76245     420.7939    37599.264 
  182300      303.648   -1513.7483    519.58023    371.65348      9.36039    37599.264 
  182400    304.26418   -1483.7954    484.41055    369.20829   -163.44352    37599.264 
  182500     277.0599   -1522.0426    494.87094    219.05552   -433.81514    37599.264 
  182600    300.32221   -1535.3953    480.67923    296.14596   -427.47962    37599.264 
  182700    298.96641   -1521.1638     483.9697    307.56952   -328.65653    37599.264 
  182800     296.8897   -1510.0395    482.07276    307.45568    -1038.297    37599.264 
  182900     310.8982   -1515.8235    495.59626    378.20605   -719.84545    37599.264 
  183000     296.3354   -1479.9529    506.10058    359.07687   -109.61214    37599.264 
  183100    293.88643   -1491.6572    491.03254    321.28891   -341.52154    37599.264 
  183200    299.37122   -1496.8931      505.858    355.54935   -722.01479    37599.264 
  183300    301.87994   -1508.4948    508.46731    357.84123   -8.8985753    37599.264 
  183400    297.89819   -1486.4483    511.13615    364.64652   -134.40576    37599.264 
  183500    311.80671   -1472.8738    484.00633    413.65231   -406.33766    37599.264 
  183600    286.75573    -1467.307    503.40734    325.93974   -613.45759    37599.264 
  183700    304.71188   -1485.2373    478.68912    364.05876   -570.18249    37599.264 
  183800    311.16318   -1511.7209    519.35724    407.26149     270.5281    37599.264 
  183900    292.22736   -1522.7163    488.62069    280.35537    475.44936    37599.264 
  184000    300.32852   -1483.3008    505.21769     372.8073    429.73624    37599.264 
  184100    297.64681    -1547.366    503.26383    294.72582    44.845028    37599.264 
  184200    282.34687   -1526.2931    494.17197    237.88702   -271.71805    37599.264 
  184300    306.59723   -1503.5611    491.26423    366.79046   -628.85384    37599.264 
  184400    299.26226   -1504.2771    499.94231    341.75955   -518.24565    37599.264 
  184500     290.5348   -1491.8252    496.66254    311.67514   -996.11053    37599.264 
  184600    299.71575    -1505.183     485.0119    327.96306   -349.95438    37599.264 
  184700    299.40586   -1532.4495    505.82744    320.11817   -366.36297    37599.264 
  184800    298.31771   -1511.6302    466.69261    296.90814   -220.28561    37599.264 
  184900    308.24161   -1524.5069    492.01942    353.99631   -84.200565    37599.264 
  185000    300.85575   -1544.3964    494.36518     303.2307   -54.536984    37599.264 
  185100    304.55249   -1568.0059    499.79438     301.6785   -20.991438    37599.264 
  185200    299.04742   -1566.8406    500.80246    279.08978   -103.37676    37599.264 
  185300    298.11864   -1537.6506    497.42292    300.72262    36.236466    37599.264 
  185400     301.3681   -1526.7186     467.9226    296.77052    221.35862    37599.264 
  185500    291.85042   -1544.2812    509.14404    277.61838   -147.09814    37599.264 
  185600    294.42776   -1537.6611    486.81148    273.49887    88.281483    37599.264 
  185700    299.05823   -1513.7752    495.21983    326.62119   -204.46322    37599.264 
  185800    291.68399   -1514.0297    485.73895    283.71617    142.00632    37599.264 
  185900     296.4129   -1513.2279    487.92717    307.97709    358.77772    37599.264 
  186000    311.80648   -1541.4467    507.73239    368.80447    66.930181    37599.264 
  186100    301.72842   -1523.5319    495.79183    329.44711   -609.36198    37599.264 
  186200    299.90859   -1499.9691    499.80017    348.83259   -242.44486    37599.264 
  186300    291.81964   -1547.8716    485.39707     250.1426    -399.1007    37599.264 
  186400    296.34169   -1516.8022    492.38686    308.54219    167.81037    37599.264 
  186500    313.27849    -1532.416    502.00156    378.72545    261.42049    37599.264 
  186600    305.05785   -1514.6437    509.82539    367.34485    77.729733    37599.264 
  186700     288.8386   -1493.8571    490.63436    295.98553    229.00362    37599.264 
  186800    294.30633   -1540.5027    512.89863    296.19824    95.546499    37599.264 
  186900    296.18454   -1507.2205    491.69782    316.72789   -862.89141    37599.264 
  187000    305.83256   -1539.6822    480.19976    316.16537   -746.53289    37599.264 
  187100    295.32688    -1534.451     480.6021    274.54394   -314.88697    37599.264 
  187200    306.67966   -1560.5297    475.89686    294.82522   -290.30783    37599.264 
  187300    289.45841   -1555.0407    513.82836    260.78387   -540.98299    37599.264 
  187400    298.63458   -1488.9121    517.60315    371.96199    124.38381    37599.264 
  187500    290.15552   -1571.5962    478.32819     211.8638   -77.389589    37599.264 
  187600    303.37658   -1540.7013    506.48341    330.38282    85.599834    37599.264 
  187700    291.96873   -1546.0499    488.62844     255.8663    118.02645    37599.264 
  187800    307.11477   -1519.8195     478.3543    339.95004    507.89156    37599.264 
  187900    299.55685   -1516.1595     488.9511      320.211   -167.04625    37599.264 
  188000    307.96602   -1536.3035    474.41538    323.35611     326.9478    37599.264 
  188100    297.79227   -1534.9866    493.87504    298.37069    389.25662    37599.264 
  188200    310.55071   -1524.5718    485.97125    358.26972    553.53172    37599.264 
  188300    304.32186   -1506.9089    526.19652    388.14023    63.971463    37599.264 
  188400    284.21463   -1537.2876    471.95903    213.08088   -457.08155    37599.264 
  188500    304.83066   -1549.3259    476.02492    297.84029   -393.12703    37599.264 
  188600    305.11744   -1576.1805    486.52035    282.77101    254.46273    37599.264 
  188700    285.90955   -1554.7166    521.90827    253.22492    353.50156    37599.264 
  188800    294.95074   -1626.7665    454.69003    154.62445    -559.6997    37599.264 
  188900    290.94948   -1540.6131    504.73003       272.82   -463.14743    37599.264 
  189000    295.15777   -1529.1467    486.68743    285.17284   -658.43612    37599.264 
  189100    310.38455   -1562.5539    474.96242    308.53139   -276.82799    37599.264 
  189200    305.99769   -1552.2181    489.25094    313.42339    303.63529    37599.264 
  189300    308.40763   -1563.6069    487.37326    310.99692    482.63652    37599.264 
  189400    300.32612   -1517.5033    492.69847    326.07481    172.58081    37599.264 
  189500    281.89212   -1524.6295    511.38308    254.71627    734.54553    37599.264 
  189600    296.75981   -1488.8953     500.2062    346.14906    1109.9306    37599.264 
  189700    289.59296   -1490.7184    495.67333    307.55632    866.36312    37599.264 
  189800    295.74604   -1516.7791    503.00572    316.50481    -12.94441    37599.264 
  189900    299.00585   -1479.6292    514.96635    380.27813    163.59547    37599.264 
  190000     307.3677   -1510.7373     488.5762    360.39185    315.69115    37599.264 
  190100    297.03359   -1496.0166    496.02152    336.07463   -516.50927    37599.264 
  190200    299.99526    -1484.293      512.635    377.73343   -623.13748    37599.264 
  190300    293.19806    -1492.049    487.02669    313.79499   -182.37727    37599.264 
  190400     298.0854   -1502.0706    519.40246    358.13263   -102.01424    37599.264 
  190500    306.57282   -1502.3778    499.19822    375.79794   -313.50733    37599.264 
  190600    298.31002   -1512.3307     475.0295    304.50985    173.60945    37599.264 
  190700    306.22645   -1515.4814    489.97497    351.91313    743.71993    37599.264 
  190800    295.89199   -1546.9981    498.70347    282.64004    829.85447    37599.264 
  190900    300.06484   -1491.0894     509.8196    368.43456    782.10947    37599.264 
  191000    301.19675   -1556.1723    484.26708    282.89047    820.78499    37599.264 
  191100    289.63899   -1579.3544    501.30879    224.76284    161.56619    37599.264 
  191200    307.98705   -1594.6213    497.03162    287.74912    583.27197    37599.264 
  191300    300.97039   -1568.9955     480.4654    265.24749    694.13703    37599.264 
  191400     295.6365   -1532.2624    509.36466    306.88777    -37.77589    37599.264 
  191500    290.85282   -1536.8178    504.30037    275.75081   -167.89084    37599.264 
  191600    302.63533   -1514.9147    501.76377    348.11559    140.19721    37599.264 
  191700     300.9738   -1512.1962    509.39509    350.99185    360.04963    37599.264 
  191800     298.1999   -1473.7363    485.86351    353.44298   -37.580919    37599.264 
  191900    301.67883   -1536.0186    512.80531    333.75088    224.16095    37599.264 
  192000    296.46399   -1530.2414     498.3709    301.63715    636.37209    37599.264 
  192100    297.42981   -1537.9351     500.3638    300.28061    180.45042    37599.264 
  192200    289.80367   -1498.9275     509.0575    313.67914   -326.67138    37599.264 
  192300    297.78091   -1496.3409    512.78024    355.87047    -525.4077    37599.264 
  192400    292.44664   -1555.7324    457.68237    217.38738    -450.2381    37599.264 
  192500    301.92468    -1530.433    496.76798      324.405    -78.93502    37599.264 
  192600    295.61878   -1542.9999    473.78342     260.4893   -703.43828    37599.264 
  192700    302.06399   -1554.2304    487.52252    291.98872   -643.70514    37599.264 
  192800    298.16859   -1555.7774    498.76144    284.15901   -853.15276    37599.264 
  192900    297.73847   -1560.4712     483.1796    261.94866   -485.84925    37599.264 
  193000      306.134   -1526.0804    490.08996    341.01323   -499.65826    37599.264 
  193100    305.27001   -1536.8808    485.26364    321.50026   -341.94498    37599.264 
  193200    293.71872   -1502.5902    514.17232    332.74141    -774.1375    37599.264 
  193300    300.97818   -1566.5777    479.41925    266.65413   -465.57691    37599.264 
  193400     305.4202   -1497.9337    482.15943    358.01871   -134.80149    37599.264 
  193500    305.75508    -1539.093    497.25436    333.46066    202.84578    37599.264 
  193600    308.93419   -1527.7348    509.93593    371.80018   -108.25355    37599.264 
  193700    292.20555   -1508.5848    505.86649    311.63463   -28.637842    37599.264 
  193800    289.56808   -1455.0633    517.13183    364.55807   -145.22906    37599.264 
  193900    302.17145     -1458.51    514.07013    414.74012    124.92958    37599.264 
  194000    298.11302   -1513.2784    516.58486    344.23146   -214.98569    37599.264 
  194100    302.49395   -1476.4348    539.88326    424.07909    459.76936    37599.264 
  194200    304.22973   -1527.1752     489.0988    330.36177    126.75771    37599.264 
  194300    298.93089    -1508.464    525.45835    361.59812   -571.81128    37599.264 
  194400    292.89754   -1482.0315    489.81317     325.2472   -190.51233    37599.264 
  194500    305.22008   -1506.0951    496.86022    363.65802   -276.34008    37599.264 
  194600    298.68938   -1531.7906    513.69304    325.41991   -330.26085    37599.264 
  194700    302.10304    -1534.348    478.16592    302.69021   -383.65827    37599.264 
  194800    297.00249   -1501.0814    495.48953    330.33793   -605.11874    37599.264 
  194900    295.49459   -1508.0083    515.08088    336.21981   -346.22547    37599.264 
  195000    298.73334   -1500.6429    501.91431    344.98667    258.09487    37599.264 
  195100    297.41582   -1505.7576    526.81813    358.84953    -306.5957    37599.264 
  195200    297.02929   -1501.2036    487.79495    322.64171   -180.40067    37599.264 
  195300    303.30356     -1502.96    496.30648    357.61874      91.0422    37599.264 
  195400    304.39493   -1492.1863    512.56577    389.56073   -61.241871    37599.264 
  195500    293.63455   -1550.0756    489.45839    260.16345    308.96445    37599.264 
  195600    293.63664    -1526.083    496.91273    291.61978    282.27676    37599.264 
  195700    293.89353   -1516.9914    478.99874    283.95288   -47.114834    37599.264 
  195800    295.28129   -1512.7614    477.12492    292.55129   -271.44754    37599.264 
  195900    301.14141   -1522.4781     502.1269    334.19568    313.35335    37599.264 
  196000    302.46023   -1475.0647    505.84421    391.25845   -134.67705    37599.264 
  196100    304.64287   -1484.7118    509.51501    395.09971   -333.12192    37599.264 
  196200    299.50131   -1495.0658    498.77108    350.87485   -657.41459    37599.264 
  196300     298.3897   -1541.2291    499.83726    300.77767   -286.58957    37599.264 
  196400    304.34807    -1498.357     479.3498    349.96329   -159.79718    37599.264 
  196500    298.69819   -1518.4011    478.48256    303.63862    60.727647    37599.264 
  196600    305.38139   -1532.4193    478.93953    320.13862   -21.629253    37599.264 
  196700    297.77441   -1518.3604    504.56417    325.60573   -372.74764    37599.264 
  196800    305.45218   -1507.5986    481.69429    348.03249   -65.840362    37599.264 
  196900    287.71989   -1541.6093    497.38511      249.952   -68.477298    37599.264 
  197000    303.86925   -1505.5476      493.538    354.80718   -225.58759    37599.264 
  197100    300.36368   -1552.3071    476.99341     275.7349   -412.86817    37599.264 
  197200    300.35146   -1544.2905    496.07768    302.78082   -317.69985    37599.264 
  197300    306.89421   -1524.1593    485.94463    342.20854    121.25431    37599.264 
  197400    299.33303   -1560.7286      498.544    284.22802    259.35351    37599.264 
  197500    302.62421   -1523.9777    507.09596    344.33481   -1.0336338    37599.264 
  197600    293.11608   -1536.4948    488.25335    270.20708   -316.65189    37599.264 
  197700    298.17714   -1567.4786    497.46332     271.1981   -318.09783    37599.264 
  197800    303.67352   -1491.2607     492.4981    367.17376   -50.965815    37599.264 
  197900    302.91644   -1540.5099    458.91897    280.94008    122.66754    37599.264 
  198000     307.0068   -1528.7331    506.13609    358.33256    19.937979    37599.264 
  198100    303.25799   -1510.7617    492.87924     346.1848    389.93087    37599.264 
  198200    301.07812   -1540.3568    519.40701    333.31232    765.18044    37599.264 
  198300    290.89186    -1509.209    475.71236    274.94729    581.59627    37599.264 
  198400    294.89292   -1535.7952    483.66602    274.31168    139.71325    37599.264 
  198500    296.59188   -1521.0742    484.22689    297.23555   -79.183134    37599.264 
  198600    292.70052   -1513.4306    486.44425    289.59303   -506.53824    37599.264 
  198700    299.77302   -1544.1832    488.13203    292.34057   -358.88736    37599.264 
  198800    308.79666   -1536.0273    483.75483    336.70793   -362.48763    37599.264 
  198900    294.30546    -1544.266    475.63813    255.17055   -307.54118    37599.264 
  199000    301.17851   -1523.8212    470.58747    301.47993   -559.34832    37599.264 
  199100    294.81561   -1536.5183     474.0861    263.66086   -762.25372    37599.264 
  199200    295.37854   -1511.9464    463.22438    279.90314   -285.15211    37599.264 
  199300    304.69832   -1550.3574    528.93653    349.12505    48.202269    37599.264 
  199400    289.88927    -1550.335    487.07459    240.67379    142.13698    37599.264 
  199500    314.62866   -1556.2463    482.54857    341.51527    156.87035    37599.264 
  199600    307.77424   -1542.9929    492.32194    333.71057    755.30366    37599.264 
  199700    300.36912   -1598.5709    503.36368     255.8658    396.40313    37599.264 
  199800     295.8281    -1549.503    474.01418    255.15854    455.55126    37599.264 
  199900    300.63105    -1526.069    511.15922    337.34141     260.2384    37599.264 
  200000    294.41921   -1493.5139    473.02716    303.82327   -64.443454    37599.264 
  200100    302.63424    -1488.627    522.58612    395.22078    -256.7278    37599.264 
  200200    286.25741   -1541.3233    505.75742    252.03211   -129.51508    37599.264 
  200300    306.23453   -1515.7224    481.42693    343.16038    67.173189    37599.264 
  200400    296.90697   -1561.7119    460.01746    233.80572   -559.83799    37599.264 
  200500    305.09095   -1505.0487    469.80834     337.0716    118.84268    37599.264 
  200600    309.97744   -1518.5208    508.54201    384.31291    199.05274    37599.264 
  200700     289.8277   -1542.6724     489.9784    250.96327     7.199204    37599.264 
  200800    299.69216    -1524.663     486.3246    309.68963    57.926965    37599.264 
  200900    298.54809   -1522.6502    487.82825    308.06003    219.61431    37599.264 
  201000    309.21172   -1515.1644    487.15347    362.83644    206.98853    37599.264 
  201100    301.16378   -1482.1335     483.9967    356.51061    2.5685435    37599.264 
  201200    302.57875   -1465.4895    502.66091    398.18347    509.52262    37599.264 
  201300    301.90382   -1522.7652     482.4187    317.62973    915.60114    37599.264 
  201400    302.89882   -1481.1993    495.41768    376.67007     313.4801    37599.264 
  201500    296.41962    -1484.398    492.61166    341.52163   -170.24424    37599.264 
  201600    303.88067   -1484.2125    496.67521    379.33079    250.30721    37599.264 
  201700    305.29637   -1521.3441    507.60833     359.5002    15.639153    37599.264 
  201800    292.73139   -1502.9617    489.41482    303.17134   -423.53216    37599.264 
  201900    292.75733    -1545.957    473.63865    244.51652    240.17386    37599.264 
  202000    296.72206   -1509.5796    509.01566    334.10445   -460.94982    37599.264 
  202100    299.31831    -1494.023    484.89453    337.21796   -380.87332    37599.264 
  202200    304.54057   -1553.5813    482.34796    298.60308    -410.0279    37599.264 
  202300    298.37586   -1501.5802    482.33781     322.8649   -539.47348    37599.264 
  202400    312.54055   -1498.3888    494.31494    401.74672    -294.4068    37599.264 
  202500    293.93582      -1508.4    497.44887    311.18469   -72.052995    37599.264 
  202600    305.40134   -1515.5619    463.72861    321.87485    388.82283    37599.264 
  202700    296.99134   -1529.8585    479.90673    285.92792    622.93591    37599.264 
  202800    303.46344   -1537.5789    482.47426    309.88679    1173.4903    37599.264 
  202900    304.75109   -1478.8556    509.45005    401.37775    1193.0775    37599.264 
  203000    301.39607   -1485.7042    501.12863    371.11671    655.19423    37599.264 
  203100    297.04347   -1475.8077    502.56198     362.8684    586.11188    37599.264 
  203200    305.64869   -1469.3007    475.34822    380.86823    56.470458    37599.264 
  203300     299.0891   -1501.4744    476.19465    320.03568   -589.12061    37599.264 
  203400    301.46506   -1515.8255    486.94165    327.11873    151.55255    37599.264 
  203500    286.36001   -1510.2095    466.60331    244.45327     85.07626    37599.264 
  203600    311.68389   -1521.1314    480.39933    361.23523   -172.24475    37599.264 
  203700    295.44287   -1499.4789    495.34721    324.78285   -525.43709    37599.264 
  203800    305.97806   -1472.3905    464.01714    367.92888   -375.14065    37599.264 
  203900     308.6102   -1522.0384    500.09845    366.20178   -484.70921    37599.264 
  204000     312.6427   -1481.9715    496.95367    421.26229     -196.614    37599.264 
  204100    292.65023   -1477.5582      490.463    329.25792   -392.95859    37599.264 
  204200     313.8544   -1471.9924    488.15747    427.89542   -60.903957    37599.264 
  204300    295.55908   -1467.0256    516.94228    379.35393   -324.86813    37599.264 
  204400    308.26549   -1438.4025    491.25139    439.44016   -430.55916    37599.264 
  204500    297.65075   -1440.5652    497.74333    396.02385   -400.33193    37599.264 
  204600    292.25828   -1497.2079    490.53626    307.91852   -213.69995    37599.264 
  204700    304.85464   -1498.0628    489.14507    362.33139   -489.40138    37599.264 
  204800     291.0604   -1473.5209     480.8221    316.50318   -251.43095    37599.264 
  204900    301.76619   -1468.6124    489.88372    378.62848   -318.53119    37599.264 
  205000    291.73846   -1472.5748    516.51335     356.1905   -272.22388    37599.264 
  205100     287.8476   -1497.3982    504.55559    301.90814   -320.21408    37599.264 
  205200    291.87869   -1500.0444    474.27024    287.10852    499.10387    37599.264 
  205300    297.69005   -1494.1534    505.31486    350.18387    132.39283    37599.264 
  205400    305.03228   -1460.8228    484.11705    395.34236    227.22627    37599.264 
  205500    311.39266     -1428.52    486.26864    458.40597    166.97697    37599.264 
  205600    301.87871   -1401.9672    491.72513    447.62116   -90.869265    37599.264 
  205700    297.02124   -1459.1883    466.30415       343.13   -345.91213    37599.264 
  205800    303.95003   -1486.2187    469.95469    350.91611    34.076265    37599.264 
  205900    305.53184   -1516.9366    464.10229    321.46082    191.58292    37599.264 
  206000    292.25769   -1468.1522    503.64171      350.077    317.87581    37599.264 
  206100     294.7121   -1489.2921     511.5667     347.9021    980.55414    37599.264 
  206200    307.14892   -1425.6334    522.26893    478.20437    528.98703    37599.264 
  206300    300.64297   -1458.1446    492.42338    386.58357   -53.243882    37599.264 
  206400    290.42685   -1431.2082    516.50741    391.65147   -701.80108    37599.264 
  206500     297.4913   -1430.1531    502.68796    410.66332   -255.97708    37599.264 
  206600    298.74411   -1393.6485    511.85916    461.97427    433.39554    37599.264 
  206700     298.4667   -1447.1824    476.31883    371.65234    238.37794    37599.264 
  206800    303.18132   -1498.7193    484.09746    349.10053   -404.02083    37599.264 
  206900    297.72646   -1471.9976    505.38413    372.57275   -310.35062    37599.264 
  207000     304.4344    -1484.264    468.30603    353.40084    71.201636    37599.264 
  207100     292.0611   -1527.3192    468.62044    255.00444   -387.42485    37599.264 
  207200    304.32423    -1502.348    492.36923    358.88445   -410.06909    37599.264 
  207300    303.50003   -1500.7386     484.2489    348.66632    -304.9876    37599.264 
  207400    295.01953    -1484.183    488.69332    331.52065   -188.89196    37599.264 
  207500    299.57626   -1488.5902    498.10956    357.02604    248.74252    37599.264 
  207600    295.45739   -1522.7735    487.36336     293.5697   -390.14274    37599.264 
  207700    307.71139    -1500.761    505.86424    389.20205    393.12243    37599.264 
  207800    301.75603   -1513.2202    496.16794    340.25915     456.5617    37599.264 
  207900    301.80006   -1537.0871    486.18043    306.60277    396.04077    37599.264 
  208000    297.95878   -1514.9051    502.14572    327.47188    527.31068    37599.264 
  208100    297.63193   -1525.3155    494.17658    307.62208    407.14581    37599.264 
  208200    299.88776   -1528.9464    481.42793    301.38941   -375.13498    37599.264 
  208300    312.57794   -1493.3431    492.24763    404.89335    308.29646    37599.264 
  208400    301.68597   -1552.9885     493.5472    297.55497   -46.738256    37599.264 
  208500    302.38299   -1549.2719    462.80067     273.6603    492.60285    37599.264 
  208600    299.06789   -1561.8589    487.57957    270.94071     403.0121    37599.264 
  208700    299.52713   -1523.9708    492.35641    315.67132    745.38342    37599.264 
  208800    310.80621    -1521.593    517.69953    394.12601    442.75153    37599.264 
  208900    305.43675   -1555.5041    453.64838    272.01178    153.08064    37599.264 
  209000    303.52555   -1541.1686    481.03666    305.13883    412.77532    37599.264 
  209100    306.14889   -1565.8687     477.7455    288.94744   -26.980743    37599.264 
  209200     297.7651   -1524.0185    518.40968    333.75119    -298.8531    37599.264 
  209300     305.3636   -1493.2048    491.37695    371.71056    243.79292    37599.264 
  209400    296.53572   -1535.7126    469.58459    267.70221    535.29982    37599.264 
  209500    306.22841   -1515.6271    482.48975    344.29105    89.024334    37599.264 
  209600    304.60193   -1541.5653     500.1449    328.69201    127.54017    37599.264 
  209700    280.03932   -1553.6436    488.68836    194.67349    486.53801    37599.264 
  209800    305.02198   -1515.6425    505.91565    362.27494    97.014974    37599.264 
  209900    295.81639   -1538.1427    469.11165    261.56364   -381.16377    37599.264 
  210000    304.76518   -1503.3052    494.36555    361.90702   -183.57285    37599.264 
  210100    302.18429   -1479.5018    494.74925    374.48521    -482.9309    37599.264 
  210200    292.02352   -1476.8326    489.69386    326.39541   -320.32524    37599.264 
  210300    295.88016   -1524.5018    522.03174    328.41146   -178.01962    37599.264 
  210400    303.47593   -1490.8702    506.38525    380.56259    88.219153    37599.264 
  210500    289.52691   -1469.9075     492.8762    325.27299   -272.69289    37599.264 
  210600    297.82939   -1500.4453    474.90386    314.10776   -229.02894    37599.264 
  210700    307.61446   -1485.7845    497.97548     395.8539    122.60035    37599.264 
  210800    299.48191   -1497.6022    491.47031    340.95044   -438.01054    37599.264 
  210900    287.80194   -1453.7885    494.93983    335.69659   -217.98881    37599.264 
  211000    311.06484   -1466.4615    505.72317    438.44451    -467.8872    37599.264 
  211100    302.33107   -1469.6484    479.50986    369.75949   -34.889361    37599.264 
  211200    304.17502    -1509.304     494.5382    353.42631   -37.439254    37599.264 
  211300    305.10764   -1547.3053    486.38135    311.46316   -345.33897    37599.264 
  211400    293.78909   -1535.3494    492.31306     278.4394    740.53565    37599.264 
  211500    298.47099    -1507.772     503.4412    338.20437    1069.5882    37599.264 
  211600    290.44835   -1499.1821    470.60663    277.87349    577.41911    37599.264 
  211700    303.75721   -1473.3751    493.29404    386.23171    640.12728    37599.264 
  211800    303.75393   -1488.4493    512.29844    390.14721    199.93163    37599.264 
  211900    302.24698   -1488.4633    499.64949    370.70593   -147.12897    37599.264 
  212000     292.8766   -1495.6541    484.26423    305.98148   -204.66569    37599.264 
  212100    295.76454   -1513.1192     506.0357    323.27797   -314.05838    37599.264 
  212200    301.16778   -1467.8746    483.22742    370.01829   -450.21004    37599.264 
  212300     300.7913   -1487.0942    488.76602    354.64378   -543.61913    37599.264 
  212400    306.65105    -1505.714    470.78692    344.40236   -463.01925    37599.264 
  212500    287.64028   -1496.3424    501.82329    299.29908   -455.33807    37599.264 
  212600    308.18946   -1498.9849     485.0277    372.29209    26.057772    37599.264 
  212700    299.77805   -1484.8236    513.55047    377.14128   -631.07289    37599.264 
  212800    301.73529   -1509.4026    476.27612    324.09161   -195.00788    37599.264 
  212900    291.28562   -1462.0137    511.20089    359.40225   -298.05739    37599.264 
  213000    296.87392   -1457.1664    504.90851     383.0936    310.41929    37599.264 
  213100    304.78838   -1487.4936    491.01123    374.46864    28.285694    37599.264 
  213200    319.02942   -1502.3223    509.20579    441.89136    129.51902    37599.264 
  213300    302.77228   -1510.3399    527.23269    378.77533    538.60791    37599.264 
  213400    301.17703   -1498.9236    479.00684    334.79027    43.999882    37599.264 
  213500    300.41447   -1509.2826    504.73029    346.72469   -282.87898    37599.264 
  213600    299.62192    -1526.112     487.5977    309.19776   -520.11921    37599.264 
  213700    297.70928   -1502.4034    496.90822    333.61372    585.52491    37599.264 
  213800    303.01702   -1502.2793    496.69912    357.40322    945.82537    37599.264 
  213900    309.11982   -1542.3954    491.46056    339.49921    919.70453    37599.264 
  214000    304.18659   -1548.2488    453.81951    273.81486    466.76885    37599.264 
  214100    301.00508   -1516.6843    499.63293    336.88226    180.26231    37599.264 
  214200    295.44739   -1493.5448    489.48202    324.87208   -337.70166    37599.264 
  214300    309.67552   -1519.5923     490.5703    363.91161     256.2001    37599.264 
  214400    309.02012   -1499.3212    499.95576     390.6201    513.45416    37599.264 
  214500    304.04332   -1499.9894    474.59422    342.20451    122.70718    37599.264 
  214600    307.86408   -1495.5315    484.54954    373.80373    329.72517    37599.264 
  214700    296.36169   -1528.1531    505.52325    310.41758   -75.840767    37599.264 
  214800    306.92213   -1538.7145    500.40845    342.24266    203.99161    37599.264 
  214900    299.21174   -1511.9854    491.52749     325.4092    67.304677    37599.264 
  215000    300.20123   -1491.0328    488.46072    347.74581    213.68407    37599.264 
  215100    304.31436   -1465.1903    471.42101    375.04955     24.50144    37599.264 
  215200    304.03382   -1505.1012    491.05191    353.50768    146.16215    37599.264 
  215300     306.1253    -1518.642    471.00831     329.3309    406.05438    37599.264 
  215400    294.46129   -1570.7878    497.11878    250.83031    656.89162    37599.264 
  215500    309.84289   -1560.1422    499.80706    333.35127    1313.3763    37599.264 
  215600     305.6119    -1541.703    513.70931    346.66159    857.89005    37599.264 
  215700    310.52844   -1570.7673    488.08355    314.08636    723.34937    37599.264 
  215800      298.712   -1516.3985    492.79084     320.0116    651.61664    37599.264 
  215900    301.58181   -1516.8722    476.82123    316.47678     216.0765    37599.264 
  216000    299.53353   -1520.1098     481.6805    308.88521    79.105535    37599.264 
  216100    290.85757   -1517.2758    487.86955    278.88338    11.943802    37599.264 
  216200    293.69491   -1510.6031    484.90917    295.35824   -137.78919    37599.264 
  216300    302.29566   -1503.8795    529.21924    385.07845      77.0539    37599.264 
  216400    298.37104    -1522.326     458.8366    278.59616   -38.309784    37599.264 
  216500    294.99822   -1487.2913    514.02446    353.64762    84.024801    37599.264 
  216600    298.11197   -1499.0665    498.57454    340.42834    209.53772    37599.264 
  216700    287.11787   -1542.9928    484.95361    233.42918   -84.975774    37599.264 
  216800     298.8207   -1511.6194    514.30312    346.79189   -369.52227    37599.264 
  216900    300.54111   -1497.7409    491.83419    345.93998     63.90482    37599.264 
  217000    309.54316    -1537.692    488.72688    343.37316    75.001773    37599.264 
  217100    295.48989   -1491.1074     512.3192    350.33786    555.10996    37599.264 
  217200    302.53156   -1487.4957    478.69781    352.00189    265.72904    37599.264 
  217300    298.42344   -1498.5172    492.47089    336.27499   -47.290627    37599.264 
  217400    288.95678   -1467.1258    491.40277    324.01682     130.0253    37599.264 
  217500    292.98753   -1481.0897     486.4563    323.23687    288.23504    37599.264 
  217600    307.40425   -1460.6286    480.79889     402.8876   -48.443631    37599.264 
  217700    300.53779   -1454.8285    480.13952    377.14273   -399.58483    37599.264 
  217800     311.5535   -1460.1871    504.44415    445.63788     148.3246    37599.264 
  217900     300.2684    -1464.396    469.70805    355.93206     599.2401    37599.264 
  218000    308.00851   -1510.6148    465.28703    340.10755    956.35623    37599.264 
  218100    288.10689   -1495.4823    488.07502    288.50967    124.51087    37599.264 
  218200     295.4894   -1500.7945    501.08803    329.41741   -60.545922    37599.264 
  218300    298.12226   -1506.1443    494.43752    329.25973    258.29288    37599.264 
  218400    301.92628    -1475.104    485.01086    367.98404    108.21869    37599.264 
  218500    305.73396   -1460.3901    518.33492    433.14912    570.41671    37599.264 
  218600    305.02917   -1507.3829    504.26342    368.91466    447.69657    37599.264 
  218700    296.75069   -1451.9884    488.43437    371.24317    288.58204    37599.264 
  218800     300.4034    -1480.065     474.5462    345.70842   -217.62906    37599.264 
  218900    295.42814   -1522.1838    487.69801    294.36247   -39.144451    37599.264 
  219000    302.27739   -1527.6356    477.92097    309.94184     130.7992    37599.264 
  219100    291.71596   -1517.3189    497.83595    292.66781     57.03514    37599.264 
  219200    310.14611   -1482.5003    494.22296    406.77296    158.59812    37599.264 
  219300    295.00082   -1469.7832     505.7862    362.92916    407.17636    37599.264 
  219400    294.76767   -1486.9646    480.60896    319.52185    22.917176    37599.264 
  219500    291.29748   -1502.7562    506.49037    314.00261   -126.75961    37599.264 
  219600    297.24207   -1483.2631    494.97577    348.72008      131.082    37599.264 
  219700    296.51362    -1456.831    473.87972     350.7796    604.73857    37599.264 
  219800    310.69111   -1491.4442    506.41234    412.46987      774.078    37599.264 
  219900    297.40809   -1533.2741    486.17914    290.65921    751.24606    37599.264 
  220000    304.20069    -1512.641    477.19968    332.86628    360.00211    37599.264 
  220100    300.49079   -1495.1353    471.78253     328.2675   -166.33242    37599.264 
  220200    314.67428   -1477.2423    508.67191    446.84788    363.64686    37599.264 
  220300    314.18192   -1484.1093    491.99812    421.09241   -119.21467    37599.264 
  220400     293.9368   -1495.8058    482.45817    308.79249   -659.07631    37599.264 
  220500     303.4994   -1513.2678     467.3026      319.188   -354.44534    37599.264 
  220600     300.5777   -1539.0539       508.84    321.79731   -168.91036    37599.264 
  220700    293.73505   -1544.9435    486.28496    262.57414    618.97744    37599.264 
  220800    298.51459   -1559.1014    474.63687    258.26679    226.24148    37599.264 
  220900    304.23936   -1520.6314    496.80341    344.65359   -52.842631    37599.264 
  221000    306.50217   -1547.9075    488.37801    319.13031    585.01292    37599.264 
  221100    297.88816   -1516.8267    479.53344    302.62025    119.70311    37599.264 
  221200    303.74799   -1572.7975    461.74777    255.22162    40.936913    37599.264 
  221300    302.09717   -1533.8103    477.71518    302.75073    343.47157    37599.264 
  221400    292.74845   -1568.0696    488.35241    237.07779    288.73077    37599.264 
  221500    307.29516   -1569.3102    488.61628    301.53268    36.517387    37599.264 
  221600    300.48307   -1517.6616    484.55161     318.4756   -108.99658    37599.264 
  221700    299.22103   -1584.1349     484.0371    245.81111   -646.34465    37599.264 
  221800    316.57621   -1585.9267    453.88981    291.93629   -929.09592    37599.264 
  221900    305.57232   -1567.0867    477.49551    284.88604   -242.92003    37599.264 
  222000    304.45824   -1556.7977     482.5777    295.24609    44.471213    37599.264 
  222100    304.10664   -1548.1868    495.78233     315.4801   -133.97144    37599.264 
  222200    306.87577   -1519.8558    447.94555    308.43002   -402.96728    37599.264 
  222300    287.48252   -1496.3273    497.57433    294.35559   -1054.8221    37599.264 
  222400    289.54584   -1495.1104    514.03836    321.31736   -418.98913    37599.264 
  222500    295.31127   -1499.2005    488.00036    317.12243   -302.22751    37599.264 
  222600    293.54853   -1531.9591    470.91252     259.3472   -689.04667    37599.264 
  222700    296.18258   -1544.1328    477.82422    265.93322   -668.52165    37599.264 
  222800    306.81971   -1498.8224    467.59693    348.86254    -684.5491    37599.264 
  222900    292.67238   -1499.2678    490.22241    307.40734   -1080.7778    37599.264 
  223000    298.13889    -1501.815     499.2847    338.51107   -417.60255    37599.264 
  223100    300.23468   -1526.3795     511.8331    335.92194   -452.57636    37599.264 
  223200    300.00797   -1540.7673    488.10759     296.7889   -744.40754    37599.264 
  223300    293.84836   -1506.0955    502.07636    317.72327   -280.20958    37599.264 
  223400    297.63568      -1508.4    475.33314    305.71098    50.477466    37599.264 
  223500    300.78497   -1484.4057    491.95549    360.49332    482.65372    37599.264 
  223600    346.35113   -1473.2429    500.47591    585.13509    853.25211    37599.264 
  223700    291.30551    -1505.645    493.57034    298.22988   -293.50016    37599.264 
  223800    299.69366   -1517.3132     487.3472    318.06884   -841.26852    37599.264 
  223900    311.27125   -1536.0956    506.37105    370.38666   -454.37542    37599.264 
  224000    303.36062   -1532.5951     487.4198    319.35361    216.70148    37599.264 
  224100    294.48734   -1552.3345    500.35924    272.64128    280.38697    37599.264 
  224200    294.26981   -1489.6385    493.55387    327.55342    327.85727    37599.264 
  224300    305.66779   -1519.3505    494.40288     349.9591    210.95278    37599.264 
  224400    305.59969   -1518.6867    487.38775    343.30145    169.78997    37599.264 
  224500    300.24056   -1498.1485    499.96784    352.31412    174.20359    37599.264 
  224600    303.08609   -1550.0484    451.97639    265.22204   -5.6941968    37599.264 
  224700    295.75812   -1543.2749    499.34842    286.40608    287.30425    37599.264 
  224800    294.06523    -1522.712     499.9959    300.00176    147.79377    37599.264 
  224900    293.35293   -1541.4391    471.69928    249.77411    678.71222    37599.264 
  225000    302.18054     -1509.85    464.09795    313.46888     986.8016    37599.264 
  225100    295.45013   -1551.6951    488.93618    266.18829    450.76248    37599.264 
  225200    287.34743   -1523.4736     481.2128    250.24009   -47.968233    37599.264 
  225300    293.49538   -1477.7525    504.94694    347.34908   -118.86972    37599.264 
  225400      298.813   -1543.7342    505.38909     305.7284   -212.98853    37599.264 
  225500    302.75229   -1504.4579    491.42134     348.7561    10.767882    37599.264 
  225600    297.10002   -1500.2196    483.76497    319.91378   -565.26671    37599.264 
  225700    292.08549   -1500.3521    484.89366    298.35445   -800.97681    37599.264 
  225800    297.36525   -1500.1104    490.64769    328.09875   -185.40438    37599.264 
  225900    309.38128   -1460.7018    490.09466    421.00299    264.49546    37599.264 
  226000    312.46943   -1492.9569    496.36743    408.91127    494.28668    37599.264 
  226100    297.12298   -1552.2436     479.0245    263.25262    608.99749    37599.264 
  226200    297.64438   -1525.7891    486.16225     299.1902    1065.1079    37599.264 
  226300    297.96697   -1522.1516    515.16383     333.2803    362.21297    37599.264 
  226400    301.37139    -1507.429    507.62582    355.77811    953.49533    37599.264 
  226500    296.92969   -1530.9492    478.47085    283.12393    472.87688    37599.264 
  226600    308.63003   -1535.3437     515.9174    368.80461    520.74523    37599.264 
  226700    304.35229   -1507.2762    488.18008    349.89336    48.622715    37599.264 
  226800    293.77811   -1515.6294    503.53671    309.33368    858.51139    37599.264 
  226900    304.80238   -1542.6545    496.46917    324.82871    168.78636    37599.264 
  227000    308.91974   -1563.9484    484.40973    309.99543     492.2583    37599.264 
  227100     293.4935   -1530.9963    470.29321    259.44315    610.27929    37599.264 
  227200    298.34428   -1505.0917    495.04693    331.92045    112.29657    37599.264 
  227300    298.34477    -1523.173    514.02929    332.82367    546.72925    37599.264 
  227400    302.89572   -1525.9742    469.65961    306.12321    338.00141    37599.264 
  227500    312.19613   -1515.7591    495.10541    383.61774    36.740033    37599.264 
  227600    303.11765   -1504.4844    494.30821    353.25987   -34.774301    37599.264 
  227700    305.50804   -1541.5108    487.37397    320.05129    3.8689792    37599.264 
  227800    298.49493   -1504.6706    517.07492    355.04714    446.64873    37599.264 
  227900    288.73749   -1480.3035    489.60692    308.05684    561.35737    37599.264 
  228000    301.95903   -1501.5617    490.74402    347.40681    413.63275    37599.264 
  228100    306.34135    -1502.875    494.37018    369.43156    208.52235    37599.264 
  228200    303.62408   -1506.4699    466.01646    325.26057    112.48254    37599.264 
  228300    304.24433   -1514.6729    474.05292    327.88397   -323.62883    37599.264 
  228400    294.42907   -1535.6048    462.17612    250.92578   -616.86105    37599.264 
  228500    305.19894   -1521.2723    509.31176    360.83723    3.1594076    37599.264 
  228600    286.92965   -1491.4954    479.15427    278.28061    426.99536    37599.264 
  228700    303.60177   -1546.6069    463.44665     282.4534    206.72477    37599.264 
  228800    306.16441   -1532.7764    500.38562    344.74972    523.61772    37599.264 
  228900    292.85332   -1543.6066    473.43207    247.09212    455.47794    37599.264 
  229000    292.38595   -1532.2842    471.99714    254.87735    690.74268    37599.264 
  229100     306.1823   -1480.9435    521.52367    417.80115    701.82132    37599.264 
  229200    302.36003   -1475.4767    490.21845    374.76995    850.62906    37599.264 
  229300    308.49561   -1484.6497    486.30384    389.28047    305.99236    37599.264 
  229400    304.69232   -1538.2889    468.81443    301.04445    272.48574    37599.264 
  229500     294.1703   -1569.0827    484.31611    238.42387     369.0085    37599.264 
  229600    298.62444    -1492.834    472.62514    323.01648    106.99093    37599.264 
  229700    295.57874   -1492.6185    491.30814    328.21538    326.21113    37599.264 
  229800    300.41493   -1551.6142    454.25666    253.92155    252.50436    37599.264 
  229900    289.66907   -1521.8842    484.59509    265.65464    -272.5351    37599.264 
  230000    311.68278   -1509.1714    498.71874    391.50965    757.08951    37599.264 
  230100     302.8304   -1539.1014    477.78948    300.83207    380.37306    37599.264 
  230200    298.33397   -1566.2774    494.90936    270.55079    148.28438    37599.264 
  230300    284.15822   -1572.6282    461.75628    167.28384    100.43011    37599.264 
  230400    290.05397   -1490.7897    496.99069    310.87603   -36.301446    37599.264 
  230500    303.94721   -1510.2454    461.76517    318.68717    284.11465    37599.264 
  230600     297.7983   -1502.0965    493.74125    331.15417    52.160183    37599.264 
  230700    303.45344   -1502.4378     478.2819    340.79056   -191.82504    37599.264 
  230800    306.86903   -1502.0559    475.70902    353.96298   -245.65741    37599.264 
  230900    306.74824   -1483.2148    480.49859    377.05041   -583.77312    37599.264 
  231000    291.89051    -1544.777    479.56334    247.72217   -133.36025    37599.264 
  231100    311.06603   -1569.3653    444.94969    274.77255    -166.9394    37599.264 
  231200    300.68476    -1538.712    487.85237    301.63322    247.12575    37599.264 
  231300    291.72903   -1548.7973    456.74834    220.16055   -162.80296    37599.264 
  231400     295.6277   -1544.1301    468.51069    254.12649   -129.76598    37599.264 
  231500    300.76248   -1522.5982    492.85103    323.09516   -518.79893    37599.264 
  231600    292.89301   -1542.5564    494.93216    269.82097    82.115082    37599.264 
  231700    297.27313   -1534.6959     476.5689     279.0202    52.733614    37599.264 
  231800    292.92536   -1527.7856    473.09026    262.89536   -338.30039    37599.264 
  231900     293.4757   -1514.7225     483.1252    288.46888   -519.77248    37599.264 
  232000    283.23806   -1542.8196    503.00921    234.20639   -315.38108    37599.264 
  232100    305.43405   -1498.0973    493.63145    369.38941    556.78918    37599.264 
  232200     289.0111   -1537.4484    479.00964    241.54543    273.18924    37599.264 
  232300    302.16654   -1544.7215    466.62283    281.05923    577.48094    37599.264 
  232400    297.72506   -1534.9777    488.60114     292.8034     918.6994    37599.264 
  232500    293.84825   -1561.0955    467.85559    228.50201    511.71417    37599.264 
  232600    311.91904    -1538.849     481.1903    345.36638    313.84432    37599.264 
  232700    297.76306   -1532.0444    478.78235    286.08887    -485.3557    37599.264 
  232800    287.59331   -1552.7129    477.15173    218.04574    234.01879    37599.264 
  232900    305.46412   -1565.2523    468.81862    277.55684   -146.08937    37599.264 
  233000     295.4223   -1543.8612    469.60921    254.56996   -313.81709    37599.264 
  233100    292.32129   -1555.3254    473.39146    232.93962    112.27908    37599.264 
  233200    304.08277   -1574.5005    488.14646    281.42313    716.29802    37599.264 
  233300    307.25235    -1587.432    462.89295    257.49501    681.79558    37599.264 
  233400    307.52737   -1582.5082    469.07256     269.8355    659.70478    37599.264 
  233500    299.09259    -1551.467    475.20952    269.07368   -250.83391    37599.264 
  233600    306.60483   -1533.1529    505.65236    351.62102    364.09036    37599.264 
  233700    298.34429   -1557.3105    476.53169    261.18645    359.91155    37599.264 
  233800    294.02453     -1601.82    483.43969    204.15448     383.1539    37599.264 
  233900    297.16076    -1548.195    480.54018    268.98682    698.96333    37599.264 
  234000    290.98748   -1600.3395    502.10212    210.63664     551.1529    37599.264 
  234100    300.19134   -1601.7183    476.80546    225.36048    689.17361    37599.264 
  234200    288.69667   -1591.4528    472.29342     179.4105    519.29146    37599.264 
  234300    298.49527   -1581.2575    483.11914    244.50599    612.35623    37599.264 
  234400    305.14621   -1588.7907    488.76052    272.53037    416.02451    37599.264 
  234500    292.15939   -1588.0793    466.23444    192.30043    383.99442    37599.264 
  234600     288.8948   -1545.3786     482.5691    236.65154    38.378286    37599.264 
  234700    289.77429   -1563.5637    455.86499    195.71834    146.01965    37599.264 
  234800    308.93418   -1544.3247    478.24456    323.51893   -276.20693    37599.264 
  234900    295.72212   -1554.9025    469.54039    244.80852   -407.64559    37599.264 
  235000    309.79842   -1543.4624    502.07469     352.0987   -79.043592    37599.264 
  235100    292.35885   -1549.9025    474.30734     239.4473    200.87218    37599.264 
  235200    291.09008   -1573.7123    469.77448    205.39766    69.260607    37599.264 
  235300    298.14721   -1566.3959    468.69035    243.37323    214.63689    37599.264 
  235400    305.57908   -1535.1435    477.49978    316.86388    -553.4704    37599.264 
  235500    296.70664   -1565.0847    477.32994    246.84432   -91.049001    37599.264 
  235600    299.32633   -1566.3294    493.46136    273.51444   -654.93196    37599.264 
  235700    298.76302   -1566.8677    478.26981    255.25088   -63.666851    37599.264 
  235800    299.44402   -1593.3126    491.98115    245.58048   -4.6071689    37599.264 
  235900    297.28836   -1588.0246    481.96471    231.15571   -190.65159    37599.264 
  236000    290.16424   -1593.9523    463.67857     174.8973   -199.72676    37599.264 
  236100    293.49327   -1566.1369    495.66896    249.67724   -154.44902    37599.264 
  236200    292.23766   -1484.0959    464.30804    294.70957    821.37558    37599.264 
  236300    304.92513   -1529.2442    503.27295    345.59492    657.00079    37599.264 
  236400    299.28225   -1483.0144    505.94996    369.11983   -150.23468    37599.264 
  236500    294.66678   -1528.0298    484.67196    282.06585    13.803754    37599.264 
  236600    293.55086   -1519.5852    487.30565    288.12463   -103.69761    37599.264 
  236700    302.57624   -1523.0598    483.90471    321.84566   -178.37693    37599.264 
  236800      303.638   -1510.6465    495.66791    350.79801   -546.30388    37599.264 
  236900    300.23872   -1525.6088     475.3301    300.20772    -455.5114    37599.264 
  237000    308.37977   -1545.6479    473.96684    315.42422   -113.47814    37599.264 
  237100    309.37192   -1533.9102    471.40048    329.05829    131.78825    37599.264 
  237200    307.71397   -1551.3111    487.20889    320.00826    305.84192    37599.264 
  237300     284.7581   -1555.9412    494.51129    219.42407    131.57385    37599.264 
  237400    290.45806   -1569.7092    499.59905    236.38251    550.77362    37599.264 
  237500    293.58057   -1560.1511    482.59758     242.9843    -309.4625    37599.264 
  237600    293.16245   -1547.0924    486.63612    258.20085   -440.96888    37599.264 
  237700    292.03893   -1548.2256    483.69966    249.07755   -308.56107    37599.264 
  237800    296.83373   -1584.9571    483.58067    233.79428   -144.31434    37599.264 
  237900    306.78459   -1566.5691    470.18441    283.54542    164.93822    37599.264 
  238000    297.45428   -1546.8866    487.04637    278.12169   -29.503134    37599.264 
  238100    307.43249   -1497.2574    492.47414    378.06115    97.831086    37599.264 
  238200    289.70746   -1521.0787    512.38489    294.42258   -54.513585    37599.264 
  238300    305.40984   -1548.3312    502.66322    328.07839    399.79421    37599.264 
  238400    293.63832   -1524.9634    507.04118    302.87537   -98.483826    37599.264 
  238500    295.96719   -1556.7114    473.06495    247.62645   -59.803103    37599.264 
  238600    303.59841    -1562.036    501.81096    305.37348    207.66693    37599.264 
  238700    293.19432   -1456.4667    493.43186    355.76565    550.76512    37599.264 
  238800    306.00136   -1481.1113    500.76727    396.06304    48.327578    37599.264 
  238900     299.6869   -1463.6104    473.36261    357.75664    430.55121    37599.264 
  239000     306.1483   -1495.7309    513.13387    394.47104    200.81512    37599.264 
  239100    299.53375   -1514.3099    467.40114    300.40672    647.77814    37599.264 
  239200    304.36183   -1501.2302    493.77732    361.57954     178.0327    37599.264 
  239300    296.51988   -1534.0365    482.66366    282.38608    174.32882    37599.264 
  239400    309.21101   -1502.6776    497.57815    385.74478    669.61689    37599.264 
  239500    296.60319   -1472.0424    503.06891    365.16022      139.427    37599.264 
  239600    306.89014   -1495.6552    497.65722    382.40685    570.84831    37599.264 
  239700    300.96209   -1455.0318    519.51826    418.22671    619.09379    37599.264 
  239800    313.93491   -1445.0146    498.70953    465.78748    479.33025    37599.264 
  239900     294.1913   -1486.9696    458.57237    294.88766   -133.01836    37599.264 
  240000    292.49107   -1508.2486    483.98777    291.37642   -232.48248    37599.264 
  240100    300.94346   -1491.7226    481.07649    343.01032   -804.65485    37599.264 
  240200     298.0021   -1518.1969    449.61434    271.84348   -1107.0722    37599.264 
  240300    310.95674    -1499.761    485.97184    384.90748   -1069.6854    37599.264 
  240400    310.30921   -1531.5498     468.9561    333.19027   -160.94466    37599.264 
  240500    290.98215   -1485.5218    504.43614    327.76443    -269.7541    37599.264 
  240600    306.48681   -1497.1568    504.91428    386.34818   -42.334794    37599.264 
  240700    299.75127   -1537.1497    470.41608     281.5603   -406.00178    37599.264 
  240800    297.96501   -1520.4397    490.83899    310.65852   -174.08737    37599.264 
  240900    290.42188   -1517.9171     475.6435    264.05632   -428.56611    37599.264 
  241000     292.1417   -1519.1187    493.89682    288.84387   -931.05198    37599.264 
  241100    296.60409     -1503.29      484.158    315.00573   -354.24872    37599.264 
  241200    308.97633   -1532.8371    499.72803    356.67952   -107.91473    37599.264 
  241300    317.16477   -1542.1975    485.46365    369.88674    438.77404    37599.264 
  241400    305.30444   -1502.1224    485.45865    356.60858    531.49112    37599.264 
  241500    293.15947   -1532.2081    483.74864    270.18423    883.14972    37599.264 
  241600    306.33317   -1525.3861    498.01908    350.53259    719.76452    37599.264 
  241700    304.43043   -1501.0239    488.62735    356.94439     59.66802    37599.264 
  241800    302.55519   -1514.4612    476.70836    323.15321    108.62711    37599.264 
  241900    307.62239   -1516.6093    484.23017    351.31941    234.75353    37599.264 
  242000    297.05822   -1527.3287    486.14237    294.99418   -601.64469    37599.264 
  242100     298.7227   -1562.1379    493.91267    275.44214   -454.00818    37599.264 
  242200     298.3958    -1555.763    490.37181    276.80573    318.91579    37599.264 
  242300    310.65803   -1516.6051    467.54676    348.29462    404.72649    37599.264 
  242400    302.91954   -1533.1071    503.76707    333.20486    520.68943    37599.264 
  242500    312.64337   -1513.3557    485.11739    378.04479    1001.3283    37599.264 
  242600    301.12426   -1548.5393     494.7001    300.63054    292.24029    37599.264 
  242700    289.81219   -1511.2627    481.30805    273.63288    450.95702    37599.264 
  242800    294.91006   -1532.6884    486.37171    280.20125     317.6156    37599.264 
  242900    303.46134   -1534.8579    504.56578    334.68983    699.08198    37599.264 
  243000    308.38213   -1506.5862    472.47191    353.00158    495.33507    37599.264 
  243100    300.55745   -1515.3179     505.3949     341.9971    413.23803    37599.264 
  243200    297.95284   -1483.4949    488.53098    345.24055   -15.604514    37599.264 
  243300    302.87432   -1475.7475    513.55816    400.15217   -614.34758    37599.264 
  243400    299.42946   -1495.8294     488.7178    339.73479   -771.63942    37599.264 
  243500    307.79076   -1450.1014    493.88105    428.23547   -959.86401    37599.264 
  243600    306.77397   -1470.2723    505.93783    415.54786   -592.14083    37599.264 
  243700    298.25321   -1450.3234    493.34932     384.5815   -274.50168    37599.264 
  243800    299.53097   -1413.6831    497.04963    430.66955   -794.05068    37599.264 
  243900    290.30405   -1391.4493    508.65283    423.00342   -141.13948    37599.264 
  244000    298.74502   -1435.7897    486.46838    394.44638   -267.68248    37599.264 
  244100    292.46829   -1447.5003    496.37707    364.41152   -225.68181    37599.264 
  244200    307.35506   -1450.6286    502.13731    434.00477   -266.99287    37599.264 
  244300     298.8257   -1435.3579    490.45274    399.22545   -322.65813    37599.264 
  244400    306.45808   -1441.1468    517.33539    454.65006     33.26484    37599.264 
  244500    302.66258   -1414.5225    488.55357    435.42013    108.03803    37599.264 
  244600    292.72572   -1430.9067    492.96137    378.74735   -102.43208    37599.264 
  244700    291.89168   -1453.4236    506.14956    365.66711    51.311276    37599.264 
  244800    297.72125   -1471.3656    462.97709    330.77434    62.400252    37599.264 
  244900    302.95704   -1459.7658     500.6763    403.62409   -356.86096    37599.264 
  245000    295.67483   -1482.3451    484.94318    332.55601   -623.23008    37599.264 
  245100    296.50155   -1456.9598    475.47946    352.19618    114.85066    37599.264 
  245200    306.63631   -1513.2194    467.60844    333.65213    -582.3428    37599.264 
  245300     303.3316    -1507.628    477.93908     334.7095   -341.10474    37599.264 
  245400    309.94271   -1487.9726    489.20389    395.36675    405.41969    37599.264 
  245500    302.77432   -1473.7991    490.01746    378.11004    94.680421    37599.264 
  245600      298.745   -1491.5084    486.80049    339.05973    235.42712    37599.264 
  245700    308.27447   -1445.5936    477.12917    418.16719      187.781    37599.264 
  245800    292.05937   -1481.9731    482.56898    314.29134    411.37174    37599.264 
  245900    290.21576    -1449.785    517.03506    372.65283   -30.568747    37599.264 
  246000    300.06161   -1497.2694     490.2287    342.64916   -472.55977    37599.264 
  246100    293.45182   -1473.5537    478.14122    324.54626    81.189256    37599.264 
  246200    296.13766   -1488.3451     487.6606    331.35521   -341.54201    37599.264 
  246300    297.87494   -1465.4779    492.86597    367.24218     249.4679    37599.264 
  246400    302.63378   -1457.0724     478.2738      382.461    59.610757    37599.264 
  246500    306.22578    -1452.842     501.2109    425.78548   -494.74497    37599.264 
  246600     297.8276   -1509.0163    470.02244    300.64727   -623.96477    37599.264 
  246700    297.92695   -1470.8856    495.14886    364.35131   -507.72927    37599.264 
  246800     290.2784   -1493.1833    480.22272    292.72396   -24.050081    37599.264 
  246900    304.30748   -1498.4789    479.32966    349.63871   -472.43856    37599.264 
  247000    301.19553   -1456.1173    506.75612    405.42905   -3.7475198    37599.264 
  247100    297.76986   -1518.1834    457.24255    278.44056   -326.78334    37599.264 
  247200     298.7373   -1494.2959    457.06403    306.50117   -572.15584    37599.264 
  247300    293.98276   -1453.6087    494.73719    363.47539   -167.74317    37599.264 
  247400    297.73639   -1490.6576    460.50321    309.07646    -750.3219    37599.264 
  247500     292.7933   -1477.4423     469.2255    308.77989   -524.99928    37599.264 
  247600    312.76456   -1488.5948    462.86996    381.10347      -259.22    37599.264 
  247700     302.4423   -1524.7712    465.53683    301.16387   -429.66843    37599.264 
  247800    290.12038   -1503.4728    486.57595    288.07686   -3.1745221    37599.264 
  247900    304.68131   -1535.7976    468.77353    303.44539   -290.03248    37599.264 
  248000    307.41471   -1528.2431    470.10486    324.62616   -612.07474    37599.264 
  248100    295.34135   -1527.5787    470.85217     271.7314   -459.63072    37599.264 
  248200    304.05586   -1522.8847    465.02244    309.79393   -8.9492167    37599.264 
  248300    309.14489   -1516.1668    471.63434    346.01436    407.48791    37599.264 
  248400    293.40742   -1493.8178    484.66604    310.60724    109.43816    37599.264 
  248500    302.36971   -1502.1905    462.00608    319.88735    90.888266    37599.264 
  248600    284.45897   -1492.2207    495.13228    282.42002   -18.034386    37599.264 
  248700    301.51689   -1482.9095    476.55993    349.88614    381.48003    37599.264 
  248800    289.86051   -1477.3056    487.19874    313.69803    64.824503    37599.264 
  248900    300.20505   -1509.0223    508.92481    350.23759   -302.27796    37599.264 
  249000    309.16677   -1528.3998    480.38334    342.62873     559.9472    37599.264 
  249100    293.66755   -1509.1889    488.77606    300.51625    618.00183    37599.264 
  249200    293.01099   -1504.1868    500.70777     314.4968    102.30576    37599.264 
  249300    297.34292   -1525.9003    478.79782    290.35857    151.96066    37599.264 
  249400    301.15992   -1562.2471    480.46172    272.84468    180.73101    37599.264 
  249500    303.33412    -1563.719    477.26579    277.95649    300.68181    37599.264 
  249600    304.88852   -1521.8517    454.80394    304.35376    180.34377    37599.264 
  249700    302.63371   -1518.2177    482.66472    325.70632    94.075119    37599.264 
  249800     308.7885   -1519.0443    485.03875    354.93818   -53.879341    37599.264 
  249900    296.37271   -1490.8589    465.48846    307.72656   -198.68283    37599.264 
  250000    304.21113   -1504.8551    492.05776    355.55715    77.302601    37599.264 
  250100    300.40521   -1528.7636    457.50138    279.97317    44.278621    37599.264 
  250200    298.02668   -1506.5138    514.08328    348.10614     15.53346    37599.264 
  250300    297.14734   -1488.7396    478.62144    326.46314    109.50944    37599.264 
  250400    290.16735   -1488.5541    478.22921    294.86013    27.481603    37599.264 
  250500    304.41558   -1473.6949    524.00772    419.58703    449.57714    37599.264 
  250600    307.25146    -1507.207    474.03532    348.85844    677.42134    37599.264 
  250700    312.09574   -1557.9554    488.34581    334.21025    38.576825    37599.264 
  250800    296.42005   -1503.9148    462.23116     291.6263    126.56891    37599.264 
  250900    303.24414    -1532.557    507.44236    338.89032     197.4223    37599.264 
  251000     306.5734   -1463.6941     495.5561    410.84214    378.08004    37599.264 
  251100    305.54407   -1518.6649    480.96539    336.65062   -136.41354    37599.264 
  251200    300.98332   -1531.5787    466.18319     288.4402   -343.69793    37599.264 
  251300    301.18728   -1508.0766    499.18147    345.85801    195.74031    37599.264 
  251400    299.42525   -1477.8423    476.74342    345.72861   -248.32991    37599.264 
  251500     296.3757   -1463.9402    506.28309    375.45337   -308.02196    37599.264 
  251600    294.46752   -1500.5872    494.17661    318.11685   -237.31317    37599.264 
  251700    299.61955   -1469.4696    503.68956    381.92137    569.95755    37599.264 
  251800    301.21008   -1469.7241    497.55843    382.68998    -199.9864    37599.264 
  251900    305.23798   -1495.5539    487.53133    364.95081    865.05556    37599.264 
  252000     305.1337   -1505.1951    487.81702    355.12618    1230.9924    37599.264 
  252100    288.81954   -1464.4542    515.02238    349.69073    1044.2876    37599.264 
  252200    291.96903   -1462.5514    506.87813    357.61586    1119.3824    37599.264 
  252300    298.24694    -1480.708    504.49054    365.30989    768.47695    37599.264 
  252400    292.94489   -1479.5366    477.32748    315.46939    425.43314    37599.264 
  252500    305.17572   -1510.7793    494.35714    356.27119    699.89197    37599.264 
  252600    288.23273   -1474.0661    506.88083    329.29769     400.1538    37599.264 
  252700    292.40547     -1496.74    505.02609    323.53832   -297.43115    37599.264 
  252800    302.75301    -1470.825    484.70785    375.67866   -360.33491    37599.264 
  252900    300.61366    -1493.429    483.37561    342.11962   -376.68188    37599.264 
  253000    297.01044   -1501.9315    481.75076    315.78477   -146.18129    37599.264 
  253100    297.89084   -1506.8839    498.50912    331.55087   -218.94753    37599.264 
  253200     292.6689   -1491.8267    499.51121    324.12161   -37.398625    37599.264 
  253300    289.53735   -1508.8143    483.00156    276.53854    179.38071    37599.264 
  253400    300.30358   -1509.2823    490.25336    331.74932    86.882578    37599.264 
  253500    298.89376   -1515.7266    490.51282    319.22298   -100.11272    37599.264 
  253600    303.74041    -1483.273    508.32578       391.29    -591.7873    37599.264 
  253700    300.75055    -1510.905    482.78399    324.66775     88.54406    37599.264 
  253800    297.15532   -1490.3781    509.32184    355.56095    100.08901    37599.264 
  253900    291.24417   -1483.4519    520.88173    347.45845    -147.9978    37599.264 
  254000    299.17279   -1453.6681    475.21086    367.23467   -185.02897    37599.264 
  254100    298.85112   -1503.8949    494.49759    334.84775   -336.97881    37599.264 
  254200    302.81143   -1515.1104    484.50516    331.45344   -234.00894    37599.264 
  254300    303.64255   -1488.0503    492.41579    370.16257    301.03698    37599.264 
  254400    303.33763   -1531.6591    483.00839    315.77485   -304.31492    37599.264 
  254500    294.32375   -1462.7564    489.12658    350.25091   -233.61781    37599.264 
  254600    308.52678   -1505.0901    508.51687    391.19325    -333.2976    37599.264 
  254700    301.83399   -1544.3912    480.16084    293.43177      9.88592    37599.264 
  254800     301.2921   -1535.2482    520.95407    340.93055    223.02766    37599.264 
  254900    306.74419   -1502.6249    512.78711    389.91057    82.943765    37599.264 
  255000    296.81753   -1515.0201    494.92204     314.9998    461.59625    37599.264 
  255100    291.85172    -1501.135    500.73431    312.36078    387.79009    37599.264 
  255200    293.91932   -1515.0025    487.20823    294.26725    651.48232    37599.264 
  255300    306.55936   -1511.0658    497.08168    364.93286    288.66824    37599.264 
  255400    288.31886   -1579.0753    486.60264    204.39774    567.21438    37599.264 
  255500     300.0187   -1559.1879    475.92716    266.23603    583.16387    37599.264 
  255600    298.09226    -1573.339    503.68432    271.17692    703.42242    37599.264 
  255700    308.59657   -1555.9323    480.73463    312.88275    702.04494    37599.264 
  255800    297.49474   -1544.0553    495.77072    289.85935     856.8478    37599.264 
  255900    304.26259   -1574.8242    461.50078    255.26262   -82.101283    37599.264 
  256000    296.74716   -1587.7306     469.6327    216.68345   -37.153691    37599.264 
  256100    296.07017   -1574.0636    470.85866     228.5312    126.74154    37599.264 
  256200    306.61598    -1556.509    471.27411    293.93671    226.80335    37599.264 
  256300    298.35754   -1530.4519    489.78202    301.35499   -285.94579    37599.264 
  256400    298.39381   -1491.0365    477.33904    328.49055   -51.781091    37599.264 
  256500    301.00736    -1526.161    494.15942    321.94225    -163.3066    37599.264 
  256600    297.74225   -1514.5652    467.81593    292.50796   -38.636248    37599.264 
  256700    304.28695   -1567.5263    500.57071    301.73998   -239.98039    37599.264 
  256800    312.59056   -1547.5745    477.19194    335.66305   -432.13426    37599.264 
  256900     292.9289   -1546.4747    502.25745    273.38934   -1081.2584    37599.264 
  257000    304.99813   -1575.2294    476.06584      272.731   -26.181517    37599.264 
  257100    295.55877   -1544.3157    462.13093    247.25113    316.19736    37599.264 
  257200    295.56868   -1537.1883    485.39969    277.69187   -72.016304    37599.264 
  257300    302.60854   -1539.3601    487.84656    309.63251   -486.64255    37599.264 
  257400    291.37223   -1548.8914    461.17345    222.88672   -311.90894    37599.264 
  257500    301.15699   -1537.4863    480.74675    297.87741   -136.24578    37599.264 
  257600    303.43463   -1565.3795    468.17158    267.65388   -376.79336    37599.264 
  257700    299.77676   -1553.7986    494.76652    289.37652   -308.62946    37599.264 
  257800    299.77878    -1530.347    471.20721    289.27787    9.5901136    37599.264 
  257900    303.91549   -1463.3063    496.90773    400.62616   -803.10298    37599.264 
  258000    290.78972   -1504.6978    503.49638    306.78304   -868.37983    37599.264 
  258100    295.17972   -1490.7372    488.63349    325.62719   -509.53468    37599.264 
  258200    294.23762   -1501.8403    474.06443    295.71743    -610.3606    37599.264 
  258300    299.72529    -1501.751     487.0222     333.4482   -164.64064    37599.264 
  258400    302.85613   -1529.7993    490.09181    322.55217   -131.60086    37599.264 
  258500    299.74849   -1504.5223      469.384     313.1431   -45.057999    37599.264 
  258600    299.22793     -1488.48     467.8067    325.26662    -227.1671    37599.264 
  258700    303.13602    -1447.523    491.79385    407.78949    237.22851    37599.264 
  258800    303.10239   -1457.1372    511.63163    417.86181   -382.29904    37599.264 
  258900    308.54351   -1450.0684    474.89072    412.66407   -802.66823    37599.264 
  259000    301.10148   -1503.7716    471.84413     322.4397   -677.66905    37599.264 
  259100    294.42169   -1512.6997    504.12458    315.74611    108.66654    37599.264 
  259200    302.29274   -1480.1006    495.31482    374.93973    101.32168    37599.264 
  259300     292.5558   -1459.7716    481.20867    337.36551   -44.596414    37599.264 
  259400    292.37271   -1491.9254    485.45544    308.63491   -2.6314586    37599.264 
  259500    301.70251   -1467.4603    487.37261    376.98296    49.174476    37599.264 
  259600    296.32751   -1488.0348    478.87876    323.73771   -85.180149    37599.264 
  259700    306.77467   -1517.9166    466.48709    328.45601   -335.71443    37599.264 
  259800    304.50884   -1511.6628    472.85049    330.88129    314.09292    37599.264 
  259900    302.95296   -1509.8725    481.97627    334.79901     289.1195    37599.264 
  260000    300.74488   -1527.7173    470.57554     295.6215   -289.46591    37599.264 
  260100    308.63058   -1485.5093    488.89474    391.61886    102.47408    37599.264 
  260200    300.38819   -1504.6245    496.35522    342.88955    -5.660765    37599.264 
  260300    294.16657   -1499.1712    488.47387    312.47634   -54.338607    37599.264 
  260400     296.0778   -1507.6873    488.95076    313.03389   -22.452787    37599.264 
  260500    290.11829   -1509.9057    478.08114    273.13978   -214.47551    37599.264 
  260600    298.71448    -1516.285    475.73679    303.08218    711.91527    37599.264 
  260700    302.73377   -1493.9928     500.1133    367.82988   -51.898297    37599.264 
  260800    299.00974   -1498.2542    500.07804    346.78238    18.306417    37599.264 
  260900     302.5991   -1498.4123    475.05229    337.74351   -64.020848    37599.264 
  261000    304.20148    -1538.065    507.67729    337.92349   -139.27688    37599.264 
  261100    304.57831   -1493.5108    478.28555    354.78087    -221.8148    37599.264 
  261200    293.32731   -1543.6876     464.1036    239.81472    -200.8398    37599.264 
  261300    303.25051   -1549.3844    493.16793    307.81718    -166.8649    37599.264 
  261400    283.19825   -1509.0765    490.35111    255.11231    281.38972    37599.264 
  261500    296.97888   -1486.2969    483.31685    332.84357    195.04857    37599.264 
  261600    289.49024   -1466.2272    499.84004    335.75216   -56.940438    37599.264 
  261700    295.87541   -1457.3946    443.14654    316.61205    128.45433    37599.264 
  261800    296.78608   -1475.8627    493.64645    352.74008   -103.61606    37599.264 
  261900    294.59386   -1451.5825    473.94486    347.45805   -6.2744528    37599.264 
  262000    296.25473   -1467.9371    476.76071    341.38999    2.4415939    37599.264 
  262100    299.28504   -1473.7647    483.65333    356.08545   -61.134783    37599.264 
  262200    283.76298   -1487.3254     505.6649    294.71744   -532.70598    37599.264 
  262300    292.15424   -1401.4786    477.00276    389.64634   -630.59202    37599.264 
  262400    304.74592   -1435.8657    506.53118    441.42556   -272.07168    37599.264 
  262500    304.53619   -1448.8978     501.4223    422.34117   -740.79856    37599.264 
  262600    285.93975   -1515.3597     490.3339     261.1433   -750.92338    37599.264 
  262700    303.41455   -1547.8374    483.80615    300.74024    -115.8986    37599.264 
  262800    294.27709   -1463.3585    482.20167    342.51397    22.599019    37599.264 
  262900    299.37869   -1497.7433      492.716    341.59071   -572.02268    37599.264 
  263000    307.18853   -1469.2558    483.83111    396.32232   -105.16833    37599.264 
  263100    294.82909   -1427.4015    493.33306    392.08527   -45.174101    37599.264 
  263200    304.69979   -1486.7615    468.85058    352.64167   -99.406982    37599.264 
  263300    294.28612   -1508.2257    464.32317    279.80885    323.66954    37599.264 
  263400    305.04907   -1486.0189    481.84401    367.94874    552.95015    37599.264 
  263500    299.15941   -1515.4672    474.22131    304.38579   -35.431275    37599.264 
  263600    310.21609   -1502.9349     489.6684    382.09861   -100.32961    37599.264 
  263700    300.35254   -1475.7523    457.68818    332.93438    364.23458    37599.264 
  263800    304.59098   -1498.2527    489.82285    361.63326   -199.70141    37599.264 
  263900    314.17863   -1545.1054    491.54039    359.62381    497.57643    37599.264 
  264000    304.45386   -1477.3953    490.41464    382.46568    482.96986    37599.264 
  264100    296.99569   -1456.4197    492.89827    372.37776    531.36468    37599.264 
  264200    300.71215   -1501.1688    498.11796    349.56518    320.38241    37599.264 
  264300    309.20491   -1470.7868     471.5047    391.53468   -30.140403    37599.264 
  264400    290.03929   -1487.9357    478.63831    295.31169   -59.532676    37599.264 
  264500     305.5543   -1460.5017    501.35318    415.24766   -171.64749    37599.264 
  264600    309.84017   -1495.9044    482.98302    380.75282   -48.811368    37599.264 
  264700    306.26453   -1495.5744    493.18277    375.19927    473.24468    37599.264 
  264800     291.7864   -1480.1081    459.08774    291.44723    341.72565    37599.264 
  264900    302.99662   -1497.9092    493.58804    358.57048     299.2881    37599.264 
  265000    290.34263   -1513.4187    503.79927    296.35407    212.04136    37599.264 
  265100    299.66394   -1503.8325    488.73601    332.80457    190.00444    37599.264 
  265200    298.03218   -1498.6016    469.36545    311.32517    140.22223    37599.264 
  265300    300.43702   -1474.1772    511.68019    388.88146    774.81255    37599.264 
  265400    292.59827   -1432.6494     525.6668    409.13681    1370.7088    37599.264 
  265500    294.19269   -1472.2729    505.64656    356.66486    686.90358    37599.264 
  265600    292.74939   -1497.6659     473.9094    293.04269     474.2876    37599.264 
  265700    307.10056   -1495.1839    485.93246    372.09987    803.90144    37599.264 
  265800    298.38672   -1491.5979    466.29481    316.85305    285.39474    37599.264 
  265900     297.3737   -1474.2182    470.03732    333.41859    277.03084    37599.264 
  266000    301.24557   -1452.8942    467.74911    369.87025    -141.2803    37599.264 
  266100     303.8949   -1457.1901    454.42338    364.16541   -737.46535    37599.264 
  266200    305.67438   -1444.8947    480.36863    410.41027   -174.34113    37599.264 
  266300    281.58445   -1395.0713    490.01962    361.52713   -222.22848    37599.264 
  266400    297.62525   -1405.9385    497.67968     430.4722    270.79853    37599.264 
  266500    293.17284   -1408.9216    489.94765    399.72993    180.18992    37599.264 
  266600    304.76374   -1439.4965    489.43409    420.77778    98.483554    37599.264 
  266700    306.30404   -1474.4731    471.39409    374.68955    704.29373    37599.264 
  266800    301.26534   -1467.1992    508.24309    396.14816    349.07416    37599.264 
  266900     306.0524   -1456.3188    488.18232    408.50017    256.44407    37599.264 
  267000    298.78281   -1492.2229    488.68244    340.39721    282.58514    37599.264 
  267100     301.9391   -1482.4711     482.0522    357.71595     86.57357    37599.264 
  267200    303.79753   -1484.1116    482.25237    364.63494    198.14085    37599.264 
  267300    298.43542   -1467.2551    474.79862    349.91873   -322.04741    37599.264 
  267400    297.56413   -1475.1346    498.51604    361.83748     133.8252    37599.264 
  267500     307.9191   -1506.7536    465.63807    343.91768     224.0398    37599.264 
  267600    300.00277     -1484.61    470.58435    335.39954   -45.836668    37599.264 
  267700    303.19219   -1494.9681     502.3898    371.19298   -9.0665574    37599.264 
  267800    293.66959   -1502.1768    484.03114    302.79257    693.68285    37599.264 
  267900    295.68081   -1510.4101    465.90117    285.47589     310.3654    37599.264 
  268000    309.10484   -1492.5468    480.67155    378.49145    263.45608    37599.264 
  268100    294.40804   -1526.5089     484.8463    282.59725   -238.77728    37599.264 
  268200    296.45145   -1493.0209    474.96182    315.39213   -223.20567    37599.264 
  268300     298.6249   -1459.9963    482.64305    365.87416   -451.81718    37599.264 
  268400    309.93168   -1488.7348    499.12694    404.47794   -482.69144    37599.264 
  268500    310.92829   -1520.6173    450.84695    328.79829   -461.96363    37599.264 
  268600    293.50149    -1487.421    467.98102     300.7422    320.23812    37599.264 
  268700    293.86325   -1498.7159     463.1907    286.28418     351.4409    37599.264 
  268800    304.32257   -1514.7078    459.18853    313.33658    505.65602    37599.264 
  268900    299.20559   -1498.2543    483.47479    331.05989    461.20065    37599.264 
  269000    295.91959   -1504.9775    465.33465    291.41606     -351.804    37599.264 
  269100    287.74808    -1417.679    477.47434    354.09837   -149.71221    37599.264 
  269200    295.69246   -1463.9572    488.24921    354.32924   -37.958161    37599.264 
  269300    298.12777   -1515.9999    497.39898    322.39039    345.28449    37599.264 
  269400      293.449   -1496.2227    447.69724    271.42059   -56.272565    37599.264 
  269500    290.58651   -1475.2042    489.81274    321.67899    678.66355    37599.264 
  269600    302.66032   -1490.4955    461.07982    331.96325    558.96976    37599.264 
  269700    304.72949   -1531.4832     476.8764    316.07937    479.76877    37599.264 
  269800    301.74627   -1483.6049    482.95515    356.61781    170.43216    37599.264 
  269900    297.53546   -1451.9717    464.76553    351.12099   -86.639754    37599.264 
  270000    305.27976   -1474.3164    482.08307     380.9279    63.338893    37599.264 
  270100     302.8229   -1457.7845    486.02123    390.34696    348.39295    37599.264 
  270200    301.33914   -1452.4997    493.79877    396.73529    752.83883    37599.264 
  270300    292.34893   -1469.7829    510.71964    355.93463    497.63749    37599.264 
  270400    300.52847   -1423.3971    493.63075    422.02347   -271.43082    37599.264 
  270500    310.59221   -1437.2188    483.34463    443.18271   -270.28004    37599.264 
  270600     297.7389   -1459.6207      482.222    361.84345   -772.70547    37599.264 
  270700    302.06249   -1469.1315    490.07763    379.63603    -141.8672    37599.264 
  270800    305.74285   -1466.5701    473.21665     381.8909   -385.50951    37599.264 
  270900    299.00019   -1495.1818    484.24863    333.98231   -527.32672    37599.264 
  271000    302.54446   -1479.6353     493.1314    374.35394   -420.17027    37599.264 
  271100    300.84638   -1460.4545    486.41396    379.17926   -565.56911    37599.264 
  271200    295.24215   -1503.4009    465.05293    289.66377   -446.52541    37599.264 
  271300    298.20222   -1525.6306    466.61457     282.3102   -62.037189    37599.264 
  271400    312.25052   -1498.7193    499.40783    405.20463   -11.781476    37599.264 
  271500     286.9841   -1570.2021     508.4366    229.10118    6.5972539    37599.264 
  271600    297.78807   -1534.0088    478.10957    283.56412   -319.06658    37599.264 
  271700    305.33767   -1509.4202     501.0178    365.01938    -550.6471    37599.264 
  271800    307.57814   -1510.0791    495.29724    368.71769   -236.87045    37599.264 
  271900    295.94264   -1536.9998    480.65954    274.82232   -167.67531    37599.264 
  272000    301.47576   -1519.5816    518.60059    355.06973   -2.7490371    37599.264 
  272100    300.29837   -1490.6806    474.38673    334.46092   -275.96631    37599.264 
  272200    311.16628   -1494.7793    500.39282    405.25262   -163.91375    37599.264 
  272300    302.24433   -1525.0533    494.49582    328.95029    106.52203    37599.264 
  272400    285.93712   -1516.9634    500.49809    269.69195    257.12893    37599.264 
  272500    296.34628   -1492.2384    497.37184    338.11161   -137.11577    37599.264 
  272600    294.38432   -1478.3882     493.7018    339.46676   -86.248519    37599.264 
  272700    292.69108   -1506.5438    495.65737    305.65044    337.08308    37599.264 
  272800    307.98652   -1487.8378    501.17385    398.67244    659.11827    37599.264 
  272900    301.98664   -1490.6244    514.93259    382.65689   -525.78646    37599.264 
  273000    293.99494    -1489.878    464.00111     296.5248   -11.045532    37599.264 
  273100    310.92489   -1492.7374    530.75565    436.57155    258.57095    37599.264 
  273200    298.70135     -1531.59    479.16554    291.14688   -410.76639    37599.264 
  273300    307.38216   -1534.5514    514.96596    363.03254     -487.167    37599.264 
  273400    302.84103   -1505.5103    499.85399    356.53548    265.37376    37599.264 
  273500    291.62576   -1549.8791      461.376    223.24192   -57.010529    37599.264 
  273600    293.27925   -1491.2863    507.66457    335.56078    363.16863    37599.264 
  273700     293.1155   -1538.8254    508.24366    287.86422   -21.983764    37599.264 
  273800    303.17671   -1563.8137      495.107    294.99494    759.95817    37599.264 
  273900    302.08988   -1523.8192    492.23017    327.22408    643.09611    37599.264 
  274000    300.44069   -1549.5989    484.65312    286.44921    420.14435    37599.264 
  274100     297.9888   -1537.1669    485.22624    288.42557    171.41822    37599.264 
  274200    302.20671   -1550.1693    467.19457    276.36392   -215.60705    37599.264 
  274300    294.51521   -1521.5694    499.65496    302.82743   -709.57043    37599.264 
  274400    305.00453   -1544.7784    479.99443     307.1393   -483.74406    37599.264 
  274500     306.8316   -1514.9827     467.0937    332.25255   -390.60939    37599.264 
  274600    302.17462   -1546.4195    470.87439    283.64913    30.912567    37599.264 
  274700     301.8712   -1528.3406    474.59462    304.08346   -115.44798    37599.264 
  274800     299.1801   -1541.7136    510.73261    314.74372   -73.713346    37599.264 
  274900    304.68569   -1511.8295    482.44414    341.10383    -1005.114    37599.264 
  275000    310.12484   -1500.9105    496.54856    390.59278   -469.35127    37599.264 
  275100    292.37458   -1519.4976    488.87639    284.49204     153.2524    37599.264 
  275200    303.87751   -1532.4785    499.48374    333.85917    270.72028    37599.264 
  275300    293.61583    -1551.899    533.50149    302.29894    169.36203    37599.264 
  275400    291.31233   -1496.2295    478.24262    292.34834   -3.3988294    37599.264 
  275500    301.13206   -1487.4169    480.49084    347.57868    302.88555    37599.264 
  275600    299.27419   -1526.6081    503.19991    322.73984    356.39509    37599.264 
  275700    300.07574   -1508.4036    478.99191    320.34172    415.90655    37599.264 
  275800    308.25536   -1499.5628    480.74163    367.72447    197.21942    37599.264 
  275900    293.45193   -1493.7377    494.90301    321.12457    -331.4915    37599.264 
  276000    300.48423   -1481.7394    494.75038    364.60171   -659.67529    37599.264 
  276100    307.01266   -1484.8724    511.19959    407.28315   -653.67475    37599.264 
  276200    298.66745   -1519.1744    479.27956    303.52397   -447.04439    37599.264 
  276300    304.18139   -1491.0348     484.8218    362.00775   -489.11565    37599.264 
  276400    293.15982   -1550.1601    498.88339    267.36859    213.24769    37599.264 
  276500    298.09475   -1578.1685    482.44603    245.12035    201.78553    37599.264 
  276600    289.53512   -1516.6468    506.62758      292.322    204.14543    37599.264 
  276700    302.37699   -1525.2276    481.35243    316.22934   -24.619896    37599.264 
  276800    297.66769   -1513.5585    489.15042    314.51378   -189.62231    37599.264 
  276900    307.42249    -1538.689    479.90556    324.01591    106.31007    37599.264 
  277000     304.6995   -1538.1133    504.02696    336.46494    41.562086    37599.264 
  277100    292.25467   -1529.4512    477.41725    262.53994   -137.17071    37599.264 
  277200    291.33886     -1557.82    456.49547    209.13006   -29.981709    37599.264 
  277300    305.81534   -1544.8966    476.45055     307.1243   -653.19237    37599.264 
  277400    304.74532   -1536.8391    470.87418    304.79242   -900.60338    37599.264 
  277500    298.51801   -1484.3513    481.22319    339.61853   -506.34871    37599.264 
  277600    297.53774   -1465.5446    494.32713    367.11993   -481.12264    37599.264 
  277700    295.65917   -1505.5154    472.58992    296.96203   -328.01419    37599.264 
  277800    300.07662   -1511.6818     477.8171    315.89263   -29.274247    37599.264 
  277900    293.62357   -1541.2125    498.70554    278.22426    50.259944    37599.264 
  278000    303.44216    -1549.846    464.78897    279.83869     107.6076    37599.264 
  278100    303.31169   -1508.7502    501.69463    357.25326   -253.46773    37599.264 
  278200    297.20919   -1479.8302    469.28776    326.31704   -476.84475    37599.264 
  278300    298.48927   -1488.8364    487.43804    341.21908   -988.39751    37599.264 
  278400    306.33886   -1484.1352    504.09931    397.88926   -580.54524    37599.264 
  278500    298.28092   -1493.0532    496.78105    345.40804   -403.89614    37599.264 
  278600    304.37911   -1488.6127    493.41982    373.91724    43.781857    37599.264 
  278700    306.46085    -1491.989    482.18926    368.67416     108.0077    37599.264 
  278800     304.6206   -1467.9947    480.80656    383.00824   -483.73083    37599.264 
  278900     303.0217   -1465.6574    493.77518     391.1222   -284.50452    37599.264 
  279000    298.60734    -1531.432    491.06028    302.77674   -408.86319    37599.264 
  279100    304.26463   -1489.6016    478.19997    357.19354    -95.42436    37599.264 
  279200    300.05854   -1499.5799    476.16824    326.26441    38.850782    37599.264 
  279300    305.14783   -1485.4562    521.00336    408.11499   -690.83664    37599.264 
  279400    301.96367   -1495.4544    502.23969     365.0307   -326.76468    37599.264 
  279500    300.12945   -1469.7434    456.39241    336.64396   -218.46368    37599.264 
  279600    296.85983   -1491.6541    490.62714    334.26119   -297.99205    37599.264 
  279700    304.78183   -1513.3183    472.26888    329.87215     -82.3617    37599.264 
  279800    295.52829   -1499.0505    497.69496    327.94326    389.26197    37599.264 
  279900    304.77456   -1527.1445    482.39376    326.13817   -498.29475    37599.264 
  280000    311.42142   -1530.6987    450.20353    320.29156    -208.1003    37599.264 
  280100    286.13889   -1513.4159    464.92264    238.57161   -244.11043    37599.264 
  280200    289.92146    -1492.504    486.10277    297.67772   -18.069539    37599.264 
  280300    294.91818    -1497.627    488.00341    316.93085    127.55374    37599.264 
  280400    304.08491   -1516.2112    491.26284    342.83842    1202.2748    37599.264 
  280500      296.159   -1524.5348    505.57773    313.17864    917.79843    37599.264 
  280600    304.65785   -1537.6359    469.89703    302.62509    973.56862    37599.264 
  280700    296.74101    -1511.398    481.74142    305.09699    833.45979    37599.264 
  280800    295.82906   -1493.1236    508.74559    346.27364    384.33722    37599.264 
  280900    308.10227   -1495.8307    464.68212     354.7085   -7.2673421    37599.264 
  281000    306.67924    -1457.033    476.98613    399.40935   -191.05149    37599.264 
  281100    306.57479     -1440.85    487.33984    425.47617   -552.49006    37599.264 
  281200    301.68788   -1490.0817    488.97389    355.89705    187.65942    37599.264 
  281300    306.84228   -1525.6266    461.29259    315.85558     97.49015    37599.264 
  281400    300.14993   -1542.5006     476.6551    284.24155    87.686848    37599.264 
  281500     305.5446   -1494.9019    504.55553    384.00619     523.1002    37599.264 
  281600    308.12847   -1481.8062    491.35149    395.52017    997.72218    37599.264 
  281700    296.91766   -1468.2227    493.96079    361.28633     1185.602    37599.264 
  281800    294.30399   -1459.2332    513.52038    378.07898    772.58558    37599.264 
  281900    301.55356   -1451.9806    480.81181    385.23185    794.14089    37599.264 
  282000    297.49631   -1449.9836    474.46432    362.63172    144.23103    37599.264 
  282100    300.00591   -1450.0269    506.37904    405.79142    567.55845    37599.264 
  282200    300.30373   -1479.4764    493.08419    364.38674    426.48594    37599.264 
  282300    299.23463   -1469.6415    480.87252    357.20111    445.96585    37599.264 
  282400    293.68589   -1465.4956    494.77847    350.29446    416.84611    37599.264 
  282500    307.55767   -1457.4861    498.44855    424.36984    417.14397    37599.264 
  282600    299.93613   -1464.3744    469.98192    354.73292    320.84122    37599.264 
  282700    292.99203   -1472.4553    491.71734     337.1526    -270.0407    37599.264 
  282800    311.28765   -1440.2988    490.68442    450.57064    27.317601    37599.264 
  282900    294.34344   -1467.0665    483.55898    340.46172    219.30246    37599.264 
  283000    302.06315   -1504.9223    477.90907    331.67962    293.72356    37599.264 
  283100    306.00711   -1428.4153    490.65184    438.66952    31.346343    37599.264 
  283200    297.48203   -1490.2334     471.0233    318.87665   -321.22357    37599.264 
  283300    302.15801   -1492.3599    503.04006    369.79968   -332.11557    37599.264 
  283400     303.0256    -1526.783    476.05238     312.2914   -426.67319    37599.264 
  283500    289.43477   -1489.1909    480.69573    293.39465   -492.34119    37599.264 
  283600    290.46928   -1464.1271    485.22759     327.6436   -481.97897    37599.264 
  283700    301.03371   -1516.8931     508.7629    345.93223   -289.48517    37599.264 
  283800     292.4903    -1532.196    447.87686    231.31463   -180.69152    37599.264 
  283900    302.99295    -1532.704    463.22117    293.39231   -458.64118    37599.264 
  284000    302.39086    -1506.008    467.83456    321.99341   -209.57875    37599.264 
  284100    299.17141   -1469.4273    475.39254    351.65095   -353.80746    37599.264 
  284200    305.75504    -1503.167    472.12009    344.25221    448.99042    37599.264 
  284300    298.63568   -1497.8681    482.31309    327.72094    462.05085    37599.264 
  284400    293.23485    -1462.316    500.33545     357.0022    19.473977    37599.264 
  284500    318.48084   -1507.7023    481.44594    406.28389    69.045274    37599.264 
  284600    296.40447    -1427.464    484.10156    389.87747    220.05542    37599.264 
  284700    301.81503   -1444.7161    484.31536     397.1761    568.87226    37599.264 
  284800    295.48774   -1498.1001    480.05878      311.075    301.11897    37599.264 
  284900    296.24099   -1445.9973    495.60765    382.11483    763.11518    37599.264 
  285000    304.34287    -1477.439    481.52122    373.02936    714.48032    37599.264 
  285100    294.40742   -1469.4433    473.93796     328.7517   -145.17779    37599.264 
  285200    288.82783   -1509.0619     481.6462    271.74408    24.163816    37599.264 
  285300    289.58556   -1503.2214    485.07199     284.4187    37.165245    37599.264 
  285400    290.46603   -1542.8671    445.02152    208.68287   -111.66178    37599.264 
  285500    300.72888   -1518.5258    494.03188     328.1973   -134.30289    37599.264 
  285600    291.33442   -1473.7559     457.2081    293.88677    338.69388    37599.264 
  285700    299.08529    -1499.956    489.96636    335.30873     297.9738    37599.264 
  285800    303.76982   -1487.7915    494.47496    373.05296    241.61626    37599.264 
  285900    293.13129   -1519.1256    485.96652    285.35793    321.06286    37599.264 
  286000    300.14077   -1477.9943    471.03965    343.09123   -47.387272    37599.264 
  286100    295.31624   -1471.4247    475.54627     332.4665    239.21822    37599.264 
  286200    289.96464   -1484.5861    480.51672    300.20385    390.44677    37599.264 
  286300    309.43034    -1484.019    469.54596    377.35772      431.183    37599.264 
  286400    290.81177   -1538.4645    450.81954     220.4387     455.3654    37599.264 
  286500    301.98171   -1536.5473    473.74297     295.5222      202.861    37599.264 
  286600    306.54677   -1513.3557    454.03409    319.53876   -152.14517    37599.264 
  286700    300.93878   -1510.2166    473.92592    317.34472    502.40275    37599.264 
  286800    301.37163   -1518.2831    471.43421    308.73348    745.22752    37599.264 
  286900    301.37425   -1547.2556    481.38413     289.7227    284.40769    37599.264 
  287000    308.70177    -1497.672    463.38445    354.26612     337.3922    37599.264 
  287100    314.25442   -1538.8724    459.25343    333.91077    41.886182    37599.264 
  287200    296.77473   -1492.9687    489.65061    331.58722    269.11097    37599.264 
  287300    284.89819    -1523.449    445.23112    203.26621    5.7439963    37599.264 
  287400    304.66075   -1496.6576    506.39429    380.11363   -54.941593    37599.264 
  287500    298.21155   -1505.6044    472.86577    308.62951    206.02337    37599.264 
  287600    294.01093   -1507.7715    481.62848    296.33061    172.23826    37599.264 
  287700    299.96191    -1504.191    489.23558    334.28599     379.4106    37599.264 
  287800    301.12072   -1514.5279    467.96951    307.89535    202.83166    37599.264 
  287900     292.4328   -1478.1187    467.92394    305.18039   -285.03135    37599.264 
  288000    296.01653   -1481.7472    465.62888    315.37657    376.59932    37599.264 
  288100    304.35987    -1450.668    508.10867    426.46421    470.24111    37599.264 
  288200    304.43622   -1483.3848    472.43108    358.41329     641.5234    37599.264 
  288300    312.11529   -1476.4491    497.65727    425.11595    417.38905    37599.264 
  288400    304.24739   -1514.6891    465.47734    319.30589    305.82758    37599.264 
  288500    311.78762   -1497.5726    465.20091    370.06218    154.33377    37599.264 
  288600    305.87313   -1507.6087    489.87653    358.09817    321.36543    37599.264 
  288700    313.90325   -1495.0896    452.48082    369.34132    213.33404    37599.264 
  288800    288.42199    -1516.885    452.01604    232.46538   -360.01037    37599.264 
  288900    304.46378   -1487.9726    485.86521    367.38357   -396.23695    37599.264 
  289000    310.21081   -1472.3514    473.14498    396.13495   -490.33151    37599.264 
  289100    314.60091   -1488.6397    480.94645    407.39499   -701.06753    37599.264 
  289200    293.78011   -1460.7577    459.33262    320.01027   -725.45622    37599.264 
  289300    300.00081   -1511.2673    468.69431     306.8434   -368.66497    37599.264 
  289400    305.31144   -1480.4319    488.43753    381.30946   -164.25118    37599.264 
  289500      302.916   -1510.9282    459.20535     310.8062    480.92503    37599.264 
  289600    298.47949    -1526.608    477.85227    293.81768   -355.00483    37599.264 
  289700    292.59064    -1506.947    446.25149    255.38957   -275.69376    37599.264 
  289800    294.55717   -1511.6474    473.35769    286.64091   -820.79434    37599.264 
  289900    293.98856   -1478.5337    455.16712    299.00641    -232.9438    37599.264 
  290000    302.12167    -1506.592    469.87971    322.24382   -333.53532    37599.264 
  290100    302.24078   -1464.3664    484.83156    379.95699   -421.90496    37599.264 
  290200    299.42419   -1515.5999    480.55879    311.78157   -116.35498    37599.264 
  290300    298.51256   -1490.6116    473.25131     325.3619     217.6288    37599.264 
  290400    301.21479   -1484.3139    465.09432    335.65735    238.24916    37599.264 
  290500    295.20394   -1492.2711    459.04942    294.61814    230.92595    37599.264 
  290600    295.10967   -1534.1641    482.51341    275.76515     658.2851    37599.264 
  290700    290.04484   -1452.4974    452.84018    304.97674    327.86166    37599.264 
  290800    302.47358   -1490.0663    502.99961    373.47226    73.000994    37599.264 
  290900    296.57005   -1506.4955    459.46099     286.9501    374.99673    37599.264 
  291000    289.05887   -1510.4807    468.44754    258.16584    1058.0199    37599.264 
  291100    299.26453   -1485.7238    491.21351    351.59426    689.13704    37599.264 
  291200    314.47591   -1478.0608    482.15414    418.61928    730.18832    37599.264 
  291300    296.95644    -1483.106    473.22805    325.84469    778.31414    37599.264 
  291400    300.98666   -1460.3922    501.97516     395.4337    683.97725    37599.264 
  291500    291.83212   -1493.4751    466.75667    285.95479    473.64132    37599.264 
  291600    307.02694   -1469.9813    468.70592    379.74478    781.56509    37599.264 
  291700     302.2197    -1475.274    491.85877    375.98174    18.462075    37599.264 
  291800     304.5965   -1453.6433    471.38656    387.83127    437.44889    37599.264 
  291900    297.80353   -1487.5985    464.69731    316.63176    331.33124    37599.264 
  292000    303.04515    -1452.392    486.17916    396.89704    434.03835    37599.264 
  292100    295.05458   -1457.5547    460.06874     329.6821    607.55231    37599.264 
  292200    300.22423    -1493.981    493.77241    350.21277    380.71015    37599.264 
  292300    299.40694   -1491.3549    491.12951     346.5197    169.37377    37599.264 
  292400    298.39296   -1455.9702    495.66904    381.88295   -310.37945    37599.264 
  292500    297.24669   -1496.5571     472.8697    313.34087     366.1785    37599.264 
  292600     301.4463   -1428.7329    470.05754    397.24289   -183.60199    37599.264 
  292700    299.72124   -1422.4451    491.25975    416.97347   -412.03577    37599.264 
  292800    301.67062   -1475.1252    482.86977    364.67175    -568.2304    37599.264 
  292900    298.75498   -1462.9374    520.71004    401.58519   -304.50247    37599.264 
  293000    295.36985   -1446.3723    468.48412    350.69794   -420.62383    37599.264 
  293100    298.23926   -1438.1649    486.31062    389.63854   -287.99647    37599.264 
  293200    307.86879   -1448.4998      477.574    413.88107    384.13818    37599.264 
  293300    312.67471    -1461.645    484.26311     429.0422    375.94607    37599.264 
  293400     297.7324   -1414.9012    529.87473    454.18652    38.971865    37599.264 
  293500    295.01263   -1446.7998    495.84166     376.0212   -80.513801    37599.264 
  293600    296.33756   -1412.3412    502.44179    423.03946    652.07357    37599.264 
  293700    307.08066   -1458.4986    514.91998    437.68321    429.44725    37599.264 
  293800    306.70299   -1457.7169    483.97422    405.82038    845.43154    37599.264 
  293900    307.38539   -1447.9875    474.27856    408.92354     676.3218    37599.264 
  294000    295.29714   -1461.2079    480.27013    347.32134   -239.37915    37599.264 
  294100     297.7727   -1490.2312    484.86675    334.02981   -300.33029    37599.264 
  294200    308.08738   -1456.2526    479.26177    408.79921    314.39127    37599.264 
  294300    300.40633   -1489.0777    464.07174    326.23445    267.94592    37599.264 
  294400    294.40623   -1464.0065    461.45854    321.70378    489.34814    37599.264 
  294500    292.78622     -1473.79    511.61392    354.78876    315.40594    37599.264 
  294600    296.58903   -1461.2573    497.36727    370.17997    825.35353    37599.264 
  294700    295.77457   -1477.1078    475.13048    328.42921     657.2179    37599.264 
  294800    308.51571   -1463.6885     486.7527     410.7809    166.43787    37599.264 
  294900    300.89725   -1473.5701    494.75815    374.63658    150.96454    37599.264 
  295000    305.63193   -1461.4271    493.39819     406.7165   -2.8393008    37599.264 
  295100    295.93644   -1438.7533    477.96774    370.34907     308.1482    37599.264 
  295200     299.9921   -1460.2314    476.64781     365.7936    187.37802    37599.264 
  295300     302.4031   -1462.8658    477.74229    375.09841    -51.52393    37599.264 
  295400    300.71295   -1470.3801    471.87531    354.11484   -195.59539    37599.264 
  295500    303.47376   -1475.4796     475.9865    365.54471   -158.42481    37599.264 
  295600    303.33913   -1486.1857    481.89826    360.14478   -37.153981    37599.264 
  295700    300.32439   -1495.3477    463.84956    319.37368    191.94867    37599.264 
  295800    296.16344   -1476.7636    488.64751    344.03956    768.97239    37599.264 
  295900    309.93457   -1503.7568    500.95622    391.29827    705.69778    37599.264 
  296000    313.21551   -1521.2296    472.07645    359.70346    57.766712    37599.264 
  296100    297.25188   -1448.0601    475.97537    364.96683    541.93521    37599.264 
  296200    303.88698    -1434.948    497.95323    429.90175     287.7515    37599.264 
  296300    288.75023   -1439.1042    496.98089     356.6875    329.91604    37599.264 
  296400    295.83327    -1450.547    474.08267    354.20625    151.33195    37599.264 
  296500    295.18571   -1435.8707    485.12769    377.01478   -564.41691    37599.264 
  296600    296.64866   -1460.7503    445.68437     319.2723   -192.13565    37599.264 
  296700    299.94071   -1438.6705    488.70524    399.18075   -413.44352    37599.264 
  296800    297.32732   -1463.9786    480.63888    354.05109   -283.01166    37599.264 
  296900     300.6039   -1471.7797    481.08127    361.43069   -253.21411    37599.264 
  297000    301.17922   -1497.8201    458.47664    315.37349   -558.32471    37599.264 
  297100    296.65523   -1455.3985    477.98165    356.95096   -352.15031    37599.264 
  297200    307.41546   -1477.4187    466.91006    372.25909   -56.247941    37599.264 
  297300    290.00136   -1482.9756    490.19581    311.65862    321.78496    37599.264 
  297400    302.81432   -1520.8385    479.82297    321.05613    699.34542    37599.264 
  297500    301.12237   -1511.5671     466.4531    309.34718    692.01241    37599.264 
  297600    301.19564   -1459.5881    487.91362    383.11628    379.14854    37599.264 
  297700    296.92016    -1483.404    490.40726    342.56273   -67.124756    37599.264 
  297800    302.79619   -1503.7828    491.20583    349.41313    379.34578    37599.264 
  297900     299.3304   -1502.4419    456.99886     300.9578    233.59574    37599.264 
  298000    295.22105   -1496.9841    473.16762    304.10026    648.98383    37599.264 
  298100    298.60978   -1502.0713    466.01006    307.09824    150.64351    37599.264 
  298200    305.37844   -1513.9091    473.59251    333.28854   -284.46399    37599.264 
  298300    296.46594   -1483.0858    457.52009    307.95061    -439.1487    37599.264 
  298400    310.24859   -1488.9498    475.30399    381.86543   -428.77394    37599.264 
  298500    310.54228   -1517.1482    448.91556    328.59976   -757.17953    37599.264 
  298600    292.55092   -1504.0305    493.24066    305.11656   -52.466325    37599.264 
  298700    304.01136   -1460.0665    492.80654    400.19604    513.68479    37599.264 
  298800    293.88675   -1469.4961    471.85758     324.2765    298.74156    37599.264 
  298900     290.3984   -1471.0263    488.69231    323.89029    494.92518    37599.264 
  299000    306.83645   -1459.5165     482.9448     403.5917    95.520015    37599.264 
  299100    300.07899   -1488.8663    475.28829    336.18995    -26.97131    37599.264 
  299200    310.97798   -1511.6161    469.75079    356.92681   -698.67015    37599.264 
  299300    305.45593    -1511.061    426.88569    289.77846   -931.26166    37599.264 
  299400    300.78967   -1506.3953    453.64359      300.213   -562.02628    37599.264 
  299500    315.83058    -1515.862      476.469     381.2263   -211.65369    37599.264 
  299600    301.58934   -1519.0439     487.0503    324.56804    5.4395832    37599.264 
  299700    299.73968   -1526.3178    466.29077    288.21476   -184.28705    37599.264 
  299800    311.08461   -1481.2629    488.13419    406.14299    484.49293    37599.264 
  299900    304.75141   -1520.3824    484.73829    335.14062    103.68344    37599.264 
  300000    290.54824   -1502.1689    467.36048    272.08986   -344.39402    37599.264 
  300100    295.03268   -1504.8775    450.83846    273.03046   -409.03098    37599.264 
  300200    296.91077   -1524.2175    453.31383    264.61359   -338.40307    37599.264 
  300300    305.01533   -1505.9837    491.00315    356.99134   -553.66675    37599.264 
  300400    299.02301   -1489.6211    477.00603    332.40312   -295.35517    37599.264 
  300500    304.65631   -1495.7033     506.2925    380.94618   -86.715582    37599.264 
  300600    302.92867   -1513.0014    463.33165    312.91627   -358.38586    37599.264 
  300700    294.93781    -1482.109    472.23864    316.77242   -523.95317    37599.264 
  300800    293.80549   -1492.4423    497.57679    326.68398    164.09038    37599.264 
  300900     295.8606   -1513.4789    469.53725    286.85192    11.848833    37599.264 
  301000    306.12702   -1493.8675    483.12114    366.22588      375.505    37599.264 
  301100    302.60658   -1472.8681    502.21277    390.48195    582.83978    37599.264 
  301200    310.43596    -1469.422    469.00934    395.94143    151.14277    37599.264 
  301300    296.01161   -1444.1132    474.85913     362.2187    -136.7673    37599.264 
  301400    293.27804   -1455.4587    482.55642    346.27474   -141.81587    37599.264 
  301500    302.20569   -1442.8215    499.16373    415.67617    95.303855    37599.264 
  301600    304.75734   -1481.8352    478.31241     367.2886    368.30329    37599.264 
  301700    295.81853   -1452.1185    482.56625    361.05208   -104.84922    37599.264 
  301800    312.49706   -1455.0917    470.92451    421.45784   -380.00878    37599.264 
  301900    297.00023   -1448.7539    480.97869     368.1444   -17.403164    37599.264 
  302000    293.48645   -1510.5648    474.97191    284.52158   -152.67707    37599.264 
  302100    309.89962   -1485.6015    507.12607    415.46618   -641.00706    37599.264 
  302200    300.50468   -1467.6716    486.23573    370.24689   -576.95774    37599.264 
  302300    295.73993   -1519.8265    474.47479    284.89903   -500.63803    37599.264 
  302400    305.30581   -1490.9659    471.28125    353.59385   -661.39665    37599.264 
  302500     293.6701   -1523.1649    467.15822    264.93388   -133.94001    37599.264 
  302600    293.88172   -1504.7381    477.89995    295.05429   -56.401262    37599.264 
  302700    301.16971   -1537.2611    466.15721    283.57025    117.71479    37599.264 
  302800    300.52052   -1497.3506    489.59131    343.99474   -237.79874    37599.264 
  302900    299.75252   -1483.7004      479.848    344.44716   -412.30413    37599.264 
  303000    296.70046   -1482.8119    468.75065    320.50997   -341.56239    37599.264 
  303100    304.03219   -1488.2922    509.69094    388.94837   -241.51332    37599.264 
  303200    295.56205   -1491.0005    515.29686    353.74698   -726.05896    37599.264 
  303300    292.89799   -1469.4958    486.07816    334.04992   -445.53565    37599.264 
  303400    306.53891   -1486.6157    502.15434    394.36363   -484.49529    37599.264 
  303500       290.42   -1472.4993     473.9777    307.79986   -548.58718    37599.264 
  303600    305.59902    -1509.864      487.059    351.79238   -500.05444    37599.264 
  303700       303.89   -1484.5961    483.64226    365.95627   -665.44548    37599.264 
  303800    301.17727   -1483.7597    482.95845    353.90692   -345.84846    37599.264 
  303900    291.27965   -1447.1147    507.24372    370.31718   -378.82417    37599.264 
  304000    299.26435   -1499.2831    472.28575    319.10639   -396.74975    37599.264 
  304100    297.73186   -1507.5176    493.68452    325.37747   -202.77645    37599.264 
  304200    301.85996   -1522.6469    479.33953    314.47151    339.93748    37599.264 
  304300     296.0112   -1540.6925    491.51947    282.29783   -596.24054    37599.264 
  304400    302.02108   -1479.4658    475.10189    354.13971   -701.46829    37599.264 
  304500    300.03898   -1508.2055    470.26882    311.65134   -487.76663    37599.264 
  304600     299.4864    -1472.396     505.2261    379.93261   -637.57569    37599.264 
  304700    295.90995   -1493.6479    459.04301    296.41062    82.568625    37599.264 
  304800    299.94861   -1471.6334    510.25972    387.80787    18.264427    37599.264 
  304900    300.59952   -1489.8199     459.8636    322.15303    1.5738393    37599.264 
  305000    300.56167   -1529.8441    525.62959    347.72456    -63.71041    37599.264 
  305100    299.44098   -1580.4286    466.92732    233.39693    154.70599    37599.264 
  305200    298.16123   -1567.8738    460.19105    233.45914   -80.680699    37599.264 
  305300    292.25446   -1526.5395    472.14381    260.17727   -623.15713    37599.264 
  305400     300.6043   -1502.4698    478.27224    327.93329   -284.00892    37599.264 
  305500    307.30243   -1466.3681    481.15396     397.0452    60.753758    37599.264 
  305600    302.02216    -1506.924    469.86156    321.44607   -12.925616    37599.264 
  305700    294.89726   -1502.1612    505.77014    330.06926    365.30787    37599.264 
  305800     288.5911   -1511.2778    489.16795    275.98516    507.78588    37599.264 
  305900    300.64834   -1543.1142    484.20794     293.4227    350.75548    37599.264 
  306000    307.73531   -1592.3602    468.33032    260.17664    173.18228    37599.264 
  306100     303.6417   -1539.7397    471.12739    297.18091   -23.485311    37599.264 
  306200    298.79538   -1524.1564     461.5005    281.33841   -272.76708    37599.264 
  306300    294.91941   -1508.9643    479.95415    297.54986   -476.19132    37599.264 
  306400    307.99896   -1531.9162    491.02029    344.49649   -82.027037    37599.264 
  306500    301.29142   -1558.9981    476.53656    272.76001   -2.6583188    37599.264 
  306600    303.87403   -1526.0331    478.52714    319.33226   -353.93186    37599.264 
  306700    297.69931   -1515.9205    457.47321     280.6168    365.65188    37599.264 
  306800    306.71099   -1497.8911    495.10946    376.81739   -114.09529    37599.264 
  306900    296.44609   -1526.9491    489.76667    296.24471    48.278632    37599.264 
  307000    299.07073   -1505.6946    475.96223    315.50047   -264.85117    37599.264 
  307100    315.18731   -1510.2249    487.25168    394.75267   -88.389335    37599.264 
  307200    295.50643   -1508.2054    491.28876    312.28377   -727.00501    37599.264 
  307300    295.66675   -1525.5516    490.17591    294.54586   -289.59722    37599.264 
  307400    309.87627   -1506.6465    468.43832    355.62841   -251.29596    37599.264 
  307500    300.88375   -1530.7906    460.19877    282.79601   -417.64044    37599.264 
  307600    300.15989   -1557.9057    493.78432     286.0105    577.04279    37599.264 
  307700    304.15953   -1563.8599    454.55801    258.82058     663.1987    37599.264 
  307800    294.74569   -1592.8349    444.34989    177.29353    773.70445    37599.264 
  307900     306.0915   -1568.7908    499.60456    307.62629    634.68475    37599.264 
  308000    303.35883   -1573.5298    460.77718    251.76828    383.22075    37599.264 
  308100    309.33204    -1553.677    483.77465    321.48624    49.203666    37599.264 
  308200    306.24331   -1522.9816     500.3864    354.90025     187.6174    37599.264 
  308300    291.12137   -1547.5562    470.47254    232.39263   -562.80079    37599.264 
  308400    296.34682   -1582.1521    458.97931    209.80772    -470.3846    37599.264 
  308500    296.91601   -1536.8304    456.32702    255.03744   -658.20852    37599.264 
  308600    292.42521   -1527.6163    475.91096     263.6356   -422.93542    37599.264 
  308700    308.78003   -1581.2978    487.78753    295.39539   -197.48429    37599.264 
  308800     292.9977   -1561.2263    459.14709    215.83685   -407.63492    37599.264 
  308900    292.37714   -1564.9235    484.16158     234.3629   -284.98046    37599.264 
  309000    289.29258   -1498.0733    478.45242    281.62938   -432.34862    37599.264 
  309100     298.7361   -1505.1348    477.28712    315.87992    119.01137    37599.264 
  309200    286.99051   -1562.4903    481.75505    210.16028   0.94007898    37599.264 
  309300    295.79615   -1558.6427    484.58364    256.44451    137.10167    37599.264 
  309400    292.67821   -1551.3019     477.1312    242.30826    443.62898    37599.264 
  309500    292.66599   -1526.6998    461.18091    250.90513    467.89772    37599.264 
  309600    298.86425   -1511.2398    472.65576    305.72003    173.19787    37599.264 
  309700    307.35753   -1551.7961    459.19164    289.90275   -172.35695    37599.264 
  309800     295.6374   -1565.1872    450.16241    214.76474      15.3084    37599.264 
  309900    294.72302   -1549.9444    481.15295    256.88519    -222.9194    37599.264 
  310000    303.94988   -1550.5018    452.00743    268.68507   -149.26681    37599.264 
  310100    300.06036   -1560.5531    468.03551    257.16666   -69.739028    37599.264 
  310200    305.02936   -1556.0082    464.35968    280.38645    455.46717    37599.264 
  310300    302.08255   -1548.2154    461.03939    271.60415    996.75554    37599.264 
  310400    303.87142   -1610.9281    452.90232    208.80074    624.43452    37599.264 
  310500    308.83777   -1539.6449    474.42294    323.94337    1391.8721    37599.264 
  310600    293.50533   -1519.7248    501.51392    301.98849    245.19677    37599.264 
  310700    311.13971   -1544.7605    481.79498    336.55403    402.42001    37599.264 
  310800    315.23595    -1499.852    486.04912     404.1418    354.12887    37599.264 
  310900    293.51107   -1523.6161    472.32389    268.93303    -217.6735    37599.264 
  311000     295.2868   -1510.4334    467.76873    285.54788     521.2481    37599.264 
  311100    290.02788    -1500.221    484.19504    288.53168   -280.17389    37599.264 
  311200    300.49848    -1507.635      486.224    330.24391    386.86288    37599.264 
  311300    295.44569   -1488.7373    499.53962    339.72952    551.67737    37599.264 
  311400    295.63508   -1506.8217    484.78587    307.74326    1164.5174    37599.264 
  311500    307.09807   -1552.7425    480.98068    309.57825    1197.6496    37599.264 
  311600    292.46375   -1505.1432    486.70767    297.07882    650.39627    37599.264 
  311700    303.15275   -1501.3552    473.41652    335.65522    604.88102    37599.264 
  311800    308.84987   -1511.8205    464.26868    341.66798    77.077601    37599.264 
  311900    296.56391   -1520.8913    489.72713    302.79281    82.115384    37599.264 
  312000    291.75558   -1500.9519    493.43331    304.81035    239.49746    37599.264 
  312100    303.36565   -1556.5685    463.66286    271.64594   -218.22619    37599.264 
  312200    310.69862   -1525.3891    467.66956    339.81604    98.950515    37599.264 
  312300    301.38681   -1473.5762    499.93442     382.0089   -162.91578    37599.264 
  312400    288.22785   -1470.1667    497.39189    323.68622    52.011816    37599.264 
  312500    295.31598   -1474.4637    465.80363    319.68368    57.494179    37599.264 
  312600    301.64535   -1440.8991     519.1022    435.01668    -537.8028    37599.264 
  312700     306.2648   -1452.9912    465.04665    389.64745    23.606375    37599.264 
  312800    299.47376   -1481.3999    469.61483    335.26059   -193.95242    37599.264 
  312900    303.56071   -1507.0329    461.89076    320.28679    54.812139    37599.264 
  313000     303.1459   -1503.4816    456.80966    316.89114    252.37869    37599.264 
  313100    291.30594   -1517.4131    486.40711    279.30044   -13.356746    37599.264 
  313200    309.24065   -1500.1553    473.57552    364.39776   -98.009659    37599.264 
  313300    298.93013   -1457.9472    482.30913    368.96229   -224.15137    37599.264 
  313400    295.51122    -1455.561    489.79609    363.45709   -172.55038    37599.264 
  313500    295.93891   -1461.3382    476.51335    346.32092   -525.68205    37599.264 
  313600    295.20341   -1470.6802    462.53139    319.68866    556.81192    37599.264 
  313700    290.89162   -1460.3234    500.13154    348.25095    464.30876    37599.264 
  313800    283.20589   -1467.4465    494.99177    301.41739    381.10491    37599.264 
  313900    293.53953   -1472.0202    484.33684    332.66987    374.82763    37599.264 
  314000    299.39372   -1452.5351    475.74566    369.89623   -127.65965    37599.264 
  314100    305.42899   -1472.2844    465.85944    367.40757    221.20253    37599.264 
  314200    297.65384   -1483.6945    485.26639    340.43151   -195.43596    37599.264 
  314300    314.58282   -1482.4378    471.12662    403.69569    60.946282    37599.264 
  314400    293.55122   -1506.6675    449.21108    262.94946    -387.1024    37599.264 
  314500    292.58632   -1430.2733    476.67436     362.4667   -582.56432    37599.264 
  314600    293.05178   -1438.9903    491.18601    370.35499   -156.88256    37599.264 
  314700    297.09339   -1464.0105    456.30378    328.63197    27.400949    37599.264 
  314800    307.32252   -1465.9608    479.52838    395.91735   -1.9362496    37599.264 
  314900    304.47578    -1436.072    485.27767    418.75061     648.5648    37599.264 
  315000    305.16454   -1475.0716    466.52568    364.09716     588.5622    37599.264 
  315100    295.74308   -1466.4263    483.60284    347.44149    468.56084    37599.264 
  315200    313.20697   -1503.4832    462.87223    368.20726   -316.89918    37599.264 
  315300    294.53786   -1502.9679    463.59663    285.47248   -570.34529    37599.264 
  315400    302.14451   -1492.2057    471.38046    338.23358    -421.4884    37599.264 
  315500    302.38882   -1501.6956    477.77476    336.23689   -373.10804    37599.264 
  315600    302.21242   -1490.6639    481.96366    350.66404    -74.88081    37599.264 
  315700    298.09932   -1510.1368    461.35098    292.07759   -273.01809    37599.264 
  315800    298.63216   -1513.6512    479.75405    309.36293    -371.4299    37599.264 
  315900    294.65211   -1496.8491     467.8148    296.32338   -832.64509    37599.264 
  316000    288.72295   -1526.6108    464.43594    236.51318   -169.76246    37599.264 
  316100    303.33149   -1497.5853    461.73341    328.54595   -64.809787    37599.264 
  316200    285.74751   -1502.0622    455.10113    238.34336   -384.85597    37599.264 
  316300    305.02494   -1527.9239    465.37366     309.4649   -163.05773    37599.264 
  316400    309.52309   -1530.7556    467.88071    329.37314   -90.214851    37599.264 
  316500    310.09074   -1458.8617    461.95609    397.89568     8.334925    37599.264 
  316600     306.1007   -1523.3652    454.97623    308.46492   -33.521414    37599.264 
  316700     299.6604   -1490.2065     468.3405     326.0192    -33.44555    37599.264 
  316800    305.32716   -1521.5346    484.16981    336.00968    180.28648    37599.264 
  316900    309.20847   -1542.8837    439.72459    287.67369   -121.22369    37599.264 
  317000     298.4268   -1472.1068    476.65242    346.88203    145.84586    37599.264 
  317100    307.20621   -1500.4883    482.40286    363.74114   -225.51127    37599.264 
  317200    298.39533   -1488.3941    498.55365    352.35435   -87.922604    37599.264 
  317300    299.61866   -1483.5561    483.02671    347.16808   -168.40681    37599.264 
  317400    297.93385    -1555.906    456.22028    240.43331   -617.86021    37599.264 
  317500    306.64088   -1491.7529     491.4665    378.99728   -793.46072    37599.264 
  317600    297.88024   -1466.4861    471.07132    344.46317   -385.80675    37599.264 
  317700    289.23576   -1504.1051    466.82729    263.71684    344.79665    37599.264 
  317800    303.04714   -1504.1212    506.25351    365.25115    508.07019    37599.264 
  317900    304.35881   -1526.8335    484.43783    326.62313    471.28187    37599.264 
  318000    298.08944   -1490.2479    469.20203    319.77304    436.04505    37599.264 
  318100     310.3326    -1496.326    458.77971    358.34289    167.74703    37599.264 
  318200    303.08922    -1475.696    474.61171    362.22386    825.80938    37599.264 
  318300    308.54812   -1483.2312    476.93552    381.56683   -129.81176    37599.264 
  318400    287.92188   -1508.1573    503.49996    290.42744   -194.77308    37599.264 
  318500    306.23287   -1456.9265     495.2507    415.77259   -290.92472    37599.264 
  318600    295.29401   -1483.0715    478.68995    323.86337   -643.32042    37599.264 
  318700    296.83455   -1472.1095    470.25439    333.31929   -801.38011    37599.264 
  318800     291.2145   -1537.3956    469.87849    242.37801   -769.01649    37599.264 
  318900    296.71874   -1471.9757    480.03652    342.71425     -933.841    37599.264 
  319000    294.43173   -1487.9332    468.53691    304.97008   -676.85021    37599.264 
  319100    297.84876   -1486.8916     488.7146     341.5593   -145.02257    37599.264 
  319200    315.46829   -1500.2915     467.9349    386.63312    152.22331    37599.264 
  319300    299.91072   -1529.6553    475.64675     295.0026    85.787598    37599.264 
  319400    308.68643   -1525.9186    469.82937    332.39541   -44.889109    37599.264 
  319500     301.7787   -1491.4691    479.06816    345.01248   -182.27813    37599.264 
  319600    290.53274   -1525.6061    488.53562    269.75811    175.17946    37599.264 
  319700    307.66086   -1533.5593    455.64944    305.96173    19.417092    37599.264 
  319800    297.50825   -1528.4932    461.85043    271.56193     158.0249    37599.264 
  319900    291.67192   -1514.9638    468.87775    265.86659    200.58744    37599.264 
  320000    294.34742    -1493.384    490.37288    320.97603    319.10066    37599.264 
  320100    305.59945   -1521.5914    476.09421    329.10205   -293.12216    37599.264 
  320200    292.86836   -1497.1202    510.01345    330.22758    35.724327    37599.264 
  320300    299.31891   -1501.1014    472.57956    317.82724    221.85518    37599.264 
  320400    302.89651    -1505.647    476.17968    332.97402    121.76158    37599.264 
  320500    306.64559   -1500.2004     490.0287    369.13318   -395.53897    37599.264 
  320600    299.35374   -1526.4813    491.26508    311.28957   -830.77364    37599.264 
  320700    297.86044   -1517.5692    487.24803    309.46771   -760.42026    37599.264 
  320800    304.64305   -1542.1621    487.41633    315.55158   -48.143243    37599.264 
  320900    296.80819    -1546.815    469.45027    257.69109    99.698838    37599.264 
  321000     293.9835   -1503.7439    481.55246    300.15876    302.87603    37599.264 
  321100    307.54004    -1531.852    496.07655    347.55266   -278.63945    37599.264 
  321200    304.40103   -1522.8446     466.8783    313.24246   -93.948331    37599.264 
  321300    297.93304   -1539.9535    472.86888    273.03087   -385.04383    37599.264 
  321400    301.60598   -1503.3591    486.13178    339.40918   -9.6483702    37599.264 
  321500    293.66457    -1537.678    482.05812    265.29576    77.272862    37599.264 
  321600    297.43548   -1549.9459    475.65749    263.58903    65.224022    37599.264 
  321700      300.661   -1545.1163    487.04109    294.31073    40.335276    37599.264 
  321800    305.57074   -1510.5154    490.07694    354.03169    457.69885    37599.264 
  321900    297.31131   -1476.8333    489.50104    349.98663   -395.24994    37599.264 
  322000     311.3557   -1515.5901    470.60438    355.50541    -22.13195    37599.264 
  322100    298.33985   -1489.3425    490.70114    343.30393    268.25897    37599.264 
  322200    285.62082   -1527.9795    464.25404    221.00912   -259.12522    37599.264 
  322300     307.4892   -1495.4511    502.91016    390.55848     322.6844    37599.264 
  322400    304.17456   -1459.1183    478.38124    387.45299   -7.7157284    37599.264 
  322500     298.7615   -1443.9553    496.87649     396.7631   -450.02983    37599.264 
  322600    296.83677   -1468.9224    495.10987    361.37179   -435.15919    37599.264 
  322700    296.10813   -1498.6358    485.34568    318.61676   -268.67195    37599.264 
  322800     291.9261   -1442.6192     481.9208    352.39754   -741.56803    37599.264 
  322900    310.51419   -1465.7058    489.34628    420.34646   -679.64784    37599.264 
  323000    306.71652   -1493.1073    468.52181    355.03844    104.40965    37599.264 
  323100    295.22174   -1492.1339    471.52669    307.31269   -70.084755    37599.264 
  323200    301.83679   -1527.0628    478.40602    309.01789    274.05321    37599.264 
  323300     294.5162   -1515.3416    478.43308    287.83788    401.41573    37599.264 
  323400     312.2264   -1473.8912     513.1459    443.66222     379.0281    37599.264 
  323500     298.8829    -1457.327    504.87866    391.93965    86.900478    37599.264 
  323600    292.37297   -1492.9346    469.91317    292.08454    248.05965    37599.264 
  323700    300.00036   -1479.5854    468.84949    338.67841    71.734244    37599.264 
  323800    303.18537   -1547.6286    474.81595    290.92799    318.87939    37599.264 
  323900    301.48861    -1503.785    479.82914    332.15263    249.11473    37599.264 
  324000    297.31412   -1496.1196    474.28499     315.4969    162.32804    37599.264 
  324100    306.50243   -1508.4927    488.05666    358.22484     389.2313    37599.264 
  324200    307.81362   -1518.9047    483.93339    349.58733    868.65586    37599.264 
  324300    287.45611   -1521.3705    495.27131    266.89057    556.00431    37599.264 
  324400    295.65902    -1517.803    505.23673    317.32048    508.57319    37599.264 
  324500    295.73368   -1511.7218    488.28349    306.78427    451.81453    37599.264 
  324600    305.38994   -1498.7469    508.21873    383.12878    184.04848    37599.264 
  324700    292.87608   -1511.9113    477.45004    282.90777   -99.880046    37599.264 
  324800    305.34039   -1490.4206    505.26276    388.27618    117.36201    37599.264 
  324900    295.96256   -1493.3667    509.54159    347.42705    158.64289    37599.264 
  325000    291.10783   -1522.0044    486.47178    273.88272     38.84689    37599.264 
  325100    298.87751   -1531.5427    449.75243    262.57346    353.52036    37599.264 
  325200    297.32257   -1491.7947    481.98593    327.56077    30.519409    37599.264 
  325300    304.96442   -1496.3878    471.89771    347.25281    -147.7639    37599.264 
  325400     295.7978   -1474.7378    484.73992    340.51311   -290.00726    37599.264 
  325500    297.98405   -1484.0609    495.99784    352.28181   -244.22283    37599.264 
  325600    293.72504   -1471.3908    489.70669    339.50354   -175.19435    37599.264 
  325700    298.25108   -1506.7091    490.44841    325.28528    -231.0433    37599.264 
  325800    301.95721    -1473.801    478.99761    363.41295   -524.70547    37599.264 
  325900    303.34752    -1462.988    490.36487    391.84687   -409.24614    37599.264 
  326000    304.12868    -1484.669    455.13024    338.44487   -402.36736    37599.264 
  326100     299.3997   -1453.2804    479.25618    372.68831   -648.24159    37599.264 
  326200    297.84749   -1434.0977    496.16708        401.8   -345.65197    37599.264 
  326300    296.63787   -1462.1049    476.36471    348.54951   -518.25559    37599.264 
  326400    295.35442   -1488.2667    492.66603    332.91602   -239.37833    37599.264 
  326500    296.22261    -1464.127    480.00781    348.30263   -477.37764    37599.264 
  326600    299.35136   -1407.1337    518.59836    457.95978   -474.92196    37599.264 
  326700    299.51259   -1443.2183    483.51598    387.51802    -658.7575    37599.264 
  326800    284.40159   -1428.1837    481.18388    332.25054   -198.43314    37599.264 
  326900    291.68503   -1427.8152    477.24936     361.4458   -497.20902    37599.264 
  327000    311.79055   -1444.1884    478.18435    436.44309   -671.30479    37599.264 
  327100    294.10775   -1460.7186    474.32062    336.51117    -866.6072    37599.264 
  327200    303.61358   -1450.4473     477.5334    392.75285   -587.73498    37599.264 
  327300     294.8088   -1494.0473    496.15567    328.17085    207.35405    37599.264 
  327400    302.13346   -1510.4431    481.55796    330.12398   -221.03684    37599.264 
  327500    300.16156   -1461.7311    467.37986    355.78814    -182.9989    37599.264 
  327600    309.22499   -1460.1461    470.50618    401.26716   -201.38159    37599.264 
  327700    301.18183   -1504.6261     491.0269    341.12944   -70.912248    37599.264 
  327800    299.60314   -1456.0756    481.01052    372.56252   -610.62007    37599.264 
  327900     295.8816    -1428.255    513.24962    415.88256   -349.78605    37599.264 
  328000    308.32205   -1481.1367    479.00251    384.71147   -341.23994    37599.264 
  328100    302.83799   -1477.2621     462.7868    347.70276   -438.65743    37599.264 
  328200    303.36973    -1457.992    463.02814    369.60601   -465.57074    37599.264 
  328300    300.63532   -1492.2683    487.33583    347.33791   -291.40145    37599.264 
  328400    308.89635    -1480.389     477.6632    386.70306   -223.44504    37599.264 
  328500    308.35969   -1431.8748    472.29962    427.43979    229.34123    37599.264 
  328600    291.96257   -1469.0586    498.52694    342.72836   -195.75585    37599.264 
  328700    303.84498    -1474.314    478.06237    370.45594   -94.758109    37599.264 
  328800    300.69266   -1471.7976     495.4617    376.19236   -134.44466    37599.264 
  328900     295.2183   -1458.7918    483.66603    352.77866   -498.80593    37599.264 
  329000    310.62467   -1473.8678    475.20003    398.53515   -283.97323    37599.264 
  329100    302.75183   -1462.7412     464.3835    363.43287   -49.439655    37599.264 
  329200    308.38495   -1487.0483     457.1464    357.22668   -474.59306    37599.264 
  329300    294.82326   -1491.7254    493.49014    327.89232   -85.550204    37599.264 
  329400    298.07799    -1488.267    446.32565    298.82608   -57.329001    37599.264 
  329500    303.12647   -1510.0442    474.18265    327.61413    -173.3544    37599.264 
  329600    294.63177   -1513.7758    494.36806    305.85838   -108.40568    37599.264 
  329700    308.40851   -1541.0819    500.36257    346.51516    1106.8988    37599.264 
  329800    290.60545   -1506.4288    462.83369    263.56052    738.23974    37599.264 
  329900    297.33625   -1540.5091    464.85604    261.77802    534.57496    37599.264 
  330000    297.63675   -1551.7957    478.46563    265.45259    168.96188    37599.264 
  330100    301.46101   -1517.1463    470.86489    309.70303    -755.1897    37599.264 
  330200    307.95025   -1537.8423    487.83727    335.16824   -80.493694    37599.264 
  330300    296.46319   -1533.0204    448.52121    249.00482   -129.50169    37599.264 
  330400    303.09525   -1531.2731    454.32523    286.38739   -673.21025    37599.264 
  330500    298.20547   -1512.6945    474.24452    302.89088    444.09801    37599.264 
  330600    293.38164   -1536.7772    482.14023    265.00608   -511.42804    37599.264 
  330700    313.25175   -1558.3018    490.59048    341.30826    -362.0823    37599.264 
  330800    295.78938   -1527.4514    467.65007    270.67178   -999.61193    37599.264 
  330900    303.97959   -1493.0525    477.28326    351.54383   -191.03626    37599.264 
  331000    289.10063   -1487.3895    499.87831    312.87574   -236.88372    37599.264 
  331100    299.32828   -1543.7996    459.56096    262.15265     10.47089    37599.264 
  331200    303.55542   -1535.9102    475.49948    304.99442    156.73923    37599.264 
  331300    291.99051   -1525.8353    488.71822     276.2686   -68.542527    37599.264 
  331400    301.45196   -1511.3202     490.6433    335.26674   -178.42966    37599.264 
  331500    292.29637   -1545.2388    460.72046    230.24314   -106.57688    37599.264 
  331600    305.23758    -1528.059    482.97989    327.89252    113.67134    37599.264 
  331700    290.89767   -1474.7496    464.38583    298.10634    83.034612    37599.264 
  331800    313.12839   -1499.0086    481.19194    390.64813   -459.95938    37599.264 
  331900    304.35355   -1500.0479     475.9277    344.87492    23.457117    37599.264 
  332000    301.74087   -1499.4737    481.28164    339.05117    1.9652366    37599.264 
  332100    304.31185   -1504.1029     494.0725    358.77718      25.3771    37599.264 
  332200    302.46478    -1505.263    462.34554    317.58192     434.8217    37599.264 
  332300    294.67516   -1548.2364    483.52403    260.74898    567.13855    37599.264 
  332400    303.68407   -1484.9986    479.48898    360.47414    645.58195    37599.264 
  332500    304.07527   -1520.6918    500.24973     347.3014    207.02351    37599.264 
  332600    300.12687   -1506.7822    487.01396    330.21514   -78.686126    37599.264 
  332700    293.56993   -1525.0103    482.74685    278.22655    43.751663    37599.264 
  332800    295.71898   -1498.3615    477.79985    309.59488    92.870133    37599.264 
  332900    300.14587   -1481.8337    499.26591    367.50102    488.56971    37599.264 
  333000     300.8834    -1505.657    468.99975    316.72903    33.008204    37599.264 
  333100    309.25524   -1532.6205    458.31909    316.74175    527.16396    37599.264 
  333200    302.65286   -1482.8996    488.17401    366.61981    544.88188    37599.264 
  333300    298.44944   -1442.1078    516.53511     416.8655    540.10983    37599.264 
  333400    290.41524   -1454.2938    501.09439    353.10062    635.25352    37599.264 
  333500    298.87508   -1483.7223     475.6612    336.29163    184.22149    37599.264 
  333600    298.97049   -1464.3244     484.9575    365.41505    174.76099    37599.264 
  333700    293.22032   -1472.6651    467.33855    313.59084   -600.14054    37599.264 
  333800    302.87761   -1526.8727    468.42628    303.90994   -490.05466    37599.264 
  333900    299.03569   -1456.5272    488.66583    377.21379    107.78792    37599.264 
  334000    294.86721   -1511.7603    446.43494    260.99984   -627.35563    37599.264 
  334100    308.45288   -1485.5782    486.75809      388.614      -380.04    37599.264 
  334200    294.50708   -1511.7437    469.72745    282.68911    213.29495    37599.264 
  334300    303.48068   -1506.5965    481.51095    339.98342    134.43432    37599.264 
  334400    302.81987   -1520.8751    477.87803    319.09956   -140.32636    37599.264 
  334500    291.18783   -1531.4816     483.5681     261.8617    -154.9904    37599.264 
  334600    299.67245   -1478.5952    472.21937    341.56351   -203.08665    37599.264 
  334700    291.41057   -1484.2432    455.94413    282.47797    -467.6818    37599.264 
  334800    307.64638   -1481.7892    493.54915    395.56641   -404.13559    37599.264 
  334900    300.24028   -1458.9445    471.35098        362.9   -24.447895    37599.264 
  335000    309.41398   -1456.8468    484.67167    419.58207   -125.09258    37599.264 
  335100    297.90572   -1469.7211    495.81604     366.0875   -216.07396    37599.264 
  335200    296.84709   -1506.2678     470.9571    299.92007   -437.37066    37599.264 
  335300    308.57473   -1473.9398    492.08786    406.13026   -394.19041    37599.264 
  335400     306.2786   -1469.6964    492.66548    400.62324    34.587862    37599.264 
  335500    296.67941    -1481.269    467.26773    320.47526     32.00345    37599.264 
  335600    300.38191   -1483.5678    495.47057    363.03335    271.40504    37599.264 
  335700    302.44121   -1477.1442    475.65385    358.90306    359.89938    37599.264 
  335800    296.20192   -1458.3415     478.9398    352.92708    357.05574    37599.264 
  335900    304.92639   -1496.7985    485.86137    360.63473   -147.14788    37599.264 
  336000    289.79333    -1483.688    505.57258    325.38724    39.389564    37599.264 
  336100    288.22428    -1467.379    477.70607    306.77207    62.297006    37599.264 
  336200    306.00602   -1431.1945    501.91665    447.15016   -438.98339    37599.264 
  336300    310.48873   -1456.7436    489.14986    428.99777    86.605942    37599.264 
  336400    297.75286   -1425.3671    474.63717    388.57505   -349.15716    37599.264 
  336500    302.15399   -1445.2267     492.2237    406.09843   -218.53292    37599.264 
  336600    306.22345   -1459.0638    492.31905    410.66129   -252.61497    37599.264 
  336700    300.39006   -1473.4743    491.49401    369.18695   -309.60396    37599.264 
  336800    300.42105   -1496.2378    503.47958    358.54835   -15.176593    37599.264 
  336900    287.24189   -1506.2095    489.39207    275.20877   -141.31794    37599.264 
  337000    297.35188   -1513.1889    463.73765    288.05009    -113.3616    37599.264 
  337100    293.84033   -1457.2396    523.48784    387.95449   -465.84878    37599.264 
  337200    304.96514   -1470.0204    505.06495    406.79067   -466.34289    37599.264 
  337300    304.28966   -1505.3562    474.82896     338.1805   -164.68084    37599.264 
  337400    294.98286   -1501.1128    478.10649    303.83913    -325.3364    37599.264 
  337500    300.01887   -1481.2441    497.99229    366.24576    32.663004    37599.264 
  337600    311.40126   -1469.3443    474.01674    405.36848    287.40196    37599.264 
  337700    296.88369   -1446.0749    497.42999    386.75051   -378.92132    37599.264 
  337800    310.63321   -1496.2088     494.6994    395.73197    137.00558    37599.264 
  337900    309.12593   -1480.5336    492.40117    402.32909    66.402784    37599.264 
  338000    299.47897   -1453.1656     492.8763    386.77978   -44.397996    37599.264 
  338100    303.24263   -1477.5266    491.50474    377.97637   -244.67958    37599.264 
  338200    302.38175   -1453.7123    463.49441    369.90805     -35.5416    37599.264 
  338300    291.56372   -1511.2221    480.44374    280.68758    97.176763    37599.264 
  338400    301.23825    -1500.023    477.64796    332.60739    396.42968    37599.264 
  338500     315.2449   -1487.3104    479.78921    410.46369    62.110034    37599.264 
  338600     293.2595   -1456.3898    491.77178    354.47566    561.14759    37599.264 
  338700    266.90558   -1503.9158    481.15499    177.79183    148.47083    37599.264 
  338800    299.03121   -1513.9936    501.10268    332.16416   -87.827741    37599.264 
  338900    299.28533   -1453.6002    472.12448     364.7224   -312.31825    37599.264 
  339000    294.05026   -1494.6302    485.24462    313.26499    28.975656    37599.264 
  339100     297.7801   -1501.0876    448.06085    286.40074    -491.8603    37599.264 
  339200    305.73651   -1480.9222    470.43229     364.7259   -88.515608    37599.264 
  339300    301.37208   -1541.2608    466.40943    280.73297    291.05445    37599.264 
  339400    302.82825   -1499.2662    501.10201    363.97007    282.84795    37599.264 
  339500    292.34538   -1511.3576    491.45056    295.07488    394.28342    37599.264 
  339600    307.80344   -1513.4387    496.20761     367.2818   -103.30566    37599.264 
  339700    295.08733   -1533.4766    445.20132       239.04    34.549114    37599.264 
  339800    293.48407   -1451.1346    488.56849    357.53765    220.41565    37599.264 
  339900    302.05578   -1471.0017    482.16916     369.8272    859.74138    37599.264 
  340000    303.56763   -1521.5605    462.84057    306.74012    467.15376    37599.264 
  340100    302.31596   -1492.9558     467.8879    334.76212    475.68426    37599.264 
  340200    295.96817   -1525.4262    457.01681    262.86796   0.99012325    37599.264 
  340300    303.16906   -1484.5383    477.78705      356.916    250.36813    37599.264 
  340400    306.54312   -1504.5071    496.11856    370.45537    742.04416    37599.264 
  340500    299.92791   -1462.2741     467.4304    354.24478    592.17497    37599.264 
  340600    300.81642   -1449.2826    474.91856    378.72099    110.60451    37599.264 
  340700    301.48381   -1467.1216     510.9519    399.91724    21.837855    37599.264 
  340800    296.81089   -1465.6123    488.87305    358.32875   -77.639089    37599.264 
  340900    293.57684   -1495.5993    514.13705    339.05876   -468.08919    37599.264 
  341000    300.62295   -1514.5095    490.85555    328.56078   -301.70928    37599.264 
  341100    291.89864   -1467.8428     494.7669    339.89658   -8.4641363    37599.264 
  341200    304.59719   -1470.0761    465.84225    365.85722    100.20618    37599.264 
  341300    310.10487   -1484.8578    491.28833    401.29536    194.95322    37599.264 
  341400    291.34763    -1480.004     481.6167    312.10668    262.60305    37599.264 
  341500    312.87978   -1512.4288    470.66808    365.58577     284.5754    37599.264 
  341600    309.45964   -1507.2893     465.9617    350.63497     627.4112    37599.264 
  341700    307.80334   -1475.7994    509.42121    418.13424    167.40301    37599.264 
  341800    298.16075   -1469.0189    475.87798    347.99874    363.62053    37599.264 
  341900      294.248   -1514.3791    474.45502    283.61588    127.54308    37599.264 
  342000    298.67278   -1523.5045    487.19608    307.13442   -104.78504    37599.264 
  342100    295.42733   -1529.7854    492.56129    291.62054    10.987769    37599.264 
  342200    290.82358   -1495.1512     482.2065    295.19213     369.3033    37599.264 
  342300    306.99317   -1492.2927    493.78838    382.36393    -533.5164    37599.264 
  342400    287.24771   -1500.4989    480.36058     271.9141    544.95651    37599.264 
  342500     303.2501   -1540.1615    477.04969    300.92001    263.30632    37599.264 
  342600    285.52227   -1548.8697    478.02861    213.45015    206.95186    37599.264 
  342700     292.0481   -1526.2126    474.84947    262.28155    243.75232    37599.264 
  342800    296.81746   -1482.8336     497.9514     350.2153    281.37133    37599.264 
  342900    303.57617   -1471.9688    474.10634    367.63603   -59.813663    37599.264 
  343000    301.15638   -1489.4688     469.5123    334.65761    263.62177    37599.264 
  343100    301.40506   -1491.2948    478.31002    342.74797    499.88759    37599.264 
  343200    290.84551   -1499.2773    492.44265    301.40074   -153.63726    37599.264 
  343300    295.41368     -1485.73    478.91764    321.97088    43.266219    37599.264 
  343400    289.72818   -1498.2772    477.67916    282.61156   -741.97711    37599.264 
  343500    306.35094   -1510.7014    457.94028    325.21835   -500.77994    37599.264 
  343600    305.87728    -1495.345    480.36555    360.86954    -535.5602    37599.264 
  343700    301.55575    -1500.377    480.23347    336.26697   -699.61063    37599.264 
  343800    307.49102   -1506.8133    470.57173    346.86601   -876.24082    37599.264 
  343900    297.98539   -1502.2356    491.20425    329.31955   -486.26208    37599.264 
  344000    300.32761   -1542.3059    465.43941     274.0198   -522.95134    37599.264 
  344100    301.13296   -1530.7043    500.11031    323.91487    343.06928    37599.264 
  344200    308.93143   -1532.5996    446.04899    303.03601   -350.63337    37599.264 
  344300    302.09174   -1467.8493    480.59667    371.56883    114.41014    37599.264 
  344400    296.21842    -1481.429    459.99909    310.97308   -131.83142    37599.264 
  344500    297.92627   -1494.1125    481.03642    327.00893   -557.01637    37599.264 
  344600    290.08886   -1457.4849    472.37504     319.7221   -239.19893    37599.264 
  344700    301.28621   -1444.5577    506.45161      417.092   -698.09181    37599.264 
  344800    304.00549   -1466.6944    467.26553    368.00066   -443.41754    37599.264 
  344900    300.92234   -1457.2214    488.33579    384.67579   -28.932323    37599.264 
  345000    294.31876   -1457.0695    503.91801    370.70673    299.65411    37599.264 
  345100    288.50486   -1493.4348    451.69958     255.9719    413.01035    37599.264 
  345200    306.80795   -1486.8208    493.98311     387.1975     207.1277    37599.264 
  345300    302.04457   -1519.1401    450.64222    290.11135   -282.60568    37599.264 
  345400    295.79379   -1471.4453    480.10711     339.1548   -520.58332    37599.264 
  345500    312.10113    -1463.528    474.97715    415.29329   -611.61871    37599.264 
  345600    307.73182   -1493.2102    470.94823    361.92878   -757.72605    37599.264 
  345700     293.4848   -1505.1067    456.82671    271.82707   -361.62292    37599.264 
  345800    307.44132    -1476.836    484.82416    390.87224    -1042.153    37599.264 
  345900    294.91771   -1485.9327    458.94786     299.5675   -528.06244    37599.264 
  346000     302.3983   -1474.0211    502.17284    388.35214   -19.014519    37599.264 
  346100     285.7786   -1485.9554    480.96267    280.45149     143.3926    37599.264 
  346200    301.03346    -1515.103    470.06835    309.02667    203.98102    37599.264 
  346300    307.98492    -1495.125     462.5376    352.74187    1088.4904    37599.264 
  346400    293.74573   -1461.1776    498.80403    358.90712    350.89806    37599.264 
  346500    319.17586   -1500.1211     491.0319     426.5773     1146.153    37599.264 
  346600    291.97027   -1506.8921    480.25926    286.66179    703.76705    37599.264 
  346700    297.67103   -1494.8083    495.36844      339.497    961.44378    37599.264 
  346800    302.09971    -1459.977    477.02652    375.90677    660.33755    37599.264 
  346900    299.77264   -1468.4157    470.44047    350.41485    356.06019    37599.264 
  347000    297.69012   -1530.2432    450.26454     259.0441    442.00907    37599.264 
  347100    300.33065   -1461.5065    469.69265    359.08616    804.23687    37599.264 
  347200    299.26908   -1475.6097    476.86073    347.37604    628.60718    37599.264 
  347300    293.03592   -1482.5972    488.82157    324.31236    280.91115    37599.264 
  347400    293.95974   -1451.5401    478.81685    349.52011    133.65885    37599.264 
  347500    308.32161    -1486.328    456.58208    357.09773    126.89441    37599.264 
  347600    297.35605   -1470.0524    489.92284    357.39059    515.50137    37599.264 
  347700    294.80023   -1478.6948    487.23069     334.5598    93.710559    37599.264 
  347800    307.93871   -1500.0993    488.85683    373.87896   -25.889624    37599.264 
  347900    293.77499   -1496.8619    462.94508    287.49551   -275.79466    37599.264 
  348000    297.32362   -1531.2101    457.66061    263.82478    299.85806    37599.264 
  348100    298.43609    -1504.169    472.08258    310.29173    468.26641    37599.264 
  348200    300.48204   -1523.5872    489.27221    317.26595    262.00689    37599.264 
  348300     302.2645   -1523.7545    483.02888    318.87287    909.60758    37599.264 
  348400    303.30877   -1558.8813    457.62093    263.03529    607.14757    37599.264 
  348500    303.53588   -1572.7059    468.97289    261.58422    958.08143    37599.264 
  348600    295.89452   -1556.0876    475.03088    249.88939   -175.31167    37599.264 
  348700    301.08503   -1505.9608    454.43642    302.76887    -448.1301    37599.264 
  348800    305.13611    -1518.161    464.15848    318.51269   -104.90108    37599.264 
  348900    300.94819   -1499.2694    457.26197    311.67033   -1099.4239    37599.264 
  349000    307.10812   -1507.3436    466.51006    340.55186     -573.771    37599.264 
  349100    302.17758    -1493.268    473.95765    339.89715    -181.6306    37599.264 
  349200     306.4301   -1453.7783    482.19587    406.75313   -624.87214    37599.264 
  349300    304.45911   -1499.8437    467.93916    337.56547   -627.97298    37599.264 
  349400    298.75578    -1473.911    463.86748    333.77262    -32.64261    37599.264 
  349500      294.123   -1525.0636    485.64948    283.56356    381.06889    37599.264 
  349600    297.95602   -1469.3797     497.5543    368.39336    167.35167    37599.264 
  349700    305.33109   -1459.4995    470.49809    384.39071    238.36341    37599.264 
  349800    301.24325   -1438.3093    485.93628    402.63183    646.93928    37599.264 
  349900    292.26112   -1469.4661    505.30334    350.44011    160.84292    37599.264 
  350000    296.14884   -1471.2533    474.45474    335.29149     439.5393    37599.264 
  350100    286.27844    -1498.008    465.67915    255.36366    610.71469    37599.264 
  350200    300.11699   -1512.8224    466.37724     303.4938   -14.111763    37599.264 
  350300    307.63706   -1460.2836    468.46313    391.94401     730.9154    37599.264 
  350400    307.42454    -1478.527    473.94353    378.22512    720.20137    37599.264 
  350500    306.06241   -1488.9434    483.36226    371.10058    574.42664    37599.264 
  350600    297.96769   -1536.1373    479.42404    283.55807    496.45798    37599.264 
  350700    298.46836   -1545.3464    486.71008    283.88697    431.47358    37599.264 
  350800    301.41108   -1523.6032     454.8823    287.03888   -192.29378    37599.264 
  350900    300.64708     -1499.14    448.37271    301.55602   -323.32533    37599.264 
  351000    298.45027   -1491.9587    493.36461    343.84788    -348.1128    37599.264 
  351100    299.29308   -1478.1264    481.56312    349.66964   -179.06309    37599.264 
  351200     304.0337   -1500.9344     464.9702    331.59223   -55.722046    37599.264 
  351300    297.35138   -1477.6915    462.26791    322.07545    379.88186    37599.264 
  351400    286.67491   -1475.7409    482.76286    296.49778    45.897232    37599.264 
  351500    301.59777   -1483.3021    455.97608    329.27349   -145.33424    37599.264 
  351600    301.74583   -1480.1584     448.1674    325.27452    349.25407    37599.264 
  351700    301.40714   -1481.0129    473.76602    348.49521   -273.62856    37599.264 
  351800    299.49551   -1518.5583    449.97477    278.55999   -612.09607    37599.264 
  351900    294.31842   -1522.9387      466.534    267.45207   -542.94569    37599.264 
  352000    297.95275   -1520.6199    478.25876    297.84298    18.024343    37599.264 
  352100     298.8628   -1512.6172    470.97707    302.65737   -100.51451    37599.264 
  352200    300.19262   -1511.3524     460.1128    299.03953   -478.26674    37599.264 
  352300    300.82887   -1476.6057    481.67067    358.20592    425.74426    37599.264 
  352400    298.86168   -1466.7154    470.56868    348.14583   -351.31293    37599.264 
  352500    298.15801   -1495.8103    448.81285    294.12992   -485.04864    37599.264 
  352600    300.00347   -1486.6644    450.25058    313.01445   -80.499078    37599.264 
  352700    303.64128   -1482.8894     485.8674     368.7693   -185.10119    37599.264 
  352800    298.47432   -1479.0004    475.73917    339.28889    305.44055    37599.264 
  352900    298.65435   -1517.7167    463.79694    289.44013    359.85072    37599.264 
  353000    294.62593   -1516.5049    465.24925    273.98422    695.20775    37599.264 
  353100    304.03599   -1520.4848    450.00004    297.08199    -76.01981    37599.264 
  353200    310.23999   -1517.0678    460.19424    338.59909    33.628342    37599.264 
  353300    302.85712   -1522.5543    452.98243    292.69233    113.04633    37599.264 
  353400    301.42782    -1531.326    441.18081     265.6899    249.33313    37599.264 
  353500    305.24183   -1502.4571     482.1974    352.73095    347.52347    37599.264 
  353600     299.7312   -1499.9595    456.14833    304.39249    441.92054    37599.264 
  353700     292.5678   -1492.1104    485.70048    309.57242    362.01601    37599.264 
  353800    302.22365   -1474.9878    495.71812    380.14508    464.86389    37599.264 
  353900    297.06976   -1480.0056    462.26092    318.48766    816.85399    37599.264 
  354000    294.27557   -1490.6826    487.74834    320.72976    821.63421    37599.264 
  354100    304.88823   -1492.0101    479.50197    358.89203    412.30284    37599.264 
  354200    296.66668   -1530.0143    487.53624    291.94125    84.659939    37599.264 
  354300    312.64821   -1480.7685    469.75992    395.29628    625.42832    37599.264 
  354400    297.64445   -1478.5048    480.40469    340.71724    409.27391    37599.264 
  354500    309.12414   -1528.8366    467.31702    328.93393    110.02261    37599.264 
  354600    303.55779   -1528.2962    470.20864    307.32823   -381.34141    37599.264 
  354700    297.43808   -1490.6408     461.6636    308.91191   -512.10259    37599.264 
  354800     303.0673   -1471.9018    492.69362    384.00134   -319.07643    37599.264 
  354900    292.37281   -1450.6723    479.47313    343.90612   -9.1523809    37599.264 
  355000    307.76858   -1489.3194    490.71892    385.75564    -288.1404    37599.264 
  355100    290.68057   -1443.1802    483.04023    347.35354   -87.427537    37599.264 
  355200    299.71858   -1473.9036    464.04328    338.28659   -259.67157    37599.264 
  355300    305.76848   -1507.6409    479.60211    347.32086      56.2896    37599.264 
  355400    296.99361   -1498.2132    508.85616    346.53281    192.96091    37599.264 
  355500    300.83834   -1484.0622    472.66079    341.78221    104.92651    37599.264 
  355600    309.85635   -1465.6129    500.31912    428.45319    644.95767    37599.264 
  355700    305.64614   -1469.6167    475.40848    380.60103   -338.76127    37599.264 
  355800    294.94666   -1455.3132    476.58565    347.95501    13.910503    37599.264 
  355900    309.88163   -1481.8103    464.84659    376.89694    404.00435    37599.264 
  356000    302.48422   -1506.0811    467.92612    322.43183    93.112377    37599.264 
  356100    295.15163   -1484.8324     492.3137    335.08586   -33.469108    37599.264 
  356200    305.18836   -1472.1919    502.26708    402.82536   -468.62358    37599.264 
  356300    293.46523   -1516.6835    458.18658    261.52208   -442.33789    37599.264 
  356400    303.41394   -1516.8908    472.12232    320.00029   -461.80148    37599.264 
  356500    295.03326   -1539.2663    478.30744    266.11321   -131.06092    37599.264 
  356600    290.46513   -1564.4779    467.44254    209.48907    166.17816    37599.264 
  356700     301.5725   -1512.6387    493.17937    337.02656    319.98563    37599.264 
  356800    294.89967   -1541.1292    498.82715    284.16912    538.24161    37599.264 
  356900    300.26684    -1577.271    482.82592     256.1679    435.71199    37599.264 
  357000    299.45139   -1500.9621    484.93649    330.91946    732.04165    37599.264 
  357100    305.11254   -1542.0569    466.84441    297.19659   -20.952301    37599.264 
  357200      303.741    -1523.045    490.31183     333.5067    360.89839    37599.264 
  357300    298.22705   -1483.6635     496.4208     354.1952   -317.73649    37599.264 
  357400    289.08922   -1506.5959    485.63579    279.37542   -317.76512    37599.264 
  357500    303.88208   -1479.0863    468.84466    356.63287   -210.14532    37599.264 
  357600     308.6228   -1494.2951    481.89199    375.79532    17.597072    37599.264 
  357700    299.11916   -1532.7188    474.89896    287.63079   -56.203438    37599.264 
  357800    294.26559   -1505.0605      511.472    330.03063   -241.95951    37599.264 
  357900    302.74839   -1477.7344    496.33457    380.37529   -254.65313    37599.264 
  358000    302.49871   -1463.2182     483.2921    380.72592    -617.6459    37599.264 
  358100    307.72548   -1494.4134     480.0468     369.7957   -1087.2575    37599.264 
  358200    295.14357   -1475.8249    482.57706     334.3204   -884.77308    37599.264 
  358300    291.85191   -1487.6031    486.82926     311.9884   -521.77563    37599.264 
  358400    307.65553   -1520.9492    490.53348    353.43191   -663.73812    37599.264 
  358500    307.81741   -1514.1735    484.30905    354.71131    -534.9485    37599.264 
  358600    301.72742   -1498.1562    493.89518    352.92166   -620.11335    37599.264 
  358700    303.33385   -1519.6929    467.89717    312.61272   -153.46524    37599.264 
  358800    296.06945   -1502.1903    468.71789    298.26053    10.514472    37599.264 
  358900    306.73657   -1530.2597    487.03999    336.49441   -251.78906    37599.264 
  359000    285.55906    -1523.193    503.98909    265.25284   -199.30751    37599.264 
  359100    296.77274   -1521.3495    480.62973    294.17664   -875.21948    37599.264 
  359200     294.4612   -1492.9599    462.98466    294.52366   -895.93072    37599.264 
  359300    302.12183   -1526.9378    482.64145    314.66041   -958.42745    37599.264 
  359400    304.93399   -1529.0173    461.63655    304.22522   -335.35988    37599.264 
  359500    311.03818   -1544.6589    458.72319    313.12718   -145.65538    37599.264 
  359600    301.99577   -1520.0522    502.32358    340.66117    497.22111    37599.264 
  359700    289.50285    -1506.421    501.39583    297.17089    814.07085    37599.264 
  359800    286.83263    -1556.362    497.37951    231.20283    675.46224    37599.264 
  359900    300.70753   -1542.9817    491.71408    301.32764    392.06658    37599.264 
  360000    299.94063   -1537.0972    473.04554    285.09402    123.48986    37599.264 
  360100    295.94147   -1493.3999    476.28184    314.03917   -127.70815    37599.264 
  360200      294.745   -1518.1882    483.08433     290.6716   -669.54418    37599.264 
  360300    305.21177   -1562.9505     465.8898    275.79475   -564.60504    37599.264 
  360400    294.53909   -1524.1105    483.92819    284.66698    335.02773    37599.264 
  360500     302.7914   -1549.0835    466.81341    279.69848    170.78781    37599.264 
  360600    307.27866   -1548.4302    468.51926    302.24146    289.17312    37599.264 
  360700    298.23504   -1537.1409    475.47552    279.80846   -358.95507    37599.264 
  360800    290.78591   -1524.1446    490.31785    274.14061   -80.975859    37599.264 
  360900    304.49998   -1542.7713    482.26204    309.14459    358.85159    37599.264 
  361000    293.89462   -1513.4505    501.36399     309.8639    221.63744    37599.264 
  361100    299.51229   -1496.8149    522.08222    372.48631    191.81482    37599.264 
  361200    298.30472   -1530.9522    447.37413    258.20923   -580.63178    37599.264 
  361300    297.88741   -1495.4718    499.30173    343.74007   -114.18943    37599.264 
  361400    303.56287   -1507.7822    510.28672     367.9432     500.5746    37599.264 
  361500    301.78753   -1490.2541     495.7068    362.90579    151.47714    37599.264 
  361600    304.18335   -1494.1895    465.11175    339.15181    146.01077    37599.264 
  361700    305.87796   -1503.2247    466.48589    339.11315    564.05105    37599.264 
  361800    293.74453   -1525.9002    500.18333    295.55845    384.69131    37599.264 
  361900    296.64548   -1491.5189    484.97581    327.78081    261.67551    37599.264 
  362000    304.39518     -1507.12    476.92628    338.98874     562.8117    37599.264 
  362100    300.15394   -1490.4022    467.35528    327.05818   -52.871273    37599.264 
  362200    299.41593   -1485.9235    501.81377    362.67582    267.82052    37599.264 
  362300    299.38205   -1473.2499    488.24615    361.62943    416.64585    37599.264 
  362400    307.78963   -1565.7893     470.3093    288.97076    423.91239    37599.264 
  362500    293.62249   -1562.7115    488.88899    246.90387    445.91615    37599.264 
  362600    300.92367   -1523.5915    473.63661    303.61259      99.2458    37599.264 
  362700    306.41077   -1479.7174    482.81295     381.3442    -120.2358    37599.264 
  362800    300.23616   -1498.2359    494.49275    346.73181    415.31947    37599.264 
  362900    289.04181   -1488.9243     476.1656    287.36361   -635.62145    37599.264 
  363000    300.94185   -1449.0172    507.36712    411.99911   -333.43825    37599.264 
  363100    297.97468   -1480.5579    489.59292     349.3378   -175.40134    37599.264 
  363200    296.87645   -1493.4235    492.56615    334.50548   -303.28446    37599.264 
  363300    294.73558   -1492.2626    488.68208    322.15265    243.01495    37599.264 
  363400    289.13648   -1517.5037    475.13729    258.18172   -386.96144    37599.264 
  363500    310.86212   -1504.3666     489.7745    383.67894   -266.02391    37599.264 
  363600    310.40696   -1452.0573    482.88266    427.04898   -528.83135    37599.264 
  363700    292.75157   -1497.7512    488.29728    307.35502   -332.68614    37599.264 
  363800    304.52697   -1481.4818    492.13898     380.4324   -167.21641    37599.264 
  363900    299.46873   -1497.7328    477.68413    326.97435   -160.37073    37599.264 
  364000    302.38445   -1527.4517    460.74685    293.43326   -196.26755    37599.264 
  364100    290.12267   -1506.7239    494.86174    293.12188   -283.24335    37599.264 
  364200    305.53708   -1533.3955    463.87612    304.79937   -211.42986    37599.264 
  364300    298.63754   -1539.1644    492.24693    296.36689     283.2894    37599.264 
  364400    302.12087   -1509.3777    495.37081    344.94559   -417.11146    37599.264 
  364500    303.37992    -1515.639    489.37306    338.34976   -192.26631    37599.264 
  364600    296.85829   -1499.2288    463.71452    299.76691    249.92503    37599.264 
  364700    303.23931   -1504.1667    478.90548    338.72203    707.28418    37599.264 
  364800    303.78929   -1470.0465    511.55451    407.96508    233.91731    37599.264 
  364900    310.88425   -1458.0259    471.34348    411.68809     766.5909    37599.264 
  365000    297.98658   -1478.0099    477.78371    340.13012    319.20208    37599.264 
  365100    305.03504   -1487.9396    495.24863    379.36954    235.09088    37599.264 
  365200    295.53419   -1469.6584     511.3089    370.97583   -510.31631    37599.264 
  365300     295.0864   -1493.6874    453.55319    287.17693   -636.45435    37599.264 
  365400    292.89118   -1479.9226    509.68662    347.20097   -319.85716    37599.264 
  365500     309.4275   -1453.2688    497.04064    435.58984   -462.53549    37599.264 
  365600    315.41497   -1528.9043    462.91842    352.76399    -294.2307    37599.264 
  365700    294.61435   -1493.4984    476.67234    308.36177   -230.24629    37599.264 
  365800    298.55487   -1512.3404      466.528    297.10001   -489.16724    37599.264 
  365900    307.43787   -1476.4704    486.44635    392.84448   -421.59825    37599.264 
  366000    300.48393   -1500.7992    478.70113    329.49135    196.96547    37599.264 
  366100     304.4657   -1482.9544    483.73719    370.28246     251.2503    37599.264 
  366200    298.29159    -1488.776    464.19769    317.14993    102.76225    37599.264 
  366300    297.09491   -1533.5705    470.93656     273.7116    487.30928    37599.264 
  366400    307.46028   -1544.6008    490.57527     328.9438    230.22608    37599.264 
  366500    303.45483   -1481.8952    504.26502    387.32256    894.47133    37599.264 
  366600    301.83437   -1548.3466     490.1448    299.46196     983.9967    37599.264 
  366700    309.15303   -1499.3713    464.45557    355.66767    809.39255    37599.264 
  366800    304.22354   -1492.6463    482.75067    358.51476    434.58918    37599.264 
  366900    296.37112    -1507.157     454.3543    280.28714    186.74669    37599.264 
  367000    298.31769   -1482.7791     498.8628    357.92927   -457.23617    37599.264 
  367100    298.65191   -1483.8019    476.94318    336.49024   -419.60556    37599.264 
  367200    310.46518   -1471.3818    489.04362    414.14737   -883.66031    37599.264 
  367300    305.44766   -1513.1578     451.3374     312.0961   -208.56855    37599.264 
  367400    310.56787   -1508.7638    489.28829    377.47193   -473.49186    37599.264 
  367500    293.05563   -1457.7226     500.6917    361.14572   -466.88854    37599.264 
  367600    299.72527   -1468.4388    476.98849    356.72661   -34.152974    37599.264 
  367700    307.55862   -1473.6183    486.59098    396.38436   -341.14416    37599.264 
  367800    292.18643   -1486.1503    478.68126    306.79785   -348.72006    37599.264 
  367900     292.4552   -1475.9846    481.12348    320.61475   -432.35089    37599.264 
  368000    297.44645   -1478.8917    471.23176    330.26678   -196.62909    37599.264 
  368100    301.50272   -1471.8739    485.14188    369.44001   -29.431633    37599.264 
  368200    298.03864    -1479.018    492.48166    354.05408   -457.52179    37599.264 
  368300    300.07782   -1495.7758    487.67329    341.66026   -49.652783    37599.264 
  368400     295.6887   -1508.7851    478.54239    299.77762   -204.47978    37599.264 
  368500    294.39092   -1515.3398    459.21349    268.05649   -117.93406    37599.264 
  368600    310.26924   -1483.3007    498.40608    410.70952    318.46423    37599.264 
  368700     308.3745   -1518.8889    480.09649    348.28912    107.88612    37599.264 
  368800    297.46399   -1525.4412    465.02149    277.58591    168.78409    37599.264 
  368900    294.30004   -1542.5737     499.5047      280.705    146.93809    37599.264 
  369000    289.08452   -1535.9644    477.66201    242.01205   -93.478183    37599.264 
  369100    294.38245   -1513.0917    472.50344    283.55642    235.13914    37599.264 
  369200    290.94902   -1472.3853    484.34559    320.66129    17.246587    37599.264 
  369300    295.68752   -1511.8394    504.41014    322.58569    346.03006    37599.264 
  369400    303.86421   -1541.9497    515.07926    339.92369     354.7408    37599.264 
  369500    292.29381    -1529.571    499.14928    284.32825     554.8449    37599.264 
  369600    307.48152   -1481.4691    483.43756    385.03336    826.79513    37599.264 
  369700    294.44161   -1509.7517    472.09655    286.75563    80.106183    37599.264 
  369800    295.89368   -1551.9255    508.39855    287.41532    435.97058    37599.264 
  369900    303.93721   -1550.2116    466.91823    283.82906    971.17417    37599.264 
  370000     299.7773   -1542.6993    491.14042    296.85211    423.06112    37599.264 
  370100      306.318   -1501.3686    463.84737    340.31011    113.74987    37599.264 
  370200    302.62335   -1514.9082    467.34944    313.65391   -635.11807    37599.264 
  370300    313.76659   -1521.3504    472.62914    362.61411   -375.30621    37599.264 
  370400     300.6164   -1540.2794    491.50368    303.40959   -178.40215    37599.264 
  370500    298.09283    -1527.114     467.2091    280.92931    -45.85398    37599.264 
  370600    296.94332   -1487.5674    468.37127    316.46752    71.547758    37599.264 
  370700    299.82196   -1542.6619    500.94089    306.89091   -15.761366    37599.264 
  370800    299.83752   -1563.2045    474.31774     259.7951    422.23623    37599.264 
  370900    304.03728   -1537.8799    456.17919    285.87185    247.56149    37599.264 
  371000    296.21169   -1536.6836    468.59729    264.28644    351.17992    37599.264 
  371100    299.39618   -1532.6319    469.95947    284.02429    301.79371    37599.264 
  371200    310.17165   -1508.8754    479.39726     365.6871    -112.0333    37599.264 
  371300    300.21119   -1526.9878    491.14287    314.51776   -308.35312    37599.264 
  371400      305.567   -1509.2998    501.62422    366.77769    1.4973837    37599.264 
  371500     302.9895    -1468.048    485.66707    380.47873    134.26345    37599.264 
  371600    297.07192   -1484.2931    492.80132     344.7503   -19.294866    37599.264 
  371700    292.84758    -1504.335     496.1208    309.02657    238.54315    37599.264 
  371800    295.34662   -1536.7707    479.76099    271.47186    426.08384    37599.264 
  371900    300.74915   -1506.4367    472.15367    318.49943    71.891779    37599.264 
  372000    299.66144   -1527.5226    482.67749    303.04475    518.31911    37599.264 
  372100    299.94213   -1523.0736    465.53084    291.60965    100.92653    37599.264 
  372200    299.77889   -1518.5684    477.12029    306.96999   -214.50925    37599.264 
  372300    304.79626    -1525.847     492.6988    337.83828    -252.9866    37599.264 
  372400    307.54602   -1535.7067    482.53673    330.18511    117.32278    37599.264 
  372500    294.97627   -1507.0321    492.62214     312.4058   -127.94838    37599.264 
  372600    299.60237   -1514.6058    510.60906     343.6274    191.76655    37599.264 
  372700    294.36967   -1505.5417    469.79108    288.33664   -164.82794    37599.264 
  372800    296.11975    -1500.115    472.09309    303.93726   -147.69916    37599.264 
  372900    296.15085   -1522.6821    468.65594    278.07287    270.24577    37599.264 
  373000    300.46923   -1542.4051    487.50578    296.62407    304.45852    37599.264 
  373100    297.62488   -1544.0611    491.72148    286.38968   -524.17625    37599.264 
  373200    296.22751   -1515.1362    494.53823    311.84593    94.021722    37599.264 
  373300    311.03359    -1568.547    469.27867    299.77391    511.11847    37599.264 
  373400    303.70556   -1536.4057    475.16802    304.84277     581.2316    37599.264 
  373500    300.32549   -1524.3547    490.46225    316.98433   -400.67295    37599.264 
  373600    295.07897   -1531.7219    497.30337    292.85919    900.33068    37599.264 
  373700    298.78037   -1509.9047     504.0559    338.07794    238.82891    37599.264 
  373800    302.96663   -1512.6306    474.37637    324.50253    231.22211    37599.264 
  373900    291.54813   -1545.9905    469.89872    235.30406   -65.445734    37599.264 
  374000    307.54565   -1558.9705    492.11005    316.49297    232.19269    37599.264 
  374100    299.65316   -1546.6979    477.58301    278.73769   -145.34669    37599.264 
  374200    311.31019   -1573.5588    484.84683    311.57445    583.79398    37599.264 
  374300    298.00439   -1561.1088    484.18392     263.5115    295.79945    37599.264 
  374400    301.06639   -1579.4004     507.9185    282.72751    188.78252    37599.264 
  374500    295.21969   -1557.5986    479.93531    250.24743    104.67718    37599.264 
  374600    291.87194   -1556.7741     459.0081    215.08635    120.44288    37599.264 
  374700    305.55409   -1523.7315    497.14443    347.80812   -469.86705    37599.264 
  374800    301.22319   -1510.4526    473.07555    317.53758   -683.62944    37599.264 
  374900    297.34351   -1534.0089    462.16196    265.61681   -354.70914    37599.264 
  375000    296.83779     -1544.02    490.89632    282.06524   -817.53428    37599.264 
  375100    300.54678   -1523.7008    444.90606    273.07739   -475.17599    37599.264 
  375200    302.18526   -1523.2446     477.3427    313.34025    -529.6748    37599.264 
  375300    307.94368   -1545.5345    479.73995    319.34912    6.2659131    37599.264 
  375400    290.54613   -1507.9628    498.97462    297.90062   -143.28131    37599.264 
  375500    296.40487   -1545.8495    482.40886    269.80101   -616.62077    37599.264 
  375600    302.02992   -1499.9481    489.37367    347.96893   -40.492515    37599.264 
  375700    312.95475   -1492.9909    506.55685    421.24966    100.61931    37599.264 
  375800    302.50424   -1492.2712    475.03015    343.43589   -729.04389    37599.264 
  375900    298.69037   -1510.8762    468.51429    301.16006    -535.6485    37599.264 
  376000    289.72343   -1503.8007    509.77087    309.15842   -140.13001    37599.264 
  376100    305.40137   -1516.8062    476.22216    333.12427   -216.90653    37599.264 
  376200    301.13257   -1508.7197    486.95095    332.73828   -34.853746    37599.264 
  376300    295.44973   -1505.9363    500.42598    323.43505    30.108131    37599.264 
  376400    305.32645   -1492.1692      500.226    381.42812   -359.65319    37599.264 
  376500    305.11845     -1498.89    440.50245     314.0482   -316.77237    37599.264 
  376600    303.91888    -1490.976    497.01038    373.07433   -99.294358    37599.264 
  376700    299.77279   -1525.2512    485.64185     308.7814    142.59192    37599.264 
  376800    302.07933   -1535.0481    463.60071    287.31827     347.7963    37599.264 
  376900    291.78272   -1511.6413    501.64718     302.4569   -8.4565066    37599.264 
  377000    293.42775   -1506.9331    495.00288    307.92019    34.500284    37599.264 
  377100    307.25763   -1508.7638    504.75082    378.04484    629.07854    37599.264 
  377200    298.37849   -1549.0151    481.26278    274.36681   -135.06345    37599.264 
  377300    301.28287   -1529.5985    498.42448    324.00904    524.69738    37599.264 
  377400    288.86999   -1541.6947    489.97616    247.63091    3.9584864    37599.264 
  377500    305.21161   -1530.1555    457.56003    300.25928   -186.06724    37599.264 
  377600     301.1348    -1531.769    488.10495      310.853   -146.41191    37599.264 
  377700      291.889   -1500.4661    487.27011    299.73309    259.18323    37599.264 
  377800     300.1546   -1469.9443    491.15201    371.31584   -32.040806    37599.264 
  377900     294.6446   -1505.6095     511.8007    331.51507   -211.80407    37599.264 
  378000    308.84627   -1521.5434    479.30877    346.96902   -105.71973    37599.264 
  378100    307.03061   -1508.8402    510.33907    382.53559    483.85931    37599.264 
  378200    300.39051   -1537.3561    467.58222    281.39536    275.77391    37599.264 
  378300    300.89054   -1531.5004    487.12506    309.04306   -131.72336    37599.264 
  378400    296.91259   -1531.6589    469.60431    273.47085   -511.70705    37599.264 
  378500    289.20878   -1516.5714    499.46687    283.76884   -113.38596    37599.264 
  378600    298.86676   -1511.8111    480.46254     312.9668   -146.71767    37599.264 
  378700    286.48812   -1491.4557     518.1394    315.31936   -85.801779    37599.264 
  378800     296.5525      -1552.9    479.53817     260.5439    272.42935    37599.264 
  378900    312.20082    -1544.804    474.12576    333.61425    314.68273    37599.264 
  379000    297.44124   -1525.1441    504.24786    317.00711    247.94364    37599.264 
  379100    295.30462   -1559.1043    489.24746    258.43585    305.59196    37599.264 
  379200    288.15592   -1537.8028    492.34497    250.67974    644.49324    37599.264 
  379300    297.71683   -1551.2056    485.71576    273.65304    1156.4977    37599.264 
  379400    287.80147   -1495.6138    499.39661    298.32607    1001.7321    37599.264 
  379500     301.5276    -1484.667      512.793    384.40994    523.70694    37599.264 
  379600    314.50314   -1542.8503    487.42959    359.22769   -23.320486    37599.264 
  379700    297.74919   -1560.9449    513.80782    292.15141    32.791122    37599.264 
  379800    308.03378   -1548.1988    507.96096    345.31109    276.72363    37599.264 
  379900    293.28385   -1496.8378     482.2913    304.65667   -164.03905    37599.264 
  380000    309.79954   -1482.7695    494.30811    405.03008   -824.83897    37599.264 
  380100    293.09599   -1542.4344    483.99417    259.91797   -392.62182    37599.264 
  380200    290.33312    -1532.249    478.37325    252.05492   -315.32553    37599.264 
  380300    292.46207   -1538.7476    496.43354    273.19269   -33.648931    37599.264 
  380400    299.70767   -1536.1821    490.29213    302.20786      187.398    37599.264 
  380500    296.29484   -1520.4455    510.90846    323.20968   -383.81382    37599.264 
  380600    302.40337    -1486.359    510.55505     384.4192    259.68797    37599.264 
  380700    299.55264   -1514.4546    498.09247    331.03834    163.81316    37599.264 
  380800    298.03994   -1502.9481    465.82893    303.47709     80.90016    37599.264 
  380900    299.15973   -1529.9895    521.73803     337.3817    2.1684675    37599.264 
  381000    302.91011   -1532.1715    484.95645    315.28751   -438.86073    37599.264 
  381100    291.78308   -1544.4866    483.30114    251.26715   -744.33679    37599.264 
  381200    303.84054    -1532.531     506.5001    340.65673   -2.8370705    37599.264 
  381300    303.72887   -1560.5583    495.10269    300.72975   -265.54301    37599.264 
  381400    289.77606   -1553.2351     475.8384    226.02827    50.023425    37599.264 
  381500    309.11452   -1527.8323    488.99824    351.57614   -609.48388    37599.264 
  381600    304.96917   -1516.1693    501.55591     357.1509   -564.37266    37599.264 
  381700    281.84488   -1483.6134    485.11314    269.24999   -528.09317    37599.264 
  381800    295.34654   -1563.7067    473.75295    238.52751    -281.1213    37599.264 
  381900    295.85624    -1532.305    473.14706    271.61598   -476.85307    37599.264 
  382000    288.46392    -1520.793    511.01216    287.74206      24.0123    37599.264 
  382100    299.84918   -1549.7733      491.824    290.78498    195.44392    37599.264 
  382200    300.04443   -1488.8133    511.71027    372.50958    223.98183    37599.264 
  382300    310.42156   -1532.6311    502.65862    366.31681   -90.406343    37599.264 
  382400    298.03113    -1514.233     510.8526    337.17622   -439.19474    37599.264 
  382500    293.81262   -1523.4639    497.38458    295.50224   -247.14178    37599.264 
  382600    298.14611    -1555.112    487.99055    273.95236     -144.044    37599.264 
  382700      297.926   -1559.6434    512.90139    293.34171    138.26145    37599.264 
  382800    301.73519   -1529.9882    502.14322    329.37271    419.04334    37599.264 
  382900    301.49856   -1540.0778    523.59857    339.67403    393.48713    37599.264 
  383000    308.30688   -1582.0132    478.71943    283.48358    590.95372    37599.264 
  383100    307.91097   -1563.3775    499.59683    321.21592    61.087294    37599.264 
  383200    298.94448   -1540.9292    514.15823    317.89399    248.18268    37599.264 
  383300    289.96035   -1555.8261     473.6371    222.06492   -282.55172    37599.264 
  383400    301.18845   -1538.5322    499.70607    315.93231    124.71511    37599.264 
  383500    297.72221   -1601.1169    482.45844    220.50869    613.77216    37599.264 
  383600    284.56445   -1562.9648    505.30337    222.32147    245.64246    37599.264 
  383700    303.03533   -1508.9093    542.86841    397.02487    554.78753    37599.264 
  383800    298.52078   -1542.2231    470.64274    271.17873    300.81381    37599.264 
  383900    308.33772   -1556.0182    488.13192    319.02982    247.00626    37599.264 
  384000    317.68832   -1520.1619    497.51256    406.32622    534.77297    37599.264 
  384100    290.32403   -1535.3608    511.40123    281.93024   -66.028478    37599.264 
  384200    310.97977   -1552.7989    499.11279    345.11403   -345.08983    37599.264 
  384300     308.4202   -1545.8565    496.30247    337.73311   -383.94674    37599.264 
  384400    298.70034   -1530.6276    489.72331    302.66254   -460.94934    37599.264 
  384500    291.44638   -1501.8051    523.19845    332.33151   -559.12047    37599.264 
  384600     284.3725   -1544.2262     482.2261    217.11949   -398.69934    37599.264 
  384700     304.5187   -1527.5732    488.44221    330.60703   -518.31054    37599.264 
  384800    295.60657   -1492.3331    477.82837     315.1462    143.23212    37599.264 
  384900    299.20316   -1544.7946    497.38006    298.41396   -220.41852    37599.264 
  385000     301.7468   -1532.3222    486.36081     311.3085   -144.57773    37599.264 
  385100    294.07618    -1533.078    520.05013    309.73928   -651.31698    37599.264 
  385200    301.41348   -1565.9995    510.34749    300.11857    185.77434    37599.264 
  385300    307.39087   -1515.5786    497.66574    364.74429   -8.2287765    37599.264 
  385400    317.35403   -1526.2632    492.83869    394.04737     304.1241    37599.264 
  385500     298.8656   -1510.7555    496.17861    329.73325    377.85615    37599.264 
  385600    303.67727   -1530.1027     522.2247    358.07519    89.556816    37599.264 
  385700    290.96122   -1530.1125    488.52525    267.16862    638.35172    37599.264 
  385800    297.65425   -1553.1684    501.35668    287.04972    -131.9285    37599.264 
  385900    303.46137   -1564.4985    534.92894    335.41258   -600.57225    37599.264 
  386000    295.49997   -1543.3555    464.82669    250.64252   -838.30831    37599.264 
  386100    297.09656   -1523.2254    513.50736    326.63485    32.855121    37599.264 
  386200    300.32222   -1496.8739    498.31836    352.30654    -151.9804    37599.264 
  386300    292.94576   -1540.2375    524.42322    301.86811   -422.67983    37599.264 
  386400    305.45375   -1528.4535     497.8544     343.3448    194.01837    37599.264 
  386500    307.49916   -1479.3736    526.57058     430.3412   -516.88978    37599.264 
  386600    296.94463   -1492.4046    484.01955    327.28445   -692.47177    37599.264 
  386700    303.02318   -1470.4216    512.91898    405.50852   -793.43952    37599.264 
  386800    300.75468   -1506.4897     490.5504    336.86801    -296.8081    37599.264 
  386900    303.75312   -1520.1002    493.71479    339.90901   -530.64436    37599.264 
  387000    298.73641   -1514.0224    503.56165    333.26829   -243.88969    37599.264 
  387100     291.7998   -1554.5548    508.06799    266.04108   -12.594304    37599.264 
  387200    311.14746   -1525.7068    501.24719    375.09483   -239.43368    37599.264 
  387300    309.59377   -1568.4203    495.12282    319.26836   -94.877662    37599.264 
  387400    291.72152    -1592.401     471.5739    191.34867    -801.2032    37599.264 
  387500    298.51787   -1566.1104    505.78888    282.42451   -350.04063    37599.264 
  387600    304.22456   -1570.8667    528.16881     325.7171    141.47755    37599.264 
  387700    296.19732   -1592.1012    470.71538    210.92227    -411.6793    37599.264 
  387800    304.03975   -1551.7475    516.76107    332.59725   -153.64972    37599.264 
  387900    292.45418   -1576.1227    472.30082    211.64937   -203.55121    37599.264 
  388000    300.83415   -1588.0385     488.9256    254.05185   -365.49174    37599.264 
  388100    300.22519   -1558.2613    480.53462    272.69894   -500.56602    37599.264 
  388200    301.43821   -1630.8317    466.68256    191.73267   -203.65974    37599.264 
  388300    312.09221    -1589.448    498.61068    312.96671      231.647    37599.264 
  388400    294.27422    -1570.796    488.07231    240.93427    146.48942    37599.264 
  388500    294.17516   -1556.0433    515.39239     282.5614   -390.06557    37599.264 
  388600    295.06699   -1557.1603     497.1921    267.25563   -479.70633    37599.264 
  388700    298.65324   -1567.6042    511.25286    287.00363    -221.4995    37599.264 
  388800    296.75823   -1525.7828    518.99586    328.04416    137.65219    37599.264 
  388900    304.68394   -1541.2524    510.32667     339.5555    154.09605    37599.264 
  389000    293.29702   -1578.9752    497.88431    238.17157     97.17195    37599.264 
  389100     301.4309   -1567.0083    487.40238    276.24303   -211.32908    37599.264 
  389200    300.36255   -1587.0023    474.85423    238.89543   -329.69615    37599.264 
  389300    297.24681   -1572.4461    514.71551    279.29809    719.22617    37599.264 
  389400    293.89501   -1565.8279    486.49835    242.62263    750.25522    37599.264 
  389500    295.13629   -1541.0951    492.36095    278.80136     190.0019    37599.264 
  389600    292.05252   -1530.9745    505.03288    287.72298   -250.50462    37599.264 
  389700    303.28547   -1532.2953    505.20382    337.09942    632.25218    37599.264 
  389800    291.42459   -1511.7889    501.52198    300.57327    174.79942    37599.264 
  389900    297.79995   -1509.8158    508.75115    338.45209    17.648189    37599.264 
  390000     299.1876   -1529.7813    479.68083    295.65806    518.43942    37599.264 
  390100    309.20067   -1551.9928    506.74306    345.54801     392.8934    37599.264 
  390200     293.9355   -1578.1789     491.6517    235.60712    420.31961    37599.264 
  390300    298.43968    -1530.184    479.87197    292.08234    73.222921    37599.264 
  390400    300.23595   -1547.4312     509.8014    312.84419    271.54169    37599.264 
  390500    296.26309   -1556.3367    479.72885    255.99604    77.802457    37599.264 
  390600    295.84443   -1542.3049    483.64162    272.05751    249.17739    37599.264 
  390700    295.30355   -1533.9967    477.63645    271.92764    382.20249    37599.264 
  390800    314.80841   -1522.6639    486.84175    380.19942     180.0243    37599.264 
  390900    298.91918   -1538.5375    498.03923    304.05286   -329.82281    37599.264 
  391000    306.70412   -1548.4776    467.45481    298.54534   -35.613714    37599.264 
  391100    290.80309   -1520.5152    493.25659      280.786   -202.81682    37599.264 
  391200    308.00982   -1533.0173    487.53745    339.96135    182.40789    37599.264 
  391300    296.62803   -1554.5715    503.80092     283.4749     301.7131    37599.264 
  391400    295.74149   -1548.8106    482.08893     263.5361    84.442941    37599.264 
  391500    295.40892   -1545.5075    504.19373    287.44807   -58.481087    37599.264 
  391600    296.04744   -1509.6927    494.52671      316.468   -49.265511    37599.264 
  391700    298.88162   -1514.6653     495.1941    324.91102    352.83617    37599.264 
  391800    291.48693   -1546.1228    480.53392    245.53165    212.60276    37599.264 
  391900     291.4451   -1580.4958    504.60353    235.04016   -165.96012    37599.264 
  392000    290.79517   -1561.1456    496.53923    243.40265   -15.564246    37599.264 
  392100    297.53716   -1516.2416    493.61975    315.71293    2.8664176    37599.264 
  392200    302.25523   -1530.0611    493.00168    322.49746    -183.3455    37599.264 
  392300    307.26718   -1562.0381    471.00742    291.07008   -13.658737    37599.264 
  392400    303.28945   -1550.9173    510.08306    323.37458   -128.82465    37599.264 
  392500    301.81672    -1584.715    479.33426    252.20369    292.53179    37599.264 
  392600    286.37314   -1559.3563    511.29459    240.05678    62.844901    37599.264 
  392700    305.21788   -1499.4659    499.05934    372.47636   -319.06368    37599.264 
  392800     310.7279   -1463.7205    518.83904    452.78583   -235.74691    37599.264 
  392900    308.42494   -1468.7038    491.32343    409.92805   -131.08213    37599.264 
  393000    301.64986   -1518.5566    482.07485    320.35212   -359.88891    37599.264 
  393100    298.85797   -1548.6378    463.32262     258.9606   -600.62383    37599.264 
  393200    297.37881   -1561.5079    503.23936     279.3539   -517.15038    37599.264 
  393300    295.98812   -1539.7532    491.59323    283.20714    175.58135    37599.264 
  393400    307.64898   -1578.7173     468.1357    273.23653    430.22407    37599.264 
  393500     316.8008   -1609.0706    517.23244    333.14527    390.97181    37599.264 
  393600    310.52685   -1582.1604    499.42809    314.03064    262.27396    37599.264 
  393700    305.63414   -1583.8323    481.14567    272.06865      625.621    37599.264 
  393800    300.91971   -1582.6753    474.70006    245.57434   -195.66192    37599.264 
  393900    303.43924    -1518.844    513.84886    359.88738   -505.89602    37599.264 
  394000    306.51538   -1485.9822    494.77235    387.50927   -883.51778    37599.264 
  394100    301.11714   -1484.0613    526.78226    397.15861   -795.07683    37599.264 
  394200    298.38487   -1520.1577    476.39626     298.3863   -936.59475    37599.264 
  394300    303.82725   -1526.6309    501.58659    341.58352   -678.10235    37599.264 
  394400    301.23501   -1501.0343    491.72249    345.65604   -588.80381    37599.264 
  394500    314.44471   -1530.9997     489.8284    373.21436    207.23197    37599.264 
  394600    297.88671   -1492.8677    503.43682     350.4762    503.84735    37599.264 
  394700    305.37221   -1521.5689    508.08901    360.09722    612.41952    37599.264 
  394800    298.92098   -1503.5758    495.62045    336.60391    207.25996    37599.264 
  394900    300.47962   -1500.8342    516.03165    366.76755    373.56159    37599.264 
  395000    309.52497    -1533.357    496.98941    355.88883    958.71667    37599.264 
  395100    295.33205   -1519.3515    516.69601     325.7606   -253.49625    37599.264 
  395200    291.85942   -1525.7414    496.78378    283.83841    261.94446    37599.264 
  395300    292.69558   -1520.0542    518.74078    315.24375    173.48103    37599.264 
  395400    303.07321   -1538.5652    511.93005    336.60098   -118.84199    37599.264 
  395500    307.21567   -1519.0534    478.00203    340.81767     264.6307    37599.264 
  395600    306.21408   -1564.2262    506.01785    319.15556    797.93118    37599.264 
  395700    308.61538   -1557.2937    493.21915    324.09053    87.094239    37599.264 
  395800     308.7271   -1577.8109    520.54569     331.4024    20.555291    37599.264 
  395900    297.90974   -1547.1771    498.05217    290.88567    466.61834    37599.264 
  396000    302.79753    -1543.441    482.64764     301.2028   -274.64964    37599.264 
  396100    297.14114   -1530.2919    511.48655    317.74813   -109.48792    37599.264 
  396200    292.27764   -1539.3599    503.81419    279.13145   -61.137752    37599.264 
  396300    297.37504   -1539.8551    470.17683    267.92727   -37.447668    37599.264 
  396400    302.00071   -1560.6662    509.13171     306.8775    184.84362    37599.264 
  396500    306.41782    -1541.602    494.86077    331.53912    972.81152    37599.264 
  396600    305.24015   -1605.9739    498.67379    265.68303    997.52285    37599.264 
  396700    308.06197   -1582.4484    492.21551    295.44288     1116.414    37599.264 
  396800     298.1972   -1538.6067    496.34786    299.04483    624.57405    37599.264 
  396900    294.91826   -1541.5131    494.58891    279.63065   -106.63221    37599.264 
  397000    305.99589   -1572.3568    479.25526     283.2809   -658.08396    37599.264 
  397100     286.6489   -1563.6102    484.37136    210.12004   -581.54714    37599.264 
  397200    303.29247   -1530.5661    470.59518    304.25145    -484.8072    37599.264 
  397300     302.8285   -1518.3571    512.00585    355.78415    65.895623    37599.264 
  397400    285.70556   -1511.8586    500.77175    274.02892    102.40967    37599.264 
  397500     310.9354   -1525.9806    528.82498    401.44499    343.01231    37599.264 
  397600    309.33978   -1527.2321    510.55143    374.74279    804.74017    37599.264 
  397700    307.44566   -1544.0331    499.49525    338.36578    73.585676    37599.264 
  397800    298.78557   -1531.9453    488.91497    300.91977   -48.139023    37599.264 
  397900    289.38949   -1525.9985    500.53673     276.2244    53.485258    37599.264 
  398000    296.48601   -1528.5488    513.27892    318.33671    156.29692    37599.264 
  398100    292.84068   -1521.4975    517.96738    313.67965    80.348707    37599.264 
  398200    292.39589    -1548.908    507.45696    273.75805    241.02565    37599.264 
  398300    305.49963   -1526.1237    518.66082    366.68736    159.45015    37599.264 
  398400    305.92131   -1549.9873    499.20345    325.26316   -4.1612672    37599.264 
  398500    294.72331   -1542.1168    510.09751    293.65859   -79.538854    37599.264 
  398600    290.73625   -1558.2861    494.56983    244.02772   -310.85256    37599.264 
  398700    297.96695   -1584.3082    475.79016    231.74993   -313.04344    37599.264 
  398800       303.98    -1541.992    497.86759    323.19054   -45.255508    37599.264 
  398900    301.10601    -1557.096    511.64386     308.9355   -157.93983    37599.264 
  399000    289.44538   -1561.0198    476.50966    217.42741    168.78221    37599.264 
  399100    298.76505   -1530.1838    491.50273    305.17673    197.92504    37599.264 
  399200    310.69044   -1540.2796     494.6327    351.85187    361.10044    37599.264 
  399300    304.51402   -1559.0876    488.72735    299.35669    818.65008    37599.264 
  399400    298.69131   -1569.3869    477.86995    252.00925    152.85154    37599.264 
  399500     300.3985   -1542.8507    498.93471    307.28915   -512.92126    37599.264 
  399600    299.96165   -1549.8978    495.29101    294.63347    -183.9187    37599.264 
  399700    302.09815   -1534.5143    486.53257     310.8685   -689.87108    37599.264 
  399800    296.70086    -1552.708     460.5149    242.37991    -1081.989    37599.264 
  399900    304.20926   -1517.6646    504.36109    355.04262   -766.07225    37599.264 
  400000    304.80699   -1548.9288    480.42627    302.53217   -259.80438    37599.264 
  400100    297.54128   -1555.3943    468.04285    251.00179    362.15257    37599.264 
  400200    301.56713   -1523.7848     537.9265    370.60341   -41.245634    37599.264 
  400300    299.38005   -1553.2867    463.17857    256.51597    518.74824    37599.264 
  400400     306.5266   -1548.5146    505.01484    335.26984    146.47976    37599.264 
  400500    299.06103   -1562.4057    487.25447    270.03792    277.75716    37599.264 
  400600    305.27045    -1586.492    512.98453    299.61198     691.7944    37599.264 
  400700    291.22639   -1607.8808    466.88518    168.95302    370.43708    37599.264 
  400800    298.10005   -1583.6401    505.87366    263.10019    862.04472    37599.264 
  400900    298.22596   -1604.6832    461.11564    197.86543    404.61429    37599.264 
  401000    306.71689   -1551.0114    484.96858    313.58271    549.80249    37599.264 
  401100    310.61333     -1571.57    482.58408      308.166   -139.77915    37599.264 
  401200    290.04477   -1597.2847    493.64982     200.9988   -401.94178    37599.264 
  401300    312.20851     -1595.34     488.3639    297.35101   -258.51303    37599.264 
  401400    294.14152    -1585.362    476.67322     214.3722    -450.4886    37599.264 
  401500    306.29963   -1602.2094    509.43748    284.97684     161.2367    37599.264 
  401600    307.09119   -1594.6143    488.39272    275.08761   -417.86114    37599.264 
  401700    300.43172   -1599.4873    495.51905    247.38632    177.11121    37599.264 
  401800    293.17994   -1597.9895     502.7304    223.47666    121.28047    37599.264 
  401900     299.5744   -1559.4194    473.66215    261.74106   -2.0381752    37599.264 
  402000    292.40603   -1582.5695    498.90337    231.58856    171.29796    37599.264 
  402100    299.16686   -1583.6767    493.97788     255.9664     67.18183    37599.264 
  402200    306.10349   -1595.9223    485.26218    266.20635    130.62965    37599.264 
  402300    300.12278   -1563.0178    467.80429    254.75149     1041.397    37599.264 
  402400    302.15874    -1569.966     522.2442      311.401    627.08586    37599.264 
  402500    293.12935   -1552.5649    469.87607    235.81939   -348.70459    37599.264 
  402600    296.99259   -1558.7491    485.06455    262.20074   -454.41386    37599.264 
  402700    300.91261   -1565.6805    497.61781    285.45492   -216.71035    37599.264 
  402800    304.08885    -1542.981    474.26261     299.0861   -416.27295    37599.264 
  402900    310.58973    -1535.117    497.78757    359.71631   -450.97723    37599.264 
  403000    300.30797   -1570.5996    470.26936    250.46777   -88.166705    37599.264 
  403100    306.31188   -1576.2732    498.48652    300.01713    170.02606    37599.264 
  403200    293.58115   -1552.3359    478.87881    247.08336   -197.65532    37599.264 
  403300    304.04991    -1595.587    483.54348    255.58584    214.44325    37599.264 
  403400    287.25943   -1585.7258    485.21053    191.58983   -566.34113    37599.264 
  403500    297.38028   -1559.4813    468.25372    246.40145   -50.415596    37599.264 
  403600    298.96927   -1534.8041    543.54125    353.51353    33.557358    37599.264 
  403700    290.02807    -1552.073    452.28301    204.76852   -227.65487    37599.264 
  403800    294.99111   -1529.0052    507.65406    305.53141    141.12765    37599.264 
  403900     299.9194    -1578.088    480.40486    251.36706    4.0046455    37599.264 
  404000    299.72946   -1580.6679    506.76717    274.29508    183.86695    37599.264 
  404100     302.0309   -1548.9483    486.64071    296.24019   -248.23466    37599.264 
  404200    294.16716   -1525.2732    481.94056    279.84367   -262.12701    37599.264 
  404300    301.54603   -1555.9689    503.93962    304.33754   -733.07697    37599.264 
  404400    301.42901   -1543.9384    478.96719    290.86925    430.98873    37599.264 
  404500    303.33168   -1581.3979    502.59705    285.59791    396.52745    37599.264 
  404600    293.91839   -1559.2946    492.63386    255.39661    794.57239    37599.264 
  404700    309.11918   -1567.5749    481.01578     303.8721    688.27447    37599.264 
  404800    297.91986   -1562.2701    514.63051    292.41656    661.59006    37599.264 
  404900    311.29144   -1551.5537    493.03595    341.68434    512.94396    37599.264 
  405000     299.0418   -1573.4151    474.57063    246.25819     432.3367    37599.264 
  405100    296.94872   -1577.0131    473.87219    232.54707   -318.48768    37599.264 
  405200    305.48355   -1580.2997    471.32117    265.09942   -217.94622    37599.264 
  405300     294.4503   -1572.0834    503.98694    256.35349    281.43998    37599.264 
  405400    293.95795    -1587.947    499.03449    233.32283    76.236941    37599.264 
  405500    303.18642   -1556.3504    494.53925    301.93422     249.7563    37599.264 
  405600    300.88314   -1515.9921    518.07194    355.46492   -228.44286    37599.264 
  405700    305.99469   -1490.6989    490.42169    376.09989   -204.55062    37599.264 
  405800    292.84097   -1521.7092    497.22514      292.727   -491.34464    37599.264 
  405900    302.99439   -1565.4323    471.81805    269.26739    471.56649    37599.264 
  406000    311.98234    -1528.933     508.4636    382.84036    279.81479    37599.264 
  406100    295.86651   -1511.5059    504.61634    323.93049    600.40139    37599.264 
  406200    293.45124   -1524.0219    500.82795    296.76218    508.95704    37599.264 
  406300    296.91269   -1500.6794    493.97538    328.82189   -512.57003    37599.264 
  406400    304.08932   -1521.2248    503.22549     349.8073   -357.67106    37599.264 
  406500    296.29548   -1475.8447    480.11182    337.01678   -301.29002    37599.264 
  406600    296.40386   -1505.1617     466.8519    294.92727    57.382595    37599.264 
  406700    299.24091    -1471.697    508.10788     382.4092    537.27624    37599.264 
  406800    300.22571   -1531.3853    488.00116    307.04377    647.54124    37599.264 
  406900    294.18593   -1515.2321    517.94089    325.96957    740.94968    37599.264 
  407000    305.44161   -1493.1484    509.48839    390.22931    496.79615    37599.264 
  407100    291.91631   -1452.3517    497.41873    358.11897    561.95269    37599.264 
  407200    294.46568   -1516.5559    502.23194    310.19519    826.38199    37599.264 
  407300    304.51186   -1531.0495    511.54562    350.20338    681.56948    37599.264 
  407400    304.69415   -1497.8843    503.96626    376.60918    34.082154    37599.264 
  407500    280.65312   -1509.3855    475.74886    228.75303   -334.38829    37599.264 
  407600    304.20454   -1501.4425    532.44276    399.32521    366.65933    37599.264 
  407700    295.23018   -1510.3784    485.36748    302.94699    204.48039    37599.264 
  407800    305.91013   -1477.3631    496.96338    395.59703    290.80654    37599.264 
  407900      295.503   -1496.7739    510.76469    343.17577   -159.88564    37599.264 
  408000    296.85913   -1500.3429    483.66543     318.6075   -683.20859    37599.264 
  408100     294.4216   -1495.4934    476.90647     305.7339   -429.05555    37599.264 
  408200    306.08632   -1526.2637    469.47409    319.99966   -637.45968    37599.264 
  408300    303.00326   -1534.9317    478.75813    306.74795   -24.908514    37599.264 
  408400    295.85608   -1528.9986    508.61715    310.39176   -186.82022    37599.264 
  408500    304.32195   -1503.1949    474.03607    339.69417   -24.323696    37599.264 
  408600    304.20866   -1483.1953    492.35397    377.50212   -253.56687    37599.264 
  408700    304.75599   -1479.9213    509.23069    400.11469   -198.69239    37599.264 
  408800    309.40062   -1526.5717    497.27141    362.39684   -624.08021    37599.264 
  408900    305.56348   -1534.1816    504.88053    345.13638   -158.58937    37599.264 
  409000     301.0063   -1496.5272    515.94024    373.35214    -47.60691    37599.264 
  409100    298.58821   -1515.3553    492.20181    319.90887   -108.97852    37599.264 
  409200    309.23744   -1545.5837    513.16156    358.54101   -13.480488    37599.264 
  409300    303.40532   -1550.7588    464.25035    278.22152    788.83372    37599.264 
  409400    305.82087   -1526.4391    516.26381    365.41996    1268.5733    37599.264 
  409500    307.23912   -1508.3061    524.65812    398.32655    967.89266    37599.264 
  409600    296.44388   -1537.9525    515.46487    310.92956    1271.7941    37599.264 
  409700    291.28014    -1517.832    484.87691    277.23526    402.38111    37599.264 
  409800    296.61333   -1478.1625    497.60393    353.62074    317.90087    37599.264 
  409900    300.48031   -1532.9637    502.97301    321.58241    539.77577    37599.264 
  410000    297.96341   -1551.8809    498.20962    286.58079   -198.18063    37599.264 
  410100    301.45619   -1531.2439    483.16964    307.88848   -215.05354    37599.264 
  410200    304.40782   -1565.6462    471.61574    275.20884    95.342664    37599.264 
  410300    309.93503   -1546.6677    479.86138    327.29457    153.79189    37599.264 
  410400    303.98708   -1533.7889    476.40245    309.96031    758.75111    37599.264 
  410500    294.32691    -1541.287    491.42608    274.03398    523.13709    37599.264 
  410600    300.23284   -1534.4768    489.11813    305.10139    116.17729    37599.264 
  410700    298.02169   -1515.7479    499.41674    324.18303    349.79318    37599.264 
  410800    306.40242   -1526.4987    476.37929    328.09164   -20.148687    37599.264 
  410900     296.0098   -1552.1185    473.69569    253.04183   -175.59025    37599.264 
  411000    294.13109   -1539.7249    497.64904    280.93823   -870.03556    37599.264 
  411100     300.0275   -1541.3451    476.65676    284.84808   -590.57383    37599.264 
  411200    294.25398   -1528.6694     475.1661    270.06359   -69.788648    37599.264 
  411300    295.77781    -1522.001    475.94609    284.36621   -108.50149    37599.264 
  411400    296.28914   -1510.8416    495.00668    316.88615   -34.431374    37599.264 
  411500    295.55346    -1510.326    509.92712    329.01304   -151.27084    37599.264 
  411600    291.60865   -1501.1796    486.09095    296.57946   -113.35108    37599.264 
  411700     292.1388   -1487.9502    515.99921    342.10176   -173.78931    37599.264 
  411800    293.94134   -1536.4202    463.79867    249.53909   -382.08072    37599.264 
  411900      310.864   -1561.8178    503.65932    340.12097   -287.59727    37599.264 
  412000    299.29108   -1552.6701    489.00699    282.56084   -849.64857    37599.264 
  412100    295.31382    -1550.716    484.33415    261.95222   -544.14021    37599.264 
  412200    293.86928    -1561.271     485.5004    246.06582   -724.57908    37599.264 
  412300    303.75779   -1549.9432     472.1016    288.47382   -497.88818    37599.264 
  412400    301.35955   -1522.9198    495.70946    328.31763   -137.83066    37599.264 
  412500    304.14939   -1581.8112    469.05092    255.31658   -42.213845    37599.264 
  412600    304.92286    -1523.129    477.27827    325.70522   -36.634275    37599.264 
  412700    302.30313   -1582.7303    446.51605    223.55802    162.41118    37599.264 
  412800    299.67263   -1565.3065     450.1001    232.73376    39.144581    37599.264 
  412900    290.30857   -1549.2213    505.68954    262.28848    389.60802    37599.264 
  413000    296.15877   -1545.8586    458.09427    244.37038     558.8769    37599.264 
  413100    299.99281   -1536.6311    495.61323    308.36252    784.56415    37599.264 
  413200     287.8995    -1557.718    477.56541    214.83156    24.694516    37599.264 
  413300    291.57698   -1526.0689    482.71782     268.1746    619.45141    37599.264 
  413400    306.97346   -1529.6329    506.49098     357.6377    147.44728    37599.264 
  413500     306.3191   -1556.8674     466.2733    287.24226    126.63547    37599.264 
  413600    303.40356   -1588.7653    465.96437    241.92115    -319.5863    37599.264 
  413700     296.7666   -1553.1402    463.64744    245.37601    333.84753    37599.264 
  413800    304.80429   -1532.4779    493.87997     332.4247    814.40391    37599.264 
  413900    292.65685   -1537.7972    482.86556    261.45128    701.08385    37599.264 
  414000    294.95491   -1493.0518    474.33009    307.99792    305.38184    37599.264 
  414100    294.24424    -1512.281    493.55961    304.80165    413.54843    37599.264 
  414200    295.56282   -1535.3648    466.76753    260.85685    359.97607    37599.264 
  414300    303.46951   -1531.5349    517.87448    351.35833    105.41493    37599.264 
  414400     299.0188   -1536.4044    476.36488     284.9597   -128.72466    37599.264 
  414500     297.9981   -1516.1177    504.42961    328.72002   -72.608159    37599.264 
  414600    299.40912   -1505.2151    485.37465    326.91448    155.61414    37599.264 
  414700    299.06349   -1508.1887    474.90503     311.9166   -162.28981    37599.264 
  414800    308.53532   -1517.7108     482.6514     352.7455    358.66388    37599.264 
  414900     293.9407   -1555.9464    476.34363    242.55494    50.621822    37599.264 
  415000    301.74099   -1524.8699    490.32141    322.69522    454.54363    37599.264 
  415100    293.66377   -1526.4253    500.87459    295.36133    654.57839    37599.264 
  415200    310.29935   -1548.2104    486.22927    333.75845    415.17631    37599.264 
  415300    294.39637    -1557.413    471.64882     238.4431    551.24428    37599.264 
  415400    304.32652   -1558.9696    496.13482    306.03878    421.82962    37599.264 
  415500    301.26713   -1562.6139    474.62409    267.12251    486.13549    37599.264 
  415600    293.92487   -1542.8817    498.16256    277.36741    502.64355    37599.264 
  415700    300.97705   -1510.3266    491.37293    334.85388     159.4794    37599.264 
  415800    295.90343   -1516.6778    466.23104    280.53942   -127.64193    37599.264 
  415900    303.40747   -1511.0563    497.24741    350.93069   -439.38015    37599.264 
  416000     302.3593   -1543.0996    483.40546    300.33079   -716.42887    37599.264 
  416100    307.45834   -1518.1662    474.07166    338.86611   -65.855444    37599.264 
  416200    300.83271   -1500.0823     482.1543    335.23025   -116.13878    37599.264 
  416300    302.11677   -1491.2543    496.88107    364.56075    83.237415    37599.264 
  416400     301.8968   -1539.2205    486.07891    304.80297    218.44267    37599.264 
  416500    298.62176   -1515.4497    504.82808    332.59171    191.35411    37599.264 
  416600    308.63126   -1522.4398    490.75145    356.54816    314.84801    37599.264 
  416700     303.2102   -1509.8431    486.91253    340.92177    103.14875    37599.264 
  416800    301.04814   -1509.5069    481.64344     326.2639    481.98506    37599.264 
  416900    305.54831   -1546.8365    454.84007    282.37284    426.73529    37599.264 
  417000      293.148    -1525.805    504.32503    297.11217    386.56499    37599.264 
  417100    305.53005   -1568.3267    480.57618    286.53658    295.09929    37599.264 
  417200    302.80477   -1570.1705    477.72787    269.58605    140.46948    37599.264 
  417300    300.68523   -1553.9993    482.03898    280.53455    608.17697    37599.264 
  417400    299.04093   -1562.3112    453.76278    236.55037    241.47707    37599.264 
  417500    298.32074   -1528.6585    500.54318    313.74403    37.783812    37599.264 
  417600    297.46205   -1492.2132    489.47333    335.25701   -447.48415    37599.264 
  417700    295.40863   -1503.1902    492.84296    318.41336   -482.55729    37599.264 
  417800    294.88628     -1527.34    462.30238    261.37342   -571.19994    37599.264 
  417900    301.45352   -1512.6057    458.78426    302.12926   -626.45074    37599.264 
  418000    304.71033   -1490.6334    496.16241    376.12904   -268.53557    37599.264 
  418100    297.54757   -1499.8817    481.91536     320.4152    376.81695    37599.264 
  418200      297.342   -1510.6019    508.32639    335.18139    724.02753    37599.264 
  418300    290.73532   -1530.2377     477.9481    255.45015    144.31884    37599.264 
  418400    317.93735   -1493.8108    500.41202    436.69685    750.61505    37599.264 
  418500    302.56055   -1484.3382    482.44188    359.03381    660.93468    37599.264 
  418600    297.89502   -1464.2675    474.39801    350.07487    213.34212    37599.264 
  418700    303.15234   -1460.6174     491.9531    394.92781       223.81    37599.264 
  418800    312.57522   -1464.2841    498.06497    439.75741   -136.29054    37599.264 
  418900    307.52777   -1429.0974    494.50644    448.68197    195.72362    37599.264 
  419000    303.61285   -1493.4526    477.27705    349.48795   -85.029057    37599.264 
  419100    307.29487   -1522.2877    482.63755    342.57518    200.14993    37599.264 
  419200    300.27578   -1503.1356    481.29614    328.81374   -51.063505    37599.264 
  419300    303.80673   -1453.6296    509.70796    422.61393    111.16242    37599.264 
  419400    298.05016   -1524.2271    496.93215    313.34728    400.95927    37599.264 
  419500    294.92963   -1466.1673    466.85966    327.29837    834.13708    37599.264 
  419600    300.97743   -1489.1564    508.88935    373.54221    29.773723    37599.264 
  419700    293.77034   -1480.6581    469.61311    310.34651   -800.98474    37599.264 
  419800    300.83392   -1483.3804    459.75072    329.53406   -592.54793    37599.264 
  419900    292.04212   -1495.2078     486.9901    305.40014   -619.97271    37599.264 
  420000    301.60394   -1542.2776    484.39806     298.7478    -491.7567    37599.264 
  420100    299.78157   -1490.7452    510.31658    368.00164    230.57311    37599.264 
  420200    304.40635   -1486.4776    485.79218    368.54727   -234.75216    37599.264 
  420300     298.0957   -1538.4816    476.78005    279.14557   -779.32136    37599.264 
  420400    286.49327    -1477.956     468.1987    278.90158    -617.8055    37599.264 
  420500    307.12141   -1455.3251    492.42132    418.54138   -163.49882    37599.264 
  420600    307.58648   -1477.1236    482.97133    389.38471   -389.95082    37599.264 
  420700    294.98872   -1484.2524    498.33064       340.95   -244.20882    37599.264 
  420800    295.52052   -1496.5364     460.4597    293.18712    626.50606    37599.264 
  420900    306.41143   -1490.0576    501.10965    389.30361    264.50403    37599.264 
  421000    291.68196   -1453.5394    494.13676    352.59515    118.44849    37599.264 
  421100    293.34788   -1462.7187    486.19046    342.96297    516.29682    37599.264 
  421200    295.45607   -1457.8171    506.47778    377.63461    105.57211    37599.264 
  421300    301.69303   -1462.2026    462.42001    357.24544    33.193572    37599.264 
  421400    296.90798   -1461.2955    493.88767    368.09684   -423.51112    37599.264 
  421500    305.11235   -1428.9157    503.81474    447.30727   -243.12454    37599.264 
  421600    303.53487   -1485.5709    456.79256    336.53439    168.92991    37599.264 
  421700    301.74148   -1475.1418    523.76346    405.86764    169.79471    37599.264 
  421800    294.96221   -1479.5625    473.07928    320.26927    217.97334    37599.264 
  421900    311.35602   -1464.7213    492.45379    428.22505    -111.4593    37599.264 
  422000    295.67067   -1500.8309    488.65901    317.76732    -420.6809    37599.264 
  422100     294.0552   -1496.7505    488.76219    314.68437   -287.29948    37599.264 
  422200    303.38014   -1462.3444    485.49136    387.76372   -393.38092    37599.264 
  422300    304.33054   -1464.2361    478.62356    383.27915   -56.935699    37599.264 
  422400    293.42728   -1484.9229    503.22459    338.15004    671.70436    37599.264 
  422500    296.55951   -1494.3537    502.72474    342.30828     188.5806    37599.264 
  422600    299.22792   -1503.6862    466.24605    308.49967    132.87369    37599.264 
  422700    301.13389   -1501.8206    501.67514    354.36753   -481.22823    37599.264 
  422800    293.92493   -1477.8809    501.20671    345.41265   -371.84199    37599.264 
  422900    303.57693   -1489.2584    477.24026    353.48374   -111.15355    37599.264 
  423000    296.11137   -1471.6011     482.7653    343.08572   -415.20472    37599.264 
  423100    303.88166   -1472.5997    480.37273    374.64565    42.278262    37599.264 
  423200    296.11529   -1477.2766    472.21738    326.87988    -398.8875    37599.264 
  423300    288.89311   -1499.1702     517.6824    317.96562    317.54827    37599.264 
  423400    293.53914   -1517.9535    491.81427    294.21229   -41.429122    37599.264 
  423500    295.17186   -1497.4909    497.58345    327.78802   -29.938401    37599.264 
  423600    300.77973   -1517.0851    491.45501    327.28982   -371.42275    37599.264 
  423700    301.37057   -1521.3602    491.76088    325.97829    403.83179    37599.264 
  423800    294.32735   -1502.6832    493.73508    314.94875   -33.149137    37599.264 
  423900    320.64736   -1515.4625     511.7835    438.60642   -325.38538    37599.264 
  424000    297.87252   -1485.6692    511.03664    365.21067    197.04006    37599.264 
  424100     297.7903   -1480.4118    511.02661     370.0882   -276.38772    37599.264 
  424200    304.61062   -1441.3611    504.51031    433.30067   -370.84232    37599.264 
  424300    292.90298    -1454.751    494.03889    356.77787    -276.0182    37599.264 
  424400     308.1528   -1444.3452    535.31166    477.05083    21.599232    37599.264 
  424500    298.67348   -1491.9135    486.98698    338.51944   -165.26213    37599.264 
  424600    295.08135    -1499.608    520.17519    347.85565   -323.86087    37599.264 
  424700    307.60121   -1483.6206    507.27317     407.2559    210.11543    37599.264 
  424800    302.97626   -1481.5395    476.76242    358.02301   -225.73497    37599.264 
  424900    307.86748    -1434.926    511.17438    461.04941   -123.78303    37599.264 
  425000    300.74765   -1451.2508    499.37325    400.89811   -256.64341    37599.264 
  425100    300.48815   -1488.1262    499.89915    363.38137   -711.46802    37599.264 
  425200     305.1945   -1458.6206     506.0127    420.16987   -1011.7809    37599.264 
  425300     299.9443   -1458.8622    505.72824    396.02822   -557.16954    37599.264 
  425400    297.35817   -1422.0647    500.71215    416.17712    10.363245    37599.264 
  425500    300.39269   -1476.7631    502.24323    376.65916   -68.471429    37599.264 
  425600    290.34524   -1544.2695    494.33462    256.05028   -680.74587    37599.264 
  425700    307.06628   -1520.4427    479.12786    339.88229   -283.58317    37599.264 
  425800    298.66783   -1485.1366    477.68006    335.96399   -389.63217    37599.264 
  425900    306.69238   -1475.3538    491.88097    396.04251   -287.80044    37599.264 
  426000    295.50069   -1506.9119    493.51229    315.77497   -319.07665    37599.264 
  426100     291.4324   -1462.6445    537.18738     385.4182    337.48539    37599.264 
  426200    303.54887    -1494.031     476.0425    347.38715    355.33946    37599.264 
  426300    304.87068   -1506.2981    519.61295    384.63608    719.70422    37599.264 
  426400    295.91515   -1522.8712    503.42269    311.59042    266.75964    37599.264 
  426500    307.14608   -1489.9923    496.79585    388.35967    120.38868    37599.264 
  426600     293.2147   -1454.4763    501.95177    366.36766    401.31706    37599.264 
  426700    307.17325   -1451.9091    505.63258    435.40176   -3.2780434    37599.264 
  426800    303.88853   -1445.6364    499.16259     420.4297   -205.21544    37599.264 
  426900     290.7735   -1429.8473    498.88663    376.95082   -110.46627    37599.264 
  427000    307.18666   -1452.5326    512.46943    441.67542   -60.387669    37599.264 
  427100     295.1769   -1473.8313     497.9674    351.85427   -189.48188    37599.264 
  427200    300.44695   -1513.1186    504.21551    342.51999    23.225934    37599.264 
  427300     301.9143   -1471.8523    487.87078    374.04175   -546.90102    37599.264 
  427400    304.10242   -1451.6673    493.08096    409.27926   -274.49277    37599.264 
  427500    303.93142   -1477.3903    503.96459    393.67068   -256.47127    37599.264 
  427600    299.55802    -1472.403    498.95402    373.97574   -38.370321    37599.264 
  427700     301.8091   -1495.5144    469.31304    331.34877    -700.4304    37599.264 
  427800    300.75006   -1487.2124    473.45186    339.02596   -337.24819    37599.264 
  427900    302.83273   -1535.0103    496.12639    323.27047   -151.43553    37599.264 
  428000    297.83351   -1508.5034    469.17549    300.33978   -13.255564    37599.264 
  428100    300.72632   -1485.3816    508.48338    375.78154    9.1921669    37599.264 
  428200    304.89449   -1492.7402    489.94676    368.63488    181.82363    37599.264 
  428300    300.06195   -1509.4513    475.72496      315.965    322.55342    37599.264 
  428400    297.03778   -1489.4694    481.81727    328.43636     459.3385    37599.264 
  428500    294.93656    -1490.037    477.65169    314.25186    355.18815    37599.264 
  428600     295.5634   -1504.3897    508.52378    333.59074    264.20139    37599.264 
  428700    297.38235   -1519.8289    484.76731    302.57684    623.44843    37599.264 
  428800    289.51202   -1532.3921    492.28579    262.13103    1248.4152    37599.264 
  428900    307.97799   -1515.3587    500.85161    370.79094    994.62859    37599.264 
  429000    305.24816   -1488.4285    466.77218    351.36282    703.44617    37599.264 
  429100    310.43275   -1483.9916    478.63801    390.98608    781.10127    37599.264 
  429200    292.92513   -1496.4027    498.87206    320.05904    493.89886    37599.264 
  429300    299.67568   -1467.3346    491.24896     371.8682    607.49669    37599.264 
  429400    313.75474   -1441.9218    507.78959    477.14992    607.51417    37599.264 
  429500     296.5786   -1483.7629    514.19202    364.45222    587.63237    37599.264 
  429600    300.03079   -1484.5637    490.11056    355.09802    329.13098    37599.264 
  429700    300.13261   -1480.0916    466.74654     336.6641    184.12063    37599.264 
  429800    309.71225   -1476.7564    480.76465    397.10709    456.17261    37599.264 
  429900    298.42685   -1477.9711    488.97075    353.33631    384.05394    37599.264 
  430000    299.25348   -1445.6385    523.74277    424.15909    623.82407    37599.264 
  430100    295.66147   -1494.6738    517.31282    352.53681    729.66024    37599.264 
  430200    301.08939   -1495.1966    515.83667    374.95289    741.16295    37599.264 
  430300     309.7108   -1473.5752    509.74807    429.26518     455.2314    37599.264 
  430400    295.05937   -1465.4397     508.3735    370.12329    444.63962    37599.264 
  430500    303.49333    -1475.191    502.30949    392.24436    272.16207    37599.264 
  430600    301.41246   -1457.0246    502.42257    401.16393   -189.21045    37599.264 
  430700    300.61091    -1465.516     501.1951    387.83967    489.48233    37599.264 
  430800    309.44594   -1498.6317     497.4289    390.69817   -137.49931    37599.264 
  430900     299.5075   -1522.8512    479.62247    303.96865   -133.05972    37599.264 
  431000    301.48102   -1515.1624    498.07766    338.98965   -291.82243    37599.264 
  431100    287.11306   -1503.3745     473.9367    262.00896    120.61161    37599.264 
  431200    301.08543   -1518.5477    485.56363    321.31095    675.12496    37599.264 
  431300    296.53802   -1511.1814    514.60787    337.26706    203.80024    37599.264 
  431400    301.34572    -1533.309    489.86198    312.01881   -455.64176    37599.264 
  431500    294.47018   -1528.7913    443.01824    238.76627     367.2735    37599.264 
  431600    307.38851   -1500.5044    505.94155    388.08371    146.64428    37599.264 
  431700    307.84571   -1540.3673    504.64171    348.97749    1163.6973    37599.264 
  431800    308.82107   -1523.6706    495.51393     360.9336    1153.7502    37599.264 
  431900    305.04127   -1549.7355    475.27337    297.62644    634.15607    37599.264 
  432000    298.29952    -1546.563    469.50974    264.71057    570.41101    37599.264 
  432100    305.68935   -1519.7306    507.23522    362.50826   -150.17263    37599.264 
  432200     308.0987    -1481.717    485.30224    389.42623    337.99614    37599.264 
  432300    297.36843   -1541.6417    482.95306    278.88721   -415.48312    37599.264 
  432400    311.94849   -1516.4062    483.95477    370.70613    -545.6623    37599.264 
  432500    293.75819   -1523.4779    508.26649    306.12533   -281.19146    37599.264 
  432600    305.59704   -1484.9958     508.4051    397.99771   -443.49142    37599.264 
  432700     289.5801   -1513.9131    467.25947    255.88989   -435.91297    37599.264 
  432800    300.00759   -1585.6332    490.69337    254.50707   -68.887692    37599.264 
  432900    304.66305   -1541.5678    493.00739    321.82686    453.59039    37599.264 
  433000    297.02532   -1545.2539    483.85113    274.62968    635.27401    37599.264 
  433100     314.0081   -1548.5041    457.06837    320.98598    172.26261    37599.264 
  433200    295.13907   -1540.2708    463.52745    250.80465   -65.690694    37599.264 
  433300    285.91648    -1579.377    494.30106    200.98852    108.03738    37599.264 
  433400    289.43002   -1525.7536    505.41436    281.52927    457.54508    37599.264 
  433500    304.23278   -1519.7179    512.10242    360.83647    490.68421    37599.264 
  433600    296.89544   -1483.3122     519.5238    371.65989    232.97886    37599.264 
  433700    297.02232   -1496.5124    493.29505    332.80163    417.89757    37599.264 
  433800    301.97146   -1492.6716    472.79816    338.40697   -68.233248    37599.264 
  433900     308.1086   -1501.5613    511.66951     395.9938    456.73306    37599.264 
  434000     306.1588   -1541.7343    502.82689    338.20781    662.52517    37599.264 
  434100    308.22462   -1591.6604    479.19217    273.93915    322.11035    37599.264 
  434200    309.90911   -1528.8361    484.89989    350.04804   -370.80262    37599.264 
  434300    302.35292   -1562.2224    477.35263    275.12644    136.62103    37599.264 
  434400    288.86493   -1586.3571    498.80665    211.77624   -315.76102    37599.264 
  434500      295.639   -1572.3018    483.90961    241.40457   -257.01749    37599.264 
  434600    306.64421   -1554.1819    509.06989    334.18664    462.91502    37599.264 
  434700    296.64556   -1573.7937    481.32017    241.85076    47.617693    37599.264 
  434800    305.65156   -1518.1974     498.7725     355.4088    20.964162    37599.264 
  434900    306.21256   -1538.4205    478.83792     317.7745    207.76106    37599.264 
  435000    304.56008   -1541.9472    472.14003    300.11696   -268.48292    37599.264 
  435100    288.71729   -1520.8116    505.24259    283.09358   -131.86991    37599.264 
  435200    284.82878   -1507.9499    509.65336    282.87535    19.946503    37599.264 
  435300    297.62461   -1518.9367    486.62797    306.41941   -152.65713    37599.264 
  435400    299.74076   -1483.3022    518.87141    383.81586    120.72976    37599.264 
  435500     304.2241   -1519.6687     497.6169    346.36108     125.2995    37599.264 
  435600    296.79743   -1494.5665    508.23263    348.67356    207.94949    37599.264 
  435700    299.51623   -1522.7749    497.88114    322.34292    -48.54081    37599.264 
  435800    292.96138   -1527.6261    496.77394    286.90047    285.64996    37599.264 
  435900    303.12341   -1505.7566    497.17408     354.8794    465.78006    37599.264 
  436000    302.75038   -1525.1694    504.88069    341.49534     451.1375    37599.264 
  436100    290.42214   -1502.2968    514.43685    318.47109    2.5516719    37599.264 
  436200    302.23688   -1519.9833    500.33955    339.83054    94.042024    37599.264 
  436300    309.64868   -1535.3188    500.06351    357.55757    665.93892    37599.264 
  436400    302.69876   -1542.8735    505.82063    324.49897   -76.097571    37599.264 
  436500    302.40599    -1540.368    492.31159    312.17851    146.22694    37599.264 
  436600    306.79993   -1558.0043     493.9422    315.93693   -78.413212    37599.264 
  436700    296.94834   -1566.1168    473.78103    243.35049    60.761046    37599.264 
  436800    302.57544   -1559.9024    493.84348    294.93822     544.7465    37599.264 
  436900     302.1268   -1559.1945    506.62892    306.41361    661.55459    37599.264 
  437000    303.07069   -1547.2624    487.89662    303.85897    259.85761    37599.264 
  437100    303.89806   -1545.3884    517.57106    339.12896   -268.43106    37599.264 
  437200    310.13856   -1523.2518    485.40718    357.17179   -360.60203    37599.264 
  437300    299.62709   -1478.6808    481.67848    350.73305   -647.52384    37599.264 
  437400    299.92159   -1477.0963    485.32721    357.29091   -482.40753    37599.264 
  437500    305.12158   -1529.5597    483.29208    326.18212   -345.21433    37599.264 
  437600    297.04697   -1521.0303    490.79699    305.89651    138.00144    37599.264 
  437700    301.87888    -1501.752    502.65116    358.76316    830.99017    37599.264 
  437800    294.02197   -1549.4747    482.17575    255.22431    841.51318    37599.264 
  437900    309.68784   -1573.8131    503.30053    322.47643    707.49801    37599.264 
  438000    295.59744    -1575.426    492.80724    246.99102    1181.6738    37599.264 
  438100    293.99631   -1579.3782    502.48352    245.51318    776.32081    37599.264 
  438200    305.06854   -1572.7931    491.72547    291.14363     1354.864    37599.264 
  438300     298.7733   -1549.2529    482.71685    277.35885    566.81218    37599.264 
  438400    303.05789   -1543.3617     497.0956    316.90112    1265.5283    37599.264 
  438500    294.39395    -1478.942    513.62454    358.87902    273.69866    37599.264 
  438600    291.34438   -1499.7168    512.32951    323.09203    638.82785    37599.264 
  438700    305.46972   -1443.4068    531.75023    462.35913    462.46031    37599.264 
  438800    302.39502   -1461.9258    480.84508    379.10491    236.59173    37599.264 
  438900    302.81556   -1528.6945    485.91902    319.30177    292.22528    37599.264 
  439000    301.78618   -1497.1394    498.40194    358.70956     400.6016    37599.264 
  439100    292.92487   -1523.2707    473.40378    267.72153   -361.36179    37599.264 
  439200    302.27341   -1529.6441    492.07074     322.0652   -455.54306    37599.264 
  439300    302.54189   -1481.2135    490.67495    370.30772   -126.90937    37599.264 
  439400     310.9653   -1512.7516    513.59133    399.57483   -177.98564    37599.264 
  439500    311.34058   -1491.1562     490.4787    399.74562    -231.2937    37599.264 
  439600     314.7521   -1543.0291    505.93091    378.67003   -166.12431    37599.264 
  439700    298.91181   -1558.3532      501.321     287.4858     96.56299    37599.264 
  439800    288.07665   -1518.6429    496.48556     273.6236    119.54646    37599.264 
  439900    307.30361   -1518.9724    496.63023    359.92247   -495.17599    37599.264 
  440000    299.27043   -1488.3302    487.86543    345.66632   -40.038584    37599.264 
  440100     293.9532   -1482.6368    502.04805    341.62521   -173.03329    37599.264 
  440200    293.01772   -1529.6303    483.56611    271.94195   -57.051719    37599.264 
  440300     289.5786   -1526.3928    484.22827    260.37226   -529.99034    37599.264 
  440400    288.40584   -1534.7981    515.70116    278.16482   -71.578375    37599.264 
  440500    297.91425   -1506.5282    466.21151    299.71424    405.64901    37599.264 
  440600    305.10334   -1504.3124    499.40256    367.45788   -274.72487    37599.264 
  440700    305.71538   -1475.1459    486.96606    386.94091    182.66511    37599.264 
  440800    301.05289   -1484.1461    494.25045    364.25296   -597.12037    37599.264 
  440900    296.73662   -1506.7477    497.27046    325.25661    120.14762    37599.264 
  441000     306.0145   -1504.9176    490.63761    362.18615    90.862729    37599.264 
  441100    298.29515   -1534.0325    488.40247    296.11419   -93.565169    37599.264 
  441200    293.42135   -1549.8456    473.09077    243.06686   -170.38357    37599.264 
  441300    303.27943   -1532.7395    499.02022    330.44445    162.96649    37599.264 
  441400    294.53856   -1494.6627    489.15733    319.34155   -78.232677    37599.264 
  441500    295.70432   -1496.9189    506.86736    340.03899   -47.096988    37599.264 
  441600    307.12066   -1513.9711    506.13689    373.60755   -103.13663    37599.264 
  441700    297.70927    -1513.742    491.74794    317.11489   -17.525624    37599.264 
  441800    296.67664   -1519.0408    478.54362    293.96692    209.02359    37599.264 
  441900    306.23344   -1530.3772    516.41287    363.48662    297.88494    37599.264 
  442000     303.3056    -1512.675    512.58744    364.19386    248.89625    37599.264 
  442100     296.6015   -1511.6633    505.45594    327.91874    255.25999    37599.264 
  442200    306.25116   -1556.3207    492.79687    314.00686    411.88305    37599.264 
  442300    286.80923   -1516.3717    521.92307    295.63144    -163.4222    37599.264 
  442400    292.26673   -1544.5151    498.40402    268.51701    1.6665193    37599.264 
  442500    295.45153   -1496.2374    483.40312    316.11916   -325.46705    37599.264 
  442600    295.94602    -1522.888    470.04235    278.33208   -877.76363    37599.264 
  442700    294.95846   -1535.3848    466.68648    258.03734   -420.54725    37599.264 
  442800    305.15896   -1517.4329    516.45087    371.63585   -587.83135    37599.264 
  442900    305.46218   -1513.2814    512.59854    373.29899   -356.72285    37599.264 
  443000    301.30919   -1533.2823    475.95526    297.97442    330.76849    37599.264 
  443100     303.3398   -1587.4387    490.52194    267.51851   -439.13649    37599.264 
  443200    309.66322   -1541.5271    477.63237    328.98358    190.72388    37599.264 
  443300    299.99738   -1544.8397    488.62027    293.18152    1014.2098    37599.264 
  443400     307.6629   -1576.6067    500.85046    308.12447    381.87428    37599.264 
  443500    297.63611   -1560.8346    495.68913    273.63439    354.18594    37599.264 
  443600    302.77154   -1573.0332    501.43463    290.28063     518.0103    37599.264 
  443700    300.23675   -1506.0067    524.13762    368.60853    407.48366    37599.264 
  443800    294.32513   -1516.9009    495.49295    302.47895     566.5546    37599.264 
  443900    296.90233   -1512.6609    501.65357    324.47193   -153.33553    37599.264 
  444000    300.59215   -1545.3874    490.92359    297.61246   -118.03536    37599.264 
  444100      300.802   -1573.8117    477.82424    257.03272   -248.28406    37599.264 
  444200    296.46125   -1567.2917    479.23248    245.43603   -949.54226    37599.264 
  444300    301.35971   -1543.4203    480.94648    293.05493   -751.92686    37599.264 
  444400    311.73665   -1520.9438    474.96319    356.22406   -325.24824    37599.264 
  444500    304.85263   -1515.1749    481.54704    337.61222    -123.3303    37599.264 
  444600    304.78656   -1537.4421    466.68697    300.18778    386.98389    37599.264 
  444700    307.89527   -1513.4712     517.4008    388.85555    447.31986    37599.264 
  444800    296.21255   -1517.7493    507.81246     322.4398    697.29981    37599.264 
  444900     297.3504    -1530.969    498.47023    304.99592    861.92002    37599.264 
  445000    299.08688   -1492.0422    500.39987    353.66311    92.857961    37599.264 
  445100    295.83338   -1509.2738    479.28603    300.68335    246.62234    37599.264 
  445200    306.72349   -1487.1063    524.72059    417.26961    253.92627    37599.264 
  445300    302.10361   -1484.2518    481.29068    355.91371    76.913758    37599.264 
  445400    309.26683   -1487.9436    487.69371    390.84545    274.38592    37599.264 
  445500    298.27337   -1562.1387    475.70988    255.21742    247.41692    37599.264 
  445600    295.53382   -1557.6662    479.03889    250.69636    272.39757    37599.264 
  445700    303.20767   -1550.5591    501.97952    315.26132     226.7748    37599.264 
  445800    296.41699   -1556.3141    503.42706    280.40917    370.80326    37599.264 
  445900    292.68328   -1569.6096    494.88641    241.77859    259.37241    37599.264 
  446000    306.22836   -1536.5313    481.63726    322.53409    24.945631    37599.264 
  446100    312.68453   -1514.1814    498.17137    390.45824   -222.54241    37599.264 
  446200    291.38116   -1533.2072    515.10598    292.54355   -435.92643    37599.264 
  446300    298.68835   -1544.9575    493.25855    291.81386   -251.64759    37599.264 
  446400    304.06087   -1507.2911    486.77136    347.15891    269.29621    37599.264 
  446500    297.21285   -1508.7418    496.77402    324.90825    182.08932    37599.264 
  446600    293.70401   -1526.3415    496.10662    290.85816   -23.543132    37599.264 
  446700    301.37279   -1522.9966        477.2    309.79097   -50.305584    37599.264 
  446800    290.28552   -1528.1273    492.06305    269.65236    -117.0744    37599.264 
  446900    301.26471   -1558.8751      476.654    272.88029   -3.0340493    37599.264 
  447000    305.89676   -1521.5745    491.70284    346.06494    131.58519    37599.264 
  447100    286.89307   -1536.7664    485.98097     239.6718    257.29417    37599.264 
  447200    311.61742   -1577.1369     507.5666    332.09804    361.36057    37599.264 
  447300    293.19324    -1564.012    489.84015    244.62378   -2.1388301    37599.264 
  447400    304.77945   -1560.0007    489.75768     300.6678    155.98385    37599.264 
  447500    296.93257   -1597.9414    491.11406    228.78798    212.92107    37599.264 
  447600    298.68337   -1570.8113    484.57596    257.25508    782.04468    37599.264 
  447700    303.66882   -1564.7235    482.72432    283.91597    1013.9313    37599.264 
  447800    297.39349   -1541.9281    525.03936    320.79972    1022.5512    37599.264 
  447900     297.6508   -1557.5698     477.4051    258.68125    1066.8933    37599.264 
  448000    305.54101   -1535.0376    489.51028    328.80904    1345.3033    37599.264 
  448100    303.16282   -1546.9639    479.98284    296.65812    125.32346    37599.264 
  448200    299.72318   -1525.6725    474.27522    296.77027    4.0186612    37599.264 
  448300    303.09911   -1541.2667    505.21337    327.29933   -639.02974    37599.264 
  448400    306.51613   -1516.0621    503.63983    366.30033   -600.47601    37599.264 
  448500    301.60743   -1501.1534    497.77565    353.26528    -810.0457    37599.264 
  448600    302.37554   -1490.4224    534.26629     403.9419   -563.59718    37599.264 
  448700    294.66927    -1530.188    498.20891    293.45577   -377.74282    37599.264 
  448800    298.09238   -1533.9823    497.33887    304.18875     138.8734    37599.264 
  448900    291.52483   -1480.4787    490.86485    321.67717    85.885291    37599.264 
  449000    297.93698   -1550.0841    517.41577    307.46487    14.427301    37599.264 
  449100    297.36376   -1537.7565    474.19946    273.99778    218.80808    37599.264 
  449200    305.74127   -1497.2383    489.88621    367.88511    332.66083    37599.264 
  449300    297.11554   -1509.0003    517.99425    345.43228    282.77289    37599.264 
  449400    295.79494   -1513.0766    496.87884    314.30043   -199.50918    37599.264 
  449500    302.35455     -1495.13    521.35415    386.22771   -318.39145    37599.264 
  449600    305.52803   -1506.8393    463.22329    330.66204   -496.37466    37599.264 
  449700    298.01624   -1478.1817     523.6753    385.98331    -400.6792    37599.264 
  449800     295.6238   -1530.1861    479.76122    279.30351   -421.68578    37599.264 
  449900    308.53701   -1546.7342    495.44446    336.52276   -68.854921    37599.264 
  450000     302.7685    -1541.759    497.27545    317.38196   -501.94359    37599.264 
  450100    312.20319   -1518.7778    499.21392    384.73928    31.031033    37599.264 
  450200    301.95508   -1532.3375    499.40992    325.27918   -265.58641    37599.264 
  450300    299.09684   -1516.2058    496.11027    325.25471   -160.43817    37599.264 
  450400    301.05013    -1491.397    470.70231    333.44155   -40.937258    37599.264 
  450500    306.15115     -1507.72    520.15158    389.51247   -304.18141    37599.264 
  450600    304.11367    -1501.026    498.92457    365.81473    -265.4815    37599.264 
  450700    300.39051   -1475.8957    482.46671    357.74029   -336.44665    37599.264 
  450800    302.82167   -1522.0275    514.29702    354.37426   -91.368507    37599.264 
  450900    299.35126   -1561.0726    474.01365    259.43574   -36.942123    37599.264 
  451000    292.51286   -1517.6315    470.42796    268.53172    334.26587    37599.264 
  451100    293.99027   -1559.4112    498.65948    261.62891    33.624847    37599.264 
  451200    296.70287   -1517.4513    498.93319    316.06401    69.530769    37599.264 
  451300    298.93473   -1495.2406     494.5546    343.93506   -176.76429    37599.264 
  451400     290.5156   -1510.1481    497.13763      293.741   -64.386646    37599.264 
  451500    308.66832   -1519.3137    481.95832    351.04783    616.37165    37599.264 
  451600    302.04284   -1527.1459    495.70716    327.16275     557.7124    37599.264 
  451700    299.78031   -1538.2978    474.39721    284.52397    74.611319    37599.264 
  451800    294.52746   -1529.3106    487.86818    283.35456   -99.451761    37599.264 
  451900    294.33917   -1509.3112    486.79897    301.43788   -419.40595    37599.264 
  452000    295.92862   -1544.4368    490.16643    276.82906   -482.84327    37599.264 
  452100    295.82431   -1573.0102    475.94284    233.56289   -465.47082    37599.264 
  452200    294.18225   -1541.8734    497.77336    279.14422   -574.57364    37599.264 
  452300    298.05691    -1513.603    477.03581    304.10541   -542.11728    37599.264 
  452400    315.69064    -1517.603    480.22782    382.61469   -144.45191    37599.264 
  452500     301.7502   -1540.4977    491.90526    308.69277   -221.91994    37599.264 
  452600    303.09019   -1532.1151    476.50793    307.70538   -204.59951    37599.264 
  452700    306.43268    -1492.237    486.25277    372.36293   -339.58918    37599.264 
  452800      304.916   -1515.9001    505.25551    360.88046   -395.64976    37599.264 
  452900    298.72687   -1464.6656    492.93523    371.95574    -86.25816    37599.264 
  453000    300.10463   -1482.9642    512.20462    379.12373   -16.088247    37599.264 
  453100    306.57694    -1459.048    472.65239    392.60048    217.35705    37599.264 
  453200    303.01102   -1441.5105     513.4701    434.91607    318.33772    37599.264 
  453300    290.76491   -1462.2301    502.93343    348.57621    152.34507    37599.264 
  453400    297.53283     -1443.88    497.52131    391.95659     79.78287    37599.264 
  453500    304.88298   -1474.4665     519.6754    416.58542   -164.82199    37599.264 
  453600    291.52364   -1461.2858    514.06666    364.06655    246.49623    37599.264 
  453700    296.90779   -1487.5491    499.01174    346.96643    80.424061    37599.264 
  453800    297.48663   -1450.2343    487.85947    375.73265    15.812657    37599.264 
  453900     300.4084   -1492.0392    504.80354    364.01409   -512.60799    37599.264 
  454000    295.69689   -1486.2639    497.07937    340.87265   -217.53385    37599.264 
  454100    302.42289   -1497.4114    503.72708    366.62668   -6.2739615    37599.264 
  454200    303.89557   -1503.2053    503.04027    366.77014    12.004825    37599.264 
  454300    299.87048    -1550.195    476.48015     275.1153   -277.16484    37599.264 
  454400    296.90445   -1518.7665    489.20866    305.93096    37.584806    37599.264 
  454500    306.43853   -1502.6669    473.58351    349.29011   -590.54347    37599.264 
  454600    308.27401   -1519.1317    474.16229    341.66013   -259.39472    37599.264 
  454700    305.17535   -1529.3341    490.99849    334.35599   -650.02783    37599.264 
  454800    298.51692   -1515.1671    481.36136    308.93603    -168.6315    37599.264 
  454900    304.44424   -1520.9687    496.21175    344.64617    -179.5299    37599.264 
  455000    309.74626   -1509.7268    499.75787    383.28285   -34.682629    37599.264 
  455100    292.56779    -1505.977    491.95916    301.96453    180.29364    37599.264 
  455200    303.27443    -1518.031    477.55936    323.66957    90.485463    37599.264 
  455300    307.31763   -1508.4234    509.06356    382.96789    621.62526    37599.264 
  455400    296.35542   -1551.9124    488.80972    269.91656    470.38218    37599.264 
  455500    302.95035   -1512.2873    477.80598    328.20223    197.58156    37599.264 
  455600    297.03783   -1579.0937    476.64976    233.64482    102.93946    37599.264 
  455700    302.51988   -1541.0923    483.65743    303.31232     101.6363    37599.264 
  455800    307.54911   -1544.2338    477.67451    316.80962     109.9836    37599.264 
  455900    307.05856   -1568.3396    464.82783    277.65064    33.074747    37599.264 
  456000     296.7769   -1528.2169    487.41264    294.11077    437.86275    37599.264 
  456100     306.8376   -1521.0798    464.87985    323.96858     26.64109    37599.264 
  456200    298.32093   -1540.8357    469.24671    270.27123     -204.385    37599.264 
  456300    299.59666   -1536.3288    498.68732    309.95696   -57.191832    37599.264 
  456400    301.32741   -1527.3495    475.30692    303.34084   -78.059657    37599.264 
  456500    295.42404   -1531.7694    469.86733    266.92781    -191.0956    37599.264 
  456600    302.70565    -1490.191    497.99062    369.38247   -382.62953    37599.264 
  456700     298.9244   -1499.5151    495.09402    340.15352    -222.2716    37599.264 
  456800    306.38377   -1492.3224    491.59381    377.39861   -557.04327    37599.264 
  456900    298.60742   -1502.5827    498.99201    339.55812    -402.4088    37599.264 
  457000    297.93569   -1489.9485     489.4767     339.6555   -347.19758    37599.264 
  457100    295.67768   -1525.4813    489.30367    293.79312    139.17706    37599.264 
  457200    307.43071   -1488.5939    490.58682    384.82922   -307.24465    37599.264 
  457300      302.385   -1522.7932    465.22219    302.56951   -102.82486    37599.264 
  457400    297.77283   -1532.9265     482.3539    288.82225   -480.25573    37599.264 
  457500    291.21369     -1518.37     482.7045    274.22602   -417.04737    37599.264 
  457600    304.18436   -1538.9938    491.38428    320.62467   -252.78824    37599.264 
  457700    297.16667   -1542.3355    482.99877     277.3316    275.18267    37599.264 
  457800    301.12623   -1532.8244    504.52579     326.1799     248.3516    37599.264 
  457900    304.16284   -1512.9993    475.35014    330.48819    43.268116    37599.264 
  458000    287.15194   -1521.5912    477.66624    247.69663    122.02339    37599.264 
  458100    299.57256    -1523.968    488.39143    311.91349   -469.40874    37599.264 
  458200    302.08349   -1517.8191    468.11608    309.08127      247.316    37599.264 
  458300    303.96143   -1525.9849    495.82648      337.073    129.87527    37599.264 
  458400    288.14424   -1537.8805    469.51787    227.72235   -120.13017    37599.264 
  458500    297.48032    -1540.673    473.94477    271.35086   -17.730088    37599.264 
  458600    305.77942    -1541.351    479.25559    313.31341    215.27034    37599.264 
  458700    306.41059   -1499.9925    478.28742    356.54274   -51.260758    37599.264 
  458800     296.7454   -1520.0178     468.7902    283.54578   0.53496231    37599.264 
  458900    299.88043   -1543.9837    474.59026    279.48143   -216.52792    37599.264 
  459000    296.79829   -1552.3226    453.35393    236.04259    15.277998    37599.264 
  459100     290.6127   -1510.7728    477.35725    273.77272   -1.1449776    37599.264 
  459200    294.23229   -1474.5349     483.6748    332.60921   -307.45324    37599.264 
  459300    305.41873   -1467.7603    476.12515    382.15125   -13.615568    37599.264 
  459400    308.63553   -1476.0638    462.29953    374.49137    62.424269    37599.264 
  459500    296.25931   -1478.4248    484.68694    338.84912    235.33193    37599.264 
  459600    298.62273   -1498.4497    483.31174    328.07968    429.68561    37599.264 
  459700    310.26548   -1488.2916    471.90406    379.19968    77.273039    37599.264 
  459800    300.79918    -1477.911    496.34214    371.43861   -75.082326    37599.264 
  459900    291.55506   -1450.9077    482.65175    343.17108   -400.34549    37599.264 
  460000    303.35057   -1492.0043    463.97906    336.45848     63.11193    37599.264 
  460100    302.78739   -1506.5996    483.54741    338.89833    213.14619    37599.264 
  460200    301.48705   -1506.5765    491.60915    341.13419   -53.845917    37599.264 
  460300    302.26452   -1499.2478    495.85946    356.21024    14.450684    37599.264 
  460400    303.67772   -1511.8682    440.29588    294.38291   -377.40084    37599.264 
  460500    298.35687   -1500.5451    483.26302    324.73974   -782.07856    37599.264 
  460600    307.42305   -1497.3575    454.77681    340.22115   -302.77969    37599.264 
  460700     308.4687   -1505.6793    483.00166    364.82766    495.46419    37599.264 
  460800    286.86531   -1530.8665    499.33354    258.79936   -59.504907    37599.264 
  460900     294.8069   -1504.6511    468.61791    290.02071     267.2695    37599.264 
  461000    287.50708   -1525.0186    483.03275    251.23316    268.38962    37599.264 
  461100    300.47337   -1544.6616    504.11107    310.99139    123.94693    37599.264 
  461200    296.88334   -1509.6266    455.82971    281.59699   -160.84082    37599.264 
  461300    305.97836   -1512.3654    459.89787    323.83612   -234.09853    37599.264 
  461400    294.49078   -1540.2623    474.00076    258.37046   -548.25911    37599.264 
  461500     291.8058   -1505.8224    466.48354    273.21605   -643.28888    37599.264 
  461600    296.13875   -1502.3821     512.3678    342.03034    398.37603    37599.264 
  461700    295.41379   -1543.4222    483.99111    269.35266   -412.10521    37599.264 
  461800    296.17052   -1497.0849     510.7211    345.82371   -96.122608    37599.264 
  461900    292.76567   -1471.6752    487.18948    332.38669   -1071.3233    37599.264 
  462000     312.2169   -1486.6303     483.2454    400.97994   -684.31734    37599.264 
  462100     297.8628   -1479.1219    464.52096    325.19852   -555.36672    37599.264 
  462200    301.55272   -1483.7853    492.21693    364.82856   -120.57757    37599.264 
  462300    296.53424   -1515.9444    470.81879    288.69794    118.31933    37599.264 
  462400    302.55953   -1505.0858    476.17383    332.01361    686.84564    37599.264 
  462500    296.92023   -1473.7052    483.05596    344.91056    642.71642    37599.264 
  462600    312.77109   -1508.5769    464.40956    362.69026    645.85305    37599.264 
  462700    307.96934   -1507.3963    480.81758    358.68041    762.51316    37599.264 
  462800    298.09468     -1479.88    457.33598    318.29845    575.93985    37599.264 
  462900    304.69872    -1468.029    508.06372    410.58248    24.108008    37599.264 
  463000    294.36242    -1491.745    464.40925    296.71892   -352.42043    37599.264 
  463100    302.07419   -1479.4287    484.28763    363.60148    4.1049261    37599.264 
  463200    286.84093   -1496.8148    499.23217    292.64002    135.12258    37599.264 
  463300    305.69535    -1531.283     470.2015    313.94915   -221.92749    37599.264 
  463400    303.97257   -1512.9243    477.42107    331.77823   -124.49611    37599.264 
  463500    292.21029   -1516.8817    471.09868    268.59123   -1140.7692    37599.264 
  463600    301.13951   -1480.2962    450.02522    324.26734   -648.31261    37599.264 
  463700    299.94367   -1483.6726    497.02332    362.51005   -567.46484    37599.264 
  463800    290.48853   -1449.1553    475.96508    333.43954   -391.74514    37599.264 
  463900    298.19928   -1478.1024    482.19923    345.40982     -741.297    37599.264 
  464000    288.34271   -1499.6617    497.42049    294.73654   -696.95873    37599.264 
  464100    302.73343   -1480.3359    489.37714    370.74907   -607.21604    37599.264 
  464200    306.79416   -1532.1442    479.60111    327.42999   -379.25027    37599.264 
  464300    303.07293   -1545.7884    457.48242     274.9289   -866.82623    37599.264 
  464400    303.08281   -1504.2287    475.16614    334.21674   -692.69984    37599.264 
  464500     293.0198   -1495.4244    461.18759     283.7787   -134.89094    37599.264 
  464600    284.76064   -1504.6243    492.65869    268.89979   -629.70073    37599.264 
  464700    299.84005   -1485.7871    483.61915    346.52528    132.12693    37599.264 
  464800    304.76455   -1513.7533    497.29391    354.38448    303.53891    37599.264 
  464900    300.67866   -1505.8965    489.27736    335.84618   -182.43135    37599.264 
  465000    294.60215    -1442.421    462.81538    345.52733    92.701155    37599.264 
  465100    307.33769   -1544.1287     476.4055    314.69476   -80.449294    37599.264 
  465200    294.99794   -1491.1353    493.75371     329.5316    200.42672    37599.264 
  465300    293.99866   -1460.7031    453.21689    314.93223    156.28864    37599.264 
  465400    305.86301   -1466.0463     494.1137    403.85222    3.8013346    37599.264 
  465500    285.58077   -1464.2895    474.71738     294.9823   -239.78734    37599.264 
  465600    301.67235   -1514.6493    479.41332    321.69902    40.616406    37599.264 
  465700     299.8531   -1492.1956     483.5278     340.0841   -445.16848    37599.264 
  465800    300.52747   -1484.7984    470.07549    337.06233   -479.86186    37599.264 
  465900     296.2915   -1458.6491    472.40396    346.48653   -76.310375    37599.264 
  466000    309.48659   -1532.4466    468.89677    328.53397   -507.07365    37599.264 
  466100    305.06419   -1511.2655    476.04181    336.96795    239.88933    37599.264 
  466200    299.30874   -1500.0656    484.94663    331.18445    18.463039    37599.264 
  466300    287.06142   -1505.8634    485.31804    270.66907   -60.257975    37599.264 
  466400    291.50982   -1445.8605    495.48247    360.84553    -42.83038    37599.264 
  466500    293.29235   -1497.4901    478.09728    299.84856   -368.46827    37599.264 
  466600    303.93193   -1506.3701    478.36981    339.09842   -273.21762    37599.264 
  466700    288.43443   -1456.7803    477.60719    318.21717   -654.63762    37599.264 
  466800     310.0739   -1452.9552    457.85347    399.62386   -72.391581    37599.264 
  466900    303.49954   -1449.3409    489.22106    405.03398   -224.80781    37599.264 
  467000    304.16713   -1476.0315    468.69667     360.8218    -65.13999    37599.264 
  467100    297.00483   -1496.4367     473.9302    313.43375   -77.528652    37599.264 
  467200    295.59074   -1484.9609    465.70543    310.32414    246.31228    37599.264 
  467300    290.84775   -1459.5985    470.86733    319.51438   -175.11522    37599.264 
  467400    301.45236   -1467.3379    461.61223    350.21979   -959.30986    37599.264 
  467500     307.2171   -1445.7475    491.85011    427.97811   -378.34101    37599.264 
  467600    295.21129   -1461.1324    476.55689    343.29736    -136.7443    37599.264 
  467700    306.49995   -1486.8675    471.95686    363.73911     8.835663    37599.264 
  467800    310.07499   -1484.4361     458.5131    368.80741    207.76983    37599.264 
  467900    304.69882   -1483.2231    480.69824    368.02333   -89.227879    37599.264 
  468000    299.82241   -1434.6242    500.50117    414.49082    69.219489    37599.264 
  468100    302.26155   -1432.9422    480.80293    407.44597   -537.29018    37599.264 
  468200    310.22222   -1474.4827    485.92254    406.83253    -792.9878    37599.264 
  468300    302.89488   -1449.2761    492.62383    405.78171   -11.249319    37599.264 
  468400    291.00691   -1447.3881    508.96523    370.53852   -168.58804    37599.264 
  468500    299.27408   -1481.2707    472.55021    337.42698    41.570198    37599.264 
  468600    298.31273   -1521.9252    467.25854    287.15666    195.27194    37599.264 
  468700    304.00906   -1486.5295    484.47975    365.39589    370.29754    37599.264 
  468800    299.43867    -1515.863    475.60898    306.63379    409.29797    37599.264 
  468900    294.13448   -1533.1876    470.33992    260.18167     356.9898    37599.264 
  469000    287.93932   -1494.7895    490.53975    290.91353    404.94158    37599.264 
  469100    297.30129   -1505.8379    482.11139    313.54728    79.863649    37599.264 
  469200     303.7719   -1541.3013    462.91509    287.99271   -35.263396    37599.264 
  469300    310.28925   -1553.9019    482.21675    324.00906   -71.542422    37599.264 
  469400    287.58929   -1492.8869    478.62811    279.32999   -283.12363    37599.264 
  469500    293.39732   -1529.9736    471.47884    261.21879   -450.10121    37599.264 
  469600    284.80098   -1461.4046     525.0451    344.68732    200.17593    37599.264 
  469700    298.47169   -1487.0462    467.46118     322.9533    556.71883    37599.264 
  469800    297.26183   -1485.5193    517.87083    369.44783    -335.7054    37599.264 
  469900    294.51248    -1461.743    485.28824    348.27489    384.06719    37599.264 
  470000    301.74322    -1490.956    513.76356    380.06138    490.30706    37599.264 
  470100    296.93315   -1470.8784    489.76252    354.50204   -136.52097    37599.264 
  470200    298.30114   -1492.5847    487.74387    336.93035    382.92888    37599.264 
  470300    299.43743   -1463.3133    494.02625    377.59525    424.13714    37599.264 
  470400    298.92628   -1486.4553    491.72184    349.84957    565.68696    37599.264 
  470500    291.51156   -1495.9568    496.39256    311.66713     51.59827    37599.264 
  470600     304.0033    -1509.573    483.90141     341.7481    468.43482    37599.264 
  470700    301.66799   -1508.2399    503.16249    351.83794     259.9449    37599.264 
  470800    296.76186   -1498.7279    490.77388    326.89337    202.82797    37599.264 
  470900    297.33269   -1527.0965    531.33073    341.64924    279.27625    37599.264 
  471000     299.4344   -1492.3355    482.17928     336.7124     255.7635    37599.264 
  471100    289.83547   -1518.9512    496.27546    281.01646    19.727789    37599.264 
  471200    296.17533   -1536.1499    493.88883    289.94815   -235.54577    37599.264 
  471300    302.53214   -1499.4965     494.5855    355.89143    100.90842    37599.264 
  471400    295.28975   -1514.1882     487.6139     301.6515    164.31273    37599.264 
  471500    306.23915   -1496.0431    499.20145      380.635   -130.57348    37599.264 
  471600      300.232   -1529.8634    490.94948    311.54238   -513.66582    37599.264 
  471700    308.57964   -1503.9761    472.56023    356.58846   -936.20779    37599.264 
  471800    292.38221   -1512.7788    473.04401    275.41283   -122.27431    37599.264 
  471900    307.37201   -1506.3306     474.2451    350.48678   -510.84933    37599.264 
  472000    300.35916   -1497.8646    476.97565     330.1393   -52.687702    37599.264 
  472100     298.7117   -1503.4485    511.97096    352.14038   -930.19937    37599.264 
  472200    295.58311   -1503.5417    503.16676    329.17036   -1266.4175    37599.264 
  472300    295.95776   -1497.5107    508.93945    342.65926   -916.04488    37599.264 
  472400    308.70231   -1503.7609    482.83777    367.63296   -519.20345    37599.264 
  472500    302.17017   -1506.0249    494.46985     347.6192   -492.50356    37599.264 
  472600    309.12695   -1518.1836    500.89909    373.18156    80.990075    37599.264 
  472700    295.72921   -1486.3637    515.06776    358.90658    -272.7884    37599.264 
  472800    295.50307   -1483.8773    492.97174     338.2798   -210.39953    37599.264 
  472900    312.69491   -1522.5726    511.17628     395.1186    63.719764    37599.264 
  473000    309.89747   -1555.2168    497.42512     336.1403    252.11205    37599.264 
  473100    294.34384   -1530.6733    488.45748    281.75527    220.42171    37599.264 
  473200    301.55517   -1544.9765    500.27056    311.70193    464.29493    37599.264 
  473300    291.83265   -1526.2634    514.17937    300.59159    357.44214    37599.264 
  473400    296.35429   -1510.1614    485.00252    307.85523    659.48281    37599.264 
  473500    304.14215    -1505.216    512.68854    375.51683    385.12638    37599.264 
  473600    301.04709   -1492.7417    479.40479    340.78565    98.842303    37599.264 
  473700    296.42595   -1543.7993    514.52397    304.06115   -53.102218    37599.264 
  473800    296.52724   -1461.9394    488.38926    360.24199    270.94664    37599.264 
  473900     295.8935   -1473.1837    498.76509    356.52294   -138.19058    37599.264 
  474000    296.47532   -1468.9074    486.42198     351.0731     282.9115    37599.264 
  474100    292.94783   -1493.3734    472.29826    296.61663    209.52338    37599.264 
  474200    297.39909    -1474.121    519.18359    382.77625    13.146857    37599.264 
  474300    303.99999    -1478.529    508.65593    397.53177    142.43593    37599.264 
  474400    295.84035   -1540.4062    508.83884    299.13511     276.9752    37599.264 
  474500    297.26732   -1501.1598    483.59242    319.55364   -175.17279    37599.264 
  474600    304.36627   -1478.4674    518.49523    409.08022   -71.411933    37599.264 
  474700    302.75607   -1502.4794    537.01734    396.34753    34.162656    37599.264 
  474800    294.30816    -1508.542    483.33802    298.60654   -361.02081    37599.264 
  474900    296.34014   -1572.1861    493.59185    254.35628   -201.59663    37599.264 
  475000    307.44159   -1569.5489    477.63645    290.97282   -204.44472    37599.264 
  475100    306.48998   -1541.9309    470.58604    307.26004    -275.3505    37599.264 
  475200    289.31285   -1527.2935    526.44011    300.48805   -61.043166    37599.264 
  475300     307.8689   -1532.8504    480.36633    332.32333    167.48884    37599.264 
  475400    296.81237   -1495.3509    499.05875    338.78253   -49.392956    37599.264 
  475500    300.25182   -1497.2684    506.63306    359.91008    -405.7914    37599.264 
  475600    283.36118   -1511.5925    464.86315    227.84127   -919.81861    37599.264 
  475700    308.05667   -1528.7658    483.46106    340.34725   -151.97317    37599.264 
  475800    301.72262   -1529.5908    502.94496    330.51523    157.58049    37599.264 
  475900    297.74167   -1554.0007    500.38607    285.64001    18.640967    37599.264 
  476000    300.73865   -1578.2434    486.37791     260.8697     415.8451    37599.264 
  476100    305.19656   -1570.0528    481.82332    284.55764    81.332017    37599.264 
  476200    294.91212   -1566.7422    475.53732    235.32231    95.536905    37599.264 
  476300    302.36958   -1532.2335     530.3004    358.13807    572.07788    37599.264 
  476400    299.95426   -1562.8905    479.45448    265.77101    42.536137    37599.264 
  476500    292.94303   -1513.3515    522.17735    326.49603    372.38583    37599.264 
  476600    302.37484   -1543.7877    490.85336    307.16054    736.72237    37599.264 
  476700    296.46881   -1544.5793    501.12863    290.07855   -362.13081    37599.264 
  476800    304.04504   -1518.3639    500.27089    349.51448   -624.08737    37599.264 
  476900    309.53413   -1518.5855    489.58858    363.30077   -197.71648    37599.264 
  477000    290.65465   -1537.3476    474.46243    244.49177   -660.44595    37599.264 
  477100    297.42376   -1517.4666    470.51156    290.86959    160.32735    37599.264 
  477200     300.3636   -1498.4342    529.11723     381.7312   -246.89203    37599.264 
  477300    296.19056    -1482.029     501.9144    352.16311    141.23888    37599.264 
  477400    302.93428   -1505.9193    489.72794    346.41987    270.29125    37599.264 
  477500    288.22821   -1490.8251    488.00202     293.6396    299.25973    37599.264 
  477600    299.57148    -1533.708    489.19107    302.96832   -152.95319    37599.264 
  477700     291.0186   -1480.6857    506.08182    334.41015   -813.18868    37599.264 
  477800    303.42043   -1481.0412    480.27372    364.03047   -184.79008    37599.264 
  477900    298.42834   -1480.5093    476.08478    337.91879     401.7842    37599.264 
  478000    314.68516   -1540.6108    483.96904    358.82539    200.28304    37599.264 
  478100    295.90868   -1502.1014    489.95655    318.86494   -23.138573    37599.264 
  478200    303.54152   -1501.6329    498.53065    362.24036     478.9131    37599.264 
  478300     306.3462   -1482.4628    480.43859    375.93396    389.03575    37599.264 
  478400    298.27872    -1496.079    480.88036    326.47168   -573.84617    37599.264 
  478500    306.92927   -1510.3975    486.28453    356.46794   -384.86162    37599.264 
  478600    296.84089   -1484.1402    487.57253    338.63523   -842.55868    37599.264 
  478700    296.18971   -1472.4646    465.50521    325.31444   -428.51289    37599.264 
  478800    297.16148    -1501.136    494.54399     330.0529   -263.84088    37599.264 
  478900    304.27793   -1467.4403    488.39421    389.60891    216.09449    37599.264 
  479000    290.70152   -1493.1261    520.77449    335.23617    591.33067    37599.264 
  479100    289.36516    -1504.192    486.79017    284.17494   -244.70219    37599.264 
  479200    290.42366   -1511.6269    500.05198    294.76303    332.21655    37599.264 
  479300    301.73729   -1491.8093    509.49436    374.91216    434.79031    37599.264 
  479400    297.90388   -1511.0482     481.6506    310.58671    420.10984    37599.264 
  479500     317.2653   -1525.1935    488.61859    390.49786    169.48586    37599.264 
  479600    304.10007   -1528.6198    513.51916    352.75431    486.91075    37599.264 
  479700    290.57389   -1548.7409    473.21682    231.48958   -289.52982    37599.264 
  479800    299.25373   -1566.9613    479.40192    258.49659   -404.08196    37599.264 
  479900    302.26922   -1564.9317    510.73772    305.42579      34.0504    37599.264 
  480000    308.00695   -1530.2613    473.51766    328.68467   -350.43058    37599.264 
  480100    303.76938   -1506.8571    507.75569    367.26609   -660.20052    37599.264 
  480200    304.76479   -1537.7181    477.48687    310.61368   -1161.8975    37599.264 
  480300    302.37787   -1517.5025    511.27378    353.87979   -705.32701    37599.264 
  480400    294.03769   -1525.2739    473.51644    270.83651   -661.12625    37599.264 
  480500    295.68531   -1552.0459    481.46881      259.428    -328.3883    37599.264 
  480600    290.39779   -1563.7118    495.09163    237.60142   -66.393284    37599.264 
  480700    298.09215   -1571.0837    471.01068    240.75814    581.76673    37599.264 
  480800    298.09935   -1536.7843    481.37381    285.45299    208.74889    37599.264 
  480900     300.2118   -1510.1296    470.22028    310.45602    372.56675    37599.264 
  481000    303.08697    -1571.932     508.7112    300.07725    660.89089    37599.264 
  481100    299.62756   -1566.4767    474.79619    256.05695    250.09707    37599.264 
  481200    315.08373   -1524.8198    491.94531    384.38548    93.776111    37599.264 
  481300    303.06021    -1547.503    459.09119    274.76583    86.675097    37599.264 
  481400    300.42783   -1585.1515    474.15216    240.33782    483.22182    37599.264 
  481500    301.15266   -1553.2559    534.66308    336.00455   -2.0567073    37599.264 
  481600    293.12218   -1529.8328    485.92991    274.57309   -163.62597    37599.264 
  481700    292.81197     -1537.44     475.9965    255.63715   -227.89376    37599.264 
  481800    291.23182   -1564.0994    473.93345    219.80712   -219.04915    37599.264 
  481900    302.21905   -1556.1446    472.51388    275.76337    38.410492    37599.264 
  482000    298.67376   -1536.6829    490.87988    297.64425    -144.6275    37599.264 
  482100    306.54744    -1500.137    501.11096    379.83729    161.98208    37599.264 
  482200     305.9186   -1518.8107    483.68258    340.90673    206.34069    37599.264 
  482300    297.51895    -1476.706    497.38448    358.93135    133.95608    37599.264 
  482400    297.88781   -1489.9999    490.82801    340.74013   -191.55495    37599.264 
  482500     293.8993   -1498.9683    512.66994    335.67311    341.38993    37599.264 
  482600    296.10976   -1478.7463    494.08115     347.2491    531.00377    37599.264 
  482700    291.93413   -1486.4336    505.52696     332.2255    219.33861    37599.264 
  482800    298.67623   -1446.4123    502.72081    399.76688    661.56775    37599.264 
  482900    296.05546   -1473.0031    501.80665    360.47354    551.55791    37599.264 
  483000    291.21795   -1496.8653     472.3923    285.43766   -34.687012    37599.264 
  483100    297.34186   -1504.0686    492.04971    325.43742    230.53373    37599.264 
  483200    309.24871   -1502.2137    495.37899     384.1791   -282.72491    37599.264 
  483300     296.5416   -1488.0081    469.37815    315.22675   -185.25428    37599.264 
  483400    293.42925   -1504.5486    479.89368    295.20232   -409.06485    37599.264 
  483500    288.44941   -1528.5339    476.93285    245.85658    -86.56948    37599.264 
  483600    300.90729   -1486.4668    522.61959    389.64654     -484.948    37599.264 
  483700    294.37575   -1479.3121    464.51384    309.31632   -1.2985327    37599.264 
  483800    299.58431   -1459.6751    499.21612    387.08399    767.57584    37599.264 
  483900    297.11869   -1463.5493    513.57358    386.47677    313.68035    37599.264 
  484000    304.88085    -1504.023     476.9883    344.33225   -14.517749    37599.264 
  484100    295.25195   -1536.5924    491.86504    283.32848   -300.55714    37599.264 
  484200    310.07157   -1530.8478    472.65314    336.52036   -929.94978    37599.264 
  484300    304.83127   -1499.9106    478.45621    349.68958   -1161.0426    37599.264 
  484400     295.7551   -1502.0462    504.53495     332.8077   -729.92051    37599.264 
  484500    287.15639   -1522.0543    454.29128    223.87861   -388.62792    37599.264 
  484600    303.77065   -1501.9801    522.12453    386.51769    128.35525    37599.264 
  484700    310.24594   -1515.9714    482.89115    362.41913     687.7614    37599.264 
  484800    310.78385   -1516.4041    467.74259    349.25739    336.89167    37599.264 
  484900    302.09575   -1499.8518    496.70809    355.69582    532.98809    37599.264 
  485000    298.37394   -1519.7964    479.15001    301.45219    399.06627    37599.264 
  485100    299.38595   -1554.4384    488.16802    280.38035    484.32999    37599.264 
  485200    310.29414   -1481.2069    500.36205    414.87136    667.87338    37599.264 
  485300    303.63374   -1541.8528    492.77402    316.67866    233.23513    37599.264 
  485400    293.30657   -1520.0512    485.28826    284.54247     607.8802    37599.264 
  485500    307.95146   -1545.7969    487.93533    327.31709    277.72653    37599.264 
  485600    304.50167   -1559.2332    475.24475    285.67295    186.62452    37599.264 
  485700    305.65373   -1562.0595    483.97286    296.75674    325.16178    37599.264 
  485800    298.70615   -1512.3863    485.79442      317.001    262.50339    37599.264 
  485900    300.68333   -1523.2928    483.80813    313.00167    227.97962    37599.264 
  486000    301.66113   -1571.8097     481.8636     266.9384   -145.29614    37599.264 
  486100    298.50428   -1541.3665    473.60191    274.92029   -434.58145    37599.264 
  486200     301.9542    -1487.134    476.00103    347.06983   -206.04397    37599.264 
  486300    302.73937   -1511.1287     519.5101    370.11593   -160.88489    37599.264 
  486400    290.16816   -1519.9256    486.09382    271.35694   -125.34443    37599.264 
  486500    307.41551   -1516.4058    486.66467     353.0269    107.03068    37599.264 
  486600    302.33536   -1530.4202    496.01832    325.51541    205.70799    37599.264 
  486700    293.91367   -1566.8949    476.66945    231.81067    206.71133    37599.264 
  486800    304.29168   -1525.6513    482.85628    325.92183    267.25378    37599.264 
  486900    301.43333    -1474.164    508.83047    390.52638    513.31987    37599.264 
  487000    289.51102   -1460.8911     501.4162    342.75789    388.63907    37599.264 
  487100    303.46801   -1500.3887    476.58546    341.20872    -7.445969    37599.264 
  487200    307.28281   -1550.6989    473.21798    304.69013   -261.97259    37599.264 
  487300    289.42208   -1525.3172    510.28023    286.79581   -66.121193    37599.264 
  487400    301.52281   -1466.1273    493.90186    384.03689    -251.3636    37599.264 
  487500    305.39637   -1503.1907    510.57097    381.06606    57.609807    37599.264 
  487600    293.22633   -1511.9162    506.82264     313.8509    401.89968    37599.264 
  487700      305.629   -1522.5584    489.83594    342.00969   -33.367923    37599.264 
  487800    291.17346   -1542.0645    490.94672    258.59279    -329.5704    37599.264 
  487900      301.033   -1495.6522    476.86506    335.27209   -516.57627    37599.264 
  488000    301.46566   -1493.7183     485.8295    348.11646   -779.97695    37599.264 
  488100    303.84496   -1517.1288    465.05168     314.6304   -802.24238    37599.264 
  488200     315.8221   -1547.5083    473.58729    346.66022   -460.27304    37599.264 
  488300    301.41367   -1529.0328    484.74144    311.48006   -853.44752    37599.264 
  488400    293.31159   -1556.3429     479.5371    242.52216   -817.27413    37599.264 
  488500    296.82041     -1545.36    467.49787    257.24868   -747.59588    37599.264 
  488600    301.78137   -1496.2216    474.64693    335.85069   -870.64813    37599.264 
  488700    297.65663   -1510.4059    500.19162    328.65786   -285.75606    37599.264 
  488800    306.27165   -1477.2444     507.0469    407.42534    -568.6737    37599.264 
  488900    301.97008   -1452.0197    516.77319    423.02772   -237.60446    37599.264 
  489000    298.43696   -1479.2573    478.36993    341.49473    10.505656    37599.264 
  489100    302.60455   -1496.2761    487.42995    352.28193   -204.90414    37599.264 
  489200    301.20806   -1518.3225    521.57266    358.09677   -222.92466    37599.264 
  489300     284.8596   -1538.4048    472.86292    215.76872    273.75896    37599.264 
  489400    308.73511   -1495.5926    494.20434    387.31533    290.99855    37599.264 
  489500    296.11853   -1500.3078    484.55723    316.20316     651.6931    37599.264 
  489600    293.07782   -1457.3959    509.33333    370.21395    436.60127    37599.264 
  489700    304.59527   -1484.8978    511.95989    397.14451    638.76995    37599.264 
  489800     306.8064    -1506.462    502.22018    375.78636    239.49875    37599.264 
  489900    304.02461   -1482.9993     510.5514    395.06772    162.65361    37599.264 
  490000    296.80138   -1469.5651    512.17502    377.63513    305.71857    37599.264 
  490100    296.03958   -1481.4771    501.39522    351.51676    364.33622    37599.264 
  490200    304.96025   -1489.2743     525.9124    408.36221    169.68861    37599.264 
  490300     306.8444   -1551.0976    461.01085    290.11236    -48.08988    37599.264 
  490400    292.71479   -1480.4717    475.21996    311.39173   -601.53043    37599.264 
  490500    297.81924   -1495.4304    548.83271    393.00585   -365.14304    37599.264 
  490600    297.84914   -1505.7508    464.33724     298.3245   -263.90864    37599.264 
  490700    300.40897   -1528.2466    489.59024     312.5959   -588.94382    37599.264 
  490800    297.95092   -1538.2501    490.45773    292.40347    120.47277    37599.264 
  490900    297.19006   -1503.4835    475.37976    308.66967   -416.89505    37599.264 
  491000    301.15925   -1513.0479    488.96044    330.53961    1182.1519    37599.264 
  491100    303.25268   -1478.0662    516.58131    402.55852    498.12097    37599.264 
  491200    294.99938   -1561.7085    485.57623    250.78746    970.58253    37599.264 
  491300    309.13901   -1527.2073    496.15368    359.46676    120.20305    37599.264 
  491400    302.13651   -1514.7316    502.82929    347.12051   -277.28046    37599.264 
  491500    308.17837   -1512.4457    501.99545    375.74905    -614.9092    37599.264 
  491600    296.52315   -1495.6005    482.90536    321.07857   -530.10499    37599.264 
  491700    295.49941   -1502.1217    503.82548    330.87263   -321.60175    37599.264 
  491800    297.40529   -1491.2263    491.09814    337.61348    410.23526    37599.264 
  491900    299.38967   -1477.0475    485.13735    354.75725    20.889797    37599.264 
  492000    309.04567   -1494.8006    484.55012    379.85006    437.32055    37599.264 
  492100    305.87548   -1534.8695    491.28382     332.2552    507.46505    37599.264 
  492200     299.2801   -1543.7314    491.23878    293.68195    242.39719    37599.264 
  492300      308.099    -1510.473    490.65421    366.02356    673.96274    37599.264 
  492400     287.4604   -1560.4048    464.01706     196.6213    439.04203    37599.264 
  492500    291.71733   -1544.9108    508.95608    276.20212    270.27312    37599.264 
  492600    309.50226   -1526.9172    483.34111    348.57813    234.79014    37599.264 
  492700    289.77577   -1535.1546    492.10811    260.37725    88.677985    37599.264 
  492800    309.24426   -1530.4445    495.46853    356.01784   -193.31426    37599.264 
  492900    299.40986    -1542.287    444.01613    248.48735   -557.74481    37599.264 
  493000    297.54033   -1485.9156    498.23443    350.66784   -503.08036    37599.264 
  493100    311.22553   -1515.8422    505.24605    389.30949   -320.06581    37599.264 
  493200    299.89633   -1554.1368    464.47984    259.28947   -442.78661    37599.264 
  493300    309.32195   -1534.0692    500.17532    357.44934   -473.37341    37599.264 
  493400     298.6675   -1482.2281    492.54196    353.73293   -384.77697    37599.264 
  493500    306.44908    -1505.722     484.0377    356.73666   -616.79742    37599.264 
  493600    294.06475   -1526.4649    493.31914    289.56989   -645.21003    37599.264 
  493700    296.92943   -1567.7962    489.04387    256.84883    304.97897    37599.264 
  493800    302.95311   -1507.9441    519.82798    374.57975    322.20125    37599.264 
  493900    300.88059   -1508.6067    494.81994    339.58689    568.74671    37599.264 
  494000    304.11947   -1513.5845    479.69799    334.05579    601.77141    37599.264 
  494100    291.45306   -1494.4446    495.29285    311.81652    312.77351    37599.264 
  494200    293.02977   -1562.5337    499.66889    255.19551    327.50332    37599.264 
  494300    299.07027    -1570.345     472.7236    247.60932    625.79517    37599.264 
  494400    299.98867    -1589.122    502.18459    262.42429    472.21621    37599.264 
  494500    302.45207   -1582.1465    514.53063    292.82636    285.31635    37599.264 
  494600    307.39299   -1528.1808    515.41191    369.89785    354.25965    37599.264 
  494700    300.88952    -1555.783    488.39192    286.02269    430.21293    37599.264 
  494800    300.22297   -1522.6245    518.85892    346.65003    32.822803    37599.264 
  494900    303.63989   -1553.2324    493.05257    305.60523   -99.986937    37599.264 
  495000    295.37745   -1521.1263    496.05691    303.55092   -266.52062    37599.264 
  495100    300.04135   -1527.5855    500.37956    322.39276   -85.518913    37599.264 
  495200    304.44082    -1521.266    495.45537     343.5771   -260.65662    37599.264 
  495300    300.84501   -1530.1952    487.69541    310.71379   -733.35866    37599.264 
  495400    304.09852   -1542.4157    482.09337     307.5257   -294.42662    37599.264 
  495500    305.90332   -1540.9906    512.37151    347.34696   -39.366133    37599.264 
  495600    308.47281   -1520.8057     510.5416    377.25971    348.19784    37599.264 
  495700    303.57116   -1527.0417    496.94682    335.38106    169.94405    37599.264 
  495800      296.244   -1583.0629    477.34085    226.79603   -262.91604    37599.264 
  495900    316.52295    -1567.536    494.87733      351.075    204.23951    37599.264 
  496000    304.67908   -1521.3232    502.24702    351.38321    352.15858    37599.264 
  496100    294.95033   -1536.7578    512.94739    302.88864    572.53423    37599.264 
  496200    295.72394   -1529.4505    497.06496    297.79326    243.54772    37599.264 
  496300    301.72025   -1536.0909    526.80963    347.86926    231.31793    37599.264 
  496400    309.54606   -1534.6668    468.38286    326.06732    244.17988    37599.264 
  496500    301.50926   -1510.9669    486.76699    332.00156    -211.2251    37599.264 
  496600    296.59416     -1548.15    493.66787    279.61092   -14.596997    37599.264 
  496700    300.54957    -1528.115    492.41216    316.18184     72.76224    37599.264 
  496800    297.63488   -1529.0715    504.23604    313.93889   -134.03223    37599.264 
  496900    309.26078    -1515.571    481.60526    357.10238    -116.5248    37599.264 
  497000    299.53265   -1545.8573    510.05492    311.50812   -387.26279    37599.264 
  497100    293.61362   -1529.1214    507.19003    298.75512    123.22167    37599.264 
  497200    300.57599   -1517.5358    487.09711    321.56483    683.49752    37599.264 
  497300     299.1088   -1539.2092    498.02335    304.21815    288.28106    37599.264 
  497400    308.28305   -1504.9902    495.68541     377.3654    847.91164    37599.264 
  497500    314.84973   -1544.5261    476.31123     347.9926     583.6818    37599.264 
  497600    296.63468   -1509.0478     480.2338    305.46138   -142.34398    37599.264 
  497700    294.94447   -1481.8905    484.64514     329.4274    45.960793    37599.264 
  497800    292.70372   -1506.4995     488.4994    298.59365   -134.43182    37599.264 
  497900    293.86598   -1492.5629    501.89384    331.15251   -729.84612    37599.264 
  498000    308.41878   -1477.6666    500.39793    410.01201    49.287273    37599.264 
  498100     307.6516   -1477.6205    497.77982    403.98922     313.3291    37599.264 
  498200    298.90756   -1501.0719    508.80964     352.2366    760.77841    37599.264 
  498300    311.78235   -1502.4378    494.58476    394.55719    51.337329    37599.264 
  498400    313.90471   -1473.3406     525.9264    464.54246    830.85832    37599.264 
  498500      291.475   -1467.1731    509.65043    353.54426     1088.449    37599.264 
  498600     303.2819   -1512.0994    502.83521    354.91061    400.61868    37599.264 
  498700    306.66518   -1499.5453    487.81439    367.66207    673.41657    37599.264 
  498800    292.16581   -1554.1262    492.98051    253.02852   -9.5382756    37599.264 
  498900    293.80785   -1512.3502    487.45984    296.66979    98.053336    37599.264 
  499000    303.78999   -1537.4208    482.47321     311.5127    -201.7867    37599.264 
  499100    308.47413   -1557.8528    486.28944    315.96632    430.09304    37599.264 
  499200    293.20896   -1481.3921    498.00937    335.48357   -105.15276    37599.264 
  499300    305.62315   -1466.6213    481.86104    389.94556   -147.57139    37599.264 
  499400    303.40493   -1484.7812    481.02546     360.9725   -171.47698    37599.264 
  499500    292.65202   -1492.9052    516.80793    340.26391   -646.17694    37599.264 
  499600    290.43438   -1523.2963    477.92285    261.01267   -745.26583    37599.264 
  499700    311.70798   -1483.4589    519.07451     437.6913     -756.301    37599.264 
  499800    303.43474   -1545.3347    480.27307    299.80073   -753.02902    37599.264 
  499900    300.77473   -1523.5001    482.97922    312.37662   -397.30531    37599.264 
  500000    308.75166   -1483.5455    520.63105    425.86365    222.22893    37599.264 
  500100    288.14343   -1522.1896    494.32123    268.21294   -254.77224    37599.264 
  500200    295.71844   -1482.3641    493.02391    340.81393   -103.34033    37599.264 
  500300    294.43489   -1519.3235    498.15524    303.21238    109.29749    37599.264 
  500400     299.0711   -1481.1882    500.00021     364.0465   -141.21149    37599.264 
  500500    309.30947   -1536.4932    470.19823    324.99209     315.2292    37599.264 
  500600    309.69646   -1509.1315    501.75446    385.65079    818.30722    37599.264 
  500700    305.88372   -1472.3983    504.99757    408.47722    56.247025    37599.264 
  500800    319.61735   -1492.1309     514.5544    460.07585    141.57022    37599.264 
  500900    298.10953   -1494.0003    520.02692    366.93593     327.5839    37599.264 
  501000    296.97319   -1496.2229     512.2513    351.82634    104.42608    37599.264 
  501100    300.80003   -1527.9544    497.80839    322.86525    273.74749    37599.264 
  501200    292.02691   -1511.3066    484.12153    286.36435    308.82542    37599.264 
  501300    296.84976   -1525.6777    493.39791    302.96303    331.47747    37599.264 
  501400    291.33569   -1556.6576    472.38232    226.16501    801.01949    37599.264 
  501500    291.14937   -1536.2098    487.45378    260.84623    659.23966    37599.264 
  501600    300.43011   -1577.2469    498.58592    272.68637    10.078815    37599.264 
  501700    296.40903   -1503.5963    494.34365    324.00769    331.10693    37599.264 
  501800     306.6436    -1539.164    466.55447    306.68637    637.27365    37599.264 
  501900    305.22166   -1525.2819    483.43555    331.05364   -79.747139    37599.264 
  502000    298.19995   -1502.5583    512.55476    351.31247   -436.04737    37599.264 
  502100    297.17703   -1488.4893    480.08165    328.30726    127.86625    37599.264 
  502200    294.17068   -1488.6973    499.19366    333.68857    -300.2522    37599.264 
  502300     308.5597   -1502.6681    495.33341    380.57991    -170.0627    37599.264 
  502400    310.51067    -1462.621    500.14922    434.21835   -821.16543    37599.264 
  502500    287.47398   -1471.9551    487.50834    308.62336    66.344708    37599.264 
  502600    298.80095   -1481.6863    475.62042    337.95351    675.83226    37599.264 
  502700    290.20109   -1537.1781    523.20413    291.36284    362.85854    37599.264 
  502800    306.92598   -1496.5401    478.20627    362.23218   -57.014594    37599.264 
  502900    296.22317   -1492.8497    465.70318    305.27786    68.841982    37599.264 
  503000     304.3131   -1498.8063    506.19222    376.19913    -359.5483    37599.264 
  503100    304.17143   -1522.6634    454.22822     299.7408   -309.64063    37599.264 
  503200    307.96693   -1526.7071    479.38949    337.93063   -57.674322    37599.264 
  503300    295.18581   -1497.0338    502.69846    333.42287   -308.23408    37599.264 
  503400    308.00332   -1517.0705    484.70068     353.0422    39.579228    37599.264 
  503500    299.92744   -1521.2924    495.94606    323.74004    368.97951    37599.264 
  503600    292.55177   -1526.7617    488.83743      277.986    606.58933    37599.264 
  503700     295.1884   -1498.9654    493.19259    321.99715    399.26683    37599.264 
  503800    304.50927   -1512.8681    476.40604    333.23354    -703.7588    37599.264 
  503900    313.89742   -1486.4273    489.92213     415.4187   -714.62743    37599.264 
  504000    293.72317   -1486.2125    470.36732     305.3341   -571.38482    37599.264 
  504100    290.35776   -1465.3536    517.71497    358.40288   -10.282343    37599.264 
  504200    289.33255   -1459.3622    489.77402    331.84183   -87.572854    37599.264 
  504300    301.33425   -1457.0139    487.61572    386.01598    273.04383    37599.264 
  504400    296.56905   -1483.0032    499.77158    350.74854    520.57882    37599.264 
  504500     299.7316    -1429.935    495.78366    414.05407    532.67921    37599.264 
  504600    299.77619   -1439.2488     482.8835    392.04074    385.59866    37599.264 
  504700    287.19541   -1472.8192    511.25472    330.25262    65.974366    37599.264 
  504800    301.92081   -1442.2147    501.76191    417.59982   -62.541403    37599.264 
  504900    297.92343   -1477.0716    468.23215    331.23273    297.31897    37599.264 
  505000    304.76874   -1443.0559    479.35083    407.15769    13.682512    37599.264 
  505100    297.40171   -1444.2889    499.73433    393.17089    508.62271    37599.264 
  505200    297.54225   -1415.2413    493.32793    416.44427   -26.492416    37599.264 
  505300     298.7675   -1434.0069    503.07112     412.9331   -327.44727    37599.264 
  505400    292.17392   -1494.7214    463.45206    282.94131   -377.51924    37599.264 
  505500    311.40748   -1494.7909    463.40754    369.34067     57.79144    37599.264 
  505600     298.9441   -1476.5001    470.32292    338.48606   -184.08467    37599.264 
  505700    308.34487   -1512.6875    470.20704    344.46782    267.27265    37599.264 
  505800    296.05584   -1520.5662    472.86406    283.96953    -195.6035    37599.264 
  505900     301.8036   -1474.9302     467.4009    349.99606   -119.74579    37599.264 
  506000    300.20074    -1539.614    476.70484     287.4065    365.88071    37599.264 
  506100    305.27148   -1514.7832    464.45546    322.79625   -449.75575    37599.264 
  506200    308.66861   -1504.5956    458.40008    342.20897    64.496833    37599.264 
  506300    299.35198   -1491.4919    480.25436     335.2603      296.987    37599.264 
  506400    306.19158   -1491.0882    493.03935    379.21386    242.96166    37599.264 
  506500    289.98466   -1528.4662    459.06921    234.96633   -240.75409    37599.264 
  506600    307.63832   -1490.0666    492.50269    386.20634    -196.5358    37599.264 
  506700    296.92204   -1497.1788    455.71631    294.10536   -131.67325    37599.264 
  506800    301.96705   -1492.1108    498.32411    364.47389   -86.192882    37599.264 
  506900    290.77722   -1459.2107      506.559    355.27655    614.64541    37599.264 
  507000     294.4521   -1459.7108    493.76442    358.51167    730.11605    37599.264 
  507100    294.07835   -1443.8968    491.10014    369.98016    201.82094    37599.264 
  507200    301.22832   -1484.1527    473.23975    344.02476    381.08865    37599.264 
  507300    299.69673   -1474.4486    476.44056    350.04054    470.95062    37599.264 
  507400    312.16002   -1458.1026    460.37359    406.37998    -79.05847    37599.264 
  507500    304.74054   -1480.1617    503.34418    393.91833     13.28636    37599.264 
  507600    301.51124   -1427.2762    494.54381     423.4779    54.314095    37599.264 
  507700    294.54803   -1442.3958    478.43787    360.93161    215.25656    37599.264 
  507800    302.67204   -1464.1463    474.95151    372.23683    322.61711    37599.264 
  507900     290.5721   -1499.0808    506.49749    314.42229    244.47791    37599.264 
  508000    298.71843   -1509.2782    467.86348    302.23349   -153.49916    37599.264 
  508100    297.01967   -1459.4675    498.91214    375.45167    -229.1406    37599.264 
  508200    296.00961   -1511.7146    469.17302     288.9222   -389.09346    37599.264 
  508300    287.78786   -1515.9013    459.90324    238.48391   -216.43554    37599.264 
  508400    300.65583   -1508.5363     476.1211    319.94749   -553.72508    37599.264 
  508500    298.49224   -1475.1313    481.94604    349.44549   -141.38285    37599.264 
  508600    296.08001   -1499.4027    493.26369    325.64145   -442.98104    37599.264 
  508700     308.8676   -1483.7761    481.38564    386.90908    553.90081    37599.264 
  508800    291.51538   -1520.1966    477.86458    268.91654    91.022143    37599.264 
  508900    314.93605   -1478.0507    488.68007     427.2251    719.01432    37599.264 
  509000    289.43213   -1484.2031    446.37843    264.05331    657.57638    37599.264 
  509100    308.80805   -1447.5106    482.82464    424.34572    702.27916    37599.264 
  509200    296.43637   -1448.9319    509.79603    394.24745    141.82915    37599.264 
  509300    298.81275   -1424.6297    496.23482    415.67758    344.94093    37599.264 
  509400    306.86707   -1454.5188    466.45859    392.24089    238.26008    37599.264 
  509500    296.74306   -1462.1728    496.59941    369.18943     549.2924    37599.264 
  509600    304.76999   -1488.2372     496.2591    378.89029    415.43518    37599.264 
  509700     302.1333   -1535.2906    468.25737    291.97518     78.85928    37599.264 
  509800     304.3027   -1524.0588    477.44461    322.15219    558.94187    37599.264 
  509900    294.19972    -1491.714    481.22684    312.83564    147.28267    37599.264 
  510000    306.65308    -1478.242     504.0316    405.12808    48.031883    37599.264 
  510100    299.41267   -1496.7876    477.21971    327.20299    -213.4147    37599.264 
  510200    288.86702   -1524.9309    481.78456    256.18977   -450.53837    37599.264 
  510300    297.87281   -1503.4438    479.45502    315.85576   -569.70842    37599.264 
  510400    306.66943   -1503.7137     467.6807    343.37913   -227.21683    37599.264 
  510500    297.50122   -1463.1123    481.43886    356.49964   -440.51797    37599.264 
  510600    303.13824   -1455.2574    469.04575    377.31697   -541.74631    37599.264 
  510700     304.1762   -1447.0378    475.67051     396.8301   -643.45449    37599.264 
  510800    297.37767   -1484.8068    485.12888    337.93941   -43.078003    37599.264 
  510900     303.1092   -1468.0919    483.30161    378.60767    244.32093    37599.264 
  511000    295.82193   -1418.8489    483.91244    395.68311   -139.07491    37599.264 
  511100    306.55414    -1455.033    480.68665    404.54713    699.81862    37599.264 
  511200    294.91871    -1470.546    504.29946    360.31031    40.579693    37599.264 
  511300    295.42709   -1459.7594    473.29921    342.38342    121.85845    37599.264 
  511400    296.67153   -1465.8149    476.30949     344.9357   -28.146785    37599.264 
  511500    295.75308   -1516.6373    479.07803    292.75061    246.56459    37599.264 
  511600    303.39232   -1468.6403    464.09822    360.12942    214.91898    37599.264 
  511700    305.33795    -1442.513    490.86126     421.7713    -381.0119    37599.264 
  511800    292.80183   -1476.4615    455.28019    295.85373   -355.17614    37599.264 
  511900    302.72541   -1471.9188     454.2008    343.95371     -649.754    37599.264 
  512000    303.72735    -1482.597    497.98181    381.56328   -430.96361    37599.264 
  512100    301.20888   -1508.4599     448.4173    294.80766   -90.255249    37599.264 
  512200    303.29038    -1497.443    476.39903    343.16903   -113.69766    37599.264 
  512300    293.56464   -1508.2362    456.58524    268.81524   -18.748322    37599.264 
  512400    299.08181    -1488.045    455.99331    313.23101   -81.593949    37599.264 
  512500    313.98924   -1489.0499    460.28514    383.57216   -656.27817    37599.264 
  512600    305.21282   -1534.1968    459.51898    298.18237   -849.88572    37599.264 
  512700    288.11302   -1492.8876    505.85145    308.90839   -602.54907    37599.264 
  512800    302.55833   -1493.8113    467.49627    334.60515   -537.81583    37599.264 
  512900    302.18101   -1526.8548    481.60751    313.97567   -441.18813    37599.264 
  513000      306.908   -1542.4288    471.34058    309.39697   -759.38271    37599.264 
  513100    303.33618     -1537.28    472.88784    300.02679   -671.54614    37599.264 
  513200    284.70342   -1497.1618    471.18272    254.62899   -451.57729    37599.264 
  513300    296.38009   -1501.8119    465.12181    296.44009    1.3237802    37599.264 
  513400    295.84359   -1509.3642    466.14316    287.49599   -195.10245    37599.264 
  513500    304.77778   -1472.5669     504.0386    402.37511    278.95419    37599.264 
  513600    297.04252   -1495.3395    467.60111    308.37143    65.396805    37599.264 
  513700     303.0644   -1482.0981    485.00846    366.10692    116.81146    37599.264 
  513800    296.50741   -1499.1489    465.10224    299.65622    454.08121    37599.264 
  513900    307.30708   -1512.2536    476.87073    346.89737    308.04113    37599.264 
  514000    297.68027   -1540.1049    471.88782    270.76135    382.93446    37599.264 
  514100    292.08269   -1531.4312     461.0667    243.43576    53.890352    37599.264 
  514200    313.67228   -1520.1353    451.27003    342.04596    332.74487    37599.264 
  514300    298.61926    -1515.417    458.11733    285.90244   -575.78499    37599.264 
  514400    294.03761   -1527.7387    466.89406    261.74904   -542.94968    37599.264 
  514500    291.57998   -1518.0269    479.12075    272.63294   -896.39753    37599.264 
  514600    315.00928   -1502.0804    460.31331      375.158   -580.32613    37599.264 
  514700    303.64707   -1515.3361    467.22706    317.70837   -571.59459    37599.264 
  514800    303.02121   -1523.6948     485.8216      325.129   -161.46816    37599.264 
  514900    306.11823   -1530.1083    468.60418    315.42869    148.93559    37599.264 
  515000    300.26995   -1502.6876    492.00416    339.94353     693.8905    37599.264 
  515100    301.90253   -1490.7439    496.14276    363.36921    307.22479    37599.264 
  515200    283.14837   -1456.9235    483.68209    300.37191   -193.63464    37599.264 
  515300    307.43218   -1449.9169    477.07148    409.99754   -322.48141    37599.264 
  515400    296.14801   -1510.8011    478.71621    300.00137     -273.832    37599.264 
  515500    306.66536   -1461.5633    472.38197    390.21245   -358.00624    37599.264 
  515600    300.71749   -1487.6754    499.26197    364.22659   -594.57253    37599.264 
  515700    292.91358   -1482.5801     472.6948    307.65244    -1040.197    37599.264 
  515800    303.03917   -1457.4633    466.81355    372.43323   -691.20111    37599.264 
  515900    303.84357   -1437.9958    512.26576    440.97123   -392.49538    37599.264 
  516000    302.69593   -1443.6685    506.45857    424.32916    143.61302    37599.264 
  516100    300.30922   -1442.5806    475.07969    383.30265    203.96002    37599.264 
  516200    291.13656   -1492.5411    444.85997    261.86348   -372.66987    37599.264 
  516300    296.61681   -1468.9271    467.89294    333.16082   -58.773687    37599.264 
  516400    301.08784   -1441.7175    493.45037    406.03876    95.335844    37599.264 
  516500     299.1787   -1449.1604    483.12129    379.67937   -106.31272    37599.264 
  516600    306.47774    -1442.204    499.05432    435.40017   -545.43032    37599.264 
  516700    306.43184   -1457.6145     479.8855    400.61435    57.798005    37599.264 
  516800    294.84724    -1444.854    473.92379    355.30521    346.09043    37599.264 
  516900    295.88579   -1448.3863    476.67046    359.19104     143.4768    37599.264 
  517000    290.82169   -1437.6609    496.52348    366.99088    310.82086    37599.264 
  517100    299.89993   -1419.5952    476.35447    405.72188   -150.19225    37599.264 
  517200    298.05168   -1422.5682    475.38619    393.46709   -584.19065    37599.264 
  517300    283.48251    -1442.004     474.1045    307.21685   -842.31227    37599.264 
  517400    298.88643   -1415.3431    475.10802    404.16878   -866.68796    37599.264 
  517500    292.05952   -1447.3378    509.03084     375.3891   -624.72438    37599.264 
  517600    297.46159    -1446.274    472.75349    364.47435      147.698    37599.264 
  517700    298.58806    -1420.575    498.62044    421.10716   -31.972103    37599.264 
  517800    292.98562   -1436.4141    487.37051    368.81814    175.23407    37599.264 
  517900     308.6429   -1439.2029    456.31766    405.40361    280.78583    37599.264 
  518000    290.34573   -1453.5759    500.42852    352.83995    9.1813557    37599.264 
  518100    307.56524    -1467.126    490.13338    406.44884    321.98523    37599.264 
  518200    310.43208   -1417.9155    488.08848    466.50963   -25.817418    37599.264 
  518300    302.31789   -1434.6482    461.61551    386.80602    363.74767    37599.264 
  518400     304.8698   -1433.1142    492.61218    430.81527    188.51507    37599.264 
  518500    306.84921   -1447.3324    452.42942    385.31776   -334.91719    37599.264 
  518600    298.43693   -1465.3429    476.07381     353.1129   -696.03228    37599.264 
  518700     307.1607   -1466.4265     483.5501    398.74549   -755.48807    37599.264 
  518800    291.73792   -1475.5495    465.60389    302.30386    -650.0949    37599.264 
  518900    300.06686   -1436.6937    460.76267    373.78238   -626.78222    37599.264 
  519000    305.77338   -1421.1109    495.42423    449.69498   -750.49309    37599.264 
  519100    302.21562   -1435.8055    484.89216    408.46528    -460.2005    37599.264 
  519200    297.63556   -1444.7039    459.01012    353.08359     140.9091    37599.264 
  519300    297.73821   -1421.3238    458.65271    376.56797   -474.17765    37599.264 
  519400    287.44202   -1474.6074    476.49671    294.81569   -495.43607    37599.264 
  519500    308.61028   -1425.1046    472.55709    435.59454   -313.92938    37599.264 
  519600    300.15822   -1414.5368    474.22248    409.81005    -608.5467    37599.264 
  519700    297.84754   -1447.6281    498.24472     390.3475   -179.90085    37599.264 
  519800    308.21093   -1475.0543    492.14174    403.43325    179.19697    37599.264 
  519900    287.89433    -1478.823    517.22131    333.35918    308.98861    37599.264 
  520000    300.47625   -1435.6225    476.25269    392.18506    284.17689    37599.264 
  520100     289.1123    -1445.484     458.7639     313.7193    505.68212    37599.264 
  520200    294.81469   -1424.0206    464.88599    366.95441    587.30477    37599.264 
  520300    299.88815   -1417.7282    498.81888    430.00026    495.16098    37599.264 
  520400    294.91665   -1426.1841    466.88027    367.24375     193.3431    37599.264 
  520500    308.48601   -1444.5769    476.88455    419.89083     735.9063    37599.264 
  520600     300.5673   -1443.4905    484.13914    392.61314    296.72376    37599.264 
  520700    296.88429   -1461.0978    456.00294    330.30326    700.54088    37599.264 
  520800    299.84805   -1431.6388    516.80209    433.89256    219.02363    37599.264 
  520900    300.21077   -1507.2352    432.81839    275.94399   -43.655053    37599.264 
  521000     304.4636   -1418.2074    504.56628    455.84905    518.43556    37599.264 
  521100     296.2724   -1438.9816    488.59991    382.26407    404.80015    37599.264 
  521200    305.52901   -1450.6832    469.62803     393.2273    709.70531    37599.264 
  521300    294.51016   -1491.2199    485.76838    319.26771    857.43452    37599.264 
  521400    306.52533   -1458.5625    473.64241    393.84389     476.9749    37599.264 
  521500    283.96196   -1447.5237     480.2234    309.97259   -123.69777    37599.264 
  521600    302.43663   -1470.6533    462.27819    351.99768    70.341784    37599.264 
  521700    292.65579   -1495.4627    488.53658    309.45204    96.297876    37599.264 
  521800     301.8568   -1437.1081    479.71405    400.37063    207.40552    37599.264 
  521900    301.31529    -1472.809    457.83363    340.35353    167.73582    37599.264 
  522000    301.24642   -1454.1179    453.97246    354.87372   -363.32259    37599.264 
  522100    288.43001   -1447.2996    507.61559    357.68645    183.46277    37599.264 
  522200    306.40436    -1469.805    467.98775    376.40257    331.34359    37599.264 
  522300    294.94002   -1476.5985    487.92148    337.97575    143.73459    37599.264 
  522400    292.24828     -1512.26    465.22868    267.51387   -207.01641    37599.264 
  522500    304.31421   -1488.3067    471.60116    352.11271   -127.41981    37599.264 
  522600    301.15572   -1463.9343    468.28424    358.96114   -465.57789    37599.264 
  522700    289.01632   -1454.9532    473.79079    318.84524   -525.98955    37599.264 
  522800     302.1258   -1444.2073     469.0616    383.82893   -782.71094    37599.264 
  522900    309.85512   -1425.4698     463.8118    432.08341   -315.37621    37599.264 
  523000    307.98422   -1409.8613    485.26101     460.7258   -424.83812    37599.264 
  523100    306.22277   -1480.0624    494.02963    391.37025   -133.34315    37599.264 
  523200    297.56812   -1451.2634    453.61237    340.82299    417.89191    37599.264 
  523300    293.67176   -1463.4052    473.89455    331.43735    99.144343    37599.264 
  523400    302.47304   -1440.9389    467.71338      387.311    190.79576    37599.264 
  523500    296.36665   -1423.1614    477.31618    387.22453   -95.469262    37599.264 
  523600    296.51392   -1435.4641    494.51485    392.78297    82.398951    37599.264 
  523700    293.52542   -1449.3729    452.57871    323.49558    -325.1544    37599.264 
  523800    304.86168   -1470.4578    485.94699    386.76993   -19.012009    37599.264 
  523900    292.40859   -1499.3584    459.62316    275.53103   -121.28905    37599.264 
  524000    291.91257   -1460.8626    468.89742    321.06992   -313.67426    37599.264 
  524100    307.00268   -1477.8634    470.22329    373.27092    67.789272    37599.264 
  524200    308.90444   -1511.7288     454.2172    331.95365    4.4813877    37599.264 
  524300    298.38535   -1506.4419    456.44458    292.15265    217.81124    37599.264 
  524400    293.31739   -1548.9684    458.33297    228.71864   -359.17468    37599.264 
  524500    300.81775   -1486.3525     495.6855    362.42393   -383.20238    37599.264 
  524600    301.87915   -1471.9766    456.72565    342.61429    -287.6242    37599.264 
  524700    300.71423   -1485.8235    449.83837    316.64018   -338.14163    37599.264 
  524800    292.91001   -1471.2201    483.32515    329.62667    -484.9244    37599.264 
  524900    291.81823   -1469.7549    457.11732    299.97317    344.65039    37599.264 
  525000    302.29442   -1512.5573    448.92522    296.10104   -400.80199    37599.264 
  525100    308.32905    -1522.187    466.29454     330.9847    152.70978    37599.264 
  525200    301.97827    -1523.327    472.05573     307.0398    760.34674    37599.264 
  525300    297.94157   -1531.2239     469.8947    278.82466    394.36576    37599.264 
  525400    307.04277   -1485.8472    491.05861    386.30284    123.20932    37599.264 
  525500    296.84757    -1453.071     474.6255    356.78743    154.28233    37599.264 
  525600    303.00127    -1491.287    471.11802    342.74357   -53.773589    37599.264 
  525700    302.35199   -1467.2201    480.35275    373.12472    395.44593    37599.264 
  525800    299.14878    -1457.308    460.81177    349.08766    -678.7847    37599.264 
  525900    296.60461   -1478.9948    455.76093    310.90626   -574.93067    37599.264 
  526000    299.53854   -1454.5213    476.53086    369.34662    -549.7089    37599.264 
  526100    296.13136   -1497.0695    491.17239    326.11433   -867.37751    37599.264 
  526200    295.56719   -1518.6663     472.6157    283.42314   -257.28971    37599.264 
  526300    300.46465   -1459.2619    478.22301    370.46387   -11.965343    37599.264 
  526400    299.49363   -1508.7338    469.25652    307.65775   -239.47458    37599.264 
  526500    299.70644   -1511.6073    479.74043    316.22537   -587.94195    37599.264 
  526600    314.31755   -1459.7903    461.36371    415.38711    81.614312    37599.264 
  526700    284.50595   -1471.1065    489.83175    298.44504   -439.63783    37599.264 
  526800    301.87352   -1502.4213    470.62794    326.04657    457.43387    37599.264 
  526900    292.18699   -1490.5095     464.1327    287.89266    959.45677    37599.264 
  527000    292.90918   -1476.1991    479.51503    320.83386    650.94266    37599.264 
  527100    303.97463   -1499.1801    483.61617    351.72684    601.00044    37599.264 
  527200     307.7168   -1475.2901    475.43865    384.27174    759.29718    37599.264 
  527300    300.56041   -1490.2253    464.86778    326.57596   -304.54295    37599.264 
  527400    302.99625   -1476.9726    497.44361    383.36099   -650.80076    37599.264 
  527500    299.70791   -1468.8012    471.83459    351.13222   -518.78988    37599.264 
  527600    303.22613   -1492.2086     464.3804    336.09583   -802.62253    37599.264 
  527700    296.93427   -1453.6405    509.40067    391.38317    -652.6596    37599.264 
  527800    290.58984   -1460.6393    476.26911    322.71516   -454.34162    37599.264 
  527900    290.67538   -1464.1225    494.21657    337.56428   -650.75595    37599.264 
  528000    293.46971   -1484.8094    472.62551    307.85533   -155.89343    37599.264 
  528100    308.99888   -1478.7532     476.0443    387.18115   -107.13473    37599.264 
  528200    299.24107   -1473.7846    493.32487     365.5393   -241.77061    37599.264 
  528300    293.29101   -1500.8199    459.60577    278.02121   -147.18011    37599.264 
  528400    297.77585    -1467.605    467.77177     339.5752   -318.17197    37599.264 
  528500    290.79774   -1481.1438     479.4166    306.29332   -233.48978    37599.264 
  528600    291.77756   -1524.2413    452.66832    240.85491   -390.36975    37599.264 
  528700    308.71811   -1512.0009    460.21991    336.84612   -322.63804    37599.264 
  528800    297.57631   -1496.3094    460.95195     303.1534   -32.517326    37599.264 
  528900    293.12899   -1474.2442    492.13503     336.3974    116.60925    37599.264 
  529000     294.9389   -1509.2418    485.42409    302.82991   -408.69164    37599.264 
  529100     290.2277   -1514.9336     464.3626    254.88549    -120.8687    37599.264 
  529200    298.90862   -1495.9891    488.04906    336.56355   -104.29243    37599.264 
  529300    294.83049   -1553.3346    455.07056    227.89603   -292.55337    37599.264 
  529400    292.40683   -1467.5068    483.26414    331.01563   -106.23049    37599.264 
  529500    293.60194   -1450.3359    481.33301    351.63106   -123.41005    37599.264 
  529600    297.97937   -1466.0587    479.90135    354.16642    241.38911    37599.264 
  529700    291.73686   -1486.9963    463.75905    289.00749    548.88832    37599.264 
  529800    311.16747   -1476.7591    473.51355    396.39897    931.45465    37599.264 
  529900    304.81138   -1469.1569    477.99151    379.88915    622.08193    37599.264 
  530000    309.17054   -1500.8716    484.47768    374.26822    983.96015    37599.264 
  530100    303.28921   -1512.6802    473.17669    324.70421    737.60289    37599.264 
  530200    301.61594   -1512.5252    441.09079    285.24687     315.8779    37599.264 
  530300    307.46866   -1489.8335    477.77762    370.95117    261.05319    37599.264 
  530400    303.98888   -1521.7928    487.84793    333.40999    -108.2241    37599.264 
  530500    299.87018    -1454.819    449.08178    343.09157   -564.90545    37599.264 
  530600    302.43097   -1507.3092    493.90509    346.94321    30.060962    37599.264 
  530700    301.54391    -1481.715    462.60704    337.24936   -122.50449    37599.264 
  530800    291.23789   -1517.0894     475.4253    268.33629   -599.64991    37599.264 
  530900    303.85878   -1495.4677     501.1836     372.4855    15.244332    37599.264 
  531000    298.00911    -1457.785    466.86009    349.53268   -275.93849    37599.264 
  531100    302.54452   -1457.9322    476.81203    379.73789   -371.71259    37599.264 
  531200    296.76738   -1473.4267    463.00865    324.45425    251.70979    37599.264 
  531300    298.44805   -1487.5423    487.74691    342.63663     106.7312    37599.264 
  531400    301.79749   -1501.9881    471.74693    327.25674   -202.91373    37599.264 
  531500    303.39165    -1490.345    470.53089    344.85443   -203.80258    37599.264 
  531600    304.84145    -1501.171    469.58093    339.59966    199.95526    37599.264 
  531700    290.43241    -1479.164    464.37001    291.58331    151.27259    37599.264 
  531800    305.12838   -1451.4998    494.57049    415.55104    118.05261    37599.264 
  531900      300.872   -1457.0759    463.41092    359.67005    99.054144    37599.264 
  532000    302.70982   -1505.6044    475.33104    331.32825    202.78387    37599.264 
  532100    295.42279   -1496.9395    480.14337    312.02807   -70.196748    37599.264 
  532200    311.37815   -1489.8294    466.49805    377.26073   -338.65721    37599.264 
  532300    298.29642   -1453.0558    474.26565    362.95976   -557.99457    37599.264 
  532400    309.92216   -1456.8322    471.66538    408.87622   -181.23541    37599.264 
  532500     296.1014   -1502.8932    453.27136    282.25474    299.41145    37599.264 
  532600    295.09086   -1490.0419    472.81187    310.10115   -43.824561    37599.264 
  532700    295.47466   -1512.6724    522.08302    338.46819    678.77194    37599.264 
  532800    302.67697   -1510.7909    471.19282    321.85574    648.79218    37599.264 
  532900    304.13959   -1478.3578    521.65282    411.32775    634.35299    37599.264 
  533000    297.99252   -1517.2723    470.52122    293.63188    266.52283    37599.264 
  533100     301.6449   -1529.4926    490.62938    317.94826    270.98269    37599.264 
  533200    303.24958   -1525.9722    478.24704     316.3043    250.04336    37599.264 
  533300    293.44038   -1539.5525    468.69499    249.04978   -449.67514    37599.264 
  533400    291.27575   -1563.2257    479.07595    226.02095    -107.7221    37599.264 
  533500    302.60375   -1510.4923    467.00131     317.6335    50.866567    37599.264 
  533600     299.3219   -1523.3031    463.64366    286.70318   -164.52097    37599.264 
  533700    297.70814   -1517.7108    467.88023    289.27328   -227.44234    37599.264 
  533800    307.48021    -1521.964    463.34455    324.43954   -86.878093    37599.264 
  533900    309.76222    -1549.567    458.55526    302.31186    112.53237    37599.264 
  534000    298.95864   -1537.4146    464.23373    271.54772   -296.84411    37599.264 
  534100    305.25661   -1545.6526    470.29735    297.70188    435.88321    37599.264 
  534200    303.64886   -1516.8017    473.75986     322.7836    25.544589    37599.264 
  534300    294.37888   -1495.9915    464.38653    292.52367   -273.43164    37599.264 
  534400    301.50729   -1509.4268    456.64356    303.40936   -103.43448    37599.264 
  534500    293.20556   -1468.7676    480.53511    330.61851    -301.0375    37599.264 
  534600     302.3103   -1467.5354    484.23335     376.5025   -321.42796    37599.264 
  534700     312.6633   -1511.3184    455.25535     350.3097    89.857064    37599.264 
  534800    295.22436   -1470.8584    488.51419    345.58745    -529.8873    37599.264 
  534900    298.67414   -1454.5507    490.31693    379.21511   -270.70897    37599.264 
  535000    300.51192   -1449.0678    471.96634    374.61393   -601.13805    37599.264 
  535100     293.0619   -1437.3385    480.95541    361.82172   -671.40856    37599.264 
  535200    293.13097   -1449.7973    492.38301    361.10123   -152.20647    37599.264 
  535300    295.26934   -1490.0133    466.51289    304.63363    296.27458    37599.264 
  535400     303.1541   -1485.9019    481.86663    359.56473    441.04676    37599.264 
  535500    303.98454   -1460.6693    488.77226    395.43826    480.60501    37599.264 
  535600    296.76594   -1480.7988    484.45495    338.52199    471.19097    37599.264 
  535700    306.17031   -1479.6148    491.92578    389.47802    73.610186    37599.264 
  535800    303.94224   -1473.3923    469.50436    363.25715   -239.98004    37599.264 
  535900    295.28697   -1408.2528    485.98049    405.94099    486.88806    37599.264 
  536000    293.85268   -1494.4119    465.22384    292.57373    479.27784    37599.264 
  536100    296.08247   -1497.3774    488.15889    322.57296    103.69744    37599.264 
  536200    296.47538   -1451.4928    460.80072    342.86676   -368.93483    37599.264 
  536300    296.00646   -1463.2401    492.44223    360.65174   -371.59313    37599.264 
  536400    307.24315   -1473.5112    452.41087    360.89236   -258.40518    37599.264 
  536500    290.65835   -1478.5558    496.92224    325.76007   -186.73087    37599.264 
  536600    307.58858   -1444.8262    481.62889    420.34917   -745.87911    37599.264 
  536700    304.73972   -1456.3245      478.751    393.15868   -464.69979    37599.264 
  536800    295.29953   -1462.4925    497.82714    363.60445    -220.3109    37599.264 
  536900    287.88591   -1457.0419    471.65804    309.53917   -73.844686    37599.264 
  537000     305.6966   -1451.3511    492.24628    415.93146    612.25313    37599.264 
  537100    300.98814   -1490.2251    467.76793    331.40026    692.95247    37599.264 
  537200    292.36048   -1493.4573    461.06599    282.65853    494.98234    37599.264 
  537300    301.99528   -1484.9235    472.88269    346.34676    136.73343    37599.264 
  537400    295.31003   -1478.9085    468.33319    317.74168    -38.88892    37599.264 
  537500    308.05981   -1480.1415    462.87516    368.39972    11.602132    37599.264 
  537600    302.31131   -1449.6094    452.08078    362.28039   -604.94959    37599.264 
  537700    290.61723   -1452.6151    468.66503    323.25859    -708.7047    37599.264 
  537800    291.56021   -1474.0157    459.55239    296.98684   -977.45462    37599.264 
  537900    314.36455   -1457.9423    455.37645     411.4592   -915.14534    37599.264 
  538000     299.2702   -1449.9924    473.00237    369.14003   -866.42358    37599.264 
  538100    311.63521   -1445.3309    455.52703    411.94456   -872.58901    37599.264 
  538200    303.69558   -1448.5352    477.73966    395.24001   -766.21631    37599.264 
  538300    301.04833   -1485.8625    479.51927    347.78487   -1198.1013    37599.264 
  538400    307.34934   -1476.1278    460.31706     366.6596    -247.6705    37599.264 
  538500    299.97774    -1475.299    481.06742    355.08106    324.10191    37599.264 
  538600    300.73241   -1491.8321    463.28947    324.16451     14.75813    37599.264 
  538700    296.99187   -1501.4175    452.31691    286.78139    30.544685    37599.264 
  538800    300.43842    -1467.132    474.90023    359.15298   -902.23627    37599.264 
  538900    295.96483   -1448.5443    479.33962    362.05766   -1301.4125    37599.264 
  539000    306.49493   -1478.1065    463.42108     363.9417   -761.12689    37599.264 
  539100    293.54907   -1484.9211    492.20446    327.67947   -466.73143    37599.264 
  539200    296.62194   -1488.0299    479.81173    325.99989    87.728195    37599.264 
  539300    296.45106   -1542.2995    458.98244     250.1323    15.943628    37599.264 
  539400    302.55934   -1466.3904    491.28225    385.81655    463.83903    37599.264 
  539500    299.79379   -1435.2681    515.01607    428.23311    128.22033    37599.264 
  539600    304.04212   -1431.0133    469.67508    406.25606    345.79599    37599.264 
  539700    293.41217   -1446.8712    476.94003    349.84921   -77.584026    37599.264 
  539800    300.57407   -1464.9773    448.75052    335.76811   -726.62877    37599.264 
  539900    293.65386   -1410.1732    471.75769    382.45203   -714.00838    37599.264 
  540000    316.15188   -1430.4573    448.23608    439.84329   -627.67751    37599.264 
  540100    301.35992   -1446.4858    462.13092    371.17484   -776.96971    37599.264 
  540200    308.24546   -1478.9444    466.45337    374.01006   -567.09243    37599.264 
  540300    308.09522   -1506.4273    473.68668     353.0847    -220.1335    37599.264 
  540400    306.29867    -1439.319    476.30683    414.73223   -119.57014    37599.264 
  540500    295.49823   -1444.6004    485.94955    370.51269   -245.75563    37599.264 
  540600    301.14162   -1423.5485    491.20263    422.20192   -226.67928    37599.264 
  540700    309.51157   -1452.6971    492.57911    432.07815    5.4004468    37599.264 
  540800     295.1669   -1446.8391    475.42449    356.25861   -711.29291    37599.264 
  540900    300.51786   -1462.5586       488.11    377.29345   -476.68538    37599.264 
  541000      311.515   -1511.2122    462.59546    352.59093   -705.12392    37599.264 
  541100    303.84585   -1511.4163    474.23755    329.53278   -566.00334    37599.264 
  541200    290.18145   -1437.4208    490.27191    358.09958   -826.11968    37599.264 
  541300    297.50897    -1480.871    465.34992    322.68683   -702.12768    37599.264 
  541400    312.49704   -1459.4911    451.68318    397.81699   -880.95258    37599.264 
  541500    295.16488   -1429.4892    476.81466    374.98965   -267.36153    37599.264 
  541600    303.74868   -1441.1958    504.33527    429.41391   -298.62561    37599.264 
  541700    300.05689   -1452.8752    486.39264    383.18604    35.115459    37599.264 
  541800    298.19418   -1477.4315    475.76879    339.62735   -109.06793    37599.264 
  541900    302.89771   -1443.9485    463.99087    382.48908   -201.23333    37599.264 
  542000    287.07675   -1469.0284    468.58621    290.84123   -667.77343    37599.264 
  542100    301.82193   -1521.2959    479.24842    315.56031   -382.24728    37599.264 
  542200    300.34675   -1501.9813     479.0807    328.07175   -239.41626    37599.264 
  542300    304.36668   -1466.6682    485.27968    387.66569   -117.57596    37599.264 
  542400    294.67126   -1528.7411    454.28808    250.99078   -156.66802    37599.264 
  542500    306.69808   -1474.2888    478.04638    383.29859    278.25101    37599.264 
  542600    305.41746   -1479.6299    478.55608    372.70681    548.03587    37599.264 
  542700    299.75687   -1509.4281    490.41611    329.30708    772.29575    37599.264 
  542800    285.65788   -1505.0647    478.33302    258.16952   -13.332078    37599.264 
  542900    296.41141   -1484.9157    496.51299    344.86834    182.93234    37599.264 
  543000     301.5465   -1467.3657    480.39822    369.40143   -144.16487    37599.264 
  543100    306.37368   -1464.8263    483.94531    397.20083     233.7057    37599.264 
  543200    295.26696   -1464.5676    480.57889    344.13465   -101.33848    37599.264 
  543300    294.65806   -1470.4496    467.62438    322.55925   -331.15993    37599.264 
  543400    291.15246   -1473.5274    492.81585    328.90452   -71.259418    37599.264 
  543500     312.9285   -1466.8522    478.93172    419.64517    41.420661    37599.264 
  543600    298.88157   -1478.1176    479.44082    345.70515   -407.43342    37599.264 
  543700    288.92896   -1482.2385    473.36925    290.74548   -563.77323    37599.264 
  543800    303.88656   -1470.4232    492.98363    389.45501   -98.845644    37599.264 
  543900    287.75393   -1462.8323    482.35531    313.85233   -278.44687    37599.264 
  544000    310.41814   -1443.5219    470.64786    423.39985    280.59166    37599.264 
  544100    296.84587   -1493.6993     476.6996    318.22567   -132.64867    37599.264 
  544200    295.55714    -1480.728    485.25777    333.95832    401.63725    37599.264 
  544300    303.00034   -1504.1871    490.26162    348.98281    140.88081    37599.264 
  544400    304.65099   -1518.4439     483.0263     334.9154    485.89981    37599.264 
  544500    299.82283   -1513.2617    437.21296    272.56709    -252.1296    37599.264 
  544600     293.5459   -1504.9548    490.58066    306.00775   -265.67358    37599.264 
  544700    296.99311   -1510.6643    459.31262    284.53594   -217.70074    37599.264 
  544800    294.10695   -1478.3465    528.33046    372.88954    551.70178    37599.264 
  544900    294.54811   -1529.9716    450.57293     245.4912    171.61786    37599.264 
  545000    292.60018   -1493.8113    495.42843    317.74513    164.91509    37599.264 
  545100    306.44751   -1470.0792    481.89392    390.22865    363.39876    37599.264 
  545200    291.36664   -1488.2624    496.29038    318.60747    151.83103    37599.264 
  545300    295.08723   -1524.9812     491.2854    293.61904   -382.40245    37599.264 
  545400    305.42209   -1461.8202    482.42617    394.40747   -19.115042    37599.264 
  545500    305.41868   -1460.0653     476.1782    389.89904   -251.19952    37599.264 
  545600    295.15428   -1497.1848    469.55053    299.98222    40.129779    37599.264 
  545700    297.50166   -1534.2183    502.17838    306.13516    182.65089    37599.264 
  545800     299.2284   -1500.4384     480.7773    326.28093    242.78406    37599.264 
  545900    298.95695   -1473.9328    483.65918    354.44739   -281.78239    37599.264 
  546000    291.92034    -1507.207    477.02136    282.88438   -722.41869    37599.264 
  546100    300.23621   -1576.8978    473.50691    247.08436   -626.69203    37599.264 
  546200    295.24442   -1541.4274    466.27439    252.86889   -701.51248    37599.264 
  546300     297.3261   -1510.7343    451.56651    278.21764   -903.95265    37599.264 
  546400     307.9146   -1454.0254    474.36154    405.34906   -838.37227    37599.264 
  546500    298.08929   -1499.6167    454.37455    295.57608   -597.06373    37599.264 
  546600     304.2864   -1469.6542    449.75303    348.79198   -27.675459    37599.264 
  546700    311.89347   -1459.1024    473.79002    417.59764    718.51626    37599.264 
  546800    297.05019   -1490.6851    500.83966    346.29895    520.48796    37599.264 
  546900    291.05854   -1549.3472    480.04509    239.89155    762.09843    37599.264 
  547000    296.58706   -1481.3992    487.88957    340.55148    210.44787    37599.264 
  547100    297.74666   -1482.5847    471.88352    328.57589   -462.22697    37599.264 
  547200    301.66261   -1515.8503    458.67266    299.71357   -129.53479    37599.264 
  547300    309.62345   -1500.1343     462.8925    355.45764   -21.759081    37599.264 
  547400    297.62946   -1513.1014    471.27149    296.92004    148.93935    37599.264 
  547500    297.14962   -1509.1119    480.13097    307.61065    252.60617    37599.264 
  547600    301.17841   -1520.1782    474.26345    308.79851     284.8062    37599.264 
  547700    295.23475   -1518.7315    470.67914    279.92603    115.37859    37599.264 
  547800    311.18934   -1486.9912    482.48907    395.24068   -23.108404    37599.264 
  547900    296.95231   -1495.9011    455.72498    295.52796   -795.27378    37599.264 
  548000    294.55627   -1444.1212    452.31796    333.12331   -707.15245    37599.264 
  548100    310.70374   -1479.3924    464.27313    382.43928     -854.874    37599.264 
  548200    299.30104   -1509.4807    453.38205    290.17011   -885.36803    37599.264 
  548300    304.27967   -1484.8307    483.60185    367.43402   -399.76979    37599.264 
  548400    289.26588   -1481.9145    462.83834    282.05401   -902.83232    37599.264 
  548500    314.04436   -1462.0435    487.54298    438.08434   -743.44898    37599.264 
  548600    297.81919   -1471.8289    468.18105    335.95547   -440.07335    37599.264 
  548700    293.66353   -1479.2378    471.72562    313.39878    64.549123    37599.264 
  548800    312.90427    -1492.868    488.90536    403.49406   -7.6574663    37599.264 
  548900    300.63294   -1456.2444    477.65078    373.66604    70.092502    37599.264 
  549000    293.54292   -1478.6798    489.14854    330.83723   -266.00681    37599.264 
  549100     305.7712   -1465.2999    474.80443     384.8763    128.54873    37599.264 
  549200    292.12726   -1515.2635    461.20538    259.94267   -197.29388    37599.264 
  549300    299.51275   -1521.7057    498.10216    323.61753   -211.31289    37599.264 
  549400    295.80283   -1506.1834    433.70828    258.05852   -262.97685    37599.264 
  549500     298.0231   -1516.1452    512.03415     336.4095   -271.54232    37599.264 
  549600    289.90775   -1584.1372     465.9529    185.83302   -1373.6409    37599.264 
  549700    299.57786   -1549.8453     462.5178    260.18642   -864.05256    37599.264 
  549800    304.66301   -1524.6424     463.4487    309.19346   -551.05159    37599.264 
  549900    299.72347   -1536.9342    455.51327    266.74792   -1039.4039    37599.264 
  550000    305.05221   -1543.5797    463.23338     291.7914   -583.81837    37599.264 
  550100    311.27781   -1513.4803    484.95876     371.6192    -722.5628    37599.264 
  550200    306.21821    -1515.968     471.4204    332.83485   -827.10401    37599.264 
  550300      293.529   -1502.6914     481.6878    299.30231   -946.67181    37599.264 
  550400    305.19228   -1507.2662    456.14014    321.64176   -525.49863    37599.264 
  550500    254.60565   -1508.3002    535.92443    172.85119   -1105.2026    37599.264 
  550600    333.16432   -1467.6033    445.62946    476.61339   -296.51577    37599.264 
  550700    304.74213   -1499.4263    464.53134    335.84804   -463.17658    37599.264 
  550800    295.72018   -1541.0976    463.53261    252.59695   -748.79029    37599.264 
  550900    291.33079   -1549.4505    457.57711    218.54488   -1247.6874    37599.264 
  551000    311.88802   -1499.7109    503.79308    406.96775   -1314.5084    37599.264 
  551100    294.25212   -1471.4699     481.5658    333.65437   -860.82327    37599.264 
  551200     297.0962   -1486.3803    478.12371    328.09474   -467.34998    37599.264 
  551300     290.4064   -1464.2965     450.1981    292.16187    -335.0444    37599.264 
  551400    292.30052   -1464.7866    492.55697    342.55051   -420.59156    37599.264 
  551500    306.66437   -1496.5149    487.31033    370.18481     429.1238    37599.264 
  551600    294.63734   -1492.8848    468.56526    300.97168    118.69719    37599.264 
  551700    294.36434   -1498.2122    472.03991    297.89093   -80.197613    37599.264 
  551800    302.39657    -1479.922    475.10044    355.37103   -182.66127    37599.264 
  551900    295.67429   -1480.0731     472.6507    322.53309   -434.10008    37599.264 
  552000    293.86574   -1498.3197    490.32388    313.82478   -984.16713    37599.264 
  552100    314.76671   -1482.4151    479.09044    412.50937   -376.94703    37599.264 
  552200    298.94281   -1504.0036    473.57958    314.23343   -277.97946    37599.264 
  552300    300.66873   -1510.6523     490.1234    331.89174   -366.92678    37599.264 
  552400      308.619    -1513.688    470.14237    344.63571   -621.24973    37599.264 
  552500    296.20278   -1501.5039    467.83664    298.66543   -280.24556    37599.264 
  552600    291.81136   -1463.4679    489.27624    338.38819   -289.65407    37599.264 
  552700     299.9642   -1490.2056     473.1483    332.19442    -595.4515    37599.264 
  552800     295.6827   -1528.4798    481.78658    283.30012   -65.266744    37599.264 
  552900    290.28926   -1534.2346    461.51405    233.01282   -449.60687    37599.264 
  553000    297.76568   -1502.2981    477.58875    314.65328   -424.21437    37599.264 
  553100    302.20775   -1485.2734    468.37206    342.44193   -499.22975    37599.264 
  553200     311.7602   -1532.9428    465.35275    334.72057   -462.83019    37599.264 
  553300    295.95186   -1514.5403    483.14777    299.81146   -378.07893    37599.264 
  553400     303.7414   -1504.8308     492.3183    353.72915   -635.73282    37599.264 
  553500    299.21651   -1515.2164    491.18278     321.8549   -690.87123    37599.264 
  553600    293.39355   -1509.8105    473.21126    283.09732   -129.59122    37599.264 
  553700    300.93914   -1513.8599    476.67494    316.45201   -653.71914    37599.264 
  553800    297.33653   -1502.8096     449.3279    283.95055   -216.45427    37599.264 
  553900     300.1348   -1527.3219    479.99816    302.69528    -575.1628    37599.264 
  554000    294.26723    -1514.378    467.45138    276.69981   -428.12659    37599.264 
  554100    302.86277   -1538.8428     480.1618    303.60858   -63.460163    37599.264 
  554200    292.80684   -1527.3941    484.54235    274.20588   -15.266615    37599.264 
  554300    300.02103    -1483.883    472.01498    337.63926    382.20745    37599.264 
  554400    307.32693   -1503.4337    475.77766    354.71353    519.39448    37599.264 
  554500    305.48021   -1596.9516    484.96748    262.07881    348.66175    37599.264 
  554600    303.06154   -1566.3177     454.4503     251.3162    818.78417    37599.264 
  554700    290.61892   -1532.8436     466.3865    240.75911    87.038539    37599.264 
  554800    300.57446   -1463.7102    500.03066    388.31715   -410.80471    37599.264 
  554900    298.42807   -1501.7824    472.57805    313.13769   -336.01934    37599.264 
  555000    297.66587   -1453.4448    519.40441    404.87325    190.72108    37599.264 
  555100    294.08739   -1510.2615    483.32219    295.87821    181.98799    37599.264 
  555200    296.91232   -1520.8499    487.49129    302.16561    672.51103    37599.264 
  555300    303.98563   -1482.7171    506.33048    390.95359    454.53213    37599.264 
  555400    298.78763   -1464.1304    498.23833    378.06732   -21.192261    37599.264 
  555500    304.60905    -1494.374    501.58624    377.35659    30.513272    37599.264 
  555600     300.7096   -1454.5746    480.42153    378.45151    -99.38519    37599.264 
  555700     311.8297   -1486.7055    477.60792    393.52564   -509.08267    37599.264 
  555800     289.8557    -1505.242    492.19198    290.73322     -398.982    37599.264 
  555900    294.91002   -1492.3532    473.47204    307.63661   -504.61705    37599.264 
  556000    294.89185   -1528.1847    478.47138    276.72274    197.88062    37599.264 
  556100    293.26539   -1522.2956    487.01973    283.84424    56.498074    37599.264 
  556200    305.88712   -1526.6332     506.3943    355.65433    184.22369    37599.264 
  556300    297.41617   -1494.8704    502.60377    345.52389     760.5339    37599.264 
  556400    302.76668   -1483.8657    481.02518    359.01679    573.33439    37599.264 
  556500    295.46147   -1537.3955    473.89362    265.49631    542.07029    37599.264 
  556600    300.71355   -1476.0953    478.53382    355.06085    457.21512    37599.264 
  556700    293.12048   -1540.1069    478.90353    257.26498   -22.277154    37599.264 
  556800    302.20689   -1496.8337    503.43903    365.94469   -98.404458    37599.264 
  556900    292.88577   -1470.7833    463.39256    310.02184   -220.49989    37599.264 
  557000    304.16124    -1505.977    518.32712    380.48032   -524.67028    37599.264 
  557100    308.74043   -1503.5396    478.24706    363.43502   -278.78809    37599.264 
  557200    298.73626   -1522.5268    481.55464    302.75622   -173.21083    37599.264 
  557300    300.70694   -1501.1348    512.31941     363.7772    -440.8532    37599.264 
  557400    287.84544   -1491.7851      474.829    277.78483    38.308636    37599.264 
  557500    297.45166   -1479.6906    478.08715    336.34676   -187.78218    37599.264 
  557600    307.00682   -1489.6249    493.11638    384.42114   -345.28622    37599.264 
  557700     305.4941   -1471.7751    480.03507    382.38542    38.286153    37599.264 
  557800    289.95507   -1481.7225    505.15317    327.66084     244.5821    37599.264 
  557900    302.40776   -1511.7115    471.84684    320.37823    84.422913    37599.264 
  558000    308.69955   -1505.9442    472.51595    355.11543    86.078974    37599.264 
  558100    292.75006    -1516.818     477.3131    277.29728   -4.1296099    37599.264 
  558200    306.12347   -1532.5173     493.9816    338.42066    -231.4269    37599.264 
  558300    289.05707   -1505.3299    471.09711    265.95813    173.39593    37599.264 
  558400    306.62618   -1543.4771    471.49518    307.23565   -146.89352    37599.264 
  558500    291.25283   -1542.6892    494.99692    262.37526   -450.78964    37599.264 
  558600    307.81702   -1537.4733    475.75606    322.85677   -539.88834    37599.264 
  558700    298.00203   -1539.1737    460.62663    261.87871    118.25854    37599.264 
  558800    311.88878   -1518.4934    461.94189    346.33743   -487.19169    37599.264 
  558900    294.04818   -1507.3901    494.18694    309.43803    -761.4829    37599.264 
  559000    299.80948   -1455.0022    441.25946    334.81301    304.32015    37599.264 
  559100    304.47136   -1489.0944    498.30986    378.74053   -205.29917    37599.264 
  559200    297.79841   -1460.7418    478.20137    356.96943     62.82657    37599.264 
  559300    286.01913   -1506.0455    484.72821     265.2089   -228.38707    37599.264 
  559400    298.11703   -1503.4683    450.85534    288.33005   -612.68199    37599.264 
  559500    308.38123   -1484.0473    482.91105    385.97563   -19.048349    37599.264 
  559600    312.11089   -1471.4925     479.1564    411.55191   -338.17097    37599.264 
  559700     304.6827   -1501.2749    471.05418    340.25493   -759.81172    37599.264 
  559800    304.08086   -1484.2116    475.12596    358.68293   -329.29336    37599.264 
  559900    305.16888   -1486.5516    453.21282    339.32374   -155.61065    37599.264 
  560000    299.62524    -1505.463    477.93363    320.19765    444.30065    37599.264 
  560100    296.55366   -1483.7586    481.94798    332.10032    123.18618    37599.264 
  560200    303.91995   -1474.9402     473.9225    366.02709    82.764936    37599.264 
  560300    300.36503   -1512.2179    469.28499    308.12172   -521.98022    37599.264 
  560400    308.82959   -1511.8375    481.12431    358.41536    166.74214    37599.264 
  560500    299.68407   -1461.8392    491.68041    377.83289    502.50779    37599.264 
  560600    296.18886   -1512.0912    479.75607    299.93494    742.25573    37599.264 
  560700    295.66502   -1545.1559     490.6533    275.41121   -154.52706    37599.264 
  560800    293.30715   -1466.2445    485.09162    338.15507   -458.94233    37599.264 
  560900    296.35826   -1498.9999    475.40618    309.43828   -269.19382    37599.264 
  561000    305.27695   -1495.6426    471.53226    349.03831   -126.02957    37599.264 
  561100    304.27142   -1456.4303    509.07781    421.27326   -232.11872    37599.264 
  561200    294.12111   -1481.9479     491.3007    332.32206   -480.16216    37599.264 
  561300    298.34668   -1511.0363    485.33591    316.27565    189.66488    37599.264 
  561400    299.14962   -1495.4749    484.03848    334.15121    198.63821    37599.264 
  561500    307.20519   -1491.9896    490.10598     379.9383    278.92148    37599.264 
  561600    291.09473   -1464.6623    470.96704    315.66117    290.94865    37599.264 
  561700    304.43548   -1493.7131    495.39886    371.04944    372.35974    37599.264 
  561800    283.87694   -1504.7091    482.71154    254.89291   -221.43595    37599.264 
  561900    310.66323   -1506.7227     495.9933      386.647    313.19585    37599.264 
  562000    296.83371   -1517.8657    494.98084    312.28576    371.35629    37599.264 
  562100    291.86808   -1488.4581    482.81766    307.19453    477.69392    37599.264 
  562200    294.86685   -1482.7153     490.3208     333.9291   -276.24405    37599.264 
  562300    305.62591   -1460.7065    473.11545    387.12721    139.36638    37599.264 
  562400    311.27113   -1503.2962    473.32813    370.14271    105.84827    37599.264 
  562500    309.04424   -1485.5966    495.61231    400.10975    477.50163    37599.264 
  562600    304.06628    -1507.186    485.86736     346.3844    204.30088    37599.264 
  562700    292.38407    -1495.631    468.50758     288.0325    202.73619    37599.264 
  562800    305.56234   -1480.3034    468.68952    362.81851    384.08213    37599.264 
  562900     304.8724   -1520.8247    486.75519    337.25947    468.53913    37599.264 
  563000    309.29653   -1488.2466    462.94796    365.93025    172.63611    37599.264 
  563100    295.32455   -1503.5272    474.88629    299.74144   -222.90613    37599.264 
  563200    297.50387   -1513.6182    464.45306    289.01993      302.403    37599.264 
  563300    297.65254   -1513.5653    468.22043    293.50891    65.864877    37599.264 
  563400    307.71999   -1484.2896    500.79153     400.6395   -409.72932    37599.264 
  563500    306.56545   -1454.9289    472.69019    396.70567   -439.10135    37599.264 
  563600    291.83633    -1470.312     462.0089    304.38914   -359.36206    37599.264 
  563700    304.47343    -1460.966    490.84538    399.41378    -538.7078    37599.264 
  563800    307.52948    -1474.761    478.58134    387.10094   -601.97396    37599.264 
  563900    301.26085   -1473.6618    491.54997    372.97225   -7.7764399    37599.264 
  564000    294.08255   -1476.6476    469.11564    315.26379    -398.3635    37599.264 
  564100    311.19488   -1456.1254    509.68836    453.33066   -178.35048    37599.264 
  564200     291.3399   -1492.7018    480.09326    297.85073    130.42432    37599.264 
  564300    298.50247   -1512.4535    478.00302    308.22631   -303.94114    37599.264 
  564400    295.67671   -1472.4638     498.0599    355.56253    148.66217    37599.264 
  564500    306.19689   -1493.6485    461.82756    345.46565    309.03186    37599.264 
  564600    309.43769    -1489.286    477.92359    380.50141   -40.343419    37599.264 
  564700    302.57812   -1467.7006    451.41359     344.7222   -262.35252    37599.264 
  564800    301.61016   -1462.5895    509.72623    403.79198    220.58083    37599.264 
  564900    298.01628   -1449.8529    481.78033    372.41728    -245.5272    37599.264 
  565000    301.29849   -1492.3594    486.36245    349.25645    185.18312    37599.264 
  565100    299.11695   -1519.3179    469.90912    296.03194   -269.75109    37599.264 
  565200    303.52045   -1460.2841      486.885    391.84876   -112.89072    37599.264 
  565300    290.43185   -1471.2555    478.75481    313.87407   -252.00614    37599.264 
  565400    303.74252   -1513.0807    511.65652    364.82255    618.72409    37599.264 
  565500     297.8513   -1518.5014    467.51883    288.76521     92.88894    37599.264 
  565600    302.18656   -1505.0364    474.09566    328.30717    384.16868    37599.264 
  565700    294.15999   -1457.6351    469.05007     334.5591   -142.98496    37599.264 
  565800    295.03481   -1477.8008    464.42282    313.70114   -735.89879    37599.264 
  565900    306.42374   -1455.0411    484.91218    408.17804   -487.03033    37599.264 
  566000    306.90848   -1495.2107    451.37955    336.65623   -946.66088    37599.264 
  566100    290.24504   -1478.5849    468.98608    295.93567   -727.80848    37599.264 
  566200    305.63788   -1496.0582    476.97497     355.6889   -637.56758    37599.264 
  566300     299.9364   -1512.7846    499.19986    335.54191    57.226962    37599.264 
  566400    302.37122   -1499.0526    481.61582    342.64176    -216.6612    37599.264 
  566500    305.17639   -1507.1476    484.85428    350.40295    220.83706    37599.264 
  566600    298.11055   -1512.7565    491.26748    319.42483   -201.31734    37599.264 
  566700    304.10088   -1539.6233    484.49443    312.72981   -15.885781    37599.264 
  566800    297.66183   -1488.2611    472.87431     323.5088    -378.6495    37599.264 
  566900     296.1506   -1508.7501    502.99907    326.34688   -62.477089    37599.264 
  567000    291.89108   -1520.5914    489.19413    281.54119   -287.19611    37599.264 
  567100     305.6487   -1481.2972     489.8677    383.39133    241.80781    37599.264 
  567200    292.93714   -1460.7361    502.80313    359.71066   -2.0326728    37599.264 
  567300    298.75207   -1459.7188    473.25788    357.33854    14.114692    37599.264 
  567400    298.17072   -1516.3982     462.9885    287.77481   -290.27244    37599.264 
  567500    293.80841   -1513.1003    467.68903    276.15144     214.9121    37599.264 
  567600    294.54755   -1513.2941     489.9672    301.56042   -4.2797897    37599.264 
  567700    303.74207    -1499.728    495.47871    361.99539    701.03743    37599.264 
  567800    298.12484   -1472.0343    464.16347    333.10731    334.20645    37599.264 
  567900    296.56749   -1487.0178    507.70609    354.66143     128.5839    37599.264 
  568000    300.60553    -1505.969    483.28077     329.4482    611.46236    37599.264 
  568100    282.86157   -1507.6182    479.64733    244.35246   -137.98837    37599.264 
  568200    300.90932   -1519.8559    491.45569    325.10271    26.767842    37599.264 
  568300    298.28027   -1513.5643    475.90605    304.01907   -137.86269    37599.264 
  568400    311.45078   -1541.7911    458.77854    317.90623   -335.16486    37599.264 
  568500    303.75851   -1502.8992    480.68726    344.10677   -504.46065    37599.264 
  568600    302.39591   -1494.3797    474.79327     340.6032    415.15108    37599.264 
  568700    303.89824   -1507.6952    487.62677     346.8787    64.847059    37599.264 
  568800    312.45365   -1501.8643    465.96794    369.53336     1064.067    37599.264 
  568900    297.07268   -1545.9961    465.37826    255.62763    441.15969    37599.264 
  569000    294.03565   -1521.5594    480.23485     281.2603    330.89431    37599.264 
  569100    303.95514   -1494.3373    477.29314      350.159    263.06441    37599.264 
  569200     295.9676   -1527.8139    470.66433    274.12521   -38.965388    37599.264 
  569300    308.17039   -1526.1942    483.50772    343.47693   -46.425473    37599.264 
  569400     291.2565   -1501.5385    432.83993    241.38551   -106.95488    37599.264 
  569500    292.16738   -1503.1508    500.36233    311.39275    165.06332    37599.264 
  569600    297.11807   -1520.4006    481.90125    297.95032    639.43078    37599.264 
  569700    296.13072   -1524.3629    466.89415    274.53978    554.06818    37599.264 
  569800    299.84433   -1551.2821    493.54269    290.97308    575.80625    37599.264 
  569900    299.43034   -1539.3792    442.54406    250.01522    692.25694    37599.264 
  570000    301.17185   -1471.6297    483.22537    366.27945    1148.5321    37599.264 
  570100    305.35925   -1492.9082     453.4893    334.09996    891.38776    37599.264 
  570200    294.35862   -1557.2671    460.29331    227.06372    290.11023    37599.264 
  570300    313.27093   -1559.8445    509.97283    359.23425    77.073026    37599.264 
  570400    298.02794   -1498.2421    474.65288    316.95313    6.5579646    37599.264 
  570500    301.13356    -1525.968      461.833    290.37651   -180.47769    37599.264 
  570600    306.31029   -1547.7056    460.00318    290.09425   -655.41719    37599.264 
  570700    307.91581   -1504.6906    471.62806    351.95579   -50.016175    37599.264 
  570800    299.12404   -1501.7071    470.18124    313.94672   -431.86187    37599.264 
  570900    306.82742   -1532.7669     469.6753    317.03115   -863.29912    37599.264 
  571000    309.36192   -1511.1938    456.42679      336.756   -158.34131    37599.264 
  571100    296.08401   -1514.7039    476.64597    293.74053   -481.87475    37599.264 
  571200    297.38418   -1518.7927    471.78178    290.63574   -96.543824    37599.264 
  571300    301.38991   -1508.4738    479.77162    326.96246    102.62818    37599.264 
  571400    302.19942   -1511.1886    473.36492    321.48217   -335.06781    37599.264 
  571500    292.47471   -1485.2978    483.97029    314.23617   -131.98851    37599.264 
  571600    289.79773   -1544.4848    482.87086    241.90854   -559.39171    37599.264 
  571700    299.86353   -1479.7879    452.77792     321.7889   -574.54119    37599.264 
  571800    298.73688    -1462.257    466.38119    347.85535   -720.84146    37599.264 
  571900    299.60078   -1487.3386    485.95992    346.23832   -445.13905    37599.264 
  572000    290.21371    -1505.975    444.26068    243.67927   -623.55502    37599.264 
  572100    300.45159    -1456.052    471.88329    367.27527   -221.29127    37599.264 
  572200    297.89255   -1477.9854    468.42731    330.37528   -112.39802    37599.264 
  572300    300.02377   -1488.6339    489.75519    350.64088    858.60228    37599.264 
  572400    304.20559   -1493.8192    467.10841    341.61879     867.5609    37599.264 
  572500    292.04157   -1463.6091    490.63171      340.638    628.09354    37599.264 
  572600    307.03239    -1464.698    473.76436    390.11107    1056.4677    37599.264 
  572700    303.99179   -1496.8923    511.54244    382.01812    775.71551    37599.264 
  572800    290.91415   -1487.3655     497.7413    318.91992    750.01103    37599.264 
  572900    301.72852   -1489.0331    455.09407    323.24866    623.65049    37599.264 
  573000    302.94417   -1469.5113    471.63376     364.7782    462.83336    37599.264 
  573100    312.64806   -1459.1402    470.71499    417.87902   -10.486654    37599.264 
  573200    295.76697   -1483.6328     456.4438    303.18335   -23.655816    37599.264 
  573300    283.63754   -1502.7708    468.92801    241.97084   -233.80313    37599.264 
  573400    302.11271   -1496.4784    458.94488    321.38228     659.3553    37599.264 
  573500    299.65615   -1504.7003    480.08889    323.25462    689.97619    37599.264 
  573600    296.54035   -1499.6939    501.30887    335.46604    42.108859    37599.264 
  573700    301.78455   -1524.8585    470.52717    303.10833   -4.6073222    37599.264 
  573800    303.53986   -1498.2008    454.01178    321.14614    -248.9275    37599.264 
  573900     298.1505   -1505.2796    477.19481    313.00874     558.5411    37599.264 
  574000    291.50244   -1542.2324    486.94488    255.90281   -2.1588726    37599.264 
  574100    307.64081   -1493.3035    466.56141    357.03931     404.7732    37599.264 
  574200     301.6936   -1477.7648    475.61859    354.88445   -434.42804    37599.264 
  574300    299.81751   -1480.3236      485.353    353.62127    180.24524    37599.264 
  574400    303.15474   -1499.9426    469.43532    333.09563     257.7571    37599.264 
  574500    309.18392   -1524.5513    506.19754    372.36863    705.50963    37599.264 
  574600    308.16946   -1521.6627      465.126    329.62258    992.49073    37599.264 
  574700    297.08953    -1497.131    483.59923     322.7895     779.6376    37599.264 
  574800    287.92354   -1489.8623    481.33742    286.56743    858.16199    37599.264 
  574900    309.88367   -1477.8121    473.64845    389.70618    666.78623    37599.264 
  575000     294.7541   -1509.3676    449.42612    265.87498    559.01788    37599.264 
  575100    295.33712   -1472.2644    468.46635    324.64081    415.46437    37599.264 
  575200    304.22019   -1472.2857    461.41801    357.52763   -179.11236    37599.264 
  575300    304.78152    -1495.265    498.48638    374.14163    372.56529    37599.264 
  575400    287.72533   -1500.2342     486.7422    280.70871    295.74386    37599.264 
  575500    310.92132   -1482.8554    474.92141    390.60327    330.10599    37599.264 
  575600    304.85207   -1481.6516    472.98228    362.56822   -255.80891    37599.264 
  575700    303.82067   -1479.8569     471.6175    358.35883    -731.5235    37599.264 
  575800    302.70484   -1471.9535    464.46219    354.08786   -470.66964    37599.264 
  575900    295.15974   -1455.9562    478.43811     350.1229   -139.38319    37599.264 
  576000    299.90377   -1477.4697    490.64852    362.15869   -76.715014    37599.264 
  576100    301.33076   -1500.0293     477.0317    332.40095   -198.07163    37599.264 
  576200    289.29053   -1494.9203      496.019    302.33976   -42.933029    37599.264 
  576300    290.75397   -1509.6186    453.98319    252.18824   -46.462669    37599.264 
  576400    303.20689   -1438.0598    484.34129    410.11894    96.131714    37599.264 
  576500    297.34831   -1472.9042    474.92275    339.50382   -121.40976    37599.264 
  576600    308.72093   -1515.0217    466.20585    339.82395    242.47683    37599.264 
  576700    300.69087   -1483.2834    490.21213    359.44898    74.364942    37599.264 
  576800    293.52034   -1545.9884    466.08571    240.36425    3.4493724    37599.264 
  576900    302.96794   -1533.8751    470.77013     299.6577    885.05662    37599.264 
  577000    300.71658   -1551.6477    459.08689     260.0751   -11.867526    37599.264 
  577100    296.88079   -1519.2671    493.90896     310.0242   -7.0744874    37599.264 
  577200    304.39067   -1479.2528    471.08346    360.99278    169.39383    37599.264 
  577300    301.33167   -1477.4401    490.79773    368.76027     205.2069    37599.264 
  577400    308.78423   -1496.4214    491.35453    383.85766   -182.09484    37599.264 
  577500    303.53643   -1483.5001    488.71735    370.53695   -420.67462    37599.264 
  577600    304.99465   -1485.5389    492.44433    378.78433    199.91714    37599.264 
  577700    305.08707   -1507.7085    477.12665    341.71277   -32.225934    37599.264 
  577800    292.78413   -1483.0713    480.19009    314.07419    369.65161    37599.264 
  577900    297.14546   -1487.2992    483.96421    333.23788    32.007056    37599.264 
  578000    293.60615   -1484.0344    469.52124    306.13969      160.517    37599.264 
  578100    306.94471   -1477.7149    523.03733    425.97271    6.2043742    37599.264 
  578200    306.15372   -1466.7447    484.79128    395.13901   -91.855554    37599.264 
  578300    304.06542   -1501.0502    469.29606    335.94498   -239.19898    37599.264 
  578400    304.20276   -1499.7325    503.22668    371.81112   -463.75206    37599.264 
  578500    299.19459   -1455.1812    463.14068    353.74949   -392.75482    37599.264 
  578600    304.37407   -1546.4598    483.75526    306.38293   -286.83988    37599.264 
  578700     304.4003   -1526.7694    478.84532    321.28132    317.16062    37599.264 
  578800    308.98966   -1489.8101    472.94285    372.98137   -22.293526    37599.264 
  578900    303.40102   -1502.1208    457.61484    320.20469     -128.365    37599.264 
  579000    307.99573   -1532.1798    477.84696    331.04499    230.03539    37599.264 
  579100    292.92912   -1517.3391    462.33976    262.60828    266.18971    37599.264 
  579200    307.93646   -1538.7854    465.05625    311.38206    240.30526    37599.264 
  579300    289.45015   -1493.3654    476.77512    285.36877   -279.90371    37599.264 
  579400    294.50224   -1507.6797    464.21674    281.22064    595.53178    37599.264 
  579500    309.30715   -1526.0324    487.18252    352.42675     10.19386    37599.264 
  579600    300.92999   -1529.3338    471.62046    295.88252    57.112217    37599.264 
  579700    299.40513   -1556.3651    441.97971    232.35155   -613.75313    37599.264 
  579800    288.71169   -1524.6228    475.26269    249.27726   -646.03871    37599.264 
  579900    295.95848   -1525.5267    477.65858    283.36565   -433.07999    37599.264 
  580000    293.45642   -1554.7714    438.60066    203.80864    160.40199    37599.264 
  580100    288.33625   -1540.3484    473.84919    230.44948     497.5092    37599.264 
  580200     329.9812   -1520.1363    473.77977    437.91286   -567.78219    37599.264 
  580300    306.03427   -1528.9322    457.30177    304.92464   -563.74953    37599.264 
  580400    309.57743   -1541.9553    473.53881    324.07589   -184.83693    37599.264 
  580500    304.65944   -1484.9718    468.28447     353.6838   -276.98586    37599.264 
  580600     299.0489   -1526.1385    483.39053     302.3867    346.93967    37599.264 
  580700    295.81028   -1558.9763    468.10012    239.69094   -24.318339    37599.264 
  580800    297.98709    -1530.965     488.7687    298.16222   -302.04502    37599.264 
  580900    306.19209   -1507.6306    470.74494    340.37939    156.39148    37599.264 
  581000    287.54223   -1521.9204    486.61804    258.07479   -582.50922    37599.264 
  581100    309.75616    -1514.136    461.37144    340.53172   -927.64903    37599.264 
  581200    301.68317   -1488.8594    481.02656    349.15086   -739.69177    37599.264 
  581300    297.35778   -1527.6869    468.55612    278.39709   -771.20917    37599.264 
  581400    303.33657   -1558.3439    458.78592    264.86279    102.85178    37599.264 
  581500    300.52828   -1514.9441    478.91131    315.75614    427.59687    37599.264 
  581600    300.94808   -1492.7825    498.44411    359.33888    684.96589    37599.264 
  581700    291.72427   -1484.7993    474.56625    301.95508    1028.7823    37599.264 
  581800    294.73974   -1495.1255    474.70621    305.33256    1693.7262    37599.264 
  581900    299.10581   -1466.3601    476.68037    355.71086    611.62547    37599.264 
  582000    300.08473    -1479.785    495.38314    365.39199    660.17487    37599.264 
  582100    306.16421   -1518.1124    461.42584    320.45301   -22.307198    37599.264 
  582200    293.78874   -1488.6407    447.41427     280.2478     48.42065    37599.264 
  582300    295.16353   -1499.8589    490.03249     317.8316   -53.905608    37599.264 
  582400    305.30095   -1525.3105    497.99767     345.9438    129.93987    37599.264 
  582500    305.06607   -1499.4881    473.57106    346.28302    269.83395    37599.264 
  582600    295.13664   -1481.7694     462.9609    308.72857    548.93171    37599.264 
  582700    291.08668   -1519.2509    481.78075    271.85005    21.257373    37599.264 
  582800    294.98005   -1495.8023    457.94657    288.97706   -134.75449    37599.264 
  582900    298.45234   -1478.1875    473.11635    337.38009   -466.22663    37599.264 
  583000    296.36276   -1504.5105    464.46795    293.00967   -918.81992    37599.264 
  583100    296.23939   -1518.5022    490.20587    304.20098   -550.73259    37599.264 
  583200    305.28999   -1486.7436    485.66364    372.12732    139.09103    37599.264 
  583300    300.76107   -1522.9467    466.21324    296.10257    148.12409    37599.264 
  583400    294.26537   -1526.0632    477.74273    275.29765    200.10843    37599.264 
  583500    305.61215   -1513.5428    469.58459    330.69814    208.68631    37599.264 
  583600    291.05053   -1508.7854    492.63227     293.0045    299.27737    37599.264 
  583700    303.62541   -1508.4719    486.10093    343.34897    347.80414    37599.264 
  583800    292.96067    -1485.897    480.10121    311.95372    53.598861    37599.264 
  583900    296.92249    -1466.766    472.65493    341.45882   -46.657075    37599.264 
  584000    303.27331   -1487.9714    461.49744    337.66219   -345.80448    37599.264 
  584100     302.8819   -1485.1174    467.38183    344.64008    -865.0106    37599.264 
  584200    298.49618   -1476.5884    467.00842    333.06845   -616.20413    37599.264 
  584300    302.12871   -1460.6749    495.89128    394.20412   -558.14607    37599.264 
  584400    299.40242   -1462.6784    482.39918    366.44556   -593.92615    37599.264 
  584500    312.79398   -1445.5981    470.17567    431.53819   -221.56753    37599.264 
  584600    302.38516   -1479.8175    499.63432    379.95812   -90.970891    37599.264 
  584700    306.19783    -1462.853    498.33286    412.77064    472.17317    37599.264 
  584800    297.56218   -1449.9809    477.13707    365.60346    56.989713    37599.264 
  584900     304.9558   -1474.3032    504.02864    401.42957    344.81225    37599.264 
  585000    309.26951   -1481.7678    476.41745    385.75706    514.06405    37599.264 
  585100    307.75064   -1495.8816    465.93551    354.32935    449.07387    37599.264 
  585200    303.19988   -1482.0221    471.16517    352.94898      391.851    37599.264 
  585300    303.84126   -1494.6354    484.29764    356.35312    934.94166    37599.264 
  585400    306.99107   -1501.6207    475.01187    354.25006    369.73456    37599.264 
  585500    304.27854   -1490.5297    479.56686    357.69489    455.85253    37599.264 
  585600    310.09069   -1474.9442    468.03951    387.89636    433.96748    37599.264 
  585700     304.4142    -1509.964    473.17614    332.48014   -361.35875    37599.264 
  585800    305.31423   -1488.3173    467.23129    352.23034   -38.735801    37599.264 
  585900    297.47123   -1528.4278    486.12322    295.73364     241.0939    37599.264 
  586000    306.00668   -1456.1396    485.19205    405.48344   -215.67504    37599.264 
  586100    295.68981   -1483.9308    489.33539    335.42985    514.65594    37599.264 
  586200    307.48012   -1466.8559    467.60218    383.80495    95.333283    37599.264 
  586300    296.30725   -1474.1764    507.54617    366.17239    105.12383    37599.264 
  586400    311.52264   -1475.2473    469.03063    395.02531    381.72787    37599.264 
  586500    303.11944   -1498.3526    498.19766    363.28915    485.34232    37599.264 
  586600    302.08355   -1490.2769    490.35263     358.8603   -152.60438    37599.264 
  586700    295.08669   -1482.0206    482.09073    327.38254     217.3707    37599.264 
  586800    294.86417   -1534.3043    460.16391    252.17112    459.48073    37599.264 
  586900    299.49413   -1508.1207    483.44794    322.46457    211.00978    37599.264 
  587000    299.93272   -1484.3207     472.7863    337.57566    153.73619    37599.264 
  587100    302.88028   -1510.4016    477.72661    329.69332    933.80306    37599.264 
  587200    301.46084   -1479.5742    473.07716    349.48658   -383.55669    37599.264 
  587300    305.09652   -1490.9688    518.20555    399.57386    73.771926    37599.264 
  587400    297.46212   -1555.9103     475.2418    257.32877   -509.36316    37599.264 
  587500    306.44082   -1454.8309     479.3262    402.87907    184.60698    37599.264 
  587600    297.51732   -1482.0745    493.29777    349.46876   -508.08719    37599.264 
  587700    298.41906   -1503.7365    483.40446     321.9696    333.86638    37599.264 
  587800    318.42123   -1448.4988    509.37895    493.15227    345.15919    37599.264 
  587900    304.41943   -1451.7504     491.8024    409.34352     67.79167    37599.264 
  588000    295.84567    -1483.146    473.15881    320.73916   -125.57978    37599.264 
  588100    302.11422   -1504.6683    484.81636    339.07061    -579.6106    37599.264 
  588200    294.41977   -1491.4881     453.5224    286.34689   -406.56623    37599.264 
  588300    297.65684    -1505.387    487.93078    321.41684     83.31265    37599.264 
  588400    297.78287   -1474.7193     463.8231    328.54378   -26.754801    37599.264 
  588500    294.14409     -1485.75    494.45009    331.77265    233.24374    37599.264 
  588600    288.85006   -1502.3373    501.84249    298.76498   -447.97303    37599.264 
  588700     310.2383   -1504.0579    484.38223    375.78931   -548.36763    37599.264 
  588800    297.72028   -1514.1274    485.94541     310.9764   -159.70339    37599.264 
  588900    296.74987   -1477.7159    472.26532    329.34288    26.713746    37599.264 
  589000    299.79365   -1470.1642    524.49392     402.8143    308.43039    37599.264 
  589100    295.95804   -1471.8185    486.37129    345.78457    461.89254    37599.264 
  589200    298.05706   -1486.2213    503.24478    357.69681    36.310015    37599.264 
  589300    293.85381   -1501.3547    488.15504    308.56725    471.85855    37599.264 
  589400    296.76881    -1469.812    480.68988    345.75651   -196.89471    37599.264 
  589500    301.82019   -1428.9242    487.49831    416.17408   -38.420391    37599.264 
  589600    301.61168   -1462.0034    487.94278    382.60152   -287.97112    37599.264 
  589700    302.03144   -1451.1995    500.01944    407.37018    509.02511    37599.264 
  589800    290.60864   -1424.6152    486.51962    369.07436    58.836366    37599.264 
  589900    308.78982   -1431.2332    520.71264    478.42914   -345.67239    37599.264 
  590000    306.80058   -1430.9782    481.33832    430.36208    15.857161    37599.264 
  590100    292.62258   -1445.6637    471.49032    342.05535   -379.06338    37599.264 
  590200    298.53348   -1443.1929    521.35518    420.97854   -579.80279    37599.264 
  590300    306.38404   -1460.6504    477.08054     394.5585   -317.02805    37599.264 
  590400    306.81211   -1483.0281    497.47327      394.499   -104.57686    37599.264 
  590500    308.90394   -1501.9733    466.35959    353.84933   -427.63575    37599.264 
  590600    298.63377   -1502.4819      464.275    305.06044   -352.65224    37599.264 
  590700    304.81113   -1499.1391    473.64312    345.55743   -413.55757    37599.264 
  590800    290.72164   -1521.8278    492.79486    278.64535   -338.99935    37599.264 
  590900    288.12906   -1515.7128    495.04957    275.35346   -596.89962    37599.264 
  591000    292.63932   -1508.5991    485.16759    292.87257    203.81021    37599.264 
  591100    303.59446   -1478.1791    500.87328    388.27496    971.15016    37599.264 
  591200     303.6828    -1519.201    487.58808    334.36523    723.49116    37599.264 
  591300    306.15551   -1494.1882    478.05355    360.96582    845.84498    37599.264 
  591400     298.8916   -1501.3221    464.31826    307.42323    335.05081    37599.264 
  591500    300.41833   -1534.2341     488.1887    305.24892     194.2772    37599.264 
  591600    295.00448   -1582.2992    459.87789    204.52133   -379.94606    37599.264 
  591700    298.87883   -1550.7167    454.98886    248.64182   -142.43577    37599.264 
  591800    306.88545   -1514.9147    453.93813    319.40719   -244.68068    37599.264 
  591900    303.72382   -1554.6504    460.44846    271.96064   -479.01636    37599.264 
  592000    296.41897   -1529.0554    471.97313    276.22282   -408.97016    37599.264 
  592100     315.2437   -1534.9879    461.07524    344.06688   -32.518101    37599.264 
  592200    303.35131   -1519.2615    483.84618    329.07176    281.44225    37599.264 
  592300    313.48597   -1515.4043    447.31608    341.98498    88.917434    37599.264 
  592400     300.4258   -1513.8226    480.69577    318.20114    345.05886    37599.264 
  592500    302.39174   -1512.9395    469.32584    316.55716   -14.175759    37599.264 
  592600    311.13558   -1539.9091    460.65884     320.2508    297.05517    37599.264 
  592700    292.37186   -1484.0795    509.29055    340.31202    289.24568    37599.264 
  592800     303.8647   -1468.0505    505.26096    404.00677    -116.2844    37599.264 
  592900    297.29817   -1468.2326    479.06255    348.08973    -177.6983    37599.264 
  593000    296.83568   -1528.2279    462.65953    269.61106   -251.59876    37599.264 
  593100    292.09742   -1500.8949    483.40564    296.37734   -518.06053    37599.264 
  593200    292.97996   -1538.1102    478.57939    258.30543    157.07701    37599.264 
  593300    305.40951   -1508.6608    473.96113    339.04527    75.677474    37599.264 
  593400    291.44504   -1501.1723    472.24251    282.00237    -26.09397    37599.264 
  593500    297.73043   -1489.0371    483.32341    333.49033    1109.5625    37599.264 
  593600    295.97612   -1467.7303    473.77539    337.35825    567.86474    37599.264 
  593700    298.32251     -1514.71     459.6348    286.79211    539.73188    37599.264 
  593800    292.88227   -1525.8861    460.45051    251.96124    636.35746    37599.264 
  593900    289.68853   -1497.7239    485.55766    290.86502    -124.0148    37599.264 
  594000    307.58178   -1482.5267    486.35815    387.34735    175.90285    37599.264 
  594100    293.66733   -1493.5417    476.76709    304.15345   -215.72582    37599.264 
  594200    308.73232   -1454.9958    488.45562    422.15086    51.197631    37599.264 
  594300    300.36877   -1437.6292    489.24403    402.68631   -703.42172    37599.264 
  594400    291.74551   -1419.3514    469.79119    362.72347   -146.55743    37599.264 
  594500    293.95607   -1396.6566    506.00846    431.57877    445.29968    37599.264 
  594600    304.79094   -1463.8023     491.2778     398.4381    825.50887    37599.264 
  594700    300.77438   -1432.2716    483.79649    404.42081    386.45181    37599.264 
  594800    300.18381   -1463.1237    458.16509    345.28088    78.005722    37599.264 
  594900    301.06108   -1445.3675    482.38842    391.20636    97.761227    37599.264 
  595000    301.97317    -1473.535    484.37002    369.12313   -246.57225    37599.264 
  595100    293.83792   -1450.5161    467.76989    338.94919     61.23367    37599.264 
  595200    296.00914   -1448.8812    483.73323    366.31369   -226.47449    37599.264 
  595300    292.64114   -1488.9398    462.46419    289.83666    124.22851    37599.264 
  595400     299.4212   -1457.0996    474.11045    363.82014    337.75283    37599.264 
  595500    304.56001   -1492.8539    483.29604    360.36599    495.54798    37599.264 
  595600    299.60925   -1501.1117    493.67234    340.21575   -31.184211    37599.264 
  595700     306.0213   -1467.4483    481.15807    390.20652     542.2468    37599.264 
  595800    290.66185   -1460.1774    498.60568    345.83762    476.28842    37599.264 
  595900    298.01937   -1463.0418    497.93106    375.39302   -91.774496    37599.264 
  596000    302.54999   -1480.9385    493.71992    373.66404    546.87724    37599.264 
  596100    293.86328   -1514.4203    484.99913    292.38828    154.50104    37599.264 
  596200    291.55525   -1480.0951    485.94326    317.27601    379.42042    37599.264 
  596300    293.64271    -1523.217     452.3621    249.96247    141.23025    37599.264 
  596400    303.40125   -1553.2453    475.04495    286.51132    101.89016    37599.264 
  596500    299.06509   -1490.4934    493.93657    348.65058    374.12179    37599.264 
  596600    304.51517    -1515.555    453.68019    307.84735   -445.01193    37599.264 
  596700    290.84655   -1477.4316    470.45379     301.2623   -302.59154    37599.264 
  596800    303.01886    -1448.279    467.91956    382.63229   -308.63599    37599.264 
  596900    307.78967   -1438.0788    469.61858     415.9907    -82.74383    37599.264 
  597000    291.29449   -1471.2042    472.16389    311.21466    123.75997    37599.264 
  597100    298.09547   -1440.2134    496.61301    397.24562    452.62044    37599.264 
  597200    289.74148   -1446.0732    480.80202    337.99829    121.56336    37599.264 
  597300     302.5115    -1416.874    489.83018    433.66572    201.35447    37599.264 
  597400    292.24371   -1455.4945    464.15578    323.18588    347.60368    37599.264 
  597500    301.54714    -1448.594     487.2685    395.04628    597.87918    37599.264 
  597600    289.82925   -1477.8921    456.26221     282.0343    231.03403    37599.264 
  597700    299.55923   -1489.8997    481.71558    339.24603    318.99884    37599.264 
  597800    290.48068   -1509.3594     454.0607    251.29567    259.65839    37599.264 
  597900    301.96547   -1494.3937    483.54542    347.40521    136.72329    37599.264 
  598000    305.23363   -1504.8392    483.72421    351.83876    222.76213    37599.264 
  598100     293.1477   -1501.7243    472.32334     289.1898   -130.42032    37599.264 
  598200    301.91765   -1544.7297    464.90989    278.21853    63.567301    37599.264 
  598300    301.91578   -1550.6745    443.07551    250.43098   -743.98441    37599.264 
  598400    289.81768   -1505.6577    467.80526    265.75976   -466.32929    37599.264 
  598500    300.50032   -1507.8089    469.72631    313.58055    -586.3379    37599.264 
  598600    303.39356   -1517.0057    483.11666     330.7881   -312.00333    37599.264 
  598700    292.77849   -1481.9116    482.00639    317.02489    277.24351    37599.264 
  598800     297.4086    -1544.301    468.43717    261.89269     257.7878    37599.264 
  598900    301.23786   -1544.9974    480.30713    290.29039    227.55789    37599.264 
  599000    307.42552   -1534.8809    464.55226    312.48434    466.03684    37599.264 
  599100    305.53445   -1478.7694    472.93894     368.4764    449.39915    37599.264 
  599200    291.58521   -1508.5326    455.77912    258.80917    204.45251    37599.264 
  599300    301.51986   -1519.3982    488.56744     325.4183    310.78463    37599.264 
  599400     297.3437   -1533.0129    463.52487    267.97657    322.32607    37599.264 
  599500    295.41614   -1487.8767    463.98135    304.89898    475.29634    37599.264 
  599600    301.78921   -1449.6358    475.35204    383.17687    409.10049    37599.264 
  599700    318.41635   -1442.8679    474.33652    463.71883    180.97578    37599.264 
  599800    300.10982   -1451.1185    444.06394     342.8521    222.91693    37599.264 
  599900    300.74797   -1523.9755    502.35585     331.1575   -382.21108    37599.264 
  600000    294.01445   -1519.3664     457.4651    260.58813    308.85211    37599.264 
  600100     300.6775     -1522.66    451.52958    281.32967   -15.292832    37599.264 
  600200    306.61811   -1514.8335    478.98672    343.33447    667.77941    37599.264 
  600300    295.85595   -1544.0231     444.5193    231.26878    32.123819    37599.264 
  600400    297.70851   -1530.2412    479.45437    288.31869   -71.299887    37599.264 
  600500    295.46516   -1495.9556    491.07919    324.13842   -137.96501    37599.264 
  600600    300.36394   -1539.6438    424.85322    236.25916    658.46873    37599.264 
  600700    304.11189   -1507.7403    487.25411    347.42202    536.71465    37599.264 
  600800    287.55996   -1532.5016    449.90954    210.86487    128.44026    37599.264 
  600900    289.56781   -1577.9993    456.56878    181.05776    582.54789    37599.264 
  601000    304.50009    -1542.184    477.54953    305.01987    709.88413    37599.264 
  601100     291.2741   -1526.3005    486.29568    270.15841    536.79038    37599.264 
  601200    292.68403    -1496.647    467.50189     287.3601    263.87371    37599.264 
  601300    301.70298   -1513.2664    465.95762    309.76401    184.17033    37599.264 
  601400     310.1335   -1509.1731    454.72167    340.54219    61.725827    37599.264 
  601500    305.12447   -1510.4847    449.52379    311.50183   -187.10811    37599.264 
  601600    300.86215    -1499.186    464.38265    318.48731   -794.81937    37599.264 
  601700    293.09833   -1487.3566    455.91036    286.92249   -610.76617    37599.264 
  601800     284.0604   -1486.1404    474.75395    266.32931   -1080.2222    37599.264 
  601900    302.52571   -1489.8286    472.58216    343.52708   -193.73462    37599.264 
  602000    297.99132   -1489.4436    480.88389    331.81786    -181.7304    37599.264 
  602100    303.21237   -1450.6416    464.75363    377.97411   -89.984959    37599.264 
  602200    300.11261   -1455.8676    471.20395    365.25555   -761.85956    37599.264 
  602300    295.68356   -1516.5831    482.30955    295.72368    132.20142    37599.264 
  602400    306.64462   -1523.5688    468.39788    324.12959    185.30253    37599.264 
  602500    290.84732   -1534.3091    456.82174    230.75623   -615.95365    37599.264 
  602600    307.28485   -1477.7096    486.32117    390.79185   0.13264816    37599.264 
  602700    308.35982   -1482.7054    455.68634    359.99645   -414.94091    37599.264 
  602800    294.80504   -1484.6784    472.74861    314.11571   -948.86406    37599.264 
  602900    300.53858   -1499.4408    476.49618    328.89065   -679.31908    37599.264 
  603000    293.48357   -1495.4309    458.13158    282.80217     -494.866    37599.264 
  603100    301.76772   -1510.8529    477.23193    323.74301    129.71658    37599.264 
  603200     293.0387   -1538.6791    488.84416    268.26554    243.21944    37599.264 
  603300     300.7731   -1540.9638    444.82479    256.75116    496.54298    37599.264 
  603400     295.5789   -1555.9922    472.34552    245.87974   -63.239814    37599.264 
  603500    299.44687   -1548.7515    439.31933    237.49252    54.689601    37599.264 
  603600    311.70909   -1513.3548    463.95087    352.67678   -139.10685    37599.264 
  603700    298.06876   -1535.9447    450.99307    255.77427   -313.18624    37599.264 
  603800    294.29432    -1504.635    463.60284    282.71618   -604.12145    37599.264 
  603900    296.05143   -1510.0651    484.64554    306.23233   -380.82585    37599.264 
  604000    297.08735   -1486.1713    457.60426    307.74445    -42.38887    37599.264 
  604100    302.63713   -1533.8608    471.02421    298.43803   -226.16356    37599.264 
  604200      299.122   -1522.7924    470.28401      292.955   -249.36061    37599.264 
  604300    296.05976    -1531.637    464.12243    264.17476    26.973534    37599.264 
  604400    292.18798   -1525.3889    456.00878     244.8938    -430.3605    37599.264 
  604500    301.88561   -1489.0746    459.82499     328.6447   -821.13975    37599.264 
  604600    307.70278   -1455.6807    481.70031    410.07974   -6.9677335    37599.264 
  604700    302.50769   -1476.2074    461.83231    346.31733   -18.807494    37599.264 
  604800    302.35272   -1506.8991    466.52046    319.61676   -275.65462    37599.264 
  604900    302.03709   -1512.6814    454.67575    300.56995   -440.86498    37599.264 
  605000    320.51705   -1522.2806    453.76056    373.17926    268.44054    37599.264 
  605100    308.94299   -1533.1746    468.04598    324.51005    44.627073    37599.264 
  605200    294.26071   -1559.9828    453.11919    216.73351    451.85025    37599.264 
  605300    294.08472   -1501.4313    449.29298    270.66717    72.378243    37599.264 
  605400    306.05627   -1445.8919    486.89637    417.65859    1.6707927    37599.264 
  605500    302.72233   -1481.9949    473.79159     353.4545    264.39291    37599.264 
  605600    306.38116   -1508.1022    461.87237    331.88565   -159.38065    37599.264 
  605700    312.42152   -1503.0581    461.27909    363.50624   -487.80586    37599.264 
  605800    308.02071   -1533.5041    461.21164    313.19773    -523.6227    37599.264 
  605900     301.5677   -1504.7305    487.23328    338.96708   -362.70842    37599.264 
  606000    296.29669   -1499.4692    476.78851     310.0744   -161.89869    37599.264 
  606100    291.52294    -1499.393    490.79091    302.68041    -339.0539    37599.264 
  606200    291.89201   -1521.9778     469.1479    260.11276   -734.98716    37599.264 
  606300    295.02803   -1542.1531    465.72675    250.62223   -5.1814398    37599.264 
  606400    288.95815   -1522.3515    471.38535    248.77986   -77.310936    37599.264 
  606500    295.51564   -1522.2386    441.03205    248.03535   -228.98788    37599.264 
  606600    303.36219   -1536.9766    473.39068    300.95003    23.112863    37599.264 
  606700     303.3913    -1538.275    450.89503    277.28695    306.16297    37599.264 
  606800    296.30424   -1569.7847     479.5478    242.55211     565.2184    37599.264 
  606900    308.27617   -1525.3323    455.48303       316.79   -77.337277    37599.264 
  607000    305.18366   -1553.0973    496.78087    316.41264   -216.70004    37599.264 
  607100    301.96865   -1529.3399    442.60644    271.53427     388.0042    37599.264 
  607200    291.63367   -1546.4912    475.71642    241.00585   -301.24964    37599.264 
  607300    300.03784   -1540.0905    485.45866    294.95112   -499.27687    37599.264 
  607400    299.25827   -1559.0415    458.69138    245.72627   -76.388708    37599.264 
  607500    316.26534   -1531.2008     494.9887    386.36283    513.74552    37599.264 
  607600    297.94345   -1564.3309    470.24451    246.07585    15.197302    37599.264 
  607700    306.54176   -1522.0051    479.95513    336.78785   -113.34052    37599.264 
  607800    306.64441   -1463.9447    471.05277    386.40764   -23.395033    37599.264 
  607900    304.12876   -1527.4545     468.5249    309.05448   -45.139306    37599.264 
  608000    297.82657   -1510.1041    483.12636    312.65885   -698.61859    37599.264 
  608100    297.15771   -1513.2312    463.59245    286.98922   -222.17769    37599.264 
  608200    301.72016   -1491.5725    493.91905    359.49668   -342.75956    37599.264 
  608300    297.97933   -1493.8294    475.52094    322.01521   -311.31531    37599.264 
  608400    288.56585   -1511.1774     465.8806    252.68466    153.18329    37599.264 
  608500    292.80844    -1494.283    462.72443    285.50624    65.577469    37599.264 
  608600    304.55504   -1475.5993    494.67726    388.97939    -669.8221    37599.264 
  608700    289.54234   -1465.7278    459.63287    296.27879   -58.454082    37599.264 
  608800    310.51255   -1488.1271    508.18106    416.75254    305.80669    37599.264 
  608900    306.05387   -1488.6923    481.97737    369.92831    53.609493    37599.264 
  609000    290.16984   -1485.1735    480.07319    300.09595    186.43012    37599.264 
  609100    308.33337   -1495.8985     483.5338    374.53182    49.200823    37599.264 
  609200    307.27498   -1539.5243    490.80116    333.41272   -91.410315    37599.264 
  609300    294.54792   -1541.9252    462.58737    245.55124   -254.82794    37599.264 
  609400     310.3054    -1496.943    461.33408    360.15789   -68.712041    37599.264 
  609500    312.59066   -1556.2437    470.84333    320.64567    164.62852    37599.264 
  609600    295.98724   -1538.5086    491.58603    284.44054    485.09754    37599.264 
  609700     314.4892   -1509.8653    468.21577     372.9362    503.05504    37599.264 
  609800    295.92443   -1499.5521    460.85728    292.38577    332.66297    37599.264 
  609900    296.56769   -1529.7019    502.74653    307.01871   -640.51163    37599.264 
  610000    301.01939   -1509.0588    471.40414    316.34329      203.407    37599.264 
  610100    302.66976   -1479.7588    477.75368    359.41627    217.27192    37599.264 
  610200    307.57113   -1472.6161    487.09065     397.9425    348.23753    37599.264 
  610300    307.23565   -1432.4903    488.23674    437.70544    122.48174    37599.264 
  610400    293.66744   -1437.2556     491.2716    374.94453   -174.28081    37599.264 
  610500    303.02245   -1466.3917    471.56331    368.17938   -174.22679    37599.264 
  610600    295.66506   -1453.9447    491.76498    367.73425   -587.25086    37599.264 
  610700    300.75574   -1518.4347    498.42679    332.80415   -396.20621    37599.264 
  610800    299.20894   -1511.0554    476.14964    310.94869    -12.76047    37599.264 
  610900      299.911   -1484.3386    503.62094    368.29474    128.64001    37599.264 
  611000     296.7091   -1520.8877    491.01903    304.74146    87.570641    37599.264 
  611100    293.49747   -1487.0252    472.68937    305.82824     21.83806    37599.264 
  611200    298.61837   -1501.7546    517.11346    358.55692    136.77422    37599.264 
  611300    303.03021   -1528.4545    466.36251    300.95072    167.24144    37599.264 
  611400    297.70672   -1525.6926    470.88719    284.29202    306.79672    37599.264 
  611500    291.21758    -1504.011    481.51964    287.41768    -14.40199    37599.264 
  611600    307.14934   -1500.1869    484.78864    366.17248   -263.65692    37599.264 
  611700    291.89003   -1568.2996    461.95937    206.59346   -569.12842    37599.264 
  611800    298.83277   -1560.6972    451.30847    234.77377   -77.186805    37599.264 
  611900    302.25476   -1505.8946    493.46988    347.12998   -258.16892    37599.264 
  612000    296.48577   -1517.3069    471.00957    287.30823   -57.109521    37599.264 
  612100    301.57737    -1537.153    462.87274    282.22755   -183.41161    37599.264 
  612200    290.62403   -1496.4581    478.53454    289.31564   -458.94178    37599.264 
  612300    293.70443   -1509.7149    466.76123    278.14132    -501.4793    37599.264 
  612400    295.96935    -1501.604    491.81797    321.49668   -421.57195    37599.264 
  612500    305.74855   -1520.4564    467.86211    322.67558   -17.022139    37599.264 
  612600    301.21422   -1492.0174      476.146    339.00294   -458.29513    37599.264 
  612700    308.02697   -1497.4368    488.77402    376.85561   -103.76957    37599.264 
  612800     299.0208   -1524.6604    487.83834    308.18616   -297.45954    37599.264 
  612900    306.33432   -1491.0092    475.67019    362.56577    222.96242    37599.264 
  613000    291.59809   -1467.1838    474.24753    318.68434    35.780402    37599.264 
  613100    301.14844   -1493.5925    487.77602    348.76193   -136.84415    37599.264 
  613200    301.27775    -1533.008    484.51611    306.66818   -160.75618    37599.264 
  613300    302.95513   -1513.5379    481.00149    330.16859   -194.59893    37599.264 
  613400    296.93703   -1521.6915    467.87202     281.8159   -240.99695    37599.264 
  613500    309.38701    -1512.167    486.63736    366.10623   -8.4013649    37599.264 
  613600     298.5752   -1510.3287    476.43949    309.11464   -426.79891    37599.264 
  613700    299.95743   -1490.7414    469.56789    328.04773   -355.36297    37599.264 
  613800    299.16076   -1523.4508    472.45912    294.64605   -325.22173    37599.264 
  613900    284.68738   -1525.0606    480.59543    236.07073   -689.96287    37599.264 
  614000    305.08752   -1510.7078    471.49963    333.08842   -453.79233    37599.264 
  614100    295.64013   -1541.2433    452.89834    241.45686   -208.78903    37599.264 
  614200    302.53695   -1520.0012    463.57663     304.3995    4.5446718    37599.264 
  614300    304.65171   -1543.5699    468.78088    295.54725   -191.28747    37599.264 
  614400    298.05735   -1507.4295    459.50307     292.7482   -183.30671    37599.264 
  614500    311.31372   -1531.5162    459.30328    328.08941    -521.6821    37599.264 
  614600    306.37028   -1500.9813    466.78671    343.87189   -875.25565    37599.264 
  614700    301.05141    -1495.175    473.40022     332.3672   -740.88146    37599.264 
  614800    296.20798   -1498.4362    508.29838    342.21824    -435.1146    37599.264 
  614900    288.21275   -1516.4582    495.28366    275.21864   -671.34308    37599.264 
  615000     311.0537   -1518.5387    472.17289     352.7669   -633.25391    37599.264 
  615100      302.306   -1533.6208    461.10097    287.26534   -753.30695    37599.264 
  615200    314.18845   -1536.8822     458.1802    334.53099   -173.39043    37599.264 
  615300    297.91236   -1532.5552    463.73693    271.20412   -245.76514    37599.264 
  615400    297.01951   -1553.7942    481.38435     263.5965   -209.31443    37599.264 
  615500    301.09519   -1485.4398     480.7419    349.64101   -231.42754    37599.264 
  615600     299.7535   -1500.3901    457.71533    305.62917   -131.63217    37599.264 
  615700    301.51428   -1520.8884    480.71935    316.05498    79.618555    37599.264 
  615800    298.92507   -1545.1428    493.18881    292.62364   -138.03521    37599.264 
  615900    308.56844    -1532.294    466.37467    322.03456   -106.81642    37599.264 
  616000    294.59274   -1549.6033    453.21731    228.70466   -68.229908    37599.264 
  616100    295.64897   -1557.3824    481.79616    254.25539     59.13417    37599.264 
  616200    300.96353   -1529.5876    455.56422    279.72336    749.56876    37599.264 
  616300    300.36096   -1564.2189    472.80259    259.61999    476.43468    37599.264 
  616400    286.37652   -1553.6584    508.13061    242.60593    301.93717    37599.264 
  616500    293.28659   -1530.4885     464.6761    253.40313    163.29843    37599.264 
  616600    294.58891    -1521.308    463.17502     266.9404    -467.6195    37599.264 
  616700    302.06554   -1532.6419    484.17503    310.23668    24.909394    37599.264 
  616800    304.90577   -1491.7311    494.04499      373.793   -252.30442    37599.264 
  616900    297.96583   -1525.7743    475.84329    290.33191   -649.24666    37599.264 
  617000    305.15529   -1504.1705    483.09675    351.52772   -745.35053    37599.264 
  617100    301.75033      -1495.2    475.70655    337.79235   -54.670526    37599.264 
  617200     309.3386   -1488.5761    480.61105    383.45308   -72.435713    37599.264 
  617300    305.70329   -1513.1756    486.30319    348.19396    30.281154    37599.264 
  617400     300.8752   -1514.6158    482.48084    321.21444      887.866    37599.264 
  617500     303.9872   -1496.0862     506.2247    377.48577    537.11358    37599.264 
  617600    287.02647   -1535.6725    488.70611    244.09077    366.39843    37599.264 
  617700     297.0823    -1536.273    450.78263    250.79841     88.58136    37599.264 
  617800    292.52632   -1509.8587    513.26392    319.20094   -558.18174    37599.264 
  617900    307.30926   -1483.2235    484.86535     383.9319   -323.59336    37599.264 
  618000    298.92922    -1507.576    461.04391    298.06419   -288.34954    37599.264 
  618100    285.16343   -1468.6726    492.70251    306.70708    -581.1424    37599.264 
  618200    298.78413   -1484.4186    492.67048    352.19555   -488.81928    37599.264 
  618300    292.44488   -1495.7742    489.33619    308.99145   -786.32644    37599.264 
  618400    303.52381   -1453.8642    498.11827    409.51702   -394.06025    37599.264 
  618500    299.74389   -1476.7038     487.4513    359.00822   -444.26662    37599.264 
  618600    283.02022   -1482.4151    505.59104    296.21287      -763.73    37599.264 
  618700    297.63464   -1474.4997    471.49919    335.77274   -542.26749    37599.264 
  618800    287.33335   -1544.6154    466.85691    214.67912    146.57394    37599.264 
  618900    292.21403    -1554.212    482.36183     242.5409    267.57784    37599.264 
  619000    294.36967   -1528.2444    485.32446    281.16734    260.38891    37599.264 
  619100    289.30416   -1519.4207     485.4408    267.32244    437.27425    37599.264 
  619200    305.61166   -1502.7366    491.76996     363.6875   -462.63603    37599.264 
  619300    299.70325      -1479.7    488.84763    357.22552   -284.41045    37599.264 
  619400    307.81504   -1533.9754    467.87212    318.46185   -60.489992    37599.264 
  619500    288.15979   -1533.5457    493.66525    256.27451   -577.97377    37599.264 
  619600    296.71431   -1536.5791    479.32639    277.38087   -680.59365    37599.264 
  619700    288.75192   -1586.6554    488.16713    200.33013    202.59928    37599.264 
  619800    309.92894   -1538.7387    473.72215    329.05697   -46.486605    37599.264 
  619900    294.09726   -1517.1869    484.97898    290.65408   -127.50609    37599.264 
  620000    303.78453   -1543.9595    465.22967     287.7058    317.24723    37599.264 
  620100    305.33516   -1521.6744    479.10242    330.83854    441.01315    37599.264 
  620200    294.28122   -1554.2193    479.29247    248.76261   -197.63906    37599.264 
  620300    299.52371   -1533.3623    466.47736    280.38535   -481.73272    37599.264 
  620400    303.25295   -1548.2948    482.11861    297.86844     -428.076    37599.264 
  620500     296.2959   -1504.9288    496.70391    324.52664   -428.31405    37599.264 
  620600     299.3623   -1497.4758    477.29916    326.36766    89.380713    37599.264 
  620700    301.88885   -1516.4008    486.65201    328.16002   -390.00661    37599.264 
  620800    292.55626   -1498.6952    499.58131    316.81654    263.62181    37599.264 
  620900    293.45697   -1487.2249    519.91313    352.67013    587.93342    37599.264 
  621000    299.60235   -1523.1656    494.39614    318.85465   -83.689151    37599.264 
  621100    301.08936   -1521.3582    512.36294    345.31745    294.43046    37599.264 
  621200    294.29039   -1516.3722    499.17664    306.53511    -306.9005    37599.264 
  621300    295.55995   -1570.2998    494.32588     253.4673   -590.09923    37599.264 
  621400    299.86993   -1524.5989    487.22052    311.44922    -145.8369    37599.264 
  621500    301.77945   -1559.4665    492.17445    290.12471    260.02272    37599.264 
  621600     295.0198    -1545.767    487.32254    268.56711   -146.61899    37599.264 
  621700    307.14005   -1558.8757    482.53009     305.1834   -279.99046    37599.264 
  621800    294.93832    -1560.118    484.55719    251.08428    44.519226    37599.264 
  621900    308.71246   -1524.4085    465.02237    329.21556   -121.19155    37599.264 
  622000    294.41988    -1536.614    485.31947    273.01855    64.873065    37599.264 
  622100    302.97001    -1561.567    468.55908    269.76403    551.56846    37599.264 
  622200    294.09283   -1533.3264    489.70063     279.2162    425.56706    37599.264 
  622300    292.00757    -1531.692    498.54593    280.31633    602.98733    37599.264 
  622400     293.5149   -1542.1843    476.52722    254.58533     514.5897    37599.264 
  622500    307.29422   -1489.1182    492.37254    385.47681     484.9247    37599.264 
  622600    291.10488   -1520.9099    472.19522    260.68737    573.92721    37599.264 
  622700    298.11813   -1559.0226    478.94957    260.87495    70.203291    37599.264 
  622800    298.16038   -1517.9982    499.49835    322.63816   -149.65519    37599.264 
  622900     294.4669   -1498.6324    490.24307    316.13527     -73.5203    37599.264 
  623000    309.30029   -1515.6478    508.73414    384.33211    80.770495    37599.264 
  623100    296.53837   -1509.6254    512.73851    336.95529   -194.17404    37599.264 
  623200    301.73986   -1520.9439    465.68165    301.97647    310.78295    37599.264 
  623300     296.2561   -1484.4169    481.45853    329.61411   -104.30323    37599.264 
  623400    295.22431   -1519.1376    482.40653     291.2004   -281.45309    37599.264 
  623500    301.86126   -1524.0957    504.99569    338.68468    549.31218    37599.264 
  623600    290.07732   -1494.5589    470.37833    280.59947    289.56672    37599.264 
  623700    311.70486   -1525.6422    503.99603    380.41548   -118.47827    37599.264 
  623800    303.71413   -1520.8861     482.2172    327.45016    360.20541    37599.264 
  623900    304.63825   -1523.9791    489.63451    335.93116    694.79336    37599.264 
  624000    299.03955   -1535.5531    494.58975    304.12926    75.424995    37599.264 
  624100    303.33429   -1526.3909    496.22946    334.24907   -74.507595    37599.264 
  624200    309.38292   -1536.2707    467.69685    323.04359    430.27037    37599.264 
  624300     300.2675   -1511.7776    510.50321    349.34159    123.12377    37599.264 
  624400    299.38896   -1488.5942     470.2841    328.35414   -171.82041    37599.264 
  624500    298.60223   -1480.6607    483.94463    346.40945    326.10159    37599.264 
  624600    300.20944   -1504.9745    504.20637    349.58666    602.02114    37599.264 
  624700    299.01305   -1491.2193    479.64591    333.39999     425.9844    37599.264 
  624800    303.27287   -1527.1588    511.96458    348.94001    562.17127    37599.264 
  624900      297.917   -1546.3885    492.49802    286.15284    1079.4874    37599.264 
  625000    313.82236   -1531.6446    497.67128    377.61297    950.32047    37599.264 
  625100    294.70701   -1548.2153    478.17212    255.56146    670.37993    37599.264 
  625200    300.29675   -1486.9705    534.97362    398.75057     727.6224    37599.264 
  625300    302.48364   -1444.4569    512.93931    429.06661    157.56654    37599.264 
  625400    288.47529   -1464.1766     491.9272    325.32471    -335.8218    37599.264 
  625500    299.87883   -1472.4914    525.36343     401.7397   -28.883729    37599.264 
  625600    298.80694   -1461.2332    477.99313    360.80623    786.48782    37599.264 
  625700     305.5684    -1466.368    497.10864    405.20028    540.85947    37599.264 
  625800    291.03237   -1515.7207    510.10744    303.46266    375.23752    37599.264 
  625900    299.51101   -1495.5413    473.13955    324.81149    298.64197    37599.264 
  626000    305.00188   -1530.7989    505.65764    346.77012     673.0824    37599.264 
  626100    307.16845    -1523.277     470.7292    329.10886    710.98056    37599.264 
  626200    300.00358    -1509.136     504.2761     344.5689    617.64118    37599.264 
  626300    301.63158   -1538.4543    488.65167    306.94904    644.98455    37599.264 
  626400    311.14758     -1464.11    480.76418     416.2092    342.28651    37599.264 
  626500    298.41831   -1513.7894    490.88698     319.3958    537.04291    37599.264 
  626600    294.28868   -1496.9238    480.17542    306.97459   -50.495953    37599.264 
  626700    316.52106   -1480.4128    493.53109    436.84342    318.48954    37599.264 
  626800    300.28891   -1517.4078     464.4094    297.71386    -420.1185    37599.264 
  626900     311.8681   -1535.4583    494.40918     361.7468    52.127597    37599.264 
  627000    297.19375   -1500.9939    470.56422    306.36037    527.98441    37599.264 
  627100    296.16911   -1476.2238    498.06751    354.02488    111.34662    37599.264 
  627200    304.21948   -1502.4594     462.7816    328.71437   -175.30092    37599.264 
  627300    297.52612   -1537.8309    464.42844    264.88261   -117.22347    37599.264 
  627400    311.20745   -1561.9463    469.04403    306.92205    -111.3993    37599.264 
  627500    301.18335   -1543.0404    481.02172     292.7168   -110.16979    37599.264 
  627600    303.55054   -1546.8077    495.02582    313.60138   -336.06476    37599.264 
  627700    294.63364   -1467.0005    491.54957    349.82366   -199.75456    37599.264 
  627800    301.92936   -1476.6662    468.93237    350.35717    268.85118    37599.264 
  627900    304.68744   -1498.2301    497.20651     369.4734    59.604649    37599.264 
  628000    300.45334   -1524.6289    468.13053     294.9535   -98.169445    37599.264 
  628100    314.48247   -1490.9014    505.36383    429.01793   -288.90499    37599.264 
  628200    301.42771   -1478.3923    470.72993    348.17221    117.45441    37599.264 
  628300    302.41994   -1492.5559    497.32673     365.0686    244.60022    37599.264 
  628400    299.57752   -1466.3708    462.02927    343.17085    102.09162    37599.264 
  628500    299.31063   -1480.3244    493.18624    359.17372      61.0592    37599.264 
  628600    286.31673   -1484.6404    455.84295    259.06733    304.02402    37599.264 
  628700    294.14647   -1500.6073    446.51755    268.99355   -103.24636    37599.264 
  628800     292.2219   -1485.2902    473.73758     302.8739   -271.83564    37599.264 
  628900    302.67795   -1482.3122    495.32789    374.47391    55.426466    37599.264 
  629000    300.47695   -1488.3824      456.408    319.58364    658.45047    37599.264 
  629100    290.35223   -1483.0477    458.35367    281.32263    383.76527    37599.264 
  629200    295.84724   -1520.9763    452.98818    262.74533    311.17058    37599.264 
  629300    291.77826    -1528.786    454.18711    237.83209    32.383999    37599.264 
  629400    304.26709   -1524.2414    429.13776    273.50259    311.75195    37599.264 
  629500    296.44507   -1517.7695    457.15672    272.80974   -120.70295    37599.264 
  629600    299.16171   -1515.0846    463.43571    293.99313   -371.25845    37599.264 
  629700    290.55878    -1486.793    486.97042    307.12314   -725.77239    37599.264 
  629800    302.70706   -1446.3988    438.12024    353.31061   -501.45044    37599.264 
  629900    286.81259   -1432.8377    476.86032    334.11783   -799.67896    37599.264 
  630000    292.32019   -1490.4582    464.91711    289.32753   -553.85486    37599.264 
  630100    284.60981   -1458.5336    478.93918    300.59255   -576.02165    37599.264 
  630200    306.91323   -1407.8945     478.7513    451.36556    103.94902    37599.264 
  630300     305.2276   -1435.7584    470.67798    407.84625   -67.697143    37599.264 
  630400    301.18785   -1436.7031    468.06007    386.11269    417.50525    37599.264 
  630500    298.98259   -1430.8873    461.19061    375.13967   -39.873958    37599.264 
  630600    301.79136   -1450.6053    471.76158    378.62656   -70.833657    37599.264 
  630700     296.0503     -1461.23    454.54797    324.96474   -275.46907    37599.264 
  630800    309.64316   -1429.7069    456.95616    420.03734   -217.28746    37599.264 
  630900    296.00394   -1415.5657    497.40034    413.27288    -405.9985    37599.264 
  631000    297.45045   -1426.6341    471.91478    383.22538    195.24614    37599.264 
  631100    298.78554   -1413.0537    488.08122    418.97752    700.59658    37599.264 
  631200    300.66513   -1413.6201      472.733    411.51739    927.51199    37599.264 
  631300    309.56777   -1448.5258    518.72342    462.64654    1759.0372    37599.264 
  631400    297.96034   -1434.0185     487.2314    393.45114    1073.5167    37599.264 
  631500    306.43705   -1462.0658    497.70279    414.00375    989.88691    37599.264 
  631600      297.957   -1445.8202    478.81422    373.21724    504.64376    37599.264 
  631700    288.12169   -1420.5168    479.39366    354.86038    99.437327    37599.264 
  631800    301.27887    -1441.788    473.86303    387.24014    648.40516    37599.264 
  631900    303.15944   -1445.1307    489.98317    408.47652    223.91845    37599.264 
  632000    300.87969    -1445.995     470.9046    378.27914   -153.74935    37599.264 
  632100    299.08753   -1489.0808    461.59333    317.82092   -121.13409    37599.264 
  632200     294.8848   -1477.5083    469.97035    318.86639   -367.02019    37599.264 
  632300    297.86673    -1476.685    477.51354    340.64566   -285.65718    37599.264 
  632400    308.73529   -1481.6857    459.07062    366.08933   -384.69197    37599.264 
  632500    299.81736   -1474.1688    480.85229     355.2747   -406.93473    37599.264 
  632600    304.34964   -1468.5877    457.65707    358.04693    477.59976    37599.264 
  632700    301.94993   -1477.9652    488.56315    368.78149    360.75612    37599.264 
  632800    301.56012   -1495.4206    481.80038    342.80999    362.28637    37599.264 
  632900      297.825   -1522.7749    479.78022     296.6348    666.70249    37599.264 
  633000    289.44407   -1463.2521     483.7366    322.41619    415.69965    37599.264 
  633100    310.54462   -1497.7384    489.35585    388.46028   -135.55855    37599.264 
  633200    304.58229   -1485.0714    455.33304    340.28566    173.50643    37599.264 
  633300     290.3852   -1465.4026    462.97853    303.74088   -303.64324    37599.264 
  633400    298.67767   -1476.3903    474.87522     341.9497    482.07922    37599.264 
  633500    297.99159   -1451.6784    475.11716    363.81755    610.87015    37599.264 
  633600    296.24099   -1499.7869    463.02175    295.73935    945.95721    37599.264 
  633700    305.04562    -1504.055    480.14581    348.19893     964.7448    37599.264 
  633800    293.20015   -1489.0519    476.50303    306.27783    386.99602    37599.264 
  633900    304.07318    -1456.748    497.81893    408.80501   -326.06082    37599.264 
  634000    299.19468   -1476.2696    448.75338    318.27412   -94.621666    37599.264 
  634100    304.89847   -1462.6562    492.68648    401.47646   -245.53844    37599.264 
  634200    305.06822   -1476.0529    465.11334    361.27016    39.479779    37599.264 
  634300    288.09134   -1455.0295    491.57881    332.39631   -60.671102    37599.264 
  634400    287.25306   -1447.0863    486.38247    331.37261   -1094.8354    37599.264 
  634500    296.52936    -1468.062    496.93616    362.67578   -743.34759    37599.264 
  634600    296.95453    -1451.137     499.5151    384.09214   -763.00364    37599.264 
  634700    307.24115   -1493.0119    497.53955    386.51133    612.19661    37599.264 
  634800    307.96116    -1488.455    465.65193    362.41927      457.851    37599.264 
  634900    297.74923   -1531.7839    452.33243    259.83714    678.95012    37599.264 
  635000    301.72221   -1521.1488    479.07296    315.08344    207.74115    37599.264 
  635100    311.98383   -1507.1589    437.10766    333.26522    279.40884    37599.264 
  635200    303.55249   -1518.7766    466.76735    313.38271   -152.26015    37599.264 
  635300     288.2287   -1463.3949    470.74447    303.81442    65.488979    37599.264 
  635400    300.73476   -1453.0932    473.43486    373.05934   -124.69895    37599.264 
  635500    307.83231   -1459.6214    483.16093    408.18227   -570.87353    37599.264 
  635600     305.3054   -1456.0316    457.40598    374.65101   -152.35325    37599.264 
  635700    300.25158   -1456.3274    515.99754    410.21441   -6.6314515    37599.264 
  635800     295.2856   -1466.6147    475.29656      336.889   -426.84176    37599.264 
  635900    300.03131   -1436.5907    479.60519      392.568   -333.16667    37599.264 
  636000    299.03211   -1468.9267    489.08968    365.22211   -271.80842    37599.264 
  636100    299.72274   -1434.5035    491.92846    405.59052     335.7781    37599.264 
  636200    301.98196   -1463.9544    481.39282     375.7661    178.06162    37599.264 
  636300    307.92936   -1502.9101    493.18671    375.35592    333.61499    37599.264 
  636400    294.93941   -1519.1495    474.38468    281.88515    522.59559    37599.264 
  636500    300.98933   -1489.8574    451.36895    315.37426    264.20408    37599.264 
  636600    297.22249   -1519.0332    464.30419    282.19033   -43.681559    37599.264 
  636700    301.53894   -1533.4189    475.54848    298.46448   -44.407722    37599.264 
  636800    306.01144   -1501.7646    457.69251    332.38034    39.537592    37599.264 
  636900    297.94325   -1490.3753    506.78239    356.56844    124.75919    37599.264 
  637000    288.64337   -1480.1001    475.34477    293.57481   -330.80037    37599.264 
  637100    309.68931   -1508.7297    490.45211    374.71807    187.77336    37599.264 
  637200    308.60274   -1479.5728    495.17387     403.7093    110.51395    37599.264 
  637300    296.50797   -1460.5703    478.12429    351.25947   -1008.1663    37599.264 
  637400    305.29763   -1468.3745    482.63289    387.50005   -779.88567    37599.264 
  637500    296.55637   -1449.6166    464.36721    348.67374   -539.96679    37599.264 
  637600    306.60282   -1437.7347    484.36068    425.73843     134.2115    37599.264 
  637700    299.45944   -1471.5526    483.55198    358.98067   -777.05881    37599.264 
  637800    298.70357   -1456.9857    488.13086     374.7265   -481.71567    37599.264 
  637900    299.01207   -1483.0377    474.88751    336.81879   -470.26622    37599.264 
  638000    303.93714   -1481.5706    496.50146    382.05305    239.21509    37599.264 
  638100    293.34539   -1475.3558    484.48012    328.60427   -74.984338    37599.264 
  638200    295.47206   -1491.2486    483.61949    321.41676    111.55159    37599.264 
  638300    289.82081   -1478.2304    469.68677    295.08262    21.439587    37599.264 
  638400    303.78086   -1502.0914    452.44842    316.77624    321.44486    37599.264 
  638500    303.26899   -1493.6064    514.07485    384.58523   -15.185119    37599.264 
  638600    295.74778   -1461.6805    484.38563    352.99116   -42.809258    37599.264 
  638700    300.28171   -1481.8222    487.82306    356.68075    43.503706    37599.264 
  638800    298.21726    -1512.188    485.31418    314.52008    170.54334    37599.264 
  638900    295.99318    -1472.993    490.67088    349.06775    45.211254    37599.264 
  639000    292.71716   -1479.6682     484.6594    321.64539    408.51517    37599.264 
  639100     297.6087   -1507.5588    489.05239    320.15013    133.91343    37599.264 
  639200    296.56736   -1509.1663    493.58733    318.39363    464.58366    37599.264 
  639300    298.23878   -1537.0154    449.20198    253.67731    290.86054    37599.264 
  639400     309.1414   -1462.7679    484.81833    412.58155    422.40382    37599.264 
  639500    303.20314   -1476.3877    489.55551    376.98834    76.709376    37599.264 
  639600    302.70524   -1554.1944    472.68428    280.07083    201.11581    37599.264 
  639700    299.29273   -1533.4855    446.37568    259.12158   -152.78668    37599.264 
  639800    285.03245   -1538.4018    499.90268    243.58895   -155.56049    37599.264 
  639900    302.92329   -1527.3789    465.48512    300.66803   -268.67721    37599.264 
  640000     307.7043   -1528.2988    448.49958    304.26778   -538.77719    37599.264 
  640100    299.85655   -1519.9565    498.07683    326.88779   -606.61352    37599.264 
  640200    289.98243   -1497.6668    476.12393    282.81034    241.55808    37599.264 
  640300    307.53466   -1496.1429    472.72595    359.88702    32.300642    37599.264 
  640400    300.99163   -1467.7764      483.243    369.33967    18.504711    37599.264 
  640500    309.88172   -1482.8174    481.66876     392.7125    537.23267    37599.264 
  640600    294.24042   -1498.8781    506.38691    331.01465    423.38226    37599.264 
  640700    303.71052   -1476.9267    473.89698    363.07308    256.21292    37599.264 
  640800     301.5397    -1478.681    493.86009    371.51743    448.61405    37599.264 
  640900    300.13538   -1483.1709    495.76426    362.61503   -48.424654    37599.264 
  641000    305.94552   -1516.9356    464.61064    323.83097    744.95296    37599.264 
  641100    306.86298   -1527.2095    496.56431    349.63752    403.23676    37599.264 
  641200    292.71917   -1526.4528    479.86839    270.07884    371.69942    37599.264 
  641300    289.81222   -1519.0277    499.27053    283.83047    813.56745    37599.264 
  641400    303.93031   -1505.4407    497.45003    359.10073    933.69263    37599.264 
  641500    306.71042   -1515.7391    485.67672    349.53413    127.86951    37599.264 
  641600    293.32883   -1496.9242    486.04473    308.52606    205.90971    37599.264 
  641700    298.69776   -1477.4261     499.8323     365.9614   -724.52955    37599.264 
  641800     301.3707   -1504.4704    485.70889    336.81666   -464.99787    37599.264 
  641900      292.148   -1487.0029    504.09748    331.18865    214.46873    37599.264 
  642000    295.84745   -1511.6481    476.12287    295.20913    460.57926    37599.264 
  642100    293.58982   -1508.7986    477.38568    289.16655   -86.366432    37599.264 
  642200    303.50867   -1546.8218    481.35111    299.72415    118.90034    37599.264 
  642300    304.58131   -1567.7125    487.32624     289.6334    34.411257    37599.264 
  642400    302.70867   -1541.1103      477.329    297.81509   -252.30963    37599.264 
  642500     299.3504   -1545.0697    473.19761    274.61871   -298.12588    37599.264 
  642600    293.01772   -1514.8211    493.97239    297.15741    278.92303    37599.264 
  642700    295.19574   -1505.9068    475.26927    297.16543    268.06194    37599.264 
  642800    302.77437   -1496.5362    479.93919    345.29494    283.21574    37599.264 
  642900    300.86338   -1494.9654    518.35119    376.68206    132.12855    37599.264 
  643000    307.41999   -1492.4636    470.11568    360.44023    44.405284    37599.264 
  643100    303.61374   -1500.5919    511.80683    376.88233   -642.52776    37599.264 
  643200    296.53649   -1517.3518    474.99096    291.47281   -50.165378    37599.264 
  643300    304.83177   -1481.2025    485.60341    375.54708   -22.692103    37599.264 
  643400     304.4096   -1525.7331    483.41406    326.92826   -8.6260408    37599.264 
  643500    311.27133   -1518.2497    510.63236    392.49434    655.15484    37599.264 
  643600    297.44321   -1504.8028    484.38824    317.49761    568.78086    37599.264 
  643700    300.87892   -1509.6074    494.62837    338.38706    624.88657    37599.264 
  643800    302.66768   -1508.1842    480.91638    334.14423    208.01122    37599.264 
  643900    305.48731   -1516.3545    497.84789    355.58823    384.13338    37599.264 
  644000    304.44759   -1505.9565    509.55912    373.02081    177.77473    37599.264 
  644100    298.84805    -1501.765    500.35776    342.82397     373.8933    37599.264 
  644200    307.47275   -1504.9691    521.00474    399.06115    661.03559    37599.264 
  644300    291.81461   -1549.1159    482.98942    246.46799    838.17738    37599.264 
  644400    311.86795   -1536.9016    509.36614    375.25981    602.55526    37599.264 
  644500    297.31896   -1507.1154    490.09161    320.32949   -139.43602    37599.264 
  644600     301.6892   -1507.8659    484.94619    334.09114   -99.724133    37599.264 
  644700    292.66233   -1497.4466    504.33659    323.29756   -253.33369    37599.264 
  644800    299.98429   -1495.1374    494.48042    348.68513    440.89268    37599.264 
  644900    290.45272   -1488.1271    522.47224    340.81377    628.19731    37599.264 
  645000    305.48926   -1532.7001    474.07674    315.48026    161.69832    37599.264 
  645100    302.49929   -1518.4205    498.88816    341.12229   -252.06699    37599.264 
  645200    299.05655   -1504.1593    477.16153    318.17128   -518.48193    37599.264 
  645300    288.05323   -1518.2914    501.93797    279.32224   -1078.8362    37599.264 
  645400    302.45857   -1519.3146    482.89242    324.04925   -518.78426    37599.264 
  645500    305.99971   -1527.9914    482.28986     330.6981    -212.1773    37599.264 
  645600    304.39569    -1522.363     503.1887    350.01041    -132.8964    37599.264 
  645700    296.68258   -1511.7217    482.11831    304.88746   -209.34808    37599.264 
  645800     308.1506   -1503.4751    486.21348    368.81281   -560.58544    37599.264 
  645900    297.53201   -1503.3935    486.08184    320.99998    286.72593    37599.264 
  646000     302.9288   -1561.7493    484.83004    285.66736    64.246291    37599.264 
  646100    305.74152   -1601.0503    476.55456    250.74256   -211.37714    37599.264 
  646200    291.74338   -1529.7378    490.43727    272.97356   -93.107121    37599.264 
  646300    308.17547   -1555.5127    464.67971    295.35333   -616.77352    37599.264 
  646400    302.34136   -1555.2868    482.97902    287.63639   -302.30231    37599.264 
  646500    303.62758   -1526.6239    478.11657    317.22235   -874.95507    37599.264 
  646600    309.88748   -1529.3654    480.55292    345.07448   -120.50952    37599.264 
  646700    300.82595   -1533.8735    479.09142    298.34582    97.365142    37599.264 
  646800    301.49357   -1544.6069    482.54544    294.06942   -64.926834    37599.264 
  646900    297.16351   -1523.9281    496.88153     309.6075   -17.551411    37599.264 
  647000    303.18969   -1518.3822    474.21204    319.58986   -221.04854    37599.264 
  647100    292.18053   -1522.4508    475.27316    267.06276   -377.30748    37599.264 
  647200    296.98268   -1520.0142    473.78596    289.61241   -1136.9416    37599.264 
  647300    289.85507   -1496.9179    479.76709    286.62953   -444.00959    37599.264 
  647400    294.47401   -1492.2494    483.91971    316.22686   -194.95857    37599.264 
  647500    291.46507   -1498.9997    492.61524    304.63781    -196.4146    37599.264 
  647600    301.08985   -1506.9767    499.58759    346.92585    366.05439    37599.264 
  647700    291.89202   -1512.8418    503.20515    303.30599  -0.54985567    37599.264 
  647800    308.53773   -1514.4811    494.36456    367.69923   -225.84124    37599.264 
  647900    300.22847   -1535.4588    449.24973    264.23127   -468.39854    37599.264 
  648000    303.11757   -1538.1678    532.63535    357.90315   -514.90352    37599.264 
  648100    296.37896   -1497.2149    469.83017    305.74036   -556.68295    37599.264 
  648200    307.63769   -1476.3717    503.74565    411.14132   -807.85703    37599.264 
  648300    303.77119   -1482.3227    464.82079    348.87374   -370.00539    37599.264 
  648400    297.27091   -1483.5482    497.81974    351.40867    -262.2796    37599.264 
  648500    293.04435   -1480.2992    494.14464    331.97137    163.31337    37599.264 
  648600    289.55466   -1490.6231    485.83681    297.64285    118.27275    37599.264 
  648700    301.85997   -1510.6583    498.06744     345.1881    583.48435    37599.264 
  648800    309.69814   -1528.7753    481.57257    345.83268    540.36708    37599.264 
  648900    292.59952   -1502.4468    495.67231    309.35055    709.90282    37599.264 
  649000    303.17412   -1515.1962    486.74523    335.23906    722.74844    37599.264 
  649100    298.03842   -1492.2049    508.26165    356.64622    992.55565    37599.264 
  649200    289.19423   -1518.1902    478.00201    260.61974    990.09051    37599.264 
  649300    302.03281   -1498.1183    492.62385     353.0619    846.16769    37599.264 
  649400    296.24636   -1479.2261    510.94255    364.24506    369.80585    37599.264 
  649500    305.39807   -1460.3558    488.94283    402.28053    307.63742    37599.264 
  649600    310.68183   -1488.2791    498.12875    407.30966    423.13127    37599.264 
  649700    309.29813   -1513.1995    448.69251    326.72915    68.915659    37599.264 
  649800     303.3263   -1540.2194    482.22101    306.37618   -128.68622    37599.264 
  649900    299.70824    -1518.137    485.60482     315.5682   -494.40961    37599.264 
  650000    297.42448   -1498.3486    505.22167    344.70095    -448.2085    37599.264 
  650100    307.96468    -1496.795    495.22586    383.66902   -546.39892    37599.264 
  650200    303.22756   -1470.3164    480.88628    374.50027   -312.68298    37599.264 
  650300    301.58245   -1509.6498    491.64269    338.52348   -581.73152    37599.264 
  650400    306.86889   -1558.1787    459.67402    281.80456   -443.99248    37599.264 
  650500    312.73892    -1528.341    470.20995    348.58191   -140.50774    37599.264 
  650600    295.64975   -1547.4213    485.32766    267.75147   -33.591045    37599.264 
  650700    291.33376   -1570.7745    510.63515    250.29225    52.853208    37599.264 
  650800    299.82026   -1565.3752    465.47755    248.70655    322.31775    37599.264 
  650900    299.27899   -1556.0353    494.26581    284.40006    832.94276    37599.264 
  651000    293.40314   -1578.8327     488.9185     229.8256    -83.83456    37599.264 
  651100    302.71626   -1527.4568    483.50425    317.67802    123.68895    37599.264 
  651200    307.66244    -1544.338    476.85961    316.40028    310.54964    37599.264 
  651300    307.26023   -1533.5979    467.50409    315.97575    221.74543    37599.264 
  651400    300.52209   -1525.6219    507.55052    333.68976   -117.11614    37599.264 
  651500    291.50592   -1500.7223    487.68622     298.1699   -41.596565    37599.264 
  651600    310.51166   -1534.4979    493.31514    355.51188     41.14026    37599.264 
  651700    295.61836   -1509.6593      510.319    330.36363    144.33108    37599.264 
  651800    295.29529   -1509.7425    497.20991    315.71818    412.98105    37599.264 
  651900    291.07549    -1480.031    508.73274    337.97168   -269.16796    37599.264 
  652000    298.20988   -1485.4852    481.48987    337.36538   -243.16182    37599.264 
  652100    311.66686    -1520.635    474.87544    356.13111    236.01449    37599.264 
  652200    294.11475    -1485.201    477.85635    315.59598     16.43122    37599.264 
  652300     291.4524   -1452.8294    507.84752    365.98335    46.033558    37599.264 
  652400    290.63755   -1465.0995    482.77888    324.97936    196.46618    37599.264 
  652500    297.13724   -1510.3293    481.64593     307.8525   -135.72403    37599.264 
  652600    300.12882   -1456.1495    507.79056    401.63319   -347.09709    37599.264 
  652700    302.66935   -1505.8304    504.32291    359.91203   -219.09642    37599.264 
  652800    297.17278   -1456.5598    472.93734     353.0733     201.3661    37599.264 
  652900    310.31992   -1510.1282    484.71353    370.41747   -229.82882    37599.264 
  653000    294.35218   -1517.4923    477.48281    283.99908    245.84951    37599.264 
  653100    293.09103   -1544.2161    475.45849    249.57828     200.2985    37599.264 
  653200    293.03115   -1546.3039    496.14842    267.91109     331.8331    37599.264 
  653300    303.64487   -1576.7632     491.9472    280.99148    717.43112    37599.264 
  653400    282.23348   -1533.5374    480.25171    216.21251    183.64664    37599.264 
  653500    299.07536    -1573.152    497.65215    269.75376    315.36559    37599.264 
  653600    310.15414   -1587.7827    480.23416    287.53792    382.21732    37599.264 
  653700    299.26788   -1559.5869    470.50583    257.03855    493.95911    37599.264 
  653800    308.24767   -1534.2669    494.36604    346.61018    85.097729    37599.264 
  653900    303.13113   -1505.8449    486.88474    344.53652   -282.80233    37599.264 
  654000    304.53241   -1499.7447    528.17761    398.23258   -114.41873    37599.264 
  654100     288.4146     -1512.48    486.56803    271.38916    39.406844    37599.264 
  654200    304.94603    -1495.859    506.90908    382.71028    233.25009    37599.264 
  654300    303.20828   -1531.0272    462.53751    295.35401    952.48036    37599.264 
  654400     295.6556   -1514.0005     512.8485    328.71942    304.40746    37599.264 
  654500    293.89669   -1561.0314    484.73189    245.66025    98.778499    37599.264 
  654600    293.05908   -1571.3749    484.91607    231.73331   -611.65916    37599.264 
  654700    293.73415   -1541.6893    464.20947    243.74878   -270.52158    37599.264 
  654800    301.83016   -1522.7517    491.95534    326.84845   -469.89362    37599.264 
  654900    306.97886   -1507.4381    476.26901    349.63484   -241.55511    37599.264 
  655000    294.71578    -1476.179    506.90829    356.37333   -103.18524    37599.264 
  655100    302.11244   -1534.7356    511.83811    336.01706    -174.5918    37599.264 
  655200    312.66691   -1479.1227    505.46716    432.73349    6.0137198    37599.264 
  655300    301.35457    -1459.722    506.02276     401.8064   -627.32013    37599.264 
  655400    303.08611   -1491.1437    491.03271    363.18322   -566.47224    37599.264 
  655500    292.42775   -1490.6477    489.08628    313.79106   -605.82183    37599.264 
  655600    295.72184   -1492.9189    504.05734    341.30786   -570.68378    37599.264 
  655700    301.03934    -1525.621    496.71241    325.17912    207.31899    37599.264 
  655800    312.26557   -1524.4418    479.82808    359.97009    145.75306    37599.264 
  655900    305.40013   -1510.0533    515.77247    379.42187     321.5119    37599.264 
  656000    297.37507   -1500.8765    487.33301    324.06218    422.86726    37599.264 
  656100    308.94069   -1487.7467    475.11214    376.99371    596.50852    37599.264 
  656200    293.53705   -1536.4272    478.71936    262.63428   -28.797556    37599.264 
  656300    284.52025    -1526.914    491.57037    244.44048    302.72885    37599.264 
  656400    300.44465   -1553.0708    494.62169    292.96365    421.87783    37599.264 
  656500    303.21538   -1530.8672    456.79116    289.79962    -122.7116    37599.264 
  656600    305.49323   -1552.9077    509.63265    330.84638   -42.738732    37599.264 
  656700    302.90134   -1510.6938    507.48785    359.25712    258.07803    37599.264 
  656800    301.48228   -1513.5823     480.3894    322.88717    328.50775    37599.264 
  656900    299.09315   -1513.1451    496.41522    328.60381      443.186    37599.264 
  657000    303.21538    -1539.003    492.03321     316.9058    16.535329    37599.264 
  657100    294.06487   -1548.5282    490.26053    264.44855    189.80751    37599.264 
  657200    295.95434   -1543.1209    517.40218    305.49642    139.01283    37599.264 
  657300    309.78573   -1571.3145    475.47364    297.58845    166.38778    37599.264 
  657400    292.99578   -1579.8841    465.03647    203.05978   -690.68671    37599.264 
  657500    302.20231   -1558.9818    485.11188    285.44891   -543.14666    37599.264 
  657600    291.79566   -1517.4875    463.76036    258.78208   -492.43857    37599.264 
  657700    298.51356   -1548.0495    488.27817    282.95528   -597.13405    37599.264 
  657800    303.42549    -1536.424    508.00063    336.39736   -73.632567    37599.264 
  657900    302.56459   -1572.2664    488.49101    277.17292   -541.00654    37599.264 
  658000    299.47713    -1523.882    489.20609    312.38487   -547.86549    37599.264 
  658100    310.23906   -1521.3944    479.42128    353.49528   -104.29749    37599.264 
  658200     297.6125   -1531.5092    516.85363    324.01807    54.479504    37599.264 
  658300    309.79139   -1529.9993    495.45407    358.90952    220.93142    37599.264 
  658400     300.5177     -1534.33    488.90012    306.31147    225.90574    37599.264 
  658500     292.3825   -1521.4114    516.62378    310.36127   -109.96374    37599.264 
  658600    308.13345   -1550.3129    485.70349    321.38792   -364.87562    37599.264 
  658700    301.49616   -1556.5041    500.06247    299.70082    77.683432    37599.264 
  658800    297.32257   -1552.6333    513.83323    298.56948   -27.372427    37599.264 
  658900    299.46204   -1573.6928     508.4793    281.77941   -634.27576    37599.264 
  659000    291.72954   -1554.0801    472.71007    230.84186   -851.04086    37599.264 
  659100    288.31578   -1536.0729    510.85746    271.64121   -560.95158    37599.264 
  659200     300.2362   -1583.2607     442.8979    210.11237    -846.7922    37599.264 
  659300    299.68122   -1561.4723    480.08385    266.59036    -1048.866    37599.264 
  659400    296.98054   -1525.8361    495.34874    305.34367   -651.32405    37599.264 
  659500     295.6009   -1554.4357    494.03743    269.22716    24.760177    37599.264 
  659600    311.73776   -1598.6707    476.73105       280.27    389.49397    37599.264 
  659700    301.71321   -1550.1802     468.2522    275.19081   -276.25836    37599.264 
  659800    301.98714   -1559.6278    489.30835    288.03149   -292.03061    37599.264 
  659900    291.74607   -1544.1857    478.34543    246.44593    198.41132    37599.264 
  660000    300.76459   -1557.6395    475.72317    270.93553     318.5033    37599.264 
  660100    294.44838   -1508.5343     496.1653    312.07226    219.30864    37599.264 
  660200    294.38133   -1544.2332    476.21382    256.12028    32.535053    37599.264 
  660300      297.423   -1526.5918    488.14844    299.37788    79.034439    37599.264 
  660400    307.91116   -1548.4147    516.23094    352.81367    654.61145    37599.264 
  660500    292.52396   -1525.9224    496.94574    286.80849    300.61926    37599.264 
  660600    300.54425   -1538.8978    474.93699    287.89991    467.68561    37599.264 
  660700    319.18024   -1526.8536    472.89511    381.72772    324.41546    37599.264 
  660800    303.87747   -1539.7747    496.74429    323.82332    155.08793    37599.264 
  660900    296.92323   -1584.6265    450.92728    201.87406    447.72043    37599.264 
  661000    298.92347    -1509.889    496.12024    330.80168    756.18494    37599.264 
  661100    308.49014    -1529.236    488.15287    346.51863    352.78318    37599.264 
  661200    304.77655    -1487.902     466.2654    349.26129     146.6894    37599.264 
  661300    308.35428   -1494.7999     460.0599    352.25063    520.91257    37599.264 
  661400    308.08018    -1494.456    516.93581    408.23749     37.33283    37599.264 
  661500    296.79458   -1504.9959    479.56777     309.5665    32.802497    37599.264 
  661600    302.45442   -1555.4346    477.43425    282.45244   -392.51526    37599.264 
  661700    289.05076   -1537.9047    478.78255    241.04036   -235.52059    37599.264 
  661800    294.48541   -1551.0883    469.12085    242.64043    181.44551    37599.264 
  661900    304.89163   -1522.2178    480.61737    329.81499    126.47827    37599.264 
  662000    294.92615   -1546.3507    468.91509    249.15471    -114.7722    37599.264 
  662100    309.34088   -1532.2095    472.29657    331.51548   -95.368235    37599.264 
  662200    296.23901   -1557.8388    474.40483    249.06163    35.408793    37599.264 
  662300    300.24426   -1543.0346    472.33774    279.81451    88.097846    37599.264 
  662400    306.26877   -1506.0133    481.31861    352.91519    -235.3002    37599.264 
  662500    308.54943   -1515.7403    485.63244    357.76056    751.11944    37599.264 
  662600    303.66249   -1500.2136    491.19142     356.8646    813.21071    37599.264 
  662700    313.20823   -1503.5394    483.28084    388.56533    920.86613    37599.264 
  662800     296.4182   -1487.8506    483.73006    329.18105    696.03787    37599.264 
  662900    288.10065   -1479.1362    492.15691    308.90965    634.99188    37599.264 
  663000    309.17623   -1530.0303    487.93696    348.59441    584.21548    37599.264 
  663100     302.3346   -1482.8828     493.9861    371.01719   -98.502117    37599.264 
  663200     304.5041   -1476.4736    474.02553    367.22429   -394.37463    37599.264 
  663300    308.54167   -1492.0989    489.29477    385.02935    -981.1187    37599.264 
  663400    305.39051   -1482.4712    503.27164    394.45985   -202.00096    37599.264 
  663500    303.26224   -1466.9961    518.61085    415.70117    200.44015    37599.264 
  663600    290.26908   -1520.5982    495.53192    280.57638   -69.087922    37599.264 
  663700    297.63806   -1552.7955    486.73001    272.72307   -396.52789    37599.264 
  663800    295.73877   -1502.4434    496.82427    324.62635    320.58028    37599.264 
  663900    293.24759    -1550.528    482.23254     250.7446   -49.117136    37599.264 
  664000    300.62805   -1505.7079    485.39738    331.92725   -386.47027    37599.264 
  664100    306.34687   -1544.7366    488.61315    321.83775   -184.82771    37599.264 
  664200    286.78981   -1521.3769    476.70971    245.32549   -12.452779    37599.264 
  664300    301.91203   -1519.1068    490.03956    328.94586   -184.17803    37599.264 
  664400    304.46391   -1546.9505    512.79905    335.34005   -165.36638    37599.264 
  664500    299.92694    -1499.097    488.96317    338.95025   -153.25907    37599.264 
  664600    294.36259   -1526.1037    488.68253    286.63426   -387.65391    37599.264 
  664700    309.14808   -1509.0426    489.62624    371.14478   -112.70597    37599.264 
  664800     299.2301   -1460.7331    514.04167    399.25823    -262.9313    37599.264 
  664900    298.41019   -1542.9561    473.28749    272.59308   -229.69931    37599.264 
  665000    292.81973   -1576.4281     497.1578    237.84527    55.574919    37599.264 
  665100    296.38375   -1562.6884    481.55435    252.01258   -113.01824    37599.264 
  665200    309.40956   -1549.5347    463.19385    305.39641    322.35966    37599.264 
  665300    303.66515   -1558.7527    484.65909    291.80508    -79.57577    37599.264 
  665400    298.95309   -1552.9232    464.81808    256.59857   -310.44885    37599.264 
  665500    298.01692   -1505.1669    478.59564    313.92148    114.68111    37599.264 
  665600    313.47596   -1571.7766    463.34729    301.59878   -473.28351    37599.264 
  665700    299.58353    -1523.159    482.55311    306.93349   -149.38553    37599.264 
  665800    299.94139   -1545.6659    479.62637    283.10959   -125.84513    37599.264 
  665900    294.45596   -1500.5365    479.96028    303.89918   -444.37866    37599.264 
  666000    307.03119   -1567.8059    482.73152    295.96489   -91.882931    37599.264 
  666100    312.42485   -1557.9113     491.7238    339.11272    637.75867    37599.264 
  666200    291.09117   -1578.9975     497.1126    227.45554    452.44737    37599.264 
  666300    295.79479   -1555.6659    466.17684    241.00846    227.97485    37599.264 
  666400    305.83878   -1564.0737    485.39671    296.99875   -273.95445    37599.264 
  666500    295.94363   -1553.2037    471.94509    249.90838   -725.92314    37599.264 
  666600    302.68886   -1535.0198    467.90969    294.39726   -754.01457    37599.264 
  666700    297.74838   -1544.5915    477.95128    272.64463    -452.9065    37599.264 
  666800    302.95759   -1565.5912    488.49254    285.61741   -689.18142    37599.264 
  666900      303.544    -1572.352    479.40985    272.41159   -794.25543    37599.264 
  667000    297.37041    -1577.891    461.47972    221.17339   -707.16829    37599.264 
  667100    305.96308   -1577.6688    457.17307    255.73916   -509.81787    37599.264 
  667200    302.53655   -1539.3696    462.35001    283.80266   -817.07732    37599.264 
  667300    298.61259   -1545.0365    475.38007    273.51565   -718.49041    37599.264 
  667400    294.26546   -1543.4637    500.20172    280.35654   -778.88676    37599.264 
  667500    299.22525   -1545.6115    497.01009    297.32639   -111.44989    37599.264 
  667600    301.56967   -1552.5177     484.9633    288.91881    79.491685    37599.264 
  667700    295.38712   -1566.9778    501.46667    263.15267    781.89084    37599.264 
  667800    303.97896   -1564.0474    479.22051    282.48333    1012.3997    37599.264 
  667900    296.87906   -1536.1966    476.63682    275.81484    794.15265    37599.264 
  668000     306.0307   -1538.6707    481.18392    319.05226    383.25334    37599.264 
  668100    303.86449   -1530.8372    479.42934    315.38749    410.28373    37599.264 
  668200     291.1779   -1543.5939    495.38169    261.51829   -69.812397    37599.264 
  668300    294.81186   -1555.5492    478.75951    249.28654   -146.17271    37599.264 
  668400    305.33828   -1506.1411     481.5302    348.81364   -221.33528    37599.264 
  668500    304.19047    -1542.129    490.44008    316.57271   -218.54197    37599.264 
  668600    302.64443   -1533.6013    506.56155    334.26775   -927.17585    37599.264 
  668700    295.57637   -1507.5062    467.97619    289.98504   -618.09803    37599.264 
  668800    299.12874   -1527.2682    469.78865    288.01424   -637.98715    37599.264 
  668900    292.29257   -1488.9583    489.60111    315.38721   -343.45001    37599.264 
  669000    297.43214   -1532.1798     502.2298    307.91234   -753.66967    37599.264 
  669100    309.41759   -1519.8744    464.81668     336.7157   -65.301615    37599.264 
  669200    304.38348   -1533.9436    514.84203    350.02818    -312.8593    37599.264 
  669300    294.62266   -1519.3297    479.37631    285.27182   -451.61679    37599.264 
  669400    301.84016   -1517.7842    485.02812    324.93374      19.3391    37599.264 
  669500    303.87297   -1494.6915    495.07558    367.21758    582.08104    37599.264 
  669600    298.27732   -1531.3744    495.36055    305.65022   -68.001208    37599.264 
  669700    303.32024   -1511.8917    474.70537    327.16094    318.32396    37599.264 
  669800    298.13814   -1528.3121    476.64672    289.37256    61.671998    37599.264 
  669900    308.21797   -1487.9182    506.52429    404.98356    395.89925    37599.264 
  670000    302.02233   -1533.4035    485.18628    310.29199    52.594384    37599.264 
  670100    300.81638   -1554.4879    492.23463    290.83151    186.92928    37599.264 
  670200    295.49793   -1562.9264    481.90178    248.13752   -165.87298    37599.264 
  670300    311.04278   -1535.9179    499.03476    362.20046     219.6668    37599.264 
  670400    295.86399   -1524.3223    490.03362    296.52005    298.56576    37599.264 
  670500    303.31434   -1532.7995    460.60386     292.1251    120.78174    37599.264 
  670600    296.85367   -1468.5437    487.37125    354.08798    363.80524    37599.264 
  670700    300.19115   -1487.1343    511.36196    374.50017    125.12646    37599.264 
  670800    298.42881   -1520.8651    497.07122    318.55153   -141.62281    37599.264 
  670900    295.51889   -1447.9972    496.54252    377.80179    156.82845    37599.264 
  671000    305.97522   -1463.4005    473.44854    386.33758    313.08721    37599.264 
  671100    296.25322   -1476.8811    499.93117    355.60964    365.32822    37599.264 
  671200    299.80804   -1491.7402    482.69441    339.50345   -28.567581    37599.264 
  671300    293.53349   -1489.1004    522.47953     353.7052    147.07986    37599.264 
  671400    302.47492   -1500.8695    491.98891    351.66438    143.03402    37599.264 
  671500    305.82856   -1478.0054    483.53975    381.16416   -179.21366    37599.264 
  671600    289.97273   -1455.6825    505.85363    354.48078   -322.71587    37599.264 
  671700    295.70084   -1480.6566    493.38977    342.80804   -544.06743    37599.264 
  671800     291.6582   -1456.7409    506.81521    361.96532   -295.69972    37599.264 
  671900    298.63723   -1478.1052    506.54303    371.72075    141.14694    37599.264 
  672000    310.54911   -1495.7334    495.48193     396.6116      511.437    37599.264 
  672100    311.95297   -1460.5327    499.25141    441.89635    391.40184    37599.264 
  672200    292.85318   -1502.6418    496.03721    310.66143    229.56076    37599.264 
  672300    308.21205   -1510.7102    487.90199    363.54268    202.20116    37599.264 
  672400    309.73169    -1512.122    484.16876    365.23304   -94.596561    37599.264 
  672500    292.42448   -1516.3352    491.92091    290.92342    108.20721    37599.264 
  672600    292.43356   -1487.5772    489.53532    317.33667    -607.3142    37599.264 
  672700    311.55415   -1531.3539    475.62404     345.6539   -388.81246    37599.264 
  672800    309.12639   -1524.2005    460.20505    326.46819   -130.32013    37599.264 
  672900    303.13625   -1508.7272     487.2742    342.06675   -850.44193    37599.264 
  673000     289.1852   -1484.4658    508.97944    325.28093   -141.35721    37599.264 
  673100    293.80894   -1519.9142     506.6375    308.28834   -300.53803    37599.264 
  673200    304.57791    -1546.155    488.56827    312.41761    -394.4601    37599.264 
  673300    302.45565   -1527.8969    493.77241     326.3338     502.1419    37599.264 
  673400     307.9267   -1520.9256    494.71056    358.85227    39.545762    37599.264 
  673500    295.32252   -1523.9079    470.16723    274.63257   -1.5818797    37599.264 
  673600    310.89669   -1581.1929    466.60265    283.83625    170.46329    37599.264 
  673700    306.39068   -1572.6815    476.85249    282.32924    43.444899    37599.264 
  673800    304.22239   -1557.6384    495.47842    306.24525    152.79784    37599.264 
  673900    302.92903   -1520.9271     475.5791    317.23959    62.868659    37599.264 
  674000    297.16198    -1534.394    504.37777     306.6309    275.14927    37599.264 
  674100    308.97611   -1548.3827    497.48736    338.89232    209.37856    37599.264 
  674200    302.21285   -1551.3009    502.79322    310.85849    353.38801    37599.264 
  674300    299.06846   -1521.4563    492.34644    316.11279    253.66577    37599.264 
  674400    291.76051   -1492.2349    497.61431    317.73051    243.07338    37599.264 
  674500    301.37803   -1517.4221    474.09893    312.28801    160.66293    37599.264 
  674600     290.4045   -1511.5728    492.60813    287.28708   -328.48882    37599.264 
  674700    305.58439   -1535.6174    494.50665    333.42075   -131.38232    37599.264 
  674800    295.90055   -1498.5996    482.65114    315.02478    500.86293    37599.264 
  674900    310.09271    -1463.703    484.78719    415.89436   -74.088718    37599.264 
  675000     293.7374   -1508.3897    476.31581     289.1694   -37.774519    37599.264 
  675100    301.33831   -1531.7148    509.79047    333.50821    67.236524    37599.264 
  675200    302.33496   -1499.4662    491.08924    351.53849    254.91308    37599.264 
  675300    293.51971    -1510.142    511.59865     321.7207    280.48317    37599.264 
  675400    304.29419   -1458.6966    498.53541    408.56699    11.636335    37599.264 
  675500    307.21238   -1498.7446    506.55355    389.66326    133.30674    37599.264 
  675600    300.71539   -1480.5725    475.20058    347.25869   -177.57543    37599.264 
  675700    294.49744   -1476.0102    503.77315    352.42488   -418.81325    37599.264 
  675800     308.3846   -1458.3891    462.09745    390.83533    187.63906    37599.264 
  675900    303.93635   -1499.3325    505.76411    373.55019   -40.287249    37599.264 
  676000    307.15104   -1497.3503    475.35053    359.57864   -382.55281    37599.264 
  676100    306.50076   -1507.1122    478.50945    350.05065   -723.17244    37599.264 
  676200     298.9648    -1471.622    491.54345    364.67776   -595.13543    37599.264 
  676300    296.58335   -1448.6883    515.08538    400.44157   -1242.5903    37599.264 
  676400    302.26833   -1482.9941    502.93178    379.55344   -1035.2006    37599.264 
  676500    315.61975   -1431.7588    492.89405     480.8062   -422.94171    37599.264 
  676600    306.54687   -1491.8387    515.52223    402.54432   -61.446761    37599.264 
  676700    292.44543   -1474.1968    484.71078    325.94592   -278.11201    37599.264 
  676800    300.47868   -1458.8564    488.04108    380.75053     160.3754    37599.264 
  676900    304.03266   -1481.0255    499.06184    385.58812   -263.75386    37599.264 
  677000    296.51563   -1484.8411    517.10259    366.00138    -202.6609    37599.264 
  677100    285.68216   -1476.2109     477.4203     286.2199   -22.109742    37599.264 
  677200    295.06365   -1477.6702    487.80362     337.3422     -651.232    37599.264 
  677300    302.08931   -1491.9662    488.05306    354.89738   -288.24529    37599.264 
  677400    298.19812   -1457.6908    479.09974     362.7167    134.37523    37599.264 
  677500    304.52534   -1520.6856    480.70072    329.78303     83.33825    37599.264 
  677600    292.23838   -1479.5433    503.05729     338.0146   -528.33906    37599.264 
  677700    303.75289   -1493.0059    481.31718     354.6047   -326.36088    37599.264 
  677800    285.92148   -1502.2597    508.54338    292.37061   -200.38822    37599.264 
  677900    302.53079   -1450.6142    480.50055    390.68261   -465.85731    37599.264 
  678000    296.87148   -1486.1688    492.22854    341.40023   -614.18107    37599.264 
  678100    298.46257   -1508.0399    476.57411    311.03143    277.29097    37599.264 
  678200    296.49915   -1497.4666    476.62754    312.82664    326.02007    37599.264 
  678300     303.1756   -1511.9279    480.64245    332.41124    210.08613    37599.264 
  678400    303.19524   -1501.3617    473.20395    335.62729    24.387152    37599.264 
  678500    304.51318   -1464.0358    493.65003    399.32745    15.176849    37599.264 
  678600    301.38799   -1470.3178    497.91284    383.25101    437.16958    37599.264 
  678700    286.82386   -1486.0014    472.07326    276.21776   -102.06715    37599.264 
  678800    293.40605   -1518.2637    473.22685      274.716     -748.766    37599.264 
  678900    295.10859   -1451.4733    462.58106     338.5187   -852.20167    37599.264 
  679000    302.30288   -1478.2537     473.3001    354.81754   -261.86223    37599.264 
  679100    293.39177   -1424.9888    496.42107    391.12089   -448.25906    37599.264 
  679200    296.76847   -1491.3391    453.96851     297.5066   -437.27006    37599.264 
  679300     297.7139   -1512.7928    486.18457    312.52152    31.148447    37599.264 
  679400    299.85925   -1508.5305    488.42004    328.66918    -199.9299    37599.264 
  679500    314.56538   -1459.9322    484.68204    439.67823   -592.30977    37599.264 
  679600    296.31174   -1494.1601    458.91605    297.57868   -587.21101    37599.264 
  679700    307.95471   -1435.6171    491.08751    440.66376   -673.27983    37599.264 
  679800     290.5933   -1465.1591    494.17057    336.11244   -353.78976    37599.264 
  679900    305.84413   -1495.3464    493.10067    373.45408   -539.24768    37599.264 
  680000     293.4954   -1478.6223    478.87826     320.4107   -155.46118    37599.264 
  680100    304.85118   -1490.8121    495.59099    376.01247    359.40821    37599.264 
  680200    291.03911   -1481.8475    492.76338    320.02212   -319.78407    37599.264 
  680300    304.29253   -1514.4339    457.60626    311.89301    -438.9311    37599.264 
  680400    303.93182   -1474.2532    493.41222    386.25718    163.21711    37599.264 
  680500    293.78249   -1461.9059    480.47833    340.01849   -24.011508    37599.264 
  680600     301.2174   -1462.8933    474.92513    366.92043     73.54735    37599.264 
  680700    299.42353   -1492.0498    506.39217     361.1621   -15.157378    37599.264 
  680800    290.54305   -1491.2779    456.58667     272.1837      -290.91    37599.264 
  680900     301.8118   -1489.2358    492.65321    360.97962    158.11068    37599.264 
  681000    301.53267    -1516.725    443.43763    283.01938   -249.58296    37599.264 
  681100     303.5848   -1490.3379    497.49051     372.6899   -10.251917    37599.264 
  681200     295.2698   -1526.9603    491.81202    292.98784   -255.29702    37599.264 
  681300    292.37729    -1513.459    455.93236    257.59879     23.43324    37599.264 
  681400    301.23807   -1529.8688    473.99012    299.10292    224.31671    37599.264 
  681500    303.26246   -1516.6404    492.35206    339.79904    399.56696    37599.264 
  681600    304.36761   -1534.7573     461.4761    295.77718    605.84924    37599.264 
  681700     294.9971   -1497.7775    500.33146    329.46342     469.1026    37599.264 
  681800    302.96214   -1486.4824    442.56169    318.81582   -276.24495    37599.264 
  681900    301.97306   -1485.3677    469.47057    342.39052   -382.41203    37599.264 
  682000    302.18168   -1490.4899    479.48585    348.22194    -133.4057    37599.264 
  682100    304.52698   -1519.7619    468.04325     318.0566    -419.8019    37599.264 
  682200    300.18813   -1505.8121    480.59421    325.04101   -392.50967    37599.264 
  682300    303.84827   -1475.4903     479.8025    371.03461    50.809115    37599.264 
  682400    309.61085   -1519.5975    463.34617     336.3914    97.190083    37599.264 
  682500    302.33743   -1537.2715    468.44442    291.09947    25.479924    37599.264 
  682600    289.78866   -1488.6928    479.00359    293.79252    187.82653    37599.264 
  682700    293.89468   -1468.3606    472.07108    325.66122     126.4868    37599.264 
  682800    299.72903   -1460.8617    516.04714    403.37933    96.622339    37599.264 
  682900    302.86852   -1472.8218    469.91517    359.40887    -569.7412    37599.264 
  683000    306.30149   -1499.5277    484.76883    362.99818   -588.96373    37599.264 
  683100    307.39476   -1535.4416    480.81752    328.05056   -165.44027    37599.264 
  683200     294.1088   -1504.6004    472.80621    291.11964   -438.84638    37599.264 
  683300    287.79675   -1474.2596    436.39365    256.65609   -123.42075    37599.264 
  683400    294.31734   -1475.4691    493.76112    342.14391    353.81393    37599.264 
  683500    291.09544   -1522.7397    483.84013    270.46006   -304.15132    37599.264 
  683600    287.16142   -1505.3194    467.80902    254.15383   -148.15073    37599.264 
  683700     303.6398    -1471.081    472.03671    366.74036   -34.421927    37599.264 
  683800    295.04006   -1525.7561    482.07568    283.42232    387.75429    37599.264 
  683900    299.71397   -1509.7047    466.41004    304.83149    -137.9688    37599.264 
  684000    295.27657    -1497.041    454.46303    285.58851   -98.869219    37599.264 
  684100    303.50111   -1485.9691    487.87665    367.06842   -113.10464    37599.264 
  684200    300.32651   -1464.5077    470.39357    356.76728   -591.67007    37599.264 
  684300    300.39511    -1452.691    476.74144    375.24039    -369.2069    37599.264 
  684400    295.66318   -1447.1321    480.85951    363.63296   -380.60158    37599.264 
  684500    303.81026   -1480.2549    487.64574    373.94222   -209.93528    37599.264 
  684600    299.26237   -1495.8012    452.42451    302.71815    406.64686    37599.264 
  684700    286.35153   -1486.8372    513.72753    314.91162    357.39312    37599.264 
  684800    293.00272   -1447.5839     479.7655    350.12024   -29.722557    37599.264 
  684900    302.72849   -1437.9346    494.81725    418.56822    657.62777    37599.264 
  685000    297.49217   -1485.6563    470.17743    322.65353    489.99913    37599.264 
  685100    307.29145   -1474.1788     455.8314    363.86254    463.28714    37599.264 
  685200     302.1661   -1442.3597    478.92033    395.71659    349.84922    37599.264 
  685300    307.73504   -1461.6446    495.38386    417.94456     767.8775    37599.264 
  685400    299.93205   -1453.4739    461.03222    356.66534    651.55492    37599.264 
  685500    303.29104   -1428.8536    494.69226    430.05456   -135.00139    37599.264 
  685600    296.68792   -1416.3277     473.7581    391.94522   -577.17802    37599.264 
  685700    303.13753   -1423.0035    498.77013    439.29207   -311.29841    37599.264 
  685800     295.9132   -1442.8447    493.99352    382.17891   -317.54232    37599.264 
  685900    307.84754   -1486.4863    513.18453    411.40946     296.9594    37599.264 
  686000    296.13364   -1482.1741    463.94588    313.79349    267.32996    37599.264 
  686100    298.44216   -1488.0969    505.58274     359.8913    249.39149    37599.264 
  686200    309.77399   -1466.8801    473.85988    400.35631   -100.31845    37599.264 
  686300    298.69001   -1451.7268    488.86246    380.65597    223.51457    37599.264 
  686400     302.7161   -1471.5697    491.74328    381.80345    10.747203    37599.264 
  686500    296.30902   -1458.4327    482.92658    357.30446   -37.208399    37599.264 
  686600    301.99326   -1483.8163    485.58142    360.14359    350.31892    37599.264 
  686700    296.62683   -1495.1851    474.80715    313.86211   -303.42445    37599.264 
  686800    303.23869   -1427.4504     494.2896    430.81962   -194.74371    37599.264 
  686900    301.34771   -1472.4308    495.30398    378.34798   -98.712267    37599.264 
  687000     294.6087   -1450.3997    468.22307    342.98582    243.30421    37599.264 
  687100    298.39552   -1441.4435    477.48554    378.23772    98.555738    37599.264 
  687200    296.22363   -1485.0179    483.53765    330.94625    9.6969332    37599.264 
  687300     295.1655   -1504.8492     479.5749    302.39262    75.135594    37599.264 
  687400    293.42242   -1542.7046    477.33315    254.45497   -442.91933    37599.264 
  687500    302.68376   -1502.9054    479.66236    338.24132   -144.45155    37599.264 
  687600    299.82304   -1489.6887    469.48636     328.4144    267.98449    37599.264 
  687700    305.62371   -1532.3708    461.03935    303.37691    312.90597    37599.264 
  687800    303.99816   -1571.4677    469.39708    265.32601    1015.4331    37599.264 
  687900    296.35826   -1544.0841    441.31401    230.26193    503.57217    37599.264 
  688000    303.22599   -1519.1278    464.62131     309.4169    524.27041    37599.264 
  688100    301.96882   -1515.1013    469.00687    312.17415    409.82575    37599.264 
  688200    297.72109   -1497.2318    472.72416    314.65441    502.54978    37599.264 
  688300    301.71583   -1516.6195    487.62567    328.13674   -153.63568    37599.264 
  688400    307.40567   -1491.0972    478.38726    370.01381    195.71074    37599.264 
  688500     299.5532   -1499.6678    490.09436    337.82956     217.1917    37599.264 
  688600    301.77598   -1499.3261    455.80149    313.87656   -200.91959    37599.264 
  688700    297.89105   -1469.4577    490.82503    361.29392   -210.55335    37599.264 
  688800    298.97241   -1526.2464     468.4299    286.97402   -220.87545    37599.264 
  688900    303.90744   -1517.1975    463.39759    313.18866     545.3013    37599.264 
  689000    294.21263   -1506.2595    501.43254    318.55386   -228.30526    37599.264 
  689100    293.25597   -1495.9799    487.65428    310.75213   -27.677718    37599.264 
  689200    299.57794    -1536.871     463.1343    273.77759   -182.92251    37599.264 
  689300    300.50753   -1564.7191    479.30925     266.2857   -573.29379    37599.264 
  689400    295.24276   -1482.6989     469.9758    315.29138   -834.53945    37599.264 
  689500    298.53561   -1493.3858     480.7824     330.2224   -361.36619    37599.264 
  689600    306.25406   -1538.3104    483.80174    323.03504   -250.14432    37599.264 
  689700    290.30295   -1476.3654    507.82328    337.25287   -430.40272    37599.264 
  689800    311.62133   -1490.3459     467.3423    378.68236    85.050768    37599.264 
  689900    297.46504   -1568.5983    496.83258    266.24458    365.20224    37599.264 
  690000    296.13849   -1592.0962    455.90806    195.85535     468.2687    37599.264 
  690100    307.23952   -1511.4125    476.22113    346.78498    815.22848    37599.264 
  690200    294.12273   -1490.8784    493.10893    325.20703    259.59023    37599.264 
  690300    301.61764   -1479.0058    494.06766    371.75072   -104.43889    37599.264 
  690400    294.99545   -1491.2954    461.69164    297.29827   -249.49537    37599.264 
  690500    301.30126   -1486.1252    498.35037    367.49104   -614.40972    37599.264 
  690600     297.4305   -1508.9804    481.14573    310.02031   -692.47309    37599.264 
  690700    308.00466   -1529.6044    472.81447    328.62812   -397.41439    37599.264 
  690800    303.31298   -1550.6277    483.75318     297.4401   -218.91449    37599.264 
  690900    294.68313   -1537.2496    478.45289    266.70051    18.288111    37599.264 
  691000    301.62164   -1518.2626    473.45301    311.89727    36.206079    37599.264 
  691100    289.13394   -1478.1903    516.59368    338.94005   -124.51699    37599.264 
  691200    301.44194   -1521.2974    470.71385    305.31507   -62.016167    37599.264 
  691300    290.18941   -1491.8305      484.868     298.3218    591.21084    37599.264 
  691400    299.10075   -1537.2083    502.48968    310.64924    414.24682    37599.264 
  691500    294.95733   -1495.4888    479.42211    310.66384    486.98699    37599.264 
  691600    293.30048   -1515.6589     476.7569    280.37595    279.64251    37599.264 
  691700     299.9432   -1529.9927    463.71116    282.87563    119.39031    37599.264 
  691800    288.63375   -1512.1917    481.51724    267.61236    244.54516    37599.264 
  691900    296.67469   -1494.9659    473.16021    312.64959    179.94938    37599.264 
  692000     296.7444    -1467.846    490.52657     357.4495    389.31694    37599.264 
  692100    306.87792   -1489.7262    510.23459    400.85832   -162.48119    37599.264 
  692200    312.99637   -1477.0543    507.42668    438.24335    177.56207    37599.264 
  692300    298.12911   -1509.8447    492.67731    323.82997   -246.72561    37599.264 
  692400    307.93138   -1501.1144    501.10741    385.08136   -651.70936    37599.264 
  692500    309.38706   -1480.7674    465.99756    376.86627    144.09844    37599.264 
  692600    304.89374    -1513.252    481.37118    339.54415   -37.593023    37599.264 
  692700    296.58789    -1502.539    468.44156    299.96751   -291.39759    37599.264 
  692800    292.46309   -1485.7719    502.71539    332.45489   -268.49169    37599.264 
  692900     308.0983   -1505.5784    505.25374     385.5146     93.53266    37599.264 
  693000    295.33627    -1471.924    493.10091    349.61198   -383.96324    37599.264 
  693100    293.35291   -1517.7228    496.77555    298.56655   -292.60881    37599.264 
  693200    312.31246   -1465.2581    500.06547    439.60206   -48.424986    37599.264 
  693300    309.03879   -1482.4826    508.37656     415.9635    -493.8041    37599.264 
  693400    301.86776   -1453.3572    468.57939    373.03617   -308.43619    37599.264 
  693500    307.98401   -1517.9639    500.20396    367.56517   -455.77179    37599.264 
  693600    295.54212   -1545.5979    467.27365    251.03671   -874.97942    37599.264 
  693700    291.12013   -1531.0083     490.2349    268.69729   -285.53385    37599.264 
  693800    287.54896   -1496.1661    478.59541    275.83671   -26.130176    37599.264 
  693900    306.61557   -1517.8902     489.8859    351.16556   -78.532011    37599.264 
  694000    299.84889   -1526.8056    484.94262    306.87002    372.64479    37599.264 
  694100    297.89388   -1540.7953    494.63536    293.77932    106.19306    37599.264 
  694200    304.53461   -1524.7854    489.26344    334.28759   -236.44156    37599.264 
  694300    304.95597    -1545.445    499.83781    326.09772    252.79134    37599.264 
  694400    305.63265   -1545.2413    471.84738    301.35472    -124.6541    37599.264 
  694500    309.77641   -1494.7498    481.11417    379.75183   -181.47921    37599.264 
  694600    305.54447   -1474.5931    486.34064    386.09954   -291.02062    37599.264 
  694700    291.47269     -1493.53    481.08553    298.61202    90.251409    37599.264 
  694800    294.88455   -1477.7451    498.02416    346.68225    -24.24295    37599.264 
  694900    295.92775   -1524.8151    451.86107    258.14153   -57.955985    37599.264 
  695000    299.56191   -1470.2021    500.27104     377.5111   -266.14958    37599.264 
  695100    307.48084    -1473.082    470.12885    380.10867   -448.16397    37599.264 
  695200    294.48028   -1484.3836    514.15579    354.35699   -101.69816    37599.264 
  695300    308.72009    -1487.494    483.64831    384.79035     38.03263    37599.264 
  695400    292.27135   -1503.2494    472.91975    284.31932   -152.63652    37599.264 
  695500    304.54498    -1495.226     503.5712     378.2014   -289.88407    37599.264 
  695600    295.26299   -1514.2974    454.62647    268.43445    216.99123    37599.264 
  695700    307.87424   -1503.2032    480.81108    362.43921   -73.662028    37599.264 
  695800    298.14276   -1504.0131    485.88596    322.93163    477.03021    37599.264 
  695900    314.43938   -1517.3283    500.18545    397.21878    923.27798    37599.264 
  696000    300.53246    -1545.035    488.62316    295.39591    583.67825    37599.264 
  696100    313.39989   -1496.2997    494.41604    407.80232    667.14718    37599.264 
  696200     287.1924   -1485.6822    501.90708    308.02847    160.31059    37599.264 
  696300    302.81389   -1507.0134    488.65043    343.70672    15.722087    37599.264 
  696400    307.61051   -1476.0558    485.00482    392.59411   -52.834218    37599.264 
  696500    305.41003   -1502.7661    492.06113    363.04228   -191.06885    37599.264 
  696600    307.72768   -1514.9173     477.4054    346.66025   -109.94195    37599.264 
  696700    299.44669   -1512.9425    504.18755    338.16895   -313.92663    37599.264 
  696800    301.46404   -1490.3125    480.44922    346.13471   -256.47713    37599.264 
  696900    294.02907   -1492.3753    513.16868    343.34855   -711.18497    37599.264 
  697000    298.59959   -1488.9206    501.68246    355.87549     99.05641    37599.264 
  697100    312.67861   -1456.3857    487.43678    437.49269    591.98712    37599.264 
  697200    303.15275   -1476.9533    470.03027    356.67089   -273.92137    37599.264 
  697300    301.94199    -1463.929     502.4591     396.6779    39.154218    37599.264 
  697400    309.55001   -1462.6379    471.12853    400.85965    312.65705    37599.264 
  697500    305.93898   -1462.3885     506.4961    420.23406   -145.39665    37599.264 
  697600    296.07268   -1473.4401     528.8043    387.11166   -503.58246    37599.264 
  697700    292.51889   -1522.8271    502.62035    295.55556    622.79672    37599.264 
  697800    290.38075   -1543.1488    499.08632    262.08248   -177.01033    37599.264 
  697900    304.94092   -1508.8392    491.83398    354.63195    -405.7994    37599.264 
  698000    302.21168   -1479.3803    492.44581    372.42644     -929.523    37599.264 
  698100    297.47732   -1477.6981    479.74347    340.11099   -1073.1571    37599.264 
  698200    281.16103   -1558.7502    478.07242    183.99641   -675.48171    37599.264 
  698300    297.51358   -1506.3223    467.02544    298.93179   -24.205008    37599.264 
  698400    287.66964   -1467.5279     518.5202    344.94251   -82.654743    37599.264 
  698500    307.23786   -1506.6624    501.99253    377.29904   -10.325011    37599.264 
  698600    298.03357   -1497.7968    476.35431     319.1251    32.670544    37599.264 
  698700    292.26412   -1526.3955     503.0043    291.22522    787.29392    37599.264 
  698800    296.48312   -1488.4865    464.30424    309.41131    242.78467    37599.264 
  698900    298.49703   -1489.1074    492.40573    345.95056    507.15782    37599.264 
  699000    299.25649   -1502.8542    482.78889     326.0031   -307.73872    37599.264 
  699100    302.11393   -1483.9322    471.56937    346.55846   -212.84578    37599.264 
  699200    315.65531   -1507.9316    490.75965    402.65896   -714.49059    37599.264 
  699300    287.23457   -1512.4407    493.20665    272.75921   -1075.4061    37599.264 
  699400     308.3523   -1461.8065    459.25103    384.42625   -744.28714    37599.264 
  699500    296.94204   -1482.1549    487.87599    341.37893   -33.860126    37599.264 
  699600    302.28634   -1508.0774    497.33557    348.95494    458.95612    37599.264 
  699700    304.49888   -1537.7885    480.07752    311.93793     260.8925    37599.264 
  699800    299.93931   -1513.3521     458.5696    294.35721    4.1428204    37599.264 
  699900    297.85813   -1507.9608    470.60766    302.42536    76.907885    37599.264 
  700000    293.71026   -1512.0873    498.47069    307.50455    68.288397    37599.264 
  700100    288.61365   -1521.5301     469.6596    246.32588    347.75216    37599.264 
  700200     307.1477   -1528.5287    475.81018     328.8449   -449.81226    37599.264 
  700300    297.06065   -1533.9581    489.54156    291.77484   -462.08615    37599.264 
  700400    303.94069   -1551.8849    450.71719    265.97036   -613.50725    37599.264 
  700500    294.70219   -1527.6843     443.3594    241.25799   -268.30953    37599.264 
  700600    298.76618   -1517.7217     467.7225    293.86374    41.439637    37599.264 
  700700    315.03362   -1540.9671    454.78986    330.85736   -163.27869    37599.264 
  700800    301.81622   -1506.5959    495.93414    346.92034    352.81586    37599.264 
  700900    300.22252    -1553.641    477.48607    274.25867   -5.1484116    37599.264 
  701000     301.5812   -1536.9265    477.73243    297.33093    -104.4401    37599.264 
  701100    298.91096   -1534.3454    482.15857     292.3273   -187.09762    37599.264 
  701200    296.99892    -1532.555    478.23917    281.59787    278.26542    37599.264 
  701300    303.35307   -1488.5189    511.50923    387.48524   -345.04147    37599.264 
  701400    297.20617   -1474.5335    473.35255      335.665   -78.729418    37599.264 
  701500    305.75003   -1504.5259    499.34963    370.10029    93.942077    37599.264 
  701600    292.72629   -1484.4313    483.20585    315.46986    352.99464    37599.264 
  701700    307.47831    -1439.423     490.6304    434.25784    228.63872    37599.264 
  701800    303.88595    -1496.157    490.18719    360.92208    277.64568    37599.264 
  701900    292.52939     -1506.36    470.82009    280.26964   -180.86848    37599.264 
  702000    291.68037   -1493.9638    515.46538     333.4922   -343.15663    37599.264 
  702100    299.39793   -1531.1296    472.29484    287.86979   -735.15516    37599.264 
  702200    300.30114   -1528.3507    483.91681    306.33337   -636.34701    37599.264 
  702300    304.69948    -1523.773      493.941    340.71917   -283.89836    37599.264 
  702400    301.13385   -1530.2755    469.02258    293.25989   -170.71528    37599.264 
  702500    303.26768   -1531.1476      486.476    319.43928   -24.768477    37599.264 
  702600    297.91031   -1517.5827    457.06107     279.4916   -1.3728351    37599.264 
  702700    312.56982   -1519.1893    456.96817    343.73115   -861.43848    37599.264 
  702800    303.15473    -1564.301    478.43207    277.73384   -422.39785    37599.264 
  702900    301.68019    -1549.508    470.51989    277.98219   -593.78625    37599.264 
  703000     302.9852   -1566.0805    486.69002    283.44976   -200.66306    37599.264 
  703100    300.58181   -1534.9682    483.24576    300.30725   -284.58792    37599.264 
  703200    300.08921   -1533.6006    461.06518    277.27854   -289.53087    37599.264 
  703300    300.69164   -1514.8303    500.36008    338.05355    342.30944    37599.264 
  703400    293.83248   -1496.6651    462.27554    287.28136     306.1793    37599.264 
  703500    300.55848   -1520.9298    497.96158    328.95655    336.53913    37599.264 
  703600    300.25105   -1469.6981     488.0848    368.92868    451.47733    37599.264 
  703700    291.96045    -1513.131    495.72108     295.8405    895.28868    37599.264 
  703800    303.41008   -1526.2747    476.33441    314.81109    212.10734    37599.264 
  703900    298.07378   -1511.9219    480.91074    309.73735    85.521003    37599.264 
  704000    284.11799   -1493.6081    514.70583    299.07249    119.59606    37599.264 
  704100    317.70415    -1488.921    505.62107    445.74679    792.83265    37599.264 
  704200    295.34547   -1472.6023    483.72945    339.60362    54.598125    37599.264 
  704300    289.34475   -1507.7238     473.7704    267.53153    49.143159    37599.264 
  704400    285.81914   -1469.7712    493.72187    309.57728   -181.47078    37599.264 
  704500    283.63047   -1465.7809    514.82595    324.82696   -549.97658    37599.264 
  704600    300.97672   -1451.7521    511.62814    413.68206   -641.26878    37599.264 
  704700    316.90002   -1473.0144    486.66759    439.08284   -826.59361    37599.264 
  704800    283.69471   -1472.9608    497.57549    300.68551   -19.632344    37599.264 
  704900    313.19378   -1507.9745    480.47067    381.25503    32.760724    37599.264 
  705000     302.0412   -1492.1627    464.00258    330.43399    469.18843    37599.264 
  705100     309.6838   -1519.9666    502.39824    375.40252    128.59125    37599.264 
  705200    289.78769   -1503.6838    483.85339    283.64691    464.64045    37599.264 
  705300    298.61369   -1481.5732    487.66997    349.27379    107.10001    37599.264 
  705400     292.4537   -1517.7911    481.53991    279.21792   -159.67091    37599.264 
  705500     301.8255   -1487.8173    491.22321    361.02976   -638.04174    37599.264 
  705600    297.71091   -1475.8348    491.74456    355.02607    239.90408    37599.264 
  705700    302.03495   -1475.7255    483.32901    366.16952    -209.4835    37599.264 
  705800     299.5939   -1512.3395    478.85089     314.0974   -171.09582    37599.264 
  705900    291.02196   -1476.3121    469.53066    302.24765   -195.29438    37599.264 
  706000    294.34028   -1448.0038     482.1238    358.07501    192.35391    37599.264 
  706100    304.99291   -1477.5517    490.07698    384.39628     97.16715    37599.264 
  706200    292.26223   -1515.8584    468.48148    267.23101    -109.8106    37599.264 
  706300    300.47092   -1450.3786    492.60298    393.75531   -786.71702    37599.264 
  706400    302.55989   -1470.8413    496.08744    386.17329   -153.79176    37599.264 
  706500    303.64165   -1477.4097    474.50219    362.88547   -197.44819    37599.264 
  706600    298.59492   -1482.2583    467.59341    328.42775    60.347051    37599.264 
  706700    306.92296   -1460.7795    521.09152    440.86447    165.26674    37599.264 
  706800    299.62546   -1463.1598    465.27465    349.84284    130.01018    37599.264 
  706900    292.34742   -1525.1451    493.15598    283.00202    136.75934    37599.264 
  707000    294.66469   -1465.5549    483.19336    343.05267   -128.72007    37599.264 
  707100    298.38614   -1430.9945    491.28856    402.44761    100.28155    37599.264 
  707200    309.28753   -1429.6623    493.91092    455.43704    22.402502    37599.264 
  707300    296.49089   -1463.1369    505.70703    376.19873   -242.89968    37599.264 
  707400    296.20256   -1461.7921    472.02364    342.56325     250.0863    37599.264 
  707500    302.42417   -1508.9393    502.21524    353.59265    83.272285    37599.264 
  707600    308.08936   -1499.9501     468.6767    354.52564   -385.78241    37599.264 
  707700    303.83364   -1534.4059    470.05435    302.30501   -524.62606    37599.264 
  707800    305.09658   -1520.1005    462.06885    314.30568   -154.61471    37599.264 
  707900    294.62915   -1510.7841    482.34528    296.81558   -126.18162    37599.264 
  708000    292.60858   -1513.7488    486.24185    288.65881    245.61278    37599.264 
  708100    305.19222    -1500.999    489.39214    361.16062    495.58226    37599.264 
  708200    302.26973   -1482.5016    483.33212    360.45259    547.65787    37599.264 
  708300    307.30952    -1523.806    482.40914    340.89436    84.049033    37599.264 
  708400     302.5805   -1509.2831    477.88297    329.61978    947.15971    37599.264 
  708500    287.17257   -1496.0281    495.22521    290.91153   -146.18509    37599.264 
  708600    299.88842   -1510.1136    469.83371    308.63087    139.10667    37599.264 
  708700    291.73137   -1506.0776     486.3601    292.50261    448.18451    37599.264 
  708800    295.04108   -1507.4617    475.20501    294.85056   -40.113557    37599.264 
  708900    296.67495   -1511.6637    478.47746    301.27029   -19.412395    37599.264 
  709000    294.72486   -1546.6466    452.80375     231.8421   -273.96399    37599.264 
  709100    289.99249   -1527.7741    453.32321    229.94765   -239.89252    37599.264 
  709200    302.54464   -1485.8952     477.6625    352.62596    -227.8437    37599.264 
  709300    302.01715   -1518.4216    489.63355    329.69785    -313.6087    37599.264 
  709400    299.44845   -1491.9691    463.43502    318.39777    60.880467    37599.264 
  709500    292.93894   -1501.3705     494.7135    310.99471    120.92388    37599.264 
  709600    298.71676   -1526.8418    481.79371    298.59257   -66.433317    37599.264 
  709700    295.10737   -1493.0851    466.60593    300.92626    206.66691    37599.264 
  709800    301.23254   -1452.8092    468.07915    370.22664   -20.122532    37599.264 
  709900    299.65719   -1471.4116    462.76648    339.22566    55.176911    37599.264 
  710000    302.01803   -1472.0222    485.18859    371.65626   -82.880866    37599.264 
  710100    297.71448   -1502.2301    470.24959     307.1518   -23.676895    37599.264 
  710200    296.83901   -1551.8858    468.78756    252.09625   -422.27498    37599.264 
  710300    302.65612   -1528.0882    456.34539    289.61722    -286.1751    37599.264 
  710400    303.76124    -1506.248    452.83196    312.91487   -377.47456    37599.264 
  710500    287.59943   -1488.9521    479.13972    283.82202    -403.5197    37599.264 
  710600    301.21973    -1488.911    452.70279    318.69091   -845.89509    37599.264 
  710700    305.83762   -1483.8811    491.26153    383.05098   -663.73316    37599.264 
  710800    301.39442   -1491.5244    496.32822    360.48866   -212.04504    37599.264 
  710900    295.94123   -1523.5425    483.23118    290.84488   -88.694453    37599.264 
  711000    297.49494   -1502.1944    495.80247    331.75288    55.602009    37599.264 
  711100    301.65649   -1524.2565    467.21722    299.82444    226.76025    37599.264 
  711200    306.89504   -1534.5139    467.32199    313.23497    447.96187    37599.264 
  711300    295.46057   -1546.6378    483.82759    266.18393    271.37647    37599.264 
  711400    297.85757   -1541.1392    478.57113    277.20787    155.18253    37599.264 
  711500    303.04139   -1529.8814    489.89031    323.10189    -638.6556    37599.264 
  711600    290.27648   -1531.9141    464.48115      238.243   -643.74855    37599.264 
  711700    297.38529   -1505.6491    463.96449    295.96699   -1071.5178    37599.264 
  711800    297.86739   -1505.1734    493.21447    327.86119   -679.55746    37599.264 
  711900     301.3486   -1473.5723    494.05657      375.963    158.08386    37599.264 
  712000    300.84036   -1515.9427    467.73496    304.98492   -17.069257    37599.264 
  712100    307.47325   -1525.5722    469.64695    327.10247   -235.87327    37599.264 
  712200     309.1672    -1513.277    502.37848    379.74867    476.44858    37599.264 
  712300    295.28253   -1482.4518    474.44696    320.18847   -98.445138    37599.264 
  712400    303.45754   -1497.1196    501.60557    369.45079    -490.1862    37599.264 
  712500     287.9847   -1472.7757    490.91394    313.50561   -499.53312    37599.264 
  712600     305.5792   -1491.0712    490.66786    374.10484   -753.59116    37599.264 
  712700    289.62053   -1504.6718     495.6903    293.74389   -291.36175    37599.264 
  712800    293.24688   -1491.7771    508.96891    336.22871    110.79608    37599.264 
  712900    294.62644   -1515.1342    497.92926    308.03728   -80.157312    37599.264 
  713000    297.15715   -1536.6821    493.39902    293.34238     29.85922    37599.264 
  713100     302.9877   -1537.6472    494.80253     320.0068   -157.90643    37599.264 
  713200    292.64926   -1537.5186    500.66353    279.49371    250.97266    37599.264 
  713300    300.82174   -1528.5613    493.89283    318.44049    257.16293    37599.264 
  713400    304.24276   -1526.9162    491.06328    332.64391    506.97861    37599.264 
  713500    311.92922   -1534.0946    485.21193    354.18813    1094.9669    37599.264 
  713600     296.9073   -1496.5946    474.42704    313.33409    847.31079    37599.264 
  713700    301.31268   -1529.4881    489.09055    314.91963    964.53862    37599.264 
  713800    308.27391   -1552.8403    483.44742    317.23621    1173.6535    37599.264 
  713900    300.78832   -1538.2952    471.31905    285.98247    350.90213    37599.264 
  714000    306.88581   -1540.3526     489.8785    329.91126    572.14342    37599.264 
  714100    297.53188   -1554.6807    464.88116    248.51142   -180.45343    37599.264 
  714200    303.47219   -1506.5602    470.68949    329.16002   -41.399397    37599.264 
  714300    297.83225   -1520.6613    492.30927    311.31004     1.153255    37599.264 
  714400    295.15108   -1523.6907    491.72333    295.63471   -348.02882    37599.264 
  714500    309.52513   -1479.8471     487.5677    399.97773   -814.35046    37599.264 
  714600    305.99971   -1509.6591    491.25671    357.99727   -302.68633    37599.264 
  714700    288.24832   -1516.9961    488.61398    268.17101    299.39931    37599.264 
  714800    302.05825   -1537.1573    488.06039    309.57386    19.906385    37599.264 
  714900    299.17246   -1528.6775     464.3821    281.39497    532.76775    37599.264 
  715000    301.41263   -1516.2237    480.56857    320.11168   -157.51086    37599.264 
  715100    297.45355   -1469.1262    502.65157    371.48397   -602.89054    37599.264 
  715200    309.00476   -1497.1319    496.09867    388.88328   -555.10223    37599.264 
  715300    295.67612    -1497.233    442.55729    275.28798   -420.89641    37599.264 
  715400     306.7589     -1511.05     499.7825    368.54705   -266.90307    37599.264 
  715500    298.72755   -1500.7798    460.51548    303.42484   -259.38376    37599.264 
  715600    305.50237   -1511.1922    499.79807    362.76851   -412.71831    37599.264 
  715700    294.96066   -1461.5854    510.16906    375.32918   -594.57856    37599.264 
  715800    308.58002   -1456.9296    469.40041    400.47682    -639.0961    37599.264 
  715900    288.74845   -1461.9546    471.40552    308.25368   -1007.9095    37599.264 
  716000    300.50413   -1477.8318    483.12282    356.97137   -1000.9443    37599.264 
  716100    299.61718   -1457.7259    478.41632    368.38117   -1215.1556    37599.264 
  716200    298.07027    -1480.322    462.70611    323.11682   -529.57101    37599.264 
  716300     303.8938   -1470.7796    482.31943    378.46699   -214.52296    37599.264 
  716400    302.45551   -1493.4891    465.49555    332.46415    40.382195    37599.264 
  716500    298.46731   -1513.7781    500.24372    328.98423   -64.512882    37599.264 
  716600      291.171   -1497.5367    473.47293    285.63568    -194.5633    37599.264 
  716700    301.67459   -1497.5937    469.35445    328.70585    297.50815    37599.264 
  716800    295.35335   -1537.8033    453.06732    243.77589   -322.87463    37599.264 
  716900    297.98593   -1468.1017    494.28638    366.53807   -123.16252    37599.264 
  717000    302.73767   -1502.7375    479.12255    338.11192    40.045927    37599.264 
  717100    292.66249   -1471.2731    477.55334    322.68851   -23.326876    37599.264 
  717200    290.56114    -1463.928     479.2399     322.2682   -486.16349    37599.264 
  717300    290.91781   -1516.5578     468.3919    260.39477   -129.62746    37599.264 
  717400    299.95397   -1496.3755    493.91162    346.74174   -233.96099    37599.264 
  717500    297.39591   -1508.3177    502.62797    332.00961    379.82307    37599.264 
  717600    299.81869   -1505.8154    489.29091    332.07266   -349.04031    37599.264 
  717700    307.68498   -1488.7627    466.94174    362.15914    261.98414    37599.264 
  717800    305.90907   -1525.1953    461.46182    312.25846    21.811075    37599.264 
  717900    299.04138    -1488.908      502.692    358.88484   -218.89667    37599.264 
  718000    297.54612   -1516.6016    489.78266    311.55614    563.91567    37599.264 
  718100    293.62361   -1530.8711    490.20764    280.06803    388.47305    37599.264 
  718200    295.96604   -1477.4931     500.6234    354.39805    577.16038    37599.264 
  718300    298.68498   -1484.5303    489.42872     348.3961   -174.27727    37599.264 
  718400    304.62935   -1455.7879     495.2204    409.66817   -479.86743    37599.264 
  718500    303.88637   -1475.0554    486.38142    378.21981   -288.32412    37599.264 
  718600     295.8347   -1483.4646    491.42431    338.63672    -129.0047    37599.264 
  718700    294.91641   -1472.4691    463.50464    317.58206    439.01722    37599.264 
  718800    298.89658   -1465.9735      474.539    353.01503    18.811317    37599.264 
  718900    287.16848   -1469.9307    483.76201    305.52727     -229.091    37599.264 
  719000    297.21806   -1489.4826     486.0195    333.43636   -121.46575    37599.264 
  719100    294.06159   -1486.3823    490.76679    327.08597   -15.698824    37599.264 
  719200    304.08554   -1481.0311    480.42479    367.18332   -490.87648    37599.264 
  719300    290.97525   -1463.2783    494.33178    339.87252   -715.20545    37599.264 
  719400    304.77297   -1476.2542    489.48609    384.11365   -450.24296    37599.264 
  719500    298.36672   -1438.7479     492.2408     395.5591   -488.43272    37599.264 
  719600    301.72261   -1436.5134    480.58525    401.23294    -432.8791    37599.264 
  719700    293.49037   -1454.2057    503.72609    369.65251   -295.81126    37599.264 
  719800    306.51142   -1463.2906    492.35739    407.76818   -15.599705    37599.264 
  719900    299.61717   -1441.0118    476.58804    383.26702   -176.19904    37599.264 
  720000     309.7171   -1449.3319    481.94175    425.73043   -694.40191    37599.264 
  720100    304.63892   -1500.9768    472.97783    342.27976    -795.1871    37599.264 
  720200    289.80126   -1457.1551    471.25605    317.63927    -565.0534    37599.264 
  720300    307.67296   -1469.1863    484.25397    398.99366     -383.002    37599.264 
  720400     299.3234   -1474.0837    496.88705    369.17272    -361.7949    37599.264 
  720500    301.22071   -1501.1856    477.10488    330.82275    166.88572    37599.264 
  720600    302.75906   -1523.1215    475.27198    313.97356    424.51427    37599.264 
  720700    296.43073   -1483.7862    502.03379    351.60559     601.4331    37599.264 
  720800    294.88922    -1498.599    465.88174    293.70697    96.591967    37599.264 
  720900    301.76956   -1514.4355    474.49067    317.42739    964.11523    37599.264 
  721000    296.49816   -1494.7022    497.25478    336.21391    520.02582    37599.264 
  721100    306.72768   -1467.1804    462.61309    375.10678   -70.965849    37599.264 
  721200    301.84008   -1499.4868    474.64974    332.85245    151.29044    37599.264 
  721300     303.2268    -1465.595    443.69906    342.03105    117.84264    37599.264 
  721400    302.03128   -1488.2009    472.40302     342.7516    116.67443    37599.264 
  721500    304.86235   -1502.0108    494.40866    363.68158    196.59558    37599.264 
  721600    301.48412   -1494.8804    480.90151    342.10949   -9.0876701    37599.264 
  721700    306.15594   -1556.0299    490.01127    311.08381    484.87064    37599.264 
  721800    290.59921   -1523.7377    473.65049    257.04029    411.06854    37599.264 
  721900    287.38147   -1503.2207    513.50181    302.93518    340.26248    37599.264 
  722000    306.76388   -1537.7238    467.95315    310.06631   -315.47143    37599.264 
  722100    300.63326   -1545.4123      479.378    286.22683   -371.54469    37599.264 
  722200    303.45529   -1498.9267    486.43181    352.45985    -271.8423    37599.264 
  722300    300.44426   -1496.6776    476.62536    331.35874   -192.14825    37599.264 
  722400    297.62855   -1499.0311    487.21031    326.92504    470.49963    37599.264 
  722500    303.93149   -1497.7604    484.72823     354.0645    509.24831    37599.264 
  722600    295.99117   -1529.5079    464.52486    266.39778   -201.27864    37599.264 
  722700    295.86642   -1528.4004    492.89136    295.31067   -357.40654    37599.264 
  722800      301.249   -1506.0256    461.84128    310.84641    -782.6554    37599.264 
  722900    306.76164   -1497.5607    499.83077    382.09695    77.930985    37599.264 
  723000    297.93217   -1478.3896    487.37947     349.1014   -184.48528    37599.264 
  723100    305.49449   -1486.7738    489.57804    376.93144   -145.86447    37599.264 
  723200    297.80142   -1466.7671    518.94738    391.70373   -169.78258    37599.264 
  723300    303.89726   -1506.4268    497.63771    358.15366   -433.47798    37599.264 
  723400    312.64038   -1513.0815    486.53239    379.72056   -475.90706    37599.264 
  723500    302.33728   -1512.6185    490.26419    337.57153   -401.40902    37599.264 
  723600    303.65887   -1484.4623    482.54101    363.94915   -467.01785    37599.264 
  723700    288.52923   -1453.8555    519.21104    363.17219   -253.24314    37599.264 
  723800    309.83068    -1481.463    496.89359     409.0621   -336.76605    37599.264 
  723900    300.80317   -1434.7052    512.79047    431.11068    2.0985665    37599.264 
  724000    306.05404   -1485.1027    487.71351    379.25482    394.31697    37599.264 
  724100    292.41507   -1506.2535    512.63803    321.67993    44.828202    37599.264 
  724200    303.27605   -1519.5643     527.1811     371.7653    368.17583    37599.264 
  724300    298.00068   -1521.2866    479.42156    298.55461    228.58686    37599.264 
  724400    301.96715   -1504.9393    528.01699    381.33877    298.94968    37599.264 
  724500    303.51952   -1533.0071    492.57647    324.81302    187.24484    37599.264 
  724600    306.64991   -1528.5767    476.74482    327.49236    624.73379    37599.264 
  724700    295.57599   -1517.8468    462.98322    274.64972   -264.10976    37599.264 
  724800    305.21569   -1516.6992    503.91267    360.08659   -329.25586    37599.264 
  724900     298.8962   -1514.4287    518.26917    348.28826   -673.01694    37599.264 
  725000    294.96724   -1557.0106    486.65133    256.41587   -136.90591    37599.264 
  725100    303.70913   -1518.3373    499.43136    347.19054    18.299457    37599.264 
  725200    299.38639   -1542.7827    489.94516    293.81511   -34.157635    37599.264 
  725300     298.8899   -1545.5126    472.07122    270.97803   -146.03428    37599.264 
  725400    295.99389   -1534.6286    475.66148    272.42595   -645.73975    37599.264 
  725500    301.67027   -1496.8985    495.29329     355.3205   -340.40961    37599.264 
  725600    297.38961   -1507.7489    486.98306     316.9052   -967.57741    37599.264 
  725700    293.91312   -1486.0274    488.58483    324.59111   -366.28866    37599.264 
  725800    301.41849   -1540.5247    483.57377    298.84223   -403.23888    37599.264 
  725900    300.64856   -1563.8509    475.20204    263.68113   -335.32503    37599.264 
  726000    301.34971   -1563.4762    488.07999     280.0876    237.74145    37599.264 
  726100    302.23087   -1537.3708    482.07615    304.15262   -410.52158    37599.264 
  726200    298.17133   -1542.3669    488.42899    287.24937   -4.1498929    37599.264 
  726300     298.6528   -1553.4672    485.18971    275.07545    69.165789    37599.264 
  726400    299.40486   -1574.0513    505.49611    278.18057   -21.050749    37599.264 
  726500    303.40066   -1594.5033    486.12872     256.3344    -124.3724    37599.264 
  726600    291.80276   -1531.8721    498.22169    278.89074    368.51928    37599.264 
  726700    295.28738   -1529.1388    486.65324    285.72961   -429.02376    37599.264 
  726800    305.13382   -1526.0564    473.87201    320.32046   -185.64919    37599.264 
  726900    293.92764    -1569.719    476.16008    228.54003    -367.4929    37599.264 
  727000    300.97814   -1576.7024    486.69457    263.80454   -552.06846    37599.264 
  727100    309.02678   -1603.0343    479.40551    266.38681    140.29501    37599.264 
  727200    307.09735    -1586.189    475.39257    270.54047    784.76679    37599.264 
  727300     309.9139   -1576.1194    500.75125    318.63767    720.75994    37599.264 
  727400      297.009   -1573.3249    481.41098    244.04509    367.65248    37599.264 
  727500    300.82167   -1565.7319    482.35316    269.72989    157.87772    37599.264 
  727600    295.72577   -1562.8092    464.21881    231.59667     176.0674    37599.264 
  727700    293.34558   -1503.4493    511.03775    327.06933    96.286292    37599.264 
  727800    300.95023   -1494.5615     493.8438    352.96917    281.81384    37599.264 
  727900    306.51246   -1518.8043    487.61916    347.52096    615.23099    37599.264 
  728000    304.92524   -1563.0859    496.45258    304.93338    158.18435    37599.264 
  728100    300.45513   -1568.5196    465.03129    247.97165    464.57542    37599.264 
  728200    305.97195    -1540.611    488.25494    323.91873    619.53347    37599.264 
  728300    302.15082   -1552.0552    499.57781    306.60986    536.67007    37599.264 
  728400    292.66455    -1518.837    477.12384    274.70436    9.9608154    37599.264 
  728500    281.47255   -1550.2032    497.40909    213.28136   -743.84762    37599.264 
  728600    308.70657   -1526.0344    477.33229    339.87316    381.23131    37599.264 
  728700    303.71232   -1551.7596     480.8998    295.25108   -139.27394    37599.264 
  728800    295.12073   -1539.1653    501.35305    289.65331    147.99287    37599.264 
  728900    295.15274    -1573.446    486.09393    240.25741   -25.785121    37599.264 
  729000     293.7002   -1555.6435    497.31266    262.74506    171.53667    37599.264 
  729100    304.19607   -1563.8957    490.51191    294.90305    110.07807    37599.264 
  729200    291.38029   -1539.1352    498.81637    270.32206    63.405483    37599.264 
  729300    295.67745   -1546.6408    500.40749    283.73632   -138.92731    37599.264 
  729400    301.02845   -1562.4299    482.51937    274.12822     28.82982    37599.264 
  729500    299.33923   -1527.6704    496.57201    315.34214    138.41078    37599.264 
  729600    299.82641   -1492.0901    464.91476    321.45657     150.7054    37599.264 
  729700    320.00981   -1492.6452    512.55387    459.32632    35.943002    37599.264 
  729800    295.45035   -1504.7906    482.86475    307.02235    137.63683    37599.264 
  729900    292.77822   -1529.2847    504.21884      291.863   -256.98107    37599.264 
  730000    301.51022    -1542.033    490.84224    305.01495   -252.68628    37599.264 
  730100    298.82957   -1539.9313    493.77474    297.99152   -155.09193    37599.264 
  730200    312.43448    -1515.624     504.1757    393.89524    5.9972539    37599.264 
  730300    298.12247   -1504.2906    486.57464    323.25151   -16.622668    37599.264 
  730400    295.70488   -1518.6549    494.23777    305.67594   -598.53218    37599.264 
  730500    282.04191   -1563.2014    486.62098    192.05605   -341.73246    37599.264 
  730600    287.45989   -1530.8223    518.63783    280.82232   -681.92623    37599.264 
  730700     296.7938   -1476.9229    465.61754    323.68577    -601.5812    37599.264 
  730800    299.34724   -1504.2699    511.12737    353.33405   -601.75282    37599.264 
  730900     294.4691   -1543.6701    459.34321     240.2076    -497.8663    37599.264 
  731000    304.81105   -1552.7244     479.0257    297.35432    -328.5449    37599.264 
  731100    293.04732   -1548.2957    472.93353    242.77713    72.086047    37599.264 
  731200    297.03087   -1554.4883    475.57892    257.14806    205.78616    37599.264 
  731300    305.23482   -1543.5545    487.37794    316.78255    385.41456    37599.264 
  731400    308.29924   -1523.6929    505.70774    368.75792    199.01148    37599.264 
  731500    294.07052   -1536.4304     484.3077    270.61896   -152.28508    37599.264 
  731600    298.03612   -1541.9544    480.35675    278.98144   -294.55611    37599.264 
  731700    307.91137   -1511.3793     505.0903    378.70942    94.342034    37599.264 
  731800    299.99536   -1537.2883    467.87173    279.97525   -513.18901    37599.264 
  731900    299.12503   -1497.7903    511.80682    359.49357    36.344443    37599.264 
  732000    291.09744   -1562.0077    485.62869    232.98964    241.08474    37599.264 
  732100    308.16874    -1543.787    504.74315    347.11221    218.18572    37599.264 
  732200    302.29237    -1570.858    500.28888    289.15481    276.07112    37599.264 
  732300    302.21508   -1561.1697    469.11046    267.31698   -40.412756    37599.264 
  732400    290.26056   -1546.9883    488.45538     247.0714     -266.787    37599.264 
  732500    298.57137   -1583.5757    493.90059    253.31154   -358.06101    37599.264 
  732600    292.08571   -1512.5192    485.04446    286.33914   -237.34229    37599.264 
  732700    303.48102   -1563.8715    491.21231    292.41125   -415.33583    37599.264 
  732800     304.7222   -1568.7399    458.20467     260.1181   -43.236292    37599.264 
  732900    288.40021   -1589.8487    500.33857    207.72617    248.20782    37599.264 
  733000    310.37034   -1567.8386    485.86395    314.08432    312.06896    37599.264 
  733100    299.21208   -1551.4485    471.85776    266.27787    364.77621    37599.264 
  733200    294.96964    -1572.777    479.26384     233.2728   -121.22354    37599.264 
  733300    294.65639   -1510.9126    493.69399    308.15833   -351.33558    37599.264 
  733400    299.27728    -1554.796    481.96555    273.33145   -772.97952    37599.264 
  733500    290.53352   -1512.3884    519.01671    313.46039   -276.10841    37599.264 
  733600    294.11762   -1548.4092    474.02652    248.57085   -575.33348    37599.264 
  733700    298.63142   -1547.7467    496.81086     292.3209   -911.68103    37599.264 
  733800    303.25078   -1535.6374    502.32301    330.72052   -567.18774    37599.264 
  733900    297.45253   -1519.1046    471.62806     290.4775   -613.12926    37599.264 
  734000    304.27239   -1539.9363    496.69834    325.39218   -719.12737    37599.264 
  734100    296.43241   -1536.3185    485.36259    282.40962    -57.76226    37599.264 
  734200    305.83104   -1555.1506      479.909    300.39942   -63.581069    37599.264 
  734300    308.24268   -1538.2414    498.30329    346.55057   -164.94708    37599.264 
  734400    288.82709   -1523.6803    481.12235    256.59855   -286.25291    37599.264 
  734500    307.54512   -1549.8239     516.0505    349.57755   -835.30944    37599.264 
  734600    304.48512   -1544.0079    454.72514    280.30416   -462.26237    37599.264 
  734700     296.4361   -1544.9327    492.57333    281.02282   -1118.9646    37599.264 
  734800    304.57077   -1586.9416    452.29484     235.3255   -983.49389    37599.264 
  734900     299.3147   -1530.7482    499.68857    315.27057   -164.19393    37599.264 
  735000    307.09321   -1515.4582    507.28069    373.14077   -165.13728    37599.264 
  735100    303.92948   -1532.4772    507.51877    342.12926   -247.75732    37599.264 
  735200    303.78763   -1554.8328    496.12965    307.74646   -58.972529    37599.264 
  735300    311.02816    -1547.578    468.02663    319.46649   -325.41561    37599.264 
  735400    308.21026   -1485.7138    491.18481    391.81385   -845.35565    37599.264 
  735500    293.53381    -1503.135    498.34558    315.53814   -425.41944    37599.264 
  735600    298.44667   -1577.6191    483.37998    248.18666   -150.12241    37599.264 
  735700    295.22511   -1571.7683    495.47085    251.63762   -135.34474    37599.264 
  735800    302.49573   -1546.5185    501.03663    315.15678   -298.25249    37599.264 
  735900    303.69946   -1529.6782     520.8855    357.26034   -330.68581    37599.264 
  736000    300.54671   -1510.9705    528.36612    369.26744   -493.88295    37599.264 
  736100    301.40853   -1537.8333    492.58876    310.50383   -55.906544    37599.264 
  736200    302.00564   -1565.6311    504.43774    297.24081   -95.062988    37599.264 
  736300    297.14032   -1519.5165    499.49093    316.52423    203.96982    37599.264 
  736400    293.57165   -1532.6082     485.6918    273.58137   -23.286393    37599.264 
  736500    302.49295   -1518.2973    519.52747    361.85633   -21.873091    37599.264 
  736600    301.71336   -1513.0494     508.6463    352.71634    17.114617    37599.264 
  736700    314.97659   -1524.1104    474.62904    367.29664    322.33081    37599.264 
  736800    306.03642   -1571.4852     485.0132    290.09276   -619.20247    37599.264 
  736900     307.8806   -1555.8079    490.17393    319.22599   -381.18916    37599.264 
  737000    294.40545   -1530.5526    487.56186    281.25741   -194.08677    37599.264 
  737100    306.62041   -1510.3879    468.39432    337.19803   -524.41793    37599.264 
  737200    294.08195   -1489.8442     529.8911       362.84    -205.8887    37599.264 
  737300    299.78661   -1520.1389    514.12398    342.43798    42.381941    37599.264 
  737400    304.64826   -1559.9948    519.16528    329.49128    18.851568    37599.264 
  737500    296.71779   -1505.4984    498.81506    327.96587    207.13863    37599.264 
  737600    296.17663   -1491.4146    521.45882    362.25927   -442.21846    37599.264 
  737700    300.15057   -1524.6932    503.00296    328.39976    29.916547    37599.264 
  737800    299.52641   -1535.9941    506.55546    317.84381     322.0601    37599.264 
  737900    295.07532   -1537.8886    497.64205     287.0147   -67.571231    37599.264 
  738000    301.69257   -1481.5875    526.27484    401.71333    792.59752    37599.264 
  738100    306.03071    -1484.447    501.89298     393.9851    179.99236    37599.264 
  738200    305.22852   -1531.6252    499.54434    340.84997    396.10268    37599.264 
  738300    303.01578   -1535.2128    499.17516    326.94019    319.64725    37599.264 
  738400    285.60666   -1588.0695    491.98376    188.58517   -299.08083    37599.264 
  738500    300.43289   -1563.9393     522.2992    309.71974   -598.69927    37599.264 
  738600    300.13525   -1527.7984     477.2426    299.46524   -858.12961    37599.264 
  738700    296.64737   -1544.2466    494.43424    284.52008   -718.25932    37599.264 
  738800    301.02913   -1557.8379    491.94916    288.15307   -689.80327    37599.264 
  738900    292.54812   -1545.8087    513.23553    283.32067   -5.9213784    37599.264 
  739000    300.73306   -1543.5424    477.28921    286.45687    39.389769    37599.264 
  739100    295.95723    -1598.465     504.8278      237.591    246.08586    37599.264 
  739200    311.34302   -1589.0618    506.55048    317.92281    270.94303    37599.264 
  739300    300.60925   -1575.4797    474.02292    250.69642    566.24151    37599.264 
  739400    298.73853   -1570.1879     480.2697    253.82036    43.557043    37599.264 
  739500    297.10542   -1600.0783    507.36596    243.68044    264.05843    37599.264 
  739600    304.74163   -1593.0334    471.90979    249.61718    310.91223    37599.264 
  739700    301.07047   -1604.7355    492.05286    241.54509    176.83396    37599.264 
  739800    293.61081   -1554.3483    498.93971    265.26521   -258.46736    37599.264 
  739900     296.1524   -1579.4943    515.80264    268.41438   -309.18787    37599.264 
  740000    307.98922   -1569.2551    496.25129    312.34477    -310.5974    37599.264 
  740100    290.82033   -1612.7077      478.001    173.41543   -27.001033    37599.264 
  740200    309.35963    -1600.025    494.86154    286.34926    84.005004    37599.264 
  740300    293.29426   -1619.6343    488.49529    188.11096    59.294337    37599.264 
  740400    308.02048   -1588.6269    480.72326    277.58552    1.7494929    37599.264 
  740500    307.03677   -1567.8531    495.54408     308.7554    327.75594    37599.264 
  740600    293.11992   -1592.8702    505.52904    231.12463    340.79988    37599.264 
  740700    306.24155   -1563.8346    488.86094    302.51383   -40.955338    37599.264 
  740800    296.85448   -1567.3557    464.01407    231.92237   -72.321163    37599.264 
  740900    305.51772   -1550.6577    516.57873     340.1527     188.9964    37599.264 
  741000    301.00875   -1566.6378    501.25855    288.57087    381.20216    37599.264 
  741100    295.07328   -1549.7628    483.57553    261.06487    406.75702    37599.264 
  741200    294.10527   -1568.0775    511.92974    266.75017      725.524    37599.264 
  741300     307.8481   -1536.9747    524.57099    372.31005    116.21859    37599.264 
  741400    299.53867   -1592.2286    471.39004    226.49903    447.76307    37599.264 
  741500    298.52504   -1581.4104    516.38601    277.75389    416.44217    37599.264 
  741600    308.05254   -1570.1948    510.26842    325.70698   -288.04583    37599.264 
  741700    300.66096    -1534.623     508.0111    325.77383   -491.30496    37599.264 
  741800    322.09326   -1545.9303    478.91756    381.77632   -267.96899    37599.264 
  741900    305.54831   -1576.6665    479.64726    277.35004   -170.34022    37599.264 
  742000    297.15068   -1547.3984    508.90707      298.105   -162.85978    37599.264 
  742100    316.91751   -1570.5087    504.73004    359.72977    427.88125    37599.264 
  742200    313.99704   -1588.1357    497.44277    321.67907    666.87695    37599.264 
  742300    294.51194   -1550.3442    482.85592    257.23892    85.806356    37599.264 
  742400    289.77131   -1589.2575    511.21915    225.36533     381.2257    37599.264 
  742500    300.79958   -1593.5594    479.31528     238.7652     140.4617    37599.264 
  742600    288.03593   -1575.2888    518.10851    238.41749    501.74054    37599.264 
  742700    302.98595   -1583.1063    491.16043    270.89774    805.80892    37599.264 
  742800    292.64367   -1585.9469    500.69568    231.07242    565.10947    37599.264 
  742900    299.46759   -1571.4446    498.86962    274.44294    112.39187    37599.264 
  743000    308.32362   -1562.1168    504.88258     329.6185   -442.48504    37599.264 
  743100    299.67351    -1565.979     489.6674     271.6325   -375.45488    37599.264 
  743200    300.53486   -1557.3163    501.64137    296.14362   -33.785576    37599.264 
  743300    290.47256   -1548.0401      480.222    238.73975    175.59735    37599.264 
  743400    295.10288   -1575.5823    485.52601    237.32895   -225.16656    37599.264 
  743500    305.95487   -1527.1976    530.01514    379.01551   -363.75934    37599.264 
  743600    306.94332   -1585.1083    475.69747    271.23322   -165.01075    37599.264 
  743700    300.83101   -1545.8614    500.12961    307.41889    -687.3925    37599.264 
  743800    303.79592   -1516.2075    530.88905    381.16848   -182.46443    37599.264 
  743900     299.9396   -1551.1972    476.91094    274.85481   -180.96508    37599.264 
  744000    299.41725   -1553.6204    514.80133    307.97245    209.67292    37599.264 
  744100    305.03494   -1585.1155    500.12534    287.06986    424.91048    37599.264 
  744200    299.78808   -1588.1515    463.03119    223.33915    45.163094    37599.264 
  744300    305.44876   -1551.7401    497.87767    320.05896   -51.001285    37599.264 
  744400    305.25378   -1556.9432    495.84562    311.94687    53.420504    37599.264 
  744500    300.52896   -1540.8651    538.44227    349.36922   -3.5520292    37599.264 
  744600    301.54188   -1576.4576    503.88717    283.77769    198.46847    37599.264 
  744700    312.58284   -1576.2696    484.17002    313.91127    499.54544    37599.264 
  744800    299.31944   -1522.9633    486.33174    309.71998      496.993    37599.264 
  744900    309.33478   -1557.8399    522.91975    356.48078    689.63206    37599.264 
  745000    291.91467   -1558.8547    492.25979    246.44966    1023.2176    37599.264 
  745100    308.84145   -1551.6851    498.09025    335.58711    371.63909    37599.264 
  745200    298.00521   -1559.2954    493.31913    274.46378     389.8279    37599.264 
  745300    303.77248    -1566.648    518.83789     318.5714    662.32495    37599.264 
  745400    305.95124   -1558.8725    496.51568    313.82477    329.24357    37599.264 
  745500    301.31037   -1570.5792    503.49679    288.22442    122.26391    37599.264 
  745600     303.2276   -1522.5003    493.35678     334.7871   -29.577369    37599.264 
  745700    307.39631   -1562.8446    493.00012     312.8372    145.52002    37599.264 
  745800    293.44966   -1553.8838    479.96943    246.03463    459.39688    37599.264 
  745900    301.46077   -1562.3017    511.13126    304.81287    284.39672    37599.264 
  746000    317.62673   -1594.4968     487.2632    321.46493    744.10271    37599.264 
  746100    297.13395   -1582.1614     480.9065    235.26622    379.81496    37599.264 
  746200    306.12439   -1571.9913    497.66137    302.63058   -245.64506    37599.264 
  746300     292.3446   -1605.7908    460.85486    170.04244   -154.05686    37599.264 
  746400    299.49485   -1560.3046    511.58006    298.41601     299.2944    37599.264 
  746500    300.40184   -1554.5125    480.43137    277.13907    113.24027    37599.264 
  746600    315.46247   -1503.8761     504.7097    419.79718    90.707691    37599.264 
  746700    302.61973   -1522.9929    508.99202    347.19552   -268.54861    37599.264 
  746800    297.29319   -1542.9339    491.78753    286.09099   -515.59982    37599.264 
  746900    310.61381   -1593.4003    460.66994    264.42368   -40.408914    37599.264 
  747000    304.85219   -1583.8851     470.0406    257.39354   -412.65979    37599.264 
  747100    300.86533   -1512.2195    492.75092    333.83641    49.559338    37599.264 
  747200    307.34897   -1529.2526    518.11532    371.33134    782.34056    37599.264 
  747300    296.14357   -1551.0036    503.47869    284.54145    44.676405    37599.264 
  747400    299.61971   -1609.2174    494.79424    233.27896    557.90683    37599.264 
  747500    300.94933   -1558.5857    493.97398    289.07118   -491.79266    37599.264 
  747600     306.0802   -1522.5515    488.66952    342.87971   -169.64013    37599.264 
  747700    304.28845   -1541.0088    482.19983    309.89335   -701.86579    37599.264 
  747800    305.14018    -1504.877    494.28569    361.94213   -559.19969    37599.264 
  747900    294.70464   -1522.4475    491.37466    294.52109   -681.57855    37599.264 
  748000    308.25063    -1514.325    469.08038    341.27978   -577.17282    37599.264 
  748100    288.79733   -1533.3991    482.41046    248.03402   -50.182992    37599.264 
  748200    297.55092   -1536.1999    488.08223    290.27896    25.505982    37599.264 
  748300    303.80263   -1535.9365    482.66059    313.24119    2.0914025    37599.264 
  748400    313.87396   -1529.5358    488.59818    370.88075    118.58238    37599.264 
  748500    299.78753   -1522.5464    508.51846    334.42903    275.56108    37599.264 
  748600    300.25837   -1514.7379    512.85771    348.69468   -164.70986    37599.264 
  748700    303.79736   -1512.2933    515.74181    369.94191    557.25194    37599.264 
  748800    296.38113   -1533.4942    529.59449    329.23513    842.37565    37599.264 
  748900    299.63486   -1547.4656    493.51772    293.82237    416.14799    37599.264 
  749000     304.8909   -1509.4423    492.09453    354.06438    639.89558    37599.264 
  749100    293.91555   -1510.1509    484.43722    296.33089   -133.72697    37599.264 
  749200    299.49936   -1546.2934    474.63126    275.49869    247.96065    37599.264 
  749300    291.05514   -1512.2823    511.94657    308.84266    487.46432    37599.264 
  749400    292.13635   -1552.0745     478.1579    240.12503     92.97077    37599.264 
  749500    298.84629   -1512.6421    519.35061     350.9318    40.451563    37599.264 
  749600    294.90312   -1544.7975    463.80779    245.49704   -517.14572    37599.264 
  749700    304.62749   -1478.4629    487.80033    379.56477    579.66815    37599.264 
  749800    306.64462   -1503.2677    506.49265    382.52542    53.868716    37599.264 
  749900    293.90868   -1499.5663    515.12984    337.57724   -2.7280834    37599.264 
  750000    304.00521   -1489.3982    496.33321    374.36336   -234.66582    37599.264 
  750100    304.78473   -1453.4328    505.97444    423.47622   -274.34692    37599.264 
  750200    308.14017   -1516.7926    492.39144    361.62642   -506.46858    37599.264 
  750300    292.53013   -1520.4315    494.23634    289.61773   -33.535046    37599.264 
  750400     291.7117   -1524.4511    493.08634    280.76677    10.571796    37599.264 
  750500    294.93472   -1539.4314    501.71124    288.90866   -209.71703    37599.264 
  750600     304.0291   -1506.1134    496.16363    357.58601   -11.374664    37599.264 
  750700     304.3163   -1509.0579     482.8781    342.64781    50.108858    37599.264 
  750800    293.00553   -1522.2696    502.39801    298.07967    1.3249259    37599.264 
  750900    302.32458   -1520.4554    498.00232    337.41574   -399.90524    37599.264 
  751000    305.50709   -1538.0992    484.39709    320.48173    167.40921    37599.264 
  751100    298.73417   -1545.5767    472.30538    270.44765   -219.48336    37599.264 
  751200    307.38858   -1512.2847    491.60754    361.96973    333.32864    37599.264 
  751300    300.75945    -1525.682    485.27174    312.41846   -34.769553    37599.264 
  751400     288.0916   -1541.5792     499.4686    253.73762   -310.72443    37599.264 
  751500    300.56677   -1520.4239     490.2218    321.75993    177.33273    37599.264 
  751600    315.08164   -1517.0704    507.31353    407.49376    281.50444    37599.264 
  751700    306.16326   -1522.1709    490.28115    345.24555    415.67179    37599.264 
  751800    304.05919   -1568.7007    479.92525    278.89572    883.60696    37599.264 
  751900    294.80262   -1571.7832    480.15952      234.411    189.14507    37599.264 
  752000     282.7178   -1534.0315    482.31912    219.96429    543.71766    37599.264 
  752100    313.62725   -1508.3303    487.34098    389.71934    289.67693    37599.264 
  752200    291.96559   -1521.4475    508.51102    300.33713   -238.10276    37599.264 
  752300     295.5222   -1541.5706    487.63725    275.33805   -225.30118    37599.264 
  752400    299.35956   -1508.9552    492.27956    329.85634   -442.82769    37599.264 
  752500    300.42433   -1457.4422    487.19851    381.07765   -381.13955    37599.264 
  752600    305.85338   -1440.4693    513.56272    448.83488    195.41711    37599.264 
  752700    286.49128   -1460.4114    501.90633    330.14487   -236.49078    37599.264 
  752800    322.15226    -1444.024    503.85043    508.88094    -345.5439    37599.264 
  752900     296.7469   -1475.9018    528.71025    387.58864    331.41662    37599.264 
  753000    308.05452   -1517.1918    514.91331    383.36381    78.270824    37599.264 
  753100    296.88169   -1479.5353    500.27111    356.12227   -457.08168    37599.264 
  753200    298.36643   -1454.9325    505.02728    392.15957   -473.78872    37599.264 
  753300     294.4437   -1498.7795    510.58819    336.22892   -373.92911    37599.264 
  753400     305.2023   -1488.8936    479.10882    363.02813   -564.16843    37599.264 
  753500    301.14762   -1472.6551    473.35629    355.27596   -508.12898    37599.264 
  753600    309.83313   -1471.9897     501.9793    423.63218   -318.21425    37599.264 
  753700    292.60563   -1519.8876    500.87446    297.13944   -388.97113    37599.264 
  753800    294.69099   -1540.8488    494.21667    278.90041   -377.42268    37599.264 
  753900    293.47072   -1517.1423    480.35102    283.25246   -433.73366    37599.264 
  754000    294.55433   -1513.7867    511.82679    322.95794   -25.337965    37599.264 
  754100     295.9979   -1539.0974    486.69492    279.00858    151.98515    37599.264 
  754200    317.62455   -1543.7314    527.39374      412.351    567.34774    37599.264 
  754300    296.77318   -1514.1534     484.2995    305.04443    322.66507    37599.264 
  754400    297.36342   -1505.5675    520.39807    352.38376    405.54885    37599.264 
  754500    312.95898    -1493.533    504.73632    418.90613    60.363284    37599.264 
  754600    288.44012   -1520.0062    507.52995    284.93964    290.07669    37599.264 
  754700    304.03188   -1488.9733    494.97377    373.54881   -420.03872    37599.264 
  754800    300.85946   -1488.2072    491.13067     356.2021    97.280067    37599.264 
  754900    292.76882   -1507.7522    482.73382    291.86822   -851.92765    37599.264 
  755000    303.66658   -1513.5924    460.93933     313.2521     -506.505    37599.264 
  755100    311.05018   -1515.3011    530.14149    413.95726   -932.84942    37599.264 
  755200    291.24914   -1485.1594    494.49345    319.38507   -651.11054    37599.264 
  755300     294.2627   -1504.1736     487.3273    306.75979   -707.01922    37599.264 
  755400    300.89642   -1524.7869    497.05981    325.71778   -1511.7436    37599.264 
  755500    307.09537   -1550.2378    484.89729    315.98752   -648.80393    37599.264 
  755600    285.87533   -1508.2054    487.28894    264.96287   -750.64782    37599.264 
  755700     303.1048   -1564.7987     494.6534    293.23296   -530.18276    37599.264 
  755800    303.50872    -1552.266    502.76088    315.68995   -74.868189    37599.264 
  755900    291.53516   -1525.8387    507.60082    293.09962     225.3832    37599.264 
  756000    291.14533   -1522.0167    533.13766    320.70494   -123.09752    37599.264 
  756100     296.4799   -1526.9528    474.75947    281.38583     346.1165    37599.264 
  756200    291.09666   -1514.4202    524.73887    319.68375    311.97433    37599.264 
  756300    303.15498   -1550.4146    503.59257    316.78191   -145.38598    37599.264 
  756400    297.67773   -1526.4334    481.15554    293.68915     865.3092    37599.264 
  756500    303.72917   -1499.4377    494.25501    361.00396    340.78641    37599.264 
  756600    311.60422   -1519.0639    474.88458     357.4297    360.51597    37599.264 
  756700    310.72462   -1492.0785    504.31443    409.88842    71.053681    37599.264 
  756800    289.06947   -1486.7517    493.93087    307.42592   -11.629768    37599.264 
  756900    303.28666   -1443.5516    524.21283    444.85753    557.68834    37599.264 
  757000    290.40281   -1475.0124    507.14355    338.37534   0.44506062    37599.264 
  757100    310.49578   -1507.0903    511.19957    400.73244   -81.093533    37599.264 
  757200    298.12162   -1493.1436    498.88414    346.70417   -462.40856    37599.264 
  757300    305.11107   -1514.3932    525.12045    383.12983   -704.37094    37599.264 
  757400    294.85998   -1475.1821    489.62449    340.73502   -559.46991    37599.264 
  757500    301.06834   -1485.9665    495.96332    364.21494   -693.56519    37599.264 
  757600    306.08397   -1473.4089    512.50686    415.87656   -630.13199    37599.264 
  757700    294.27766   -1460.2526    490.85707    354.27791   -18.951791    37599.264 
  757800     301.0279   -1514.3521    530.50376    370.18793   -255.63247    37599.264 
  757900    297.62081   -1510.5318    504.55761    332.73684   -75.773685    37599.264 
  758000    294.38212   -1529.9863     508.8437     303.0006    190.91876    37599.264 
  758100     303.2289   -1553.3548    496.78348    307.36509    283.15434    37599.264 
  758200    285.50871   -1540.7224    517.58218    261.09001    211.77237    37599.264 
  758300    298.27662   -1509.2054    487.00784    319.46333    9.3931049    37599.264 
  758400    301.67131   -1468.5133    488.26618    376.68323    244.66362    37599.264 
  758500    290.35096   -1547.1624    493.47456    252.32311   -395.96463    37599.264 
  758600     306.3884   -1541.9472    470.33801    306.53885    68.859303    37599.264 
  758700    296.22894   -1524.9622    491.18301    298.67113   -316.09826    37599.264 
  758800    300.72305    -1525.383    484.73112     312.0131    308.52717    37599.264 
  758900     300.7256   -1564.0477    471.32995    259.95875    436.72536    37599.264 
  759000    299.77903   -1565.5754    506.28009    289.12351    234.41502    37599.264 
  759100    289.93473   -1574.4063    489.32641    219.05879    164.14389    37599.264 
  759200    300.36549   -1571.4298     460.3592     239.9861    403.12359    37599.264 
  759300    300.72824   -1582.5454     493.9989    264.14189   -219.55416    37599.264 
  759400    296.57093   -1590.1503    478.37087    222.20919   -422.25039    37599.264 
  759500    309.89106    -1559.991    476.35209     310.2642   -273.59779    37599.264 
  759600    306.33897   -1533.9331     477.5569     321.5495   -391.84006    37599.264 
  759700    296.24864   -1534.6822    495.23429    293.09104   -527.25202    37599.264 
  759800    291.46199   -1553.7977    495.84119    253.05192   -612.74913    37599.264 
  759900    299.28007   -1582.8132     488.2351    251.59633   -717.03125    37599.264 
  760000    301.84101   -1540.1615    472.71273     290.2449    102.33774    37599.264 
  760100    297.66458   -1555.3891    489.32869     272.8475   -53.043416    37599.264 
  760200    290.14123   -1558.6369    475.12486    221.55555    255.71857    37599.264 
  760300    304.42814   -1536.2294    520.00718    353.10845    250.93454    37599.264 
  760400    313.49623   -1553.5669    477.90915     334.4616   -272.27945    37599.264 
  760500     300.8845   -1545.5411    509.26192    317.11202    41.909909    37599.264 
  760600    305.97189   -1587.8695    478.66572    267.07079    118.63539    37599.264 
  760700     291.6145   -1567.2269    485.82321    230.29067   -152.48568    37599.264 
  760800    312.93449    -1567.271    480.31537    320.63699    -446.0581    37599.264 
  760900    296.74385   -1553.7525    459.60559    240.61956   -726.80615    37599.264 
  761000     290.9429   -1534.4305    504.23947     278.4825   -381.03613    37599.264 
  761100    306.28028   -1510.1349     505.3748    372.90161   -194.41164    37599.264 
  761200    300.33046   -1529.8143    496.60327    317.68814   -315.02955    37599.264 
  761300    308.40046   -1523.3444    525.61021    389.46418   -126.97883    37599.264 
  761400    304.22524   -1525.3758    492.17747     335.2197   -267.30582    37599.264 
  761500    305.62447   -1534.8292     521.0514    360.93401    86.556047    37599.264 
  761600    301.32675   -1547.5278    480.72397    288.57665    459.68117    37599.264 
  761700     300.6418   -1506.8748    499.03958    344.46432    242.30217    37599.264 
  761800     294.1176   -1529.3199    515.89993    309.53349    429.09338    37599.264 
  761900    297.61395    -1515.298    488.38188    311.76406   -181.26096    37599.264 
  762000    293.55939   -1513.3937    500.61069    307.65952    698.72086    37599.264 
  762100    308.52038   -1475.4389     496.6247    408.92349    -285.0998    37599.264 
  762200    299.02613   -1495.0528    483.69656    333.67594   -256.26489    37599.264 
  762300    301.23212   -1503.9773    511.81818    362.79569   -198.31749    37599.264 
  762400    307.25147   -1492.8459    497.73148    386.91568   -302.81773    37599.264 
  762500    294.59843   -1492.8571    515.69277    347.95191    311.95738    37599.264 
  762600    298.86681   -1531.7651    488.99711    301.54759    231.52029    37599.264 
  762700    301.60961   -1523.4504     517.2546    350.45703    -186.6795    37599.264 
  762800    292.88048   -1479.4506    498.09149    336.02966   -871.66193    37599.264 
  762900     297.9321   -1496.4074    502.78954    346.49332   -350.87407    37599.264 
  763000    311.76815   -1516.4009    485.22842    371.17385   -598.80614    37599.264 
  763100    300.08943   -1531.5242    508.68261    326.97338   -853.17454    37599.264 
  763200    295.79453   -1545.8779    506.02851    290.64692    -7.975963    37599.264 
  763300    293.62407   -1494.4247    531.59121    357.90004    576.76625    37599.264 
  763400    294.14049   -1532.8497    495.24334    285.44999    170.55408    37599.264 
  763500    301.16467   -1537.0308    501.68902    319.30967    231.66153    37599.264 
  763600     298.6853   -1524.7395    503.21963    321.97924    529.95325    37599.264 
  763700    293.83815   -1528.6305    504.64184    297.70776  0.029597461    37599.264 
  763800    298.31053    -1530.288    500.82815    312.35359   0.78603952    37599.264 
  763900    312.35601   -1506.1552    489.80117    388.63659    145.13718    37599.264 
  764000    304.04964   -1541.9044    493.62363    319.34744   -30.368909    37599.264 
  764100    290.50524   -1531.9416    499.62171    274.38501   -177.29661    37599.264 
  764200    305.03808   -1476.3293    510.98855    406.73344    -555.4799    37599.264 
  764300    296.37673   -1465.7228    490.18984    357.58214   -92.156733    37599.264 
  764400    304.64701   -1518.4947    519.72563    371.54612   -456.25782    37599.264 
  764500    291.88904     -1528.19    483.48126    268.22053   -496.59255    37599.264 
  764600    306.86253   -1490.8528    505.76504     395.1929   -29.505996    37599.264 
  764700    299.85208   -1519.3716    462.30483    291.68061   -319.94465    37599.264 
  764800    302.64368   -1516.1293    515.36504    360.53989    197.15453    37599.264 
  764900    303.15704   -1469.3755    505.74601    399.98373   -256.42241    37599.264 
  765000    302.20602   -1509.8623    504.49165    353.96485    21.967198    37599.264 
  765100    306.82063   -1510.6873    502.57893    371.98382    79.259866    37599.264 
  765200    300.46297   -1516.1262    500.64508    336.01401    60.008183    37599.264 
  765300    316.42177   -1515.0563    498.06817    406.29042    442.29283    37599.264 
  765400     292.3144   -1518.5372    502.35741    298.66275    -390.2693    37599.264 
  765500    298.28927   -1533.1363    494.09898    302.68048   -151.20909    37599.264 
  765600    294.74067   -1572.5049    476.34802    229.59917   -390.53535    37599.264 
  765700    306.96661   -1541.4336      488.716    328.03127   -34.284894    37599.264 
  765800    301.12683   -1557.2028    459.99502    257.27345   -575.74912    37599.264 
  765900    293.68327   -1508.8322    515.40636    327.57395    3.9850954    37599.264 
  766000    296.29399   -1551.8944    494.46253    275.31106   -567.24903    37599.264 
  766100    303.19686   -1532.2466    512.98853    344.53426   -459.62611    37599.264 
  766200    300.21039   -1502.5396    484.19772    332.01721   -834.73492    37599.264 
  766300    294.32185   -1541.2564    469.95977    252.57552   -448.69855    37599.264 
  766400    310.89267    -1515.314    476.20523    359.29964   -453.05334    37599.264 
  766500    295.74543   -1531.3736    494.86281    293.76464   -512.08417    37599.264 
  766600    292.64603   -1526.5685    460.19896    249.96471   -290.98389    37599.264 
  766700     289.9766   -1507.9794    486.11285    282.46054   -835.74083    37599.264 
  766800    298.52563    -1535.034    478.20887    285.95576   -247.85022    37599.264 
  766900    304.16233   -1499.6838    470.44139    338.89268   -441.12172    37599.264 
  767000    303.61036   -1480.7407    491.53741    376.44904   -614.37804    37599.264 
  767100       301.16   -1475.5788    467.90901     346.9607   -392.66794    37599.264 
  767200    310.45066   -1508.9969    510.12524    397.54856    12.836562    37599.264 
  767300    301.60785   -1500.2852    484.10564    340.46534    -187.4812    37599.264 
  767400    294.83035   -1533.6567    487.67699    280.17973   -168.87809    37599.264 
  767500    300.46841   -1545.1119    486.53825    292.94594   -388.22747    37599.264 
  767600    303.92827   -1562.0913    509.61555    314.60646   -134.92149    37599.264 
  767700    300.82243   -1547.3693    463.99468    269.73746   -49.540152    37599.264 
  767800    301.62723   -1527.0816    485.04649    314.69694    303.92196    37599.264 
  767900      301.963   -1562.8135    475.01649    270.44539    535.93673    37599.264 
  768000    306.49486   -1572.2535    494.91267    301.28604    300.57538    37599.264 
  768100    293.18662   -1536.6859    492.94174    275.02171    143.94806    37599.264 
  768200    294.33828   -1484.4393    478.93734    318.44415   -46.380821    37599.264 
  768300    302.21551   -1478.6307    478.59818    359.34564    81.909648    37599.264 
  768400    308.32069   -1541.2898    463.98939    309.53915   -592.90759    37599.264 
  768500     289.1743   -1502.3894    471.59163    269.92054   -249.21713    37599.264 
  768600    306.03549    -1524.599    490.98762    342.94922   -414.61214    37599.264 
  768700     290.3024   -1507.1496    485.31108    283.95403   -613.40248    37599.264 
  768800    299.35501    -1501.933    478.39522    322.97375   -367.23638    37599.264 
  768900    291.06826   -1508.1976    506.27477    307.31457    164.66054    37599.264 
  769000    299.91759   -1516.8856    476.35375    308.51017    351.09064    37599.264 
  769100    295.53646    -1556.699    448.02541    220.66195   -117.38571    37599.264 
  769200    305.93742   -1556.0149    479.55763    299.66223   -477.69628    37599.264 
  769300    295.17392   -1518.5427    461.62882    270.79092   -697.77513    37599.264 
  769400    304.40387   -1518.8932     477.2774    327.60567   -331.37168    37599.264 
  769500    307.36288   -1488.6937    490.87642    384.71392   -76.240049    37599.264 
  769600    303.11085   -1528.1581    481.39122    316.63859   -32.249905    37599.264 
  769700    294.18898   -1506.3664    485.83159    302.73968   -425.30902    37599.264 
  769800    302.10593   -1499.8038     483.3458    342.42724    216.40433    37599.264 
  769900    293.60301   -1516.6722    468.23396    272.20055    -42.15592    37599.264 
  770000    312.02124   -1510.4336    485.61983    378.67095    544.19533    37599.264 
  770100    305.70394   -1516.0958     485.5471    344.52057    -418.7381    37599.264 
  770200    305.37661   -1542.7487    476.74118    307.58943    465.40689    37599.264 
  770300    301.31451   -1543.5368    472.40304    284.19164   -28.820248    37599.264 
  770400    303.62386   -1539.8645    487.79703    313.64548   -304.53283    37599.264 
  770500     305.5377   -1516.2649    492.00848    350.06508   -61.153689    37599.264 
  770600    308.39315   -1513.6233    474.12928    347.67143   -90.630995    37599.264 
  770700    297.80707   -1540.9922    503.60521    302.16183   -161.89579    37599.264 
  770800    297.97293   -1504.3021    480.19533     316.1881     327.3729    37599.264 
  770900    308.14848   -1520.7715    478.51814    343.81153   -224.09204    37599.264 
  771000    286.61012   -1518.8795    501.58137    271.88637   -37.550071    37599.264 
  771100    287.84089   -1566.6132    486.26365    214.37097   -654.55398    37599.264 
  771200    296.69431   -1546.5627    475.51154    263.49247   -311.22917    37599.264 
  771300    309.03984   -1506.1688    501.45952    385.36504   -174.05792    37599.264 
  771400    300.07198   -1508.1935    468.55944    310.10239   -335.36398    37599.264 
  771500    299.25748   -1498.5399     491.4973    339.03023   -345.92212    37599.264 
  771600    305.14198   -1482.9924     491.2249    380.77409   -333.65395    37599.264 
  771700    303.65855    -1470.785    493.94753    389.03159       -128.7    37599.264 
  771800    295.80013   -1475.1452    504.14568    359.52196   -69.445313    37599.264 
  771900    295.97196   -1452.6969    469.39646    347.99396   -459.00532    37599.264 
  772000    315.99992   -1456.7638    493.59947    458.21665   -338.36183    37599.264 
  772100    296.52878   -1477.3341    474.70329    331.16821    74.991756    37599.264 
  772200      306.441   -1481.9831     475.3935      371.795    423.99998    37599.264 
  772300     286.6405   -1502.2631    506.39008    293.44815    661.89125    37599.264 
  772400    315.99107   -1491.8629    467.77305    397.25141    994.16335    37599.264 
  772500    294.92842   -1492.2621    499.04153    333.37995    667.03355    37599.264 
  772600    297.19276   -1496.9875    511.88293    351.68111    864.15797    37599.264 
  772700    319.95357   -1518.5266    489.48123    410.11937    760.64617    37599.264 
  772800    305.56409   -1503.2771    488.65068    359.81377    813.52396    37599.264 
  772900    305.13536   -1498.9075    514.40503    388.00932     743.1363    37599.264 
  773000    287.51454   -1496.0104    498.32725    295.56942      873.195    37599.264 
  773100    305.45551   -1546.9419     493.9667    320.97664    355.54853    37599.264 
  773200    297.84656   -1548.6096    493.74734    284.86414    409.67579    37599.264 
  773300    305.05506   -1474.3505    489.13109    386.93116     111.8379    37599.264 
  773400    302.86762   -1484.9409     501.5085    378.87899    160.70703    37599.264 
  773500    304.96936    -1504.096    485.85571    353.52478    55.408496    37599.264 
  773600    304.99777   -1508.6287    487.46441    350.72862   -693.15827    37599.264 
  773700     293.6866   -1480.0046    447.33597    288.34614   -790.23498    37599.264 
  773800    303.45717   -1465.2595    486.93047    386.63417   -347.43021    37599.264 
  773900    302.82853   -1513.8153    508.27106     356.5913    912.17383    37599.264 
  774000    292.78313   -1509.8955    512.73987    319.79524    412.58132    37599.264 
  774100    296.94388   -1558.3032    455.15472     232.5177    47.456902    37599.264 
  774200    308.57774   -1574.2984    476.60924    290.30659   -268.42974    37599.264 
  774300      307.272   -1539.4075    459.65787    302.37288   -313.64025    37599.264 
  774400    293.97876   -1494.6184     504.1297    331.84025    -270.4956    37599.264 
  774500    308.74064   -1546.6612     449.4445    291.51171   -258.19162    37599.264 
  774600    294.13773   -1536.6459    441.22727    227.62531   -179.09858    37599.264 
  774700     291.7685    -1560.397    497.51554    249.50565    275.82851    37599.264 
  774800    308.40377   -1590.2112    455.74772    252.74971    581.27939    37599.264 
  774900    305.86201   -1547.0421    465.66469    294.40282    587.81484    37599.264 
  775000     309.3765   -1587.9606    483.95858    287.58664    62.895087    37599.264 
  775100    299.10121   -1585.4969    491.01405    250.88706   -23.719704    37599.264 
  775200    298.39857   -1517.6275    502.16879    326.75066    578.27236    37599.264 
  775300    306.19513   -1553.9169     488.4086    311.77037    509.22664    37599.264 
  775400    292.57801   -1552.6635    460.16839    223.53311    681.66208    37599.264 
  775500    302.09998   -1538.0594    497.67139    318.47052    19.393253    37599.264 
  775600    298.50535    -1516.204    476.74328    303.22897    -339.8099    37599.264 
  775700    296.70832   -1517.7574    447.55412    264.40336   -118.46901    37599.264 
  775800    303.75173   -1548.5744    508.46107    326.17487    338.78131    37599.264 
  775900    298.43529   -1549.6293    463.19462    255.93988      413.374    37599.264 
  776000      285.645   -1534.3345    478.13054    228.63931   -127.62058    37599.264 
  776100    308.78548   -1553.7759    485.60338    320.75765   -11.846869    37599.264 
  776200    298.66807   -1519.9624    483.72862    307.18784    668.94801    37599.264 
  776300    290.90545   -1532.5666    457.98752    233.92601   -18.131856    37599.264 
  776400    300.25675    -1554.084    500.44354    296.92709    155.70541    37599.264 
  776500    300.20254   -1528.0452    457.33903    279.61758   -645.86505    37599.264 
  776600    298.58628   -1514.4529     474.0788    302.67965   -82.506262    37599.264 
  776700    305.94856    -1485.616    488.94898    379.50254   -191.67686    37599.264 
  776800    291.30231    -1484.474    480.13449    305.95064    19.997268    37599.264 
  776900    309.30197   -1571.5875    483.48444    303.15031    28.468429    37599.264 
  777000    308.39901   -1508.9631    453.29567     331.5244   -191.63768    37599.264 
  777100    299.10279   -1529.0171    477.03006    293.38992    74.949581    37599.264 
  777200    304.79311    -1538.639    459.57384    291.90713    108.85649    37599.264 
  777300    296.95459   -1511.5584    502.92099    327.07692    110.30384    37599.264 
  777400    307.48952   -1502.6136    496.61807    377.10536    177.71915    37599.264 
  777500     309.3759   -1522.8772    456.63034    325.33902    -209.6684    37599.264 
  777600    297.24784   -1491.8449    472.40815    317.59666   -447.29444    37599.264 
  777700    289.43664   -1496.1574    474.40121    280.14206   -201.67166    37599.264 
  777800    296.25596   -1500.7086    493.05413    324.91738   -3.0095919    37599.264 
  777900    305.32122   -1543.8887    475.43869    304.89775    118.85219    37599.264 
  778000    304.99793   -1543.3319    502.74366    331.30542    753.62127    37599.264 
  778100    299.69212   -1535.2413    478.78926    291.57585    106.35477    37599.264 
  778200    291.00711   -1542.6062    498.63654    264.99261   -176.71704    37599.264 
  778300    292.80634   -1503.9572    490.43936    303.53746   -75.952347    37599.264 
  778400    295.55986   -1502.6839    513.49587    340.25275   -240.40682    37599.264 
  778500    299.99137   -1523.0158    467.08846    293.44657   -462.05648    37599.264 
  778600    303.90672   -1550.8276     469.9645    286.12214   -135.42097    37599.264 
  778700    299.40163   -1555.5368    473.56539    264.74979    62.456911    37599.264 
  778800    299.67358   -1545.5924     491.4794    293.83148    193.10289    37599.264 
  778900    306.59945   -1538.9473    495.84398    335.99399   -58.833458    37599.264 
  779000    292.54361   -1536.8546    478.02122    257.04021    45.435991    37599.264 
  779100    300.32653   -1477.5803     505.5758    378.87698   -273.23619    37599.264 
  779200    306.38734   -1479.1409    497.46285    396.46519   -400.37348    37599.264 
  779300    303.22605   -1540.0546    446.65727    270.52632     -81.5441    37599.264 
  779400    311.86356   -1569.1744    487.26787    320.86898    267.19105    37599.264 
  779500    301.84791   -1564.1227    509.73784     303.3398     -579.819    37599.264 
  779600    299.78488   -1548.1868    433.47035    233.72864    123.18877    37599.264 
  779700    298.10195    -1519.951      477.837    298.76118    118.10153    37599.264 
  779800    304.77611   -1522.8072     458.3904    306.47903   -283.93784    37599.264 
  779900    306.04054   -1536.2722    467.05138    307.36245    536.67063    37599.264 
  780000    306.50432   -1522.5383    463.51898    319.65008     910.2773    37599.264 
  780100     293.6313   -1535.6901    456.50431    241.58023    487.62349    37599.264 
  780200     295.9892   -1547.7834    453.92149       237.51    157.62552    37599.264 
  780300    303.24447   -1534.5507    481.73503    311.19079    44.786121    37599.264 
  780400    300.86987   -1484.6087    460.95445    329.67121   -237.23078    37599.264 
  780500     305.6987   -1537.3587    446.27242    283.95945   -617.45648    37599.264 
  780600    301.96158   -1537.8973     486.8302    307.16891   -518.98461    37599.264 
  780700    297.32044   -1536.6258    462.12545    262.85957   -841.15168    37599.264 
  780800    294.12006   -1506.2279      471.914    288.65055    -484.4782    37599.264 
  780900    299.40461   -1525.7813    474.58824     295.5416   -520.22316    37599.264 
  781000     306.8832   -1468.8883     488.9512    400.43653   -941.77539    37599.264 
  781100    296.94776   -1460.2027    495.32098     370.8019   -455.54664    37599.264 
  781200     300.6475   -1503.9257    518.04126     366.4408    322.15308    37599.264 
  781300    300.85828   -1493.4611     482.3778       342.19    364.27493    37599.264 
  781400     295.4228   -1501.0049    511.27423    339.09358   -133.51729    37599.264 
  781500    292.60766   -1479.5666    492.34315     328.9382   -641.33977    37599.264 
  781600    304.03027   -1494.1649    480.53054    353.90664   -609.19851    37599.264 
  781700    293.30309   -1524.0524    469.07553    264.31281   -263.82523    37599.264 
  781800    294.96284   -1499.1984    479.43768    306.99465   -382.06567    37599.264 
  781900    304.57272   -1473.2958    492.21226    388.89743   -209.84351    37599.264 
  782000    300.84945   -1494.7857    505.58265    364.03048    167.93908    37599.264 
  782100    290.49139   -1478.9322    503.97315    331.68357   -34.840291    37599.264 
  782200    312.35761   -1481.2397    457.56729    381.32539     84.79817    37599.264 
  782300    310.50648   -1503.6195    486.84614    379.89797    87.312642    37599.264 
  782400    297.91082   -1469.3452    501.67413     372.3444    185.86409    37599.264 
  782500    298.56556   -1484.5664    487.50672    345.90085    287.17091    37599.264 
  782600    298.15891   -1501.2763    489.04515    328.90022    74.382913    37599.264 
  782700    294.86563   -1507.4802    486.77019    305.60813   -91.601788    37599.264 
  782800     302.9012   -1498.2947    484.70636    348.87411   -601.36545    37599.264 
  782900    294.41394   -1494.3802    467.67365    297.57983   -319.44484    37599.264 
  783000    300.27317   -1505.9489    477.95178    322.64431   -432.21383    37599.264 
  783100    294.74028   -1555.0634    501.46284    272.15373   -914.43827    37599.264 
  783200    305.01546   -1557.9657    474.23034    288.23708   -746.02833    37599.264 
  783300    300.59251   -1504.9612    465.01403    312.13071    -554.6408    37599.264 
  783400    308.66378   -1520.5299    486.83408    354.68697    -1143.548    37599.264 
  783500    294.35869    -1522.469    469.46904    271.03788    -1020.066    37599.264 
  783600    289.93814   -1550.1741    480.51064    234.49064   -364.19337    37599.264 
  783700    300.57511   -1540.0851    485.90416    297.81868    5.3264249    37599.264 
  783800     305.6479     -1511.74    456.94264    320.01981   -23.908525    37599.264 
  783900    296.06696   -1494.3997    501.16926    338.49134    21.231787    37599.264 
  784000    305.03422   -1509.6259    483.57107    346.00199    225.58675    37599.264 
  784100    291.50611   -1497.1232    472.64272    286.72637   -51.492069    37599.264 
  784200    312.12165   -1526.1522     476.6477    354.43188    339.95733    37599.264 
  784300    316.69171   -1535.1399     476.3281    365.68091   -202.41345    37599.264 
  784400    301.33651   -1552.4218     460.9497    263.95235   -349.22813    37599.264 
  784500    294.63788   -1548.9412    471.69723    248.04969    -263.7795    37599.264 
  784600    309.89202   -1536.6343    469.99386    327.26699   -193.77761    37599.264 
  784700     300.1393   -1551.0057    481.82781    280.86136   -189.51166    37599.264 
  784800    292.72611   -1557.0617    491.66887    251.30163   -113.79025    37599.264 
  784900    292.67253   -1540.5114    484.59211    260.53413    -245.4266    37599.264 
  785000    294.79237   -1540.6277    493.02677    278.38764   -247.38283    37599.264 
  785100    300.30665   -1540.1399    479.73671    290.38885   -120.64708    37599.264 
  785200    313.50597   -1549.2161    478.41611     339.3632   -245.55554    37599.264 
  785300    298.44655    -1553.556    475.34089    264.21014    239.26283    37599.264 
  785400    307.20894   -1550.3857    459.76306    291.21614    399.40741    37599.264 
  785500    295.20649   -1559.5668    468.73098    237.01545   -139.79039    37599.264 
  785600    295.07468   -1527.4441    489.49976    289.31404    149.89376    37599.264 
  785700    303.91598   -1487.7935    463.53555    342.76903   -85.326185    37599.264 
  785800    291.87842   -1455.1036    491.52917    349.30712    -294.5955    37599.264 
  785900    294.85419   -1490.0575    501.01809    337.22727   -164.47275    37599.264 
  786000     311.6382   -1452.1527    486.40025    436.00933   -102.71966    37599.264 
  786100    299.94078   -1482.4958    486.60771    353.25827   -92.860877    37599.264 
  786200    303.65205   -1506.3516    483.07536    342.56356   -18.439299    37599.264 
  786300    303.80504   -1457.6019    498.61711    407.54316    499.40208    37599.264 
  786400    288.83399   -1496.4937    504.65072     307.3446    489.34936    37599.264 
  786500    295.51016   -1510.0277    504.50054    323.69006    1141.6712    37599.264 
  786600    300.04564   -1486.3721     495.9447     359.1906    1799.9447    37599.264 
  786700    317.75701   -1505.0845    528.84811    453.04807    1447.4182    37599.264 
  786800    305.63828   -1474.2777    485.22246    385.71867    1284.1204    37599.264 
  786900    301.95766     -1487.13    482.47517    353.56353    644.48158    37599.264 
  787000    295.28561   -1483.3076    506.65349    351.55309    190.25636    37599.264 
  787100    298.47958   -1431.5035    510.00672    421.07704     685.5488    37599.264 
  787200    310.12095   -1457.4755    499.85877    437.32049   -78.812852    37599.264 
  787300    303.09761   -1486.8234    511.57429    388.09675    151.33934    37599.264 
  787400    296.50884    -1478.397    441.52309    296.83541    186.75441    37599.264 
  787500     303.2422   -1499.8196    522.03061    386.20725    94.382024    37599.264 
  787600    299.96979   -1534.4459    481.44868    296.27958    32.254385    37599.264 
  787700    295.80637    -1489.445    491.22692     332.3315    111.30316    37599.264 
  787800    307.17343   -1526.6658    486.52313    341.53646    295.41713    37599.264 
  787900    294.80199   -1494.6204    487.46658      318.878    275.72189    37599.264 
  788000    305.97696   -1494.5937    494.14274    375.84638    181.78101    37599.264 
  788100    298.27109   -1487.0648    487.71437    342.28558   -249.17589    37599.264 
  788200    299.22291   -1513.7103    517.54001     349.7471    177.11034    37599.264 
  788300    297.67968   -1480.2076     489.4587    348.22688    155.01903    37599.264 
  788400    305.39396   -1486.6334    487.72605    374.76765   -275.32094    37599.264 
  788500    293.48717   -1477.8265    503.84142    346.13269   -398.74711    37599.264 
  788600    306.36158   -1490.3925    472.74735    360.38219   -277.35256    37599.264 
  788700    300.88349   -1512.1661    503.76429    344.98487   -448.49656    37599.264 
  788800    300.94098    -1517.153    470.89648    307.38875    389.26266    37599.264 
  788900    295.24449   -1502.2017    480.40875    306.22925   -358.24295    37599.264 
  789000    292.30988   -1545.4698    488.73931    258.09169   -524.51202    37599.264 
  789100    315.76014   -1480.4517    474.27454    414.12532   -137.73283    37599.264 
  789200    298.51659   -1522.4132    497.70657    318.03358   -310.15528    37599.264 
  789300    291.73048   -1522.5735    488.68508    278.32771   -254.10158    37599.264 
  789400    306.93319   -1547.0503     474.0311    307.57928   -134.00938    37599.264 
  789500    302.49318    -1546.614    467.94382    281.95697   -289.95031    37599.264 
  789600    313.07946   -1544.0036    463.43568    327.67677   -733.25431    37599.264 
  789700    292.64623   -1537.4154    479.68474     258.6045   -768.45064    37599.264 
  789800    293.98274   -1528.2839    489.72466    283.78755   -838.96262    37599.264 
  789900    302.93725   -1501.7027    491.27451     352.1964   -460.07687    37599.264 
  790000     300.8455   -1550.8074    463.74212    266.15055     31.52166    37599.264 
  790100    304.32889   -1517.3463     493.2149    344.75288   -168.38371    37599.264 
  790200    305.37973    -1526.614    478.85481    325.85181    510.46381    37599.264 
  790300     287.1351   -1552.0745    452.99332     192.4647    153.16423    37599.264 
  790400    298.36569   -1546.2428    496.39827    292.21697    254.17496    37599.264 
  790500    306.71242   -1536.8892    487.95967    330.67596     551.9856    37599.264 
  790600    302.05941   -1555.3348    503.59028    306.93149    388.92428    37599.264 
  790700    311.69046   -1557.4734    471.91173    316.43528    32.567064    37599.264 
  790800    304.55025   -1552.1229    480.16016    297.91713    232.34489    37599.264 
  790900    300.63524   -1551.3295    499.48217    300.42271    398.83777    37599.264 
  791000    297.40237   -1523.9692    476.03038    289.78964    473.57113    37599.264 
  791100    304.23934   -1509.7367    481.45381    340.19852   -86.395582    37599.264 
  791200    305.05477   -1557.7571    473.96565    288.35781   -396.88578    37599.264 
  791300    300.89519   -1525.1393    455.86677    284.16681    231.60584    37599.264 
  791400    300.39895   -1540.4953    471.46194    282.17386    155.78299    37599.264 
  791500    314.23146   -1549.6306    475.13599    338.93186   -506.14062    37599.264 
  791600    296.57355   -1560.1603    470.77914    244.61921   -66.404453    37599.264 
  791700    307.82239   -1524.1577    478.80689    339.24735   -140.97064    37599.264 
  791800    295.11486   -1521.6768    461.80686    267.56916    -526.0196    37599.264 
  791900    309.90365   -1574.7205    456.24016    275.47939   -605.92722    37599.264 
  792000    301.80008   -1563.8117    471.56678    265.26463   -641.01607    37599.264 
  792100    304.04438   -1542.2675    494.92881    320.26584    340.91476    37599.264 
  792200    290.87062   -1533.0223    506.66424    281.99028    563.47437    37599.264 
  792300    310.79444   -1515.5876     508.6658    391.04479    530.16659    37599.264 
  792400    304.96964    -1554.827    470.99892    287.93832    527.52959    37599.264 
  792500     292.5126   -1561.0696    466.03293    220.69741    157.93019    37599.264 
  792600    291.52171   -1537.7963    474.60745    248.08815     -232.395    37599.264 
  792700     297.6998   -1533.0428    477.18231    283.20582   -60.779984    37599.264 
  792800    295.74067   -1521.5883    479.89404    288.55984    420.37915    37599.264 
  792900    301.19032    -1492.635    498.98742    361.11928    1033.0849    37599.264 
  793000    298.10858   -1467.3607    497.69277    371.23713    476.63293    37599.264 
  793100    298.38796   -1505.3271    499.13631    335.97088    809.21433    37599.264 
  793200    309.71489   -1512.8011    494.33351    374.64306    629.72042    37599.264 
  793300    305.40962   -1482.1044    501.43117    393.07215    553.35665    37599.264 
  793400    296.63033   -1505.3852    465.70689    294.57748    70.103176    37599.264 
  793500    311.67818   -1485.9483     511.3513    427.34461    512.74525    37599.264 
  793600    296.39298   -1487.9518    487.32872    332.56512    -82.41706    37599.264 
  793700    300.34112    -1488.252    490.54911    353.24417     58.13367    37599.264 
  793800    294.92874    -1558.212     484.0924    252.48241    115.90891    37599.264 
  793900    301.27072   -1552.1617    498.22172    301.18854    385.37169    37599.264 
  794000    301.18759   -1504.9141     456.4523    306.29276   -70.024385    37599.264 
  794100    306.37915   -1473.3407    487.80842    392.57407    220.86451    37599.264 
  794200     302.8374   -1479.9547    486.34268    368.56342     42.66529    37599.264 
  794300    294.37438   -1531.4198    470.53513     263.2238   -554.78443    37599.264 
  794400    295.55129   -1507.1211     498.5601    320.84116    332.51376    37599.264 
  794500    307.56961    -1477.222     497.2634    403.50258    193.05282    37599.264 
  794600    311.73228   -1500.1401    477.54443    379.58938   -504.23181    37599.264 
  794700    303.34365   -1477.8287    480.71594    367.33985   -344.02464    37599.264 
  794800     287.0715   -1508.1408    445.28882    228.40778    259.57139    37599.264 
  794900    303.40674   -1517.4336    460.39763    307.70038   -213.21728    37599.264 
  795000    287.50856   -1476.3045    468.66948    285.59068   -444.26631    37599.264 
  795100    295.40628   -1522.5666    465.41984    271.60323    1.0454132    37599.264 
  795200    305.65792   -1524.3068    480.51557    331.07107    516.27689    37599.264 
  795300    297.56326   -1536.1067    484.94641    287.29187    658.69933    37599.264 
  795400    303.69454   -1566.5531    464.09256    263.57037    749.42983    37599.264 
  795500      294.685   -1550.1336    468.63872    244.01078    431.59765    37599.264 
  795600     298.7822    -1524.908    481.84968    300.87665    389.19287    37599.264 
  795700    296.46973   -1519.4182    470.39842    284.51366   -340.03127    37599.264 
  795800    309.54463    -1536.093     464.7382    320.99007   -63.032161    37599.264 
  795900    310.25587   -1536.2821     469.5761    328.83806    -320.6828    37599.264 
  796000    307.84383   -1520.0038     494.5254    359.21618   -551.08585    37599.264 
  796100    307.03001   -1535.7879    466.60437    311.85047   -421.41595    37599.264 
  796200    293.71012   -1528.4619     486.9865     279.6452   -172.41595    37599.264 
  796300    296.19443   -1551.1801    487.15966     268.2747    149.57139    37599.264 
  796400    286.29257   -1523.7845    465.83735    229.80896    98.047225    37599.264 
  796500    311.32798   -1528.7318    461.14431    332.77898   -197.05196    37599.264 
  796600    279.66198   -1509.0982     479.6012    228.43443    53.290781    37599.264 
  796700    301.42474   -1532.6218    483.32356    306.52297    652.10311    37599.264 
  796800    294.77066   -1503.5102    473.22722    295.60797    553.08698    37599.264 
  796900    288.26246   -1522.0677    485.16393    259.71292    262.66946    37599.264 
  797000    304.66991   -1511.6045     501.8278     360.6415    1217.8605    37599.264 
  797100    310.98403   -1514.3887     486.9547     371.3853   -13.361611    37599.264 
  797200    302.25939   -1494.0013    457.43781    323.01205   -115.41611    37599.264 
  797300    312.89693   -1482.0993    487.68419    413.00852   -531.64023    37599.264 
  797400    303.86721   -1498.1447    462.81834    331.48121   -956.47188    37599.264 
  797500    297.09199   -1512.9538    502.31147    325.69003   -625.24764    37599.264 
  797600    308.50663    -1504.469    463.34418    346.55106   -810.49541    37599.264 
  797700    302.34969   -1490.2729    469.52122    339.23002   -491.29261    37599.264 
  797800    292.19473   -1486.1625    499.51399     327.6558   -624.40203    37599.264 
  797900    299.84561   -1447.5271    464.14299    365.33412   -226.71569    37599.264 
  798000    300.15598    -1461.616    482.19006    370.68836    172.41783    37599.264 
  798100    286.99816   -1462.9365    483.47766    311.47108    52.369171    37599.264 
  798200    292.53977   -1448.7721    479.26243    346.34662    195.00779    37599.264 
  798300      304.792   -1453.0111    488.88307    406.83926   -803.79772    37599.264 
  798400    308.35341   -1486.9112    453.97275    354.04826   -545.35475    37599.264 
  798500    307.71418   -1444.4625     506.8694    446.51834   -381.50073    37599.264 
  798600    300.24245    -1453.481    457.97075    354.99299    296.55071    37599.264 
  798700    290.37879   -1467.9033    490.56469    328.79749   -176.15334    37599.264 
  798800    308.13833   -1478.6536    472.04137    379.40706    186.71464    37599.264 
  798900    295.96675   -1491.8112    468.28814    307.74789    552.91454    37599.264 
  799000    303.91563   -1489.8577    496.43393    373.60163     -44.7031    37599.264 
  799100    295.20467   -1438.9787    500.59397    389.45839    397.18627    37599.264 
  799200    304.78305   -1453.7811    495.37385    412.51982   -328.90541    37599.264 
  799300    298.51771   -1488.8684    476.94119    330.81808   -111.38515    37599.264 
  799400     293.9773   -1486.8403    478.38957    313.87165    599.09772    37599.264 
  799500    292.13448   -1511.1531    471.16267    274.04282    12.832273    37599.264 
  799600    302.08652   -1462.8835    507.95194    403.86644     421.0753    37599.264 
  799700     281.3028   -1515.1217    478.29095    228.48118    604.10968    37599.264 
  799800    299.66467   -1494.6052    506.50466    359.80382    301.04942    37599.264 
  799900    302.84434   -1456.4286    486.52373     392.3018    502.24944    37599.264 
  800000    295.87169   -1481.5736    501.68322      350.953   -78.504579    37599.264 
  800100    297.33839   -1544.2295    488.52935    281.74058   -33.216704    37599.264 
  800200     307.1915    -1542.632    494.16628    333.29469    613.56757    37599.264 
  800300    303.94243   -1562.3229    456.52152    261.34452    686.75375    37599.264 
  800400    296.50229   -1494.9878    506.28594    344.97801    507.92905    37599.264 
  800500    306.97965   -1488.1481    468.66535    361.32468   -264.44019    37599.264 
  800600    310.04764   -1525.1364    480.82139    350.29247    200.67639    37599.264 
  800700    299.23314    -1473.593    478.98494    351.35527    295.82187    37599.264 
  800800    309.78461   -1471.0431    486.75684    409.13809     651.9833    37599.264 
  800900    304.45479   -1445.4996    529.57847    453.52936     132.4389    37599.264 
  801000    295.75932   -1501.7109    470.08443    298.71149    219.99019    37599.264 
  801100    305.95209     -1465.25    510.19894    421.13436   -322.45001    37599.264 
  801200    299.43679   -1524.6573    473.00269    295.22473   -570.44746    37599.264 
  801300    300.29745   -1529.5286    497.64948    318.87151   -263.62663    37599.264 
  801400    288.56609    -1499.751    467.72536    265.95682    125.26269    37599.264 
  801500     309.3497   -1476.1632    490.55388    405.85869    343.39832    37599.264 
  801600    307.15371    -1512.245    489.76102     359.1064   -176.97823    37599.264 
  801700    303.15325   -1499.8153    514.41779    378.19867   -95.960966    37599.264 
  801800    307.60876   -1514.9507    483.50403    352.19054   -400.26095    37599.264 
  801900    300.75619   -1539.9723    454.79791    267.63974   -179.25347    37599.264 
  802000    300.59556   -1503.3237    496.44021    345.20803    -76.79613    37599.264 
  802100    296.38768   -1479.1762    499.67068     353.6588   -374.87702    37599.264 
  802200    311.32098   -1479.1479    498.97328    420.16038    40.865878    37599.264 
  802300    301.68262   -1510.8996     465.3476    311.42922    184.08428    37599.264 
  802400    288.71374   -1522.9087    470.63533    246.37325    7.5254408    37599.264 
  802500    307.22006   -1509.1406    475.01283    347.76103    267.21971    37599.264 
  802600    306.35624   -1497.4669    483.67759    364.21406   -219.68036    37599.264 
  802700    297.44469   -1492.5131    478.69045    324.09616   -169.54949    37599.264 
  802800    307.26852   -1502.7625    459.20469    338.54902    75.309876    37599.264 
  802900    304.81249   -1539.0358    522.12096     354.1446    213.46061    37599.264 
  803000    296.34735   -1485.2872    473.61683    321.31255   -79.244511    37599.264 
  803100    299.30425   -1506.8868    472.54354    311.93989   -279.11444    37599.264 
  803200    300.25327   -1461.2229    511.20923    400.53828    180.40684    37599.264 
  803300    300.61359    -1496.095     504.8658    360.94346    276.18733    37599.264 
  803400    302.58777   -1500.5939    516.26813     376.7268    424.16375    37599.264 
  803500    288.02524   -1534.7507    456.24125    217.04031   -29.385891    37599.264 
  803600    290.25674   -1518.1518    514.95407    302.38936    67.933077    37599.264 
  803700    294.92592    -1492.928    485.85079    319.51203    67.994222    37599.264 
  803800    290.52243   -1496.3493    505.03455     315.4675   -208.95794    37599.264 
  803900    304.40657   -1468.0629    465.20069    366.37146    11.725592    37599.264 
  804000    294.19921   -1482.9381    465.35209    305.73445   -327.30174    37599.264 
  804100    303.36429   -1489.8831    473.96663    348.62898   -128.57024    37599.264 
  804200     293.9752    -1477.649     494.0632    338.72712    174.83272    37599.264 
  804300     299.5279   -1479.3498    487.88148    355.82085    468.58917    37599.264 
  804400    301.66133   -1451.1463    520.92266    426.66175    737.24457    37599.264 
  804500     297.0655   -1450.6437    486.48519    372.05473    1171.2219    37599.264 
  804600    303.45421   -1452.3781    507.15343    419.72526    952.65357    37599.264 
  804700    295.45326   -1479.7664    495.06916    344.26407    945.91386    37599.264 
  804800    299.26672   -1524.0393    456.24378    278.31882    972.48984    37599.264 
  804900    301.15039   -1490.1906    508.19362    372.59023    255.42557    37599.264 
  805000    311.56836   -1491.6992    480.22164    389.97013    157.57369    37599.264 
  805100    305.59846   -1513.4976     492.2573    353.35448    175.07778    37599.264 
  805200    307.56896    -1500.247    495.97662    379.18784    -296.1298    37599.264 
  805300    301.08993   -1513.8981    459.21783      299.635   -456.63837    37599.264 
  805400    305.20364   -1495.9612    480.28691    357.14459   -269.94886    37599.264 
  805500    299.39468   -1504.4778    504.10436    346.31656    392.55525    37599.264 
  805600     299.7536   -1450.0258    506.81531    405.09394    532.77879    37599.264 
  805700    308.76929   -1473.5875    516.40201    431.67184    558.18235    37599.264 
  805800    301.16542   -1516.4258    479.80281    318.03186   -50.022209    37599.264 
  805900    304.17239   -1513.9862    477.30885    331.50291   -163.80998    37599.264 
  806000    289.63452   -1510.1754    486.30598    278.91896    519.39522    37599.264 
  806100    293.75315   -1508.6333    471.25643    283.93726    186.82586    37599.264 
  806200    307.51956   -1497.8766    500.86023    386.21967   -69.230572    37599.264 
  806300    306.93508   -1480.2608    472.84567    373.19186    159.24317    37599.264 
  806400    300.43351   -1471.5555    475.83661     355.6438   -161.73884    37599.264 
  806500      298.493   -1508.0936    495.83728    330.37785   -262.69116    37599.264 
  806600    293.73933   -1525.7234    442.99725    238.52581   -600.74768    37599.264 
  806700    299.24405   -1502.8047    504.36072    347.56843   -488.86206    37599.264 
  806800    297.30532   -1537.1248    473.32046    273.48764   -8.4498889    37599.264 
  806900    295.25493   -1528.1715    468.94321    268.84089    60.275624    37599.264 
  807000    300.84931   -1518.2493    482.37146    317.35509   -232.94033    37599.264 
  807100     302.5417    -1495.856    474.32695    339.31634   -124.49908    37599.264 
  807200    302.23425   -1494.8759    450.33953     314.9261   -4.6757185    37599.264 
  807300    292.85417    -1512.506     463.6947     268.4592    209.43435    37599.264 
  807400    302.37495   -1474.0409    504.47285     390.5273    304.72347    37599.264 
  807500    294.62729   -1493.4062    473.39596    305.23579    96.917539    37599.264 
  807600    306.81171   -1505.7484    497.63904    371.94273    761.87167    37599.264 
  807700    295.46871   -1485.3365    468.81031    312.50462    478.31564    37599.264 
  807800    300.17063   -1439.7373     515.8418    426.28466     500.4085    37599.264 
  807900    304.31468   -1481.2141    472.83998    360.44627   -1.9922686    37599.264 
  808000    302.67575   -1467.0945    500.32782    394.68162   -42.876709    37599.264 
  808100    295.06113   -1464.7222    493.41482    355.89006   -303.03047    37599.264 
  808200    294.95582   -1478.6509    478.11541    326.18831   -421.12676    37599.264 
  808300    307.59943   -1474.9965    500.68157    409.28034   -403.97256    37599.264 
  808400     291.3608   -1478.5668    472.50942    304.49581   -292.90124    37599.264 
  808500    303.73748    -1461.773    479.44039    383.89146    114.17743    37599.264 
  808600    293.62951   -1501.4052    476.39677    295.74955     142.4882    37599.264 
  808700    295.82672   -1493.7997    483.65452    320.49597    372.29305    37599.264 
  808800    305.51248   -1469.2168    480.81389    385.80514    -541.7268    37599.264 
  808900    297.04143   -1458.5588    471.71612    349.26222     310.0356    37599.264 
  809000    296.66477   -1498.2827    482.61042    318.73842    104.95604    37599.264 
  809100    301.62045   -1470.8261    491.20696    377.08242    217.46323    37599.264 
  809200    289.66644   -1472.8757    508.46411    338.52036   -327.07837    37599.264 
  809300    297.06685    -1421.463    491.51943    406.27576   -155.81088    37599.264 
  809400    301.20228   -1438.2893    460.56176    377.09304   -178.70666    37599.264 
  809500    286.08734   -1414.5851     494.8488    367.09671   -159.46227    37599.264 
  809600    298.24534   -1428.5565    472.62297    385.58669   -456.37956    37599.264 
  809700     305.7482   -1447.9782    501.43688    428.72704    481.15236    37599.264 
  809800    308.83585    -1426.043    481.30304    444.41677    450.35566    37599.264 
  809900    300.18366   -1423.8271    458.68732    385.09906    280.23892    37599.264 
  810000      294.081    -1458.115    496.41037    361.08418   -386.71014    37599.264 
  810100    291.91849   -1470.4566    474.49302    317.09817    -901.9472    37599.264 
  810200     287.9047   -1461.9834    502.56037    335.58452   -309.43276    37599.264 
  810300    294.54585   -1472.6084    459.88645    312.15773    -256.2209    37599.264 
  810400    302.07709   -1484.9359     489.7286    363.54822   -377.78178    37599.264 
  810500    303.07336   -1455.1882    494.01142    402.06005   -217.62107    37599.264 
  810600    298.83988   -1471.0551    493.44291    366.58227    421.69261    37599.264 
  810700    303.76143   -1503.2326    474.92208    338.02125    247.78045    37599.264 
  810800    289.53685   -1504.0888    481.35002    279.61026    29.320092    37599.264 
  810900    302.43335   -1474.2785    492.25961    378.33914    457.97323    37599.264 
  811000    299.81276   -1473.1093    449.91246    325.37359    280.64716    37599.264 
  811100    303.60888   -1446.2156    472.90163    392.33164    193.09963    37599.264 
  811200    311.86281   -1476.7084    482.62256    408.68625    88.290722    37599.264 
  811300    294.49416   -1494.5943    442.33425    272.38718    163.09244    37599.264 
  811400    305.00718   -1470.9011     494.0631    395.09721   -77.141741    37599.264 
  811500    289.42363   -1482.5878    464.88034    284.13234   -16.440876    37599.264 
  811600    305.73101   -1466.2139    462.92634    371.90352   -236.30995    37599.264 
  811700    305.17393   -1492.7768    473.27036    353.17882   -14.272465    37599.264 
  811800    291.32828   -1475.6447    474.59497    309.35718    -649.1604    37599.264 
  811900    292.06439   -1451.4649    491.61853    353.87163   -106.50471    37599.264 
  812000    300.63816   -1498.9185    507.41528    360.77998   -4.6733808    37599.264 
  812100    294.13058   -1504.4784    459.63523     278.1687   -6.2779925    37599.264 
  812200    294.64925   -1497.1224    479.75323    307.97563    324.14386    37599.264 
  812300    298.22841   -1513.7259    447.68535    275.40348    106.04806    37599.264 
  812400    293.60841   -1534.3953    453.34599     239.6138   -236.43077    37599.264 
  812500    303.28797   -1499.5166    483.85788    348.54342   -133.94176    37599.264 
  812600    308.69011   -1548.0792    444.83561    285.25761   -104.18913    37599.264 
  812700     294.1808   -1514.6839    451.82825    260.38204   -143.85254    37599.264 
  812800    306.08875   -1463.9491    487.68121    400.53233     294.5392    37599.264 
  812900    292.16108   -1454.9904    484.60355    343.76605    587.04933    37599.264 
  813000    294.36414    -1423.511    474.67558    375.22694   -68.695138    37599.264 
  813100    301.17798   -1450.0359    490.45715    395.13256    442.17216    37599.264 
  813200    290.36363   -1438.9459    504.92698    372.04899     711.0233    37599.264 
  813300    292.38133   -1459.9069    492.69126    347.92793    202.94953    37599.264 
  813400    284.62728   -1441.2786    492.22455    331.21153    95.296368    37599.264 
  813500    309.48581   -1516.7428    484.48295    359.82043    625.99835    37599.264 
  813600    310.55463   -1527.9724    484.21466    353.13014    200.04823    37599.264 
  813700    303.79495   -1542.2294    462.80401    287.05719    149.09581    37599.264 
  813800    297.96963   -1473.9053     457.7009    324.07565    -621.2728    37599.264 
  813900     290.9307   -1517.6325    488.87041     279.8565   -529.12614    37599.264 
  814000    286.18404    -1502.263    468.70413    253.70909   -39.567942    37599.264 
  814100     296.1385   -1532.2447    472.29979    272.09862    166.99452    37599.264 
  814200    297.10269   -1516.6818    458.34375    278.04244    792.60313    37599.264 
  814300    305.04389   -1510.4344    483.54982     345.2157    488.80766    37599.264 
  814400     302.4638   -1479.8283     469.2574    349.92408     285.0316    37599.264 
  814500    298.98634   -1508.0614    488.38247    325.17428    297.22132    37599.264 
  814600    301.35646   -1473.8077    486.60614    368.31257     361.9765    37599.264 
  814700    307.52171   -1521.2853    482.98438    344.94474    78.063199    37599.264 
  814800    301.10146   -1457.1205    489.30042    386.54705   -329.41435    37599.264 
  814900    296.72923   -1495.5821    455.03765    294.15623   -493.68434    37599.264 
  815000    286.53703   -1473.1907    471.82362    287.48865   -610.36081    37599.264 
  815100     303.2443   -1507.0975     461.6397    318.54793   -771.82333    37599.264 
  815200    298.83291   -1492.4745    486.60585    338.29446   -350.11543    37599.264 
  815300    297.13331   -1472.2375     454.7192    318.99993   -318.98732    37599.264 
  815400    294.60629   -1471.3026    480.57255    334.42154   -181.25147    37599.264 
  815500     305.1844   -1488.2061    485.50471    370.03097   -319.72271    37599.264 
  815600    302.69368   -1443.6665    507.61295    425.47542    155.49875    37599.264 
  815700    307.59759   -1464.0871    465.38373    384.88358      289.765    37599.264 
  815800    302.02456   -1443.3289    487.05768    402.24809   -395.89497    37599.264 
  815900    295.42481   -1460.4012    475.95377    344.38588   -531.30882    37599.264 
  816000    301.40235     -1443.46    510.03406    422.29458   -542.10843    37599.264 
  816100     293.6986   -1421.6838    480.45439    379.83937   -892.99313    37599.264 
  816200    306.92984   -1411.5516     465.6554    434.68723    -323.5714    37599.264 
  816300    298.02509   -1428.1544    473.25159    385.62666   -172.27938    37599.264 
  816400    300.53593   -1458.2374    480.70062    374.28662   -353.03659    37599.264 
  816500    298.22577   -1506.7063    465.69317    300.41901    215.70952    37599.264 
  816600    286.51799   -1464.6507    479.04836    303.16766     184.4171    37599.264 
  816700     295.5236   -1451.0644    504.63254    382.84579   -21.259461    37599.264 
  816800    303.97869   -1459.7528      477.925    385.48121    328.04113    37599.264 
  816900    298.43823   -1477.6909    481.68866    346.38557    179.46803    37599.264 
  817000    296.57462   -1463.8468    494.70141    364.85981    120.87252    37599.264 
  817100    305.51395    -1435.507    494.74818    433.45582    -49.49844    37599.264 
  817200    309.06088   -1448.8578     495.5502    436.86131   -839.96852    37599.264 
  817300    302.36174   -1458.0955    469.87793     371.8184   -567.39817    37599.264 
  817400     307.1324    -1498.694    468.88717    351.68777   -710.64418    37599.264 
  817500    299.53064    -1427.036    491.55677    411.82227   -468.30132    37599.264 
  817600    292.83298    -1472.515    495.08769    339.74787   -425.56386    37599.264 
  817700    303.26873   -1459.5616    480.49979    385.05375   -432.54548    37599.264 
  817800    291.06364   -1534.6438    467.22877    241.80151   -673.45963    37599.264 
  817900    304.69455   -1537.9426    471.98441    304.57082    100.01209    37599.264 
  818000    308.52945   -1514.9505    494.98718    367.81525    265.25091    37599.264 
  818100    290.16258   -1469.9228    504.62032     339.8611    171.08965    37599.264 
  818200    286.23888   -1487.0481    462.80692    263.27342    272.41116    37599.264 
  818300    308.98365    -1489.944    490.98901    390.86649    314.22117    37599.264 
  818400     300.2366   -1501.8455    493.30384    341.93532   -232.24614    37599.264 
  818500    309.20744   -1461.8215    488.54705    417.55369   -1027.3745    37599.264 
  818600    299.77124   -1467.0136    453.91027    335.28037   -795.68556    37599.264 
  818700    291.76523   -1519.0438    465.23295    258.56147   -778.19072    37599.264 
  818800    307.28605   -1509.7835    476.05665    348.45879   -395.07232    37599.264 
  818900    305.48738   -1492.8302    476.39849    357.66345    373.60584    37599.264 
  819000    296.23729   -1476.8359    487.05544    342.70743    237.79602    37599.264 
  819100     306.3383   -1503.8722    469.86754    343.91799    476.72791    37599.264 
  819200    298.57296   -1493.6855    498.35106     347.6594    764.19267    37599.264 
  819300    292.29767   -1514.7319    501.00182    301.03728    373.24041    37599.264 
  819400    296.02059   -1528.9269    488.67733    291.26354    952.93495    37599.264 
  819500    299.43715   -1523.8386    493.22791    316.27027    895.15154    37599.264 
  819600    299.65778   -1541.4642    470.48897    276.89813    671.26394    37599.264 
  819700    303.52221    -1518.978    480.35483    326.63255    678.48807    37599.264 
  819800    290.09972   -1538.0817    493.02879    259.82791    638.91547    37599.264 
  819900    299.76749    -1528.933    495.89987    315.33373    723.49748    37599.264 
  820000    304.04287   -1485.2636    470.59319     352.9273    438.35662    37599.264 
  820100    301.26769   -1509.6996    499.57963    344.99482    482.72075    37599.264 
  820200    300.91864   -1530.6802    476.93413    299.79871    585.11747    37599.264 
  820300    305.63749   -1504.5827    504.02461    374.21227    324.73841    37599.264 
  820400    300.97681   -1496.0312    496.35539    354.13058    52.722867    37599.264 
  820500    296.00252   -1507.2966      494.696    318.83123   -45.460822    37599.264 
  820600    310.04192   -1515.0077     491.9084    371.48236    137.62997    37599.264 
  820700     301.9477   -1503.2806    497.01598     351.9089   -53.568704    37599.264 
  820800    289.78846   -1487.9475    466.62047    282.15379    206.69902    37599.264 
  820900    299.61948   -1485.3207    482.34793    344.72833    -605.1425    37599.264 
  821000    303.92071   -1449.0727    490.97861    408.95416   -57.560332    37599.264 
  821100    297.34639   -1494.4969      488.112    331.09178   -95.590749    37599.264 
  821200    289.20411   -1491.8814    498.98507    307.95598    -37.24665    37599.264 
  821300    303.39586   -1469.0129    481.86281    377.53734    118.73615    37599.264 
  821400    298.10042   -1471.5908    492.59568    361.87317    174.52248    37599.264 
  821500    291.40509   -1523.3937    500.54494    287.90365    299.18942    37599.264 
  821600    297.28902   -1493.0038    490.72188    334.93672    144.76354    37599.264 
  821700    291.38656   -1456.1868    485.27085    339.75311    418.34811    37599.264 
  821800     299.4447   -1479.3476    501.75828    369.32559    214.41193    37599.264 
  821900    310.87031   -1487.3227    487.77173    398.75682    243.24994    37599.264 
  822000    292.48868   -1482.1716    476.83791    310.29284    354.22434    37599.264 
  822100    292.01269   -1487.8699    507.16625    332.78185   -266.83655    37599.264 
  822200    292.61908   -1509.2476     486.5549    293.52036   -184.45061    37599.264 
  822300    303.00003   -1495.0383    487.98877    355.85749    616.42974    37599.264 
  822400    300.70408   -1477.6461    477.24255    352.17614    483.57582    37599.264 
  822500    304.18897   -1525.8469    484.66932    327.07732    708.71424    37599.264 
  822600    294.46583   -1493.9323    495.53275    326.12021    323.11018    37599.264 
  822700     291.6988   -1474.6941    458.28514    295.66457    435.81465    37599.264 
  822800    307.97336    -1496.657    512.46612    401.08638    509.77024    37599.264 
  822900    301.41405   -1512.2148     468.1187    311.67709    248.45686    37599.264 
  823000     301.8004   -1476.3882    492.25535    373.37817    631.90711    37599.264 
  823100    309.27378   -1486.1403    489.79198    394.77825    660.77319    37599.264 
  823200    296.48007   -1490.0071    484.19774    327.77051    280.81595    37599.264 
  823300    302.57953   -1470.1261    503.41786     394.3073    398.51822    37599.264 
  823400    292.99539   -1489.3837    480.48785    309.00979   -33.823916    37599.264 
  823500    302.35096   -1461.5333    496.73007    395.18426   -193.58346    37599.264 
  823600    298.36839   -1435.4387    492.32009     398.9551    198.17188    37599.264 
  823700     308.3706   -1483.6494    520.91927    424.33395   -437.67412    37599.264 
  823800     298.0488   -1492.9412    491.11085    338.80578   -324.01754    37599.264 
  823900    304.98673   -1464.4344     453.1922    360.60108   -512.60976    37599.264 
  824000    298.68635   -1521.6428    484.65181    306.51291    156.37197    37599.264 
  824100    292.46429   -1516.8781    495.93512    294.57376    805.84102    37599.264 
  824200    300.32331   -1519.0397    477.00675      308.834    835.55545    37599.264 
  824300    306.49135   -1496.2862    499.24583    381.57073    714.54845    37599.264 
  824400    307.75804   -1528.4822    471.06918    326.89566    835.85075    37599.264 
  824500    299.12649     -1495.34    473.39724    323.54087    2.9863417    37599.264 
  824600    303.44328   -1470.4356    504.04898    398.51412     495.2353    37599.264 
  824700    293.22146   -1478.0066      463.755    304.67096    289.60685    37599.264 
  824800    296.31378   -1530.8303     481.1956    283.19721    101.14913    37599.264 
  824900    303.06044   -1498.2194    504.13485    369.09414    127.73415    37599.264 
  825000    306.27348    -1537.964    475.24735    314.91451    288.70534    37599.264 
  825100    307.27506   -1534.7729    480.98564    328.34892    539.46044    37599.264 
  825200    299.68998   -1540.6031    468.32661    275.74174    505.62533    37599.264 
  825300    305.79349   -1551.5009    453.44571    277.41682    159.06778    37599.264 
  825400     307.1657   -1505.9846    495.58634    371.24609   -195.43904    37599.264 
  825500    305.35276   -1520.1146    484.40399    337.77906    397.25281    37599.264 
  825600    281.69173   -1550.6897    491.31996    207.69163    224.76862    37599.264 
  825700    293.08534   -1529.5861    473.23134    261.95556    360.81072    37599.264 
  825800     306.9305   -1580.7572    476.00373     275.8329    578.75077    37599.264 
  825900     310.2446   -1543.2154    483.28359    335.56158    764.92134    37599.264 
  826000     297.8048   -1529.0881    475.26027    285.71076    309.34888    37599.264 
  826100     290.5795     -1563.67    491.81164    235.18054   -314.93891    37599.264 
  826200    300.34684   -1551.4214    472.68849     272.2399   -395.33497    37599.264 
  826300    299.00404    -1548.047    471.11355    267.99939   -179.32501    37599.264 
  826400     292.1385   -1541.4865    488.71259    261.27739   -485.95639    37599.264 
  826500    304.91734   -1499.9358    494.24443    365.83973   -538.24607    37599.264 
  826600    299.73785    -1513.019    487.11225    322.32675   -22.859812    37599.264 
  826700    290.56325   -1536.3835    476.46875    247.05105   -307.91857    37599.264 
  826800    313.08909   -1542.1063    481.28582    347.46751    258.33072    37599.264 
  826900    307.42677   -1594.5728    464.09595    252.34175   -19.468474    37599.264 
  827000     302.0283   -1589.3919    469.93475    239.07894    629.31325    37599.264 
  827100    294.81561    -1585.243    483.31026    224.16034    699.23101    37599.264 
  827200    306.52609   -1557.7642    485.20714    306.21032    246.19576    37599.264 
  827300     297.6082   -1550.9742    502.94829    290.62835    89.187528    37599.264 
  827400    295.51514   -1564.0042    498.36961    263.60507   -268.18385    37599.264 
  827500    296.45007   -1549.7888    492.19746     275.8536    16.725019    37599.264 
  827600    302.54595   -1577.7323     491.7894    274.92159   -359.28592    37599.264 
  827700     299.0708    -1515.674    496.64143    326.20057   -193.14679    37599.264 
  827800    292.99391   -1528.3713    475.89562    265.42336   -377.06121    37599.264 
  827900    300.72366   -1516.8288    527.69481    363.53373   -616.25774    37599.264 
  828000    298.79524   -1536.6082    473.55005     280.9355   -662.52598    37599.264 
  828100    298.40601   -1471.8794    498.11997     368.4835   -281.08062    37599.264 
  828200    296.78291   -1503.4033    490.69906    322.23788    -65.47152    37599.264 
  828300    300.11914   -1513.1485    487.06709    323.86715    403.62803    37599.264 
  828400    297.37859   -1510.9831    498.92155     325.5599    210.50171    37599.264 
  828500    305.97007   -1542.4927    486.11672    319.89033    1.8098129    37599.264 
  828600    304.18367   -1528.9764    503.88591    343.14057   -139.69878    37599.264 
  828700    285.01776   -1488.4323    500.98256    294.57223    384.50308    37599.264 
  828800     300.1253   -1545.4954    480.66688    285.14782   -48.890824    37599.264 
  828900    311.14046   -1551.4246    473.23745     321.3358   -247.06062    37599.264 
  829000    304.86938   -1507.2806    510.64312    374.67785    225.11483    37599.264 
  829100    297.08346   -1544.2928    480.92604    272.92718    361.88018    37599.264 
  829200    294.82915   -1569.2956    492.17418    249.03263    274.02435    37599.264 
  829300    290.45755   -1590.1953    486.91671    203.21178   -273.94907    37599.264 
  829400    297.13123   -1542.4114    496.79546    290.89287    436.24917    37599.264 
  829500     309.7607   -1543.5664    490.65196    340.40235    537.58286    37599.264 
  829600    302.14296   -1605.6028      490.753    244.20202    342.36572    37599.264 
  829700    297.19853   -1553.9279     468.9689    251.85257    417.07826    37599.264 
  829800    300.23578   -1591.3954    476.56913    235.64694    358.64573    37599.264 
  829900    316.94092   -1602.6446     493.8204    316.78949    409.00356    37599.264 
  830000    301.38142   -1577.7512    485.02603    262.90121    39.488878    37599.264 
  830100    308.45268   -1596.6541    494.61808    285.39723    207.07202    37599.264 
  830200    302.60753   -1601.1862    466.41415    226.36947    160.47559    37599.264 
  830300    301.89487   -1644.7407    470.67141    183.86658   -180.70034    37599.264 
  830400    299.04552   -1611.1022    472.94403    206.96121   -229.69199    37599.264 
  830500    294.65897   -1574.9879    486.14532    236.54598   -729.73758    37599.264 
  830600    316.16464   -1600.1917    470.18997    292.12017   -133.51143    37599.264 
  830700    298.28035   -1566.7416    466.07231    241.00834   -121.01719    37599.264 
  830800    308.40727     -1541.32    492.16932    338.07825   -72.152388    37599.264 
  830900     292.6733   -1558.7534    508.31131    266.01483   -29.077978    37599.264 
  831000    296.86431   -1582.4555    478.77308    231.62586   -42.003395    37599.264 
  831100    298.18249   -1565.1155    507.45415    283.57609   -403.61499    37599.264 
  831200    288.90458   -1577.6007    479.98146    201.88577   -466.17795    37599.264 
  831300    302.25683   -1587.8898    484.68284    256.35713   -307.80984    37599.264 
  831400    299.42721   -1548.1844    485.22984    283.88175   -538.66004    37599.264 
  831500    284.08698   -1552.4656    465.50972    190.87941    -601.0245    37599.264 
  831600    307.35216   -1539.9849    475.85316    318.35132    173.33452    37599.264 
  831700    313.59941   -1585.8193     491.5214    316.28555   -239.35911    37599.264 
  831800    318.30793   -1573.6134    470.15145    328.30064    70.321744    37599.264 
  831900     298.5947   -1598.6062     449.7389    194.22432   -132.12126    37599.264 
  832000    297.56066   -1604.9574     483.6662    217.14928    337.29571    37599.264 
  832100    300.70669   -1556.7894    494.51374    290.31579   -173.01614    37599.264 
  832200    307.29077   -1538.1566    470.10715    314.15748     195.0734    37599.264 
  832300    295.90128   -1582.1713    469.85865    218.66387    247.26503    37599.264 
  832400    308.92859    -1588.346    486.68415    287.91204    252.29846    37599.264 
  832500    295.52107   -1553.0297    467.27382    243.51046    -136.6361    37599.264 
  832600    299.54952   -1602.0162    484.83549    230.20575    128.77561    37599.264 
  832700    299.35048   -1553.8017    468.15608    260.84554   -593.19606    37599.264 
  832800    298.89543   -1557.4502     507.2454    294.23952   -256.56503    37599.264 
  832900    296.98785     -1563.85    505.82016    277.83403   -528.62954    37599.264 
  833000    296.77849   -1550.3312    464.08841    248.67945   -124.81768    37599.264 
  833100    294.35446   -1550.8388     475.8011    248.98116   -513.01528    37599.264 
  833200    305.60582   -1579.2585    462.30022    257.66965    129.41163    37599.264 
  833300    306.54933   -1566.1735    473.67062    286.36904   -196.70291    37599.264 
  833400    307.58183   -1565.4169    460.36289    278.46213    31.026666    37599.264 
  833500    297.64166   -1555.7582    484.18334    267.22995   -500.41728    37599.264 
  833600    306.45868   -1576.6257    460.49209    262.33051    90.036992    37599.264 
  833700    311.78432    -1535.889    496.20075    362.73084    -43.82418    37599.264 
  833800    294.17612   -1595.1492    459.57429    187.64175   -277.39944    37599.264 
  833900    302.15543   -1581.3821    470.99407     248.7199   -205.98131    37599.264 
  834000    288.83296   -1577.6574    475.87612    197.40159    339.46741    37599.264 
  834100    291.28744   -1561.5393    500.88362    249.56755    549.33511    37599.264 
  834200    299.70342   -1570.7778    468.57785    245.87874    338.06088    37599.264 
  834300    302.17926   -1586.3003    481.36536    254.28022    24.272424    37599.264 
  834400    295.11373   -1580.7355    452.94529    199.64386      179.652    37599.264 
  834500    311.26818    -1558.935    481.17259    322.33506    49.110384    37599.264 
  834600    299.46299   -1552.5398    499.80729    294.26465    76.109605    37599.264 
  834700    288.23781   -1583.9267    474.71006    187.28925    54.265168    37599.264 
  834800    300.46941   -1575.4804    479.00978    255.05349   -131.27775    37599.264 
  834900    298.55219   -1546.3102    478.49321     275.0834    325.47201    37599.264 
  835000    288.21403   -1545.0744    488.20457    239.52907    408.08361    37599.264 
  835100    303.14667    -1533.525    447.37125    277.41282    201.56864    37599.264 
  835200    305.76301   -1526.1221    503.62212    352.83503    135.41828    37599.264 
  835300    299.43564   -1490.9878    484.49738    340.38374    150.12344    37599.264 
  835400    302.65117   -1538.9098    475.66647    298.09442    43.141542    37599.264 
  835500    299.94471   -1535.7451     477.9575    291.37645   -200.27681    37599.264 
  835600    299.66357   -1535.8915     484.8024    296.81031    229.25675    37599.264 
  835700    296.90263   -1558.7592    483.44912    260.17051   -598.45084    37599.264 
  835800    304.77396   -1571.0702    501.18728    301.00324   -509.82804    37599.264 
  835900    295.92202   -1523.6964    463.04912    270.42251   -1237.7906    37599.264 
  836000    299.91755   -1489.7187    489.56991    348.89304   -1004.3626    37599.264 
  836100    302.52769   -1514.6921    481.77177      327.862    -870.1352    37599.264 
  836200    295.88396    -1493.221    479.72845    317.40597   -595.78103    37599.264 
  836300    307.74412   -1514.9923    477.01861    346.27236   -563.67889    37599.264 
  836400    295.17883   -1488.3116    451.72573    291.14102   -794.52199    37599.264 
  836500    300.22787   -1519.1422    484.05538    315.35088    192.36242    37599.264 
  836600     303.4291   -1539.1399    520.46973    346.16677    285.91007    37599.264 
  836700    293.45505   -1480.2509    486.47508    326.19742   -173.94753    37599.264 
  836800    289.09964   -1531.5672    489.79891    258.61416   -101.89167    37599.264 
  836900    297.09389   -1522.1564    502.41494    316.59946   -197.82166    37599.264 
  837000    299.87102   -1534.1616    480.69894    295.36992     525.1642    37599.264 
  837100    294.28257   -1547.7885     499.7711    275.67808   -236.68002    37599.264 
  837200    292.73337   -1498.9182    509.87808    327.68696   -748.44176    37599.264 
  837300    302.92715   -1469.8724    463.75301    356.45981   -151.39414    37599.264 
  837400    291.86105   -1526.5935    493.91405    280.12398   -561.06586    37599.264 
  837500    292.50614   -1517.6154    446.99605    245.08564   -372.48494    37599.264 
  837600    293.87378   -1537.1826    470.52954    255.20364    385.31629    37599.264 
  837700    297.71242   -1539.1719      488.211    288.16221    299.41885    37599.264 
  837800    307.91834   -1524.6532     528.0665    388.44304    71.795205    37599.264 
  837900    309.36549   -1583.6539    500.68246    308.56762   -46.858222    37599.264 
  838000    302.74044   -1567.5012    500.38207    294.62025   -288.95759    37599.264 
  838100    301.50655     -1523.46    492.72226    325.45151   -578.20316    37599.264 
  838200    310.74869   -1525.9743    489.32299    361.10944   -525.64151    37599.264 
  838300    295.78446   -1557.5766    481.82909    254.70357    35.495674    37599.264 
  838400    302.97055   -1552.6569    480.62069    290.73816     -318.011    37599.264 
  838500    296.32576   -1538.4895     502.0877    296.48396    287.25972    37599.264 
  838600    309.67365   -1546.8393    442.91356    288.99943    463.46927    37599.264 
  838700    296.44112   -1547.6179    483.79804    269.58485    239.50932    37599.264 
  838800    293.95577   -1539.1112    469.12133    252.23562    575.77656    37599.264 
  838900    307.56689   -1540.7363     474.5755    317.28808    597.04311    37599.264 
  839000    310.92871   -1597.6546    492.95008    293.86598    111.40981    37599.264 
  839100    309.11525   -1566.0873    484.16204    308.48822   -102.19359    37599.264 
  839200    298.03984   -1534.8398    476.95302      282.709   -407.66302    37599.264 
  839300    288.09028   -1520.7856    492.73328    267.78994   -443.16533    37599.264 
  839400    300.05975    -1482.525    485.44944    352.60593   -291.63511    37599.264 
  839500    294.38553   -1559.2904    470.86344     235.7316   -169.34888    37599.264 
  839600    290.37164   -1482.3188    504.71195    328.49714   -441.16433    37599.264 
  839700    298.24849   -1510.8257    474.82824    305.53684   -575.37104    37599.264 
  839800    294.01965   -1516.7484    499.21448    304.97897    -550.0562    37599.264 
  839900    304.07857   -1498.5652    491.01117    360.20426     37.16734    37599.264 
  840000    310.77362   -1509.8571    501.67225    389.68809   -42.869428    37599.264 
  840100    297.50001   -1483.7474    468.08068    322.50094   -310.36533    37599.264 
  840200    303.21132   -1528.6744    476.57206    311.75505   -362.37144    37599.264 
  840300    304.83698   -1503.0063    533.06491     401.2283    68.179734    37599.264 
  840400    292.55569   -1501.7047    458.72378    272.94696   -392.42022    37599.264 
  840500    300.87553   -1498.4606    489.98224     344.8725   -392.33972    37599.264 
  840600    293.85485   -1523.2299    483.52386    282.06555   -550.63508    37599.264 
  840700    305.72146   -1540.5998    491.33754    325.88583   -266.23251    37599.264 
  840800    297.13751   -1500.3362     496.2798     332.4807   -527.79643    37599.264 
  840900    305.55736   -1520.7046    462.85501    316.56038   -469.36069    37599.264 
  841000    302.00397   -1510.9005    503.52103    351.04721   -822.17275    37599.264 
  841100    302.52103   -1481.7741    494.30496    373.28332   -857.29726    37599.264 
  841200    302.82555   -1552.9524    469.97676    279.14646   -387.26391    37599.264 
  841300    308.07265   -1529.9094    505.65154    361.46593   -1469.1326    37599.264 
  841400    288.75908    -1496.076    495.58233    298.35688   -594.32923    37599.264 
  841500    307.73777   -1518.6242    497.61098    363.20433   -72.161935    37599.264 
  841600    298.47838    -1514.721    497.19654    325.04392    173.13096    37599.264 
  841700    300.60485   -1518.8052     493.2472    326.57532    353.59796    37599.264 
  841800    310.01093   -1531.6674    508.82983    371.60475    400.36495    37599.264 
  841900    295.70232    -1502.092    507.47226    335.46184    516.77318    37599.264 
  842000    311.32499   -1502.4946    483.93473    381.79314    51.533177    37599.264 
  842100    314.68932   -1505.6771    505.70066    415.50946    101.81459    37599.264 
  842200     291.4264   -1503.9192    496.00217    302.93125     414.4306    37599.264 
  842300    299.35929   -1534.7572    481.44422     293.2178    551.35979    37599.264 
  842400    305.21643   -1542.4455    494.72772    325.15866    498.42139    37599.264 
  842500    292.97434   -1495.4826    501.27479     323.6032    416.06611    37599.264 
  842600    301.21799   -1493.1742      524.053    385.77009    188.51824    37599.264 
  842700     300.7568   -1548.6644    488.92015    293.07258    582.62128    37599.264 
  842800    301.56151   -1536.9133    463.07606    282.59918    634.20223    37599.264 
  842900    301.55057   -1560.8362    512.30476    307.85583   -276.76678    37599.264 
  843000    299.67115   -1567.8728    458.61419    238.67489    424.45282    37599.264 
  843100    292.49564    -1504.538     495.6797    306.79951    100.70294    37599.264 
  843200    303.34384   -1532.8559    492.68041    324.27796    197.71004    37599.264 
  843300    297.87136    -1497.618    489.94281    332.16282    123.81326    37599.264 
  843400    294.68845   -1507.8295    476.65721     294.3488    -135.4454    37599.264 
  843500     305.3616   -1548.8673    468.61251     293.2746    241.38268    37599.264 
  843600    309.41854   -1525.7636    485.53304    351.54715      444.085    37599.264 
  843700    304.39163   -1507.3257    479.33914    341.17991   -254.83862    37599.264 
  843800    303.00398   -1535.7025    474.79038    302.01264    79.169072    37599.264 
  843900    302.56077   -1484.3929    488.17424    364.71246    46.790038    37599.264 
  844000     299.3734   -1476.5312    487.85193    357.91494   -24.707028    37599.264 
  844100    296.96287   -1502.3144     481.7765    315.21374    108.06982    37599.264 
  844200    300.79142   -1538.0386    458.28382    273.21774   -327.13395    37599.264 
  844300    305.80748   -1552.8948    476.61516    299.25533    389.49905    37599.264 
  844400    305.05604   -1552.3418    501.04104    320.85424    530.46306    37599.264 
  844500    301.95591   -1568.6709    473.43737    262.97699    242.21252    37599.264 
  844600    294.92612   -1519.6968    495.35752    302.25092   -57.509107    37599.264 
  844700    303.82263   -1538.3474    488.88427    317.14394   -369.06976    37599.264 
  844800    305.67486   -1527.4587    474.96924    322.44898    107.89583    37599.264 
  844900    290.01003   -1548.8199    459.69667    215.35417    333.26122    37599.264 
  845000    291.13242   -1554.0979    482.13049    237.55859    -208.1528    37599.264 
  845100    300.55549   -1563.3783    472.60195    261.13498   -380.04882    37599.264 
  845200     299.5565   -1545.3751    461.37915    263.42184   -185.78347    37599.264 
  845300    293.98342   -1539.1819      471.628    254.79595   -412.20638    37599.264 
  845400    293.03491   -1528.1887    472.83477    262.72946    215.48537    37599.264 
  845500    308.23979   -1539.6882    474.82624    321.61372      203.184    37599.264 
  845600    291.98024   -1552.7238    498.98983    259.60558    451.00171    37599.264 
  845700     300.9364     -1539.68    470.55052    284.49519    69.056643    37599.264 
  845800    301.68351   -1535.6613    460.40691     281.7308   -575.53467    37599.264 
  845900      303.857   -1546.3695    483.02081    303.41293   -162.42336    37599.264 
  846000    307.16461   -1549.8233    477.74771    309.56383   -629.76778    37599.264 
  846100    294.26443   -1549.6383    448.09029    222.06593   -592.66192    37599.264 
  846200    301.58997   -1500.4878    506.99698    363.07364   -535.16221    37599.264 
  846300    295.31559   -1514.0054    492.88137    307.21801    -598.9188    37599.264 
  846400    297.20938   -1541.1156    491.40163    287.14642   -1060.5988    37599.264 
  846500     306.4089   -1563.5569    468.23125    282.91456   -1047.4021    37599.264 
  846600    295.24966    -1536.382    474.04122    265.70473   -408.41287    37599.264 
  846700    314.98519   -1564.1584    472.47085    325.12918   -1084.7483    37599.264 
  846800     302.1891   -1525.1993     471.0631    305.12314    -494.2559    37599.264 
  846900    300.04294   -1576.1114    461.34531    234.83983   -566.97629    37599.264 
  847000    301.42698   -1521.1673     469.1329    303.79695   -52.571193    37599.264 
  847100    307.49915   -1540.6633     499.5707    342.05156   -802.18087    37599.264 
  847200    313.05579   -1566.1992    476.05952    317.99855   -328.11479    37599.264 
  847300    293.50256   -1559.8834    482.64987     242.9534   -367.01694    37599.264 
  847400    305.45256   -1526.5961    480.23965    327.58212    489.34969    37599.264 
  847500    293.94238   -1530.2595    483.14518    275.05092    555.78099    37599.264 
  847600    309.28611   -1534.2102      473.828    330.79985    706.81003    37599.264 
  847700    296.29928   -1577.5139     511.0935    266.34626    1100.6356    37599.264 
  847800    297.30106   -1560.3975    463.94536    240.82061    968.40052    37599.264 
  847900    303.78885   -1538.5594     473.0177    300.91347    1223.4685    37599.264 
  848000    291.11259   -1521.7805    514.75166    302.40798    608.32858    37599.264 
  848100    307.26582   -1527.5474     470.3994    324.94667    794.80022    37599.264 
  848200    300.52305   -1547.4375    470.47164    274.79952    282.29913    37599.264 
  848300    296.18124   -1521.4249    481.25886    292.06971    473.25417    37599.264 
  848400    301.87854    -1502.743    476.83938    331.95888    619.09913    37599.264 
  848500    297.93574   -1493.5591    490.52602    337.09451   -52.017473    37599.264 
  848600    301.59156    -1509.998    497.26044    343.83403    114.52856    37599.264 
  848700    292.52848   -1484.1049     484.7408    316.44142    274.50774    37599.264 
  848800    299.50652   -1490.2181    496.15661     353.1315    415.47257    37599.264 
  848900    296.54675   -1510.2196    458.58633    282.24658   -147.22089    37599.264 
  849000    291.70632   -1495.2967    487.89237    304.70306   -99.399697    37599.264 
  849100    297.18459   -1450.0474    494.34612    381.04761   -97.352943    37599.264 
  849200    305.80937   -1533.8544    478.12145    319.81058   -473.05147    37599.264 
  849300    301.75657   -1528.9727    482.68945     311.0306    211.48577    37599.264 
  849400     297.2897   -1526.6353    458.52088    269.10725   -128.39597    37599.264 
  849500    300.34143   -1550.0032    466.36822     267.3135   -161.73064    37599.264 
  849600     286.7978   -1524.5201    467.12376    232.63237       62.092    37599.264 
  849700    312.45617   -1557.6781    466.14267    313.90563    523.26609    37599.264 
  849800    292.80577   -1532.6235    495.20199    279.63125    369.34107    37599.264 
  849900    296.28639   -1517.9638    469.95901    284.70392    216.05408    37599.264 
  850000    298.02112   -1548.2526    467.97932     260.2383    -99.96557    37599.264 
  850100    293.17178   -1514.8282    502.25352    306.12437   -777.31827    37599.264 
  850200    299.20673   -1501.1195    509.78389    354.50898   -355.23441    37599.264 
  850300    300.09152    -1497.369    509.17715    361.63254   -234.04245    37599.264 
  850400    295.11182   -1495.5718     503.8912    335.74486   -147.40662    37599.264 
  850500    299.57845   -1540.1949    488.77395    296.09558   -355.36829    37599.264 
  850600    304.38762   -1527.1822    492.97366    334.93988    492.88686    37599.264 
  850700    303.97554    -1543.458    500.49045    324.32733    4.6925399    37599.264 
  850800     294.3286   -1496.4758     495.4406    322.86731   -828.56146    37599.264 
  850900     304.8191   -1481.1973    503.26382    393.15576   -759.29496    37599.264 
  851000    294.33236   -1522.7423    501.31876    302.49583   -477.63104    37599.264 
  851100    295.93855   -1579.4817    478.27163    229.93409    94.830442    37599.264 
  851200    298.18641   -1495.0883    525.83307    371.99986    32.318906    37599.264 
  851300    297.79391   -1561.2674    458.68454     236.9068   -410.17648    37599.264 
  851400    313.42962   -1536.4364    503.79321    377.17651   -252.48864    37599.264 
  851500    298.47215   -1542.7341    483.94368    283.74999    13.538664    37599.264 
  851600    299.81959   -1553.2646    494.27051    289.60714   -292.14179    37599.264 
  851700    299.90119   -1565.6489    484.06151    267.38088    54.132611    37599.264 
  851800    285.71656   -1522.2407    502.17805    265.10254    -277.9488    37599.264 
  851900    295.27646   -1511.9123    496.57909    312.83282    522.72334    37599.264 
  852000    296.82901   -1566.0447    465.47851    234.58324   -113.55016    37599.264 
  852100     312.9498    -1588.452    501.58456    320.79404    528.08249    37599.264 
  852200    291.16353   -1574.4234    483.86334    219.10584    344.50562    37599.264 
  852300    304.00712   -1569.2966    477.49603    275.63633    42.613344    37599.264 
  852400    294.76583    -1577.332    500.79269    249.32989   -67.682978    37599.264 
  852500    305.32888   -1559.7765    468.95363    282.55935    237.51569    37599.264 
  852600    309.70299   -1560.7671    510.36869    342.65871   -249.93799    37599.264 
  852700    308.27577   -1531.7426    467.68799    322.58289    579.41342    37599.264 
  852800    298.07347    -1597.323    479.12417    222.54828    109.71425    37599.264 
  852900    306.44028   -1556.5301    485.79201    307.64325    262.97192    37599.264 
  853000    306.15937   -1522.6125    478.44079     332.9461    403.88301    37599.264 
  853100      306.517   -1558.8673    482.84822    302.70737    370.74833    37599.264 
  853200    297.02198   -1516.2541    488.07007    307.83347   -144.27695    37599.264 
  853300    304.02132   -1508.8552    479.50693    338.15249   -35.456156    37599.264 
  853400    296.21256   -1516.8142    452.50268    268.06509    74.884763    37599.264 
  853500    300.78254   -1537.0311    494.36152    310.26305    76.726878    37599.264 
  853600    293.93855   -1590.6384    467.70619    199.21588    374.91099    37599.264 
  853700    298.95873   -1560.2192    504.66376    289.17354    1310.8617    37599.264 
  853800     292.0927   -1526.0483    488.00459    275.80162    695.35811    37599.264 
  853900    304.20466   -1495.3908    489.76708    362.70174    546.83437    37599.264 
  854000    307.15782   -1493.2498     465.0191    353.37824    497.73947    37599.264 
  854100    300.40471   -1485.1081    465.44823     331.5732     -207.973    37599.264 
  854200    304.62589   -1510.1136    492.92793    353.03451    136.73148    37599.264 
  854300    294.90672   -1475.5664    467.99112    318.92768    195.64555    37599.264 
  854400    306.25296    -1488.149    461.98311    351.37292    599.16313    37599.264 
  854500    305.44604   -1534.8655    484.07309    323.11683    421.75829    37599.264 
  854600    305.97791   -1554.1315    470.05398    292.22402    595.38295    37599.264 
  854700     293.9822   -1551.1367    469.98215    241.18981    738.67586    37599.264 
  854800    304.18044   -1545.0268    474.73921     297.9289    172.30241    37599.264 
  854900    304.27325   -1543.1939    500.43833    325.87841    626.39703    37599.264 
  855000    289.34321   -1591.3067    466.81695    176.98825    52.619457    37599.264 
  855100     303.7641   -1575.4401    457.92718    248.83086    9.3094406    37599.264 
  855200    308.51651   -1556.0999    474.86535    306.48576   -99.729248    37599.264 
  855300    290.34667   -1516.9909    483.99587    272.99657   -41.868677    37599.264 
  855400    304.41831   -1519.0067    480.82458    331.10437     500.9219    37599.264 
  855500    309.19868   -1529.3375    495.94766     357.3989   -42.603141    37599.264 
  855600    287.54871   -1514.9642    473.57579    252.01789    73.776039    37599.264 
  855700    294.53665   -1522.9566    479.45992    281.34168   -600.21898    37599.264 
  855800    308.10113   -1481.9015    460.26874    364.21916   -155.63865    37599.264 
  855900    306.07097   -1517.1571       494.73    354.29305    67.354398    37599.264 
  856000    292.25884   -1521.9188    466.26216    258.93602    162.41663    37599.264 
  856100    295.04595   -1510.5116    491.64762    308.26517    721.96751    37599.264 
  856200    296.53003   -1484.6682    492.71588    341.85229    974.31511    37599.264 
  856300    294.43837   -1514.1127    501.65632     311.9399    238.17129    37599.264 
  856400    296.33742    -1498.306    477.39973    312.03202    696.53283    37599.264 
  856500    287.33355    -1517.698    504.70609    279.44656    603.68722    37599.264 
  856600    296.31043   -1489.8962    489.37931        332.3   -218.78351    37599.264 
  856700    306.11423   -1473.3998    482.21866    385.73368   -276.99365    37599.264 
  856800    294.96608   -1454.6629    504.32236    376.42942   -732.16635    37599.264 
  856900    304.85782   -1462.6706    465.24314    373.83595   -364.28834    37599.264 
  857000    301.90309   -1476.1918    487.80267    369.58376    -164.8481    37599.264 
  857100    299.82996   -1491.9732    486.25193    342.92655    280.01903    37599.264 
  857200    303.66792   -1532.7735    455.70112    288.83878    181.21299    37599.264 
  857300    296.63549   -1503.5899    514.39132    345.08039   -282.72953    37599.264 
  857400    308.39883   -1488.7236     499.0747     397.5421   -291.13835    37599.264 
  857500    307.44068    -1501.363    494.22028    375.73843   -30.287144    37599.264 
  857600    300.95946    -1506.675    472.26092     319.3143    15.916667    37599.264 
  857700    311.92879   -1541.8486    498.99478    360.21506    420.36832    37599.264 
  857800    305.69565    -1527.812     479.1153    326.33527   -93.204704    37599.264 
  857900    297.02303   -1493.3193    470.78487    313.48769   -64.476405    37599.264 
  858000    294.13986   -1565.1591    495.86662    253.76102   -538.70109    37599.264 
  858100    306.35925   -1508.7144    483.71662     353.0191   -354.26712    37599.264 
  858200    310.41613   -1503.5466    464.39723    357.11552   -513.62689    37599.264 
  858300    308.13462   -1485.6537    495.73311    396.08195   -1094.9768    37599.264 
  858400    305.63616    -1571.716    483.33667    286.38508   -178.86625    37599.264 
  858500    307.79045    -1567.253    493.07238    310.27386   -170.02944    37599.264 
  858600    296.01582   -1495.0033    495.39748    331.88588   -278.82719    37599.264 
  858700    295.76128   -1530.8815    490.44753    289.91282   -68.639168    37599.264 
  858800    302.19692     -1530.24    476.97666    306.03124    474.79792    37599.264 
  858900     302.9746   -1530.3042    481.92354    314.41198    821.78415    37599.264 
  859000     305.0654    -1559.059    494.90648    308.04453    641.96407    37599.264 
  859100    300.18022   -1559.0067    459.03866    250.25528    341.55161    37599.264 
  859200    299.50553   -1522.0697    497.68431    322.80313    430.17586    37599.264 
  859300    292.88962    -1569.761    465.38021    213.04916    215.88341    37599.264 
  859400    296.88521    -1546.391    483.92369    272.93493   -98.227963    37599.264 
  859500    296.56459   -1500.0078    461.00275    294.95501    20.405475    37599.264 
  859600     303.8231   -1569.7498    473.69113    270.55051    145.98987    37599.264 
  859700     299.7598   -1571.5858    496.05155    272.79805   -100.06994    37599.264 
  859800    302.71401   -1576.8806    465.19887    249.93876   -337.98446    37599.264 
  859900    289.53263   -1604.0183    478.98619    177.29794    76.434177    37599.264 
  860000    305.33514   -1581.5038    483.44509    275.35175    186.28515    37599.264 
  860100    289.71218   -1576.9891     503.8716    230.02012    822.62715    37599.264 
  860200    292.63612   -1593.7259    531.79255    254.35627    1059.9286    37599.264 
  860300    293.69962     -1553.33    501.18978    268.93313    577.51913    37599.264 
  860400    315.52657   -1543.1993    499.25283    375.30545    135.20607    37599.264 
  860500     308.2218   -1520.4905    493.21928     359.1235    142.55779    37599.264 
  860600    294.45412    -1542.994    461.55439    243.02747   -363.74752    37599.264 
  860700    299.61597   -1574.6573    479.77456    252.80258   -151.54276    37599.264 
  860800    295.43662   -1579.6181    478.35815    227.62645    41.863311    37599.264 
  860900    294.25693   -1573.6946     484.6419    234.52741    636.08409    37599.264 
  861000    299.75267   -1550.4587    497.81518    295.65664    760.66672    37599.264 
  861100    295.72639   -1578.6998    525.73858    277.22857    133.77807    37599.264 
  861200    313.69496   -1527.3997    495.16373    378.77724   -440.57321    37599.264 
  861300    301.33923    -1542.415    510.23988    323.26155   -992.14609    37599.264 
  861400    285.95549   -1504.2289    477.08045    259.09148   -1271.4139    37599.264 
  861500     302.9597     -1524.07    485.52692    324.18247   -583.23231    37599.264 
  861600    309.37225   -1508.0911    492.44612    375.92447   -412.53875    37599.264 
  861700    303.81537   -1547.5145     489.2148    308.27468    24.862009    37599.264 
  861800     303.2428   -1556.1686    507.33267    315.16307   -517.77785    37599.264 
  861900    301.41014   -1535.9573    478.42729    298.22559   -234.03395    37599.264 
  862000    298.11736   -1537.8387    508.72002    311.82581   -144.70667    37599.264 
  862100    304.42787   -1558.5279    487.33621    298.13777   -208.35484    37599.264 
  862200    309.93834   -1515.3922     496.8083    375.53185   -367.86175    37599.264 
  862300    299.10123   -1494.9633    506.36278    356.76944   -284.30298    37599.264 
  862400    303.33407   -1503.8582    489.03049    349.58183    -261.6729    37599.264 
  862500     300.1456   -1524.7275    494.82911    320.16925   -188.14976    37599.264 
  862600     299.5976   -1569.3899    465.90797    244.12075    -58.04417    37599.264 
  862700    306.49747   -1528.8695    478.84028    328.60935    386.07781    37599.264 
  862800    296.72005   -1559.1657    488.17755    263.67114    144.25101    37599.264 
  862900    299.97667   -1558.4484    483.94221     274.8016   -215.74998    37599.264 
  863000    307.46324   -1522.0738    490.53665    351.44558    222.60506    37599.264 
  863100    301.62354   -1511.9167    504.34138    349.14016    590.29095    37599.264 
  863200    288.30789   -1482.6614    525.22998    339.38962    974.53663    37599.264 
  863300    292.35307   -1542.8438    517.95938    290.13202    737.34316    37599.264 
  863400    298.90319   -1522.1017    476.22868    298.60613    485.98593    37599.264 
  863500    300.76529   -1516.8981    496.78551    332.74245   -176.00356    37599.264 
  863600    299.97515   -1537.6724    487.28977    298.91832    38.011646    37599.264 
  863700    309.96317   -1507.4722    496.81233    383.56761    -134.8459    37599.264 
  863800    298.61108    -1521.026    491.68614    313.82547   -502.63951    37599.264 
  863900    293.48355   -1532.9105    477.65867    264.84965    -430.7782    37599.264 
  864000    309.02405   -1537.9804    473.20083    325.22364   -412.46494    37599.264 
  864100    293.28299   -1563.8987    456.27957    211.58021    102.72022    37599.264 
  864200    302.35395    -1544.393    499.85546    315.46332   -272.56169    37599.264 
  864300     298.4181   -1553.6027    479.85347    268.54806    189.41512    37599.264 
  864400    291.84907   -1506.5719    499.03403    305.21157    197.11038    37599.264 
  864500    306.54044   -1503.2472    512.55035      388.135   -41.855205    37599.264 
  864600    308.67695   -1521.4121    508.23672    375.26659    791.35713    37599.264 
  864700    309.01052   -1520.6546    490.04391    359.33171    878.06605    37599.264 
  864800    299.48451   -1516.1374     492.5797    323.53631     751.9097    37599.264 
  864900    293.40964   -1552.4037    506.68975    274.05499    465.24885    37599.264 
  865000    306.68372   -1519.5682    522.30109    382.20925    847.69987    37599.264 
  865100    298.53549   -1522.2793    478.16676    298.71277     197.5664    37599.264 
  865200    305.58886   -1539.8947    489.40567    324.06262   -204.83743    37599.264 
  865300    291.20346   -1488.3813     491.4411    312.90527   -406.06285    37599.264 
  865400    301.65472    -1516.301     501.6243    342.17899   -356.80753    37599.264 
  865500    303.16092   -1499.9296     493.2536    356.95465   -386.05952    37599.264 
  865600    296.41903   -1476.4351    491.80385    348.67416    160.35027    37599.264 
  865700    298.82238   -1480.0935    486.47037    350.49264   -235.29989    37599.264 
  865800    305.48269    -1498.555    482.48852    358.00756   -707.50202    37599.264 
  865900    301.88163   -1537.0804    453.29267    274.08865    -416.3808    37599.264 
  866000    314.64135   -1506.5383    479.82437     388.5562   -397.77341    37599.264 
  866100    288.45367   -1527.1309    488.12598    258.47185   -600.18847    37599.264 
  866200    297.59845   -1527.4953    453.25058    264.36568    86.234682    37599.264 
  866300     304.6523   -1541.9963     493.5967    321.93932   -87.762116    37599.264 
  866400     302.4359   -1553.0942    481.98138    289.25669    283.10861    37599.264 
  866500    292.54868   -1616.6932    491.05039    190.25356    76.473966    37599.264 
  866600    309.05782   -1567.6262    481.32566    303.85467    384.47455    37599.264 
  866700    290.87774   -1576.3788    485.16131    217.16294    513.32717    37599.264 
  866800    292.17781   -1517.3444    493.17442    290.05813      651.943    37599.264 
  866900     312.8938   -1561.0094    492.15966    338.55981    523.49846    37599.264 
  867000    304.41688   -1545.8538    482.18924    305.61544    -3.103965    37599.264 
  867100    299.14005    -1542.302    444.56686    247.80952    388.05104    37599.264 
  867200    298.66558   -1572.5799    500.09023    270.92079   -49.235309    37599.264 
  867300    294.22195   -1568.9785    498.90413    253.34847    170.16356    37599.264 
  867400    299.01692   -1546.6372    486.07821    284.43175    476.46714    37599.264 
  867500    303.11576   -1529.4235    478.19029    312.19428     103.8263    37599.264 
  867600    287.82767   -1529.1378    491.29276    256.81607   -534.32865    37599.264 
  867700    287.37397   -1531.6084    475.61491    236.62674    263.72675    37599.264 
  867800    294.09866   -1535.1412    524.14469     311.8717    655.02152    37599.264 
  867900    303.63686   -1547.5286    491.60327    309.84612     891.9917    37599.264 
  868000    296.44039   -1527.0124    501.85172     308.2407    748.09852    37599.264 
  868100    307.97057    -1525.701    512.53009    372.09375     1171.218    37599.264 
  868200    293.23752   -1509.8132    479.23878     288.4204     751.8471    37599.264 
  868300    306.33778   -1535.4693    512.15516    354.60613    295.63961    37599.264 
  868400    300.49548   -1487.3873     461.0725    325.32654    452.81114    37599.264 
  868500    303.60582    -1537.424    488.83636    317.04424    391.53582    37599.264 
  868600     290.5948    -1497.812     480.9034    290.19912     272.8756    37599.264 
  868700    304.48345   -1490.5809    559.40811    438.40663    971.18672    37599.264 
  868800    301.27057   -1515.9981    457.70425      296.834    871.06051    37599.264 
  868900    305.66016   -1493.1157    507.57987    389.33656    1049.2635    37599.264 
  869000    298.56755   -1530.4829     477.8787    290.36525     1136.288    37599.264 
  869100    298.30418   -1477.0843    538.51461    403.21517    1285.5397    37599.264 
  869200    295.61762   -1490.6134    492.03747    331.12468    443.31045    37599.264 
  869300    284.66475   -1494.6006    496.22151    282.05505   -312.67529    37599.264 
  869400    309.16077   -1487.3498    504.81647    408.08494    173.04546    37599.264 
  869500    312.72433   -1529.6048    475.79527    352.83771    153.89074    37599.264 
  869600    294.54342   -1540.2272    502.42475    287.06629   -391.24165    37599.264 
  869700    305.03229   -1468.1436    496.32101    400.22558    303.56598    37599.264 
  869800     292.8672   -1494.9882    495.13541    317.47634   -433.10201    37599.264 
  869900    296.99818   -1520.0864     494.5946    310.41864    67.460467    37599.264 
  870000    302.48046   -1537.0121    470.43291    293.99076   -452.58081    37599.264 
  870100    306.34486   -1512.6206    482.80724    348.13882    25.432041    37599.264 
  870200    300.13342   -1533.2685    452.82778    269.57217   -12.146263    37599.264 
  870300    300.13633   -1529.1316    516.33872    337.23308   -412.76924    37599.264 
  870400    286.66079   -1553.7426    458.47297    194.14273    -636.8911    37599.264 
  870500    308.08658   -1537.2426    490.13016    338.67406    504.77604    37599.264 
  870600    307.92618   -1556.5299    472.02282    300.55787    368.69347    37599.264 
  870700     294.1308   -1525.5946    520.51277    317.93094    675.51764    37599.264 
  870800    294.99401     -1534.86    471.64082    263.67637    520.25623    37599.264 
  870900    296.55651   -1534.0374    514.59859     314.4849    389.58747    37599.264 
  871000    295.32719   -1538.7423    488.37836    278.03027    531.35904    37599.264 
  871100    288.30203   -1550.2598    513.56402    260.09895   -78.228912    37599.264 
  871200    305.62566   -1526.3806    494.07392     342.4105    234.28071    37599.264 
  871300    312.51246    -1518.811    533.57879    420.46208   -3.8231078    37599.264 
  871400     307.5194      -1494.8    498.58551    387.02078    507.33022    37599.264 
  871500    312.70416   -1502.0073    515.85192    420.40115   -83.640136    37599.264 
  871600    296.97964   -1494.3837    513.70206    355.14542   -290.71442    37599.264 
  871700     292.4394   -1515.7588    499.97419    299.62021   -767.41412    37599.264 
  871800    293.60426   -1527.1233    484.61659    278.13767   -21.871823    37599.264 
  871900    300.54554   -1520.7283    499.95115    331.08941   -104.55458    37599.264 
  872000    299.20439   -1566.4156    509.78421    289.20268   -122.53903    37599.264 
  872100    306.17091   -1553.4134    491.45805    315.21441    -239.4435    37599.264 
  872200    299.00221    -1556.246    469.20721    257.88581   -314.38037    37599.264 
  872300    303.59967   -1530.2764    515.71984    351.04756   -91.839376    37599.264 
  872400    306.96541   -1583.8133    451.13116    248.06129   -405.48459    37599.264 
  872500     302.2798   -1543.0954    485.55523    302.12715    -178.4448    37599.264 
  872600    300.19007   -1531.7823    491.43471    309.92009   -288.60397    37599.264 
  872700    292.92868   -1527.9764    505.65167    295.28084    294.71952    37599.264 
  872800    299.41317   -1539.0137    498.95309    306.71249    412.78875    37599.264 
  872900    299.31653   -1499.4739    507.70032    354.56485    79.067697    37599.264 
  873000    300.53643   -1573.8915    501.27521    279.20929     314.6255    37599.264 
  873100    287.10986   -1569.9971    473.59771    195.03296   -14.321172    37599.264 
  873200    288.06794     -1513.92    504.26532    286.08714    229.62333    37599.264 
  873300    290.61631   -1539.9323    506.76758    274.03977   -199.48008    37599.264 
  873400     298.2507   -1554.1764    483.14311    270.51101    71.397231    37599.264 
  873500    301.69276   -1571.7805    507.42935    292.67564    49.850043    37599.264 
  873600     298.2074   -1528.4285    463.04459    275.96563    160.72763    37599.264 
  873700    303.52074   -1496.8164    519.50657    387.93933   -391.36138    37599.264 
  873800    302.62793   -1500.2304    517.93166    378.93447    54.972269    37599.264 
  873900    294.53324   -1527.0002    518.82918    316.65191   -549.22663    37599.264 
  874000    306.35608   -1472.6937    497.32638     402.6353   -134.73291    37599.264 
  874100    305.99669   -1489.9834    506.17996    392.58262    -576.4186    37599.264 
  874200    288.54175   -1480.1608    510.04474     327.7569   -936.87552    37599.264 
  874300    303.26033    -1510.021    472.38884    326.44561   -367.41813    37599.264 
  874400    304.00922   -1513.3561    493.47645    347.56671   -310.35053    37599.264 
  874500    303.32527   -1528.2207    512.80316    348.95235   -216.21392    37599.264 
  874600    302.01986   -1535.0243    505.84929    329.32316    40.337538    37599.264 
  874700    303.23618   -1537.0102    493.33432    320.29327   -95.222223    37599.264 
  874800    296.59564   -1482.6521    528.74239    380.19004   -587.89705    37599.264 
  874900    303.18298   -1520.3403    494.76793    338.15752   -109.20677    37599.264 
  875000    307.03745   -1505.7961    491.17434    366.44571    88.144185    37599.264 
  875100     301.6956   -1491.4769    514.83349    380.39623   -229.45529    37599.264 
  875200    296.56991   -1452.5957    529.74973    411.13805   -383.32551    37599.264 
  875300    304.82192   -1472.3801    491.01682    389.73861    -349.0895    37599.264 
  875400    288.21459   -1458.0495    512.26341    350.61533   -250.68034    37599.264 
  875500    305.42834   -1497.0083     496.2185    373.03981    82.764107    37599.264 
  875600    309.07417   -1515.8321    515.91059    390.30722    204.64331    37599.264 
  875700    305.84642   -1498.1565    481.90468    359.45836    152.71931    37599.264 
  875800    300.33447   -1516.9385    487.44796    321.42662   -143.74604    37599.264 
  875900    288.48487   -1475.4369    513.69922    335.87952   -141.14747    37599.264 
  876000    307.76079   -1522.3706    484.99712    346.94756     138.5251    37599.264 
  876100    304.84036    -1510.182    506.33222    367.33508   -591.17543    37599.264 
  876200    300.20809   -1505.7745    491.76612    336.34033    54.159128    37599.264 
  876300    303.45134   -1520.1907     493.1991    337.94539   -28.272065    37599.264 
  876400    302.30959   -1500.7426    488.16023    347.21894   -337.85532    37599.264 
  876500    296.44115   -1538.6387    496.92207    291.68829   -95.307153    37599.264 
  876600    298.02097   -1576.5913    497.07398    260.99357    361.66829    37599.264 
  876700    303.36061   -1517.1715    511.68308     359.0404    937.84659    37599.264 
  876800    304.70365    -1561.826    505.11458    313.85848    1054.9768    37599.264 
  876900    297.08518    -1538.321      519.185    317.16579    451.43289    37599.264 
  877000    290.86041   -1505.3278    479.67261    282.64727    115.93125    37599.264 
  877100    298.36878   -1556.4371     491.3301    276.96844   -171.26226    37599.264 
  877200    298.09264   -1522.7653    492.91236    310.98032   -256.27028    37599.264 
  877300    292.14781   -1531.8053    492.75434    275.04227   -406.03416    37599.264 
  877400    289.31712   -1540.6054    490.09913    250.85442    -146.2829    37599.264 
  877500     292.8652   -1550.5518    489.06434    255.83262    285.46638    37599.264 
  877600    303.64545   -1557.6375    491.67089    299.84355    76.305645    37599.264 
  877700    301.60432   -1568.9641    501.90555     289.5705    384.30415    37599.264 
  877800    298.60842   -1552.2767    522.76659    313.64326   -44.815134    37599.264 
  877900     309.7805   -1566.4569    475.36948    302.31842   -108.41973    37599.264 
  878000    305.70679   -1606.2616    493.80257     262.6231   -208.41647    37599.264 
  878100     302.4977   -1574.8915    481.13813    266.89409    43.937066    37599.264 
  878200    304.43621   -1583.6372    468.45675    254.18651   -256.09864    37599.264 
  878300    292.17363   -1571.8711    478.73015    221.06846    34.392883    37599.264 
  878400    306.43087   -1555.9171    489.10429    311.52625    144.33205    37599.264 
  878500    306.90645   -1549.8104    495.15239    325.82019    432.98139    37599.264 
  878600    307.99354   -1539.4433    470.92132    316.84603   -72.029927    37599.264 
  878700    297.60188   -1560.4634    494.76391    272.92638     422.3706    37599.264 
  878800    301.40255   -1594.1571    468.27312    229.83743    821.23319    37599.264 
  878900    296.95594   -1580.0011    499.96578    255.68506    187.20549    37599.264 
  879000    307.88698   -1551.6761    497.83526    331.04789   -248.40102    37599.264 
  879100    302.33964   -1553.1102    523.06936    329.89566   -342.85913    37599.264 
  879200    306.67319   -1529.8649    479.44826    329.01233   -100.08076    37599.264 
  879300    299.96092    -1542.237     501.1758    308.17572    -264.1466    37599.264 
  879400    301.84302   -1521.4994    500.42643    336.62967   -430.56564    37599.264 
  879500    302.58043   -1494.9354    505.52329    371.60751   -36.967921    37599.264 
  879600    299.62437   -1524.1599    468.39692    291.96011   -226.92998    37599.264 
  879700    304.40212   -1509.0201    484.93762    345.13119   -509.96918    37599.264 
  879800    306.38407   -1529.4276    488.67822    337.37916   -441.31832    37599.264 
  879900    302.33188   -1483.8008    473.54543    349.64618   -461.62574    37599.264 
  880000    301.87157   -1535.9972    490.76778     312.6017    418.31048    37599.264 
  880100    291.72742   -1482.9454    509.43122    338.68812   -86.241815    37599.264 
  880200    291.30146   -1489.1495    489.39277    310.52961   -740.19188    37599.264 
  880300    306.11188   -1464.4089    489.43679    401.93204   -719.37162    37599.264 
  880400    292.94366   -1477.7974    498.80365    338.67919   -296.14422    37599.264 
  880500    290.02547   -1483.7766    500.72488    321.49512    356.43158    37599.264 
  880600    300.64906    -1463.374    493.05261    382.01082    463.06379    37599.264 
  880700      301.245   -1470.5486    511.93688    396.40099     324.9943    37599.264 
  880800    289.89697    -1513.376    500.86167    291.45452   -33.859262    37599.264 
  880900    293.74216    -1523.166    515.35072    313.44944    371.54118    37599.264 
  881000    295.35425    -1490.391    496.48239    334.60734    220.25016    37599.264 
  881100    300.92523   -1514.1482    486.02327    325.44948    152.33587    37599.264 
  881200    291.59161   -1497.0002    506.68825    321.27944     332.2816    37599.264 
  881300    294.83592   -1598.3038    498.47869    226.35934     443.3768    37599.264 
  881400    301.20453   -1535.2192    490.19809    309.80967   -177.98508    37599.264 
  881500    306.94339   -1532.6821    472.04421    320.00645    240.72805    37599.264 
  881600    310.32521   -1537.0387    508.71113    367.52834    624.51009    37599.264 
  881700    307.02124   -1565.0375    483.21754    299.17462   -4.8750999    37599.264 
  881800    299.59226   -1572.8815    473.16395    247.86111   -138.22172    37599.264 
  881900    299.57131   -1551.0215    476.19153     272.6545    -560.9856    37599.264 
  882000    294.97219   -1571.6722    486.09502    241.22022   -544.42063    37599.264 
  882100     302.7428   -1558.3441    466.91222    270.31809   -285.65515    37599.264 
  882200     307.8763   -1534.5329    492.91131    343.21906   -827.62479    37599.264 
  882300    300.10158   -1543.5327    446.24393    252.58085   -376.04024    37599.264 
  882400    293.71824   -1515.1748    527.67906    333.66131   -371.98054    37599.264 
  882500     303.5614   -1500.5813    476.94379    341.79448   -236.73107    37599.264 
  882600    296.01178   -1513.3871    456.56381    274.65023    114.42982    37599.264 
  882700    298.37824   -1511.2823    506.59721    337.43283   -66.505175    37599.264 
  882800    295.98371   -1506.2365    490.65276    315.76358   -328.38944    37599.264 
  882900    299.00225   -1571.4676    463.21071     236.6679    132.56441    37599.264 
  883000    301.02347   -1543.5042    483.23147    293.74356    -198.0103    37599.264 
  883100    279.74125   -1576.0177     433.9854    116.25568   -457.92943    37599.264 
  883200    302.68593   -1541.8378    489.54112    309.19747   -370.30573    37599.264 
  883300    298.85474   -1545.6713    456.60772    255.19771   -350.23625    37599.264 
  883400    298.79989   -1540.4795    474.96188    278.49697   -19.181208    37599.264 
  883500    297.19999   -1553.1427    514.71282    298.38821   -66.969159    37599.264 
  883600      308.567   -1545.3194    448.08644    290.71452    444.92277    37599.264 
  883700    296.13201   -1504.1618    473.67412    301.52663    336.40953    37599.264 
  883800    299.18226   -1522.9679    492.89511    315.66165   -77.945748    37599.264 
  883900    298.41561   -1509.6743    476.77613    309.38788    -14.31632    37599.264 
  884000    286.99826    -1526.256    493.63705    258.31135   -687.30054    37599.264 
  884100    298.10355   -1539.0614    472.03324    273.85421   -145.42515    37599.264 
  884200    311.81586   -1557.6464    462.25802    307.17253   -548.09211    37599.264 
  884300     292.3888   -1537.4132    489.87652    267.64049   -431.11467    37599.264 
  884400    290.32877   -1553.1417    476.21535    228.98472   -728.54994    37599.264 
  884500    303.67514   -1493.1318    471.68721     344.4991   -729.05621    37599.264 
  884600    304.19275   -1533.0256    470.83874    306.08505   -727.39319    37599.264 
  884700    292.28572   -1521.0013    469.23915    262.95142   -301.30658    37599.264 
  884800    300.76827   -1468.6295    478.84488    363.08382    264.14704    37599.264 
  884900    309.94387   -1515.7265    483.91686    362.33095    152.67784    37599.264 
  885000    291.50198   -1515.4517    496.13533    291.87191    161.84077    37599.264 
  885100    294.03216   -1462.2735    503.56538    363.86099   -235.80021    37599.264 
  885200    301.13182    -1453.436     497.9004    398.96814    201.05682    37599.264 
  885300    291.51752   -1489.7889    480.33846    301.80775   -326.63968    37599.264 
  885400    297.24295   -1475.7918    474.44493    335.66449    227.21959    37599.264 
  885500    300.50617    -1470.292    476.52249    357.91997    62.616281    37599.264 
  885600    296.63803   -1457.2104    501.53348    378.61352    273.54491    37599.264 
  885700    294.43919   -1482.4552    474.26587    316.21069   -237.13932    37599.264 
  885800    296.34812   -1500.7046    479.68333    311.96512   -382.18722    37599.264 
  885900    301.66894   -1470.6483    487.14776     373.4191   -403.79132    37599.264 
  886000    296.17211   -1481.8792     485.8828    336.19834   -233.96772    37599.264 
  886100    305.10386    -1497.261    471.45219    346.56129   -168.27084    37599.264 
  886200     313.8074   -1493.9863    441.97768    359.51036   -141.57054    37599.264 
  886300    296.83401    -1504.051    500.95355    332.07444     410.6361    37599.264 
  886400    303.50343   -1525.3931    473.46945    313.24763    722.72419    37599.264 
  886500    304.77845   -1488.3141    485.58941    368.18166    125.85366    37599.264 
  886600    296.11298   -1454.5183    490.05734    367.46774    26.403686    37599.264 
  886700    306.67655   -1445.6827    510.44998    444.21142    107.98798    37599.264 
  886800    289.21229   -1469.5896    487.30134    318.60084    357.30578    37599.264 
  886900    307.35739   -1480.3913    513.89916     416.0144    735.56561    37599.264 
  887000    295.30096   -1477.1068    464.98893    316.15835    167.87357    37599.264 
  887100     301.3605   -1475.3519    492.53228    372.71268    19.816885    37599.264 
  887200    299.00991   -1472.5783    489.14424    361.52514    -272.1808    37599.264 
  887300    291.40214   -1465.5471    495.82201    341.01404   -92.007214    37599.264 
  887400    296.83964    -1438.852    491.83137    388.17666   -56.308332    37599.264 
  887500     305.5537   -1450.2621    493.74924    417.88063   -518.16406    37599.264 
  887600    286.88462   -1452.8871    473.67486    311.20692   -685.65546    37599.264 
  887700    302.76183   -1446.3102    497.23541    412.76078    132.32565    37599.264 
  887800    306.07917   -1432.3862    462.06446    406.43533    192.62971    37599.264 
  887900     300.1772   -1443.6655     468.6119    375.15612   -517.43526    37599.264 
  888000    302.69189   -1469.7781    476.91842    368.66127   -53.340245    37599.264 
  888100    304.33179   -1466.8901    498.16051    400.16772   -791.37927    37599.264 
  888200    294.67373   -1489.1573     466.0917    302.38932   -286.49653    37599.264 
  888300    298.96663   -1471.4458    501.46735    374.78607   -210.72274    37599.264 
  888400    300.55584   -1487.4252    486.03161     350.5193   -474.29833    37599.264 
  888500      303.581   -1450.9831    519.69503    434.23217   -439.22549    37599.264 
  888600    305.41793   -1461.7321    495.94456    407.99521   -118.77771    37599.264 
  888700    289.55778   -1474.4263     503.9534    331.97023   -913.00417    37599.264 
  888800    302.68311    -1450.841    500.11696    410.75742   -573.42088    37599.264 
  888900     288.6719   -1478.5275     492.5849    312.51581   -256.26421    37599.264 
  889000    285.59696   -1510.5852    484.43188    258.47385   -372.29519    37599.264 
  889100    300.86414   -1503.0589    482.45974    332.70052   -401.10622    37599.264 
  889200    299.98989   -1488.9524    498.70182    359.11661    322.22491    37599.264 
  889300    289.19842   -1486.4453    503.57663    317.95804    281.73353    37599.264 
  889400    302.36138   -1462.4685    473.56589    371.13168    497.65617    37599.264 
  889500    302.90182   -1434.6158    508.56935    436.41876    44.072298    37599.264 
  889600    305.73697   -1425.8618    488.52807    437.88413   -582.86299    37599.264 
  889700    294.74406   -1404.5057    488.39092     409.6565   -856.38131    37599.264 
  889800    290.05691   -1449.4084    508.01964    363.29954   -425.80434    37599.264 
  889900    305.64999   -1441.4831    455.56352      388.907   -743.72567    37599.264 
  890000    312.15565   -1431.1881    494.17574      467.077    180.20531    37599.264 
  890100    297.02569   -1484.1056    499.45939    351.38791    412.37592    37599.264 
  890200    293.84511   -1454.8327    506.77629    373.67132   -217.27092    37599.264 
  890300    304.09619   -1461.0252     496.8695     403.6819    388.73257    37599.264 
  890400    296.08686   -1471.8896    472.73066    332.65232    218.84824    37599.264 
  890500    296.43933    -1446.847    499.99632    386.54602     884.2812    37599.264 
  890600    299.67373   -1483.7495    482.45332    346.64891    607.71981    37599.264 
  890700    303.17031   -1511.3774    490.72723    343.02274    594.84613    37599.264 
  890800     302.5842   -1506.9835     493.7038    347.75683    413.13321    37599.264 
  890900    305.97445   -1539.4701    479.20039    316.01633   -43.829795    37599.264 
  891000    287.93655   -1515.9619    495.43118    274.62008   -191.17843    37599.264 
  891100    288.76865   -1508.6776    486.87618    277.09225    174.01194    37599.264 
  891200    294.27101   -1452.1999    501.59382    373.03736   -244.84064    37599.264 
  891300    292.37537   -1497.3116    478.86366    296.66886   -157.23055    37599.264 
  891400    298.99694   -1504.3648      491.332    331.86804    340.69223    37599.264 
  891500    304.85273    -1453.352    494.01489    411.90341    374.29443    37599.264 
  891600      300.041   -1462.4678    520.04828    407.17759    543.95547    37599.264 
  891700    298.69485   -1472.5283    480.56433    351.57809    87.800448    37599.264 
  891800     304.4402   -1458.3663    511.59797    422.61659    172.16202    37599.264 
  891900    314.59756   -1456.6604    477.21766    435.63042   -432.25828    37599.264 
  892000    307.02388   -1417.0598     488.1635    452.11015   -409.76265    37599.264 
  892100    306.34021   -1437.5949    491.07676    431.41313    247.86132    37599.264 
  892200    295.64255   -1444.3463    503.31188    388.77833   -4.6001869    37599.264 
  892300    300.69016   -1490.9682    487.52082    349.06976    65.047701    37599.264 
  892400    300.15104   -1458.0806    502.01211    394.02362   -21.563463    37599.264 
  892500    293.96116    -1502.526    488.58991    308.31367   -230.77058    37599.264 
  892600    299.80333   -1494.9366    488.32471    341.91619   -178.00405    37599.264 
  892700    295.49806   -1521.4388    476.65541    284.37941     -212.085    37599.264 
  892800    303.91976   -1506.3368    495.20556    355.91268    317.64197    37599.264 
  892900    280.25947    -1508.987    474.81326    226.44521    141.10011    37599.264 
  893000    294.41234   -1493.6592    487.50111    318.12107   -244.14772    37599.264 
  893100    300.17062   -1518.1584    504.70506    336.72686    230.96829    37599.264 
  893200    288.49832   -1469.4633    516.03992    344.25434   -173.40811    37599.264 
  893300     301.3928   -1466.7741    496.91087    385.81431    212.79018    37599.264 
  893400    294.54369   -1443.3135    482.39373    363.95021    42.543803    37599.264 
  893500    294.28716   -1458.9068    487.99476    352.80406   -19.879129    37599.264 
  893600    298.69311   -1465.0855    520.50173    398.95045    163.26272    37599.264 
  893700    303.47587   -1473.3716    463.04824    354.72397    125.08308    37599.264 
  893800    295.41272   -1483.7346    495.94562    340.98996   -27.958338    37599.264 
  893900    299.32505   -1441.4223    494.82365    399.77811   -186.27158    37599.264 
  894000    302.38081   -1463.1151    479.99041    376.99698    278.07604    37599.264 
  894100    294.45065   -1486.9361    477.16799    314.68341   -4.6598793    37599.264 
  894200    305.98086   -1488.6057    479.73275    367.44189    21.976991    37599.264 
  894300    305.61363   -1484.7345    493.28685    383.21542   -103.35092    37599.264 
  894400    310.31607    -1464.734    499.74877    430.82962   -91.497962    37599.264 
  894500    304.80656   -1517.9307    487.16517    340.26733   -394.29662    37599.264 
  894600    302.20446   -1480.0908    484.64848    363.88615   -631.11848    37599.264 
  894700    305.37846   -1483.4419    472.47882    362.64216    55.952224    37599.264 
  894800    303.26815   -1499.6839    476.39753     340.8266   -297.96146    37599.264 
  894900    294.20325   -1520.3399    462.92289    265.92168   -333.43884    37599.264 
  895000     293.8561   -1535.3776    484.62271    271.02223   -655.61201    37599.264 
  895100    305.15332   -1522.8715    466.95834    316.67942    323.80309    37599.264 
  895200    303.16814   -1516.5771    490.85257    337.93859    639.80993    37599.264 
  895300    292.93181   -1528.0182    469.73562    259.33715    480.27492    37599.264 
  895400    291.40312   -1489.8292    483.11692    304.03134    114.30339    37599.264 
  895500    308.64795   -1543.6878    483.50318    328.12692    262.56421    37599.264 
  895600    307.03699    -1562.263    474.77872     293.5811    507.31393    37599.264 
  895700    308.88818   -1571.9057    462.43217    279.91853    252.72125    37599.264 
  895800    295.63248   -1534.3854    485.70457    281.08658     132.9078    37599.264 
  895900    304.16585   -1567.8752    476.13975    276.41544    746.14922    37599.264 
  896000    307.90115      -1524.9    473.80684    333.85927    95.957948    37599.264 
  896100    297.62138   -1536.0393    479.69796    282.37227    402.94769    37599.264 
  896200    291.07828   -1524.5563    498.54131    283.26745    403.18853    37599.264 
  896300    295.29785   -1533.7767    486.51295    280.99851    87.106952    37599.264 
  896400    302.25412   -1506.0866    493.63152    347.09678   -7.0980113    37599.264 
  896500    296.42917   -1510.3261    507.59245    330.61732   -36.902259    37599.264 
  896600    303.60132   -1519.7223    470.38444    316.27373   -675.27557    37599.264 
  896700    297.95078   -1477.1949    479.97303    342.97334   -532.18904    37599.264 
  896800    302.25325   -1491.3538    483.25841    351.45252   -1.0404262    37599.264 
  896900    297.25195   -1462.3855    501.73326    376.39959   -109.99468    37599.264 
  897000    294.27913   -1510.9299    478.41112    291.16122   -477.18006    37599.264 
  897100    307.27076    -1510.538    468.54344    340.12237    199.42335    37599.264 
  897200    296.18067   -1516.0175    500.82309    317.03882   -192.89866    37599.264 
  897300    294.42573    -1514.405    482.69938    292.63376   -145.54675    37599.264 
  897400    308.18059   -1490.9889     489.0633    384.28374   -120.33342    37599.264 
  897500    296.18759   -1538.1291    470.49114    264.62643   -203.12127    37599.264 
  897600    291.59853   -1535.3019    479.27402    255.59466   -228.11556    37599.264 
  897700    302.07873   -1521.7219    487.75036    324.79136   -118.02792    37599.264 
  897800    300.41553    -1507.361    481.69789    325.61864    33.652853    37599.264 
  897900    296.51998   -1546.8375      486.252    273.17392   -90.080641    37599.264 
  898000    286.85366   -1505.8494    453.63831    238.06883   -144.83864    37599.264 
  898100    299.64423   -1498.5788    489.98463    339.21828    276.23824    37599.264 
  898200    301.79825   -1540.7532    486.07632    302.82442    495.01657    37599.264 
  898300    292.29438   -1542.3755    474.95276    247.32972    483.34539    37599.264 
  898400     307.9198    -1511.431    473.67824    347.28362    1107.5312    37599.264 
  898500    292.99735   -1502.5886    474.79071     290.1166    595.54574    37599.264 
  898600    292.31576   -1527.6453    503.07073    290.27413    414.31984    37599.264 
  898700    305.86334   -1567.3735    489.41957    297.83238    866.16779    37599.264 
  898800     299.4989   -1562.3116    492.26134    277.10843     904.6007    37599.264 
  898900    300.84548   -1487.8896    484.08881    349.41491    464.48872    37599.264 
  899000    302.05522    -1500.696    493.51195    351.47316    318.90001    37599.264 
  899100    295.56873   -1511.4991    485.51086    303.49245    462.57994    37599.264 
  899200    303.44636   -1490.4799    501.48208    375.91679    960.28843    37599.264 
  899300    307.70514   -1490.7917     493.0566    386.33567    482.88587    37599.264 
  899400    295.52663   -1476.7248    499.68686    352.25341    144.17347    37599.264 
  899500    303.75372   -1472.3302    481.69533    375.66222   -522.98304    37599.264 
  899600     303.2719   -1517.4696    481.57534    328.23557   -554.02772    37599.264 
  899700    303.88262   -1531.4247    490.08712    325.53929    -385.9978    37599.264 
  899800    292.30707   -1517.1921    460.37226    257.98974   -464.67529    37599.264 
  899900    310.46774   -1543.3077    468.05517    321.24451   -568.65961    37599.264 
  900000    292.57355   -1523.8655    491.76388    283.90659    -502.3505    37599.264 
  900100    291.61179   -1490.0732    475.17973    296.78873   -66.059477    37599.264 
  900200    300.51564   -1470.0881    469.53817    351.18215   -48.300442    37599.264 
  900300    298.81876    -1495.495     502.8769    351.48136    457.40143    37599.264 
  900400    305.16472   -1508.8862    481.38407    345.14173    90.589406    37599.264 
  900500    298.74108    -1466.033    509.05177    386.76878    44.397369    37599.264 
  900600    296.08984   -1493.6087    479.73161    317.94757    77.650217    37599.264 
  900700    304.76016   -1488.2582    500.98097    383.54691    254.32594    37599.264 
  900800    304.21182   -1510.3412    486.03928    344.05576    616.98912    37599.264 
  900900    296.30247   -1507.6039     464.3049     289.4821    809.50432    37599.264 
  901000    312.18057   -1508.2088    470.68622    366.67886    309.11454    37599.264 
  901100    311.99928   -1538.4025    482.46597    347.44948    819.18612    37599.264 
  901200    297.40186   -1464.1246    501.99683    375.59833    410.40183    37599.264 
  901300    300.33221   -1500.5405    487.29629    337.66273    403.34872    37599.264 
  901400    300.71003   -1505.6124     506.9813    353.97531   -238.83294    37599.264 
  901500    297.54058   -1523.5721     489.2937    304.07172   -172.39203    37599.264 
  901600    289.39301   -1544.9209    486.71038    243.49155   -474.19568    37599.264 
  901700    299.66107   -1515.9242    480.37421    312.33821   -393.91728    37599.264 
  901800    303.63731   -1493.8688     507.5604    379.46505   -334.36726    37599.264 
  901900    296.60078   -1538.4391    472.02594    267.70971   -46.504184    37599.264 
  902000    310.83346   -1562.1337    505.58028    341.58867    499.19297    37599.264 
  902100    302.30657   -1559.6599    484.86841    284.99628    906.39253    37599.264 
  902200    310.49305    -1545.814    513.91778    364.71464    600.08179    37599.264 
  902300    296.08827   -1529.7716    469.44823    271.49422    328.01647    37599.264 
  902400    302.91884   -1570.2069    485.77385    278.10874    539.14239    37599.264 
  902500    306.93177   -1514.4878     470.2255    336.32982    300.54831    37599.264 
  902600    297.49349   -1553.7315     499.5936    284.00047    265.68945    37599.264 
  902700    304.33389   -1541.9479    501.72954    328.68834    293.40245    37599.264 
  902800    306.11184   -1559.2639    493.40651    311.04661    299.18763    37599.264 
  902900    299.73834   -1543.8935    472.95598    277.29825   -48.128339    37599.264 
  903000    300.51273   -1532.4563    494.38377    313.64644   -123.71293    37599.264 
  903100    296.60497   -1495.4423     505.0885     343.7879   -249.28327    37599.264 
  903200    307.00584   -1503.8206    501.27076    378.37548   -179.57125    37599.264 
  903300     303.1588   -1494.7994    499.30894    368.13072   -291.08936    37599.264 
  903400    298.17082   -1493.9863    479.89091    327.08963    679.64934    37599.264 
  903500    294.59571   -1500.4876    492.50241    317.11882   -294.95495    37599.264 
  903600     294.3914   -1469.1539    505.27196     360.3031    104.90915    37599.264 
  903700     305.4491   -1498.0776    492.15482    368.00027   -423.13054    37599.264 
  903800    299.95215   -1521.9209    488.30511    315.58169   -432.37884    37599.264 
  903900    300.78412   -1528.2071    482.03194    306.76457   -49.553032    37599.264 
  904000    294.51199   -1552.4188    495.02726    267.33587   -25.769384    37599.264 
  904100    294.94155   -1526.5445    497.28513    297.40025    83.549132    37599.264 
  904200    302.13645   -1512.4359    470.83857    317.42519   -45.742659    37599.264 
  904300    302.56057   -1464.4976     514.9471     411.3798   -35.150533    37599.264 
  904400    298.80519   -1469.3113    465.70511    340.43223    21.088973    37599.264 
  904500    301.34381   -1485.6989    500.41655    370.17486   -217.09714    37599.264 
  904600    300.02524   -1496.5687    480.44811    333.40562   -66.457832    37599.264 
  904700     308.4324   -1509.6441    484.67157    362.36949    370.20073    37599.264 
  904800    293.56219   -1503.8504    500.80803    317.41275    266.22755    37599.264 
  904900    290.81105   -1560.8987     464.9613    212.14305    762.79284    37599.264 
  905000    305.34675   -1513.1013    486.61816    346.97949    426.13437    37599.264 
  905100    293.94866   -1526.5076    467.01413    262.70001   -441.78576    37599.264 
  905200    308.97893   -1533.8053    489.76002    345.75503    -104.1176    37599.264 
  905300    301.28779   -1514.9953      473.535    313.74492   -258.07381    37599.264 
  905400    291.96468   -1516.5449    497.28639      294.011   -496.78717    37599.264 
  905500    308.93224   -1554.7028    484.68842    319.57595    86.150643    37599.264 
  905600    302.17553   -1543.4137    486.34627    302.13088    67.270821    37599.264 
  905700    308.41732    -1505.119    499.11414    381.26933    79.555213    37599.264 
  905800    298.03298    -1523.063    463.66549    281.16747    398.68011    37599.264 
  905900    296.00515   -1535.0684    498.30179    294.67705    -230.8042    37599.264 
  906000    302.75492   -1516.5572    495.12935    340.37665   -74.342004    37599.264 
  906100    293.50712   -1540.6457    458.54191    238.10361   -469.13142    37599.264 
  906200    306.74734   -1555.0429    495.94477    320.66437   -531.05926    37599.264 
  906300    311.27302   -1547.4496    472.82708    325.49678   -197.03913    37599.264 
  906400    304.85623   -1551.2534    486.96687    306.96971   -251.27112    37599.264 
  906500    303.44016   -1540.0737    471.53813    296.35115     716.2361    37599.264 
  906600    305.20675   -1516.5443    482.24627    338.53483    870.00171    37599.264 
  906700    290.89491   -1499.6067    497.01552     305.8664    1284.8343    37599.264 
  906800     303.0235   -1513.1418    489.42734    339.29808    924.40184    37599.264 
  906900    302.00089   -1538.1502    490.40897    310.67161    663.59598    37599.264 
  907000    298.80666    -1512.721    499.78055    331.10459    814.77745    37599.264 
  907100    303.03491   -1492.2801    513.25108    384.03482    1020.9948    37599.264 
  907200    302.92085   -1514.9704    486.88052    334.46097    528.31447    37599.264 
  907300    292.89788   -1498.8935     508.5278    327.10144    17.903677    37599.264 
  907400    287.14217   -1488.2828    483.11112    286.40598   -250.99498    37599.264 
  907500    307.27409   -1489.5688    484.92987    377.49293   -390.73807    37599.264 
  907600    299.71194   -1524.7847    463.48902     286.8213   -507.62348    37599.264 
  907700    289.56908   -1568.6415    484.14686    217.99932      18.1672    37599.264 
  907800    296.73188   -1558.6137    482.73957    258.83844    182.81321    37599.264 
  907900    310.55027   -1518.4946    500.72188    379.09553     169.2326    37599.264 
  908000    294.76702   -1526.9345    490.43171    289.37173    250.30142    37599.264 
  908100    302.47968   -1540.2738    466.75983     287.0524   -19.801604    37599.264 
  908200    290.48759   -1522.4806    498.58251     282.7274    285.51523    37599.264 
  908300     305.5291   -1573.1129    490.45428    291.62422    490.62463    37599.264 
  908400     308.7314    -1567.466    481.62911    302.85004    723.07699    37599.264 
  908500    305.58055   -1553.1204    473.18951    294.58333    793.53653    37599.264 
  908600    303.76912   -1565.1614    483.34008    284.54504    200.02229    37599.264 
  908700    293.53114   -1624.7101    459.76303    155.36847   -177.56764    37599.264 
  908800    304.28176   -1558.8609    460.13714    269.94848   -352.37085    37599.264 
  908900    298.38213    -1544.426    458.47571    256.18513    61.440395    37599.264 
  909000    294.21545   -1565.6814    493.86949    251.58161    713.01574    37599.264 
  909100    295.80355   -1546.7392    484.05644    267.85409    353.01258    37599.264 
  909200    290.50473   -1546.7101    501.05266    261.04511   -322.51366    37599.264 
  909300    304.87805   -1520.9149     472.9149    323.35433    169.89402    37599.264 
  909400    295.31366   -1524.2048    498.89859    303.02712   -158.16001    37599.264 
  909500    291.17236    -1523.268     505.0757    291.51325     349.4435    37599.264 
  909600     304.8903   -1554.8854    450.73646    267.26055    341.56913    37599.264 
  909700    294.94554   -1561.7393    475.91136    240.84965    335.88376    37599.264 
  909800    315.43372   -1528.4633    445.41505    335.78593    391.83837    37599.264 
  909900    303.94319   -1524.7841    487.79313    330.15837   -102.71156    37599.264 
  910000    293.67552   -1561.0162    482.29913    242.24788   -373.52447    37599.264 
  910100    291.95744   -1558.0234    467.47482    222.68835   -57.642146    37599.264 
  910200    302.87031   -1563.7898    473.00525    271.53886   -364.75375    37599.264 
  910300    293.40163   -1532.9323    474.18174    260.98243   -489.72893    37599.264 
  910400     303.9055   -1571.1461    453.83389    249.66759    11.598259    37599.264 
  910500    307.79781   -1547.0537    473.16462    310.59849   -25.857338    37599.264 
  910600     301.0731   -1545.4495    454.29784    263.08791    230.28146    37599.264 
  910700    297.36523   -1551.5722    459.43625    245.42549    39.700537    37599.264 
  910800    296.95363   -1564.1488    468.56318    240.12436    423.75366    37599.264 
  910900    292.17532   -1563.9799    484.77637    235.01341   -729.40169    37599.264 
  911000    292.99193   -1525.4546    482.62579    275.06132   -709.81737    37599.264 
  911100    301.60114   -1532.4096    478.96956    303.17466    -444.4208    37599.264 
  911200     301.3569   -1511.5039    448.97286    292.98502    -240.8574    37599.264 
  911300    290.54956   -1486.4638    483.96281    304.40321   -295.74407    37599.264 
  911400    302.52417   -1503.8578    466.79981    323.70859   -290.64713    37599.264 
  911500    300.14242   -1498.0182    503.86322    355.89838    589.19684    37599.264 
  911600    299.18147   -1505.2714     489.0093    329.46886    413.02009    37599.264 
  911700    305.51428   -1537.9623    507.28284    343.53672    497.96584    37599.264 
  911800    298.81289   -1501.4678    463.24933    305.85456    415.28141    37599.264 
  911900    310.11221   -1544.1123    472.68756     323.4731    207.27335    37599.264 
  912000    296.52635   -1537.4532    513.14428    309.47918    19.492682    37599.264 
  912100    298.60141    -1535.304     475.8415    283.65931    14.425577    37599.264 
  912200    306.77491    -1525.784    465.10705     319.2096   -220.11792    37599.264 
  912300    302.12017   -1489.4272    473.09546    342.61758   -118.28739    37599.264 
  912400    301.62694    -1514.359    479.68628    322.05803   -295.23593    37599.264 
  912500     296.6202   -1489.9188    475.71516    320.00655    188.59634    37599.264 
  912600    292.48438   -1467.6524    493.54304    341.49785    640.75421    37599.264 
  912700    305.66626   -1510.0787    508.70361    373.52464    974.89539    37599.264 
  912800    308.22473   -1500.1185    491.47775    377.76717    568.18726    37599.264 
  912900    307.61498   -1466.2174    491.40616      408.854    1443.2287    37599.264 
  913000    301.74594   -1501.9853    526.28654    381.56727     893.2219    37599.264 
  913100    303.58239   -1493.5766    513.40371    385.35356    925.79021    37599.264 
  913200    287.70415   -1537.7934    456.04074    212.35276    457.41016    37599.264 
  913300    291.19233   -1567.4278    477.95391    220.32157    445.05481    37599.264 
  913400    305.17717   -1533.1485    469.58648    309.13785    575.65845    37599.264 
  913500    297.37958   -1536.6857    474.09073    275.03101    546.58459    37599.264 
  913600    280.30385   -1520.1553    487.29351    227.95674    500.77164    37599.264 
  913700    294.92846   -1506.1547    511.55157    331.99756    550.06776    37599.264 
  913800    301.27164   -1516.9749    504.01663    342.17436    326.62448    37599.264 
  913900    303.92727   -1540.0262    480.93845       307.99    248.02973    37599.264 
  914000    294.61174   -1528.8514    469.16573    265.49046   -218.83605    37599.264 
  914100    302.07253   -1513.4661     463.5219    308.79083   -411.81076    37599.264 
  914200    293.34333   -1537.5283    477.11313    259.05553     77.62608    37599.264 
  914300    298.66437   -1577.9488     464.3609     229.8171   -606.21459    37599.264 
  914400    305.20701   -1548.4054    469.14447    293.57312     12.77595    37599.264 
  914500     300.3039   -1560.5326    474.82521    265.07229   -188.19308    37599.264 
  914600    302.74398   -1551.7659    466.53683    276.52621   -143.30134    37599.264 
  914700    303.32108   -1540.9154    478.30013    301.73576   -741.19691    37599.264 
  914800     299.1635   -1502.7086    466.72414    309.66559   -332.21906    37599.264 
  914900    311.28393   -1487.1507    500.14207     413.1597   -284.64487    37599.264 
  915000     303.9682   -1573.0968    456.11996    250.28501   -569.58702    37599.264 
  915100    310.05642     -1550.27    457.40474    301.78168   -99.631104    37599.264 
  915200    307.84477   -1547.5271    474.85371     312.0254    -764.6111    37599.264 
  915300    284.94983   -1533.2248    473.57773    222.06938   -844.70549    37599.264 
  915400     293.0385   -1547.5758    486.86764    257.39143   -824.67444    37599.264 
  915500    298.17264   -1470.2436    506.28573     377.2353    -368.3488    37599.264 
  915600    293.00502   -1537.1356    480.12298    260.93635   -611.84587    37599.264 
  915700    299.38615   -1527.2069    488.04511    307.48976    187.36619    37599.264 
  915800    300.36291   -1533.6333    471.83124    289.24305    249.28694    37599.264 
  915900    295.42534   -1516.8009    473.21477    285.24958     117.3518    37599.264 
  916000    302.91491   -1499.9463    485.00731    347.58512   -16.169111    37599.264 
  916100     305.5457   -1482.5826    499.65004    391.42489     496.4218    37599.264 
  916200    298.96164    -1512.199    502.95241    335.49555    889.72328    37599.264 
  916300    299.42342    -1517.461    519.54907    348.90727    777.36998    37599.264 
  916400    292.67098   -1514.5291    483.39066    285.30805    54.137532    37599.264 
  916500    293.08582   -1511.2438    487.41204    294.48072    276.42875    37599.264 
  916600    309.20886   -1502.3986    505.73785    394.17376    83.298815    37599.264 
  916700    301.70491   -1568.9003    480.23291    268.41404    325.87608    37599.264 
  916800    299.53457   -1593.5812    501.34398    255.08197   -405.57069    37599.264 
  916900    308.88066   -1545.3506    483.32781    327.33553    185.44188    37599.264 
  917000    295.66243   -1592.5442     467.1537    204.51164    220.59766    37599.264 
  917100    301.37048   -1600.1764    494.10738    249.50815    821.25653    37599.264 
  917200    301.52218   -1554.2019    462.42011    264.47776    970.73761    37599.264 
  917300    300.95079   -1502.6133    501.36822     352.4443    444.46843    37599.264 
  917400    295.98785   -1545.2149    475.54241    261.69344    682.83414    37599.264 
  917500    295.26525   -1539.1755    494.91045    283.85053    359.64473    37599.264 
  917600    305.38259   -1513.5492    509.92475    369.99939    387.42103    37599.264 
  917700    311.47047    -1519.554     460.4047    341.85807    657.60902    37599.264 
  917800    293.55059   -1549.1594    462.07287    233.31647    579.14929    37599.264 
  917900    303.90168   -1517.1464    491.89653    341.71275    328.19956    37599.264 
  918000    297.84922   -1543.1705    486.96809    283.53593    627.86906    37599.264 
  918100    296.91537   -1504.0494    477.70248    309.19098     742.6362    37599.264 
  918200    297.04841   -1517.5773    472.58105     291.1401    284.45049    37599.264 
  918300    304.74151   -1508.5855    482.86667    345.02143   -126.59059    37599.264 
  918400    304.46552   -1549.9649    508.77784    328.31175    349.48968    37599.264 
  918500    298.76963   -1496.2265    500.35088     348.0028    101.12136    37599.264 
  918600    295.34244   -1486.5199    507.75457     349.6975    690.93126    37599.264 
  918700    288.09785   -1533.2583     490.0387    252.65671    754.70938    37599.264 
  918800    295.78052   -1531.5675    485.88431    284.75014    298.69079    37599.264 
  918900    303.64503   -1491.9934     490.7027    364.51749    624.15855    37599.264 
  919000    298.99005   -1496.3441    500.06417    348.58999    662.94213    37599.264 
  919100    311.57517   -1497.2961    520.40798    424.59019    710.12096    37599.264 
  919200    296.33444   -1488.6876    495.51484    339.75214    529.62492    37599.264 
  919300    306.59303   -1482.0105    492.23189    389.28986    497.52946    37599.264 
  919400    296.93305   -1495.4851    507.66476    347.79714    195.54331    37599.264 
  919500    305.28369   -1491.4293    485.25114    367.00075    329.82692    37599.264 
  919600    292.94441   -1461.1538    515.21373    371.73632    431.83116    37599.264 
  919700    307.52626   -1484.3425    486.49451    385.41817    305.73086    37599.264 
  919800    293.76342   -1489.3612    484.29781     316.2969    285.83534    37599.264 
  919900    295.69144   -1516.5155    502.17826    315.69542    358.81743    37599.264 
  920000    292.70011   -1495.9881    498.68008    319.26946    646.02354    37599.264 
  920100    307.64232   -1462.6263    497.75869    418.92055    784.61144    37599.264 
  920200    296.12431   -1487.3301    509.38074    354.03033    128.57668    37599.264 
  920300    301.05175    -1494.377    480.32811    340.09466   -220.16765    37599.264 
  920400    298.32093   -1527.1181    526.57104    341.31311    151.20666    37599.264 
  920500    300.69684   -1514.6088    481.42966    319.36795    374.63142    37599.264 
  920600    303.94553   -1554.9666    471.03984    283.23313    459.81762    37599.264 
  920700    301.08304   -1580.8012    497.34061    270.82366    252.31413    37599.264 
  920800    299.00211   -1517.0592     474.8652    302.73015   -105.50769    37599.264 
  920900     288.1616   -1520.7168     486.5192    261.96546   -105.54729    37599.264 
  921000    299.72295    -1541.067    507.05079    314.15025    49.672351    37599.264 
  921100    291.21014   -1543.5722     492.6123    258.91568   -395.80805    37599.264 
  921200    307.54046   -1502.8047    479.11708    359.64236   -480.65804    37599.264 
  921300    294.16822   -1571.0767    482.07528    234.17966    -184.6379    37599.264 
  921400    294.80399   -1567.5862    511.79407    270.24866   -203.06179    37599.264 
  921500    302.90939   -1521.3905    488.48131    329.59012    732.59561    37599.264 
  921600    294.91021   -1536.5416    486.31877    276.29584    599.12112    37599.264 
  921700    295.55576    -1517.816    476.00668    287.61297    657.70828    37599.264 
  921800    311.86731     -1529.63     477.4507    350.61306    388.32605    37599.264 
  921900    299.03378    -1563.214    487.63222    269.48481    1096.1736    37599.264 
  922000    309.77668   -1551.0877    484.65325    326.95423    1295.7758    37599.264 
  922100    291.17482   -1564.1496     506.2834    251.85052    714.18223    37599.264 
  922200    296.56942   -1524.9288    484.03845    293.09145    1304.1192    37599.264 
  922300    300.61788   -1517.8455    507.21432    341.56076    555.89525    37599.264 
  922400    297.39449   -1522.9592    475.71492    290.44873    850.08218    37599.264 
  922500    301.10195   -1539.0499    507.78772    323.10715    375.76732    37599.264 
  922600    295.06307   -1540.7993    478.97353     265.3804    292.68067    37599.264 
  922700    309.71198   -1544.5799    456.71555    305.23325    298.89084    37599.264 
  922800    297.26092   -1521.1726    513.95417    329.87375    114.56022    37599.264 
  922900    299.34343   -1545.8229    495.01529    295.65179    333.82454    37599.264 
  923000    301.37797   -1483.7219    496.40935    368.29836    422.70506    37599.264 
  923100    297.85801   -1539.9171    463.22078    263.08168    534.72115    37599.264 
  923200    303.89133   -1540.4126    490.96333    317.46683   -28.801601    37599.264 
  923300    291.59478   -1510.0765    489.50392    291.03304    322.72064    37599.264 
  923400    295.16996   -1493.4216    487.55384    321.81924   -182.05659    37599.264 
  923500    311.66207   -1499.0691    500.56895    403.36898   -602.63816    37599.264 
  923600    294.73948   -1509.5013    463.64335    279.89267   -408.74477    37599.264 
  923700    303.98402   -1499.8875    500.06619    367.51167   -324.79066    37599.264 
  923800    298.96556   -1517.8198    492.82853    319.76842   -918.94209    37599.264 
  923900    299.41748   -1548.9915     473.4263    271.22731     -644.399    37599.264 
  924000    298.73646   -1507.8555    502.76109    338.63482   -115.66035    37599.264 
  924100     303.6637   -1491.6034    516.34657    390.63541   -358.38965    37599.264 
  924200    303.83253   -1519.4107    494.85167    342.09253   -46.771885    37599.264 
  924300     295.2803   -1534.7718    479.40885    272.82032   -350.07056    37599.264 
  924400    300.68303   -1499.7563    483.79991    336.52868   -288.62969    37599.264 
  924500    297.27202   -1505.7852    480.66442    312.02138   -382.98846    37599.264 
  924600    295.41433   -1552.7787    448.64083    224.64834   -635.79893    37599.264 
  924700    304.91113   -1532.0071    517.19389    356.68992   -73.496959    37599.264 
  924800    307.85033   -1534.5559    465.08774    315.25568    -59.08386    37599.264 
  924900    298.77237   -1549.2743    458.98373     253.6002    167.13295    37599.264 
  925000     301.2837   -1524.9598    471.51099      301.738   -275.22659    37599.264 
  925100    308.79145   -1483.7805    475.66809    380.84464    323.94369    37599.264 
  925200    306.70938    -1533.537    475.12033    321.17509   -10.307269    37599.264 
  925300    301.27069   -1517.0171    501.93169    340.04295    161.40723    37599.264 
  925400    302.30069   -1513.2443    477.81504    324.33207    351.54057    37599.264 
  925500    293.62692   -1569.7816     486.1846    237.14935     152.2312    37599.264 
  925600    307.65765   -1570.5799    484.13137    297.40857    256.49565    37599.264 
  925700    299.43779   -1531.2508    482.21847    297.85153   -117.79273    37599.264 
  925800    305.15836   -1540.2523    497.30418    329.66713    422.42173    37599.264 
  925900    303.23468   -1513.5057    479.77807    330.23482     209.9384    37599.264 
  926000    294.23458   -1505.4767    479.44059    297.44354    514.72225    37599.264 
  926100    301.76354   -1529.5475    507.05987    334.85759    506.44105    37599.264 
  926200    291.75579   -1506.0134    467.26644    273.58294    627.91221    37599.264 
  926300     296.7817   -1501.3643     487.6196    321.19196   -136.29026    37599.264 
  926400    305.90243   -1498.1341    486.76537    364.59336   -152.73937    37599.264 
  926500    302.38523   -1497.1049    488.58424    351.62093    -402.9748    37599.264 
  926600    300.05951   -1577.5452    453.33483    225.47002   -343.10915    37599.264 
  926700    302.34024   -1577.3032    508.39833     291.0343    41.148998    37599.264 
  926800     297.7737   -1558.4123    468.75174     249.7382   -801.86136    37599.264 
  926900    312.73961   -1518.9339    489.07789    376.85997   -453.05204    37599.264 
  927000    298.35703   -1548.2205    449.58777    243.38987    91.360555    37599.264 
  927100    299.64152   -1554.4912    485.05038    278.35946   -92.071655    37599.264 
  927200    296.09121   -1552.3292    493.41101    272.91263    69.298979    37599.264 
  927300    295.28825   -1514.0075     467.8274    282.03898    541.56361    37599.264 
  927400    305.89725   -1533.5057    487.52623    329.95927    521.71095    37599.264 
  927500    301.35947   -1536.1202    515.09873    334.50622    365.42598    37599.264 
  927600    293.00748   -1551.0288    490.44564    257.37693    292.51023    37599.264 
  927700    292.65468   -1522.9861    510.25442    303.64142   -241.72252    37599.264 
  927800    293.92954   -1541.1021    470.39993    251.40538    118.80012    37599.264 
  927900    303.20644   -1571.4001    485.00034    277.43565    259.28171    37599.264 
  928000    298.37004    -1586.805    461.04867    216.32475    151.79963    37599.264 
  928100    309.64998   -1479.1601    490.81926    404.47786   -38.730018    37599.264 
  928200    304.45554    -1550.791    491.13736    309.80031   -119.08078    37599.264 
  928300    300.78482   -1523.1059    476.91715    306.75416    105.63332    37599.264 
  928400    304.34339   -1491.4856    476.83865    354.30248    240.15997    37599.264 
  928500      309.379   -1517.3968    491.46074    365.66384   -265.70144    37599.264 
  928600    285.78822   -1598.0587    474.78195    162.21076   -26.057362    37599.264 
  928700    300.20646   -1532.3293    495.64832    313.66044     137.6768    37599.264 
  928800    285.27056   -1605.9558    484.41248    161.61571    86.787541    37599.264 
  928900    290.17232   -1576.1418    479.56705    208.63264    148.95119    37599.264 
  929000    296.34798   -1541.5211    461.95235    253.41701    461.39234    37599.264 
  929100    284.94131   -1569.3908    513.96192    226.24921    557.93326    37599.264 
  929200    299.08261   -1550.7692    472.07333    266.59043    1152.2083    37599.264 
  929300    306.27326   -1572.3309    477.47162    282.77083    520.67107    37599.264 
  929400    295.87719   -1539.5882    478.04661    269.32654     140.1246    37599.264 
  929500    292.58053   -1485.3602    498.30228    328.98174   -442.23874    37599.264 
  929600    302.50084    -1500.386    475.16627    335.44186   -207.16966    37599.264 
  929700    313.47543   -1462.2408    511.56956    459.35449   -136.15684    37599.264 
  929800    302.10381   -1494.4253    450.90796    315.35838    152.65957    37599.264 
  929900    298.86781   -1523.6587    508.41331    329.07474   -22.513649    37599.264 
  930000    298.45469   -1519.9024     480.2667    302.82608    101.78658    37599.264 
  930100    305.29116   -1478.0148    471.12655    366.32431   -125.49666    37599.264 
  930200    295.89321   -1482.6785     512.4234    360.68511   -117.32237    37599.264 
  930300    302.23879   -1487.3205    473.20924    345.37166    152.41185    37599.264 
  930400    305.69439   -1510.3533    486.02397    350.69697   -335.22231    37599.264 
  930500    296.82779   -1518.9391    478.62062    294.82546   -420.88601    37599.264 
  930600    304.29628   -1505.4833     490.6776    353.93182   -500.93869    37599.264 
  930700    304.58052   -1542.1332     465.0017     292.8846    143.28658    37599.264 
  930800    293.06398   -1553.0628    481.08842    246.23982    11.059896    37599.264 
  930900    289.05313   -1543.9008    475.50077    231.77318     8.753136    37599.264 
  931000    295.61444   -1548.2549    461.55679    242.98818   -98.614997    37599.264 
  931100    306.10683   -1559.1838    505.03508    322.73274    688.73083    37599.264 
  931200    293.19604   -1529.1912     521.2774     310.8944     550.5876    37599.264 
  931300    304.89772   -1540.1377    470.33503    301.64022    780.86189    37599.264 
  931400    307.26209   -1536.5028    466.28356    311.85862    472.98686    37599.264 
  931500    295.71254   -1537.9257    503.81479    296.01662    163.13008    37599.264 
  931600    297.36571   -1560.7076    458.47836    235.33427    567.88983    37599.264 
  931700    302.88576   -1551.4992    491.63503     302.5288      125.735    37599.264 
  931800    295.41579   -1532.6813     494.4811    290.59251   -83.951317    37599.264 
  931900    301.65078   -1556.3397    459.78839    260.28667   -45.887582    37599.264 
  932000    291.96139   -1533.7062    470.98759    250.53611   -202.37842    37599.264 
  932100    311.46124   -1561.4911    494.13899    333.61373   -334.90717    37599.264 
  932200    293.31994   -1591.7055    459.72521    187.38527   -138.04121    37599.264 
  932300     302.4387   -1537.6351    493.61115    316.35811    -314.9125    37599.264 
  932400    300.23442   -1555.2887    474.89266     270.0711   -342.32441    37599.264 
  932500    299.34712   -1562.5352    461.83804    245.77883   -146.86924    37599.264 
  932600     300.9995   -1558.2328     464.4313    260.10702   -399.81757    37599.264 
  932700    296.42674   -1554.5426      475.766    254.56342   -189.40258    37599.264 
  932800    306.98777   -1559.0851    474.05557    295.81448    142.67731    37599.264 
  932900    294.44213   -1595.7866    468.40621    197.03275   -406.25382    37599.264 
  933000     305.1108   -1573.8776    483.79675    282.32043   -165.56871    37599.264 
  933100    302.59043   -1568.3713    457.78472    250.47794   -300.94674    37599.264 
  933200    288.06518   -1527.7109    485.57282    253.59134   -572.35302    37599.264 
  933300    297.45561   -1533.4108    470.69611    275.25328   -799.99148    37599.264 
  933400    294.19536   -1510.4288    487.92011     300.7945   -570.21263    37599.264 
  933500    297.23045   -1534.8373    451.94871    254.06656   -196.05273    37599.264 
  933600    305.30919    -1493.597    509.42063     389.1173    287.29651    37599.264 
  933700    286.00684   -1501.2018    467.99741     253.2665    290.65925    37599.264 
  933800    292.93126   -1522.3345    494.02317    289.30585    196.63425    37599.264 
  933900    294.83436   -1537.5252    493.00678    281.65903   -218.63777    37599.264 
  934000    301.59555   -1562.1587     495.9762    290.40709    176.25721    37599.264 
  934100    296.33588   -1510.6091    470.69711     293.0193    411.63913    37599.264 
  934200    306.01734   -1521.9432    510.91898    365.45475    364.50703    37599.264 
  934300    305.20495   -1524.6536    512.75268     360.9239    732.13009    37599.264 
  934400    299.57887    -1526.566    500.68654    321.63902   -133.23656    37599.264 
  934500    296.51689     -1498.54    484.49752      319.703   -165.82428    37599.264 
  934600    289.08823   -1506.1564    502.25406    296.42871    358.10264    37599.264 
  934700    296.91573   -1529.0662    496.24499    302.71828   -119.62616    37599.264 
  934800    288.84162   -1488.3683    481.89549    292.74905   -176.56057    37599.264 
  934900    298.11942   -1485.4635    481.15103     336.6413     -445.953    37599.264 
  935000    287.28463   -1505.4618    471.44918    258.20582   -577.45427    37599.264 
  935100    301.24029    -1471.633     495.9506     379.3092   -357.37647    37599.264 
  935200    291.60376   -1529.9079     506.8083    288.54644   -423.29017    37599.264 
  935300    305.11357   -1528.3919    488.59133    332.61319    -26.36469    37599.264 
  935400    296.57036   -1460.5342    493.27773    366.72955   -737.02664    37599.264 
  935500    296.87787   -1535.5884     479.2523    279.03312   -855.64476    37599.264 
  935600    305.82297   -1534.3376    476.98451    318.25159    168.87511    37599.264 
  935700     307.3664   -1549.6524    498.02763    330.92232   -47.239093    37599.264 
  935800    307.18222   -1516.0372    468.28519    333.96667   -668.54155    37599.264 
  935900     304.8435   -1507.8589    476.87103    340.21116   -342.78599    37599.264 
  936000    305.35181   -1487.9968    510.78865    396.27725    138.49042    37599.264 
  936100     294.1225   -1513.5756    494.80643    304.20634    445.63124    37599.264 
  936200     298.0999   -1510.6054    495.56345    325.82403    693.17783    37599.264 
  936300    299.50431   -1491.2667     476.3418    332.25814    17.913305    37599.264 
  936400    306.79327   -1515.5242    505.15657    369.60146    594.55553    37599.264 
  936500    301.86584   -1531.1349    489.64154    316.31196    1100.4863    37599.264 
  936600    311.59229   -1522.6393    504.17936    383.09533    694.75938    37599.264 
  936700    308.15403   -1499.5467    500.13556     386.6788    385.83176    37599.264 
  936800    302.49633   -1519.2342    509.02207    350.42919    490.50601    37599.264 
  936900    299.43405   -1494.6824    489.52044    341.70509   -268.68657    37599.264 
  937000    298.35507   -1474.2635    475.69579    343.44603    -85.87084    37599.264 
  937100    308.39021   -1460.4143    491.95748    418.69541   -372.96456    37599.264 
  937200    301.54968    -1475.683     494.8184    375.51864    523.38477    37599.264 
  937300    303.05042    -1459.624    500.58571    404.09533    389.51462    37599.264 
  937400    295.76361   -1468.5325    505.29162    367.11642    23.071935    37599.264 
  937500    293.07895   -1499.1307    471.78576    290.93656   -403.58571    37599.264 
  937600    309.98313   -1476.0352    474.71997    393.00205   -80.513633    37599.264 
  937700    306.24333   -1496.7047    495.50403    376.29483   -396.88236    37599.264 
  937800    298.12522   -1474.5809    481.87285    348.27181   -728.49133    37599.264 
  937900    312.21797   -1469.6431    510.46122    445.18772   -412.91801    37599.264 
  938000    298.97005   -1501.5869     459.2881    302.48111   -223.66721    37599.264 
  938100    293.98862   -1510.0146    497.32812    309.68679   -494.53702    37599.264 
  938200    303.90979     -1488.15    499.24638    378.09553   -511.18655    37599.264 
  938300    293.62577    -1500.549    479.33741    299.52955   -55.907878    37599.264 
  938400    294.72108   -1471.9366    487.19152     340.9228     4.883996    37599.264 
  938500    299.35392    -1464.941    494.93088    376.49645    128.81311    37599.264 
  938600    309.80029   -1476.1135    487.98225    405.36359    444.92872    37599.264 
  938700    289.20314   -1488.4578    495.38833    307.77849    349.75466    37599.264 
  938800    292.24268   -1459.6939    503.51005    358.33618   -113.22807    37599.264 
  938900    287.25365   -1512.6853    503.63178    283.02557    11.268456    37599.264 
  939000    299.71517   -1477.2605    494.42618    365.29718    616.72913    37599.264 
  939100    306.76242   -1512.1542    514.06835     381.7445    627.60032    37599.264 
  939200    296.13338   -1499.9573    493.31377    325.37698    772.21277    37599.264 
  939300    290.85488   -1460.1612    508.77272    356.88907    221.10398    37599.264 
  939400    292.45493   -1480.1199    513.28659    348.64132    447.23567    37599.264 
  939500    295.46647    -1507.137    491.25952    313.14323    88.382498    37599.264 
  939600    302.00269   -1524.7333    486.38101    320.06862   -85.919264    37599.264 
  939700    306.63313   -1501.4028    484.73235    362.57837   -440.79601    37599.264 
  939800     294.5124   -1502.4022    477.01467    299.34174   -7.2768932    37599.264 
  939900    301.91286   -1525.3574    497.22357    329.88302   -94.712802    37599.264 
  940000    299.03371   -1543.1697    474.91597    276.81257    288.04378    37599.264 
  940100    299.67021   -1535.5006     502.2468    314.67547    396.00507    37599.264 
  940200    305.23919   -1536.9658    472.49044    308.50345    450.75783    37599.264 
  940300    305.67111   -1521.0679    484.15394    338.00763    385.54216    37599.264 
  940400    290.66505   -1510.2765    502.25514    299.40236    313.90237    37599.264 
  940500    299.45234   -1511.4674    473.40282    308.88475    29.438229    37599.264 
  940600    304.62003   -1503.3759    504.43277    371.25063    332.18986    37599.264 
  940700    297.33398   -1499.8641    476.09181    313.64855     64.97516    37599.264 
  940800    306.52631   -1519.7534    517.67673    376.69162    293.88421    37599.264 
  940900    299.30907   -1528.6946    494.84413     312.4544    634.05273    37599.264 
  941000    297.90304   -1498.0516    494.26345    336.19236    597.89308    37599.264 
  941100    292.24463   -1487.6405    520.42526    347.31345   -410.63564    37599.264 
  941200    290.95052   -1529.1032    498.44268    278.04727    124.85392    37599.264 
  941300    303.29963   -1523.5622    524.87968    365.57204    -204.1083    37599.264 
  941400    291.75858   -1533.6037    500.93109    279.66981   -765.90694    37599.264 
  941500    294.87636   -1488.9614    505.38364    342.78857   -341.29581    37599.264 
  941600    305.21299   -1473.8816    528.91229    427.89163    50.078259    37599.264 
  941700    295.70285   -1485.2715    487.05907    331.87153   -212.36429    37599.264 
  941800    301.77729   -1516.8567    499.50904    340.05935    91.198154    37599.264 
  941900    296.06634   -1481.7965    495.76931    345.69179   -15.730545    37599.264 
  942000    297.96358   -1446.7599    519.44403      412.937   -359.10109    37599.264 
  942100    300.06382   -1486.0393    518.29714     381.9576   -487.28114    37599.264 
  942200    305.05708   -1452.5994    507.33864    426.89891   -45.600018    37599.264 
  942300    303.70635   -1475.6551    495.50782    385.93675   -478.27878    37599.264 
  942400    292.53477   -1457.9917    519.61033    377.45243    511.83762    37599.264 
  942500    301.03048   -1489.3925    499.57309    364.22846    297.16052    37599.264 
  942600    294.61051   -1492.7843    522.46842    354.85462    407.09652    37599.264 
  942700    303.99358   -1489.7215    497.50365    375.15812    345.13955    37599.264 
  942800    293.75878   -1467.0917    507.47503    361.72279    220.94941    37599.264 
  942900    289.93176   -1471.0109    480.42405    313.53851     73.62846    37599.264 
  943000    307.02737   -1516.9571    526.77199    390.83705    50.360194    37599.264 
  943100     299.9161   -1526.7204    479.87467    302.18963   -263.20635    37599.264 
  943200    297.96445   -1509.0029    486.25293    317.50671   -488.81534    37599.264 
  943300    296.64319   -1520.2687    499.09586    313.14075   -249.90795    37599.264 
  943400    306.44658   -1537.6728    473.12271    313.85958   -14.661938    37599.264 
  943500    294.96002   -1545.8844    488.09234    268.95061      62.9081    37599.264 
  943600    298.09032   -1495.2454    528.39387    373.97134    -62.93621    37599.264 
  943700    296.57185    -1538.564    469.02899    264.45777    369.16766    37599.264 
  943800    293.56752   -1489.3236    528.76837    359.92389    552.57993    37599.264 
  943900    295.35654   -1515.9761    487.49675    300.04688    384.78541    37599.264 
  944000    299.97205    -1520.448    501.80636    330.64538    896.51838    37599.264 
  944100    303.24168   -1495.6056     535.4345    403.82283     668.3264    37599.264 
  944200    301.02967   -1496.0445    502.86374     360.8634    370.56262    37599.264 
  944300    305.11523   -1507.3095    462.19823    327.30995    462.89797    37599.264 
  944400    295.11045   -1488.5674    517.47064     356.3225    1279.1144    37599.264 
  944500    307.95635   -1485.4391    523.87902    423.64064     1355.427    37599.264 
  944600    291.01812   -1491.8654    460.99451    278.14097     784.9881    37599.264 
  944700    302.29044   -1522.2854    507.03741    344.46722     664.1093    37599.264 
  944800    295.28015   -1520.0691    501.41779    309.53128    275.06296    37599.264 
  944900    298.96514   -1480.4411     469.2871    333.60383    403.95783    37599.264 
  945000    303.16967   -1516.0039    495.79978    343.46596    367.95095    37599.264 
  945100    296.70221   -1506.7021    504.27099    332.14801    436.56371    37599.264 
  945200    304.20147   -1508.6489    498.75862    358.42085    643.57334    37599.264 
  945300     294.8071   -1548.6406    493.75656    271.17075    211.54735    37599.264 
  945400    292.46479   -1552.8639    473.88703    236.54212    427.79557    37599.264 
  945500     301.4951   -1565.1648    501.52514    292.49811     807.7993    37599.264 
  945600    308.02711   -1520.8851    479.13082    343.76467    703.40769    37599.264 
  945700    302.04601   -1546.8583     488.8441    300.60158      303.716    37599.264 
  945800    297.21049   -1528.4297    469.96053    278.39623    468.68195    37599.264 
  945900    300.48906   -1535.2085    520.66716    337.07119    72.556498    37599.264 
  946000    296.77841   -1493.6917    501.76834    342.99845    133.58454    37599.264 
  946100    303.81934   -1487.1631    469.29812    348.72729    445.05502    37599.264 
  946200    303.20271    -1502.531    498.67923    359.96684    111.53218    37599.264 
  946300    291.53699   -1467.4619    475.46146    319.34534    181.29649    37599.264 
  946400      296.751   -1537.6923    488.52465    285.63093    325.24695    37599.264 
  946500    285.18426   -1542.3068    496.76057    237.22466    8.7074538    37599.264 
  946600    294.16181   -1526.4304    483.15847    279.88031   -253.44282    37599.264 
  946700    310.02688   -1566.3192    469.51926    297.71406   -394.26623    37599.264 
  946800    306.10717   -1543.9342    481.52527     314.4741   -535.41391    37599.264 
  946900    302.69672   -1520.0692     491.5824    333.05585     98.17661    37599.264 
  947000    298.33637   -1479.3583    491.95453    354.52585    141.43042    37599.264 
  947100    294.53464    -1503.443    509.18453    330.57081   -195.88191    37599.264 
  947200    307.52239    -1501.785    482.08031    363.54407   -201.64179    37599.264 
  947300     290.3859   -1511.2325    481.13719    276.07277   -383.11999    37599.264 
  947400     309.8373   -1550.0632    495.04301    338.64117    429.00516    37599.264 
  947500    305.07331    -1532.997    467.66796    306.90366    388.49856    37599.264 
  947600    306.03639   -1553.0559    471.67138    295.18013    57.338659    37599.264 
  947700     298.1619   -1516.3373    506.83508    331.64265    39.568469    37599.264 
  947800    291.10887   -1503.1278    476.06845    282.36069   -93.269185    37599.264 
  947900    311.45599   -1463.4121     481.7607    419.29079    533.35592    37599.264 
  948000     303.4116   -1434.0436    520.17981    450.89448    524.41123    37599.264 
  948100    301.75992    -1485.393    464.42921    336.36508    499.89526    37599.264 
  948200    302.13431   -1467.9382    499.56139    390.63615    151.99536    37599.264 
  948300    300.94342    -1508.234    494.40845    339.83066    270.16569    37599.264 
  948400    306.25316   -1475.9732    494.20685    395.77332    266.81637    37599.264 
  948500    292.08814   -1471.5765    504.96791    347.21625   -757.04253    37599.264 
  948600    305.19334    -1469.254    483.07793    386.59651   -787.71604    37599.264 
  948700    295.42866   -1518.8419    460.21435    270.22307   -764.24262    37599.264 
  948800     295.0413   -1491.7436    484.04828    319.41295   -145.07935    37599.264 
  948900    307.45767   -1474.3166    491.50111    400.14211      231.061    37599.264 
  949000    291.34065   -1499.6986    454.24741    265.01142    279.97096    37599.264 
  949100    297.42676   -1505.1947    496.71031    329.35378   -190.99108    37599.264 
  949200    301.70853   -1481.1723    475.49539    351.42084    169.31565    37599.264 
  949300    287.83426   -1488.0702    499.67776    306.29832    521.16395    37599.264 
  949400    308.80762   -1484.5781    490.29167    394.74332    136.71502    37599.264 
  949500     301.2321   -1502.4209    493.67033    346.20421   -536.25365    37599.264 
  949600    293.85621     -1429.92    486.55565    378.41333    -589.4341    37599.264 
  949700    297.55666   -1469.3124     489.4375    358.54761   -995.40478    37599.264 
  949800     297.8975   -1502.9816    472.44944    309.42343   -1074.1568    37599.264 
  949900    307.12822   -1479.4693    468.19405    370.20048   -520.54174    37599.264 
  950000    304.48467   -1497.5244    467.13122    339.19177   -475.01428    37599.264 
  950100    285.40482   -1487.6039    503.83581    299.99487    70.886316    37599.264 
  950200    298.75602   -1510.3774     453.3841    286.82395    151.49556    37599.264 
  950300    310.23284   -1488.1622    508.62596    415.90416    340.58935    37599.264 
  950400    302.93581   -1507.1949    485.33181    340.75503    99.764845    37599.264 
  950500    295.21663   -1478.2049    493.39248    343.08447    117.32318    37599.264 
  950600    305.02629    -1482.397    453.53578    343.15995     541.9322    37599.264 
  950700    296.44346   -1452.1262    498.43242    379.72151    237.52599    37599.264 
  950800     297.0018   -1436.5384     467.2669    366.65519   -280.13499    37599.264 
  950900    305.92191   -1474.8101     504.5265    405.76617    -195.4796    37599.264 
  951000    300.73251   -1507.2964     480.4757    325.88681    243.48457    37599.264 
  951100    296.37491    -1505.464    485.89516    313.53804   -267.24803    37599.264 
  951200    300.01266   -1508.6086    484.31823    325.17934    69.441496    37599.264 
  951300     302.3586    -1511.323    484.62163    333.32039    132.30063    37599.264 
  951400    286.84337   -1534.1165    492.28023    248.39735    547.18852    37599.264 
  951500     298.2805   -1532.9322     480.4798    289.22593    593.89279    37599.264 
  951600    294.78124    -1526.789      463.922     263.0715    484.96403    37599.264 
  951700    294.43297   -1587.6928    510.04807    246.72727    -351.9453    37599.264 
  951800    288.51793   -1564.9759    434.82254    167.61254   -123.88456    37599.264 
  951900    308.86137   -1530.8262    485.59201    344.03729    -590.9968    37599.264 
  952000    303.09904   -1537.0512    479.39156    305.69272   -426.81045    37599.264 
  952100    293.77185   -1513.9059    467.63375    275.12608   -306.45419    37599.264 
  952200    290.44658   -1497.6312    461.93197    270.74181   -884.60509    37599.264 
  952300    300.14715   -1507.9553    501.33173    343.45105   -691.82488    37599.264 
  952400    303.91865   -1539.3546    489.40343    317.08773    104.42058    37599.264 
  952500    293.02322   -1492.2238    480.07213    305.87918     290.0243    37599.264 
  952600    293.94694   -1532.9271    480.82183    270.08052    624.20099    37599.264 
  952700    296.92439   -1556.0578    479.47019    258.99088    450.13965    37599.264 
  952800    307.83209   -1530.3411    476.47729    330.77803    692.32615    37599.264 
  952900     298.1989   -1546.0601     460.6187    255.86991     206.1394    37599.264 
  953000    304.04241   -1529.4131    485.96851    324.15104    27.400538    37599.264 
  953100     294.1239    -1486.061    512.94631    349.86705    546.22642    37599.264 
  953200    303.67934   -1503.6134     486.8143    349.16341   -150.16166    37599.264 
  953300    293.67791   -1493.6132    470.26097     297.6235    291.44903    37599.264 
  953400    298.94395   -1470.2838    513.84627    388.22504   -485.46377    37599.264 
  953500    292.84716   -1469.8421    485.87587    333.27274   -392.48818    37599.264 
  953600    300.82976   -1473.5596    473.62425    353.20964   -156.10551    37599.264 
  953700    299.66097   -1451.2095    513.97506    410.65333    275.14458    37599.264 
  953800    296.30269   -1447.4156    489.86568    375.23217     350.6172    37599.264 
  953900    300.03288   -1520.2342    482.24971    311.57606    56.956637    37599.264 
  954000    297.84157   -1527.7391    484.14697    296.11191    91.353184    37599.264 
  954100    297.16154    -1469.592    481.23136    348.28455    227.21461    37599.264 
  954200    296.95479   -1473.5985    489.04639    351.16309    48.357746    37599.264 
  954300    304.27624   -1496.0541    455.59521    328.18855    441.33818    37599.264 
  954400    291.01155   -1507.6067    467.50961    268.88513    476.02012    37599.264 
  954500     294.7718   -1502.2786    488.09514    311.71252    458.00768    37599.264 
  954600    283.62542   -1477.6146    488.67066    286.81524    165.40462    37599.264 
  954700    297.91358   -1464.0946    529.53629    405.46959    429.18943    37599.264 
  954800    293.63269   -1462.2778    474.07052    332.56502    320.08022    37599.264 
  954900     294.1567   -1445.1834    520.21147    398.15733    184.05118    37599.264 
  955000    301.97661   -1507.0734    485.45203    336.68224    345.05953    37599.264 
  955100    304.26123   -1502.6396    493.49483    359.43516    152.57592    37599.264 
  955200    301.23853   -1497.8615    471.43455    328.55674     73.31947    37599.264 
  955300    299.40291    -1462.813    467.57635    351.49033   -82.078263    37599.264 
  955400    297.25514   -1459.6104    474.20305    351.65887   -260.00472    37599.264 
  955500    310.56878   -1473.5426    488.81372    412.22265   -940.93888    37599.264 
  955600    295.70495   -1428.0168    502.76308    404.83965    -864.4507    37599.264 
  955700    298.03775   -1451.6499    486.37622    375.31274   -659.70318    37599.264 
  955800    303.25564   -1446.6319    516.04495    433.46981   -597.00775    37599.264 
  955900    294.98924   -1511.9335    472.52747    287.46803   -583.47221    37599.264 
  956000    304.31456   -1462.9477    509.44604    415.31809   -228.65031    37599.264 
  956100    302.10466   -1485.2706    509.24573    382.85464    157.17168    37599.264 
  956200    308.02419   -1451.0197    495.67995    430.16605    427.00122    37599.264 
  956300    305.46876   -1453.1068    496.06432    416.96889     554.9636    37599.264 
  956400    299.73314   -1472.7577    467.90474    343.35938    86.790696    37599.264 
  956500    297.23804   -1446.6575    488.28138    378.61321    22.418589    37599.264 
  956600    314.13729   -1469.4008    470.00888    413.61097    176.35551    37599.264 
  956700    310.39421   -1413.7891    472.50421    454.88138    26.207715    37599.264 
  956800    292.98176   -1451.6199    483.90425    350.12868   -213.19942    37599.264 
  956900    310.15696    -1444.323     490.2932    441.06932    -530.3539    37599.264 
  957000    304.63096   -1408.5485    488.81213    450.50662   -378.52409    37599.264 
  957100      295.902   -1418.7114    513.99213    426.26048   -394.04227    37599.264 
  957200    294.09524   -1486.1515    483.77864    320.48002   -424.19385    37599.264 
  957300     303.8774   -1433.6073    507.14028    440.38643   -363.27699    37599.264 
  957400    294.24267   -1422.4489    465.13029    366.19737    -961.4264    37599.264 
  957500    286.29636   -1450.0604    500.53176    338.24449   -310.91999    37599.264 
  957600     306.9963   -1428.7064    483.37841    435.55444     124.1231    37599.264 
  957700     302.5196    -1506.713    468.67117    322.70416   -494.42585    37599.264 
  957800    297.42812   -1496.1345    467.81363    309.52344   -841.91156    37599.264 
  957900    309.33178   -1473.6396    473.39556    391.14346   -709.29929    37599.264 
  958000    292.11432   -1444.4016    473.32892    342.86988   -1052.1548    37599.264 
  958100    290.82796   -1476.8647    469.43528    300.72706   -914.58522    37599.264 
  958200    303.05574   -1460.4226    472.88438    375.61933   -417.53728    37599.264 
  958300    293.17452   -1470.3823    461.61783    309.94696   -843.68073    37599.264 
  958400    298.51526   -1452.4681    483.63421    373.90037   -999.35113    37599.264 
  958500    301.73367   -1430.1951     494.0274    421.04317   -798.11143    37599.264 
  958600     289.0234   -1450.7635    483.08153    332.35751   -845.03711    37599.264 
  958700    307.72863   -1479.8299     475.1139    379.46039   -936.31622    37599.264 
  958800    294.68202   -1491.8858    464.73669    298.34307   -264.78258    37599.264 
  958900    295.86442   -1504.8022    502.18588    328.19435    -2.309667    37599.264 
  959000    301.47926   -1503.2004    466.78915    319.65523    295.51428    37599.264 
  959100    306.66246   -1539.6222    507.61849    347.37703    212.14033    37599.264 
  959200    297.23507   -1510.2085     465.6465    292.41393    151.26509    37599.264 
  959300    294.90586   -1487.8573     478.6076    317.24933    612.09319    37599.264 
  959400     293.8287   -1473.2036    492.20282    340.65317   -93.511489    37599.264 
  959500    305.11799   -1457.5739     464.2203    379.08006   -205.15086    37599.264 
  959600    307.02021   -1498.6141    462.34674    344.72262    679.51097    37599.264 
  959700    304.84443   -1488.3447    478.74214    361.60058    695.12842    37599.264 
  959800    295.27836   -1478.8731    476.07199    325.37344     103.3501    37599.264 
  959900    299.58226    -1513.837    481.12979    314.82649     19.65406    37599.264 
  960000    302.81684   -1460.3727    456.91893    358.62925    512.44923    37599.264 
  960100     302.6505   -1508.3242    480.54319    333.55372    178.72374    37599.264 
  960200    306.60261   -1537.4033    459.21777    300.92597   -339.42279    37599.264 
  960300    301.29108   -1508.2974    461.48661    308.40923    66.384324    37599.264 
  960400    297.41094   -1489.8284    486.80661    334.74517   -699.24415    37599.264 
  960500    306.15263   -1477.9691    486.90672    386.02508    92.687625    37599.264 
  960600    299.38651   -1502.4738    473.06444    317.24383    24.765498    37599.264 
  960700    308.61853   -1479.9576    466.98235    375.20402    72.373798    37599.264 
  960800    310.71248   -1492.7433    482.95613    387.81071    98.587131    37599.264 
  960900    301.39828   -1464.8052     490.7591    381.65616   -320.99306    37599.264 
  961000    298.74936   -1454.6012     472.8275    362.01353    -260.8175    37599.264 
  961100    306.46664   -1475.4084     489.2483    392.33986   -458.58772    37599.264 
  961200     304.7284   -1474.9043    454.69111    350.46804   -240.22902    37599.264 
  961300    301.33023    -1461.125    505.45974    399.73088   -494.54471    37599.264 
  961400    301.26907   -1467.2709    489.62109    377.47129    585.53319    37599.264 
  961500    309.21737    -1486.437    484.98016    389.41604   -557.25995    37599.264 
  961600    291.57331   -1461.1662    449.71298    300.05582   -811.90078    37599.264 
  961700    302.26948    -1430.118    485.68522    415.18812   -856.13144    37599.264 
  961800    303.83481   -1470.6637    488.97923    384.97733   -125.04064    37599.264 
  961900    310.65136    -1462.595    480.96959    415.69751    168.13683    37599.264 
  962000    302.81724   -1444.8471    458.38379    375.62147   -335.23924    37599.264 
  962100    305.25447   -1495.7443    512.92816    390.23136    222.87364    37599.264 
  962200    300.36753   -1448.5876    509.04347    411.52171    240.09815    37599.264 
  962300    307.69696   -1467.0554    453.17725    370.15582    547.00379    37599.264 
  962400    290.34632   -1441.6472    478.02835    342.37116   -17.929901    37599.264 
  962500     299.3252   -1449.7688    518.12157     414.7302    349.74096    37599.264 
  962600    301.42377   -1501.5527    458.77498    313.03916    446.11985    37599.264 
  962700    298.94454   -1462.1897    476.53215     359.0077    124.59168    37599.264 
  962800    298.43736   -1470.2799    487.99033    360.09431   -256.59276    37599.264 
  962900    299.55244   -1454.2716    476.99389    370.12184   -918.61216    37599.264 
  963000    306.15678   -1428.6064     478.6112    427.11094   -558.37138    37599.264 
  963100    297.21554   -1415.8585    484.98208    406.01168   -450.67177    37599.264 
  963200    294.09736   -1413.9997    483.20031    392.06303   -1010.4773    37599.264 
  963300    287.56415   -1449.6057    508.91207    352.78212   -556.20974    37599.264 
  963400    294.63155   -1436.1287    485.58077    374.71723   -301.58047    37599.264 
  963500    301.90839   -1439.6252    491.42785    409.79933    48.310366    37599.264 
  963600    302.32761   -1420.9386    520.99457    459.93837   -140.79144    37599.264 
  963700    294.53087     -1436.35    481.47811     369.9404    195.86757    37599.264 
  963800    294.46699   -1451.4474    476.21714    349.29476    107.40117    37599.264 
  963900    306.27241   -1445.8409    486.18626    417.97163      107.005    37599.264 
  964000    296.60561   -1503.7284    511.56473    341.98094   -428.60255    37599.264 
  964100    301.76079    -1512.446    499.72366     344.6105   -328.65856    37599.264 
  964200    297.17683   -1484.1496     518.2892    370.85358   -332.71336    37599.264 
  964300    298.04376   -1474.8472    460.26788    326.03412   -897.63975    37599.264 
  964400    304.30612   -1483.3773     466.3654    351.76995   -795.15484    37599.264 
  964500    292.97879   -1442.1076    488.97551    364.69895   -135.01845    37599.264 
  964600     299.9902   -1448.9362    498.45642    398.88889    224.60367    37599.264 
  964700    294.06696   -1428.7553    493.52693    387.49721    168.53084    37599.264 
  964800    297.06336   -1438.5076    488.76907    386.46503    184.16735    37599.264 
  964900    285.72832   -1450.1272    500.64317     335.7341    -125.3837    37599.264 
  965000    305.57701   -1442.6767      480.669    412.49058   -103.76756    37599.264 
  965100    298.30564   -1420.4395     465.5763    386.92818    -330.3468    37599.264 
  965200    296.06985   -1448.8979    479.45713    362.29392    100.15483    37599.264 
  965300    295.05862   -1467.3591    509.23875    369.06578    45.112722    37599.264 
  965400    289.79319   -1473.4122    504.48581    334.57568    298.96379    37599.264 
  965500    298.62523   -1424.7542    498.30985    416.78463    194.13263    37599.264 
  965600    297.48138   -1391.9778    493.17475    439.28083   -371.55929    37599.264 
  965700    294.84169   -1461.1342    487.40964    352.48583   -401.42621    37599.264 
  965800    303.25418   -1466.9574    460.67374    357.76648    -97.91539    37599.264 
  965900     305.1363    -1475.214    464.26746    361.56945   -636.59011    37599.264 
  966000    296.42496   -1434.4551    490.30451    389.18142   -761.94857    37599.264 
  966100    297.99917   -1453.9011    482.91359     369.4254   -549.60973    37599.264 
  966200    292.80013   -1440.6865    497.68123    374.02215   -469.66126    37599.264 
  966300    287.70232   -1439.3419    502.79302    357.54831   -603.46349    37599.264 
  966400    291.12828   -1476.7821    484.32425    317.04953   -129.85814    37599.264 
  966500    304.39817   -1448.2775    494.11681    415.03514    8.5806186    37599.264 
  966600    303.14858   -1467.5323    479.82786     375.8707   -293.62714    37599.264 
  966700    307.40837   -1471.8254    462.26233    373.17277   -161.19716    37599.264 
  966800    308.93545   -1461.6965    480.94028    408.84848   -167.96525    37599.264 
  966900    291.46779   -1469.1883    500.16565    342.01184   -364.44475    37599.264 
  967000    309.60165   -1503.5251    477.16636     366.2426   -241.16933    37599.264 
  967100    293.85657   -1495.8946    483.14336    309.02813   -440.44181    37599.264 
  967200    297.90663   -1473.7989    494.88208    361.07977    360.52987    37599.264 
  967300     293.0116   -1482.5894    478.57849    313.96767   -752.59472    37599.264 
  967400     297.9869   -1494.3557    512.33266    358.33468   -718.67196    37599.264 
  967500    307.35235   -1470.6963    487.66168    399.44931   -243.79434    37599.264 
  967600    302.38779   -1464.1369    499.21916    395.23537   -147.24321    37599.264 
  967700    309.17141   -1463.8135    520.62696    447.47958   -368.47053    37599.264 
  967800    303.87725   -1488.3153    462.58639    341.12389   -472.94369    37599.264 
  967900    289.53649   -1498.1778    482.07341    286.24297   -45.274187    37599.264 
  968000    288.09941   -1516.6904    474.63959    253.83251   -282.85123    37599.264 
  968100    299.81027   -1503.9028    484.05853    328.71503   -780.34867    37599.264 
  968200    305.90553   -1499.7729    462.23299    338.43613   -397.47408    37599.264 
  968300    299.32188      -1492.9    475.80541    329.26789   -42.893379    37599.264 
  968400    310.26889   -1515.2488    487.94309     368.2969    123.61677    37599.264 
  968500    301.90664   -1524.3832    469.78263    303.38831    309.61545    37599.264 
  968600     297.7774    -1520.951    466.25931     284.7237    236.29477    37599.264 
  968700    303.03438   -1510.6059    456.79172    309.24732   -151.86932    37599.264 
  968800    294.65919   -1493.0676    476.60236    308.92425    158.23502    37599.264 
  968900    300.44852   -1456.3581    468.13913    363.21118   -484.21241    37599.264 
  969000    307.21418   -1475.6717    484.56235    390.75302    320.01226    37599.264 
  969100    298.80693   -1503.4147    477.59769    318.22919    151.76105    37599.264 
  969200    303.98276   -1500.8023    479.08306    345.60807    241.59683    37599.264 
  969300    294.62357   -1484.0305    484.07932    325.27817    283.54272    37599.264 
  969400    300.44945   -1503.5604    480.85323    328.72717    273.25286    37599.264 
  969500    290.02638   -1482.7361    481.13162    302.94644    272.91676    37599.264 
  969600    305.14208   -1495.5479    477.24659    354.24073    211.57784    37599.264 
  969700    300.35108   -1546.2209    492.89934    297.67031    147.94895    37599.264 
  969800    300.35345   -1539.7945    496.00048    307.20851   -168.47436    37599.264 
  969900    305.89185   -1489.4487    478.75831    365.22407   -204.01886    37599.264 
  970000     302.8226   -1536.9698    482.58538    307.72444   -606.39377    37599.264 
  970100    303.12615   -1559.9664    488.49884    292.00677   -270.66752    37599.264 
  970200    303.08724   -1501.0636    465.65563    327.89127   -560.01296    37599.264 
  970300    304.72051   -1574.4457    454.95194    251.15201   -823.71463    37599.264 
  970400    310.65243   -1539.8079    476.82301    334.34296   -659.00014    37599.264 
  970500     292.3876   -1550.0026    470.45681    235.62599   -1037.3315    37599.264 
  970600    306.75124    -1488.526    462.59392    353.84796   -584.70789    37599.264 
  970700    294.01189   -1524.6623    459.69167    257.50729   -707.50702    37599.264 
  970800     285.8007   -1541.7656    481.73352    225.51153   -124.82194    37599.264 
  970900     303.5215   -1559.8797    461.24517    266.61799   -82.841764    37599.264 
  971000    297.04113   -1536.3049    487.20703    287.00573   -585.10423    37599.264 
  971100    289.86423   -1555.7278    476.88728    224.98105   -862.03565    37599.264 
  971200    295.18717   -1531.4741    478.69836    274.98872   -584.61569    37599.264 
  971300    293.00606   -1533.6921    486.02712    270.28874    25.225011    37599.264 
  971400    296.18845   -1526.6972     465.8258    271.39677   -175.95482    37599.264 
  971500    296.90713   -1553.7096    518.58849    300.37975   -48.861468    37599.264 
  971600    288.91009   -1561.3096    456.48934    194.70958    -331.9513    37599.264 
  971700    290.47056   -1567.1622    437.63961    177.02631   -815.40962    37599.264 
  971800     292.8482   -1500.8616    451.89711    268.27907   -728.66117    37599.264 
  971900    299.56008   -1513.2724    484.36031    318.52181    -427.2965    37599.264 
  972000    292.45141   -1508.7656    481.78591    288.47916    9.3538048    37599.264 
  972100    305.08759   -1531.2383    482.37276    323.43139   -96.088295    37599.264 
  972200    306.66237   -1520.8488    492.30714    350.83864    227.56837    37599.264 
  972300    293.00946   -1542.1509    467.96102    243.77907   -194.30401    37599.264 
  972400    289.24448   -1554.2431    495.91252    242.70333   -171.65491    37599.264 
  972500    302.02017   -1521.3092    472.76049    309.95082   -45.349207    37599.264 
  972600    305.08447   -1527.9276    448.01906    292.37437   -322.66161    37599.264 
  972700    305.14692   -1556.2625    476.28321    292.58446   -350.30497    37599.264 
  972800    303.66401   -1557.0484     475.1002    283.94545    781.17041    37599.264 
  972900    300.41628   -1531.0255    491.38144    311.64109   -114.70604    37599.264 
  973000    297.93275     -1483.44    473.14228    329.81639    -242.9992    37599.264 
  973100    313.75178   -1503.0418    482.29021    390.51721     292.4217    37599.264 
  973200     292.3614   -1548.9309    474.74144     240.8645   -159.32286    37599.264 
  973300    293.40823   -1503.0668    478.00952    294.70531    -204.0352    37599.264 
  973400    295.85686   -1522.0493    445.60693    254.33434    14.933071    37599.264 
  973500     297.5599   -1519.9638     483.5658    302.03904   -85.004238    37599.264 
  973600    291.36457   -1506.0663    472.16911    276.67299   -477.57064    37599.264 
  973700    303.55735   -1523.8371    480.79914    322.37588     4.719383    37599.264 
  973800    296.91239   -1542.7076     498.3965    291.21336    63.683988    37599.264 
  973900    294.69013   -1529.5286    487.94505    283.94516    470.37031    37599.264 
  974000    308.75142   -1528.7351     489.7911    349.83295   -354.48675    37599.264 
  974100    293.15784   -1490.5533    486.26351    314.34657    -230.1714    37599.264 
  974200    303.61428   -1511.7943    491.76726    345.64283    230.76429    37599.264 
  974300    299.59307   -1498.8446    483.09659    331.83433    314.30667    37599.264 
  974400      311.376   -1532.8085    475.36757    343.14156    166.53525    37599.264 
  974500    305.23274   -1549.5462    467.06625    290.46983   -290.76572    37599.264 
  974600    298.83318     -1511.01    465.71524    298.86955   -117.06883    37599.264 
  974700    300.42331   -1502.6785    482.40656    331.04489   -218.73235    37599.264 
  974800    292.39686   -1487.0807    474.06512    302.19784   -517.13838    37599.264 
  974900    308.24083    -1513.357    489.20148     362.3248    426.72875    37599.264 
  975000    293.49142   -1551.4874    493.14959    261.79908   -211.01541    37599.264 
  975100    291.52024   -1531.6897    483.21453    262.79521    62.131695    37599.264 
  975200    293.46506   -1515.3896    464.93567    269.56434       88.346    37599.264 
  975300     307.0174   -1506.3939    476.31506    350.89844    301.25944    37599.264 
  975400    304.05907   -1519.0167    454.67434    303.32819   -181.85643    37599.264 
  975500    298.67464   -1507.8915    478.66362    314.22327   -254.00351    37599.264 
  975600    292.04722   -1500.3039    487.78805    301.12491   -153.41056    37599.264 
  975700    296.15024   -1524.3662    464.86386    272.59402    28.034484    37599.264 
  975800    311.51976   -1517.3655    444.71588    328.57946    451.15688    37599.264 
  975900    301.12033   -1501.7798    477.44306    330.11527    371.48407    37599.264 
  976000    294.16601   -1507.7274    514.21219    329.65601    1001.3243    37599.264 
  976100    305.56097   -1473.6219    481.90454    382.70881    425.01862    37599.264 
  976200     303.8243   -1486.3836    479.65779     359.8887   -35.654537    37599.264 
  976300    307.70706   -1516.9022    484.00597    351.18312    67.856071    37599.264 
  976400    303.01483   -1522.1709    465.44054    306.24321    57.414311    37599.264 
  976500    301.85775   -1544.1107    459.92578    273.58407    248.22482    37599.264 
  976600    300.22015   -1525.7974    471.60354    296.20911    97.215639    37599.264 
  976700    294.12714   -1475.6492    517.06924    364.41635   -249.31062    37599.264 
  976800    308.37421   -1532.7537    461.50049    315.82706    45.468588    37599.264 
  976900    294.24028   -1559.6465     481.4751    245.33382    574.13502    37599.264 
  977000      304.326   -1545.9351    488.94151    311.87765     566.9056    37599.264 
  977100    286.97131    -1528.667    465.58771    227.72982     538.0697    37599.264 
  977200    306.44534    -1528.162    465.63225    315.87434    835.54059    37599.264 
  977300    305.70714   -1514.0447    485.68071     346.7197    298.73051    37599.264 
  977400    293.54911    -1503.635    477.30966      294.071    430.07915    37599.264 
  977500    305.26178   -1534.1939    461.77915    300.66564    146.89117    37599.264 
  977600    308.98068   -1516.1088     468.2259    341.92532    149.15139    37599.264 
  977700    300.16206   -1484.0219    470.80945     336.9292   -498.62023    37599.264 
  977800    297.57772   -1453.0732    469.60114    355.04514   -423.66172    37599.264 
  977900    301.72064   -1490.7264    481.91708    348.34287    67.028794    37599.264 
  978000    300.66837   -1523.0476    472.50071    301.87219   -128.37834    37599.264 
  978100    294.40298    -1497.596    502.87527     329.5164    408.12344    37599.264 
  978200    287.19045   -1494.7168    466.73819    263.81622   -231.81157    37599.264 
  978300    296.43856   -1489.8251    479.19298    322.76105   -451.32264    37599.264 
  978400    293.84024   -1462.6414    496.60213    355.66654    163.23079    37599.264 
  978500    313.22756   -1451.3407    498.28365    455.85374    332.75412    37599.264 
  978600    294.83616    -1497.251    490.90031    319.83491    498.24554    37599.264 
  978700    309.84035   -1474.1254     475.8149    395.36454    1049.4495    37599.264 
  978800    312.76305   -1493.8695     482.1609    395.11289    1198.2065    37599.264 
  978900    302.66643   -1466.7103    485.25871     379.9548    1290.6131    37599.264 
  979000    295.44083   -1422.3153    491.41381    398.00387    505.69792    37599.264 
  979100    289.89628   -1437.0515    468.07718    334.99143    424.94449    37599.264 
  979200    303.51162   -1456.5837     478.3398    386.96418    105.57184    37599.264 
  979300    296.53731    -1466.535    459.12574    326.42809   -204.97953    37599.264 
  979400    304.83432   -1464.8432    472.64922    378.96367   -373.09834    37599.264 
  979500    305.75474   -1500.6499    481.29624    355.94416    48.882511    37599.264 
  979600    293.06721   -1514.2971    476.14669    280.07826    498.01733    37599.264 
  979700    291.22022   -1485.2378    507.78683    332.46993    546.02033    37599.264 
  979800    302.41195   -1463.5293    459.84027    356.57275   -8.6941398    37599.264 
  979900    309.74264   -1466.5481    461.89717    388.58458   -114.03908    37599.264 
  980000    321.18819   -1473.5691    460.52857    431.67757   -134.42791    37599.264 
  980100    308.08342   -1477.6955    470.71221    378.78902   -482.32796    37599.264 
  980200     308.1737   -1476.6676    465.65597     375.1667   -643.40505    37599.264 
  980300    305.18711   -1475.6832    487.86047    384.92186   -24.175392    37599.264 
  980400    302.53922   -1456.3441    469.94417    374.43429   -605.16152    37599.264 
  980500    291.56489   -1469.0528    496.85758    339.27603   -15.782193    37599.264 
  980600    311.03729   -1460.9892     498.6537    436.72337    255.15473    37599.264 
  980700     295.9717   -1464.4591     513.2278    380.06197    1000.0908    37599.264 
  980800    297.11924   -1471.4893    473.67091    338.63649    517.61729    37599.264 
  980900    305.59589   -1510.4138    469.21235    333.38177    404.22489    37599.264 
  981000    298.63798   -1441.6323    480.63561    382.28953    247.46057    37599.264 
  981100    282.96797    -1471.395    489.97654    291.38352   -64.172613    37599.264 
  981200    297.07235   -1461.0352    482.65099    357.85978    515.86982    37599.264 
  981300     303.7131    -1492.108    472.09879    346.10519    410.54194    37599.264 
  981400    295.45315    -1462.062    494.56118       361.46    914.86765    37599.264 
  981500    307.84455   -1436.4625    470.81051    419.04579    539.99617    37599.264 
  981600    295.19891   -1456.5263    502.31519    373.60604    204.83243    37599.264 
  981700    307.79934   -1505.6051    474.32211    353.21148    33.403429    37599.264 
  981800    310.48416    -1515.104    473.33346    354.80041    354.33238    37599.264 
  981900    298.93663   -1513.3903    474.55777    305.79703    374.40704    37599.264 
  982000    298.88003   -1527.4859    414.45148     231.3406    -53.84638    37599.264 
  982100    311.10939   -1495.2022    474.51485    378.69583    -347.8343    37599.264 
  982200     300.8009   -1455.4294    471.94616    369.53193   -96.155578    37599.264 
  982300    293.80243   -1498.5788    474.86198      297.819   -233.20739    37599.264 
  982400    308.36343   -1520.0675    490.16191    357.12618    282.55067    37599.264 
  982500    305.18939   -1494.2204     459.9609    338.49528   -332.29846    37599.264 
  982600    299.55157   -1488.1478    473.18218    332.43002   -45.224836    37599.264 
  982700    302.99008   -1489.5975    468.93042    342.19519    89.239914    37599.264 
  982800    296.79396   -1491.0306    477.07477    321.03599    246.96197    37599.264 
  982900      303.149   -1473.0037    476.88039    367.45376    474.08567    37599.264 
  983000    296.38778   -1448.8911    495.29365    379.56736    282.48273    37599.264 
  983100    304.93597   -1464.2258    471.70052    379.08967    516.18712    37599.264 
  983200    303.68947   -1465.9289    480.53542    380.61465   -46.471499    37599.264 
  983300    313.14948   -1503.0902    510.82368    416.29312    765.37711    37599.264 
  983400    297.91435   -1497.9686    490.06695    332.12971    -43.61981    37599.264 
  983500    305.52431   -1454.7839    505.55791    425.03528   -435.02889    37599.264 
  983600    296.83387   -1459.0453    494.05331     370.1793   -601.50985    37599.264 
  983700    297.65458   -1474.4715     469.5962    333.98762   -372.66811    37599.264 
  983800    305.45534   -1476.4902    496.25398    393.71483   -111.20302    37599.264 
  983900    300.93456   -1478.0293     472.1979    347.78498    113.25598    37599.264 
  984000    305.72587   -1485.3683    481.80489    371.60451     205.5034    37599.264 
  984100    303.43762   -1456.0216    503.42979    412.28345    320.07106    37599.264 
  984200    303.46061   -1494.5096    499.75866    370.22775    233.07341    37599.264 
  984300    297.11995   -1508.5674    484.96269    312.85342    359.89461    37599.264 
  984400    301.19826   -1464.3692    487.01849    377.45179     263.7833    37599.264 
  984500     292.3973   -1471.3217    487.00161    330.89534    616.35502    37599.264 
  984600    298.89682   -1445.0484    488.97873    388.38088    22.867692    37599.264 
  984700    291.14751   -1465.5786     478.3263    322.34153   -73.653792    37599.264 
  984800    291.74582   -1422.8687    482.89913    372.31543    261.68189    37599.264 
  984900    307.65359    -1484.015    478.59737     378.4213    620.95398    37599.264 
  985000     309.2375   -1490.0933    478.41517    379.28532     505.5175    37599.264 
  985100    301.08979   -1514.6801    481.93115    321.56563    388.50598    37599.264 
  985200    300.32762    -1475.455    510.65008    386.08147    502.62918    37599.264 
  985300    300.27608   -1484.1049    453.56371    320.11337   -92.468684    37599.264 
  985400    296.27941   -1520.5953    478.29099    290.37303   -364.85429    37599.264 
  985500    303.63496   -1531.8202    478.89308    312.83585   -2.3391513    37599.264 
  985600    299.19048   -1521.0161    491.31652    316.07185    35.631622    37599.264 
  985700    290.50928   -1496.5865    466.55521    276.69172    -279.9324    37599.264 
  985800    301.58556   -1483.7115    503.43364    376.26682    278.73887    37599.264 
  985900    301.86594   -1512.9765    464.37811     309.2074   -371.51425    37599.264 
  986000    298.09121   -1543.7034    460.78101    257.90452   -316.94163    37599.264 
  986100    303.76904    -1493.991    458.49394    330.86897   -522.28546    37599.264 
  986200    298.09552   -1544.3026    440.09817     236.6419   -36.004227    37599.264 
  986300    298.27757   -1501.5125    456.60801    296.76067    4.7822064    37599.264 
  986400    304.76438   -1523.9475    490.03053    336.92612    137.11638    37599.264 
  986500    289.35945   -1535.2383    470.02398     236.3368    232.97861    37599.264 
  986600    289.70419   -1518.3532    462.31261    247.06117    -326.5717    37599.264 
  986700    308.94341   -1457.1987    473.41245    405.85432   -445.43317    37599.264 
  986800    300.05311   -1456.8418    513.86982    406.67966   -332.02388    37599.264 
  986900    297.90033   -1506.5679    474.95658    308.35697   -134.89052    37599.264 
  987000    298.70493   -1454.1236    493.92874    383.39254   -92.636479    37599.264 
  987100    310.95983   -1489.2867    471.75717    381.18099   -597.05764    37599.264 
  987200    297.12433     -1475.01    474.41154     335.8794   -108.04265    37599.264 
  987300     296.9255   -1470.2713    468.78638    334.09857   -718.81036    37599.264 
  987400    292.30498   -1433.2922     489.2526    370.76057   -958.65131    37599.264 
  987500    295.09499   -1461.4949    503.98852    369.84336   -918.03081    37599.264 
  987600    298.22293   -1478.1123    469.32222     332.6293    -584.2641    37599.264 
  987700    310.36347   -1464.5717    476.58503    408.04138    -353.7372    37599.264 
  987800    301.09541   -1476.6282    485.40316    363.11484   -621.92811    37599.264 
  987900    298.00277   -1484.0191    474.41095    330.82092   -985.81906    37599.264 
  988000    309.33694   -1535.3197    454.77412    310.86509   -507.82882    37599.264 
  988100    304.86556   -1486.4954    504.61409    389.41688   -516.47463    37599.264 
  988200    295.40153     -1509.42    437.74181     257.0504   -598.14747    37599.264 
  988300    292.27222   -1485.6636    506.21737    335.20663   -324.53053    37599.264 
  988400    313.93248   -1524.8476    507.11409    394.34806    150.69598    37599.264 
  988500    300.07989   -1517.0533    475.94016    308.65896    178.10855    37599.264 
  988600    307.18891   -1527.4862    460.99444    315.25694    -209.9987    37599.264 
  988700    292.21461   -1526.6427      452.193    239.94394    29.940017    37599.264 
  988800    306.70269    -1539.736    475.84379    315.66949    408.23049    37599.264 
  988900    304.01278   -1500.3935    482.39532    349.46422    689.00777    37599.264 
  989000    305.62592   -1510.7469    484.92228    348.89371    202.79116    37599.264 
  989100    295.15036   -1538.5224    478.49106    267.56745   -285.66942    37599.264 
  989200    308.34031   -1516.2653    471.05416    341.71661   -90.703092    37599.264 
  989300    292.83595    -1520.645    471.97801    268.52149   -637.49988    37599.264 
  989400    308.02262   -1489.8306    475.35582    371.02404   -1034.8579    37599.264 
  989500    294.01707   -1472.7612    477.90591     327.6459   -525.80015    37599.264 
  989600    293.83435   -1509.4742    480.43077    292.63591   -192.16753    37599.264 
  989700     295.4013   -1476.0846    486.70457    339.34754    429.88358    37599.264 
  989800    292.25319    -1544.742    491.67742     261.5026    248.13472    37599.264 
  989900     310.5069   -1569.4013    483.55269    310.82454    757.87992    37599.264 
  990000    300.86861    -1560.573    465.81567    258.56238    559.34896    37599.264 
  990100    291.67457   -1571.9702    475.30171    215.29609    179.43808    37599.264 
  990200    294.27827    -1534.406    477.05554    266.32566    251.46095    37599.264 
  990300    297.09981   -1529.6177    463.86118      270.611    122.28008    37599.264 
  990400    297.05399   -1538.1652    472.87665    270.87288    166.48162    37599.264 
  990500    297.72932    -1476.349    508.96702    371.81712   -501.62396    37599.264 
  990600    294.05081   -1459.3605    459.39627    322.68875   -684.13194    37599.264 
  990700    290.22363   -1487.8856    492.49022    310.04284   -9.4954249    37599.264 
  990800    298.40747   -1461.9786    471.38885    351.65971    -255.5028    37599.264 
  990900    288.89876   -1504.3684    481.61574    276.72621   -289.59864    37599.264 
  991000    291.18152   -1504.0029    522.71803    328.46193   -108.47627    37599.264 
  991100    312.90817   -1480.7729      466.229    392.93031   -297.95867    37599.264 
  991200    287.38027   -1485.8818    476.14436    282.91123    386.81006    37599.264 
  991300    300.71833   -1536.4169    484.41293    300.63984   -389.52789    37599.264 
  991400    292.38692   -1526.9523    488.14158    276.35798   -258.23664    37599.264 
  991500    301.48101   -1561.4658    473.82628    268.43488    37.813061    37599.264 
  991600    301.19383   -1553.6807    468.72634    269.82824    -7.910733    37599.264 
  991700    288.88917   -1524.0762    481.05972    256.41923     27.46566    37599.264 
  991800    296.89407   -1534.5645    473.43839    274.31603    350.04758    37599.264 
  991900    304.78735   -1516.0253    475.48977     330.4109    271.80036    37599.264 
  992000    300.97705   -1496.7337    469.46789    326.54169    561.46284    37599.264 
  992100    296.44243   -1501.5584    489.00104    320.85323      203.436    37599.264 
  992200    301.39767   -1502.7486    475.05341    328.00429     26.70862    37599.264 
  992300     302.5861   -1481.2374      469.324     349.1317   -169.57934    37599.264 
  992400    295.59591   -1497.6211    491.48617    323.46798     -345.865    37599.264 
  992500    306.38944   -1506.0279    491.87001     363.9948   -132.07515    37599.264 
  992600    304.57188   -1502.0188    471.57307    339.53152   -293.39206    37599.264 
  992700    297.00155   -1531.6625    484.50823    288.77127   -71.380563    37599.264 
  992800    296.18263    -1562.833    474.62281    244.03186   -242.84229    37599.264 
  992900    287.92171   -1546.8751    460.94675    209.15572   -402.84406    37599.264 
  993000    314.27687   -1525.9191    491.79975     379.5113     324.5674    37599.264 
  993100    293.73503   -1511.3475    503.76579     313.6509   -107.62224    37599.264 
  993200    300.35832   -1495.2935    481.82608    337.55696   -241.96635    37599.264 
  993300    299.75532   -1516.2632    472.78791    304.83688   -234.18652    37599.264 
  993400    309.39619   -1492.7932    478.20141    377.08544   -28.547789    37599.264 
  993500    296.27246   -1533.7097    486.38841    285.32476    79.358975    37599.264 
  993600    295.95516    -1519.253    479.85339    291.81923    461.38209    37599.264 
  993700    294.78792   -1502.2167    485.00442    308.75628    79.452144    37599.264 
  993800    289.73014   -1455.4968    509.37853    357.10016   -248.66004    37599.264 
  993900    288.64767   -1496.0219    469.60325    271.93083    41.346235    37599.264 
  994000    301.01804   -1503.0429     467.4516    318.40065   -94.501321    37599.264 
  994100    298.29985   -1484.7839    504.92785    361.90935   -696.83144    37599.264 
  994200    294.36296   -1450.4311    473.81839     347.4444   -434.83808    37599.264 
  994300    300.69801   -1476.2873    512.02163    388.28675    145.21023    37599.264 
  994400    294.18216   -1516.1456    481.23498    288.33315    57.623881    37599.264 
  994500    301.66197   -1496.3133    484.69602    345.27105   -182.50277    37599.264 
  994600    295.36784   -1488.1149    495.34689    335.80904    96.317628    37599.264 
  994700    299.91095   -1509.3218    450.44558    290.13595   0.35993207    37599.264 
  994800    296.99818   -1557.5978    490.93682    269.24947   -502.12337    37599.264 
  994900    301.90289   -1516.1879    464.53367    306.31774      -272.16    37599.264 
  995000    296.31987   -1463.1719    467.72382    337.41122   -187.53823    37599.264 
  995100    303.16831   -1526.8688    484.22331    321.01844   -206.99053    37599.264 
  995200    299.87158   -1485.0352    466.51499    330.31492    34.391523    37599.264 
  995300    299.18653   -1509.8169     495.4418    331.37861    407.83338    37599.264 
  995400    299.58309   -1489.5479    499.27198    357.26152   -199.79514    37599.264 
  995500    297.65766   -1449.6588    499.47349     388.6914    433.98013    37599.264 
  995600    296.40975   -1458.1331    479.42134    354.55181    489.03353    37599.264 
  995700    296.20292   -1471.2058     512.2834    373.41089    651.82575    37599.264 
  995800    299.36826   -1480.8976    491.52247    357.19595    889.53541    37599.264 
  995900    305.38363   -1476.6808     480.6983    377.64601    893.66349    37599.264 
  996000    302.12082   -1498.8195     492.9972    353.12994    908.79335    37599.264 
  996100    306.82365    -1480.791    476.27759    375.59235     498.9641    37599.264 
  996200    298.15594   -1462.4705    522.35528    401.00283    115.89279    37599.264 
  996300    291.15648   -1504.5607    474.85018    279.92368    450.09968    37599.264 
  996400    284.92519    -1480.447    490.68381    291.84234    563.61876    37599.264 
  996500    301.99978   -1498.2319    503.45326    363.62913    603.99641    37599.264 
  996600    313.02426   -1468.4807    486.37196    425.88764    1087.5925    37599.264 
  996700    303.30953   -1467.0702    499.23518    396.46409    532.54051    37599.264 
  996800    297.00096   -1482.6219    496.35194    349.65293    507.74495    37599.264 
  996900    290.84643   -1523.0727    477.17616    262.34304    592.38976    37599.264 
  997000    297.33988   -1496.1793     501.3352    342.60328    602.99723    37599.264 
  997100    306.59155   -1549.0962    501.10773     331.0733    764.71858    37599.264 
  997200    298.67149   -1522.9377    510.26118    330.76044    501.83541    37599.264 
  997300    295.50326   -1470.3046    501.58993    360.47154    275.69178    37599.264 
  997400    300.33493   -1492.0218    469.34015    328.23758   -148.05611    37599.264 
  997500    301.81377   -1444.6315    498.39339    411.33302   -482.00849    37599.264 
  997600    296.38005   -1448.8899    514.45353    398.69367   -501.89437    37599.264 
  997700     296.4732   -1515.0649    484.85998    303.34406   -735.20856    37599.264 
  997800     297.5997   -1464.0368    500.23835    374.81764   -376.36103    37599.264 
  997900    297.46649   -1480.9883    480.79847    337.82707   -725.18491    37599.264 
  998000    306.03486   -1519.7626    488.95784    345.75297   -272.17608    37599.264 
  998100    307.63656   -1527.5707    481.09519    337.28678   -360.76227    37599.264 
  998200    295.19841   -1517.6489    484.39472    294.56077    88.155598    37599.264 
  998300    295.80437   -1514.3887    497.04915    313.20106    7.7647406    37599.264 
  998400    295.79309   -1547.6424    501.45746    284.30492    91.121539    37599.264 
  998500    297.04695    -1512.072    467.40851    291.46629   -143.21822    37599.264 
  998600    311.50433   -1505.5343    492.30215    387.92752   -148.43456    37599.264 
  998700    312.57959   -1498.3484    503.21568    410.86349    139.39685    37599.264 
  998800     295.3314   -1535.1446    446.48824    239.75679   -296.10783    37599.264 
  998900    305.93817   -1541.3673    503.40337    338.15896   -179.49563    37599.264 
  999000    296.31279    -1500.873    472.30672    304.26114   -496.45432    37599.264 
  999100    299.71894   -1535.5952    473.40563    285.95888    133.31499    37599.264 
  999200    296.93037    -1548.363    482.75623    269.99861    384.76208    37599.264 
  999300    291.18334   -1513.5439    478.07008    274.28115    148.17077    37599.264 
  999400    297.19022   -1517.4018    480.11556    299.48796    182.55014    37599.264 
  999500    304.97764   -1545.5253    512.67609    338.95315    479.72742    37599.264 
  999600      293.945   -1560.5876    477.57131    239.16081     363.9258    37599.264 
  999700    297.65152   -1562.7971    475.49228    251.54432    426.36577    37599.264 
  999800    309.87896   -1524.6401    479.69045    348.89905    150.31393    37599.264 
  999900    301.09899   -1499.3827    481.33172    336.30504    273.54268    37599.264 
 1000000    297.40461   -1524.6508    505.06024    318.14801   -276.34362    37599.264 
 1000100    312.90324    -1534.904    485.34211    357.89016   -19.372416    37599.264 
 1000200    300.94437    -1543.725    488.37292    298.30843    156.24186    37599.264 
 1000300     294.3714   -1495.3776    470.98671    299.70421   -341.37681    37599.264 
 1000400    303.37264   -1513.3486    497.05713    348.29153   -85.348622    37599.264 
 1000500    299.46922   -1514.5675    481.98699    314.44467   -214.25343    37599.264 
 1000600    304.29474   -1526.7925    475.14933    317.08746   -401.17442    37599.264 
 1000700    302.49817   -1545.2679    464.28523    279.66688    23.255333    37599.264 
 1000800    299.39979   -1547.5178    479.18408    278.37919    49.110505    37599.264 
 1000900    290.19771   -1594.3294    468.80699    179.79922     656.4456    37599.264 
 1001000    300.80262   -1590.8029    455.05938    217.27941    683.04698    37599.264 
 1001100    308.11681   -1547.5257    473.75025    312.14702    329.09738    37599.264 
 1001200     315.8168   -1548.0719    482.94597    355.43137    272.86694    37599.264 
 1001300     298.6928   -1538.5851    469.42949    274.37723   -373.49027    37599.264 
 1001400    298.95514   -1496.6784    467.62996    315.66445   -159.74294    37599.264 
 1001500    303.73634    -1548.077    474.97028    293.11223   -260.56275    37599.264 
 1001600    295.34817   -1533.8781    459.93169    254.54216    113.82263    37599.264 
 1001700    306.97438   -1544.3168    479.18569    315.65263   -97.254198    37599.264 
 1001800    304.78287   -1524.8668    478.45364    324.51304   -271.73225    37599.264 
 1001900    290.90093   -1522.5669    481.93989    267.85774   -849.64452    37599.264 
 1002000    291.80726   -1538.9073    492.31528    265.96937   -68.464868    37599.264 
 1002100    315.32292   -1539.5785    464.61904    343.37638   -63.769257    37599.264 
 1002200    301.47379   -1566.6713    475.46105    264.83164   -242.80474    37599.264 
 1002300    297.21488   -1500.7191    483.01753    319.18356   -286.40405    37599.264 
 1002400    305.61803   -1565.3874    482.10275    291.39818   -103.69542    37599.264 
 1002500    285.50211   -1555.4064     455.9926    184.78673   -270.74183    37599.264 
 1002600    307.47283   -1525.4071    460.03848    317.65721   -629.91093    37599.264 
 1002700    308.26226   -1525.5119     480.5074    341.57226   -170.33457    37599.264 
 1002800    304.86257   -1533.5464    474.00295    311.74131    112.86558    37599.264 
 1002900    307.59822   -1553.8388      480.942    310.69301   0.60914882    37599.264 
 1003000     304.3931   -1607.8607    475.95105    237.26341    166.63513    37599.264 
 1003100    309.76903   -1526.8484    480.64808    347.15388     379.2044    37599.264 
 1003200    292.15911   -1529.6238    495.06186    279.58213    311.57926    37599.264 
 1003300    297.06795   -1523.6447    480.32643    292.90596   -319.54759    37599.264 
 1003400    284.15563   -1523.9047    481.79422    236.03353   -195.42662    37599.264 
 1003500    302.81456   -1535.2858    492.31188     319.0988    351.75973    37599.264 
 1003600    296.33746   -1577.6901    467.29957    222.54792    627.76405    37599.264 
 1003700    300.99455   -1520.7959    491.62309    324.71343    330.39951    37599.264 
 1003800    294.19457   -1505.7276     488.5101    306.08216    295.32608    37599.264 
 1003900    307.58866   -1513.6438    479.58884    349.49191   -348.21447    37599.264 
 1004000    289.38453   -1518.7646    495.03481    277.93412   -581.21801    37599.264 
 1004100    289.83695   -1526.9591    494.39597     271.1357   -722.64155    37599.264 
 1004200    300.87157   -1508.5075    453.20188    298.02744   -558.18369    37599.264 
 1004300    297.08936   -1538.8507    490.36826    287.83814   -632.19376    37599.264 
 1004400    313.18269   -1535.1248    486.35421    359.93838   -711.21298    37599.264 
 1004500    296.56442   -1491.9065    488.03644    330.08927    281.74542    37599.264 
 1004600    304.93073   -1500.1925    483.41907    354.81796   -169.18829    37599.264 
 1004700    309.72915    -1526.149     492.4161    359.44198    13.422499    37599.264 
 1004800    301.04298   -1489.9064    495.46415    359.66187   -494.06639    37599.264 
 1004849    303.22909   -1475.0131    483.63689    372.56111   -218.00703    37599.264 
Loop time of 593.444 on 32 procs for 1000000 steps with 1510 atoms

Performance: 145.591 ns/day, 0.165 hours/ns, 1685.079 timesteps/s
100.0% CPU use with 32 MPI tasks x no OpenMP threads

MPI task timing breakdown:
Section |  min time  |  avg time  |  max time  |%varavg| %total
---------------------------------------------------------------
Pair    | 244.61     | 272.96     | 296.19     |  83.3 | 46.00
Bond    | 1.4125     | 1.5327     | 1.6606     |   4.8 |  0.26
Neigh   | 38.717     | 38.792     | 38.852     |   0.7 |  6.54
Comm    | 244.89     | 268.01     | 296.12     |  83.7 | 45.16
Output  | 0.39262    | 0.41059    | 0.86479    |  12.7 |  0.07
Modify  | 8.3826     | 8.6321     | 8.9718     |   5.6 |  1.45
Other   |            | 3.114      |            |       |  0.52

Nlocal:        47.1875 ave          72 max          14 min
Histogram: 1 3 3 3 2 4 5 2 4 5
Nghost:        1998.03 ave        2088 max        1909 min
Histogram: 3 2 4 5 1 3 7 1 4 2
Neighs:        5380.91 ave        9547 max         839 min
Histogram: 3 1 4 5 1 4 4 5 1 4

Total # of neighbors = 172189
Ave neighs/atom = 114.03245
Ave special neighs/atom = 2.0185430
Neighbor list builds = 49686
Dangerous builds = 0

# Output the system volume
variable v equal vol
print 'The system volume is $v'
The system volume is 37599.2635982444

# Outputs
variable A equal xhi-xlo
variable B equal yhi-ylo
variable C equal zhi-zlo
variable D equal xy
variable E equal xz
variable F equal yz
print 'Lattice vectors'
Lattice vectors
print '$A 0 0'
33.501154960773 0 0
print '$D $B 0'
0 33.501154960773 0
print '$E $F $C'
0 0 33.501154960773
Total wall time: 0:09:57
