LAMMPS (29 Sep 2021 - Update 1)
# Test LAMMPS input file for single DeFDe

# Initialize simulation

clear

units real
atom_style full
boundary p p p
dielectric 1
special_bonds dreiding

bond_style harmonic
angle_style harmonic
dihedral_style harmonic
improper_style umbrella
pair_style hybrid/overlay hbond/dreiding/lj 4 9.0 11.0 90 lj/cut 8.50000

# Read data file
read_data frag5.dat
Reading data file ...
  triclinic box = (0.0000000 0.0000000 0.0000000) to (15.000000 15.000000 15.000000) with tilt (0.0000000 0.0000000 0.0000000)
  2 by 4 by 4 MPI processor grid
  reading atoms ...
  1505 atoms
  scanning bonds ...
  2 = max bonds/atom
  scanning angles ...
  6 = max angles/atom
  reading bonds ...
  1004 bonds
  reading angles ...
  506 angles
Finding 1-2 1-3 1-4 neighbors ...
  special bond factors lj:    0        0        1       
  special bond factors coul:  0        0        1       
     4 = max # of 1-2 neighbors
     3 = max # of 1-3 neighbors
     4 = max # of special neighbors
  special bonds CPU = 0.002 seconds
  read_data CPU = 0.016 seconds

# Dreiding potential information

bond_coeff 1 350 1.371
bond_coeff 2 350 1.09
bond_coeff 3 350 0.98

angle_coeff 1 50 109.471
angle_coeff 2 50 104.51


improper_coeff 1 40 0

pair_coeff 1 1 lj/cut 0.0725 3.472
pair_coeff 1 2 lj/cut 0.0830346313293435 3.67898051095681
pair_coeff 1 3 lj/cut 0.0331963853453957 3.33062156361241
pair_coeff 1 4 lj/cut 0.00269258240356725 3.32957895236019
pair_coeff 1 5 lj/cut 0.0832961583748014 3.43813484319623
pair_coeff 2 2 lj/cut 0.0951 3.8983
pair_coeff 2 3 lj/cut 0.0380199947396104 3.52917391183829
pair_coeff 2 4 lj/cut 0.00308382878902186 3.52806914614779
pair_coeff 2 5 lj/cut 0.0953995283007206 3.64309650983885
pair_coeff 3 3 lj/cut 0.0152 3.195
pair_coeff 3 4 lj/cut 0.0012328828005938 3.19399984345648
pair_coeff 3 5 lj/cut 0.0381397430510485 3.29813538230316
pair_coeff 4 4 lj/cut 1e-04 3.193
pair_coeff 4 5 lj/cut 0.0030935416596516 3.29710294046152
pair_coeff 5 5 lj/cut 0.0957 3.4046
pair_coeff 1 5 hbond/dreiding/lj 4 j 9.50 2.75 4 9.0 11.0 90
pair_coeff 5 5 hbond/dreiding/lj 4 j 9.50 2.75 4 9.0 11.0 90

neighbor 2 bin
neigh_modify every 2 one 10000

# Gemoetric relaxation
fix 1 all box/relax iso 1.0 vmax 0.001
minimize 1.0e-4 1.0e-6 10000 10000
WARNING: Using 'neigh_modify every 1 delay 0 check yes' setting during minimization (../min.cpp:188)
Neighbor list info ...
  update every 1 steps, delay 0 steps, check yes
  max neighbors/atom: 10000, page size: 100000
  master list distance cutoff = 13
  ghost atom cutoff = 13
  binsize = 6.5, bins = 3 3 3
  3 neighbor lists, perpetual/occasional/extra = 3 0 0
  (1) pair hbond/dreiding/lj, perpetual, skip from (3)
      attributes: full, newton on
      pair build: skip
      stencil: none
      bin: none
  (2) pair lj/cut, perpetual, half/full from (3)
      attributes: half, newton on
      pair build: halffull/newton
      stencil: none
      bin: none
  (3) neighbor class addition, perpetual
      attributes: full, newton on
      pair build: full/bin
      stencil: full/bin/3d
      bin: standard
Per MPI rank memory allocation (min/avg/max) = 10.71 | 11.00 | 11.28 Mbytes
Step Temp E_pair E_mol TotEng Press Volume 
       0            0 1.4225128e+27     193.7667 1.4225128e+27 1.156023e+29         3375 
    5331            0   -1079.8101    19.302597   -1060.5075    134.16798    37655.765 
Loop time of 4.60218 on 32 procs for 5331 steps with 1505 atoms

100.0% CPU use with 32 MPI tasks x no OpenMP threads

Minimization stats:
  Stopping criterion = energy tolerance
  Energy initial, next-to-last, final = 
    1.42251275143481e+27  -1059.91010634528   -1060.0075043747
  Force two-norm initial, final = 1.9335191e+30 122.72546
  Force max component initial, final = 1.3497034e+30 98.184412
  Final line search alpha, max atom move = 2.1070302e-05 0.0020687752
  Iterations, force evaluations = 5331 5391

MPI task timing breakdown:
Section |  min time  |  avg time  |  max time  |%varavg| %total
---------------------------------------------------------------
Pair    | 1.389      | 2.7404     | 3.8582     |  37.3 | 59.55
Bond    | 0.0065305  | 0.010769   | 0.014942   |   1.9 |  0.23
Neigh   | 0.089775   | 0.090096   | 0.090341   |   0.1 |  1.96
Comm    | 0.28102    | 1.4061     | 2.7565     |  52.2 | 30.55
Output  | 0          | 0          | 0          |   0.0 |  0.00
Modify  | 0          | 0          | 0          |   0.0 |  0.00
Other   |            | 0.3548     |            |       |  7.71

Nlocal:        47.0312 ave          61 max          24 min
Histogram: 1 0 2 4 5 1 6 4 2 7
Nghost:        1940.91 ave        1994 max        1878 min
Histogram: 1 3 5 5 1 1 3 6 5 2
Neighs:        4869.75 ave        7180 max        2236 min
Histogram: 1 0 5 6 4 3 4 5 1 3

Total # of neighbors = 155832
Ave neighs/atom = 103.54286
Ave special neighs/atom = 2.0066445
Neighbor list builds = 98
Dangerous builds = 0

# MD simulation
velocity all create 300.0 12345 rot yes dist gaussian
timestep 1.0
fix 2 all nvt temp 300.0 300.0 1

# Compute interaction energy
group WAT molecule <> 2 501
1500 atoms in group WAT
group MOL molecule 1
5 atoms in group MOL

compute w WAT group/group MOL pair yes
fix 3 all ave/time 10 5 100 c_w file outa

# Outputs
thermo 100 # Output thermodynamic data every nth step
#dump mf1 all xyz 10000 mol_*.xyz

# Run
run 1000000
Neighbor list info ...
  update every 2 steps, delay 10 steps, check yes
  max neighbors/atom: 10000, page size: 100000
  master list distance cutoff = 13
  ghost atom cutoff = 13
  binsize = 6.5, bins = 6 6 6
  4 neighbor lists, perpetual/occasional/extra = 3 1 0
  (1) pair hbond/dreiding/lj, perpetual, skip from (4)
      attributes: full, newton on
      pair build: skip
      stencil: none
      bin: none
  (2) pair lj/cut, perpetual, half/full from (4)
      attributes: half, newton on
      pair build: halffull/newton
      stencil: none
      bin: none
  (3) compute group/group, occasional, copy from (2)
      attributes: half, newton on
      pair build: copy
      stencil: none
      bin: none
  (4) neighbor class addition, perpetual
      attributes: full, newton on
      pair build: full/bin
      stencil: full/bin/3d
      bin: standard
Per MPI rank memory allocation (min/avg/max) = 9.562 | 9.584 | 9.743 Mbytes
Step Temp E_pair E_mol TotEng Press Volume 
    5331          300   -1079.8101    19.302597    284.43404    1766.8619    37655.765 
    5400    297.31704   -1105.9943    177.20147    404.12065    1225.1294    37655.765 
    5500    305.50643   -1130.7648    209.48039    448.34319    1391.7956    37655.765 
    5600    295.64645   -1125.1938    161.88161    362.11172    971.25034    37655.765 
    5700    299.17658   -1089.4733    170.60545    422.38214    1037.2012    37655.765 
    5800    301.26269   -1096.9637    184.87386    438.51248    1398.8133    37655.765 
    5900    289.82803   -1088.5918    183.95305    394.70039    1013.8854    37655.765 
    6000    291.90974   -1087.1917    177.01973    398.49975    836.13676    37655.765 
    6100     311.3893   -1087.5767    191.39736    499.82198    611.90317    37655.765 
    6200     295.4484   -1092.3839    178.74619     410.8983    258.07325    37655.765 
    6300    288.12259   -1109.6104    186.93274    369.01571    128.34301    37655.765 
    6400    296.72689   -1085.8425    187.27594    431.70108    318.82929    37655.765 
    6500    304.56182    -1079.949    185.93267    471.37648   -146.72154    37655.765 
    6600    294.85823   -1131.6752    191.28829    381.50333   -252.57083    37655.765 
    6700    301.28799   -1139.8208    190.71135    401.60628    231.61304    37655.765 
    6800    295.36514   -1141.3904    200.47219    383.24454    313.34494    37655.765 
    6900    296.60409   -1149.1793    196.34374    376.88162    17.545107    37655.765 
    7000    290.82455   -1123.9371     185.6441     365.5137    287.34699    37655.765 
    7100     304.7421   -1093.3681    206.58357    479.41646    586.54133    37655.765 
    7200    294.94257   -1106.1243    204.61647    420.76055    355.59107    37655.765 
    7300    293.77156   -1100.9868    203.09119    419.12286    946.18125    37655.765 
    7400    301.07244   -1094.1513    194.11464    449.71274    633.85957    37655.765 
    7500    299.47706   -1108.2912    207.23077    441.53665    469.08684    37655.765 
    7600    301.45185   -1080.6738    201.83467    472.61125    341.88307    37655.765 
    7700    311.81176   -1103.9038    209.93626    503.92774    307.25462    37655.765 
    7800    295.39918   -1099.6595    195.01827    419.67415    582.37228    37655.765 
    7900    305.10852   -1087.9834    216.14355    496.00385    630.84007    37655.765 
    8000    309.53513   -1090.1372    211.94617    509.49779    660.62903    37655.765 
    8100    297.56457   -1103.1617    207.86072    438.72211     423.5036    37655.765 
    8200    302.69842   -1104.4984    196.56329    449.10376    357.23365    37655.765 
    8300    314.72339   -1139.6208     200.8908    472.21851    292.38835    37655.765 
    8400    304.42996   -1122.1084    212.96719     455.6604    196.09607    37655.765 
    8500    303.44133   -1134.3251    207.42739    433.47176    440.58174    37655.765 
    8600    300.77817   -1113.0406    207.70435    443.09389    362.03306    37655.765 
    8700    288.50809   -1162.0896    206.33621    337.66825    255.62726    37655.765 
    8800    301.26993   -1104.9671    218.59132      464.259    764.41777    37655.765 
    8900    307.75275   -1136.2993    224.99704    468.39591    250.31165    37655.765 
    9000    297.46889   -1112.2263    220.11993     441.4878    352.68878    37655.765 
    9100    310.60998   -1129.8971    235.64282    498.25319    166.22285    37655.765 
    9200    302.55073   -1106.4882     212.6909    462.57946    344.12071    37655.765 
    9300    293.56799   -1116.1972    230.08621    429.99489     58.62012    37655.765 
    9400    293.04937    -1133.984    238.53442    418.33129    64.978502    37655.765 
    9500    294.37964   -1105.9952    238.54953    452.29901   -251.11073    37655.765 
    9600    304.64672   -1175.1071    235.10995    425.77625    18.606072    37655.765 
    9700    298.08562   -1119.5515    239.48436    456.29199    153.37781    37655.765 
    9800    300.74256   -1151.4743    230.07052    426.86674    174.45582    37655.765 
    9900    304.68426   -1169.0656    240.90826    437.78438    156.95762    37655.765 
   10000    308.10017   -1170.5657    221.86215    432.55216   -144.84709    37655.765 
   10100    307.31032   -1160.9245    230.00449    446.79471   -16.585224    37655.765 
   10200    300.65989   -1171.0899    238.98966    415.79964   -188.97816    37655.765 
   10300    296.90057   -1208.2151    246.06296    368.89415     205.6931    37655.765 
   10400    305.98493   -1167.1113    235.48794    440.14938    596.01413    37655.765 
   10500    302.94345   -1163.1317     255.6657    450.67141    438.96401    37655.765 
   10600    291.01165   -1216.0569    250.03593    338.62447    274.02746    37655.765 
   10700    301.26593    -1165.765    239.18253    424.03432    314.33502    37655.765 
   10800    302.10417   -1156.2693    238.71926    436.82477    198.96898    37655.765 
   10900    315.18109   -1201.3247    250.40986    462.08556    310.64044    37655.765 
   11000     292.6312   -1215.4733    238.14476    334.57762    408.56495    37655.765 
   11100    286.06593   -1177.1376    249.04856     354.3841    211.95482    37655.765 
   11200    297.63156   -1197.5517    266.14745    402.91926    445.64729    37655.765 
   11300    292.77978   -1178.4508    249.45108    383.57253    476.45107    37655.765 
   11400    286.00613    -1202.515    265.20489      344.895    711.89766    37655.765 
   11500    304.57761   -1193.2134    260.21405     432.4642    780.86569    37655.765 
   11600    302.34082   -1198.4504    266.05972      423.045    583.20149    37655.765 
   11700    302.58526   -1185.4585    266.41384    437.48685    507.65168    37655.765 
   11800    301.56603   -1158.9032    261.98726    455.04631     348.9576    37655.765 
   11900    308.29033    -1159.255    256.12493    478.97806    1228.6165    37655.765 
   12000    292.96072   -1212.6758    261.46018    362.16785    496.69704    37655.765 
   12100    298.22613   -1192.8169    263.92741    408.09951   -11.749533    37655.765 
   12200    290.51059   -1152.0369    275.60192    425.96419    36.720821    37655.765 
   12300    300.98787   -1191.6156    244.55572    402.31035     389.5972    37655.765 
   12400    298.74376   -1163.8005    266.28301    441.79209   -318.64138    37655.765 
   12500     306.5438   -1185.2965    258.53025    447.51201   -203.65132    37655.765 
   12600    302.64324   -1151.1943    268.01578    473.61302   -208.82235    37655.765 
   12700    299.58196   -1166.3679    246.93935    423.63877    140.32181    37655.765 
   12800     298.5066   -1170.2235    279.77397    447.79681    55.447889    37655.765 
   12900    307.93096   -1144.7004    248.78738    484.58406    483.60767    37655.765 
   13000    303.18415   -1166.4328    286.77515    479.55881   -82.458617    37655.765 
   13100    298.17417   -1162.3628    259.59463    433.98789    312.56234    37655.765 
   13200    297.20789   -1183.6791    278.53469    427.27964   -19.726628    37655.765 
   13300    300.78919   -1159.6953    311.17334    499.95754    211.33216    37655.765 
   13400    298.95162   -1205.4386    250.83824    385.64112     411.1616    37655.765 
   13500    311.33017   -1201.4269    277.36358    471.67296    603.15049    37655.765 
   13600    301.07642    -1213.863    285.56538    421.46963    360.04212    37655.765 
   13700    297.63872   -1173.9879    264.14759    424.51524     570.7059    37655.765 
   13800    293.16013    -1218.257    276.31313    372.33351     193.7778    37655.765 
   13900     293.7244    -1237.679    266.52497    345.65305    582.78379    37655.765 
   14000    304.96093   -1258.6409    278.53366    387.07477     827.7194    37655.765 
   14100    294.46842   -1243.8202    267.80387    344.12627    530.23196    37655.765 
   14200    283.97385   -1193.2896    277.78625    357.59076      251.415    37655.765 
   14300    296.08206    -1225.914    275.48466     376.9475     82.26239    37655.765 
   14400     302.5726   -1230.2378    280.43863    406.67568    568.90186    37655.765 
   14500    305.65446   -1195.9716    275.57105    449.89073     -72.7624    37655.765 
   14600    298.69373   -1211.3421     279.3114    407.05461    268.34507    37655.765 
   14700     291.7871   -1174.5316    284.38822    417.97857    65.321952    37655.765 
   14800    303.04298   -1193.2151    286.79284    452.16139    441.14967    37655.765 
   14900     296.8418   -1193.7891    276.08764    413.08136    344.32887    37655.765 
   15000    290.80938   -1253.1627    295.99336    346.56935    47.801821    37655.765 
   15100    293.50045   -1226.3705    282.41574    371.84838    202.43407    37655.765 
   15200    296.06866   -1207.8323    289.65029    409.13474    89.673103    37655.765 
   15300    303.41448   -1179.1474     285.6375    466.73917    235.39926    37655.765 
   15400    292.81043   -1220.7065    299.38179    391.38495    497.16628    37655.765 
   15500    301.40429   -1269.4973    286.19905    367.93885    418.48428    37655.765 
   15600    306.95317   -1223.3257    290.32892    443.11677    296.64844    37655.765 
   15700    297.29578   -1168.2777    277.46954    442.00994    454.17126    37655.765 
   15800    299.64034   -1198.1408    274.71434    419.90263   -147.72739    37655.765 
   15900    291.10326   -1204.2755    294.29894     395.0796   -378.51438    37655.765 
   16000    306.35454   -1190.2007    290.40075    473.62982    46.290011    37655.765 
   16100    290.11977   -1207.8549    287.48688    380.27908   -272.39135    37655.765 
   16200    298.40198    -1214.551     309.9273    433.15364   -562.75695    37655.765 
   16300    303.38773   -1215.6479    287.61161    432.09279   -317.98413    37655.765 
   16400     296.5518   -1171.4393    302.08175    460.12519   -398.22113    37655.765 
   16500    304.67239   -1198.6382    286.15136    453.40158   -248.38375    37655.765 
   16600    289.42839   -1139.4214    291.13585    449.26192   -188.65575    37655.765 
   16700    302.58796   -1174.9071     294.1599    475.79649   -345.62247    37655.765 
   16800    296.32031   -1221.4503    303.49997    410.49465   -208.98145    37655.765 
   16900    288.75077   -1163.1517    303.44946    434.80743    397.03856    37655.765 
   17000    287.27883   -1150.0694    303.45579    441.29707    122.70866    37655.765 
   17100    304.18142   -1173.7676    295.50867    485.42847    321.49258    37655.765 
   17200    305.76049   -1213.1743    300.02057    457.61286    648.12643    37655.765 
   17300    306.49833   -1286.5391    284.50795    372.04329    573.20932    37655.765 
   17400    302.95505   -1217.5971    282.88159    423.47392      325.895    37655.765 
   17500    287.52657   -1226.1657    293.58343    356.43906    397.18081    37655.765 
   17600    301.79742   -1205.9561    308.79926    455.84276    81.829347    37655.765 
   17700    290.71102   -1219.9152    291.76694    375.14944   -161.09033    37655.765 
   17800     304.5285   -1182.5697    300.22905    482.90272    130.37958    37655.765 
   17900     299.8799   -1208.1381    306.34235     442.6073    164.57286    37655.765 
   18000     300.0374    -1193.711    282.36734    433.76551    395.76359    37655.765 
   18100    301.63754   -1199.5705    307.55113    460.26347    506.34981    37655.765 
   18200    294.01144   -1226.5358    293.14608    384.70427    789.40848    37655.765 
   18300    305.81944   -1202.4708    293.82212    462.38223    854.13115    37655.765 
   18400    299.54216   -1263.7317    303.95942    383.11663    374.54662    37655.765 
   18500    302.56637    -1214.137      292.456    434.76594    670.28156    37655.765 
   18600     294.1633    -1243.957    300.58447    375.40226    317.62051    37655.765 
   18700    293.15199   -1267.7315    291.81231    338.32174    14.515013    37655.765 
   18800     296.6286   -1248.6638    302.24388    383.40707    539.46135    37655.765 
   18900    292.25366   -1257.2366    310.86824    363.84519    23.051489    37655.765 
   19000    304.02186   -1261.2023    286.49018    388.25992     30.34551    37655.765 
   19100    310.16453   -1273.6211     297.0539    413.94323     391.5874    37655.765 
   19200    310.87656   -1232.6167    309.06664     470.1526    443.97392    37655.765 
   19300    292.33901   -1271.2367    300.27453    339.63405    450.63903    37655.765 
   19400     303.3096    -1277.569    288.11461    370.32451    626.93037    37655.765 
   19500    291.76839   -1282.3485    305.79092    331.48049    221.84578    37655.765 
   19600    306.15414    -1273.047    317.66383    417.14825    766.69305    37655.765 
   19700    300.03299   -1248.1757    315.34177    412.25548    439.54559    37655.765 
   19800    294.94013    -1272.942    308.96874    358.28415    583.76766    37655.765 
   19900    305.23948   -1237.2699    318.49086    449.65171    647.35819    37655.765 
   20000    306.02713   -1233.0942    318.19526    457.06305    528.13198    37655.765 
   20100    302.16285   -1269.3798    309.32337    394.58141    287.99592    37655.765 
   20200    296.40801   -1234.1966    311.53832    406.17983    336.24863    37655.765 
   20300    302.27696   -1227.0319    319.58891    447.70643    146.24486    37655.765 
   20400    306.33692   -1250.4326    303.10702    426.02518    305.10079    37655.765 
   20500    302.74037   -1245.7834    308.29548    419.73908    81.793233    37655.765 
   20600    304.32932   -1230.5631    295.40302    429.19039    276.19546    37655.765 
   20700    301.80544   -1219.3469    320.48165    454.17033    593.06439    37655.765 
   20800    295.18808    -1210.064    308.34966    421.65461    999.74921    37655.765 
   20900    296.67719   -1228.6635    315.30036    416.68179    680.10554    37655.765 
   21000    282.09532   -1216.5513    302.14024    350.26131    948.76659    37655.765 
   21100    293.70266   -1221.7318    319.83285    414.81067    233.48212    37655.765 
   21200    300.01927   -1254.2272    297.83269    388.63336   -240.56063    37655.765 
   21300     309.9147    -1252.778    306.16063    442.77311   -245.85631    37655.765 
   21400    307.35589   -1208.1772    322.75001    492.49177   -77.210524    37655.765 
   21500    305.13661    -1223.342    302.75189    447.37955    163.87235    37655.765 
   21600    297.14327   -1210.6743    313.22539    434.68549   -213.45411    37655.765 
   21700    303.30587   -1201.0313    308.91036    467.64122     96.65271    37655.765 
   21800    305.15715   -1214.2709     305.8318    459.62262   -132.18999    37655.765 
   21900    306.60947   -1220.6264    317.60447    471.55071    -359.6372    37655.765 
   22000    301.33877   -1234.5179    311.44199    427.86752    278.35367    37655.765 
   22100    301.67751   -1220.2245    316.43106    448.66854   -49.840814    37655.765 
   22200    291.44892   -1224.1412    314.60195    397.06661   -153.09932    37655.765 
   22300    303.98228   -1229.3889    329.02695    462.43265    24.940437    37655.765 
   22400    304.92104   -1302.2309    315.03575    379.80806    130.20522    37655.765 
   22500    298.63164   -1271.2458    308.16274    375.72395    14.740334    37655.765 
   22600    295.59202   -1277.7495    296.39378     343.8242    57.856911    37655.765 
   22700    301.48182   -1253.8612    330.56054    428.28402    163.81964    37655.765 
   22800    306.96291   -1285.7666     316.7812    407.17184    331.05096    37655.765 
   22900    303.59856   -1301.2148    324.95893    384.81845    266.81012    37655.765 
   23000     303.4586   -1295.4321    309.98115    374.99598    31.389936    37655.765 
   23100    298.97403   -1293.3574    338.41935    385.40386    48.215666    37655.765 
   23200    305.31246   -1279.1499    325.80371    415.41174    51.682469    37655.765 
   23300    291.93623   -1289.5334    314.17788    333.43499    125.90947    37655.765 
   23400    308.26721   -1276.2307    319.13751    424.91134     147.0754    37655.765 
   23500    301.08973   -1286.6271     320.4462    383.64601    154.81423    37655.765 
   23600    308.48698   -1279.4173    324.13653    427.70906    417.51126    37655.765 
   23700    290.40943   -1276.5761    336.57207    361.94165   -42.410643    37655.765 
   23800    305.68009   -1296.0527    299.64369    373.99714   -221.64138    37655.765 
   23900    295.69131   -1300.4644    295.67007    320.83069    94.805127    37655.765 
   24000     305.3365   -1349.9457     321.6375    340.55756     197.1439    37655.765 
   24100    294.31947   -1328.6343    327.53835    318.37896   -107.58368    37655.765 
   24200    299.82601   -1296.5262    328.64722    376.28243    68.322905    37655.765 
   24300    295.21999   -1287.0283    321.56096    358.04469    92.371471    37655.765 
   24400    293.47796   -1291.4971    307.73517    331.94042   -15.259754    37655.765 
   24500    299.63789   -1272.8738    332.10103     402.5453     52.25478    37655.765 
   24600    304.19928   -1263.5703    318.45593    418.65309   -14.568376    37655.765 
   24700     305.7125   -1266.9762     336.5536    440.12887    127.53638    37655.765 
   24800    299.19197    -1263.901    317.35503    394.77301   -401.13544    37655.765 
   24900    299.45131   -1268.3359    314.43362    388.57932   -212.48277    37655.765 
   25000    306.50702   -1242.4073    344.42287    476.12899   -106.44836    37655.765 
   25100    305.24407   -1220.5235     335.5449    483.47274   -157.57061    37655.765 
   25200    304.10209   -1232.2238    329.50999    460.61798    -110.8773    37655.765 
   25300      292.875   -1246.9468    347.52325    413.57556   -335.48049    37655.765 
   25400    293.58637   -1291.8997    331.35113    355.63975   -590.92846    37655.765 
   25500    292.18907    -1243.248    340.53192    407.20793   -135.49266    37655.765 
   25600    292.74053   -1282.3591    329.24623    359.28343   -420.20079    37655.765 
   25700    296.14113   -1287.0886    338.82945    379.38256   -187.54697    37655.765 
   25800    303.18893   -1274.0619    343.68439    428.86039   -43.026813    37655.765 
   25900    299.62037      -1301.7    332.29264    373.83217    108.84369    37655.765 
   26000    292.78079   -1265.4105    323.13465    370.30087   -31.876348    37655.765 
   26100      308.281   -1276.1964     341.1938    447.06378    83.477769    37655.765 
   26200    300.76988   -1288.0124    340.16549    400.54603    270.13808    37655.765 
   26300    299.05836   -1269.2496    331.72196    403.19239    170.76936    37655.765 
   26400    301.69924   -1281.0609    324.23177    395.73031    2.1229111    37655.765 
   26500    288.12993   -1293.4604    345.92671    344.19261    22.127233    37655.765 
   26600    294.77973   -1259.4637    332.15644      394.231    224.66523    37655.765 
   26700    297.86249    -1312.427    347.93202     370.8637    483.47415    37655.765 
   26800     306.3286   -1268.9792    333.09297     437.4273    420.88056    37655.765 
   26900    301.99539   -1265.0062    345.19696    434.07784    675.90072    37655.765 
   27000    296.55118   -1245.6971    353.81612    437.59894    520.07353    37655.765 
   27100    307.04123   -1253.2978    353.86964    477.08019    489.79978    37655.765 
   27200    303.09391   -1264.0491    363.26937    458.03222    326.51482    37655.765 
   27300     300.8475   -1247.1463    350.31938    451.91408    48.242261    37655.765 
   27400    303.89204   -1237.6835    340.24128    464.94778    307.21168    37655.765 
   27500    295.36233   -1286.6044    344.22856    381.77429   -215.65238    37655.765 
   27600    293.94589   -1261.7084    341.68428    397.77595    146.66504    37655.765 
   27700    303.25544   -1261.5707    391.80428    489.76964    105.94354    37655.765 
   27800    303.80256   -1239.7419     353.8635    476.11052    234.90518    37655.765 
   27900    303.78735   -1265.2269    342.41422    439.10804     279.2179    37655.765 
   28000    298.30551   -1271.4249    370.42557    436.34556    33.984089    37655.765 
   28100    297.59671   -1250.8913    356.73242    440.00839    237.41931    37655.765 
   28200    290.83299   -1256.5667    347.60223     394.8801    282.57453    37655.765 
   28300    304.62439   -1242.9912    367.85858    490.54069   -57.892446    37655.765 
   28400    306.15453   -1254.9698    352.47438    470.03774   -116.75715    37655.765 
   28500    305.68567   -1268.0108    362.70907    465.12942   -167.09205    37655.765 
   28600    297.87362   -1220.4476    366.76852     481.7295   -101.09098    37655.765 
   28700    313.49485   -1273.6445    356.91678    488.71302   -76.962222    37655.765 
   28800     306.0788   -1304.7156    361.26057    428.73859    260.39297    37655.765 
   28900    292.99526   -1292.1656    345.96114    367.33378    364.57162    37655.765 
   29000    320.63249   -1284.1751    337.52811    490.79282    71.974813    37655.765 
   29100    307.40126   -1307.5536    347.40797    417.97669    637.61112    37655.765 
   29200    300.19709    -1280.418    354.48819    419.89524   -11.099399    37655.765 
   29300    298.11916   -1272.3159    327.98027    392.17378   -243.36688    37655.765 
   29400    305.63036   -1280.2568    322.31878    412.24522   -79.848974    37655.765 
   29500    295.02004   -1276.3894    364.86017    411.08638    15.055706    37655.765 
   29600    287.49986   -1244.6931    386.15467    430.36325    32.015879    37655.765 
   29700      305.292   -1321.5725    345.17636    392.27015   -76.909022    37655.765 
   29800    317.88201   -1317.4613    344.64138    452.28909   -198.53073    37655.765 
   29900    301.76552   -1289.8323    334.50834    397.53263     243.5324    37655.765 
   30000    291.36718   -1304.3823    356.94286    358.79988   -240.24834    37655.765 
   30100    301.36351   -1289.5569    345.11244    406.60982   -172.08611    37655.765 
   30200    297.43836   -1311.0991    329.08549    351.44368   -20.118287    37655.765 
   30300    286.16519   -1280.2365    360.68898    363.37065   -215.15721    37655.765 
   30400    289.43435   -1257.4453    364.57446    404.70336   0.12611806    37655.765 
   30500    307.89822   -1258.1726    331.96897    454.14667    55.236979    37655.765 
   30600     294.5386   -1253.2886    348.88995    416.05862    155.80341    37655.765 
   30700    298.51993   -1341.0797    341.04195    338.26842   -220.36208    37655.765 
   30800    297.14128   -1259.3722    350.11961     422.8729   -480.60865    37655.765 
   30900    293.33699   -1280.8219    359.18739    393.43581   -276.56122    37655.765 
   31000     305.8503    -1269.493    373.31587    474.99208   -281.31831    37655.765 
   31100    299.97281   -1250.3561    386.80102    481.26451   -57.257766    37655.765 
   31200    298.09626   -1234.8114     381.4492    483.04452   -31.292973    37655.765 
   31300    298.01103   -1200.8801    386.47044    521.61505    49.160565    37655.765 
   31400    307.34248   -1245.2706    347.92812     480.5164   -275.33814    37655.765 
   31500    303.42369    -1264.237     359.7137     455.7671    -289.3965    37655.765 
   31600    299.72487   -1251.5093    362.30144    454.50017   -411.25186    37655.765 
   31700    306.95404   -1250.8699    359.95878    485.20632   -82.230916    37655.765 
   31800     295.9965   -1262.7211    342.74049    407.01259   -56.833838    37655.765 
   31900    302.85427   -1298.3461    371.43801    430.82944    50.937844    37655.765 
   32000    298.92296   -1275.2564    371.62529    436.48187   -78.333801    37655.765 
   32100    306.25941   -1284.1449    366.24231    455.10074    -31.07845    37655.765 
   32200    298.06043   -1299.9979    363.47707    399.72525   -378.39224    37655.765 
   32300    299.12121   -1286.6939    350.63846    404.94628   -221.29303    37655.765 
   32400    300.29597   -1320.3505    326.19667    352.11449   -502.85431    37655.765 
   32500    289.36195   -1315.3943    333.89752    315.75281   -436.46494    37655.765 
   32600    312.41312   -1296.1153    341.04091    445.51683   -142.34609    37655.765 
   32700    290.99818   -1289.7166    366.78744    381.65594   -354.09299    37655.765 
   32800     291.0902   -1287.0881     348.1142    366.02368   -429.32839    37655.765 
   32900    310.17043   -1271.5352    362.63126    481.63294    150.96496    37655.765 
   33000    302.16205   -1333.1416    370.31162     391.8043   -239.46467    37655.765 
   33100    299.51182   -1294.7345    372.67916    420.69762    506.63692    37655.765 
   33200    304.71595   -1281.7642    344.56437    428.88393   -3.7209152    37655.765 
   33300    294.29733   -1325.4475    355.26683    349.19497   -165.03953    37655.765 
   33400    293.54374   -1320.3265    343.42941     339.1001    343.70861    37655.765 
   33500     294.0508   -1321.0534    346.34319    343.56024    200.98661    37655.765 
   33600    299.39108   -1352.3027    351.63906    341.54796    571.08314    37655.765 
   33700    296.05505   -1319.4708     370.1627    377.94765     496.1128    37655.765 
   33800    301.01874   -1347.3114    362.83464    365.03192       809.57    37655.765 
   33900    292.21211   -1351.2874     367.2399    325.97982    245.74691    37655.765 
   34000    294.81681   -1292.7882    377.72268      406.639    204.15026    37655.765 
   34100    302.82875    -1335.035    358.53487     381.1231    409.12827    37655.765 
   34200    306.18333   -1305.7616    356.23108    423.13168     311.8486    37655.765 
   34300    296.63144   -1291.6729    364.17873    402.34557     640.3115    37655.765 
   34400    299.58149   -1319.9796    389.48011     412.5658    698.66906    37655.765 
   34500    312.67814   -1304.4874    390.79095    488.08285    576.03407    37655.765 
   34600    294.28313   -1327.0086    377.93175    370.23517    250.19343    37655.765 
   34700    299.00508   -1315.8644    360.85073    385.46752    400.28868    37655.765 
   34800    297.60775   -1325.7328    352.94696    361.43086    24.350223    37655.765 
   34900    293.78708   -1341.0635    362.98816    339.01276    -200.8229    37655.765 
   35000    294.28591   -1328.6904    359.85781    350.49181   -258.96346    37655.765 
   35100    301.56117   -1337.0002    357.04325    371.98352    -145.5385    37655.765 
   35200    291.19121    -1308.183     373.6677    370.93515   -228.22659    37655.765 
   35300    304.79851   -1296.9292     374.9929    444.51761   -438.78757    37655.765 
   35400     306.9723   -1251.8267    378.47928     502.8519   -217.59264    37655.765 
   35500    296.71654   -1300.7983    367.68557    397.10857   -254.97234    37655.765 
   35600    299.25832   -1295.6589    363.88141    409.83897   -385.24448    37655.765 
   35700    302.83916   -1313.5504    376.80453    420.92393    463.27484    37655.765 
   35800     309.8297   -1337.7593    392.50529    443.75542     780.0972    37655.765 
   35900    308.90691   -1376.5977    378.81765    387.09237    423.82815    37655.765 
   36000    305.33102    -1342.794    386.35425    412.40142    377.00563    37655.765 
   36100    311.86269   -1347.4611     388.7757    439.43823    705.79294    37655.765 
   36200    299.33911    -1339.533    371.63486    374.08047    656.21672    37655.765 
   36300    300.30913   -1322.8544    400.39668    423.86969     400.0448    37655.765 
   36400    291.84797   -1329.0313    358.62648    337.99002    350.29174    37655.765 
   36500    309.14987   -1317.0873    374.52662     443.4009    286.69055    37655.765 
   36600    299.65274   -1311.0794    370.19765    402.50294    210.00572    37655.765 
   36700    306.54771   -1337.9518    374.34039    410.68439    17.073179    37655.765 
   36800    303.46019   -1321.5823    393.68106    432.55272     439.8428    37655.765 
   36900    288.19142    -1341.531    408.30325     358.7743    312.93594    37655.765 
   37000    298.84091     -1336.07    380.54142    384.21657    40.014266    37655.765 
   37100    305.39456   -1326.8269    382.66768    424.96679   -373.12769    37655.765 
   37200    308.63607    -1312.332    380.18683    451.51305   -636.17105    37655.765 
   37300    311.68371   -1312.1662    403.30641    488.46134   -421.20277    37655.765 
   37400    295.18844    -1363.504    389.03931    348.90589   -478.35779    37655.765 
   37500    293.48812   -1380.6497     377.6022    312.70032   -347.56189    37655.765 
   37600    298.37353    -1369.208    371.62339    340.06521    -519.6774    37655.765 
   37700    286.55324   -1367.5406    363.43182    280.54904    -376.2989    37655.765 
   37800    300.73534   -1361.0126    388.45486    375.68044   -360.28386    37655.765 
   37900    296.00085   -1343.8896     364.9968    348.11991    61.428329    37655.765 
   38000    305.59615   -1343.3128    391.90657    418.62361   -276.51163    37655.765 
   38100    293.01551   -1359.2212    356.45246    310.86034   -73.816226    37655.765 
   38200    294.89923   -1333.6295    369.36999    357.81451   -526.87241    37655.765 
   38300    290.41227   -1297.9482     391.0455    395.05566   -790.73307    37655.765 
   38400    301.11626   -1331.7207    397.25835    415.48354   -166.60306    37655.765 
   38500    307.69644   -1314.3161    385.44793    450.57756   -148.68561    37655.765 
   38600    308.35768   -1327.5616    380.37651    435.22501    268.28623    37655.765 
   38700    293.81223   -1329.8688    393.43257    380.76465   -271.90966    37655.765 
   38800    295.79807   -1332.2914    377.38597    371.19818    347.56028    37655.765 
   38900    307.90076   -1357.5868    373.28919    396.06402    151.33169    37655.765 
   39000    291.33566   -1360.0623    364.83161    310.86732    75.596537    37655.765 
   39100    292.58139   -1362.5727    375.67116     324.7813    403.89185    37655.765 
   39200    295.64816   -1349.7695    398.55076    374.21281    282.20957    37655.765 
   39300    308.42236   -1333.7226     385.6546    434.63208     202.4696    37655.765 
   39400    304.64421   -1311.7676    369.54139    423.53595    379.47832    37655.765 
   39500    306.32702   -1335.6634     388.6811    426.32413     179.1565    37655.765 
   39600    303.17674    -1349.752    390.51204    399.94329    122.13929    37655.765 
   39700    293.90687    -1338.569    372.92491    351.98111   -150.32555    37655.765 
   39800    305.64115   -1383.1656    360.44182    347.50772   -61.958242    37655.765 
   39900    299.83036   -1383.9379    372.90737    333.15044   -39.344394    37655.765 
   40000    293.25352   -1370.6459    394.14734    338.19753   -149.60887    37655.765 
   40100    309.16943    -1356.644    379.80758    409.21292   -19.578936    37655.765 
   40200    303.70524    -1367.961    380.08686    373.67841    286.07495    37655.765 
   40300    311.38722   -1374.1724    361.48887    383.30846   -451.23583    37655.765 
   40400    299.60419   -1394.6974    374.52974    322.99931    -337.4478    37655.765 
   40500    292.75351   -1346.9618    376.01808    341.51073   -712.63247    37655.765 
   40600     298.2885   -1339.6129    377.19556    374.85128   -141.25289    37655.765 
   40700    293.83318    -1358.936    375.19173     333.5505   -60.863097    37655.765 
   40800    303.12749   -1369.2946     377.1418    366.80966   -451.76546    37655.765 
   40900    292.91695   -1370.4507    357.91654    300.65307   -148.19378    37655.765 
   41000    303.60701   -1406.4628    381.00077    335.65014   -652.03643    37655.765 
   41100    306.52975   -1341.3905     370.3089    403.13368   -434.98699    37655.765 
   41200    302.23847   -1371.2032    388.33279    372.10648   -301.65865    37655.765 
   41300      293.987   -1360.5859     382.0783    339.47673   -9.3598538    37655.765 
   41400    297.28595   -1308.4602    386.37963    410.69345    137.20864    37655.765 
   41500    311.53813   -1354.9624    392.49029    434.19637   -178.58935    37655.765 
   41600    292.79508   -1364.1703    370.70177    319.17232   -340.28703    37655.765 
   41700    306.23688   -1388.9842    381.75816    365.67626   -277.96489    37655.765 
   41800     285.8687   -1348.4242    385.44041    318.60517    -81.35361    37655.765 
   41900    299.32813   -1349.5652    380.36477    372.72896    148.46504    37655.765 
   42000     304.3857   -1372.8898    384.08788    375.80126    244.48215    37655.765 
   42100     292.5746   -1403.5236    397.52647    305.65532   -17.410982    37655.765 
   42200    314.14265   -1364.2353     414.7883    458.89794    326.63327    37655.765 
   42300    306.02432   -1364.7385    407.94132    415.15215    62.830418    37655.765 
   42400    301.09277   -1351.0208    410.58046    409.40025    607.09841    37655.765 
   42500    307.54418   -1343.3422    392.71158    428.13247    896.81975    37655.765 
   42600     301.0332    -1356.273    395.00772    388.30822    429.39739    37655.765 
   42700    311.48101   -1353.2568    402.46725    445.62292    62.239891    37655.765 
   42800    313.95741   -1370.9179    375.56957     412.1662    642.50635    37655.765 
   42900    303.98094   -1353.9432    398.15735    407.00277     413.4849    37655.765 
   43000    309.20323   -1345.3406      383.306    424.16622    110.16029    37655.765 
   43100    311.61965   -1315.5225    392.65647    474.16799    144.25722    37655.765 
   43200    301.36523   -1313.6391    403.30139    440.72429  -0.94377535    37655.765 
   43300    301.83449   -1327.9813    376.61027    401.79475   -183.72403    37655.765 
   43400    296.11817   -1304.3174    387.40034    410.62171   -400.90402    37655.765 
   43500    307.50525   -1313.1033    390.92162    456.40691   -376.21549    37655.765 
   43600    307.83029   -1350.2275    397.78247    427.60073   -176.58593    37655.765 
   43700    293.38909   -1343.0812    400.45107    372.67374   -480.49929    37655.765 
   43800    301.66935   -1310.4506    390.95157    432.92636   -135.44993    37655.765 
   43900    302.85322   -1324.3129    405.70421    439.12416    22.502539    37655.765 
   44000    300.56568    -1386.994    400.65306    361.13658   -87.194609    37655.765 
   44100     303.7001   -1348.3087    396.04835    409.26926    74.270619    37655.765 
   44200    293.96064   -1362.6797    414.23181    369.41836   -199.85532    37655.765 
   44300    304.25271   -1405.8577    384.02698    342.17622    209.86447    37655.765 
   44400    290.87677   -1377.3484    396.59388    323.28624    72.417925    37655.765 
   44500    303.30376   -1420.2785    391.37021    330.84437    665.68994    37655.765 
   44600    301.97798   -1392.5449    381.84476    343.10889   -203.30704    37655.765 
   44700    296.76167   -1384.2993    386.51562    332.63996    230.41346    37655.765 
   44800    295.13219   -1350.7521      384.619    356.98529   -77.940923    37655.765 
   44900    296.33676   -1379.6888    381.32142    330.15128   -290.56603    37655.765 
   45000    292.13619   -1345.1556    391.39266    355.92395   -712.97818    37655.765 
   45100    296.84651   -1366.4249    396.29022    360.66932    -393.8875    37655.765 
   45200    305.31987    -1381.177    374.62684    362.24102   -135.18216    37655.765 
   45300    292.97887   -1382.3188    385.21908    316.36513      593.199    37655.765 
   45400    301.00605   -1399.8374     383.5464    333.16077    342.31618    37655.765 
   45500    301.85477   -1353.8853    390.77175    390.14319   -133.78852    37655.765 
   45600    311.57623    -1315.431    412.68842    494.09676   -385.43998    37655.765 
   45700    294.95476   -1334.4039    415.76292    403.68202   -515.13269    37655.765 
   45800    314.22125   -1299.7723    398.20423    507.12929   -236.03527    37655.765 
   45900    297.63495   -1368.9712    399.36529    364.73276   -909.80598    37655.765 
   46000    301.46541   -1327.1707    404.55056    428.89097   -735.14598    37655.765 
   46100    298.61976   -1340.9901    417.63297    415.39658   -792.44992    37655.765 
   46200     302.6209   -1331.3705    397.67537    422.99622   -674.52384    37655.765 
   46300    299.56013   -1338.6103    408.49827    412.85747   -448.35124    37655.765 
   46400     299.3078   -1384.9989    400.06466      356.904   -325.77017    37655.765 
   46500     293.2558   -1363.7859    391.94707    342.86751   -505.76869    37655.765 
   46600    305.30481    -1356.404    398.25956    410.57926   -272.07307    37655.765 
   46700     303.3752   -1312.3627    414.08562    461.79593   -28.599623    37655.765 
   46800    295.95379   -1326.6876    414.92984    415.04405    255.04595    37655.765 
   46900    290.17301    -1306.791    406.22863    400.32334    162.99057    37655.765 
   47000    299.53479   -1327.4084    412.83288    428.28033    4.3193641    37655.765 
   47100    310.30428   -1299.8337    406.91321    498.21654   -90.494067    37655.765 
   47200    297.94446   -1308.0384    407.94731    435.63512   -177.80563    37655.765 
   47300    295.17008   -1363.7412    402.95301    362.50005   -212.98706    37655.765 
   47400    291.17845   -1340.8716    416.03678    380.55844   -443.79003    37655.765 
   47500    297.70145   -1327.9366    399.86881    406.56901   -110.22792    37655.765 
   47600    299.55854   -1363.0014    413.31868    393.27966    91.717607    37655.765 
   47700     295.3874    -1356.405    396.70395    364.56149    2.0828816    37655.765 
   47800    292.93258   -1341.9376    399.84133    371.16106   -310.76908    37655.765 
   47900    306.23748   -1360.2276    408.00832    420.68565    353.17796    37655.765 
   48000    300.11825   -1373.8688    411.62054    383.22335   -5.3008942    37655.765 
   48100    302.14066   -1386.7201    410.50451    378.32277   -56.199137    37655.765 
   48200    308.69755   -1358.9606    415.90625    440.87949     154.4478    37655.765 
   48300    295.98683   -1390.2343    393.93346    330.64907   -84.488581    37655.765 
   48400    315.12461   -1340.7583    404.26204    476.25092    622.43026    37655.765 
   48500    290.37896   -1352.6971    414.53747    363.64944   -576.01068    37655.765 
   48600    286.64819   -1339.4101    412.80821    358.48165    121.97487    37655.765 
   48700    304.15989   -1394.7641    402.50146     371.3282    582.52256    37655.765 
   48800    302.03207   -1427.9765    414.76557    340.84063    651.11882    37655.765 
   48900    298.90687   -1368.9701    418.32659    389.39732    382.43208    37655.765 
   49000    305.17788   -1391.0212    407.35258    384.48597    239.38721    37655.765 
   49100    295.90912   -1406.8532    390.22115    309.96947    511.75244    37655.765 
   49200    290.43798   -1415.3138    387.47804    274.23787    76.571974    37655.765 
   49300    293.97959   -1394.4852    410.86438    334.33029   -202.97549    37655.765 
   49400    302.07251   -1396.0778    400.39238    358.54742    66.128019    37655.765 
   49500    299.99051   -1419.4947    434.27512    359.67942      81.3873    37655.765 
   49600     298.2579   -1411.6994    395.97126    321.40324   -169.75513    37655.765 
   49700    299.91748   -1401.0737     384.4378    327.93564   0.56392011    37655.765 
   49800    290.75235   -1390.5196    425.46026    338.42369    514.98774    37655.765 
   49900    297.47505   -1399.8511    395.56797    329.33868    460.53638    37655.765 
   50000    311.23794   -1443.4072    406.42099    358.33658    238.05068    37655.765 
   50100    292.99399   -1377.6406    407.87616    343.76811    252.87133    37655.765 
   50200    302.77819   -1438.7787    378.19194    296.80971    299.13759    37655.765 
   50300    313.55844    -1356.662    390.71831    439.78223    114.32375    37655.765 
   50400    303.44029    -1385.841    381.49951    356.02334    478.31334    37655.765 
   50500    300.74971    -1372.802    414.68404     390.1846   -570.80572    37655.765 
   50600     303.6799   -1332.5878     402.0149    430.86616   -190.10191    37655.765 
   50700    296.44706   -1353.8593    412.06715    387.22109   -131.09805    37655.765 
   50800    302.72941   -1367.7915    419.62225     409.0086   -521.17372    37655.765 
   50900    297.63922     -1353.56    393.05367    373.85147   -233.07185    37655.765 
   51000    304.46301    -1365.286    396.58113     396.2449    271.46701    37655.765 
   51100    298.07616   -1350.2591     424.0668    410.12434   -707.66502    37655.765 
   51200    302.63819    -1359.982    418.38783     415.1747   -71.512279    37655.765 
   51300    295.39923   -1352.8303    407.40177    378.88705   -453.52672    37655.765 
   51400    291.01121   -1363.8334    415.81374    356.62388   -592.39964    37655.765 
   51500    305.08404   -1369.9545    416.11378    413.89319    48.638263    37655.765 
   51600    291.87295   -1343.3806    425.26183      390.388    -528.7586    37655.765 
   51700    299.07877   -1373.5747    428.65637    395.89314    191.82056    37655.765 
   51800    294.26379   -1381.7389    413.93935     351.4257    54.540566    37655.765 
   51900    300.74755   -1386.8911      416.144    377.54571    573.21529    37655.765 
   52000     300.7683    -1363.743    407.52116    392.16407     423.1031    37655.765 
   52100    299.56937   -1406.2394    426.54409    363.31567    489.85747    37655.765 
   52200    292.48483   -1377.4681    421.55046    355.33225    547.48444    37655.765 
   52300    297.71818   -1376.8458    421.38868     379.2547    549.25468    37655.765 
   52400     298.5302   -1382.9839    421.38693    376.75522    611.47102    37655.765 
   52500    292.79742   -1386.8478    419.87886    345.68234    673.92733    37655.765 
   52600    305.71843   -1359.5876    416.58746    427.57782    346.06868    37655.765 
   52700     301.2797   -1388.0052     434.6831    397.35642     557.6857    37655.765 
   52800    299.53064    -1389.817    432.91516    385.93548    85.594967    37655.765 
   52900    308.01161   -1331.8225    410.71766    459.75382   -163.61403    37655.765 
   53000    296.46399   -1318.1291    421.49485    432.45483    15.506657    37655.765 
   53100    290.04962   -1346.8469    422.01605    375.50165    -179.2084    37655.765 
   53200    294.96505   -1333.2025    430.75165    419.91825   -252.89777    37655.765 
   53300    301.56446    -1364.848    418.37512    405.48233   -577.56815    37655.765 
   53400    304.48947   -1386.6776    427.77933    406.17019   -27.916131    37655.765 
   53500    297.38756   -1331.9787    420.98136    422.23225   -163.81191    37655.765 
   53600    297.70234   -1339.5318    420.69292     415.8019   -267.08809    37655.765 
   53700    304.60766   -1395.9515    418.94148    388.58829   -117.26176    37655.765 
   53800    304.30417   -1389.6696    436.71262    411.28065    12.946241    37655.765 
   53900     308.9523   -1404.7856    419.50864    399.79888    73.353353    37655.765 
   54000     300.6635    -1375.241    426.90452    399.57961    102.33305    37655.765 
   54100    292.60134   -1359.1569    397.45659    350.07199   -911.94053    37655.765 
   54200    299.38053   -1374.2883    396.95508    364.83108   -121.02637    37655.765 
   54300      291.371   -1367.1976    429.53728    368.59618    3.9435293    37655.765 
   54400    298.30522   -1396.4964    436.49745    377.34465   -194.87571    37655.765 
   54500    295.43551   -1373.8782    462.49427    413.09432     258.1565    37655.765 
   54600    307.92047   -1362.6074    435.71461    453.55731    300.91966    37655.765 
   54700    295.93009   -1364.8732    424.34589    386.16817    84.440686    37655.765 
   54800    298.07697   -1350.6949     463.5322    449.15758    144.86883    37655.765 
   54900    313.41094   -1398.2912    431.58511    438.35845    441.70264    37655.765 
   55000    305.33422   -1374.3229    428.39529    422.92793    520.99707    37655.765 
   55100    299.52409   -1385.8157    398.98931    355.98152    301.23799    37655.765 
   55200    300.50104   -1398.2254    421.52871    370.49098    217.16192    37655.765 
   55300    292.68375   -1381.8718    413.87706    344.14697    154.05687    37655.765 
   55400    289.84427   -1395.3294    414.72101     318.8036    29.376302    37655.765 
   55500    299.58536    -1405.664    425.09753    362.51619    213.78784    37655.765 
   55600    298.05046   -1399.0198    442.94451    380.12611    265.33559    37655.765 
   55700     293.8469   -1374.5392    444.33292    387.15004   -68.240864    37655.765 
   55800    306.80166   -1388.1893    423.19639    410.44139    85.508257    37655.765 
   55900    309.16115   -1370.9383    438.31199    453.38594   -225.14227    37655.765 
   56000    296.41418   -1384.2462    410.83085    355.45046   -653.06003    37655.765 
   56100    299.15837   -1343.8047     424.5041    421.86773   -177.09229    37655.765 
   56200    298.59618   -1405.6939    407.26363    340.21775    122.41455    37655.765 
   56300    291.94033   -1395.1419    398.53883    312.20578   -62.653248    37655.765 
   56400    313.57238   -1380.0194    426.74662    452.51551    614.66297    37655.765 
   56500    310.03661    -1354.993    449.12125    484.06522    932.41817    37655.765 
   56600    290.89886   -1390.6534    431.97792    345.46437    936.36596    37655.765 
   56700    296.96554   -1387.4191    415.00771    358.92622    456.17855    37655.765 
   56800    304.32388   -1364.4682    394.81601    394.67382    314.42427    37655.765 
   56900     307.3284   -1409.2579    399.67385    368.21166    374.04567    37655.765 
   57000    298.21048   -1357.1968     441.6236    421.34558    305.96829    37655.765 
   57100    302.05059   -1350.8329    441.59909    444.90079    58.084899    37655.765 
   57200    300.28694   -1365.4791    409.83966    390.58843   -146.42695    37655.765 
   57300    296.75199   -1393.9233     443.0007    379.45763    36.990955    37655.765 
   57400    302.21306   -1387.1607    415.69854    383.40074   -374.93567    37655.765 
   57500    301.16582   -1387.4576     422.5061    385.21656    23.446488    37655.765 
   57600    291.90883   -1400.1859    414.82527    323.30706    314.71353    37655.765 
   57700     295.4344   -1416.8731    399.14043     306.7406    199.57449    37655.765 
   57800     293.7612   -1384.3845    414.69163    347.27922    157.16896    37655.765 
   57900    308.92121   -1393.2164    417.46186    409.18195    132.39217    37655.765 
   58000    313.84533   -1404.1947    408.29221    411.10958    321.09985    37655.765 
   58100    292.09235   -1395.8562     424.3594    337.99357    266.70471    37655.765 
   58200    289.76802   -1437.3726    445.86266    307.56019    630.99474    37655.765 
   58300    308.64511   -1454.4329    424.89002    354.15585    591.50878    37655.765 
   58400    299.96522   -1394.1262    413.69792    364.35731    85.970819    37655.765 
   58500    301.08258   -1369.6048    443.29335    423.48338    265.81104    37655.765 
   58600    295.22662   -1414.3432     436.1249    345.32342    596.46422    37655.765 
   58700    300.61302   -1411.7449    414.33117    350.27605    387.16741    37655.765 
   58800    299.71954   -1406.9862    421.09191    357.78985   -16.459608    37655.765 
   58900    297.56003    -1422.506    411.02715     322.5239    420.09076    37655.765 
   59000    299.67654   -1429.7953    411.65011    325.34614    56.219938    37655.765 
   59100    302.16378   -1379.9694    439.29246     413.9651    179.04948    37655.765 
   59200    305.97355   -1423.7087    419.25795    367.27104    261.31882    37655.765 
   59300    298.39725    -1444.115    444.54041     338.1816    3.2958392    37655.765 
   59400    308.46641   -1465.3002    405.68374    323.28112    180.07284    37655.765 
   59500    291.24131   -1434.5008    439.74379     310.9181   -231.91603    37655.765 
   59600    295.11672   -1424.5638    441.30433    339.78958   -249.42979    37655.765 
   59700    311.47562   -1447.9856    424.92276     373.3255    23.276134    37655.765 
   59800     298.0402   -1434.1864     423.3754    325.34441    57.485491    37655.765 
   59900     299.3102   -1452.1871    419.67481    309.33677   -856.42622    37655.765 
   60000    297.86012   -1444.8468    420.81133    311.31264   -787.20269    37655.765 
   60100    305.02894   -1467.9503    417.34317    316.87979    193.90826    37655.765 
   60200    291.33147   -1436.4619    436.65766    306.27501    59.969181    37655.765 
   60300    307.04669   -1467.9912    411.51056    320.05214    151.33927    37655.765 
   60400    294.07616    -1499.684    438.94271     257.6428    581.99791    37655.765 
   60500    297.13574    -1469.327    450.37412    313.14772    658.72618    37655.765 
   60600    302.80785   -1419.4972    431.25392    369.28616    247.94732    37655.765 
   60700    298.67762   -1449.3723    429.78555    319.42629    627.16434    37655.765 
   60800     293.8665   -1471.0164    454.16782    300.59561    277.95501    37655.765 
   60900     292.9773   -1462.2409    414.52099    265.73789    22.392866    37655.765 
   61000    306.44757   -1437.6876    414.68343    350.84266   -232.38016    37655.765 
   61100    290.43464   -1456.4558    412.45763    258.06045   -485.96813    37655.765 
   61200    299.55929   -1461.9145    421.66743    302.71864   -336.30344    37655.765 
   61300    307.00396   -1427.2616    416.26291    365.34252   -155.52992    37655.765 
   61400     296.3172   -1409.6253    430.15918    348.96491    117.91006    37655.765 
   61500    292.49507   -1407.0064    415.06923    319.35871   -141.41725    37655.765 
   61600    301.78042   -1428.8917    426.34342    350.37502    292.57451    37655.765 
   61700    309.00993    -1419.154    447.59758    413.77786   -5.1138092    37655.765 
   61800    305.87584   -1456.8795    420.96998     335.3742   -820.90061    37655.765 
   61900    302.34901   -1450.1529    464.83621    370.15578   -680.17595    37655.765 
   62000    300.86643   -1394.6524    421.48287    375.65626   -195.77143    37655.765 
   62100    297.00232    -1396.614    412.44679     347.3353   -215.84897    37655.765 
   62200    299.87614   -1394.3879    438.47793    388.47622    338.86904    37655.765 
   62300    305.27568   -1445.6325    410.22854     333.1891    657.29735    37655.765 
   62400    298.40468   -1432.5129    457.25076    362.52734    359.05369    37655.765 
   62500    292.09684   -1405.4498    423.37449     327.4352    514.92499    37655.765 
   62600    294.01623   -1405.5433    443.24983     355.8219     494.7025    37655.765 
   62700    307.25568   -1430.8787    449.00588    395.59689    292.81347    37655.765 
   62800    299.96682   -1384.8705    429.25324    389.17545    445.47078    37655.765 
   62900     302.9244   -1389.9606    433.51646    401.60791   -29.536183    37655.765 
   63000    304.29606   -1409.4637    440.03067    394.76824    246.95856    37655.765 
   63100    297.98386   -1439.4928    421.45084     317.8609    140.47837    37655.765 
   63200    302.45294   -1416.4463    412.93785     352.4299   -147.59422    37655.765 
   63300    280.05956   -1426.1792    430.98881    260.35536   -397.77362    37655.765 
   63400    304.23278   -1383.6065    436.10737    416.41848   -29.352467    37655.765 
   63500     293.3049   -1402.3111    424.99961    337.61497   -114.27525    37655.765 
   63600    298.01048   -1420.0227     423.0681    339.06765    -12.72656    37655.765 
   63700    301.49242    -1454.751    431.91066    328.79187    525.22198    37655.765 
   63800    295.84969   -1453.5449    456.16829    328.95844    541.16757    37655.765 
   63900    302.95437   -1448.6539     443.3541     352.8865    677.08824    37655.765 
   64000     296.9105   -1426.6799    435.97705    340.38799    104.65868    37655.765 
   64100    297.85417   -1397.9448    441.91984    379.29644    171.04823    37655.765 
   64200    298.76041   -1441.0229    454.25535    352.61674   -148.96649    37655.765 
   64300     301.6389   -1458.1707    430.09807    324.21626    178.09634    37655.765 
   64400    318.30436   -1431.8539    426.63164    421.78027    395.35565    37655.765 
   64500    292.42757   -1455.8559    435.89954    291.03685    455.82661    37655.765 
   64600    307.26741   -1478.7678    417.66477    316.41924    76.029749    37655.765 
   64700    303.30406   -1485.2804     426.0537    300.52732    377.13315    37655.765 
   64800    305.14539   -1503.3148    426.30533    290.99953   -31.837973    37655.765 
   64900    300.73526   -1449.0176    432.03011    331.25022    76.134014    37655.765 
   65000    292.15152   -1476.4225    458.28102    291.61417    10.708222    37655.765 
   65100    308.50399   -1463.8458     420.5362    339.75641    93.917961    37655.765 
   65200    308.62932   -1488.9996    411.74848    306.37676    313.53879    37655.765 
   65300    309.74525   -1546.4922     424.8477    266.98635    869.32892    37655.765 
   65400    301.62159   -1459.2918    438.49007    331.40959    371.21443    37655.765 
   65500    298.37224   -1445.4425    427.58191    319.78348    133.13361    37655.765 
   65600    299.05597   -1502.1734    426.73026    265.26613    98.604994    37655.765 
   65700    291.89579   -1492.4811    443.51517    259.64326    31.509022    37655.765 
   65800    308.69895     -1482.31    457.95392    359.58396   -137.15335    37655.765 
   65900    302.03928   -1462.4247    448.47361    340.13283    18.732424    37655.765 
   66000    297.15994   -1484.0372     449.9372    298.10908     224.0425    37655.765 
   66100    301.91676   -1469.9723    428.59375    312.15604    -62.57507    37655.765 
   66200    299.05315   -1481.9992    457.36363    316.06109    64.607156    37655.765 
   66300    302.36797   -1495.8183    435.64639    295.38558   -303.49682    37655.765 
   66400    306.58902   -1483.3231    417.89434    309.05222   -40.452512    37655.765 
   66500    299.65085   -1502.0087     427.5744     268.9419   -698.69307    37655.765 
   66600    292.34322    -1496.257    416.82589    231.18401   -1040.3748    37655.765 
   66700    287.50691   -1487.4622    403.94864    205.41965   -539.80284    37655.765 
   66800    293.95921   -1482.0641    419.82818    255.62386   -217.82888    37655.765 
   66900    291.71153    -1519.595    429.74618     217.9343   -12.807925    37655.765 
   67000     298.1814   -1492.9321    431.35614     275.2125   -68.705516    37655.765 
   67100    301.23197   -1493.7776     426.8955    283.58249   -461.12308    37655.765 
   67200     294.1025   -1451.8493    425.20593    291.85875   -313.71846    37655.765 
   67300    299.60525    -1495.579    424.85542    272.44817    220.83473    37655.765 
   67400    294.50839   -1465.8982    423.98383    278.40746    258.82644    37655.765 
   67500    308.49555   -1505.9757    454.36533    331.41785    168.04186    37655.765 
   67600    308.26719   -1497.3218     442.1325    326.81519    481.31821    37655.765 
   67700    301.11401   -1463.1201    436.69116    323.50684    997.09158    37655.765 
   67800    294.83798   -1460.8037    427.49985    288.49562    318.14446    37655.765 
   67900    306.90493   -1488.4148    440.22927    327.71171     442.5077    37655.765 
   68000    301.75009   -1508.4241    422.43369    266.79692    457.27913    37655.765 
   68100    295.38428    -1469.109    432.49008    287.62962    768.88513    37655.765 
   68200    301.36926   -1474.7524    427.51608    303.84382     404.2028    37655.765 
   68300    307.77282   -1476.3678    452.39097    355.81126    268.34005    37655.765 
   68400    289.63207   -1465.6567    461.08409    293.88799    228.13066    37655.765 
   68500    290.61344   -1509.4716    444.44249    237.83117    348.75964    37655.765 
   68600    305.43754   -1472.4534    423.76562    320.63093   -39.229313    37655.765 
   68700    294.32039    -1489.134    431.89045    262.23552    45.976517    37655.765 
   68800    300.11065   -1486.1666    419.77797    279.04892   -202.91984    37655.765 
   68900    308.25919   -1400.5087    441.21815    422.67801   -70.536574    37655.765 
   69000    307.14258   -1474.7849    423.72916    325.90687   -264.54278    37655.765 
   69100    289.19542   -1433.0927    461.15342    324.56373    82.076271    37655.765 
   69200    304.42361   -1447.0499    438.00916     355.7324    184.94789    37655.765 
   69300    307.33568   -1427.0963    435.83663    386.56867   -9.9808784    37655.765 
   69400    306.91298    -1443.341    421.53786    354.13021   -576.47812    37655.765 
   69500    295.32446   -1416.7245    453.32729    360.58317   -840.88398    37655.765 
   69600    295.77992   -1441.0306    433.51324    318.50489    -504.3684    37655.765 
   69700    302.30869    -1397.644    450.25741    407.90511    98.335761    37655.765 
   69800    296.57458   -1441.3264    453.27235    341.53081    456.01015    37655.765 
   69900    295.99534   -1464.4561    455.98542    318.51737    280.83625    37655.765 
   70000    295.66335   -1452.6402    457.21494    330.07443    543.10603    37655.765 
   70100    312.58174   -1458.8797    433.84785    376.31529    223.79155    37655.765 
   70200    294.05003   -1431.7442    452.13785    338.66064   -199.43432    37655.765 
   70300    305.06756   -1466.1029    432.07924    333.63638    321.18348    37655.765 
   70400    293.55231   -1446.6129    430.32155    299.74424    386.06955    37655.765 
   70500     306.4212   -1436.3782    398.44411    335.79451    97.020202    37655.765 
   70600    308.04558   -1432.4128    445.82032    394.41848    315.77617    37655.765 
   70700    304.99754   -1467.8053    437.25939    336.80025    579.10315    37655.765 
   70800    298.08059   -1423.2973     420.9573    333.99654    250.24252    37655.765 
   70900    299.91616   -1441.5343    420.22783    323.25914    86.133917    37655.765 
   71000    298.06004   -1463.3378    444.56855    317.47516   -398.61498    37655.765 
   71100    304.32364   -1427.5474    452.96557    389.74316   -344.65595    37655.765 
   71200    305.90206   -1442.6889     448.9569    377.66926   -431.09699    37655.765 
   71300    309.10646   -1448.4312    435.14364     372.4795   -53.970317    37655.765 
   71400     299.9329   -1435.0547      435.793    345.37898   -283.83587    37655.765 
   71500    284.76557   -1472.4199    409.20906    213.43263   -381.78069    37655.765 
   71600    301.82026    -1477.575    429.33264    304.85963   -126.85884    37655.765 
   71700    305.60928    -1468.739    452.83753    354.18717   -253.75641    37655.765 
   71800    289.54077   -1469.7128    421.86208    250.20064   -241.62628    37655.765 
   71900    303.07626   -1479.8663    393.40575    272.27223   -287.06216    37655.765 
   72000    301.55804   -1529.0718    429.50353     252.3581   -320.35883    37655.765 
   72100    306.24554   -1493.9315    428.38089     307.3905    192.08969    37655.765 
   72200    303.93364   -1523.4424    421.23618     260.3703    35.682673    37655.765 
   72300    298.77414   -1487.1171    423.07419    275.40287   -63.785453    37655.765 
   72400    289.48822   -1502.6582    429.65463    224.81221   -36.333176    37655.765 
   72500    304.26582   -1479.3531    429.06762    313.78025    512.34911    37655.765 
   72600    305.02248   -1491.4454    400.24225    276.25478    371.28638    37655.765 
   72700    301.24461   -1490.4057    447.36638    307.48189    421.64483    37655.765 
   72800    305.72553   -1461.2916    440.80783    350.12606    95.032183    37655.765 
   72900    305.55307   -1455.9998    415.39446    329.23133    -80.27199    37655.765 
   73000    298.03338   -1456.2292     430.2461     310.1418    200.70095    37655.765 
   73100    295.52854   -1472.7288      438.304    290.47049    546.93359    37655.765 
   73200    301.80258   -1462.1262    438.68942    329.58598    582.77352    37655.765 
   73300    295.24045    -1451.986    455.56073    327.17844    989.81927    37655.765 
   73400    301.90089   -1455.1624    432.53106    330.83212    674.60358    37655.765 
   73500    294.43431   -1471.9311    457.52029    305.57891    288.29218    37655.765 
   73600    302.10455   -1437.3168    445.46093    362.52062    552.59329    37655.765 
   73700    299.85011   -1455.2998    455.39361    344.36333   -159.63858    37655.765 
   73800    301.32037   -1439.2529    406.34154    317.94948   -506.67152    37655.765 
   73900    288.38271   -1457.7538    468.74675    303.85255   -425.90874    37655.765 
   74000    290.04267   -1495.9233    456.26434    260.64243     410.1615    37655.765 
   74100    294.66158    -1439.457    423.71566     305.2673   -417.58576    37655.765 
   74200    295.71828   -1445.3391    456.83757    337.24442   -438.75976    37655.765 
   74300      304.187   -1489.2332    447.96449    322.44368      14.5792    37655.765 
   74400    293.77253   -1475.6068    446.73028    288.14637   -312.34329    37655.765 
   74500    292.59846   -1489.5285    435.71784    257.94873   -202.09919    37655.765 
   74600    299.69588   -1459.6442    437.82221    321.75608    -302.2264    37655.765 
   74700    307.54799   -1476.5217    438.69954    340.95805   -20.801358    37655.765 
   74800    309.06712   -1491.7209    423.75619     317.6259   -420.00341    37655.765 
   74900    292.93257   -1467.1887    447.53718    293.60569    26.308488    37655.765 
   75000    305.84842   -1486.7368    444.73134    329.15529    451.39247    37655.765 
   75100    314.17725   -1458.2359    482.41407    432.67826     401.7071    37655.765 
   75200    297.19946   -1455.8017    443.76379    320.34836   -91.156721    37655.765 
   75300    295.09997   -1482.3967    429.13643    269.71368   -36.171168    37655.765 
   75400    301.97607   -1465.2289    445.02193     333.5935    404.63022    37655.765 
   75500     307.1577   -1445.2335    495.23818    427.03512    27.578582    37655.765 
   75600    298.20499   -1424.9444    459.62949    371.57931    108.92088    37655.765 
   75700    307.54304   -1493.4895    422.26109    307.52959    168.59385    37655.765 
   75800    295.27954   -1413.6144    471.84778    382.01239   -384.33933    37655.765 
   75900    306.40948   -1442.4251    448.42618    379.67713    213.38538    37655.765 
   76000     292.6893   -1434.7772    452.62014    330.00961    381.11649    37655.765 
   76100    295.86325   -1421.9924    460.26738    364.67089    4.7012228    37655.765 
   76200    307.94846   -1436.8053    451.60067    395.37098    341.40034    37655.765 
   76300    298.13325   -1434.0607    434.60737    337.11927    -351.7652    37655.765 
   76400    294.67856   -1430.4308    456.07645    346.73035   -171.23577    37655.765 
   76500    297.98202   -1444.7293    450.37651    341.54186   -144.76383    37655.765 
   76600    299.92442   -1457.8073    450.43815    337.23349   -432.42704    37655.765 
   76700    310.02437   -1475.4004    468.68069    383.16238   -126.20658    37655.765 
   76800    292.87069   -1497.4475    457.06989    272.60216    692.01469    37655.765 
   76900    303.41294   -1473.0956    454.47562    341.62223    558.71631    37655.765 
   77000     313.7416   -1477.6655    440.14318    369.02469    409.70323    37655.765 
   77100     296.6015   -1451.9938    424.83625    302.54803   -96.903785    37655.765 
   77200    306.99324   -1485.1583    478.10727    369.24212    392.92236    37655.765 
   77300    295.17148   -1510.6517     435.2565    247.89941    619.31885    37655.765 
   77400    296.44569   -1525.3214    410.64218    214.32777    750.97519    37655.765 
   77500    294.18898   -1480.2987    435.62582    274.21703    792.09111    37655.765 
   77600    308.30305    -1476.786    446.04323    351.42246    559.66366    37655.765 
   77700     310.3029   -1543.0193    449.87121    297.98276    189.49358    37655.765 
   77800     295.7694   -1522.0856    439.13962    243.02911    980.61904    37655.765 
   77900    307.25098    -1516.224    445.04676    306.27144    569.40172    37655.765 
   78000    300.78368   -1513.9612    447.66089     282.1545    253.73134    37655.765 
   78100    304.29706   -1482.6555    439.04231    320.59264   -161.42751    37655.765 
   78200     309.6986   -1475.3131    419.68237    332.79096    -268.8405    37655.765 
   78300    301.57218   -1471.7327     421.7756    302.03267     -226.622    37655.765 
   78400    294.26213   -1440.5776    449.16306    327.80327   -506.32949    37655.765 
   78500    304.70143   -1467.2346     436.1875    334.97158    109.81107    37655.765 
   78600    303.80163   -1456.7465    446.66269    351.90087   -13.900697    37655.765 
   78700    299.79741     -1456.79    452.07241    339.31563    172.11256    37655.765 
   78800     289.7124   -1468.2304    438.98155     269.5719   -296.64847    37655.765 
   78900    296.92765   -1434.1228     463.1191    360.16398    173.46585    37655.765 
   79000    301.70718   -1459.6958    451.34504    344.24423    608.15182    37655.765 
   79100    300.06456   -1472.8328    433.98523     306.3833    218.17189    37655.765 
   79200    310.37733   -1476.1505    443.09231    358.40631    461.49478    37655.765 
   79300    299.12514   -1448.5016    451.59803    344.11585    193.22248    37655.765 
   79400    310.26347   -1474.5375    461.67344    378.08995    -276.2512    37655.765 
   79500    295.19447   -1441.5227    461.48908    343.36403   -283.71343    37655.765 
   79600     306.6926   -1412.9045    455.49669    417.53754    301.97709    37655.765 
   79700     292.6352   -1462.2055    439.26618    288.98473   -62.699224    37655.765 
   79800    315.87987   -1508.4477    456.93369    364.61917    45.656801    37655.765 
   79900    304.10052   -1444.7429    462.32524    380.90699    507.62463    37655.765 
   80000     294.5712   -1490.9237    422.18821    251.86797    166.13987    37655.765 
   80100    288.37341   -1487.4716    460.96873    266.31501    61.458604    37655.765 
   80200    306.13259   -1452.7376    460.98577    380.68293    483.29291    37655.765 
   80300    297.15128   -1450.3411    442.10896    323.93812    495.28867    37655.765 
   80400    296.52477   -1465.3701    471.25507    335.24656    234.01425    37655.765 
   80500     302.1147   -1436.6623    441.88767    359.64735    704.58135    37655.765 
   80600    308.45783   -1481.5942    444.97491    346.23984    693.73688    37655.765 
   80700    304.16369   -1490.1383     438.6994    312.16897     858.5196    37655.765 
   80800    301.37328   -1476.1081    472.62011    347.61017    809.74207    37655.765 
   80900    307.48429    -1439.498     461.7764    400.77301    709.15545    37655.765 
   81000    301.07824   -1503.2865     424.7964    271.28533    473.57232    37655.765 
   81100    298.27651   -1457.5821    447.37763    327.01036     185.2135    37655.765 
   81200    299.05569   -1447.2716    458.96361    352.40001   -320.78047    37655.765 
   81300    312.97381   -1507.5095    414.21175    309.80707   -292.03032    37655.765 
   81400    297.69019   -1464.5033    449.42705    319.51004   -401.47477    37655.765 
   81500    296.47475   -1438.4151    458.19656     348.9188   -141.67054    37655.765 
   81600    299.64351   -1457.8792    471.84928    357.31334    60.166746    37655.765 
   81700    307.08245   -1409.8712    450.45579    417.27775   -12.070267    37655.765 
   81800    290.99047   -1420.5367    437.65801     321.6718   -468.52507    37655.765 
   81900    289.40215   -1409.2301     463.7608    351.96055   -98.195152    37655.765 
   82000    300.78689    -1454.146     460.7001    355.02329    -291.6432    37655.765 
   82100    289.32075   -1449.9059    458.47583    305.63491   -224.65523    37655.765 
   82200    295.82136   -1459.4004    427.66854    294.47626   -339.17546    37655.765 
   82300    296.81459   -1457.3641    447.60034    320.89705   -905.14381    37655.765 
   82400    310.21115   -1473.6444    441.60982    358.68494   -220.61382    37655.765 
   82500    289.95018   -1442.0899    440.76108    298.55792    101.52316    37655.765 
   82600    293.83832   -1464.1439    444.01124     297.1852   -36.790811    37655.765 
   82700     291.3191   -1487.3508    436.60398    255.27701    115.43666    37655.765 
   82800    294.76503   -1453.2334    422.68249    290.92152    268.95032    37655.765 
   82900    298.92979   -1468.5931    427.79045    299.34096   -73.752871    37655.765 
   83000    294.40611     -1472.31    442.27244    289.82577   -78.112651    37655.765 
   83100    287.94949   -1424.8926    452.36436    318.38914    168.12313    37655.765 
   83200    302.28969   -1451.2195    432.66111    336.64813    69.355502    37655.765 
   83300     304.5208   -1466.4483    454.33703    353.09759    414.94799    37655.765 
   83400    293.96513   -1491.1124    453.74875     280.5227    195.46748    37655.765 
   83500    300.58795   -1464.7391    450.04845    332.88669    575.14696    37655.765 
   83600    296.67524   -1465.5169    452.10954    316.62876    199.73907    37655.765 
   83700    300.49315   -1448.3718    440.24825    339.02884    253.59168    37655.765 
   83800    301.23673   -1477.4109    447.16393    320.23893    307.54812    37655.765 
   83900    301.06166   -1477.7664     438.5609    310.49558   -171.16296    37655.765 
   84000    297.47096   -1469.9157    435.03709     298.7248   -465.15466    37655.765 
   84100     307.0301   -1443.2718    443.39977    376.58639   -744.36005    37655.765 
   84200    290.06979   -1414.4839    481.38979    367.32889    -442.3105    37655.765 
   84300    303.18788    -1484.777    431.12794    305.58411    232.42857    37655.765 
   84400    296.83003   -1483.8405    437.06648    283.95603    3.5650661    37655.765 
   84500    299.53311   -1477.5838    445.56337     310.8279   -295.13134    37655.765 
   84600    306.42677   -1512.9052    423.96507     284.8134   -135.64755    37655.765 
   84700     308.3614   -1473.7134    427.73676    336.45013    192.08797    37655.765 
   84800     294.4359   -1451.9762    435.64632    303.66702   -103.54151    37655.765 
   84900    300.54743   -1450.0835    453.65625    350.96844    143.28922    37655.765 
   85000    303.11864    -1465.372    446.37191    339.92275   -83.218714    37655.765 
   85100    302.39455   -1442.7698    431.76667    344.67344   -212.10739    37655.765 
   85200    314.24858    -1469.309    433.63514    373.14593    204.53533    37655.765 
   85300    298.59702   -1440.7662    438.06445    335.95003    243.24151    37655.765 
   85400    293.10121   -1490.3243    453.97827    277.66722   -213.04592    37655.765 
   85500     299.8131   -1430.9717    438.51289    351.64473   -143.27691    37655.765 
   85600    292.54315   -1458.5578    461.72018    314.67376    259.51587    37655.765 
   85700    296.12011   -1453.1981    456.12438    330.47373    402.56858    37655.765 
   85800    306.01981   -1459.3561     447.8804    360.45349       404.76    37655.765 
   85900     295.1437   -1445.8626     440.9771    318.28455    130.78314    37655.765 
   86000    296.68927   -1479.0229    436.21792    287.29402    174.21899    37655.765 
   86100    308.18982   -1457.1625    457.22187    381.71699     332.4518    37655.765 
   86200    299.39241    -1414.792    445.02669    372.45226    275.55669    37655.765 
   86300    298.06132   -1404.7446     463.1361    394.64167   -119.50004    37655.765 
   86400    295.57937   -1383.4791    479.93108    421.57519   -183.96052    37655.765 
   86500    303.46575    -1413.647    463.54105    410.37293   -136.92239    37655.765 
   86600    302.29496    -1408.695    471.64597    418.18113   -412.77975    37655.765 
   86700    303.91656   -1422.8704    446.74526    386.37482    60.486806    37655.765 
   86800     289.5956   -1451.1638    473.49768    320.63095   -302.69009    37655.765 
   86900    298.59858   -1396.5509    449.89883    392.00665   -297.32089    37655.765 
   87000    303.68868   -1408.4512    470.58778    423.61495   -530.48221    37655.765 
   87100    294.72712   -1439.1022     466.8088    349.00906   -104.78044    37655.765 
   87200    299.18099   -1410.1654    455.07728    386.18164   -196.32797    37655.765 
   87300     294.3045   -1428.8391    463.57697    354.14564   -56.925816    37655.765 
   87400    315.56199   -1427.7858    442.69758    429.61983    347.17855    37655.765 
   87500    309.79699   -1442.4527    429.08644    375.49644    626.99905    37655.765 
   87600    305.47157   -1441.9291    455.44919    382.99142    487.10273    37655.765 
   87700    298.75448   -1410.2295    446.96122     376.0894    406.59181    37655.765 
   87800    306.10323   -1431.4346    467.64342    408.51194    277.76407    37655.765 
   87900    308.03448   -1459.8886    441.13143    362.20402    332.27821    37655.765 
   88000    286.22404   -1495.7319    437.21927    224.66934    271.50197    37655.765 
   88100    301.23452   -1433.9739    436.65007    353.15222    172.39207    37655.765 
   88200     300.4093   -1434.9725    457.93766    369.74161    66.318908    37655.765 
   88300    291.87744    -1436.147    450.92393    323.30385    172.97891    37655.765 
   88400    298.09381   -1435.9978    448.25748    348.65547    71.263516    37655.765 
   88500    315.71771   -1428.8215    452.20948    438.79415    321.73947    37655.765 
   88600     304.2514   -1416.3743    453.05713    400.68399    458.05488    37655.765 
   88700    306.35295   -1467.2797    448.66251    354.80546    308.73563    37655.765 
   88800    305.03097   -1432.6984    454.63048    389.42813     493.8411    37655.765 
   88900    298.33784   -1448.0144     446.5588    336.03424    195.08107    37655.765 
   89000    303.62636   -1415.1902    448.08577     394.0945   -187.71224    37655.765 
   89100    307.32567   -1489.1321     455.9244    344.57581     71.72985    37655.765 
   89200    299.13776   -1433.6574     450.4988    357.91732    373.22287    37655.765 
   89300    302.90921   -1435.6083    478.67665    401.05228    580.28383    37655.765 
   89400    288.64094   -1450.4827    465.69087    309.22538    173.39518    37655.765 
   89500    298.29066   -1445.4212    461.30177    353.15881    744.77403    37655.765 
   89600    289.22432   -1451.2868    449.91283    295.25864   -161.61944    37655.765 
   89700    293.52388   -1459.0967    458.71491    315.52634    94.376464    37655.765 
   89800    300.44051   -1472.8519    459.93958    334.00403    188.09369    37655.765 
   89900    289.56479   -1452.5005    449.29985    294.95837   -148.50668    37655.765 
   90000    295.83859   -1456.3528    455.67615    325.60871   -74.744579    37655.765 
   90100     303.2671   -1488.5644     446.5004    317.52437    100.54842    37655.765 
   90200    303.33035   -1453.5507    453.79165    360.11286    146.10659    37655.765 
   90300    302.52527   -1468.9509    450.85225    338.16395    296.86437    37655.765 
   90400    304.56072   -1432.9746     448.7728    381.18607   -80.897336    37655.765 
   90500     306.9225   -1455.6535    430.71521    351.03775   -450.42981    37655.765 
   90600    289.98078   -1449.6758    443.41426    293.76239    152.24436    37655.765 
   90700    292.39008   -1455.8967    449.31859     304.2471    111.24398    37655.765 
   90800    300.63824   -1473.5476    474.38036     348.6356    783.10677    37655.765 
   90900    289.88622   -1466.1892    440.40116    273.81196    220.85701    37655.765 
   91000    306.30134   -1455.5095     447.6596    365.34141    235.62612    37655.765 
   91100    289.08673   -1448.8273    453.81595    301.00448   -193.07148    37655.765 
   91200    294.17513   -1448.8808    444.98686    314.93385   -205.10468    37655.765 
   91300    294.44193   -1442.3989    437.46158    315.08659   -159.58193    37655.765 
   91400    306.77205   -1481.5743    454.22267    347.94987    106.82885    37655.765 
   91500    291.72824   -1510.2604    464.08132    261.67893   -30.307889    37655.765 
   91600    295.56278   -1483.9421    441.50221    282.60896   -93.465486    37655.765 
   91700    299.58465   -1481.7428    423.13119    284.46779   -317.47105    37655.765 
   91800    304.71172   -1522.0806    413.47445    257.45859   -124.76006    37655.765 
   91900    294.28204   -1470.8152    450.90869    299.40064    165.15317    37655.765 
   92000    302.56621   -1500.0167    452.49193    308.92143   -204.55005    37655.765 
   92100    293.27877   -1540.0165    423.56094    198.35374    105.67248    37655.765 
   92200    300.60954   -1535.2817    469.21748    281.60998   -17.054779    37655.765 
   92300    296.98665   -1483.6544    435.99761    283.77543   -26.597342    37655.765 
   92400      284.412   -1487.6431    432.83193    220.24717   -281.44405    37655.765 
   92500    296.89185   -1494.3819    464.70352    301.32883   -263.65691    37655.765 
   92600    294.51477   -1460.0049    434.56108    294.90665   -154.86133    37655.765 
   92700    287.69269   -1467.5012    474.84988    297.11486   -240.02822    37655.765 
   92800    300.12839   -1509.0525    433.76137    270.22596   -32.913131    37655.765 
   92900    301.96769   -1473.2355     467.1216    347.64904   -474.02955    37655.765 
   93000    302.72077    -1465.423    445.28166    336.99774   -311.52937    37655.765 
   93100    296.56038   -1473.2537    414.37861    270.64608   -278.28332    37655.765 
   93200     307.9346   -1435.9974    462.59812    407.11409    427.84543    37655.765 
   93300    293.08287   -1406.3701    440.53643    348.09732    284.14337    37655.765 
   93400    298.69276   -1449.5125    468.99419    358.56264    398.97351    37655.765 
   93500    296.48954   -1462.7035    429.08185    295.58195    212.68955    37655.765 
   93600    300.66085   -1461.3851    453.71508    340.23416    501.20478    37655.765 
   93700    311.30128   -1424.3157    462.12808     433.4191    452.23126    37655.765 
   93800    301.21686   -1477.3165    441.56308    314.64341   -14.725441    37655.765 
   93900    295.68354   -1434.1228    457.33807    348.80549   -189.24988    37655.765 
   94000    294.90211   -1439.6993    443.37867    325.76637    19.190778    37655.765 
   94100    307.15636   -1440.2315    441.78158     378.5745   -194.12946    37655.765 
   94200    289.98496   -1459.7131    461.35017    301.67971   -761.33359    37655.765 
   94300    308.95643   -1410.1148    479.02248    454.00208   -404.36649    37655.765 
   94400    301.83255    -1418.371    456.46433    391.25039    406.69228    37655.765 
   94500    291.27678   -1408.3716    472.34065     369.8032   -220.42705    37655.765 
   94600    307.66305   -1424.6977    470.89182    425.49011    196.44067    37655.765 
   94700    307.93386   -1429.4724    456.10329    407.14093   -371.17169    37655.765 
   94800    298.23875    -1448.652    455.35872    343.75231   -149.96861    37655.765 
   94900    293.37995   -1427.3097    465.94778    353.90092   -519.26993    37655.765 
   95000    302.71915   -1459.7679    439.05577    336.41975    285.68011    37655.765 
   95100    295.49125   -1474.5816    459.56223    309.70876    343.77854    37655.765 
   95200    289.06189   -1485.1199     442.5328    253.31739    225.36022    37655.765 
   95300     293.9947   -1455.0165     456.4022    319.40454    401.54213    37655.765 
   95400    294.45169   -1430.8174    465.45267    354.70294    24.500759    37655.765 
   95500    295.90927    -1426.197    452.86992    353.27509     177.1307    37655.765 
   95600    295.34915   -1446.3588    439.63479    317.36707    767.50165    37655.765 
   95700    289.91822   -1425.5768    438.43255    312.59923    755.22666    37655.765 
   95800    292.89278   -1429.1481    447.98605    331.91682    566.67821    37655.765 
   95900    305.04632   -1449.6845    454.49884    372.37921    647.50751    37655.765 
   96000    293.67243   -1442.5957    433.06387     307.0423    6.4188394    37655.765 
   96100    316.66182   -1427.7678    462.26956    454.14047    227.42059    37655.765 
   96200    299.25478   -1422.5804    448.53015    367.55038    437.69969    37655.765 
   96300    302.17092    -1448.637    448.76047    354.79748   -63.577882    37655.765 
   96400    304.04229    -1454.812    411.83146    320.08309   -116.11427    37655.765 
   96500    296.27584   -1467.2279    481.41866    342.43635    176.08997    37655.765 
   96600    313.34416   -1466.8898    449.54171    387.41711    265.31846    37655.765 
   96700    292.79552    -1444.584    448.93933    316.99814    74.125221    37655.765 
   96800    305.43524   -1442.9834    482.49321    408.81825    -397.4877    37655.765 
   96900    293.37256   -1473.8416    445.33719    286.72533    -386.2693    37655.765 
   97000     301.7858   -1453.4326    445.82624    345.34117   -447.87851    37655.765 
   97100    295.25418   -1472.0825    455.41727    307.00015   -84.032768    37655.765 
   97200    293.56885   -1487.3719    452.18573    280.92357    159.86324    37655.765 
   97300    297.38804   -1495.2717    437.14044    275.10051   -69.959762    37655.765 
   97400    299.78799   -1449.4754    455.10191    349.61755    530.76165    37655.765 
   97500    310.55128   -1475.8844    468.52637    384.88631    726.34428    37655.765 
   97600    307.72908   -1473.4469    462.53102    368.67609    559.93782    37655.765 
   97700    301.46225   -1484.8729    420.76718    287.39127    503.34987    37655.765 
   97800    294.07104   -1477.8713    479.52891    320.01878    565.58276    37655.765 
   97900    292.76628   -1485.7207     443.7287     270.5197     1093.679    37655.765 
   98000    306.70845   -1496.3929     468.8162    347.43968    1139.9248    37655.765 
   98100    297.07619   -1502.3667    471.38323    300.85023    988.44783    37655.765 
   98200     305.5502   -1465.4199    451.58549    355.98939    920.38507    37655.765 
   98300     291.9562   -1461.2975    483.54047    331.12298    85.370263    37655.765 
   98400    304.18657   -1461.1059    453.41511    356.01963   -78.007667    37655.765 
   98500    287.20677   -1511.2999    469.12617    245.41389   -120.98756    37655.765 
   98600    304.87572    -1509.107    464.55232    322.24538   -277.30475    37655.765 
   98700    302.31761    -1472.984    456.20888    338.55655   -590.51985    37655.765 
   98800     298.6305   -1490.3358    447.63829    296.10436   -446.33452    37655.765 
   98900    295.70707   -1517.1813    447.77692    256.29134     254.8752    37655.765 
   99000    299.69406    -1498.819    455.97046     300.7214    133.14866    37655.765 
   99100    300.54741   -1504.9182    449.26718    291.74457    142.20341    37655.765 
   99200    309.72399   -1521.0903    450.56413    318.00932    505.14906    37655.765 
   99300    312.56198   -1494.4881    466.09594    372.86646     157.7607    37655.765 
   99400    306.43066   -1472.8926    491.71213    392.59056     394.9655    37655.765 
   99500    307.93121    -1490.805     446.5019    336.19515   -143.07231    37655.765 
   99600    298.52483   -1445.4547    472.20602    365.07939   -91.556854    37655.765 
   99700    294.05553   -1474.2907    485.12015    329.12109   -449.97585    37655.765 
   99800    303.95434   -1504.5402    436.34498    294.47408   -126.37246    37655.765 
   99900    298.49779   -1509.8818     444.1273    272.45243    249.20775    37655.765 
  100000    290.38824   -1483.4515    452.71109    271.11028    9.5699589    37655.765 
  100100    289.75362   -1515.0554    444.36077    228.31094    247.87164    37655.765 
  100200    297.42565   -1538.2281    433.06462    228.23686     611.0555    37655.765 
  100300    286.23964   -1528.8518    465.71723    220.11737    586.64451    37655.765 
  100400    309.12379   -1526.2643    445.92935    305.50978    535.65092    37655.765 
  100500    300.84292   -1483.8985    455.04283    319.86474     543.5235    37655.765 
  100600    291.37344   -1481.5436    447.84876    272.57262    544.71107    37655.765 
  100700     287.2081   -1475.2704    478.10469    290.42796    616.97266    37655.765 
  100800    298.21272   -1458.9278    476.41225    354.41336    132.60052    37655.765 
  100900    309.63835   -1468.6188    436.01223    355.54496    201.30182    37655.765 
  101000    298.85797   -1483.0091    435.78883    292.60135    612.38102    37655.765 
  101100    298.90624   -1503.8631    450.00859    286.18348     283.2258    37655.765 
  101200    299.61972   -1507.1288    446.37161    282.47943    359.96538    37655.765 
  101300    291.96503   -1474.2853    454.07062    288.70495    317.26674    37655.765 
  101400    306.78792   -1473.4821    462.18652    364.07713   -220.98229    37655.765 
  101500    304.25551   -1463.7917    428.75246    328.98032    640.78497    37655.765 
  101600    306.49689   -1513.7394    442.36516    302.69375   -42.880735    37655.765 
  101700    302.89263   -1527.8629     479.0967    309.14341    245.43135    37655.765 
  101800    290.89006   -1509.2761    449.10926    243.93351     341.3736    37655.765 
  101900    300.72479    -1547.662    468.15643    268.68532    291.12898    37655.765 
  102000    306.73123   -1504.6915    435.82469    306.25168    126.40427    37655.765 
  102100    289.62797   -1473.5853     449.9951    274.85199   -251.05231    37655.765 
  102200    293.09065   -1500.3583    438.68411    252.29178   -911.76726    37655.765 
  102300     310.0375   -1467.3535    445.01038    367.59789   -267.64271    37655.765 
  102400    310.48581   -1467.7751    451.91488    376.09059   -186.64869    37655.765 
  102500    308.08283   -1466.6474    461.07423     375.6048    342.49634    37655.765 
  102600    289.03968   -1437.4814    473.62331    331.94675   -67.463646    37655.765 
  102700     296.7441   -1438.4452    463.63394    355.53357    372.89428    37655.765 
  102800    302.57434   -1464.9087    441.80134    333.37522   -478.55533    37655.765 
  102900    309.74358   -1433.2671    471.77625    427.13248   -404.13389    37655.765 
  103000    299.07793   -1429.4231    480.46821    391.85284    -257.5434    37655.765 
  103100    303.68418   -1394.6312    460.31931    427.14634   -108.79334    37655.765 
  103200    303.31496    -1423.249    474.16361    410.71755    197.49853    37655.765 
  103300    302.73162   -1458.1856    483.33199    382.33413    -277.4236    37655.765 
  103400    309.75218   -1439.9862    450.93432    399.61003   -587.88258    37655.765 
  103500    297.05468   -1418.4152    458.95828     372.2803   -673.97708    37655.765 
  103600    316.07816   -1457.9563    452.38746    411.45329   -1.5688707    37655.765 
  103700    297.17814   -1505.1259    435.62841    262.79316   -58.509709    37655.765 
  103800    299.26758   -1448.8141    481.72037    374.56426   -48.406176    37655.765 
  103900    299.60646   -1469.3742    456.02743    329.83049    55.545279    37655.765 
  104000    309.96675   -1459.3061     441.3339    371.65164    455.71096    37655.765 
  104100    303.20939   -1467.0867    481.24396    373.48686    22.143625    37655.765 
  104200     295.9133   -1490.1346    469.12946    305.61515    4.2997618    37655.765 
  104300    297.69078   -1490.7059     435.8362    279.71923    338.30549    37655.765 
  104400    297.96892   -1497.4783    455.45185    293.80942    44.726764    37655.765 
  104500    307.09053   -1465.3278    443.56968    354.97119    236.84643    37655.765 
  104600     304.8411   -1513.5505    464.92767    318.02195   -67.421162    37655.765 
  104700    305.25914   -1476.7278    438.37651    330.16766    383.50943    37655.765 
  104800    294.47687   -1511.3151    451.92343    260.78884     2.446676    37655.765 
  104900     303.4808    -1480.112    472.21126    352.64569   -179.25691    37655.765 
  105000    292.47539   -1504.4301    463.08147      269.859   -576.86405    37655.765 
  105100    299.50954   -1505.4437    438.48577    275.78476   -183.71377    37655.765 
  105200    310.32133    -1507.817    479.91931    363.31577   -353.57975    37655.765 
  105300    296.22117   -1533.9028    441.05895    235.15661   -696.99789    37655.765 
  105400    304.72917   -1501.0091    425.36828    290.50216   -250.45533    37655.765 
  105500     298.0368   -1490.9696    482.98129    328.15195   -271.15301    37655.765 
  105600    306.67689   -1483.5021    482.26177     373.6346    123.74259    37655.765 
  105700    298.36303   -1468.6142    472.66713    341.65562    185.32391    37655.765 
  105800    306.48469    -1455.631    474.19636    392.57858   -492.10673    37655.765 
  105900    296.93751   -1469.9427    441.51691    302.78613   -289.55028    37655.765 
  106000    300.44786   -1478.1389    473.75732    342.56776    -305.2393    37655.765 
  106100    303.48796   -1498.2427    452.47516     314.8109   -366.10961    37655.765 
  106200    296.04875    -1521.378    455.40811    261.25762   -903.72378    37655.765 
  106300    297.06564   -1516.4542    471.50432    286.83649   -142.45777    37655.765 
  106400    302.05487   -1507.3001    444.05047     290.9041   -86.186293    37655.765 
  106500    300.43445   -1482.2273    480.99433    345.65627    266.84323    37655.765 
  106600    314.09682   -1485.9952    486.80902    408.95334    56.000712    37655.765 
  106700    308.11256   -1466.1234    439.24535    354.43311    73.874986    37655.765 
  106800    294.10638   -1499.2044    470.85383    290.16901    234.60161    37655.765 
  106900    294.97271   -1511.4163    475.81937    286.80649   -29.889054    37655.765 
  107000    301.08424   -1523.2324     466.9696    293.53949    783.87924    37655.765 
  107100    302.22328   -1538.8051    470.61036    286.71404   -381.15451    37655.765 
  107200    295.45368    -1517.442    462.60329    269.72096    -494.9157    37655.765 
  107300     301.7799   -1499.4335    456.68641    310.17398       122.64    37655.765 
  107400    299.66152   -1485.7216    469.96653    327.66896   -365.29915    37655.765 
  107500    293.13554   -1494.2933    476.90584    296.77974   -756.51082    37655.765 
  107600    301.74101   -1452.7227    456.85939    356.88336   -84.567432    37655.765 
  107700    311.91538    -1427.511    486.83283    457.68165   -50.872762    37655.765 
  107800    302.12328   -1475.7709       454.41    333.09956   -323.37654    37655.765 
  107900    303.93096   -1448.0802    464.73338    379.21771    96.443207    37655.765 
  108000    292.05196   -1460.9882    458.19105    306.51213    371.22694    37655.765 
  108100    303.12273   -1480.9668    470.22142    348.19575   -396.37581    37655.765 
  108200    292.26993   -1435.7897    476.08469    350.58154    43.959709    37655.765 
  108300    308.09867   -1441.0196     479.3932    419.62257    282.10267    37655.765 
  108400     295.9916   -1416.8855    477.85941    387.94518   -251.64055    37655.765 
  108500     307.7176     -1424.51    479.30729    434.33783    -56.87901    37655.765 
  108600      297.959   -1420.1762    492.95571     408.5709   -87.343813    37655.765 
  108700     302.5494   -1417.2545    471.20212    410.31846    185.10735    37655.765 
  108800    302.04997   -1453.0135    466.14347    367.26179    666.05494    37655.765 
  108900    302.96943   -1469.2044    501.57952    390.62904    404.78888    37655.765 
  109000    306.41524   -1472.2298    494.78751    396.25962   -260.13453    37655.765 
  109100    300.74316   -1501.9506    475.39504    321.71763   -6.8133501    37655.765 
  109200    303.53995   -1496.0082    472.53147    337.33479    4.3514418    37655.765 
  109300    307.19161   -1461.9267    464.43892    379.69472   -346.75583    37655.765 
  109400    304.24625   -1551.9676    440.91928     252.9297   -492.33571    37655.765 
  109500    285.29426   -1540.2582    468.77233    207.52771    -465.9546    37655.765 
  109600    294.44284   -1477.3094    448.93408    291.65266   -298.41608    37655.765 
  109700    292.48986   -1514.1241    451.85075    248.99918   -85.810525    37655.765 
  109800    301.22727   -1506.5281    479.26731    323.18273   -128.19672    37655.765 
  109900    302.91706   -1501.2413     491.3108    348.08854    24.880954    37655.765 
  110000    298.45629   -1534.7087    462.64368    265.95585   -378.03885    37655.765 
  110100    296.68758    -1509.233    449.79656    270.65507       -387.3    37655.765 
  110200    289.45683   -1508.7275    462.03944    250.98699    253.28723    37655.765 
  110300    301.66003   -1491.4874    474.62907    335.52535    117.05659    37655.765 
  110400    296.41332   -1506.6586    458.64163    280.84499    200.79678    37655.765 
  110500    298.94123    -1452.439    496.79426    384.55014    421.18181    37655.765 
  110600    308.77481   -1488.7485    457.06087    352.59256    358.18704    37655.765 
  110700    299.93381   -1445.7056    485.15316    384.09232    779.63288    37655.765 
  110800    301.35438   -1500.1155    452.15726    303.05509    289.90155    37655.765 
  110900    302.00497   -1506.5635    490.90206    338.26856    476.90148    37655.765 
  111000    292.99715   -1519.6164    454.58883    248.51916      87.8511    37655.765 
  111100    296.60128   -1470.2679    476.01837      335.455    36.049431    37655.765 
  111200    300.77034   -1505.0601    485.18103    328.51596    253.25996    37655.765 
  111300    307.21791   -1523.9609      435.932    289.27151    403.39997    37655.765 
  111400    293.78999    -1495.009    481.32133    303.41346    656.61944    37655.765 
  111500    310.26814   -1504.0782    453.80734    340.70414    848.02744    37655.765 
  111600    298.72274   -1528.7534    472.94324     283.4052    156.44612    37655.765 
  111700    307.72813   -1507.9799    474.42065    346.02852    15.998102    37655.765 
  111800    302.04473   -1442.8828    470.46716    381.69268    522.66699    37655.765 
  111900    298.30482   -1508.5374    471.71729    300.52168    182.09331    37655.765 
  112000      285.859   -1562.0872    468.24951    187.70771    5.2110063    37655.765 
  112100    306.45301   -1503.3229    470.66829    341.21666     23.91708    37655.765 
  112200    300.82216   -1507.7909    458.02642    298.86283    231.30184    37655.765 
  112300     296.2561   -1534.7659    483.00443    276.39563   -228.13719    37655.765 
  112400    292.58016   -1504.8829    463.04425    269.83869    344.10428    37655.765 
  112500    305.79456   -1495.7576    465.36022    340.52193    287.78266    37655.765 
  112600    306.49622   -1507.2797    489.68389    356.46916    214.13394    37655.765 
  112700    294.92285   -1477.9002    460.31254    304.59227    119.65875    37655.765 
  112800    301.70099   -1494.9905    460.24913    317.82586    313.71637    37655.765 
  112900    301.03977   -1477.9856    485.12383    356.74118   -180.79415    37655.765 
  113000    300.17165   -1490.8622    489.21875     344.0676   -369.98694    37655.765 
  113100     300.0758   -1492.2992    442.35398    295.33605    95.973338    37655.765 
  113200    302.42754   -1518.3636     468.4632    305.92413   -791.98687    37655.765 
  113300    288.11247    -1516.839    459.57546    234.38454   -515.28816    37655.765 
  113400    293.15356   -1516.0704     462.0375    260.21501   -264.92538    37655.765 
  113500    299.44287   -1525.1837    478.29707    295.55724   -546.51629    37655.765 
  113600    291.87956   -1506.7223    469.95703    271.77123    172.51584    37655.765 
  113700    292.17421   -1552.1979    457.28743    214.94693    26.447204    37655.765 
  113800    293.40105   -1536.0309    481.55066    260.87722    564.46269    37655.765 
  113900    299.43256    -1545.539    460.94317    257.80177    261.12331    37655.765 
  114000    298.57442   -1546.6645    469.84256    261.72845    322.49251    37655.765 
  114100    306.72235   -1537.8977    491.21135    328.39241   -63.832989    37655.765 
  114200    298.88919   -1462.1868    467.29852    345.07335   -362.31233    37655.765 
  114300    300.70414   -1510.5343    463.34817    300.91212   -650.89997    37655.765 
  114400    306.77098   -1549.0865    444.67713    270.88733   -796.81648    37655.765 
  114500    293.41109    -1546.726    427.18144    195.85801   -497.97673    37655.765 
  114600    301.52845   -1528.0277    451.66863     275.4347   -570.44268    37655.765 
  114700    292.21239   -1537.5044    462.06246    234.58665   -393.83894    37655.765 
  114800     297.2006   -1512.7518    479.16819    298.80777   -601.84587    37655.765 
  114900    297.93911   -1518.0697    487.60165    305.23415   -189.09151    37655.765 
  115000    297.60866   -1558.1974     443.7235    219.74687    371.40839    37655.765 
  115100    312.30229    -1531.287    469.05467    337.86205    46.620539    37655.765 
  115200    298.52494   -1554.7475    463.23235     246.8134    307.94036    37655.765 
  115300     298.9889   -1548.1654    472.69124    264.93438    439.63403    37655.765 
  115400    288.94107    -1520.658      449.911    224.61581    147.32114    37655.765 
  115500    306.35632   -1477.6567    467.01249    362.79359   -283.34981    37655.765 
  115600    307.80958   -1491.5609    447.36058    335.75261   -458.78177    37655.765 
  115700    297.34752   -1484.2941    453.57567    302.33162   -259.98026    37655.765 
  115800     313.2716   -1480.3284    485.01087    409.12233   -13.024249    37655.765 
  115900    301.97195    -1543.051    459.17793    269.90894   -246.79842    37655.765 
  116000    311.70701   -1559.2803    487.39211    325.53747    390.30075    37655.765 
  116100    294.02944   -1495.1571    480.62383    303.64137   -127.43697    37655.765 
  116200    303.08699   -1536.8967    456.83993    278.72417    133.18589    37655.765 
  116300    301.40082   -1527.8021    464.12183    287.54125   -301.58243    37655.765 
  116400     303.7537   -1491.8236    478.72543    348.67175   -197.10332    37655.765 
  116500    294.23613   -1479.6524    448.52368    287.97258    271.33869    37655.765 
  116600    291.44019   -1519.9815    460.08011    246.66525    706.28228    37655.765 
  116700    307.54798   -1493.1782    478.73498    364.33687    529.57496    37655.765 
  116800    308.34833   -1498.3596    457.08568    341.09431    475.59018    37655.765 
  116900    297.52883    -1515.611    436.41175    254.66362    626.90053    37655.765 
  117000    297.86349   -1536.3419    482.88405    281.90531    406.49754    37655.765 
  117100    302.39681   -1520.7624    473.50659    308.43092    492.41448    37655.765 
  117200    294.00257   -1515.1288    444.73835    247.66372    188.89576    37655.765 
  117300    307.87762   -1522.4498    470.93465    328.74277    266.24413    37655.765 
  117400    298.23525   -1505.5792    468.11483    299.56549   -625.67078    37655.765 
  117500    306.07182   -1491.8778    485.51867    365.80319    523.83424    37655.765 
  117600    304.01375   -1504.4677    465.51233     323.9803    481.08181    37655.765 
  117700    299.47041   -1493.9815    497.42014    346.00589   -452.13093    37655.765 
  117800    302.65559   -1515.2173    433.04844    274.67803     -122.196    37655.765 
  117900    305.00924   -1459.5328    483.19592    391.06173   -493.85243    37655.765 
  118000    304.99714   -1482.5689    462.94612    347.72155   -248.16542    37655.765 
  118100    300.99861   -1497.5629    481.09124    332.94672    -511.1961    37655.765 
  118200    303.55131   -1494.0104    478.10703    344.95917    504.34272    37655.765 
  118300    301.87646    -1494.015    462.84624    322.18516    536.94743    37655.765 
  118400    307.55742    -1507.655    472.99739    344.16488    247.42757    37655.765 
  118500    290.82044    -1509.561    472.47423    266.70149   -131.41824    37655.765 
  118600     302.9007   -1506.5595    455.04317    306.42935    187.54238    37655.765 
  118700    304.96949   -1514.6775    482.21427    334.75721    41.080671    37655.765 
  118800     309.2027   -1470.5856    477.39221    393.00513   -331.39542    37655.765 
  118900    296.39951   -1518.5999    475.55373    285.75381   -31.613037    37655.765 
  119000    300.45078   -1517.6232    488.37298    317.71221   -253.78658    37655.765 
  119100    300.94949   -1499.4327    461.09233    310.85784   -67.210769    37655.765 
  119200    292.23161   -1488.6526    505.76703    327.22911   -352.44731    37655.765 
  119300    292.62513   -1492.5137    477.42147     296.7867   -477.12892    37655.765 
  119400    294.34069   -1467.1801    479.08334    331.47326    -568.0086    37655.765 
  119500    304.18629   -1487.5705    488.59516    364.73388   -460.48569    37655.765 
  119600    303.48707   -1484.4559    464.05938    340.17799   -86.032507    37655.765 
  119700     296.6252   -1528.5792    481.80904    283.04158   -46.226063    37655.765 
  119800    303.92277   -1527.4337    469.02453    304.11866   -158.18496    37655.765 
  119900    297.32992   -1510.2699    481.52135    304.22262   -344.36992    37655.765 
  120000    297.91123   -1504.5522    503.55934    334.58438   -152.32481    37655.765 
  120100    295.52453   -1521.3177    474.92703    278.48669   -488.65685    37655.765 
  120200    307.34602    -1516.136     489.6761     351.4148   -522.23856    37655.765 
  120300    289.58633   -1506.6322    465.74091     257.3643   -186.61561    37655.765 
  120400    299.82223   -1557.5764     471.0507    257.61879    -513.7107    37655.765 
  120500    301.72251   -1605.5276    464.63978    211.77589    80.572404    37655.765 
  120600    301.56087   -1576.5694    471.79528    247.16495      277.671    37655.765 
  120700    300.64302   -1536.4805    486.39825    297.74197    101.44594    37655.765 
  120800     301.8803   -1550.8007    473.22371    275.79417     216.2074    37655.765 
  120900    313.03944   -1541.7131    472.85231    334.53827   -18.780859    37655.765 
  121000    304.65998   -1516.9938    504.93797    353.77694   -119.43845    37655.765 
  121100    309.90794   -1530.0517    469.40379    328.71225   -358.14032    37655.765 
  121200    304.86547   -1579.7924    458.76767     245.7294    129.80135    37655.765 
  121300    300.24636   -1530.4334    481.17144    296.78398    427.04942    37655.765 
  121400    302.57911    -1579.246    482.45452    259.71247    394.50723    37655.765 
  121500    298.21286   -1544.6233    466.38172    258.68793   -154.28561    37655.765 
  121600    303.60607   -1577.2663    495.74385    279.58549   -172.27494    37655.765 
  121700    308.72396   -1530.5799    472.36083    325.83314   -45.566761    37655.765 
  121800    292.93065   -1530.5125     474.5287    257.26479   -82.111397    37655.765 
  121900    303.68943   -1480.3019    508.53155    389.71135   -1069.4468    37655.765 
  122000    303.40712   -1549.5866    462.30566    272.93516   -971.53146    37655.765 
  122100     303.2115   -1490.6085    492.19547    360.92607   -443.81414    37655.765 
  122200    290.97545   -1550.1989    498.42205    252.70632   -444.11629    37655.765 
  122300    299.49891   -1545.9658    474.79022    271.51943   -499.47071    37655.765 
  122400     302.4935   -1518.2764    498.94269    336.78649    388.29327    37655.765 
  122500    310.63954   -1542.6059    492.45663    342.49079    430.72369    37655.765 
  122600     297.9861   -1518.0185    514.80331    332.69774    139.73358    37655.765 
  122700    297.71735   -1549.8508     503.7496     288.6069    120.29674    37655.765 
  122800    292.98323   -1557.8163    475.15357     230.8216    548.08097    37655.765 
  122900    309.05532   -1519.0996    489.20903    355.64718      252.054    37655.765 
  123000    299.04381   -1528.3112     497.8747    310.21821   -274.94664    37655.765 
  123100    298.48075   -1572.4643    480.00192    245.66814   -484.82462    37655.765 
  123200    304.35753   -1518.8285    499.65783     345.3062    -335.0091    37655.765 
  123300    306.12906   -1560.9906     498.5945    310.02283    -136.3018    37655.765 
  123400    293.46474   -1543.2281    481.51094    253.92585     161.4526    37655.765 
  123500    293.75451   -1538.0499    501.22214    280.11434     338.5029    37655.765 
  123600    304.32467   -1525.3049    482.37669    321.40138    248.72205    37655.765 
  123700    312.59604   -1542.8147    473.66944    332.26599    449.30961    37655.765 
  123800    295.39968   -1525.3176    480.07222    279.07221    352.67337    37655.765 
  123900    300.87017   -1498.3505    483.16851    333.66059    447.73604    37655.765 
  124000    292.29923    -1523.492    486.54664    273.47248    76.968994    37655.765 
  124100    299.98356   -1580.9097    483.17424    247.13235   -77.433884    37655.765 
  124200    302.84337   -1546.1707     499.1662    310.68423   -9.9483711    37655.765 
  124300     298.7105   -1528.3846    475.36091     286.1368   -228.14874    37655.765 
  124400    288.41501   -1499.1625    482.22865     276.0705    419.69075    37655.765 
  124500    295.72516   -1543.7062     497.0165    279.08707     620.2447    37655.765 
  124600     304.0493   -1542.7268    500.27373    320.64198    92.202228    37655.765 
  124700    295.10244   -1552.7285    449.79701    220.05362    46.565348    37655.765 
  124800    295.12438   -1559.2822    493.41239    257.21363   -308.06826    37655.765 
  124900    296.10194   -1567.5694    478.59243    238.48894   -1131.9584    37655.765 
  125000    294.13942   -1541.7318    472.21745    249.15336    37.191738    37655.765 
  125100    295.48099    -1547.707    484.66583    261.64103   -826.36119    37655.765 
  125200     303.3222   -1546.3198    487.94194    301.45749   -69.531528    37655.765 
  125300    300.76443    -1570.544    474.41617     252.2407   -38.573335    37655.765 
  125400    300.47921   -1553.4121     502.4019    296.07965   -259.92741    37655.765 
  125500    294.90241   -1560.3825    475.41069    237.11653   -416.56181    37655.765 
  125600    306.77482   -1544.0585     484.1918    315.44725   -364.64549    37655.765 
  125700    298.36863   -1566.5928     520.3169    291.35197    282.84401    37655.765 
  125800    298.27793   -1590.2007    479.54735    226.56791    138.46303    37655.765 
  125900      296.573   -1586.0249    496.71099    240.26386    153.34351    37655.765 
  126000     300.7836   -1543.6746    488.33186    293.11176    95.096923    37655.765 
  126100     294.8599   -1539.6415    492.07179    274.32804   -975.93713    37655.765 
  126200    296.18179   -1510.4251    498.98277    316.38156   -851.07731    37655.765 
  126300    297.87475   -1522.3371    475.16322    288.23977   -881.92458    37655.765 
  126400    294.24631   -1521.2356    481.87963      279.791   -1300.0891    37655.765 
  126500    300.01835   -1526.8784    482.87187    301.01727   -965.09355    37655.765 
  126600    294.56937   -1488.1319    495.61121    328.07457   -570.52102    37655.765 
  126700    304.40861    -1500.545    499.88027    364.04115   -527.24466    37655.765 
  126800    294.48457   -1550.7331    489.05611    258.53804   -340.69818    37655.765 
  126900    293.01661   -1592.8929    479.16331    199.90442   -220.60181    37655.765 
  127000    311.19664   -1531.9745     486.2903     349.4534    142.27868    37655.765 
  127100    292.41591   -1570.6238    473.13112    213.44832   -231.12562    37655.765 
  127200    301.56282   -1535.5223    478.05011    294.47561    165.43936    37655.765 
  127300    290.99995   -1481.8529    486.15615    308.89632    420.60966    37655.765 
  127400    303.91496   -1499.4803    503.33052    366.34304    918.36035    37655.765 
  127500    305.79906   -1517.7245     498.7922    352.00719    638.81835    37655.765 
  127600    305.14828   -1560.4202    472.11179    279.71355    351.08999    37655.765 
  127700    291.27783    -1564.575    508.57256    249.83638    391.97097    37655.765 
  127800    295.23842   -1581.6312    494.90113    236.86454    296.32364    37655.765 
  127900    292.25335   -1581.6889    514.81718    243.34053    653.74389    37655.765 
  128000    299.77326   -1558.3398    489.19035    274.77559    242.09393    37655.765 
  128100    294.75671   -1607.0831    493.39729    207.74934    187.82032    37655.765 
  128200    301.17201   -1572.4889    484.66762     262.3745    487.53999    37655.765 
  128300    307.42707     -1556.82    519.80876     341.2268    91.596519    37655.765 
  128400    302.56959   -1582.8235    474.33263     247.9704    182.16606    37655.765 
  128500    295.41686   -1597.1173      463.125     190.4024   -431.41522    37655.765 
  128600    303.71405   -1585.1053    456.44472    232.93147   -107.37529    37655.765 
  128700    291.51833   -1546.9439    470.08771    230.06077   -185.17991    37655.765 
  128800    290.38634   -1553.7927    512.64891    260.69835   -289.35785    37655.765 
  128900     300.4091   -1563.4323    514.75177    298.09498   -435.69094    37655.765 
  129000    311.59579   -1585.2146    475.79979    287.51226   -209.32585    37655.765 
  129100    284.19644   -1556.9169    489.37251    206.54758   -655.28093    37655.765 
  129200    305.34077   -1560.9208    469.95565    277.91975   -563.94459    37655.765 
  129300    303.86416   -1565.0031    464.24681    261.50882    -586.1924    37655.765 
  129400     316.2995   -1573.4892    477.95812    322.48338   -555.24793    37655.765 
  129500    300.64827   -1541.5033    462.93434    269.27884    -639.0508    37655.765 
  129600    303.08645   -1570.4029    479.45574    267.83133   -229.12771    37655.765 
  129700    307.61352   -1588.5965    471.23902    261.71649   -3.3301313    37655.765 
  129800     306.2825   -1553.6984     488.5585    307.96691    250.87167    37655.765 
  129900    293.62062   -1554.3551    479.87778    241.86453    404.18306    37655.765 
  130000    303.69789   -1575.8405    483.04515    268.72432    138.92535    37655.765 
  130100    300.59956   -1538.4206    487.80699    297.01583   -81.324837    37655.765 
  130200    298.66072    -1528.155    505.71694    316.49929    167.05154    37655.765 
  130300    305.96514    -1565.704    495.57844    301.55846    250.41761    37655.765 
  130400    311.83552    -1527.902    477.10383    347.20357    164.23747    37655.765 
  130500    312.31863    -1559.645    494.64632    335.16893     203.5912    37655.765 
  130600      302.137   -1540.8811    502.72475    316.36561    521.60473    37655.765 
  130700    302.99315   -1507.8015    480.67661    331.23534    99.377053    37655.765 
  130800    306.77623   -1519.4114    467.04887    322.95775    77.844197    37655.765 
  130900    299.52602   -1540.9008    458.16726      260.083   -17.330088    37655.765 
  131000     295.9984   -1528.3108    509.05333     307.7443   -293.21878    37655.765 
  131100    306.40697   -1543.5504    475.05915    305.17354   -276.48835    37655.765 
  131200    298.98773   -1506.7745    483.82482    317.45364   -126.20435    37655.765 
  131300    306.10774   -1488.7494    494.03486    377.60877   -258.05858    37655.765 
  131400    302.35799   -1512.4776    503.93684    346.97198   -411.35914    37655.765 
  131500    298.28111   -1514.2167    511.97514     334.9939    -347.7315    37655.765 
  131600    295.08083   -1520.8228    481.04286    283.10829   -495.90641    37655.765 
  131700    311.16412    -1535.142    473.34002    333.18982    285.21786    37655.765 
  131800    299.23221   -1525.9335    494.43458    310.00042    301.87102    37655.765 
  131900    305.53298   -1546.1404    474.74467     298.3509    -372.1934    37655.765 
  132000    301.10766   -1535.2833    484.88893    299.51289   -201.43706    37655.765 
  132100    298.56944   -1527.7275    463.50772    274.30833   -500.93278    37655.765 
  132200    296.86127   -1561.7635    500.27342    269.38007   -397.02485    37655.765 
  132300    297.47528   -1540.9946    503.26304     295.8913   -104.94192    37655.765 
  132400    290.08576   -1569.6256    498.24408    229.11306   -278.38771    37655.765 
  132500    297.03837   -1599.0687    459.58958    192.18501   -165.17732    37655.765 
  132600    299.73063   -1588.4582    475.43187    230.70758   -413.29386    37655.765 
  132700    289.48221   -1508.6599     490.5151    279.64399   -231.92654    37655.765 
  132800     292.5683   -1546.9733    475.33407    239.98492    197.42155    37655.765 
  132900    304.11036   -1554.9065    474.03087    282.49321    556.42184    37655.765 
  133000    294.54775   -1541.1201    478.48893    257.86714    944.12389    37655.765 
  133100    308.32526    -1538.461    503.06146    346.86523    738.61977    37655.765 
  133200    304.46186   -1520.9892    514.98846    358.94391    0.5893968    37655.765 
  133300    297.16279    -1589.627    489.70683    232.30174    421.85632    37655.765 
  133400    303.87235   -1555.4618    468.46773    275.30774    338.12528    37655.765 
  133500    283.88771   -1564.4008    490.70417    199.01125    337.72149    37655.765 
  133600    304.91925   -1580.1942    493.28703    280.08806    574.89326    37655.765 
  133700     294.3795   -1573.0386    474.72204    221.42742    349.90347    37655.765 
  133800    302.26791   -1597.6398     470.9219     228.3909     271.4436    37655.765 
  133900    307.56185   -1538.3293     485.5382    326.05121    76.125962    37655.765 
  134000    301.63746   -1535.2546    478.82445    295.85229    58.320118    37655.765 
  134100    293.85858    -1513.746    481.99394    285.65656    96.545586    37655.765 
  134200    307.69154   -1541.4195    481.18988    319.19409    239.08109    37655.765 
  134300    305.47504   -1525.6036    493.57909    337.46237     125.0421    37655.765 
  134400    296.32243   -1518.8197    478.83596     288.4707    327.27553    37655.765 
  134500     299.9774   -1497.2934    502.54978    350.09654   -409.67021    37655.765 
  134600      293.952    -1533.729    499.65586    283.75435    50.240111    37655.765 
  134700     295.8043   -1505.9587    473.92121    294.09412   -1.7992018    37655.765 
  134800     303.7041   -1537.5043    495.80067    319.84388    134.44896    37655.765 
  134900    301.50779   -1533.7485    489.65493     307.6075   -185.75515    37655.765 
  135000    309.94912   -1556.1981    453.75462    287.10134   -211.43863    37655.765 
  135100     291.0185   -1509.4103    495.62765    290.89355   -466.73854    37655.765 
  135200    304.45112   -1524.8081    497.02934    337.11778   -114.79596    37655.765 
  135300    297.73818   -1492.2831     502.8752    345.39355   -162.38088    37655.765 
  135400    303.30149   -1525.7367    501.97667    335.98252   -549.81684    37655.765 
  135500     290.2391   -1530.1371    503.92525    274.97018    426.05709    37655.765 
  135600    310.47332   -1530.9347     483.5574     344.5175   -325.91785    37655.765 
  135700    308.11812   -1489.7064    473.42804    365.05778   -347.59927    37655.765 
  135800    298.89885   -1469.2099    497.40206    368.19703   -777.25465    37655.765 
  135900     300.1641   -1478.3214    483.23914    350.59493   -451.53322    37655.765 
  136000    296.04107   -1520.0156    482.05695    289.23445    92.528531    37655.765 
  136100    305.46729   -1516.8289    485.23885      337.862   -228.31727    37655.765 
  136200     304.9418   -1546.2536    479.25807    300.10068    392.34775    37655.765 
  136300    311.09963    -1532.018    490.35179    353.03647    216.35929    37655.765 
  136400    301.99189   -1498.0034    475.40428    331.27229    384.17025    37655.765 
  136500    291.76566   -1537.9511    460.04666     230.1214    143.58826    37655.765 
  136600    307.78786   -1501.5815    496.08848    374.36255     361.4372    37655.765 
  136700    290.51145   -1496.1873    509.07547    315.29123    -72.14978    37655.765 
  136800    300.42885   -1513.9341    487.53754    320.46749   -393.64593    37655.765 
  136900    301.14979   -1503.5641    494.99924    341.53127   -764.32956    37655.765 
  137000    292.74171    -1525.537    482.68952     269.5541   -1026.3495    37655.765 
  137100    291.05249   -1525.4291     493.6303    273.02982   -596.63128    37655.765 
  137200     294.3413   -1495.0618    480.26299    304.77392   -70.159512    37655.765 
  137300    290.63128   -1520.3319    477.09229    259.70062   -122.26521    37655.765 
  137400    301.19181   -1516.2468    480.21668     314.2544   -407.51449    37655.765 
  137500    289.25432   -1471.2432    498.90843    324.43237   -539.07004    37655.765 
  137600    300.67129   -1475.7597    497.03642    369.22768   -484.21618    37655.765 
  137700    301.46878   -1489.8327    501.14699    362.84046   -498.92925    37655.765 
  137800    296.21571   -1509.0793    481.61855    300.51529   -273.47876    37655.765 
  137900    292.71535   -1498.5863     471.8685    285.56559   -123.56267    37655.765 
  138000    309.44754    -1523.657     503.0139    366.65304    123.21939    37655.765 
  138100    300.44732   -1498.6798    452.97217     301.2393   -97.023609    37655.765 
  138200    300.97457    -1524.838    493.88887    318.36144    94.434009    37655.765 
  138300    297.96224   -1542.3666    463.02794    256.46724    68.639296    37655.765 
  138400     296.5684   -1548.4186    489.72296    270.86153    43.815181    37655.765 
  138500    305.20597   -1560.7997    481.49168    288.97252     526.3709    37655.765 
  138600    301.46106    -1583.614    498.54943    266.42709   -78.028675    37655.765 
  138700    302.82811   -1546.5848    483.16399    294.19945   -304.33786    37655.765 
  138800    310.47306    -1519.341    467.70611    340.25882   -433.93393    37655.765 
  138900    309.99075    -1538.738    462.18304    313.17648   -180.50978    37655.765 
  139000    303.17661    -1549.645    473.34554    282.88318   -417.21035    37655.765 
  139100    292.46796    -1565.748    483.83399    229.26035   -510.36913    37655.765 
  139200    299.81427   -1565.2326    462.26877    241.14498     -373.227    37655.765 
  139300    295.27912   -1494.1323    518.48659    348.13143   -396.06219    37655.765 
  139400    303.14629   -1507.2723    482.91222    334.68667   -379.67342    37655.765 
  139500    301.62026   -1559.7683    453.21396    245.65104    69.804747    37655.765 
  139600     287.5661   -1539.7754    491.19557    240.61874    58.171042    37655.765 
  139700    295.66392   -1548.7295    514.88702    291.65979    186.98773    37655.765 
  139800    302.84291   -1529.0404    495.31476    323.96098     529.6166    37655.765 
  139900    298.38026   -1527.4552    497.46186     307.6866    27.268567    37655.765 
  140000    300.53161   -1542.5943    498.95563    303.68608    62.711628    37655.765 
  140100    301.24829   -1572.6129    471.65649    249.58131    503.35192    37655.765 
  140200    302.91891   -1546.2325    497.40094    309.19584    179.34546    37655.765 
  140300    306.70671   -1533.0018    486.66344    328.67026    29.725707    37655.765 
  140400      297.578    -1558.847    479.58599     254.8223    261.29973    37655.765 
  140500    311.14731   -1583.4632    494.91678    306.37005    665.34503    37655.765 
  140600    299.25005   -1542.8994    472.08447    270.76449    535.44413    37655.765 
  140700    295.37403    -1553.786    484.58291    254.99949    29.762718    37655.765 
  140800    298.83362   -1570.7329    489.88511    258.86469    203.14097    37655.765 
  140900    297.98971   -1567.2742    465.25138    233.90625    173.70252    37655.765 
  141000    300.66262   -1584.4314    491.22019    254.70086    410.14379    37655.765 
  141100    303.99866    -1586.312    477.75052    254.30653    398.05214    37655.765 
  141200    300.18342   -1576.6493    457.59886    226.71333   -310.20735    37655.765 
  141300    305.73245   -1550.6068    481.99463    302.02871   -773.42783    37655.765 
  141400    311.34542   -1503.8267    506.01852    397.99644   -601.50106    37655.765 
  141500    290.47742   -1508.8957    502.59065    295.94535   -166.10459    37655.765 
  141600    300.06543   -1519.1776    491.17422    317.23143   -645.09362    37655.765 
  141700     297.0624   -1479.2637    481.80216    334.31026    55.612252    37655.765 
  141800    301.16215   -1507.9352    481.46116    323.67756   -412.81398    37655.765 
  141900    303.11008   -1541.9568    508.63946    325.56708   -309.37763    37655.765 
  142000    292.19778   -1512.7766    495.50696    292.69345    386.69859    37655.765 
  142100    293.91697   -1548.9613    501.50372    270.21281    68.280182    37655.765 
  142200    305.28219   -1517.1227    480.27647    331.77606   -165.78177    37655.765 
  142300    304.64043   -1514.6119    496.00805    347.14138   -430.65179    37655.765 
  142400    295.20255   -1569.5362    469.96068    223.85839   -637.93442    37655.765 
  142500    295.28403    -1535.853    482.19969    270.14581    89.082569    37655.765 
  142600    285.41199   -1577.6795    499.85727    201.71917    95.232646    37655.765 
  142700    290.66306   -1507.8324     507.0618    302.31204      373.653    37655.765 
  142800    293.11854   -1556.8899    488.32182    245.52284    448.80876    37655.765 
  142900    299.91878   -1548.7617    507.42302    303.23871    55.859507    37655.765 
  143000    294.66853   -1537.9535     469.3073    252.39358    572.71159    37655.765 
  143100    295.96942   -1521.0607    498.97278    304.78397    891.39552    37655.765 
  143200     308.4439   -1579.5445     481.9105    285.16265    118.01574    37655.765 
  143300    296.72412   -1556.5775    497.03234    270.71012    540.93596    37655.765 
  143400    311.18432   -1565.0491    468.15949    298.19275    182.25735    37655.765 
  143500    305.98802    -1554.528     480.2906    297.54925   -95.706477    37655.765 
  143600      289.798   -1553.4343    488.95201    234.72221    203.77082    37655.765 
  143700    294.53503   -1565.5853    494.22655    249.08251   -12.923764    37655.765 
  143800    292.51983   -1564.5728     497.7918    244.62586    426.43926    37655.765 
  143900    299.34669   -1548.4435    477.51879    271.08796    1.2189353    37655.765 
  144000    306.88145   -1536.2981    452.73838    292.23224   -51.647066    37655.765 
  144100    294.65248   -1547.6953    481.79376    255.06627    -136.1368    37655.765 
  144200    295.71093   -1511.4663    487.60803    301.85472    179.84604    37655.765 
  144300    307.45455   -1516.3387    510.51828    372.54083    240.66654    37655.765 
  144400    296.41778   -1551.3053    484.20831    261.78492   -43.038881    37655.765 
  144500    297.37365   -1526.1845    487.10751    294.09021   -31.418368    37655.765 
  144600    309.01626   -1520.4335    504.28912     369.2183    396.53891    37655.765 
  144700    285.45855   -1538.5285    482.98317    224.20486   -491.15367    37655.765 
  144800    308.07872   -1511.3152    486.22427    356.06861   -140.52207    37655.765 
  144900    300.39907   -1507.7731    463.24005    302.19755   -9.0710347    37655.765 
  145000     300.6533   -1534.5105    484.20641     297.5662   -202.67698    37655.765 
  145100    292.51613     -1516.74    500.73693    295.38724   -195.64617    37655.765 
  145200    306.46947   -1496.8633    507.32102    384.40274   -388.55148    37655.765 
  145300    294.93972   -1500.9358    531.11275    352.43254    -146.2119    37655.765 
  145400    304.06085   -1495.8543    472.98647    340.27904   -783.31926    37655.765 
  145500    305.96847   -1485.7747     481.8845    367.80882     -854.732    37655.765 
  145600    310.50444   -1497.6366    487.74116    382.13894   -799.98635    37655.765 
  145700    290.99616   -1519.3701    472.89851     258.1045   -847.52598    37655.765 
  145800    303.74574     -1498.42    507.63383    370.94799   -127.25649    37655.765 
  145900    301.01487   -1539.6948    491.43962    301.23609   -151.69727    37655.765 
  146000    297.71232   -1561.6435    474.25585     247.2979     191.0545    37655.765 
  146100     310.1747   -1505.7875    512.75021    397.51884   -197.61776    37655.765 
  146200    286.44332   -1563.7116     482.9315    203.38489    210.50815    37655.765 
  146300    289.32545   -1530.0916    469.65228    236.64673   -416.30036    37655.765 
  146400    300.19425   -1534.1289    496.48687    308.17026   -365.20309    37655.765 
  146500    305.83664   -1524.6406    481.00292    327.47023    71.823952    37655.765 
  146600    303.89769   -1510.9434    474.98322    326.45524    372.61974    37655.765 
  146700    303.10788   -1510.4512    524.07227    372.49561   -19.781431    37655.765 
  146800    308.93244   -1546.4835    498.45749    336.96089     574.9762    37655.765 
  146900    295.99291   -1493.3335    509.79735    343.44101    670.09791    37655.765 
  147000     307.6014   -1519.0568    488.37179    348.33462    625.27227    37655.765 
  147100    300.75428   -1510.9903    493.49477    330.82755    418.32777    37655.765 
  147200    284.97947   -1518.8991    515.51059    274.21384    163.57185    37655.765 
  147300    297.32276    -1506.622    526.68078     352.9978    258.40798    37655.765 
  147400    307.26313   -1553.6213    478.42644    302.30829   -31.006551    37655.765 
  147500    312.61098   -1553.9853    458.08411    305.57707   -101.61225    37655.765 
  147600    299.89245   -1525.6919    486.69232    305.45969     69.28185    37655.765 
  147700    303.62055   -1541.1224     482.6448    302.69529   -270.21221    37655.765 
  147800    284.51941   -1490.2421    492.63311    277.93089   -517.34222    37655.765 
  147900    299.26783   -1511.2671    488.47142    318.86345   -343.33704    37655.765 
  148000    302.49406    -1515.815    484.22904    324.53675   -194.70712    37655.765 
  148100     294.0602   -1507.0502    514.10091    325.36328    65.399797    37655.765 
  148200    304.82745   -1525.2037    490.24819    331.62811   -286.04161    37655.765 
  148300    297.59144   -1548.9858    492.88785    278.04566   -221.18311    37655.765 
  148400    300.88403   -1496.1053    502.84838    355.64786   -65.617316    37655.765 
  148500    298.81784   -1504.9449    490.41086    325.10766   -335.70791    37655.765 
  148600    297.83305   -1480.2931    490.53838    345.47205   -209.60467    37655.765 
  148700    298.99251   -1522.9026    519.12379    336.64595    230.09744    37655.765 
  148800    297.58056   -1512.6317    497.27573    318.73888    298.70753    37655.765 
  148900    295.34036   -1480.4744     518.7087    362.28593   -118.06718    37655.765 
  149000    300.24849   -1493.7084    492.35791    344.70504   -64.870803    37655.765 
  149100    297.03603   -1532.9804     485.3537    284.02689   -283.50201    37655.765 
  149200    293.30292   -1553.3376    469.13401    230.71402   -174.06845    37655.765 
  149300     297.9065   -1548.8889    469.13314    255.80033    85.515294    37655.765 
  149400    291.53949   -1568.8669    479.09894    217.24392    282.56253    37655.765 
  149500    290.75658   -1541.7157    486.21699    248.00323    146.34361    37655.765 
  149600     307.5117    -1572.503     500.7056    306.82004    947.10257    37655.765 
  149700    306.91671   -1563.0365    500.14386    313.05737    1012.3393    37655.765 
  149800    297.64016   -1535.4481    468.33945    267.25337    401.83468    37655.765 
  149900    295.64748   -1568.7984    484.95461    241.58474    109.73982    37655.765 
  150000    290.08251   -1557.5709    490.10045    233.00956    25.186946    37655.765 
  150100     289.4625   -1543.7917    459.48562     213.3943   -766.27815    37655.765 
  150200    291.68255   -1530.5473    486.34699    263.45292   -527.21522    37655.765 
  150300    293.73961   -1545.7915    490.22602    261.30977   -249.98112    37655.765 
  150400    315.49887   -1565.2321    471.74305    320.93601    -414.3514    37655.765 
  150500    300.32723    -1584.606    479.69097    241.49343   -332.04168    37655.765 
  150600    308.34984   -1532.1877    482.74821    332.93553     166.0734    37655.765 
  150700    303.55131   -1527.0513    472.85285     306.6641    55.161871    37655.765 
  150800    307.24289   -1518.9772    485.11932    343.55451   -99.156709    37655.765 
  150900    302.59619   -1533.6036     461.8797    284.85668   -34.641742    37655.765 
  151000    293.76572   -1567.7006    471.13778    220.42951   -688.62478    37655.765 
  151100    309.47526   -1534.6416    477.15359    329.93237   -678.54187    37655.765 
  151200     301.8179   -1507.3868    465.92806    311.63264   -650.03573    37655.765 
  151300    292.44367   -1545.1188    473.93409    239.88074   -935.59768    37655.765 
  151400    292.35376   -1503.5328    476.99208    284.12163    -704.3847    37655.765 
  151500    301.32563   -1496.9398    478.88277     332.8274   -1048.2686    37655.765 
  151600    298.14442   -1510.8024    465.58865    291.40893   -649.69388    37655.765 
  151700    304.00194   -1485.0295    460.16367    338.01691   -282.54842    37655.765 
  151800    294.09132   -1510.6903    481.57108    289.33282   -154.77476    37655.765 
  151900    291.52657   -1508.2434    476.94281    275.65336    806.82932    37655.765 
  152000    303.51785   -1532.9945    492.02354    319.74149     41.19357    37655.765 
  152100    303.41564   -1536.0358    471.60126    295.81977    288.26721    37655.765 
  152200    301.00839   -1536.9222    468.64319    281.18326    92.031728    37655.765 
  152300    291.33631   -1556.0194     467.2543    217.33582   -584.72665    37655.765 
  152400    300.02778   -1533.7941    477.91572    289.18762   -479.21503    37655.765 
  152500    299.57726   -1540.2208    462.89366    265.71918    -536.3846    37655.765 
  152600    296.72149   -1540.7704     455.9523    245.42533   -685.39319    37655.765 
  152700    306.80412   -1544.6541     474.6303    305.42155   -255.62042    37655.765 
  152800    295.24577    -1580.243    461.67464    205.05929    544.71293    37655.765 
  152900    300.72315   -1565.0641    479.12386     262.2432    908.47657    37655.765 
  153000    294.33995   -1554.7656    460.76573    225.56683    864.74601    37655.765 
  153100    294.61001   -1541.0476    462.08813    241.81802    125.54289    37655.765 
  153200    303.76662   -1538.6565    457.81044    280.98175    91.938891    37655.765 
  153300     308.1316   -1530.6371    461.66388    312.42335    204.05569    37655.765 
  153400    296.52129   -1519.4077    494.09618    304.03448   -623.20438    37655.765 
  153500    291.28083    -1489.282    490.26088    306.83118   -628.31367    37655.765 
  153600    310.15932   -1495.2024    469.70588    364.99054   -361.52917    37655.765 
  153700    301.95656    -1477.469    485.39445    361.63846   -323.29577    37655.765 
  153800    304.41039   -1492.8411    492.58286    364.45571   -449.11528    37655.765 
  153900       299.41   -1487.4219    486.72653    341.60113   -507.01838    37655.765 
  154000    302.95123   -1477.0523     467.1583    348.27823   -192.95402    37655.765 
  154100    295.82344   -1504.4703    500.91276    322.65988   -126.84898    37655.765 
  154200    295.05545   -1491.8049    468.32113    299.29062   -361.46376    37655.765 
  154300    291.36763   -1504.3564    487.52809    289.41305   -85.869133    37655.765 
  154400    286.26479   -1542.5795    489.21684    230.00195   -406.76849    37655.765 
  154500    303.02414   -1537.3743    476.07295    297.19781    165.59105    37655.765 
  154600    295.49758   -1573.6232    482.97305     234.1064   -449.09982    37655.765 
  154700    306.77887   -1571.7422    451.60514    255.19506   -274.62059    37655.765 
  154800    293.10223   -1493.1754    456.62745    277.46995    217.12517    37655.765 
  154900     304.7048   -1513.4614    483.22777    335.80017    205.52788    37655.765 
  155000    304.43251    -1491.236    488.53663    362.11365   -315.67131    37655.765 
  155100    289.07144   -1529.6276    478.69858    245.01818    166.12202    37655.765 
  155200    304.71164   -1513.8314    453.76523    305.99827    716.92051    37655.765 
  155300    308.93229   -1527.2377    487.74505    345.49352   -119.69884    37655.765 
  155400    301.45757   -1501.5816    470.12089    320.01525    119.30428    37655.765 
  155500    299.95773   -1496.5006    475.13914    323.39049    11.071029    37655.765 
  155600     311.0468    -1510.606    475.05815    358.91802   -413.73365    37655.765 
  155700    303.67742   -1570.6778    469.32946    260.07955   -35.879729    37655.765 
  155800    312.85541   -1525.4185    485.55972    362.71525   -158.58371    37655.765 
  155900    297.22207   -1501.5839    482.34283    313.24654    113.31087    37655.765 
  156000    303.31898   -1450.9053    476.10876    385.02439   -158.33082    37655.765 
  156100    292.06921    -1487.443    456.91655    278.86028   -211.75404    37655.765 
  156200    315.70405   -1501.7457     474.4263    388.02558    -243.1028    37655.765 
  156300    303.96134    -1509.731    475.98344    328.95313   -13.939509    37655.765 
  156400    295.32111   -1537.0836    483.31926    270.20107   -57.217944    37655.765 
  156500    299.59484     -1547.46    498.20082    293.86591    682.14259    37655.765 
  156600     302.9396   -1564.6281    462.58425     256.0763    382.52045    37655.765 
  156700    301.61569   -1539.8651    464.71981    277.03956    20.301616    37655.765 
  156800    297.54978   -1589.9728    465.60282    209.58687   -145.19016    37655.765 
  156900    304.83024   -1578.8879    468.47682    256.18501    1.3662228    37655.765 
  157000    304.97532   -1590.6744    455.66899    232.24116    32.171417    37655.765 
  157100    294.74921   -1530.0728    488.04916    279.37784    -8.961121    37655.765 
  157200    306.10521   -1505.1204    468.23932    335.43089    176.31577    37655.765 
  157300    304.49146   -1499.9417    477.82871    342.96435    161.10873    37655.765 
  157400    291.84453   -1510.7119    496.57882    294.24624    538.21078    37655.765 
  157500    290.01158   -1520.8518    482.70518    262.01546   -138.06007    37655.765 
  157600    295.21714   -1482.1167    484.68432    326.06689     24.65293    37655.765 
  157700    299.99366   -1489.5184     456.0906    311.48528   -494.50479    37655.765 
  157800    307.18001   -1484.5782    508.07923    400.63156   -438.48574    37655.765 
  157900    306.96955      -1480.5    471.71396    367.40092   -84.338322    37655.765 
  158000    291.92461   -1487.2455    485.14726    306.64017   -202.99597    37655.765 
  158100    296.86431   -1447.7878    510.50387    393.59983   -204.94597    37655.765 
  158200    294.93726   -1461.9111    478.45653    338.78992    243.40554    37655.765 
  158300    303.34423   -1511.9169    502.92779    350.94506    304.63177    37655.765 
  158400    289.85896   -1496.0129    493.69058    297.15546   -154.27442    37655.765 
  158500    307.62302   -1498.5381    481.77666    362.35514    478.75334    37655.765 
  158600    290.70655   -1473.7186    489.02393    318.58297     391.6105    37655.765 
  158700    294.16018   -1473.6067    495.12408    340.27815    12.643518    37655.765 
  158800    296.28177   -1460.3439    490.51107    358.43935    849.91512    37655.765 
  158900    281.73875   -1487.6854    521.72736    297.11577    981.92465    37655.765 
  159000    301.31787   -1513.6428    475.97957    313.18647    1025.5652    37655.765 
  159100    303.24871   -1477.8722    505.31368    386.94745    829.93616    37655.765 
  159200    286.15647   -1520.9364    474.88738    236.82999    652.37058    37655.765 
  159300    293.43341   -1507.7072    473.17885    280.97424     678.2007    37655.765 
  159400    292.18738    -1511.353    472.27613    270.83958    1101.4828    37655.765 
  159500      302.214   -1482.3281    464.54343    337.08246    852.89812    37655.765 
  159600    295.52645   -1504.8823    496.16067    316.16432    1150.4698    37655.765 
  159700    301.73227    -1512.824     462.4817    302.36519    788.84268    37655.765 
  159800    302.15024   -1526.6261    469.28603    297.24122   -57.263175    37655.765 
  159900    287.01279   -1534.5903    466.99006    219.11778   -363.06496    37655.765 
  160000     298.0669   -1550.9227    470.63767    255.99016    -211.9056    37655.765 
  160100    308.53299   -1508.7183     462.8047    337.28245   -63.930387    37655.765 
  160200    287.64213   -1541.6219    463.84119    211.75874   -22.079879    37655.765 
  160300     295.9138    -1540.119    460.78266    247.28612   -276.82563    37655.765 
  160400    293.02556   -1517.9197    479.36079    275.11523   -32.501883    37655.765 
  160500    294.13099   -1515.6911    443.38005    246.31887   -116.28215    37655.765 
  160600    310.22665   -1520.9629    487.50528    357.33133    602.62371    37655.765 
  160700    308.25746   -1526.5415    451.22803    306.64736    486.29916    37655.765 
  160800    293.92508   -1494.0178    475.54582    299.23483   -217.96259    37655.765 
  160900    300.10164   -1508.0302    470.42156    307.78851   -58.557874    37655.765 
  161000    297.48612   -1515.7214    454.89156    272.84161    60.826364    37655.765 
  161100    308.76887   -1531.3696    478.26591    331.14984   -42.539985    37655.765 
  161200    300.68019   -1469.7359    470.12112    348.37613   -612.51761    37655.765 
  161300    310.93397    -1462.848    466.70288    397.81487   -368.24673    37655.765 
  161400    297.45509   -1474.6048    489.31111    348.23861    61.484225    37655.765 
  161500    293.65278   -1526.1221    473.37323    263.73719    125.04228    37655.765 
  161600    298.44213   -1495.5234    469.08579    311.51976    156.52647    37655.765 
  161700    302.53227   -1512.2982    456.92267    300.91854    420.06976    37655.765 
  161800    294.91817   -1525.8848    479.35956    275.63375    296.02968    37655.765 
  161900    299.64185   -1511.9522    479.00819    310.39186    91.156308    37655.765 
  162000    286.67325   -1471.3019    475.85731    289.75129   -177.38083    37655.765 
  162100    305.33128   -1521.1492    444.47867    292.17179    582.52615    37655.765 
  162200    308.31387   -1536.9384    480.67461    325.94992    173.99936    37655.765 
  162300    297.50337   -1478.0425    488.19519     343.9015    316.62572    37655.765 
  162400    294.52016   -1494.1439    459.05408     285.2848    207.82189    37655.765 
  162500    308.90874   -1547.6529    476.43297    313.66073    145.86148    37655.765 
  162600    304.40396   -1573.7498     463.5414    254.47668    119.53862    37655.765 
  162700    300.45972   -1518.5091    455.09367    283.58699     512.5966    37655.765 
  162800    305.20869   -1537.9402    462.88299    293.23561    481.22482    37655.765 
  162900    299.88824   -1523.3565    449.14679    270.23073    626.73796    37655.765 
  163000    290.25473   -1525.8746    461.38938    236.76689     179.0844    37655.765 
  163100    295.58562   -1531.4974     455.0161    248.66989   -20.735555    37655.765 
  163200     302.3455    -1506.961    460.89457     309.3903   -525.91005    37655.765 
  163300    293.61719   -1503.6148    472.81722    285.52891   -615.47297    37655.765 
  163400    305.27295   -1451.0262    460.90046    378.45513   -454.63184    37655.765 
  163500     296.4558   -1490.0439    464.89162    303.90007   -811.24209    37655.765 
  163600    306.87328   -1509.4089     452.2014    318.54788   -607.16029    37655.765 
  163700    287.82757   -1533.2758    477.63929    234.73437   -639.42227    37655.765 
  163800    297.13797     -1506.72    439.28692    264.67749   -520.95171    37655.765 
  163900    301.19091   -1531.5328    474.02282    292.77051   -760.79638    37655.765 
  164000    294.90403    -1559.982    473.16346    235.27706    -369.3987    37655.765 
  164100     291.3219   -1592.5474    467.03074    180.51975     80.30203    37655.765 
  164200    302.36969   -1572.9934    447.91298    230.48472   -463.52406    37655.765 
  164300     297.9801   -1542.5689     475.2407    268.55786   -419.33357    37655.765 
  164400    292.11575   -1530.2688    459.71602    239.04256   -188.53776    37655.765 
  164500    298.86113   -1520.9214    455.83657    274.75097   -77.228663    37655.765 
  164600    298.86615   -1500.4174    465.32267    304.76359    -106.5408    37655.765 
  164700    302.73092   -1507.8961    451.80721    301.09567   -4.2541395    37655.765 
  164800    296.50159   -1501.0307    503.83019    332.05717    -249.3193    37655.765 
  164900    297.52601   -1506.9238    455.27905    282.20551    -250.8163    37655.765 
  165000    296.61458   -1491.6682    468.20883    306.30479    302.15952    37655.765 
  165100    302.55393   -1509.8963     457.6659    304.16074     182.4571    37655.765 
  165200    298.99368   -1504.8859    458.97425    294.51834    264.76054    37655.765 
  165300    315.57978   -1520.0658     459.5181    354.24008   -57.788255    37655.765 
  165400    299.14804   -1501.7337    458.92713    298.31546    117.91344    37655.765 
  165500    292.36626   -1517.0843    466.61656    260.25064   -145.25223    37655.765 
  165600    302.77559   -1533.1457    450.83403    275.07321    224.16609    37655.765 
  165700    292.71655   -1500.9303    476.90088    288.25932   -31.247394    37655.765 
  165800     303.1682   -1474.6593    472.19866    356.68436    325.53291    37655.765 
  165900    292.94089   -1519.9672    481.40747    274.73475    454.69212    37655.765 
  166000    305.71603   -1556.8836    446.99301    260.67666    111.45108    37655.765 
  166100    303.16209   -1524.8965    457.32703    291.54805     497.3429    37655.765 
  166200    306.81083   -1480.3601    460.77178    355.88707    385.90231    37655.765 
  166300    303.94074   -1506.9692    458.51565    314.15483    183.89121    37655.765 
  166400    305.82584   -1524.3971    473.74141    320.40386    288.63923    37655.765 
  166500    296.90617   -1487.7235    447.49083    290.83875   -60.839478    37655.765 
  166600    304.13231   -1524.8787    449.53828    288.12679    -69.54457    37655.765 
  166700    314.54483   -1515.8871    429.83054    324.09142    340.52189    37655.765 
  166800     310.0734   -1544.9943    446.80338    291.91107   -68.539128    37655.765 
  166900    304.95225   -1539.6252     471.9986     299.5165    728.77594    37655.765 
  167000    295.62244   -1510.4341    475.12329    290.00553    29.546015    37655.765 
  167100    291.95649   -1484.6243    458.64342    282.90048    131.45702    37655.765 
  167200    293.83849   -1500.1476    466.32005    283.49108   -111.37405    37655.765 
  167300    300.29786   -1490.9903    474.84434    330.13091   -228.65751    37655.765 
  167400    291.16918   -1491.3267    454.80517    268.83022    -425.6118    37655.765 
  167500    296.80859   -1482.2522    451.99678    300.37856   -761.22452    37655.765 
  167600    302.42919   -1486.8121    465.71347    334.73331    203.81265    37655.765 
  167700    301.53473   -1526.6681    444.07923    269.23305    425.55538    37655.765 
  167800    305.36697   -1453.3221    462.55092    378.23123   -395.93693    37655.765 
  167900    296.12051   -1486.9381     477.0526    317.66368    105.59644    37655.765 
  168000    287.90476   -1520.3854     480.5723    250.90377     195.3138    37655.765 
  168100    304.10859   -1515.5205    473.73355    321.57389    277.04085    37655.765 
  168200    298.40727   -1478.2056    477.53092    337.12636    63.615797    37655.765 
  168300    298.85567   -1476.7116    492.09137    355.19104   -161.45583    37655.765 
  168400    304.71802   -1489.3181    453.56229    330.33719   -627.87056    37655.765 
  168500    302.00456   -1498.4768    443.46078    298.91225    -697.1116    37655.765 
  168600    285.85626   -1491.3954    450.02222    240.15995   -25.519269    37655.765 
  168700    304.79142   -1505.5832    449.61246    310.45138    65.164102    37655.765 
  168800    301.24915   -1508.7963    452.66876    294.41411     192.7048    37655.765 
  168900    290.54062   -1507.2184     437.3862     232.7016   -555.83944    37655.765 
  169000    307.29163   -1499.2504    465.31124    343.69172     252.4154    37655.765 
  169100    310.68284   -1522.6778     455.8024    325.95873   -176.87819    37655.765 
  169200    308.59812   -1515.8249    468.81774    336.48096    97.449783    37655.765 
  169300    298.16477   -1549.4243    458.29099    245.58057   -227.40686    37655.765 
  169400    293.00175   -1485.2897    470.99674    299.27436   -381.08288    37655.765 
  169500    297.28353   -1478.5659    463.58079    317.77809   -208.40285    37655.765 
  169600    304.40116   -1505.9135     450.0058    308.76475   -167.91877    37655.765 
  169700    299.72996    -1511.557     446.4431    278.61691   -564.17979    37655.765 
  169800    310.88622   -1507.6357    467.14847    353.25873    27.606821    37655.765 
  169900    302.84324   -1491.4625    460.55201     326.7777   -110.28976    37655.765 
  170000    292.98506    -1507.591    460.49954    266.40107     5.920389    37655.765 
  170100    309.13376   -1494.7068    445.10815    336.29075    377.14905    37655.765 
  170200    297.65152    -1470.226    468.74701     332.9339    394.81023    37655.765 
  170300    300.36567   -1512.5545    474.12798    308.15435     197.5278    37655.765 
  170400    299.61849      -1534.8    447.42565    255.85677    172.34349    37655.765 
  170500    296.34121   -1479.3518    456.64736    305.83421    408.76089    37655.765 
  170600    305.71344    -1484.601    470.88058    356.83519    178.88652    37655.765 
  170700    296.41632   -1464.8667    463.47128    327.47994    49.796698    37655.765 
  170800    293.86509   -1499.3323    448.94478    267.05034   -353.92023    37655.765 
  170900    291.98462   -1501.2939    448.19946    255.91297   -450.07902    37655.765 
  171000    295.09385   -1525.3556    458.59899    256.18995   -434.34237    37655.765 
  171100    307.81201    -1524.386    448.98644    304.56427     67.15376    37655.765 
  171200    307.31808   -1519.2643    459.92257    318.40773    926.28355    37655.765 
  171300    291.87179   -1483.3069    439.66781    264.86254    534.56059    37655.765 
  171400    305.03528   -1518.4347    451.21153    300.29218     435.8949    37655.765 
  171500    302.28788   -1528.5298    461.32939    287.99793    261.32283    37655.765 
  171600     304.2117   -1490.6288    449.91088    323.10522   -167.26226    37655.765 
  171700    305.57749   -1478.6112    449.49284    340.82775   -110.39718    37655.765 
  171800    286.33875   -1506.6403    454.51942    231.57533    121.51451    37655.765 
  171900    308.06569     -1507.31    484.16167    357.95278   -106.48201    37655.765 
  172000    307.58352   -1535.0115    475.19442    319.12234    224.93142    37655.765 
  172100    311.63248    -1517.137    442.48842    322.44295    306.99533    37655.765 
  172200    302.61312   -1537.3084    447.79499    267.14312    189.32996    37655.765 
  172300    292.83689   -1538.0235    443.84544    218.65019    453.94104    37655.765 
  172400    305.08612   -1540.7505    470.91849    297.91123     587.7766    37655.765 
  172500     302.4723   -1480.2912    473.27162    349.00564    43.796405    37655.765 
  172600    301.73433   -1463.5851    461.76658    350.89817    -432.3913    37655.765 
  172700    299.39284   -1531.3004    447.52413    258.44323    575.73807    37655.765 
  172800    295.02205   -1501.4453     493.1868    314.36616      392.773    37655.765 
  172900     291.4239   -1489.4891    458.15815    275.16272    439.69872    37655.765 
  173000    297.57357   -1514.8194    458.45352    277.69755    341.42461    37655.765 
  173100    292.09652    -1478.114    470.31567    301.71072    464.03562    37655.765 
  173200    295.19288   -1461.4816    477.43662    339.34554    381.50829    37655.765 
  173300    301.34915   -1472.8119    458.29033    336.46837    277.71531    37655.765 
  173400    291.59345   -1429.0484    462.69126    340.89666    590.17822    37655.765 
  173500    311.53825    -1455.784    487.12824    428.01328    158.83256    37655.765 
  173600    304.33558   -1452.9214    469.26722    380.72435    -76.65354    37655.765 
  173700    293.63174   -1455.4411    455.80283    316.75346   -442.53648    37655.765 
  173800    279.50039   -1430.8737    456.53023    278.69544   -892.70197    37655.765 
  173900     290.7251   -1460.0953    463.00389    306.26943   -719.98696    37655.765 
  174000    312.23662   -1431.6458    478.65201     446.8062   -403.96129    37655.765 
  174100    300.77672   -1415.4776    460.15575    393.10181    136.86425    37655.765 
  174200    308.18853   -1429.5699    445.12882    397.21073   -164.82153    37655.765 
  174300    305.57654   -1474.0784    452.58109    348.44455   -54.229348    37655.765 
  174400    295.43299   -1493.4079    420.44629    251.50536   -54.433083    37655.765 
  174500    300.11698   -1469.3022    497.66453    373.82824     294.9911    37655.765 
  174600    298.98598   -1466.3289    450.58461    324.65121    639.18579    37655.765 
  174700    294.99814   -1505.1834    448.93765    266.27174    456.07987    37655.765 
  174800    303.21325     -1498.19    473.26545    334.42239    337.67489    37655.765 
  174900    294.28444   -1460.0109    486.05348     345.3604     266.6293    37655.765 
  175000    294.65754   -1478.0701    454.13446    297.05482   -153.11775    37655.765 
  175100    287.41034   -1463.8401    460.33611    284.99629   -206.15349    37655.765 
  175200     296.6443   -1466.0461    478.42996    342.28133   -388.49962    37655.765 
  175300    302.46019   -1453.1895    470.40089    373.18227   -235.65027    37655.765 
  175400     293.6525   -1496.1542    466.00648    286.33708   -428.79288    37655.765 
  175500    306.52722     -1479.67    449.40171    343.93563   -48.256701    37655.765 
  175600    304.29434   -1471.9722    462.02527    354.24665   -78.418337    37655.765 
  175700    297.59013   -1469.0906    446.93098    311.97805   -277.79553    37655.765 
  175800    296.30911    -1436.319    470.92107    362.99679    233.22983    37655.765 
  175900    283.68496   -1444.8924    474.42564    301.33216   -53.925679    37655.765 
  176000    308.03221   -1425.6851    481.71249    436.97843    778.48897    37655.765 
  176100    293.10645   -1492.7116    477.69512    299.02027    687.26817    37655.765 
  176200    288.18868   -1480.8055    460.49739    271.68159    922.67524    37655.765 
  176300    297.30349   -1470.8684    441.51453    303.49886     557.1779    37655.765 
  176400    302.44581   -1474.7172    486.47621    367.66535     1121.856    37655.765 
  176500     289.9428    -1473.254    473.22385    299.82351   -327.59973    37655.765 
  176600    306.10434   -1448.7325    474.17151    397.74706    290.99433    37655.765 
  176700    293.27776   -1489.0893    466.23492    291.95039     394.7487    37655.765 
  176800    305.88945   -1461.0946    485.93126    396.18134   -422.51388    37655.765 
  176900     294.9856   -1448.5956    467.90275    341.76843   -97.655082    37655.765 
  177000    299.92918   -1483.0677    451.28844     312.8447    110.77404    37655.765 
  177100    301.07092   -1491.0763     493.0315    351.69776   -493.65511    37655.765 
  177200    293.37726   -1479.4583    474.28354    310.07605    16.959912    37655.765 
  177300    312.01804   -1502.5142    485.89842     382.2042    88.108168    37655.765 
  177400    298.20181   -1522.8631    438.57844    252.59529    -360.8475    37655.765 
  177500    308.40926   -1523.4176    465.48098    324.70472   -175.63815    37655.765 
  177600    308.34139   -1506.0923    451.73612    327.98094     642.0343    37655.765 
  177700    314.95783   -1479.2995    450.25596    382.95595    439.13918    37655.765 
  177800    302.29268   -1473.0948    448.91423    331.03938     336.1324    37655.765 
  177900     298.1901   -1538.8815    443.41014    241.35611   -469.99699    37655.765 
  178000     312.4157   -1481.1859    454.02845    373.44537    108.42047    37655.765 
  178100    307.04321   -1512.7417    445.84427    309.61974    208.00737    37655.765 
  178200    307.28229   -1508.1793    449.87175    319.28147    154.83429    37655.765 
  178300     307.5655   -1516.5292    484.23819    346.56764    579.59571    37655.765 
  178400    291.63761   -1474.8648    462.82126    295.40823    27.983911    37655.765 
  178500    299.30223    -1501.768    437.57941    277.62473    207.30917    37655.765 
  178600    299.09927   -1508.2842    452.97908    285.59826   -233.77605    37655.765 
  178700     294.5462   -1477.6038    457.46902    300.35655   -154.40603    37655.765 
  178800    302.14335   -1450.1015    449.87483    354.32372   -478.68545    37655.765 
  178900    294.80532   -1451.0518    441.51425    312.11549   -595.85044    37655.765 
  179000    293.33099   -1442.1503    459.86332    332.75644   -23.609781    37655.765 
  179100     303.2955   -1455.7827    460.38323    364.31616   -91.959116    37655.765 
  179200     304.3711   -1467.5448    440.57387    337.56682    453.93067    37655.765 
  179300    294.09711   -1493.2355    470.29135    295.53387    327.46598    37655.765 
  179400    305.03159   -1495.7337    449.45706    321.22218      605.384    37655.765 
  179500    299.03715   -1480.4268    452.07852    312.27659     510.7852    37655.765 
  179600    293.09876     -1513.49    456.61273    257.12498     419.8931    37655.765 
  179700    307.72023   -1454.1187    462.21582    387.64951    44.728682    37655.765 
  179800    299.02684   -1476.9612     447.0925    310.70999    397.61341    37655.765 
  179900    309.92748   -1485.3979    491.92292    395.97271    495.89701    37655.765 
  180000    285.81647   -1498.7126    444.17894    226.82106     -41.2738    37655.765 
  180100    292.81679   -1489.4906    475.87144    299.11902   -114.33696    37655.765 
  180200    295.28122   -1430.1436    468.75482    362.39778    543.84839    37655.765 
  180300    299.82574   -1445.5391    462.92593    361.54705    278.81641    37655.765 
  180400    309.70294   -1419.6843    471.87696    440.63375    243.68486    37655.765 
  180500    308.35064   -1474.0394    466.17241    374.51163   -67.782055    37655.765 
  180600    296.43163   -1497.0721    450.71793    282.58984   -1.2472918    37655.765 
  180700     307.6464   -1482.4289    444.38434    341.17683     211.9047    37655.765 
  180800     306.2762   -1484.9757    456.21627    344.31917    587.55249    37655.765 
  180900    311.98525   -1454.1583    480.51695    425.03173    379.34247    37655.765 
  181000      292.557   -1480.5805    458.27729    289.27028   -54.071446    37655.765 
  181100    303.74933   -1511.0882    466.81923    317.48129   -476.84173    37655.765 
  181200    299.93454   -1505.6954    469.27227    308.22485   -36.709981    37655.765 
  181300    303.40542   -1517.1591    440.35544     283.4048   -319.04178    37655.765 
  181400    303.56236   -1506.4724    461.68524    316.12487   -437.72421    37655.765 
  181500    298.45978   -1520.3629    464.57843    282.25208   -306.99525    37655.765 
  181600    307.25418   -1495.2838    470.50337    352.68251   -123.31365    37655.765 
  181700    295.96567   -1479.6898      471.589     318.7542    146.58578    37655.765 
  181800    291.72168    -1470.019    456.58028    294.38988   -415.11926    37655.765 
  181900    298.84625   -1446.3901    460.33202    353.71096   -139.84888    37655.765 
  182000    305.29265   -1446.7784    444.70488    366.59566   -109.26819    37655.765 
  182100    301.11802   -1461.7814    449.99729    338.16961     123.1326    37655.765 
  182200    291.03026   -1502.7029    488.11295    290.13894    -88.05923    37655.765 
  182300    284.42914   -1499.2791    433.39064    209.24668   -502.22033    37655.765 
  182400    299.72761   -1446.7841    450.91028    347.84657   -381.34567    37655.765 
  182500    297.64697   -1491.5142    418.02716    260.90548   -303.12217    37655.765 
  182600    306.93322    -1463.297    456.00902    368.73608   -230.28193    37655.765 
  182700    303.74825   -1507.3128    475.20683    329.63944   -34.770094    37655.765 
  182800    306.36967   -1505.9792    469.41711    336.93557   -265.77332    37655.765 
  182900     290.5861   -1438.4779    460.92157    325.18139   -335.01214    37655.765 
  183000    292.50761   -1449.1141    455.46015    317.69816   -656.16245    37655.765 
  183100    306.58856   -1451.5758    447.67441    370.57752   -187.07489    37655.765 
  183200    303.93741   -1451.9499    497.51255    408.15615   -105.59609    37655.765 
  183300    305.24784   -1476.1682    477.70045    370.00052    368.89718    37655.765 
  183400    298.69165   -1481.2126     432.8112    290.67457   -1.9106368    37655.765 
  183500    303.39326   -1481.5834    479.79601    358.36657    104.28845    37655.765 
  183600    309.52737   -1447.1659    480.25178    420.73991    701.86907    37655.765 
  183700    292.20406    -1461.095    456.72796    305.62413    103.19732    37655.765 
  183800    296.00212   -1473.2583    465.39154    319.15168    392.73801    37655.765 
  183900    300.83468   -1466.9311    446.58919     328.3416   -219.86655    37655.765 
  184000    305.06842    -1445.324    478.31972    400.65966   -541.10126    37655.765 
  184100    308.61708   -1425.9556    467.71729    425.33478    -948.1595    37655.765 
  184200    293.30285   -1423.5116    457.35869    348.76436   -29.940722    37655.765 
  184300    305.33345   -1457.2347    457.27311    368.89054    504.64026    37655.765 
  184400    311.47924   -1459.0001    469.81432    407.21876    486.85248    37655.765 
  184500    293.02862   -1451.8957    467.58164    329.37378    612.72123    37655.765 
  184600    289.84847   -1451.8688     457.1207    304.68265    391.81734    37655.765 
  184700     309.8018   -1457.3047    455.88965    387.46922     77.18584    37655.765 
  184800    303.54568   -1465.7041    468.11863     363.2518    83.608741    37655.765 
  184900    301.66941    -1466.672    442.16607    327.91979    351.35487    37655.765 
  185000    288.96231   -1444.0588    497.43364    348.83288    317.67635    37655.765 
  185100    295.32466   -1466.4625    465.12104    322.63981    232.56632    37655.765 
  185200    303.01086   -1461.9411    456.81538    353.31381   -297.88312    37655.765 
  185300    294.71825   -1436.8609    456.65939    341.06119   -281.49057    37655.765 
  185400    297.31713    -1447.148     464.4088    350.17456   -483.17945    37655.765 
  185500    307.54725   -1457.5887     448.5383    369.72647   -565.31079    37655.765 
  185600    303.16063   -1428.9039     482.9373    413.14442   -448.68023    37655.765 
  185700    299.81076   -1413.4336    469.86889     400.5284   -677.28425    37655.765 
  185800    308.51593   -1451.6735    474.73278    406.17888   -749.31312    37655.765 
  185900    289.68433   -1432.9213    467.06418    332.83777   -487.16727    37655.765 
  186000    298.60718   -1427.6162    477.55792    388.63908    156.14851    37655.765 
  186100    307.02423   -1439.7048    451.26316    387.99043    -136.4698    37655.765 
  186200    295.32444   -1460.5972    464.05053    327.43361   -81.628195    37655.765 
  186300    312.65424   -1453.2576    478.10901    426.52358   -220.25168    37655.765 
  186400    298.02323   -1481.7139    457.94568    312.31119    48.807752    37655.765 
  186500    286.38305   -1481.6756    466.30515    268.52437   -339.26368    37655.765 
  186600    305.28994   -1492.0934    468.94113    345.50478   -417.00164    37655.765 
  186700    296.69307   -1474.9391    453.89511    309.07205   -117.84399    37655.765 
  186800    308.38501   -1443.0016    485.59849    425.12952   -97.721396    37655.765 
  186900    300.57885   -1432.6327    488.11706    403.02091   -114.42955    37655.765 
  187000    292.03018   -1439.7762    456.80859    326.24405    219.36778    37655.765 
  187100    312.20411    -1409.026     477.8259    468.45415    258.36838    37655.765 
  187200    292.79209   -1462.0234    461.83153    312.43554    141.75863    37655.765 
  187300    302.25981   -1442.3687    456.73546    369.43931    336.79021    37655.765 
  187400    305.89505    -1418.742    473.85315    426.48096    536.59863    37655.765 
  187500    297.18209   -1420.1348    486.39155    398.56522    255.27149    37655.765 
  187600    310.49981   -1458.3707    489.45749    423.10044    782.52783    37655.765 
  187700    300.21062   -1470.6719    482.12198    357.33586    954.78056    37655.765 
  187800    297.26335   -1453.3004    459.37404    338.74631    474.75035    37655.765 
  187900    298.56748   -1468.4297     486.4949    356.58453    754.70258    37655.765 
  188000    287.50575   -1484.9918    476.80583    280.74207    755.62373    37655.765 
  188100    301.26995   -1500.3783    466.99576    317.25235    674.90977    37655.765 
  188200    296.82969   -1449.3141    458.52498    339.93946     356.5692    37655.765 
  188300    303.10696    -1482.876    456.88759    332.88206    271.49896    37655.765 
  188400    296.59693   -1454.4265    463.96009    339.21862    238.58216    37655.765 
  188500    312.58865   -1461.8297    469.86408    409.41256   -0.1026857    37655.765 
  188600    304.80206   -1442.3006    481.73053    405.89977    542.07579    37655.765 
  188700     306.4959   -1419.2129    475.80407    430.65472   -172.49674    37655.765 
  188800    297.79938   -1416.9352    492.14589    410.28652   -290.32035    37655.765 
  188900    304.24326   -1413.7786    462.46332    412.64935    459.53198    37655.765 
  189000    313.58792   -1431.5052    461.78708    436.13987     646.0402    37655.765 
  189100    306.17761   -1446.6589    474.41169    400.38935    741.60689    37655.765 
  189200    298.08066   -1434.9914     469.5375    370.88291    384.02969    37655.765 
  189300    289.25664   -1412.6345    474.29008    358.43307   -391.54839    37655.765 
  189400    302.56625   -1432.6044    452.75419    376.59608   -79.142495    37655.765 
  189500    299.59254   -1447.0722    481.78565    377.82826   -295.50761    37655.765 
  189600    296.02836   -1415.2599    472.67274    384.54889    237.10012    37655.765 
  189700    304.80668   -1440.0095    482.27548    408.75645    18.110277    37655.765 
  189800    303.77915    -1413.526    468.38745    416.74537    442.33236    37655.765 
  189900    293.33463   -1425.7538     461.1027    350.40858    315.81237    37655.765 
  190000      312.351   -1469.5901    482.90745    413.63005    604.55695    37655.765 
  190100    284.90222   -1521.2745     481.6964     237.6779    404.51643    37655.765 
  190200     293.6865   -1454.4728    445.04004    307.20443    272.78072    37655.765 
  190300    291.99822    -1506.625    450.71343    253.15683    -258.7974    37655.765 
  190400    298.53044   -1520.5226    458.84555    276.67622    302.88983    37655.765 
  190500    298.54056   -1474.5189    459.04228    322.92205   -432.42076    37655.765 
  190600    290.06416   -1450.7478     457.4048    307.05477    -327.7195    37655.765 
  190700    295.32452   -1452.6851    456.60994    327.90555   -209.16563    37655.765 
  190800    304.34161   -1444.0232    478.97823    399.36058   -164.85746    37655.765 
  190900    293.56157   -1487.3177    468.02794    296.78743   -469.40782    37655.765 
  191000    298.60025   -1434.1675    454.29945    358.79815     -47.3141    37655.765 
  191100    299.75029   -1442.5165    479.02093    380.32643   -502.81002    37655.765 
  191200    298.25465   -1456.1664    444.16619    325.11665   -823.21399    37655.765 
  191300    300.31196   -1429.1244    460.67076    377.88638   -400.57548    37655.765 
  191400    311.67307   -1471.7184    455.27589    380.83098   -137.33367    37655.765 
  191500    282.58366   -1472.9548    469.33242    263.23924   -110.17625    37655.765 
  191600    312.06506    -1500.558     455.3745     353.8473    589.39919    37655.765 
  191700    290.08204   -1489.8131    444.91976    255.58453   -31.977535    37655.765 
  191800    292.93312   -1508.2353    471.89581    276.92021    113.64208    37655.765 
  191900    313.69123   -1509.3172     433.7637    330.76765   -121.48756    37655.765 
  192000    299.50851   -1530.8367    462.84915    274.75054    -179.4451    37655.765 
  192100    284.06133   -1528.6701    448.60201    193.41816     326.6397    37655.765 
  192200    300.21654   -1499.3264     448.4624    295.04831     871.6704    37655.765 
  192300     300.8089   -1499.5262    464.47424    313.51593    665.51562    37655.765 
  192400    306.30554   -1545.8266     448.8914    276.27492    636.25358    37655.765 
  192500    294.53613   -1516.9274    460.95821    264.47697   -186.53418    37655.765 
  192600    301.03037   -1519.0374    455.77988    286.30331    302.79431    37655.765 
  192700    295.26828   -1538.5494    451.31626    236.49542    246.44681    37655.765 
  192800    299.02719   -1558.1725    451.98784    234.39566    60.625796    37655.765 
  192900    305.03671   -1515.0369      447.959    300.44392   -478.53837    37655.765 
  193000    312.15603   -1487.7647    458.52149     370.1955   -363.11446    37655.765 
  193100    308.35189   -1472.1947    465.42561    375.61506   -260.50393    37655.765 
  193200    295.89247   -1511.2132    453.87981    269.19348   -267.33921    37655.765 
  193300    307.16754   -1484.5081    475.38504     367.9515   -71.234151    37655.765 
  193400    300.29177   -1456.8096    465.69934    355.13933    -360.5836    37655.765 
  193500    307.29382   -1543.7345    460.92512    294.83134    468.30869    37655.765 
  193600     291.5664   -1545.8714    444.48963    205.75071    210.06299    37655.765 
  193700    297.58374   -1490.3046    457.89268    301.69715   -111.74722    37655.765 
  193800     287.6953   -1512.1343    467.36323    245.00671    100.32021    37655.765 
  193900    296.56995    -1504.895    461.54513    286.21422    414.08035    37655.765 
  194000    299.14457   -1500.2615    485.68217    326.52719    311.30914    37655.765 
  194100    293.01967   -1521.5153    427.90165    220.03402    358.60495    37655.765 
  194200    298.39121   -1449.2497    461.40604    349.88545    144.03859    37655.765 
  194300      297.927   -1545.1263    456.41908    246.94072    312.47138    37655.765 
  194400    294.39169    -1532.389    452.18899    239.59862    132.47521    37655.765 
  194500    310.61614   -1558.0504    452.23482    286.71955    694.12049    37655.765 
  194600    296.53306   -1519.5312    449.77237    259.63991    548.09215    37655.765 
  194700    298.45557    -1514.068    460.65609    284.60562    471.86473    37655.765 
  194800    315.36443   -1512.2498    492.29225    393.86479    988.53139    37655.765 
  194900    299.92193   -1546.8035    438.62651    236.41452      701.733    37655.765 
  195000    303.59414   -1523.3874    466.20155    303.86866    553.50627    37655.765 
  195100    291.76068   -1483.6184     502.4287    326.81383    414.28932    37655.765 
  195200    301.58174    -1448.116    455.08096    358.99766    -69.47163    37655.765 
  195300    302.17288   -1457.9514    501.24744    397.97891   -741.93823    37655.765 
  195400    298.98287   -1476.1316    467.11988    331.36985   -525.31195    37655.765 
  195500    287.62316   -1497.3081    482.71695    274.86325   -661.44231    37655.765 
  195600    304.93783   -1463.5849    455.43633    358.92988   -290.86168    37655.765 
  195700    310.07706     -1506.35    469.03825    352.80664   -208.14818    37655.765 
  195800    306.99998    -1490.433    433.38335    319.27365    196.47205    37655.765 
  195900    306.26832   -1533.2645    474.66479    314.44354    292.62505    37655.765 
  196000    292.44614   -1509.6754     446.3334    247.73453    124.48005    37655.765 
  196100    307.96172   -1476.5332    469.20247    373.30426    98.233775    37655.765 
  196200    299.67343    -1502.476    466.60491    307.60631    88.062697    37655.765 
  196300    291.17321   -1485.2234    460.09893    280.24534   -732.15717    37655.765 
  196400    297.53713    -1510.665    473.74768    296.98284   -667.18598    37655.765 
  196500    300.86788   -1508.7023    444.88238    285.01242   -1094.6329    37655.765 
  196600    302.67846   -1507.5708    464.35526    313.73388   -704.20737    37655.765 
  196700    288.99484     -1509.54    493.98658    280.05042    -402.3294    37655.765 
  196800    300.47061   -1508.6314    460.25368    298.67357   -364.64277    37655.765 
  196900    300.89096   -1471.0112    476.11278    354.03733    21.636891    37655.765 
  197000    296.82474   -1502.2364    457.54288    286.01283    190.88887    37655.765 
  197100    303.99463   -1461.7366    481.91855    383.03189    390.68792    37655.765 
  197200    308.14491   -1497.3744     449.5229    333.60474   -133.14838    37655.765 
  197300    289.57965   -1499.4221    462.07275    260.87632    258.61331    37655.765 
  197400    295.22925   -1516.8606    472.47707    279.17003    87.147527    37655.765 
  197500    306.06128   -1500.9666    486.52308    357.67157    141.12093    37655.765 
  197600    283.98122   -1504.8539    461.85381    230.12701    129.42303    37655.765 
  197700    300.89593   -1502.3647     468.6035    315.19691    536.21511    37655.765 
  197800     311.3222   -1506.0748    475.10692    364.73263    555.30434    37655.765 
  197900     299.4684   -1516.8716    495.54122    321.22788    172.76726    37655.765 
  198000    294.97272   -1502.2142    439.50032    259.68967   -84.561723    37655.765 
  198100    302.52291    -1496.363    482.78541    342.67449     -323.398    37655.765 
  198200    306.95181   -1551.0747    467.76696    292.79969   -266.85912    37655.765 
  198300    298.98245   -1552.4553    457.53605    245.46039   -90.620808    37655.765 
  198400    304.85296   -1585.6918    429.35334    210.35957   -115.74203    37655.765 
  198500    302.45098   -1545.8375    451.26573    261.35779     67.97525    37655.765 
  198600    298.87339   -1547.8218    447.09681    239.16577     322.5662    37655.765 
  198700    300.75886   -1518.8236    469.31951    298.83954    375.58112    37655.765 
  198800    291.83024   -1540.8768    473.51324    240.95173     105.6689    37655.765 
  198900    307.75381   -1542.2192    448.57274     286.0564    383.19888    37655.765 
  199000    300.29586   -1559.6579    464.19272    250.80268    472.55269    37655.765 
  199100    303.88074    -1538.678    468.59766      292.259    349.01025    37655.765 
  199200    310.45051   -1496.8859    485.69713    380.60383   -3.1790215    37655.765 
  199300    296.72716   -1524.4578    495.26432     301.0754   -329.26552    37655.765 
  199400    293.45116   -1527.6413    455.24375     243.1846    85.034585    37655.765 
  199500    292.98662   -1514.5679    473.02139      271.953    1.6517706    37655.765 
  199600    305.02447   -1515.9879    483.12372    334.60267    662.38763    37655.765 
  199700    297.64004   -1544.3928    458.27651    248.24516    455.91475    37655.765 
  199800    293.19817   -1497.5485    476.54384    293.44334    128.47912    37655.765 
  199900    308.43912   -1508.9442     460.4278    334.25882    426.93342    37655.765 
  200000    308.77186   -1511.7736    463.80107    336.29438    206.58224    37655.765 
  200100    294.30639   -1493.1404    475.13403    301.40985    208.76655    37655.765 
  200200    306.20662   -1533.2208      459.602    299.14782   -315.96685    37655.765 
  200300    301.70533   -1563.2732    485.16305    274.47661    7.4893564    37655.765 
  200400    309.25924    -1544.711    467.40793    309.14889   -123.36862    37655.765 
  200500    294.57624   -1532.9216    478.53451    266.23898    -163.8424    37655.765 
  200600    305.72111    -1490.128    487.60379    368.06574    189.60701    37655.765 
  200700    305.61727   -1514.1494    455.44429    311.41934    275.09251    37655.765 
  200800    304.75369   -1559.3543    449.94828    256.84695   -288.68366    37655.765 
  200900    304.70515   -1524.1131    479.77393    321.69615    211.78038    37655.765 
  201000    311.53594   -1490.3527    468.26623    374.57224   -234.16753    37655.765 
  201100    300.80329   -1516.8556    451.85656    283.54371   -111.54071    37655.765 
  201200    295.49133   -1462.1364    486.71181    349.30393   -393.20066    37655.765 
  201300    294.16823   -1466.1965    457.16354     309.7639   -218.60698    37655.765 
  201400    288.55382   -1448.3294    476.94065      322.238   -155.81211    37655.765 
  201500    302.72459   -1472.2788    461.58978    346.46721   -61.064325    37655.765 
  201600    288.73629   -1472.8527    470.10186    291.69387    189.66558    37655.765 
  201700    302.28613   -1485.4634    486.26398    355.99115    140.76017    37655.765 
  201800    302.59819   -1471.2991    466.34108     351.6315   -114.86638    37655.765 
  201900    302.40784   -1511.8355    486.35928    330.26002   -137.50971    37655.765 
  202000    303.09419   -1522.2497    479.69379    316.25726   -529.45801    37655.765 
  202100    301.90106    -1478.747    438.33072    313.04799   -186.49072    37655.765 
  202200     301.3797   -1470.0174    495.26717    376.37669   -1065.2256    37655.765 
  202300    308.31694   -1443.9188    460.88228      399.191    -227.9977    37655.765 
  202400    297.31855   -1507.4073    460.30517    285.81806    79.536269    37655.765 
  202500    303.03256   -1533.1143    485.50427    310.92689    482.74988    37655.765 
  202600    296.19201   -1540.2332    476.49209    264.12869    200.49366    37655.765 
  202700    304.58293   -1501.9607    451.57884    315.10552   -9.9361088    37655.765 
  202800    298.23102   -1508.5429    463.35783    291.82584    427.13544    37655.765 
  202900    299.03892   -1499.1069    473.77989    315.30577   -329.85239    37655.765 
  203000    296.72624   -1491.4406     466.9944    305.81859   -453.14924    37655.765 
  203100     298.4132   -1452.8682    456.33607    341.29553   -580.34456    37655.765 
  203200    296.52344   -1457.7755    496.28142    367.86152   -883.19436    37655.765 
  203300    300.94654   -1492.7175    460.00856    316.47601   -1124.8129    37655.765 
  203400    288.65672   -1488.3649    445.01733     250.7404   -685.90144    37655.765 
  203500    310.16047   -1539.2544    461.31335    312.55118   -799.00746    37655.765 
  203600    299.66401   -1509.6778    454.93856    288.69596   -1009.8479    37655.765 
  203700    290.61255   -1590.1597    455.12958    167.82619   -1031.5547    37655.765 
  203800    301.59987    -1517.585    460.67535    295.20422   -669.00764    37655.765 
  203900     301.7129    -1510.572    465.89523    307.94392     85.69618    37655.765 
  204000    291.89166    -1509.079    478.80348    278.31516   -273.69271    37655.765 
  204100    306.39732   -1518.9614    467.62806     322.2882   -128.55774    37655.765 
  204200     297.4867   -1533.1393    471.72123    272.25598   -476.59875    37655.765 
  204300    298.10212   -1520.6156    467.75174    283.56912   -335.67855    37655.765 
  204400    295.89311   -1537.9912    454.66978    243.20829   -543.59932    37655.765 
  204500    304.58296   -1528.6479    460.50546    297.34508   -650.40506    37655.765 
  204600    296.45146   -1570.9057     445.4557    203.58289   -603.26919    37655.765 
  204700    308.96431   -1532.8822    465.02308    317.27063   -514.46345    37655.765 
  204800    291.32438   -1523.9587    475.83068    257.91948   -25.764202    37655.765 
  204900     295.6807   -1512.4058     456.3836    269.55527   -333.61889    37655.765 
  205000    311.04282   -1499.2197    473.31279    368.54112    -5.694938    37655.765 
  205100    300.69188   -1496.7865     468.2939    319.55071   -96.782594    37655.765 
  205200    297.20729   -1517.0793    479.42692      294.769   -259.88411    37655.765 
  205300    307.46486     -1558.42    468.53596    288.52346    289.16353    37655.765 
  205400    300.96796   -1506.3971    460.58285    303.46668    252.83786    37655.765 
  205500    304.69265   -1504.3291    495.49789    357.14805    189.98378    37655.765 
  205600    301.50841   -1501.5159    440.57402    290.76204    408.76536    37655.765 
  205700    301.14301     -1521.32    482.30925    311.05507    102.40847    37655.765 
  205800    297.71753    -1491.483    476.92959    320.15544    53.520812    37655.765 
  205900    301.33656   -1488.5479    467.51702    329.90261     92.59671    37655.765 
  206000    302.71881   -1475.5584    477.20075    358.77264     420.8482    37655.765 
  206100    289.66459   -1461.6045    463.68119    300.68311     424.2451    37655.765 
  206200    294.54892   -1468.4235    477.68727    329.76737    462.67572    37655.765 
  206300     293.0542    -1490.212    457.78854    281.37906    721.95829    37655.765 
  206400    305.01348    -1454.222     484.2892    397.48483    1123.0907    37655.765 
  206500    299.17357   -1471.1165    471.05444    341.17447    359.43468    37655.765 
  206600    293.01487   -1479.7577    502.10186    335.97041      454.245    37655.765 
  206700    284.58806   -1437.6059    471.92223    310.16399   -64.460194    37655.765 
  206800    299.92887   -1474.4669    479.47272     349.6284    661.85401    37655.765 
  206900    303.04595   -1448.3134    487.76331    398.04683    115.49655    37655.765 
  207000     303.0342   -1469.4422    464.87157     353.9736    38.790847    37655.765 
  207100    291.80031   -1513.7804    483.11752    277.51829   -187.38571    37655.765 
  207200    297.72373   -1450.8767    458.58594    342.44589   -267.32961    37655.765 
  207300    301.40167   -1530.1412    433.18244    254.26661   -217.35004    37655.765 
  207400    303.03476   -1492.5571    455.84151    321.83111   -437.24552    37655.765 
  207500    295.96659   -1441.6005    477.07549    362.33414    386.59364    37655.765 
  207600    308.15533   -1514.5205    477.69644     344.6789    164.92561    37655.765 
  207700    294.29519   -1522.7039    466.34682    263.00902    695.99421    37655.765 
  207800    298.42297   -1504.7666    467.90963    301.01453    1247.1645    37655.765 
  207900    306.23362   -1436.4246    497.19699    433.66002    1343.2693    37655.765 
  208000    301.28259   -1499.5638    491.76035    342.88805    1302.5581    37655.765 
  208100    305.65372    -1457.228    457.06045    370.12037    1255.0717    37655.765 
  208200     297.2415   -1492.7686    471.06073    310.86686    330.13871    37655.765 
  208300    304.62754   -1495.1196    490.76897    361.33671    393.86641    37655.765 
  208400    308.00588   -1477.3605    476.66267    380.13511   -383.29521    37655.765 
  208500    294.64374   -1465.9345    477.32704    332.32117   -361.93146    37655.765 
  208600    303.27873   -1460.9231    465.71262    364.42998   -58.071331    37655.765 
  208700    295.54322   -1476.5923    480.93143    329.30028     207.8025    37655.765 
  208800    301.22624   -1502.0659    469.71676    318.08978     -113.555    37655.765 
  208900    294.66087   -1474.8485    486.84479    333.00171     13.21624    37655.765 
  209000    298.55427   -1530.0062    473.25634    281.71022    29.606873    37655.765 
  209100    297.88555   -1505.8627     449.9453     279.5447    -139.1943    37655.765 
  209200    303.39381    -1513.222    461.14252    308.07696   -804.27463    37655.765 
  209300    289.64469   -1477.0807    474.81226    296.24876   -277.35256    37655.765 
  209400    298.75666   -1535.8857    465.68979    269.17151   -140.76923    37655.765 
  209500    303.50136   -1486.2639     466.4003    340.77494   -314.38353    37655.765 
  209600    301.46167   -1525.7856    450.85542    276.56415   -23.487518    37655.765 
  209700    294.90172    -1536.072    486.31554    272.32869    328.67106    37655.765 
  209800    293.47742   -1514.7397    482.59476    283.55489    1015.7444    37655.765 
  209900    294.85081   -1506.3458    476.58216    292.09333    682.56103    37655.765 
  210000    295.72669   -1510.5906    474.23652    289.42959    4.7647182    37655.765 
  210100    296.87219   -1488.6813    454.73721    296.97504    -230.3159    37655.765 
  210200    298.57169   -1535.8442    488.05529    290.74928    42.715687    37655.765 
  210300    300.43111   -1521.1484    447.37721    273.10302   -400.14409    37655.765 
  210400    293.54057   -1497.7658    447.59822    265.81541   -896.04414    37655.765 
  210500    304.64976   -1527.8732    495.97857    333.89243   -621.30454    37655.765 
  210600    303.21007   -1531.7868    482.17997    309.72581   -790.04639    37655.765 
  210700    298.70148    -1519.895    456.43513     275.6602    108.76112    37655.765 
  210800    304.58205   -1515.1385    452.91158    303.25653   -178.64484    37655.765 
  210900    293.89053   -1507.8668    491.14462    300.82969     269.7788    37655.765 
  211000    300.35208   -1457.7857    483.77387    372.50805     568.0694    37655.765 
  211100    293.43962   -1526.1101    458.28115    247.70141    129.52311    37655.765 
  211200    297.72216   -1539.6057    451.87947    247.00339    114.98408    37655.765 
  211300    303.66629   -1502.5115    465.86011    324.72662    80.953429    37655.765 
  211400    301.81862   -1559.4859    455.09558    248.70435   -426.59743    37655.765 
  211500    300.43923   -1529.4575    427.75155    245.20468   -649.95278    37655.765 
  211600    297.36505   -1475.1856     465.9989    323.94197    184.46812    37655.765 
  211700    302.74369   -1530.0946     454.7463     281.8935   -55.870614    37655.765 
  211800    290.42911   -1497.1246    477.52355    282.43286   -13.949653    37655.765 
  211900    302.58285   -1484.5666     455.0195    326.97368    8.7743735    37655.765 
  212000    296.04684   -1498.0508    472.84122    302.00939   -294.24856    37655.765 
  212100    298.34875    -1490.037    458.52286    306.02457   -296.14478    37655.765 
  212200    297.96505   -1497.1664    468.75115    307.40326   -301.22009    37655.765 
  212300    302.56563   -1484.8655    457.92297    329.50107   -103.84024    37655.765 
  212400    295.82168    -1499.669    463.46367    290.00422    -513.0628    37655.765 
  212500     296.3855   -1495.7134    462.76943    295.79322    -777.4761    37655.765 
  212600    298.00927   -1526.7339    473.21927    282.50217   -736.84238    37655.765 
  212700    303.49943   -1551.5783     450.0579    259.10946   -57.735266    37655.765 
  212800    304.77415   -1567.0671    466.15097    265.42851    222.89266    37655.765 
  212900    304.36024   -1550.5527    444.12393    258.06028   -182.02117    37655.765 
  213000    289.60878   -1503.3563     452.1324    247.13231   -292.06456    37655.765 
  213100    300.84212   -1502.0894    449.53691    296.16441   -212.73685    37655.765 
  213200    294.20217   -1497.1813    450.55339    272.32108    372.69046    37655.765 
  213300    301.24969   -1531.0083    451.50323    271.03898    799.87125    37655.765 
  213400    294.01724   -1520.8888    450.99041    248.22153   -2.5462405    37655.765 
  213500    303.38192   -1502.8219    437.13482    294.41605   -341.47865    37655.765 
  213600     301.2549   -1523.9519    433.40303     260.0185    144.19327    37655.765 
  213700    298.90692   -1476.1951    469.73444    333.58038   -1521.1107    37655.765 
  213800    316.16299   -1499.7801    424.00449    341.62678   -882.11953    37655.765 
  213900    303.55471   -1507.7279     465.9743    319.12418   -845.57759    37655.765 
  214000    299.14868   -1518.6376     446.0481    268.53542   -562.59279    37655.765 
  214100    299.86713   -1505.7843    453.04651    291.60806    -334.0058    37655.765 
  214200    305.84057   -1544.4525     436.9985    263.67162   -448.23336    37655.765 
  214300    299.26801   -1520.4674     449.8975    271.08993   -245.56656    37655.765 
  214400    296.41233   -1449.4833    460.77038    340.14454    -597.6602    37655.765 
  214500    300.63117   -1507.2204    438.16704    278.71778   -175.02715    37655.765 
  214600    300.11445   -1503.8455    468.05513    309.66424   -283.26254    37655.765 
  214700    310.92909   -1479.8641    478.83503    392.90903     -47.8669    37655.765 
  214800    305.27478   -1510.3327    459.20531    317.46168    378.51589    37655.765 
  214900    298.38276   -1485.9176    465.15134    316.92499    598.97837    37655.765 
  215000    301.91077   -1503.8617    494.48203     344.1281    511.37313    37655.765 
  215100    297.94355   -1514.6299    449.74591    270.83814   -26.025443    37655.765 
  215200    296.37599   -1487.9327    485.17327    325.93508   -348.53281    37655.765 
  215300    297.36308   -1519.1062    469.48773    283.50136    -33.80993    37655.765 
  215400    297.80822   -1499.2246    461.52353    297.41437   -1147.4345    37655.765 
  215500    305.53264   -1499.2313    446.30474    316.81846   -710.24739    37655.765 
  215600    307.98273   -1477.1469    464.09812    367.68036   -1193.4959    37655.765 
  215700    299.18245   -1510.1795    469.49894    300.59574   -1005.7789    37655.765 
  215800    305.04557   -1549.8969     473.0362    290.70072   -260.73519    37655.765 
  215900    303.50825   -1527.8884    458.28847    291.06959   -336.88011    37655.765 
  216000     302.9177   -1526.8152    443.36602    274.57277     81.93459    37655.765 
  216100    299.33704   -1509.1629    472.29045    305.09689    452.29954    37655.765 
  216200    298.41283   -1521.3154     466.6176    283.12822    622.14443    37655.765 
  216300    302.36677   -1513.5947    463.53463    305.49201    592.91156    37655.765 
  216400    306.82671   -1537.6181     459.3291    297.25761     264.1678    37655.765 
  216500    301.36333   -1546.5152    444.91569    249.45402   -64.675382    37655.765 
  216600    302.69148   -1538.9856    462.03223     280.0544   -61.129377    37655.765 
  216700    301.93676   -1516.5871    457.69545    294.73261    123.53241    37655.765 
  216800    309.16349   -1523.9383    455.75002    317.83438    8.9086418    37655.765 
  216900    301.61134   -1497.4571     470.0135    324.72172   -385.55564    37655.765 
  217000    308.04415   -1515.0887    467.36734    333.28318   -412.28046    37655.765 
  217100    294.56704   -1520.5275     484.6863    284.74361    237.04757    37655.765 
  217200    299.83093   -1527.3929    446.06108    262.85169    525.10476    37655.765 
  217300    297.81232   -1476.7257     465.5121    323.92022   -218.73886    37655.765 
  217400    299.77147   -1478.8803    452.31675    317.35346   -346.91368    37655.765 
  217500    289.89606   -1516.1649    467.27066     250.7499    172.19986    37655.765 
  217600    297.17727   -1473.3749    473.28451    332.19643    201.58568    37655.765 
  217700    294.51758   -1501.1848    456.17333    275.35157    693.19443    37655.765 
  217800    302.63528   -1490.0841    467.37012    334.04178    516.54055    37655.765 
  217900    307.65612   -1478.2581    461.49902     362.5059    377.69055    37655.765 
  218000    296.26654   -1500.2564    468.79985    296.74731    47.516841    37655.765 
  218100    295.19115   -1517.6062    457.02432    262.80089   -85.683679    37655.765 
  218200    289.84752   -1495.8682    485.65741    289.21569   -25.571621    37655.765 
  218300    295.78307   -1471.0646     507.3122    362.28404    -310.6964    37655.765 
  218400    300.02978   -1485.6956    464.52916     323.9086   -195.71137    37655.765 
  218500    297.50295   -1461.0837    454.14813     326.8113   -513.73036    37655.765 
  218600    306.20022   -1454.0709    473.34171    392.00877   -787.91293    37655.765 
  218700    301.09379   -1464.1611    463.52648    349.21051   -770.26276    37655.765 
  218800    310.64673   -1494.6696    467.83176    365.83439   -446.67949    37655.765 
  218900     303.3407   -1516.7543    456.86397    300.02794   -505.22744    37655.765 
  219000    288.27211   -1511.6142    438.22557    218.97514   -606.07243    37655.765 
  219100    302.80145   -1498.0542    470.75959    330.20617    86.054958    37655.765 
  219200    299.71134   -1485.0492    488.46687    347.06511   -210.71838    37655.765 
  219300    293.17746   -1486.7251    460.11026    287.74024   -467.78555    37655.765 
  219400    295.44363   -1482.5746    463.10394    305.04401    237.92409    37655.765 
  219500    305.93338   -1515.8416    456.49297    312.19299   -497.32907    37655.765 
  219600    310.40229   -1505.6849    450.68324     336.5748    313.02842    37655.765 
  219700    299.85261   -1500.4341    478.69222    322.53886    226.42627    37655.765 
  219800    294.76844    -1538.545    467.10887    250.05153    324.38965    37655.765 
  219900    295.65079   -1523.5732    436.27686    238.14708    168.85725    37655.765 
  220000    296.14228   -1511.1777     498.4375    314.90662    12.907862    37655.765 
  220100    302.07999   -1542.2921    451.23007    263.20435    277.15656    37655.765 
  220200    292.05277   -1518.8876    458.93696    249.36233      475.399    37655.765 
  220300    303.68092   -1522.2532    476.39366    315.58402    67.643821    37655.765 
  220400    301.24242   -1469.6766    486.42803    367.26289    289.43749    37655.765 
  220500    300.15955   -1480.4842     443.3121    308.48474   -31.031652    37655.765 
  220600    302.51404   -1489.9395    472.01433    338.28708   -140.27819    37655.765 
  220700    301.24745   -1453.6605    485.74791    382.62142    27.040641    37655.765 
  220800    301.89451   -1464.3317    467.75175    356.85493   -88.483965    37655.765 
  220900    294.63935   -1437.9676    465.73765    348.67898   -220.49146    37655.765 
  221000    300.85071   -1481.7475    471.14201     338.1499   -754.17057    37655.765 
  221100    300.64663   -1496.9023    492.18577    343.12389   -417.00903    37655.765 
  221200    298.97303   -1453.4723    475.56695    362.43209   -370.86845    37655.765 
  221300    297.06073   -1470.2225    455.78029     317.3221   -385.00852    37655.765 
  221400    293.16068   -1445.6199    452.26186    320.92183   -619.88942    37655.765 
  221500    299.80777   -1477.0881    470.68661    337.67819    332.01196    37655.765 
  221600    296.41661   -1549.4026    457.01797    236.49199     96.90925    37655.765 
  221700    307.93896     -1564.46    454.16132    270.23428    780.06702    37655.765 
  221800    298.01768   -1530.3734    469.81417     275.4952     213.4707    37655.765 
  221900    303.35548   -1538.4235    468.09659    289.65768    383.28534    37655.765 
  222000    297.95622   -1526.1649    462.22674    271.84078    34.350578    37655.765 
  222100    292.70974   -1534.6228    470.43342    248.06891   -21.464972    37655.765 
  222200    307.51018   -1494.9449     476.0158    359.68156    386.45782    37655.765 
  222300    305.05086    -1452.876    489.71528    404.42447   -69.835257    37655.765 
  222400     298.7835   -1438.3755    491.24703    392.35927    86.380308    37655.765 
  222500    291.58845   -1495.5223    465.29544    277.00445   -37.611102    37655.765 
  222600    302.26272   -1477.9212    480.15883    357.32327   -241.01924    37655.765 
  222700    303.10557   -1504.1671    476.18399    330.88113    395.70349    37655.765 
  222800    298.37425   -1493.6086    454.73308    298.77746    118.82676    37655.765 
  222900      306.566   -1478.1469    474.41902     370.6499   -33.560583    37655.765 
  223000    301.21377   -1467.8425    498.78466    381.32517      368.931    37655.765 
  223100    320.15097   -1501.6385    482.82085    416.46338    56.069425    37655.765 
  223200    291.62043   -1458.1335    486.81052     336.0518   -65.587549    37655.765 
  223300    296.63274   -1469.6564    484.28698    344.47614   -163.96667    37655.765 
  223400    303.36423   -1506.1367    507.78084    361.66795   -78.219343    37655.765 
  223500    301.37917   -1498.2602    479.87975    332.74405   -27.428605    37655.765 
  223600    302.57975   -1505.5671    469.58685    320.52663    250.48562    37655.765 
  223700    288.25343   -1519.7006    477.86875    250.44817     685.2968    37655.765 
  223800    303.00082    -1518.469    473.10716    313.03276     728.4159    37655.765 
  223900    301.48721   -1497.3675    485.27605    339.51738    506.20244    37655.765 
  224000    304.71474   -1498.4105    487.89774     355.5656    373.32372    37655.765 
  224100    306.48503   -1551.2224    460.26115    283.05354     246.9625    37655.765 
  224200    299.95515   -1560.2882     466.6431    251.09532    610.43805    37655.765 
  224300    302.92557    -1569.919     481.8197     269.9579    572.46755    37655.765 
  224400    300.52194   -1526.6546    459.70326    280.33011    683.48589    37655.765 
  224500    299.46934     -1548.08    482.43452    276.91694    210.95563    37655.765 
  224600    296.11442   -1538.8218    471.75184    260.45193    66.990885    37655.765 
  224700    294.11422   -1529.2284    462.29623    251.62252   -281.13907    37655.765 
  224800     291.2744   -1586.0936    459.19708    178.92687   -190.06404    37655.765 
  224900    305.17283   -1519.4224     472.1103    320.81994   -178.51818    37655.765 
  225000    300.61784   -1541.4866    456.01965    262.24445    203.49846    37655.765 
  225100    294.80845   -1501.6001    493.29036    313.35737    143.31345    37655.765 
  225200    298.21347   -1545.6274    447.14897    238.45379    223.06121    37655.765 
  225300    290.50993   -1499.9601    469.76521    272.20132    427.74739    37655.765 
  225400    302.17672   -1519.9716    451.78307    286.51153    211.66211    37655.765 
  225500    300.59952   -1526.3535     460.1232    281.39893    416.78688    37655.765 
  225600    302.00217   -1519.0678    470.11478    304.96451   -434.65602    37655.765 
  225700    295.11671   -1502.0753    482.25691    303.23061   -583.96009    37655.765 
  225800    299.65181   -1502.6397    462.01819    302.75905    -473.4438    37655.765 
  225900    297.76605   -1509.8825    474.25051    299.29442   -645.21356    37655.765 
  226000     292.8165   -1486.2466    498.28892     324.7792   -127.68178    37655.765 
  226100    296.63845   -1464.5723    491.64355    356.94243   -353.56474    37655.765 
  226200    296.93806   -1472.3215    478.78987    337.68272   -351.67536    37655.765 
  226300    292.70481     -1472.06    498.92466    339.10081   -887.06199    37655.765 
  226400    316.80558   -1486.6492    473.93459    407.56861   -592.75237    37655.765 
  226500    298.71428   -1473.2115    455.69657    321.66251   -231.92211    37655.765 
  226600    295.61269    -1502.271    470.45621    293.45781   -221.10031    37655.765 
  226700    296.89341   -1518.9755    481.71934    293.75803    431.56279    37655.765 
  226800    296.75259   -1540.7058    473.57089    263.24796    484.02024    37655.765 
  226900    296.11587   -1554.8303    461.62478    234.32287     149.6968    37655.765 
  227000    305.11103   -1555.8623    460.63771    272.63039   -221.61456    37655.765 
  227100    299.80219   -1534.1351    455.00718    264.92674   -333.14371    37655.765 
  227200    292.36827   -1568.9942    473.59386    215.32708    84.673353    37655.765 
  227300    298.52117   -1528.3921    481.47335    291.39288    244.63542    37655.765 
  227400    297.76116   -1559.2036    450.89386    226.59472    38.420527    37655.765 
  227500    290.92394   -1564.5984    448.67302    188.32682    437.44521    37655.765 
  227600    300.39881   -1570.0909    483.53597     260.1745    451.24423    37655.765 
  227700     294.7898   -1559.1157    488.67848    251.14622    94.128273    37655.765 
  227800    291.31162   -1550.6206    472.20375    227.57344    376.16754    37655.765 
  227900    301.89065   -1549.7099    453.30857    257.01624    73.701909    37655.765 
  228000    294.19615   -1540.2907    474.18169    252.81298    8.3768325    37655.765 
  228100    299.84429   -1520.5708    465.08501    288.75764   -239.88944    37655.765 
  228200    299.94716   -1554.3728    486.08273    276.41458   -180.95398    37655.765 
  228300    308.54276   -1537.2994     457.5286    303.46906    700.36675    37655.765 
  228400    309.29191   -1495.0712    466.99988    358.52705    -1.298932    37655.765 
  228500    304.26974    -1531.528    479.61482     312.1702    451.06698    37655.765 
  228600    313.31421   -1502.5485     483.8183    385.90076     441.4971    37655.765 
  228700    302.09385   -1484.0401    490.61922    360.90761    84.638939    37655.765 
  228800    301.00025   -1508.3196    469.31677    310.42295    2.3561861    37655.765 
  228900    303.19042   -1534.0942    456.37135     281.5217   -247.57198    37655.765 
  229000    294.03937   -1484.9837    467.88148    301.11691    85.970957    37655.765 
  229100    303.12935    -1503.168     446.3332      302.136   -30.414392    37655.765 
  229200    296.77531   -1473.9502    476.46469    332.99928    -286.4341    37655.765 
  229300    303.75766    -1488.428    482.87908    356.23863    331.93765    37655.765 
  229400    306.04298    -1480.804    467.77839    359.00746    538.60494    37655.765 
  229500    295.57939   -1477.7474    471.17854    318.55448    79.522163    37655.765 
  229600    302.60347   -1515.6413    474.16389    315.13582    33.058295    37655.765 
  229700    298.06963   -1504.7701    491.08483    322.60213    28.910416    37655.765 
  229800    292.72264   -1487.8113    466.95119    291.45597   -73.281264    37655.765 
  229900    308.89424   -1499.7191    471.92035    357.01685     774.8158    37655.765 
  230000    298.42432   -1485.2766     460.6263     313.2272    666.91963    37655.765 
  230100    298.33265   -1533.4417    483.07803    287.10287    747.98148    37655.765 
  230200    305.32596   -1471.4468     484.5101    381.88177    591.31096    37655.765 
  230300    307.90833    -1513.021    489.67295    357.04758    457.88944    37655.765 
  230400    300.53528   -1497.5099    460.66501    310.49631    452.86177    37655.765 
  230500    309.32611   -1493.6747    487.60427    380.68135    -249.1798    37655.765 
  230600    301.01109   -1508.7969    478.21046    318.88793    244.53191    37655.765 
  230700    290.54337   -1516.9236    467.66782    253.29032   -69.114949    37655.765 
  230800    304.82841   -1519.6407    450.02946    296.97669   -54.812566    37655.765 
  230900    309.67264   -1524.9255    482.29669     345.6765    10.883415    37655.765 
  231000    300.39348   -1484.4031     471.0142    333.31663    278.50571    37655.765 
  231100    302.14944   -1536.1585    464.36491    282.78411    501.99274    37655.765 
  231200    294.69296   -1553.6784    479.11324    246.58413    799.91656    37655.765 
  231300    295.40841   -1590.8286    472.43685    205.96497    549.40721    37655.765 
  231400    309.96911   -1566.4845    453.49502    276.64494    1193.1131    37655.765 
  231500    297.47973   -1550.8232    479.79958    262.61914    252.55169    37655.765 
  231600    301.59621   -1564.6956    472.65948    260.06135    204.47385    37655.765 
  231700    295.11046    -1580.061    476.73105    219.69108    391.99131    37655.765 
  231800    310.26813   -1547.5252    459.83154    303.28129    26.903911    37655.765 
  231900    301.18749   -1531.1355     477.1791    296.30878    509.28745    37655.765 
  232000    297.57564   -1572.2725    449.56562    211.36585     204.4429    37655.765 
  232100    307.16766   -1510.3785    489.11774    355.81436   -38.103733    37655.765 
  232200    298.71048   -1541.8195    485.11232    282.45315   -161.38541    37655.765 
  232300    305.23404   -1522.4427    475.88781    321.85156   -212.65772    37655.765 
  232400    312.84212    -1522.317    442.91417    323.11164    -361.4496    37655.765 
  232500    307.47611   -1524.3768    470.79197    324.87311   -73.599601    37655.765 
  232600    292.61556   -1536.2373    483.54613    259.14485    206.55282    37655.765 
  232700    294.68348   -1546.6879    479.35265    253.77154    638.44516    37655.765 
  232800    312.26534   -1554.2339    461.24457    306.93935    215.35337    37655.765 
  232900    296.96187   -1559.6357     467.1158    238.80126   -192.65422    37655.765 
  233000    309.25926   -1548.7927    491.51304    329.17237    213.25065    37655.765 
  233100    303.27697   -1575.5205    455.31214     239.4243    111.67665    37655.765 
  233200     304.3842   -1563.4753    461.94261    263.06374   -137.20785    37655.765 
  233300    304.11547   -1533.0693     468.9523    299.27473   -654.32483    37655.765 
  233400    294.30043   -1542.3169    471.59254    248.66511   -237.59839    37655.765 
  233500    294.11253   -1565.6705    479.21007    232.08668   -769.70189    37655.765 
  233600    302.29545   -1584.1491    466.07602    237.15924    203.39369    37655.765 
  233700    299.22258   -1531.3506    472.05723    282.16285    159.99154    37655.765 
  233800    309.05776   -1536.8172    484.76894    333.50039   -572.63533    37655.765 
  233900    309.32074     -1558.16    463.67914    292.24676    -698.1818    37655.765 
  234000     293.4454   -1538.8445    482.99556    259.70738   -494.54757    37655.765 
  234100     291.7125   -1580.3898    482.87961    210.27732   -98.750197    37655.765 
  234200    301.84179   -1534.6636    479.13909      297.674    33.296835    37655.765 
  234300    295.21461   -1540.4766    496.60513    279.61646   -111.89157    37655.765 
  234400     300.9648    -1565.694    466.93228    250.50515   -294.77781    37655.765 
  234500    296.23063   -1543.3216    495.99152    280.71275   -354.94483    37655.765 
  234600    310.41762   -1514.2341    474.65399    352.06497   -565.25449    37655.765 
  234700    293.44353   -1494.3834    470.99276    292.15732   -469.45705    37655.765 
  234800    303.64576   -1491.1436    484.33315    354.47547   -314.74212    37655.765 
  234900    312.39187    -1519.504    487.00102    367.99294   -122.04456    37655.765 
  235000    300.86943   -1503.6741    493.06047    338.22569   -9.9425963    37655.765 
  235100    303.63764   -1513.0061     504.7425    352.98594      135.501    37655.765 
  235200    307.03775   -1482.9035    477.35386    370.94302    440.70406    37655.765 
  235300    304.85751   -1528.5766    480.11636    318.25811    571.73944    37655.765 
  235400    298.06981   -1523.6235    482.48204    295.14678    563.14505    37655.765 
  235500    295.42427   -1493.8912    505.81434    336.35106      158.489    37655.765 
  235600    307.19057   -1476.1551    493.53331    394.55605    136.41719    37655.765 
  235700    295.59639   -1537.6607    449.38294    236.92171   -190.03686    37655.765 
  235800    299.14862    -1496.841     484.6811    328.96471   -259.59782    37655.765 
  235900    292.35447   -1500.1006    468.09389    278.65882   -396.07059    37655.765 
  236000    300.12375   -1526.5682    495.65698    314.58505    140.56387    37655.765 
  236100     297.5304   -1540.7572    486.25161    279.36439    8.6477332    37655.765 
  236200    307.06599   -1522.2513    491.01757    345.38562    131.52516    37655.765 
  236300    309.74903   -1491.3484    477.24254    374.54189   -15.340299    37655.765 
  236400    296.18719   -1528.5887    485.57125     284.8307    60.706918    37655.765 
  236500    302.55511   -1527.7172     488.0628    316.74207    297.73201    37655.765 
  236600    297.19489    -1530.958    477.53933    278.94715    226.19483    37655.765 
  236700    300.25419   -1543.6455    518.67276    321.10832   -102.50768    37655.765 
  236800    301.60953   -1527.4788    476.43995    301.11843  -0.29585731    37655.765 
  236900     308.6403   -1506.0656    485.12212    362.73365    52.618572    37655.765 
  237000    292.91029   -1557.9841    468.15741    223.33066   -11.574838    37655.765 
  237100    305.58732   -1565.8099    484.33284    288.51314     735.5308    37655.765 
  237200    295.00089   -1603.5516    480.37518    199.35332    855.03134    37655.765 
  237300    302.65977   -1558.9458    492.12305    290.04286    876.48603    37655.765 
  237400    298.03642   -1590.0599     482.5186    228.59717    691.56017    37655.765 
  237500    309.88037   -1536.5534    483.45707    336.14023    374.89357    37655.765 
  237600    294.76049   -1575.6889    493.29991      239.063    35.302169    37655.765 
  237700    310.35223   -1543.8734    464.19714    311.67571   -269.44656    37655.765 
  237800    291.47739   -1525.8553    489.30023    270.17838   -438.22416    37655.765 
  237900    306.57204   -1535.2674    489.86218    328.99963   -210.71079    37655.765 
  238000    304.32865   -1526.3176    483.03814    321.06799    98.687833    37655.765 
  238100    308.10679   -1537.8583    464.32012    307.74717   -108.46505    37655.765 
  238200    301.41559   -1498.6864    482.85127     335.4527    134.55707    37655.765 
  238300     300.4164   -1535.3239    512.15065    323.63505    512.16859    37655.765 
  238400    307.82027   -1528.8168    478.08724    329.27129    795.66204    37655.765 
  238500    300.41399   -1503.4736    497.07544    340.39928    434.52032    37655.765 
  238600    288.84547   -1550.4588     478.4165    222.89193   -432.43698    37655.765 
  238700    302.24876   -1518.1617    450.07859    286.93983   -202.47253    37655.765 
  238800    295.56128   -1551.0352    496.79998    270.80686   -518.81279    37655.765 
  238900     309.7712   -1515.5724    473.47577    346.65053   -105.37943    37655.765 
  239000    292.45307    -1532.324    491.87924    270.66282   -676.81498    37655.765 
  239100    301.25057   -1526.9274    487.86621    311.48673   -1110.3998    37655.765 
  239200    302.81514   -1522.2232    479.34162    314.68058   -589.85133    37655.765 
  239300    296.33476   -1529.5745    477.30184    276.23706   -1272.5078    37655.765 
  239400    303.02358   -1603.6023    467.71996    222.61428   -401.56716    37655.765 
  239500    304.38139   -1584.5401    506.12153     286.1653    -847.5181    37655.765 
  239600    298.47947   -1595.2049    471.80345    214.72324   -569.52946    37655.765 
  239700    302.57427    -1623.225    458.46672    191.72407   -886.33066    37655.765 
  239800    302.83902   -1593.6951    472.19566    236.16975    187.01565    37655.765 
  239900    296.97015   -1574.4754    502.95274     259.8356    42.905753    37655.765 
  240000    304.21803    -1556.937    475.86132    282.77581   -126.41706    37655.765 
  240100    304.60652   -1525.4324    469.94753    310.10835    172.39707    37655.765 
  240200    295.87607   -1535.4101    482.49315    273.53639   -46.059752    37655.765 
  240300    291.82854    -1561.952    485.54966    231.90534    55.807538    37655.765 
  240400    293.14594   -1560.9477     513.0114    266.27753    650.83091    37655.765 
  240500    305.16974    -1554.031    479.03296    293.12013     563.4808    37655.765 
  240600    294.56751   -1529.1665    480.11512    271.53546    182.03194    37655.765 
  240700      298.506   -1515.1873     502.1865    325.24286    488.66614    37655.765 
  240800    313.29463     -1516.22    491.59099    379.91416    884.77779    37655.765 
  240900    298.43913   -1572.6973    486.83631    252.08287    437.95939    37655.765 
  241000    295.72245   -1515.2174    491.54342    302.09063     831.7617    37655.765 
  241100    306.10755   -1527.6803    483.32842    327.97055    515.94256    37655.765 
  241200    293.01717   -1525.1466    479.49805    267.98798    442.81943    37655.765 
  241300     295.9432    -1528.608    473.53396    271.68023    45.064397    37655.765 
  241400    301.73092   -1540.9725    494.29437     306.0233    282.62807    37655.765 
  241500    301.17955   -1486.2812    492.10604    356.05445    89.610854    37655.765 
  241600    293.52771   -1496.5031    471.89448    291.31671   -54.986331    37655.765 
  241700    302.71638   -1559.4973     468.1855    265.80755    152.35318    37655.765 
  241800    302.60318   -1541.3635    472.63732    287.88573   -297.33445    37655.765 
  241900    307.31006   -1557.6237    475.86794    295.95775   -349.24296    37655.765 
  242000    299.18405      -1553.9    490.77438    278.15789    79.912978    37655.765 
  242100    297.67851   -1536.5037    490.87705    288.90729   -154.08938    37655.765 
  242200    285.83076   -1506.1804    512.66896    287.90742    475.79153    37655.765 
  242300    300.67851   -1473.5818     476.7446    351.14617   -20.647358    37655.765 
  242400    299.95637   -1483.2264    506.71691    368.23641   -777.92083    37655.765 
  242500     290.5032   -1512.5584    466.03875    255.84644   -377.21505    37655.765 
  242600    290.33584    -1509.792     476.2696    268.09331    101.26376    37655.765 
  242700     302.6765     -1493.33    513.13101    376.74159     693.1163    37655.765 
  242800    299.52791   -1522.1382    477.98612    298.67295    696.06775    37655.765 
  242900    299.11372   -1522.8807    524.01644    342.10398    598.28593    37655.765 
  243000    310.01518   -1534.9452    509.61983    364.51561     874.9009    37655.765 
  243100    307.08875   -1544.0426    475.26738     307.9461    421.96414    37655.765 
  243200    294.21952   -1510.1121    496.37008    305.28475    346.81225    37655.765 
  243300    300.50203   -1529.9488    484.87874    302.12208    58.217422    37655.765 
  243400    303.16123   -1562.8641    454.02911    250.27871    -48.94998    37655.765 
  243500      290.916   -1540.0938     505.3816    269.50448   -6.3970784    37655.765 
  243600    302.74177   -1494.4279    500.06281    362.86808    671.56241    37655.765 
  243700    300.64187   -1550.7894    458.00897    255.03864    164.17183    37655.765 
  243800    305.83952   -1582.2201    484.11586    273.01657    465.84367    37655.765 
  243900    304.26811   -1550.9155    486.85818    300.01872    156.41208    37655.765 
  244000    309.33114   -1511.7341    479.18315     354.2234    669.57048    37655.765 
  244100    308.89118   -1553.4028    492.92324     324.3223    598.97602    37655.765 
  244200    297.88859   -1544.7064    506.32197     297.0913    284.24579    37655.765 
  244300    302.07257   -1528.7635    493.30403    318.77358    480.80878    37655.765 
  244400    307.30577    -1569.905     493.4157    301.20495   -448.52324    37655.765 
  244500    299.48598   -1543.8511    483.84602    282.63203   -634.77176    37655.765 
  244600     297.8021    -1559.424    506.52876    282.19282    66.796188    37655.765 
  244700    295.94599   -1595.2013    487.38265    218.94817   -456.19484    37655.765 
  244800    285.90356   -1536.9762     519.8133    264.58228     381.6086    37655.765 
  244900    295.33636   -1564.5474    479.99625    239.48255   -365.49021    37655.765 
  245000    300.78771   -1548.0814    510.42538    310.81691    76.840941    37655.765 
  245100    289.45324   -1581.1139    454.25536    170.80036   -115.09772    37655.765 
  245200    311.19391   -1596.3014    460.68314     259.5071   -380.11796    37655.765 
  245300    304.94869   -1552.9007    506.86508    321.09158    6.3003583    37655.765 
  245400    312.09676   -1570.0037     442.6422    271.81141   -107.35387    37655.765 
  245500    302.68954   -1593.5204    485.86531    249.34395    17.976471    37655.765 
  245600    298.28789   -1574.7146    463.79139    226.34264    529.87978    37655.765 
  245700    302.53199   -1580.4359    489.62116    265.47801     -207.473    37655.765 
  245800    302.39858   -1605.4632    496.57536    246.80683     125.3572    37655.765 
  245900    303.16012   -1597.5465    473.64211    235.20438    435.61601    37655.765 
  246000    302.30443   -1594.5464    460.58961    221.31585    470.93218    37655.765 
  246100    295.83486   -1626.3145    474.83287    174.78697    478.16094    37655.765 
  246200    297.26449   -1605.3007    486.77922     214.1564    680.60541    37655.765 
  246300    295.21022   -1592.3212    464.81395    195.96103     662.3712    37655.765 
  246400    298.66139   -1586.3327    475.56193    228.16953   -329.08379    37655.765 
  246500    299.02434   -1599.1856    456.91141    198.29333   -286.78645    37655.765 
  246600     306.5046   -1579.5169    485.91956    280.50515    72.035981    37655.765 
  246700    298.56304   -1594.7307    488.12079     231.8895    49.764935    37655.765 
  246800    306.75463   -1594.9913    461.83445    242.06659    75.396723    37655.765 
  246900    298.31007   -1597.1456    483.76139    223.98115    362.14924    37655.765 
  247000    289.49614    -1619.489    459.73686    138.09909    61.309551    37655.765 
  247100    304.18243   -1617.8523    460.79321    206.63284    131.98542    37655.765 
  247200    300.42581   -1598.0031    457.88326    206.73065   -160.23631    37655.765 
  247300    292.71234   -1573.4483    462.94373    201.76531   -267.16629    37655.765 
  247400     307.7154   -1568.2004    458.86821    270.19855   -993.47908    37655.765 
  247500     306.5335   -1575.4958    475.27194    274.00823   -509.71081    37655.765 
  247600    303.43461   -1586.2665    469.23345     243.3063     69.39511    37655.765 
  247700    305.04021   -1549.9392    487.21471      304.813    6.7159151    37655.765 
  247800    295.64103   -1579.1989    459.41522    205.61588    144.00435    37655.765 
  247900    295.97159   -1619.2608    478.42217    186.04297    210.65211    37655.765 
  248000    297.25013   -1611.3265    488.44954    209.73644    271.06763    37655.765 
  248100     307.6175   -1541.4755    498.05647    335.67275    372.83908    37655.765 
  248200    298.14266   -1519.6185    482.24652    299.24282    -319.2572    37655.765 
  248300     303.4398   -1532.0415    483.59714     311.9182   -130.53799    37655.765 
  248400    297.23087   -1523.2348     486.1823    295.47465   -412.40083    37655.765 
  248500    297.86276    -1494.744    503.98111    344.59706   -122.30792    37655.765 
  248600    298.84283   -1566.3612    451.76428     225.1568   -422.83297    37655.765 
  248700    293.94663   -1540.9649    494.34981    271.18833    114.37383    37655.765 
  248800    296.88932   -1540.1777    466.40246    257.22066    232.12581    37655.765 
  248900    294.94393   -1524.8301    478.03011    275.47441   -34.431066    37655.765 
  249000    296.60291   -1538.0732    514.25318    305.89188   -380.69746    37655.765 
  249100    311.82962   -1574.9886    463.56975    286.55651   -722.52834    37655.765 
  249200    302.07395   -1572.0916     483.3051    265.45279    309.03615    37655.765 
  249300    300.70363   -1554.8876    498.96746    292.17584   -56.282408    37655.765 
  249400    303.73425   -1589.1983    502.27534    274.75969   -186.67557    37655.765 
  249500    299.14054   -1540.5208    485.23045    285.79806    269.73275    37655.765 
  249600     287.6104   -1604.1805    479.24661    164.46334   -146.92855    37655.765 
  249700    292.28791   -1592.4736    481.98576    199.87927    30.434125    37655.765 
  249800    297.99157   -1599.1067    468.63701    205.46773    303.89751    37655.765 
  249900    300.79631   -1567.2696    496.71947    277.96133   -98.439476    37655.765 
  250000    294.87906   -1557.3287    489.42248    254.07739   -250.56185    37655.765 
  250100    292.68677   -1553.9876    458.86454    217.03216   -771.50626    37655.765 
  250200    302.05613   -1567.1907    498.28288    285.25161   -510.26133    37655.765 
  250300    296.19988   -1545.4043     490.2766    272.77738   -619.13508    37655.765 
  250400    302.12578   -1542.3492    491.73278    303.85523     -438.196    37655.765 
  250500    301.00201   -1546.1719    484.25276    287.51446    45.432331    37655.765 
  250600    296.58237   -1558.0009    486.92302    258.54188    53.048748    37655.765 
  250700    297.95422   -1529.7363     476.2207     282.2544    -81.85307    37655.765 
  250800    309.38849   -1567.7738     504.8845    324.14213   -88.694641    37655.765 
  250900    296.78798   -1544.6491    485.39672    271.28918    439.62384    37655.765 
  251000    300.96573   -1564.6182    492.03022    276.68306    139.75254    37655.765 
  251100    297.77867   -1529.5496    496.28615    301.71951    35.356642    37655.765 
  251200    292.19499   -1499.5386    489.55824    299.97016   -473.56356    37655.765 
  251300    297.79309   -1561.0768    478.00659    251.97744   -353.06782    37655.765 
  251400    307.11135     -1530.36    501.97787    348.44051   -436.55804    37655.765 
  251500    288.28718   -1541.7259    506.58521    257.29061    16.938867    37655.765 
  251600    303.59177   -1560.3253    495.22572    295.94433    219.61824    37655.765 
  251700    305.60249   -1530.0561     510.7833    350.78541   -78.426789    37655.765 
  251800    307.81264   -1540.6275    491.65368    330.99279    96.459817    37655.765 
  251900     302.2608   -1561.5939    482.01142    275.49448   -42.412397    37655.765 
  252000    310.13971     -1562.88    488.00913    315.52832    275.83562    37655.765 
  252100    305.38535   -1532.4355    474.95297    311.60224   -37.284843    37655.765 
  252200    310.82149   -1485.3505    514.80864    422.91387    25.509351    37655.765 
  252300    289.61561   -1498.8273    504.84356     304.4031   -269.11715    37655.765 
  252400    294.86727   -1547.5114    457.70029    232.11962    -286.9242    37655.765 
  252500    304.58969   -1519.2274    504.56525    350.85553   -783.69053    37655.765 
  252600    301.42895   -1507.7549    482.15121    325.74405   -159.42527    37655.765 
  252700    293.06352   -1521.7396    473.37216    265.47684   -10.729266    37655.765 
  252800      301.159   -1518.5957     481.6358     313.1776   -589.81683    37655.765 
  252900    307.91725   -1527.4594    500.33346    353.30974    4.6604905    37655.765 
  253000    301.62999   -1502.4814    497.37077    347.13838   -130.06976    37655.765 
  253100     299.6542   -1528.8332     484.1114    298.66944   0.68880486    37655.765 
  253200    289.17779   -1503.5697    504.84176     297.6961   -87.059494    37655.765 
  253300    308.26757   -1561.0428    463.79309    284.75644   -191.08881    37655.765 
  253400    302.26424   -1571.4866    473.56473    257.17051   -264.68341    37655.765 
  253500    302.76701   -1534.1622    497.79429    320.97853    257.78882    37655.765 
  253600    307.93123   -1519.2067    491.58344    352.87502    371.32575    37655.765 
  253700    303.79232   -1515.9155    531.33785    377.36532     367.1433    37655.765 
  253800    294.26578   -1547.3776    469.39599    241.25261    121.02554    37655.765 
  253900    296.28006   -1530.3271    471.37158    269.30892   -298.78168    37655.765 
  254000    295.57653   -1546.7322     498.4157    276.79399    45.927409    37655.765 
  254100    304.61057   -1536.4035    463.81596    293.02371    467.57567    37655.765 
  254200    298.56772   -1533.4208     497.3781    302.47769    288.95651    37655.765 
  254300    303.60524   -1528.3847    482.94903    315.66866    191.29231    37655.765 
  254400    290.66221   -1555.2076    491.55503    239.42629   -322.10866    37655.765 
  254500    303.31417   -1565.9066    476.59461     270.4874   -367.02215    37655.765 
  254600    304.15028   -1562.1793    466.95669    268.32512    168.56041    37655.765 
  254700    308.59449   -1607.8069    482.34956    258.01446    305.02076    37655.765 
  254800    307.49524   -1587.1583    457.93923    249.32457    93.126763    37655.765 
  254900    289.91942   -1577.3747    472.35572    194.72992   -330.80709    37655.765 
  255000    305.26263   -1535.2936    495.62849    328.86947   -31.404523    37655.765 
  255100    304.42394   -1564.1198    446.44548    247.10028   -577.99689    37655.765 
  255200    295.86724   -1531.6441    473.57812    268.34781   -153.80574    37655.765 
  255300    296.69808   -1541.0834    460.79588    249.85101   -276.71956    37655.765 
  255400    297.71541   -1519.5471    496.48964    311.64193   -473.99776    37655.765 
  255500    299.27108   -1502.6403    503.88902    342.92236   -36.113096    37655.765 
  255600    303.78804   -1555.2772     490.1212    296.76777    257.35141    37655.765 
  255700     305.7023   -1535.7381    479.25743    314.02509     110.1025    37655.765 
  255800    305.93589   -1537.3799    485.67385    319.84691   -421.75812    37655.765 
  255900    304.15593   -1507.4918    471.05494    327.13627    627.16935    37655.765 
  256000    298.95051   -1567.3055    460.72956    233.66057   -1.8355557    37655.765 
  256100    299.57515   -1574.8661    501.14589    269.31658   -310.94382    37655.765 
  256200    315.66011   -1594.5109    452.42446    273.06149    232.31422    37655.765 
  256300    311.58597   -1577.8992    491.01971    310.00356    153.46504    37655.765 
  256400    294.63065   -1560.4935    470.89873    231.27519   -74.882524    37655.765 
  256500    298.54666   -1565.9712    477.95074    250.40556   -411.87134    37655.765 
  256600    295.82355   -1566.8324    478.57535    237.96089   -315.86115    37655.765 
  256700    299.77857    -1566.087    470.36019    248.22202    -14.57366    37655.765 
  256800    296.29199   -1551.2792    472.47395    249.51275   -283.57233    37655.765 
  256900    293.36022   -1550.0641    475.92495    241.03525   -93.759731    37655.765 
  257000    305.86152   -1580.9647    463.05289    253.30771    2.9647625    37655.765 
  257100    301.28104   -1582.8579    456.27635    224.10299    72.363811    37655.765 
  257200    302.25793   -1551.7008    519.69828    323.06158  0.050468806    37655.765 
  257300    297.58371    -1569.591    480.34573    244.86362   -475.75483    37655.765 
  257400    295.60594   -1565.3719    473.70528    233.57573    74.471404    37655.765 
  257500      301.191   -1554.9539    469.59805    264.92502   -549.43049    37655.765 
  257600    306.93802   -1566.0304    446.67909    256.69432   -439.42068    37655.765 
  257700     297.9187   -1525.1384    498.21437    308.68672   -29.060951    37655.765 
  257800    305.70516   -1545.6066     466.3079    291.21983   -330.03682    37655.765 
  257900    300.05957   -1571.6391    476.15513    249.72452    196.88963    37655.765 
  258000     293.5879   -1533.2832    485.43049    268.34241   -287.94932    37655.765 
  258100    302.17114   -1581.1228    486.49404    260.04628    92.347598    37655.765 
  258200    301.44857   -1539.3161    494.18628    306.30577   -577.66956    37655.765 
  258300    306.96697    -1572.275     455.7912    259.69165   -241.20998    37655.765 
  258400    298.32963   -1559.7687    452.50914     230.1934   -778.11327    37655.765 
  258500    297.38716   -1590.4545    460.90786    203.68109     107.5843    37655.765 
  258600    303.73536   -1610.0532     461.7298    213.36423   -505.64416    37655.765 
  258700    302.02964   -1589.6257    468.28685     232.7018   -253.56063    37655.765 
  258800    314.68535   -1607.8123    483.12362    286.08929    62.387702    37655.765 
  258900    313.10481    -1555.943    467.81015    315.55934   -28.723991    37655.765 
  259000    300.33187   -1533.9408    492.59974    305.08826      219.891    37655.765 
  259100    308.57654   -1574.2504    451.58325    260.72419     24.60835    37655.765 
  259200    302.19112    -1590.587    471.43081    235.60841   -48.590282    37655.765 
  259300    296.13434   -1577.8875    499.73332    249.45702   -114.86029    37655.765 
  259400    298.44567   -1560.8543     484.9231    262.04203    924.03307    37655.765 
  259500    310.84959   -1552.2615    496.63876    337.95895     671.1101    37655.765 
  259600    308.40664   -1537.8781    465.26937    310.02087    1132.7288    37655.765 
  259700    303.73424   -1559.4235    473.86113    276.12028     1085.519    37655.765 
  259800    311.09639   -1570.9147    476.46914    300.24254    306.62646    37655.765 
  259900    291.62576   -1552.9641    474.55215    228.98665     201.4724    37655.765 
  260000    305.75949   -1532.6342    494.98025    333.10813    225.51526    37655.765 
  260100    296.58753   -1565.1692    480.11423    244.58794    122.85487    37655.765 
  260200    295.00983   -1555.3171    510.71873    277.97154    380.81231    37655.765 
  260300    304.69265   -1636.3425    468.20881    197.84558    409.30263    37655.765 
  260400    305.46523   -1573.2214    454.31973    250.54125   -129.31101    37655.765 
  260500    306.69884   -1599.4116    501.33458    276.89626    23.079561    37655.765 
  260600    304.46421   -1568.4451    486.47475    282.98482    723.55154    37655.765 
  260700    303.33416    -1562.638    471.76626    269.01727    418.16371    37655.765 
  260800    298.37722   -1589.7745    486.40435    234.29616    305.33075    37655.765 
  260900    305.14237   -1556.8653    489.92854    301.05866    199.21008    37655.765 
  261000    287.42422   -1523.7614    462.50511    227.30624   -269.22236    37655.765 
  261100    291.85479   -1565.8172    483.62825    226.23646   -239.24347    37655.765 
  261200    299.47625   -1568.5385    475.84893    249.90393   -83.048025    37655.765 
  261300       302.16   -1523.4586    481.92461    313.09103    51.701013    37655.765 
  261400    296.48442   -1570.3248    502.34964    261.20554   -359.57339    37655.765 
  261500    301.86742   -1549.4059    462.11272    266.02022    282.17138    37655.765 
  261600    297.72393    -1532.507    503.10089     305.3315    357.29622    37655.765 
  261700    297.25246   -1554.5764    441.19354      219.241    101.78887    37655.765 
  261800    308.96334   -1551.6171    479.15971      312.668     200.2317    37655.765 
  261900    306.60301   -1534.3273    469.59694     309.8133    205.35212    37655.765 
  262000    300.59728   -1598.8811    467.36467    216.10282    225.32848    37655.765 
  262100    304.32218   -1569.0991    486.60586    281.82518    81.255921    37655.765 
  262200    306.26148   -1558.6604    475.65005    290.00225     52.85267    37655.765 
  262300    305.22521    -1500.412    492.78577    360.74065    345.47059    37655.765 
  262400    314.49311   -1544.9298    466.46182    331.44813    817.86016    37655.765 
  262500     303.9606   -1496.4483    491.65107    357.90018    193.98994    37655.765 
  262600    294.26254   -1552.9485    437.85464    204.12579   -299.15995    37655.765 
  262700    306.71073   -1468.7398    510.91297    417.19982   -155.30931    37655.765 
  262800    302.53579   -1497.4854    475.27206    334.09648   -491.18957    37655.765 
  262900    297.87364   -1539.8128    488.71984    284.31574    494.05252    37655.765 
  263000    301.09074   -1529.6967    485.78485    305.91956    474.25173    37655.765 
  263100    299.10289   -1525.1796     479.4219    295.16189   -340.47981    37655.765 
  263200    309.33136   -1516.5274    478.53204    348.77992   -110.62148    37655.765 
  263300    298.17475    -1478.228    468.63117    327.16186   -592.99979    37655.765 
  263400      306.857   -1484.3706    487.52253    378.83432   -428.02043    37655.765 
  263500    295.66746   -1482.1797    469.18561    312.52402   -225.11524    37655.765 
  263600      300.252   -1524.9159     468.2984    289.45377   -448.04173    37655.765 
  263700    295.29064   -1507.1941    503.46155    320.09629   -680.76432    37655.765 
  263800    292.76862   -1536.3839    495.34461    271.48298   -43.682965    37655.765 
  263900    302.50938   -1556.9375    484.70344    283.95729    421.64031    37655.765 
  264000    300.52748   -1517.0384    485.02226    315.29011    520.26602    37655.765 
  264100    294.85443     -1568.94    466.97177    219.90496    214.74504    37655.765 
  264200    300.26403   -1567.2057    508.04765    286.96715    359.02436    37655.765 
  264300    302.61326   -1592.8045    449.04141    212.89402    206.96582    37655.765 
  264400    302.57373   -1522.3755    487.39551    321.49992    424.26823    37655.765 
  264500    293.23119   -1531.0554    474.87528    258.41585    554.28619    37655.765 
  264600    292.82307   -1551.1805    480.00247    241.58832    159.42951    37655.765 
  264700    301.57965   -1563.3994    472.01545    260.63932   -123.99057    37655.765 
  264800    304.65473   -1561.7691    489.82897    293.86922   -284.05957    37655.765 
  264900    307.59875   -1520.4414    473.16651    331.73287    -809.7545    37655.765 
  265000     304.0376   -1521.8942    481.31403    322.46244   -248.75959    37655.765 
  265100    293.80733   -1547.7334    486.41694    255.86246    206.72465    37655.765 
  265200    293.46376   -1516.4758    488.87865    288.04143    -467.2711    37655.765 
  265300    305.57877   -1555.2901    471.33408    285.99585   -693.94388    37655.765 
  265400    297.70315   -1559.9808    492.49775    267.16139   -708.28597    37655.765 
  265500    297.06308   -1502.3789    472.41394    301.80994   -368.42172    37655.765 
  265600    257.93025   -1517.5141    476.09047    114.91335   -345.13405    37655.765 
  265700    285.72129   -1550.9687    508.24173    238.20105   -377.64104    37655.765 
  265800    308.50381   -1546.6555    478.06101    314.47071   -3.2347176    37655.765 
  265900    301.23891   -1517.8865    474.66686     307.2761   -416.52459    37655.765 
  266000    302.25663   -1509.5475    483.98391    329.49468   -650.53208    37655.765 
  266100    298.39696   -1491.3037    480.12272     326.5739    112.57964    37655.765 
  266200    301.14672   -1500.5413     517.7929    367.33401    38.388265    37655.765 
  266300    291.83278   -1517.4781    488.82544    279.67406   -558.41583    37655.765 
  266400    289.45278   -1526.6021    453.75089    224.80562   -335.88617    37655.765 
  266500    300.95016   -1545.6852    499.36237    302.87833   -800.82838    37655.765 
  266600    299.24858   -1542.2575    490.96377    290.27909   -44.780627    37655.765 
  266700    293.07576   -1542.9942     504.5301    275.43503    103.25575    37655.765 
  266800     300.4267   -1474.3562    505.31864    377.81685   -354.39648    37655.765 
  266900    297.26112   -1507.1251    475.20519    300.74285    25.172409    37655.765 
  267000    307.33215   -1492.7366    502.31241    387.38833   -144.93019    37655.765 
  267100    293.66867   -1511.6914    493.35625    298.22213   -182.11294    37655.765 
  267200    302.27171   -1534.1635    473.52797    294.49035   -229.88588    37655.765 
  267300    295.93491   -1523.2263    481.21998    284.71086   -30.517519    37655.765 
  267400     302.4379   -1536.7096     495.3629    314.52419    571.16979    37655.765 
  267500    298.92283   -1493.0245    479.84875    326.93667    113.07328    37655.765 
  267600    299.18172   -1510.7782    509.31487    339.80972    303.28951    37655.765 
  267700     292.5879   -1551.1702    479.12148    239.66334    371.48344    37655.765 
  267800    303.67178   -1526.2086    489.72102    324.91501    12.736692    37655.765 
  267900    293.27519   -1520.5448     483.5767    277.82508    -499.0369    37655.765 
  268000    304.45951   -1516.0665    476.45987    325.32753   -152.67146    37655.765 
  268100    299.72803   -1520.6706    491.69002    314.74167   -716.13342    37655.765 
  268200    302.77318   -1543.8963    467.62311    281.10087   -420.79182    37655.765 
  268300    300.17789   -1525.6703    508.96724    329.03592   -195.07091    37655.765 
  268400    305.58773   -1520.2364    457.85641    307.61202   -224.67164    37655.765 
  268500    296.43939   -1510.4525    462.13804    280.66434   -210.58173    37655.765 
  268600    290.06107   -1555.1058      504.174    249.45206    62.467462    37655.765 
  268700    308.61151   -1551.4676    484.94094    317.02141    607.44116    37655.765 
  268800    299.39138   -1561.4428    448.62705    229.39721    89.635866    37655.765 
  268900    297.21692   -1550.5334      481.761    263.69211    150.59994    37655.765 
  269000    295.43423   -1527.2369    481.74706    278.98263   -214.59253    37655.765 
  269100    306.82863   -1553.2378    459.11659    281.43392    32.511126    37655.765 
  269200     308.7826   -1542.7458    468.45997    310.02926   -415.66413    37655.765 
  269300    301.89107   -1541.9754    483.49692    294.94099    59.526957    37655.765 
  269400    314.86754   -1545.6693    509.36764    375.29311    103.91333    37655.765 
  269500     306.7731   -1514.5838     476.7757    337.49812    179.12679    37655.765 
  269600    297.80598   -1554.1905     499.3649    280.27983   -39.222294    37655.765 
  269700    292.37708   -1514.6574    500.61237    296.72189   -93.205284    37655.765 
  269800    303.26885   -1501.0155    500.15007    358.73079   -525.38429    37655.765 
  269900    302.18482    -1508.091    458.61893    305.26427   -470.10547    37655.765 
  270000    306.23489   -1555.5328    499.55704     316.9176   -699.93835    37655.765 
  270100    307.80357   -1555.2209    479.58361    304.28869   -49.827828    37655.765 
  270200    290.21172    -1557.732    497.01513    240.34239    259.22417    37655.765 
  270300    294.99819   -1515.6014     502.3546    309.27089    505.89173    37655.765 
  270400    305.48672   -1565.2396    460.52842    264.82802    806.93981    37655.765 
  270500     293.8929   -1526.9764    480.47154    271.05769    525.06359    37655.765 
  270600    304.97894   -1536.0188    505.66571    336.90965    962.57575    37655.765 
  270700    306.09176   -1489.7958    481.58544    364.04134    617.26929    37655.765 
  270800    294.64816   -1559.0177    479.81335     241.7441    642.29021    37655.765 
  270900    297.09084   -1531.7766    466.98554    267.10827    485.83623    37655.765 
  271000    299.30234    -1583.319     486.1956    244.69039    339.67375    37655.765 
  271100    301.50877   -1552.1584    456.97791    256.52498   -404.77588    37655.765 
  271200    298.88007   -1543.7152    476.43536    272.64082   -379.58817    37655.765 
  271300    296.07774   -1538.1607    493.67076    282.86749    -409.5706    37655.765 
  271400    299.93278   -1580.5427    489.51684    253.61428   -342.19863    37655.765 
  271500    299.49109   -1568.8526    497.10135    270.90878   -336.88253    37655.765 
  271600    299.92155   -1531.5608    488.79493    301.82393    295.50233    37655.765 
  271700    290.88573   -1499.4907    485.99053    290.58081    397.87978    37655.765 
  271800    294.28765   -1526.1515    471.51426    264.69504   -127.12688    37655.765 
  271900    293.92476   -1571.3649    476.48163    222.82208     423.1127    37655.765 
  272000    309.27073   -1583.9273    462.72206    265.29822    172.54698    37655.765 
  272100    300.18394   -1568.1327    475.69602    253.32941    259.34145    37655.765 
  272200    295.37995   -1567.6091    473.12268    229.74275    69.766617    37655.765 
  272300    307.60806   -1534.7259    505.11189     349.4355   -128.43671    37655.765 
  272400    300.48731   -1559.5742    471.68371    259.23569   -434.84602    37655.765 
  272500     305.2005   -1540.3131    469.69055     297.6335    118.27961    37655.765 
  272600    301.03404   -1557.7813    505.44863    297.24459     282.3634    37655.765 
  272700    301.33145   -1538.1599    484.84734    297.59803    791.75243    37655.765 
  272800    290.76527   -1556.7859    498.39969    245.15476   -68.355765    37655.765 
  272900    301.65495   -1521.2531     476.2817    307.38941    854.75014    37655.765 
  273000    300.89617   -1575.0009    488.24257    262.20077    161.02286    37655.765 
  273100    301.96274    -1586.223    468.55033    236.06808    168.08085    37655.765 
  273200    300.82022   -1558.3524    478.06587    268.33215   -276.87711    37655.765 
  273300    300.94238   -1533.5962    485.32179    300.89189    78.298389    37655.765 
  273400    294.09922   -1524.9739    506.22659    299.74018    241.58322    37655.765 
  273500     297.7781   -1518.2168    465.77312    282.53667    101.32706    37655.765 
  273600    307.37167   -1578.4798    499.98571    299.49567    412.09326    37655.765 
  273700    301.97531    -1562.403    482.10762     273.5017    467.43962    37655.765 
  273800    296.06949   -1577.7582     471.2475    220.80979    -27.25696    37655.765 
  273900    301.23988   -1540.8967    493.68828    303.29164    91.306936    37655.765 
  274000    294.55467   -1557.7788    479.59502    242.34557    -367.4517    37655.765 
  274100    297.68129   -1580.2214     504.6242    258.94925   -434.39988    37655.765 
  274200    293.50925   -1538.3532    480.35733    257.84675   -795.54334    37655.765 
  274300    299.26099    -1572.994    481.00184    249.63621   -354.90327    37655.765 
  274400     303.7743   -1568.9762    491.03095    283.91692   -454.68263    37655.765 
  274500    299.76771   -1570.6682    484.92001    258.15191   -487.99931    37655.765 
  274600    291.65949    -1516.397    525.46072     316.6135   -272.02565    37655.765 
  274700    290.54156   -1550.1355    461.04849    213.45098   -316.38916    37655.765 
  274800    303.58667   -1557.8476    501.47681    304.65025   -208.46003    37655.765 
  274900    288.31017   -1598.3514    489.57358    183.75653    441.66796    37655.765 
  275000    291.54969   -1554.4482    511.61772    264.22708   -103.45909    37655.765 
  275100    314.91278   -1525.8059    478.25516    364.24682    94.763972    37655.765 
  275200    292.36153   -1559.0441    486.09835    237.75143    -20.97198    37655.765 
  275300      303.937   -1540.1714    463.58263    286.00287   -201.23473    37655.765 
  275400    304.85153   -1531.9463    492.87021    327.61553   -579.01224    37655.765 
  275500    290.52662   -1540.7782    470.03765    231.73047   -199.44974    37655.765 
  275600    298.45431   -1557.1009    474.05945    254.97046   -61.628049    37655.765 
  275700    291.06597   -1570.6147    502.77664    237.05098    469.85818    37655.765 
  275800    295.12288   -1556.3473    501.24406    267.97347    137.25769    37655.765 
  275900    300.46518    -1614.158    476.70711    209.57601   -266.95718    37655.765 
  276000    301.04941   -1586.3736    501.02889    264.30139    747.70031    37655.765 
  276100    294.64107    -1596.963    510.16473    234.11842    448.76786    37655.765 
  276200    290.47491   -1591.2051    475.48448    186.51857    163.13191    37655.765 
  276300    307.72865   -1567.5373    497.09068    309.14355    656.87384    37655.765 
  276400    309.31149   -1595.6239    464.91916     255.9815    540.98737    37655.765 
  276500    303.46805   -1577.9812    458.14075    240.64883    611.86875    37655.765 
  276600     288.7277   -1577.3495     488.0062    205.06293    636.15772    37655.765 
  276700    299.03491   -1623.8414    503.78477    220.55827    276.94086    37655.765 
  276800    294.19165   -1612.6151    463.89324    170.17994    448.99398    37655.765 
  276900    302.83757   -1597.5759    502.14212     262.2289    162.08667    37655.765 
  277000    303.02991    -1570.391    514.26707    302.40105    22.985391    37655.765 
  277100    298.81777   -1586.2782     468.8859    222.24909   -35.030693    37655.765 
  277200    297.36367   -1579.1117    474.75433    228.76513   -300.74246    37655.765 
  277300    302.66357   -1590.8881    497.66106    263.65561   -297.87712    37655.765 
  277400    305.10465   -1571.6775    492.33562    288.48448   -577.75584    37655.765 
  277500    308.57666   -1562.4127    477.73926     298.7184   -507.92964    37655.765 
  277600    306.61936   -1551.3753    500.94075    324.18239   -801.86378    37655.765 
  277700    296.89835     -1559.49    463.95424    235.50057   -358.24766    37655.765 
  277800    290.80955   -1579.1774    477.26861    201.83069   -49.034188    37655.765 
  277900    309.90751   -1613.3368    495.18846    271.20984    140.30385    37655.765 
  278000    309.11674   -1596.1564    482.99427    272.65091    634.32168    37655.765 
  278100    290.60316   -1579.7443    494.33083    217.40067    584.70367    37655.765 
  278200    301.84497   -1610.5383    488.33896    231.01343    483.66248    37655.765 
  278300    296.96518   -1598.7001    476.27274    208.90865    133.83557    37655.765 
  278400    304.11304    -1565.016    487.19892     285.5637   -596.35594    37655.765 
  278500    312.27917   -1573.0455    476.57159    303.51682   -267.28667    37655.765 
  278600    303.50533   -1606.3037    467.26791    221.62056   -467.02075    37655.765 
  278700    303.07128   -1568.2464    486.58589    277.04996   -159.30177    37655.765 
  278800    301.19395   -1598.8441    475.60943    227.05953    -181.7373    37655.765 
  278900    291.55304   -1568.2944    491.76245    230.54069    556.18176    37655.765 
  279000     309.2133   -1591.6723    486.52258    281.09631    736.42829    37655.765 
  279100    295.40673   -1595.9362    486.12969    214.54272    39.728693    37655.765 
  279200    306.59628   -1588.0351    476.22136    262.69982    241.67633    37655.765 
  279300    305.61027   -1547.0932     514.4497    337.44955    -263.2301    37655.765 
  279400    294.06684   -1548.9398    453.66496    223.06746   -250.01162    37655.765 
  279500    305.87472   -1563.5199    505.06537    312.82418    842.82519    37655.765 
  279600    294.20666   -1546.8394    500.90591    273.03566    571.65047    37655.765 
  279700    298.58825   -1538.4429    493.88295    294.05243    149.46368    37655.765 
  279800    297.12317   -1548.1334    489.54254    273.45343    250.48495    37655.765 
  279900    291.10081    -1534.298    502.28092    273.02814    137.90204    37655.765 
  280000    297.21802   -1541.8451    502.07008    292.69453   -262.63643    37655.765 
  280100    293.14998   -1551.3299    506.71177     269.6138    -168.2692    37655.765 
  280200    296.50852   -1541.3299    506.44465    294.40344    127.59597    37655.765 
  280300    302.66564   -1528.6642    482.79227    311.01999   -221.13474    37655.765 
  280400    301.66284   -1541.8583      491.253    301.79098   -431.64874    37655.765 
  280500    299.96609   -1523.5288     474.2539    295.51453   -309.65406    37655.765 
  280600     303.4019   -1533.4712    498.71308    325.43459    93.948238    37655.765 
  280700    309.87301    -1547.056    486.09127    328.23884    362.25225    37655.765 
  280800    292.11133   -1496.1417    542.78271    356.21649    805.22369    37655.765 
  280900    297.86133   -1498.9238    518.06369    354.49341    732.92425    37655.765 
  281000    294.83366   -1554.4569    497.98703     265.3102    66.436529    37655.765 
  281100    310.42025   -1551.6583    497.37386    337.37244    289.37903    37655.765 
  281200    297.67997   -1552.1279    497.20135    279.61395    603.11565    37655.765 
  281300    302.63671   -1561.7073    487.44755    282.50246    617.89186    37655.765 
  281400    295.35814   -1571.6508    511.30237    263.78292    538.44078    37655.765 
  281500    301.52965    -1560.864    482.09928     273.0344    374.25994    37655.765 
  281600    306.14345   -1611.5536    480.67453    241.60439    455.99235    37655.765 
  281700    309.45625   -1539.8205    484.10683    331.62148    326.20974    37655.765 
  281800    298.85206   -1535.7894    482.05575    286.06144   -226.74703    37655.765 
  281900    295.43258   -1537.4505    492.10112    279.11575   -62.772783    37655.765 
  282000    298.96374   -1568.6179    471.01761    242.69546   -190.29592    37655.765 
  282100    297.12507   -1539.7243    506.05675    298.38521   -217.38126    37655.765 
  282200    298.40496   -1569.1505    475.66695    244.30714    -104.3461    37655.765 
  282300    297.69531   -1585.3293    487.22089    236.50079    102.92622    37655.765 
  282400    314.33734   -1582.1163    488.68737    315.78882    226.07487    37655.765 
  282500    294.39367   -1533.5589    495.17442    281.42311   -362.78002    37655.765 
  282600    309.30114   -1561.3881    478.16208    303.41375   -225.99752    37655.765 
  282700    303.36249    -1531.503    487.08382    315.59685   -360.07052    37655.765 
  282800    289.98034   -1552.8139    485.56957    232.77766    50.837809    37655.765 
  282900    297.80358   -1546.7763      490.955     279.2733   -440.21574    37655.765 
  283000    303.47947   -1544.0606    502.06438    318.54424   -906.42099    37655.765 
  283100    298.70122   -1555.4923    482.07269    265.69926   -664.26052    37655.765 
  283200    304.75726    -1580.303    483.41998    269.38589   -100.50977    37655.765 
  283300    306.09633   -1566.6715    509.23994    314.84058     495.1477    37655.765 
  283400    292.64093   -1576.3801    497.81886    233.38856    306.89538    37655.765 
  283500    293.83637   -1580.1465    504.31041    241.47296    97.423688    37655.765 
  283600    295.20565   -1573.9451    484.21873    233.72137   -47.827725    37655.765 
  283700    301.41025   -1529.4005     534.6974    356.56072    611.94164    37655.765 
  283800    303.65821   -1560.3615     458.1185    259.09874    14.501868    37655.765 
  283900    294.64443   -1587.0885    496.32212    230.16538    187.26613    37655.765 
  284000    302.62112   -1508.3544    494.15494    342.49289    53.538899    37655.765 
  284100     301.4148   -1528.8388    487.94267    310.38806   -278.53367    37655.765 
  284200    304.32298   -1540.4885    467.00389    290.83741   -2.8831011    37655.765 
  284300    288.73611   -1561.7752    484.59685    217.26552     130.4901    37655.765 
  284400    297.25206   -1555.0693    483.92116    261.47397    716.33509    37655.765 
  284500    299.56205   -1538.3342     517.2599    321.90383    796.63656    37655.765 
  284600     303.0906   -1552.9786    472.81963    278.63811    403.16512    37655.765 
  284700    302.79841   -1574.8349    489.71775       272.37    834.97514    37655.765 
  284800    306.06816   -1578.2694    479.56282    273.43935    678.22514    37655.765 
  284900    296.09437    -1585.291     466.0134    208.15439    507.74891    37655.765 
  285000    306.43226   -1518.0031    480.70544    336.48051    89.910646    37655.765 
  285100    293.73947   -1513.6113    521.50207    324.76548    43.809854    37655.765 
  285200    296.01136   -1548.3853    497.66504    276.33957   -632.01994    37655.765 
  285300    303.33363   -1528.2639    478.30959    309.93227   -512.60247    37655.765 
  285400    290.46736    -1555.351    496.38961    243.24396   -707.14094    37655.765 
  285500    296.39779   -1524.9803    496.21971    300.03172   -807.94847    37655.765 
  285600    301.25081   -1517.4859    455.57464    288.63781   -770.72286    37655.765 
  285700    302.57094   -1506.4724    473.11346    323.10842   -929.46096    37655.765 
  285800    300.34937   -1526.2415    484.54224    304.80851   -550.30938    37655.765 
  285900    306.81692   -1541.9042    501.15636    334.75489   -498.65492    37655.765 
  286000     307.1034   -1548.7196    480.32363    308.39105   -430.50343    37655.765 
  286100    300.79572   -1536.8373    489.23064    300.90219    39.204926    37655.765 
  286200    308.02752   -1550.7372     476.2887    306.48144   -70.060688    37655.765 
  286300    297.19686   -1520.8037    508.92281    320.49378   -558.35578    37655.765 
  286400    306.02687    -1521.263    473.49787    324.19564   -390.13753    37655.765 
  286500    295.07975   -1523.3029    497.18685    296.76724   -25.750037    37655.765 
  286600     308.1096   -1558.9668    481.18674    303.51792    210.49881    37655.765 
  286700    304.81232   -1543.5277    472.98717     295.9753    283.56874    37655.765 
  286800    301.66094   -1579.7371    462.03559    234.68623    165.51542    37655.765 
  286900    308.22505   -1575.8981    502.48182    308.39927    238.35019    37655.765 
  287000    298.26253    -1593.033    482.15203     226.2712    20.573208    37655.765 
  287100    293.68341   -1555.4044     498.0477    259.26665    280.11314    37655.765 
  287200    305.06631   -1555.9536    487.91711    299.61801    33.617794    37655.765 
  287300    305.28407    -1600.193    487.45269    255.89034   -295.71529    37655.765 
  287400     308.7895   -1549.9334    467.34675    301.75938    160.86903    37655.765 
  287500     306.7265   -1547.2403    503.26941    331.12646    25.592312    37655.765 
  287600    294.09813   -1552.8173    492.42413     258.0894    46.042336    37655.765 
  287700     308.6773     -1521.07    493.57726    356.35028    436.02478    37655.765 
  287800    296.55852   -1515.8572    501.10887    314.76453   -76.180885    37655.765 
  287900     300.4088   -1488.8878    480.28539    338.17179     5.974423    37655.765 
  288000    290.37385   -1511.2826    515.64868    306.15217   -274.34045    37655.765 
  288100    296.35104   -1543.3778    480.30868    265.51357    19.783343    37655.765 
  288200     296.9029   -1555.1411    463.35783    239.27355    186.96741    37655.765 
  288300    304.36361   -1537.2362    498.62997     325.8979    711.68984    37655.765 
  288400    293.67766   -1534.0738    490.58477    273.10848    722.86562    37655.765 
  288500    293.54519   -1566.5811      475.565    224.98753    263.53756    37655.765 
  288600    298.14445   -1558.7031    482.48161    260.40134    483.31805    37655.765 
  288700    295.16701   -1586.4096    487.46984    224.33473    304.31136    37655.765 
  288800    299.31071   -1576.1874    473.93586    239.59978    503.72166    37655.765 
  288900    298.25876   -1570.6922    472.51718    238.96023    292.27371    37655.765 
  289000    288.26621   -1538.0017    490.06112    244.39669     -25.7692    37655.765 
  289100    294.86524   -1566.2405    502.26496    257.94609   -83.270232    37655.765 
  289200    302.06853   -1595.2154    482.61314    241.61276     398.8346    37655.765 
  289300    301.53733   -1563.9505     483.9436    271.82665    223.61646    37655.765 
  289400    288.29319   -1559.9855    474.25986    206.73255    212.15731    37655.765 
  289500    305.79108   -1545.1626    511.49776    337.23887    1149.5468    37655.765 
  289600    291.40085    -1560.137    484.56542    230.81875     1067.804    37655.765 
  289700    289.87073   -1559.4444    498.54077    238.62693    677.01496    37655.765 
  289800    304.49636   -1567.2236    478.28657    276.16232    526.74322    37655.765 
  289900    286.15872   -1547.0063    488.33955    224.22232    656.99302    37655.765 
  290000    299.32041   -1578.5976    503.81511     267.1123   -7.3887597    37655.765 
  290100    306.38725   -1532.8929    504.64796    345.33148   -7.9495729    37655.765 
  290200    300.09159   -1540.2483    462.61568    267.71952    26.221549    37655.765 
  290300    300.78745   -1546.7957    476.55215    278.22815   -509.06501    37655.765 
  290400    298.22554    -1549.844    502.68048    289.82278   -440.84218    37655.765 
  290500    298.54104    -1544.781    500.89252    294.51227   -400.90055    37655.765 
  290600    295.58444    -1529.831     499.0762    294.39117   -539.94243    37655.765 
  290700    296.63437   -1559.1251    507.33128    278.05909   -1001.9879    37655.765 
  290800    295.88675   -1560.6855    508.35057    274.16631    -1099.154    37655.765 
  290900    305.53293   -1559.5639    483.96226    294.14476     46.77499    37655.765 
  291000    309.33858   -1597.9076    485.34541    274.24545    206.45449    37655.765 
  291100    309.52024   -1589.4945    504.25676    302.38431    341.09852    37655.765 
  291200     303.8764   -1595.2083    481.57226    248.68393    76.655291    37655.765 
  291300    316.67681   -1587.8338    512.56695    344.43911    222.12182    37655.765 
  291400    300.37879   -1570.4446    521.21395    297.40902    623.83345    37655.765 
  291500    301.18477   -1599.4579    465.13027    215.92539    373.65063    37655.765 
  291600    305.30189   -1556.8876    492.04542     303.8684    402.22789    37655.765 
  291700    302.53057   -1584.4951    497.38898    269.18029    318.32016    37655.765 
  291800    288.64091   -1579.3598    503.05596    217.71328   -141.47134    37655.765 
  291900    305.33409    -1580.874    469.07654    257.05747    306.29276    37655.765 
  292000    303.62085   -1602.2344    494.32441    253.26424    678.17692    37655.765 
  292100    306.89907   -1575.3559     501.8386    302.35369    1242.8682    37655.765 
  292200    313.64445   -1532.0434    522.34924    396.41726    897.98347    37655.765 
  292300    280.48167   -1594.3377    490.67979    153.78018     292.1685    37655.765 
  292400     288.8021   -1558.4203    493.92481    230.24425    501.06829    37655.765 
  292500      307.791   -1557.3006    505.31962    327.88868    471.21674    37655.765 
  292600    293.24468   -1533.6039    488.64102    269.69356    245.74966    37655.765 
  292700    297.71188   -1524.6021    507.04822    317.12969    472.59336    37655.765 
  292800    303.75974   -1560.8107    479.08688    280.07313    277.87154    37655.765 
  292900    288.80271   -1535.7213    536.03467    295.05584    76.616145    37655.765 
  293000    301.71613   -1508.2527    504.45871    348.84114   -75.590784    37655.765 
  293100    292.76298   -1485.6367    473.94928    300.80954   -676.26153    37655.765 
  293200    291.97127   -1496.3148    521.00392    333.63674   -1100.5697    37655.765 
  293300    308.04085   -1555.8107    479.23402    304.41301   -1054.9346    37655.765 
  293400    298.10064   -1557.3841    483.61375      262.656   -500.30101    37655.765 
  293500    308.16832   -1532.0148    521.84249     371.3889   -109.09412    37655.765 
  293600    306.35126   -1600.8705    459.96459    232.50911   -582.99133    37655.765 
  293700    290.37364   -1604.2183    495.04059    192.60744   -279.21861    37655.765 
  293800    298.71067   -1550.9623    472.96173    261.16066    528.14925    37655.765 
  293900    300.46438   -1592.0241    491.84224    246.84154    31.384903    37655.765 
  294000    299.36067   -1601.5899    491.38156    231.86695    198.40982    37655.765 
  294100    294.89117   -1591.5441    504.28271    234.77649    668.05468    37655.765 
  294200    303.58253   -1595.3787    496.49635    262.12006    417.82597    37655.765 
  294300    288.63017   -1587.7272    478.40733     184.6491    621.45762    37655.765 
  294400    308.33895   -1631.7172    496.50046    247.10943    210.11394    37655.765 
  294500    308.98516   -1615.8489    463.52057    232.89485    357.64442    37655.765 
  294600    293.37591   -1634.8294    493.55376    173.96915    379.22437    37655.765 
  294700    310.73938   -1637.7793    467.61161    222.91988     864.2335    37655.765 
  294800    286.49985    -1598.962    486.94116    172.39755    591.53682    37655.765 
  294900    305.60986   -1592.6003    505.21364    282.70464    148.69194    37655.765 
  295000    296.83543   -1635.2828    465.85457    161.32608    326.86693    37655.765 
  295100    296.03205   -1617.2903    474.47037    184.33269    241.82308    37655.765 
  295200    306.42008   -1576.3261    490.05097    287.44846    317.40332    37655.765 
  295300     304.8495   -1581.1737    491.84685    277.35563    82.157527    37655.765 
  295400    298.30554   -1601.8244    478.69273     214.2133   -130.10793    37655.765 
  295500    300.29697    -1642.893     467.2839     170.6638    78.733815    37655.765 
  295600    297.98584   -1605.0971    491.95465     222.7693   -194.10426    37655.765 
  295700    303.08778   -1621.2355    498.64602    236.19492   -386.14506    37655.765 
  295800    296.11244    -1584.881     474.1667    216.79871    240.79165    37655.765 
  295900     292.1095   -1573.2204    474.33512      210.682   -124.88738    37655.765 
  296000    309.00959   -1605.5658    489.87511      269.642    -69.29289    37655.765 
  296100    297.75335   -1572.9571    496.04599    257.95831    378.03801    37655.765 
  296200    289.10752    -1562.502    489.45438    223.06145   -151.90449    37655.765 
  296300    300.05878    -1584.531    530.45872    291.13274    382.82475    37655.765 
  296400     304.9423   -1575.0493    486.12459    278.17377    -27.24566    37655.765 
  296500    298.70735   -1617.9152    453.75574    174.98692   -266.94319    37655.765 
  296600     302.9266   -1565.0564    492.44215    285.44757   -719.12969    37655.765 
  296700    302.63589   -1576.6072    453.26569    233.41707    210.10429    37655.765 
  296800    298.84792   -1508.3457    506.46496    337.89581   -245.55052    37655.765 
  296900    293.55487   -1523.6464    498.64251    291.04318    280.65023    37655.765 
  297000    309.40002   -1544.2557    497.28053    340.10791    535.22566    37655.765 
  297100    296.14908   -1512.1289    506.27587    321.82433    458.30148    37655.765 
  297200    298.81677   -1509.0133    474.62256    305.24614    225.38827    37655.765 
  297300      306.003   -1500.9094    486.19455    357.13897    582.94993    37655.765 
  297400    298.22009   -1536.5976    481.08028    281.44459    478.39945    37655.765 
  297500    301.70409   -1562.9476    480.20063    269.83419    861.51005    37655.765 
  297600    296.00636   -1577.8469    513.91261    263.10316   -21.163654    37655.765 
  297700    301.07426    -1524.433    463.01649    288.34107     1.746144    37655.765 
  297800    300.84975   -1521.9642    502.03153    328.81831    221.53082    37655.765 
  297900    307.84443   -1513.7555    485.94128    352.29493   -19.344975    37655.765 
  298000     290.2526   -1490.3481    471.55043    282.44486   -860.43956    37655.765 
  298100    300.28106   -1497.0457    508.38679    357.54261    14.087703    37655.765 
  298200    301.94143   -1530.9545    486.29636    308.98705    81.353338    37655.765 
  298300    298.06548   -1517.0365    519.06893    338.30115   -13.325189    37655.765 
  298400    295.54553   -1519.8063    499.94896    305.11418   -388.94654    37655.765 
  298500    308.17218        -1527    488.88998    343.46852    243.10122    37655.765 
  298600    307.54316   -1530.7517    491.11848    339.12533   -53.070044    37655.765 
  298700    295.63254   -1517.4686    528.71479    336.60776   -590.51554    37655.765 
  298800     292.6981   -1493.2473    485.06992    304.02873   -189.63267    37655.765 
  298900    294.96826   -1473.4258    487.33606    336.29378   -308.33806    37655.765 
  299000     300.0396   -1504.7435    517.26409    357.63967   -267.79746    37655.765 
  299100    293.00901    -1542.581    472.44978    243.46865   -337.23876    37655.765 
  299200     294.2881   -1530.8954    480.44907    268.88793   -367.35508    37655.765 
  299300    300.74466   -1541.5843    472.87327    279.56887   -145.07492    37655.765 
  299400    306.84407   -1544.0855    486.91976    318.45868    31.049641    37655.765 
  299500    290.83626   -1521.0389    476.93532    259.75554   -27.208534    37655.765 
  299600    294.71134    -1551.426    489.34641    259.15213    209.12324    37655.765 
  299700     301.6792   -1553.9945    483.90396    282.37907   -385.22344    37655.765 
  299800    306.38768   -1505.2397     473.4512    341.78988    104.06992    37655.765 
  299900    304.34149   -1541.9209    460.10664    282.59073    119.48629    37655.765 
  300000    307.73619   -1593.8921    494.77083    280.50264    402.32332    37655.765 
  300100    306.34648   -1568.9672    502.48536    306.91184    591.34275    37655.765 
  300200    309.48552   -1561.7909    494.17442    319.84996    154.89736    37655.765 
  300300    305.54777    -1547.154    501.34854    324.00743    668.80008    37655.765 
  300400    298.93066   -1520.8684    483.97054     303.2496    447.90157    37655.765 
  300500    304.84962   -1579.2078     492.6513    280.12654    541.43577    37655.765 
  300600    307.57968   -1583.2562    474.76632    270.43241    1103.4111    37655.765 
  300700    302.30133   -1585.1259    476.22442    246.35715    752.28846    37655.765 
  300800    292.29572   -1605.2394    489.02152    194.18431    660.24988    37655.765 
  300900    302.67003   -1596.2895    465.16125    225.78334    328.89628    37655.765 
  301000    307.22353   -1618.4265    479.76423    238.66337    449.99756    37655.765 
  301100    298.68684   -1631.2941     489.5815    197.34187    415.01877    37655.765 
  301200    302.23178   -1573.0313    457.90407    239.81969    226.84045    37655.765 
  301300    295.02307   -1580.5455    501.27721    243.36093    445.15095    37655.765 
  301400    300.95632   -1612.3386    440.42552    177.31577    66.257308    37655.765 
  301500    304.91373   -1573.2947    483.82121    277.49694   -459.04544    37655.765 
  301600    301.95858   -1555.9794    474.55485    272.29756   -554.47926    37655.765 
  301700    302.89338   -1567.3487    483.90517    274.46939     818.1354    37655.765 
  301800    308.35899   -1564.3911    494.05759    312.08254     666.0851    37655.765 
  301900    304.20144   -1593.4409    463.95936    234.29561    658.56386    37655.765 
  302000    313.92511   -1568.6556    458.24586    296.95996    700.51376    37655.765 
  302100    300.82118   -1571.1064    500.07926    277.59584    395.38809    37655.765 
  302200    308.53228   -1561.9601    478.16606    299.39887    801.66835    37655.765 
  302300    300.72414   -1586.9635     477.8333    239.05768    255.18443    37655.765 
  302400    286.50361   -1558.4142    479.22312    205.24423    40.610596    37655.765 
  302500    311.93208   -1523.1819    491.74009     366.9929    239.58055    37655.765 
  302600    305.47793   -1554.1272    475.02699    290.39961    265.47538    37655.765 
  302700    291.49559   -1609.9919    491.88688    188.71001    26.802466    37655.765 
  302800    298.81143   -1558.7575    472.89454    253.75002    167.27251    37655.765 
  302900     298.4372   -1540.0921    481.49571    279.33887   -196.75855    37655.765 
  303000    305.24031   -1531.1648    490.96411    328.23379    141.99302    37655.765 
  303100    288.21206   -1547.2538    466.02624    210.86694    106.59665    37655.765 
  303200    306.37125   -1547.1173     481.4054    307.79276    139.52377    37655.765 
  303300    299.19315   -1509.7676    478.17733    309.73398   -136.71571    37655.765 
  303400    305.41172   -1528.5767    467.32821    307.95448   -351.41202    37655.765 
  303500    298.11408   -1559.8894    472.25216    248.84942    110.75128    37655.765 
  303600    298.53605   -1527.3703     485.2682     296.2763   -284.48483    37655.765 
  303700    303.88378   -1537.7447    476.45628    301.06462   -349.36269    37655.765 
  303800    309.02131   -1557.8991    453.91746    281.40366    189.46907    37655.765 
  303900    293.56495   -1541.0153    464.21293    239.28991    421.71106    37655.765 
  304000    310.89107    -1495.512     502.9797    401.23536    317.23163    37655.765 
  304100    288.67193   -1509.9732    482.05321    266.23621     784.5546    37655.765 
  304200    301.37242   -1547.7722    471.97312    275.29521    377.73029    37655.765 
  304300    304.24372   -1555.8655    465.95073    274.05192    323.80408    37655.765 
  304400    294.27324   -1561.8649    474.23792    231.64063    94.589067    37655.765 
  304500    300.20163   -1601.1479    472.85961     217.5571    262.32182    37655.765 
  304600    299.83272   -1572.4838    458.71784    230.42561    235.41507    37655.765 
  304700    311.76867   -1542.4294    474.19595    329.46864    597.15684    37655.765 
  304800    296.04369   -1588.0152     513.9973    253.18691    301.65957    37655.765 
  304900    296.39936   -1559.6944    459.47947    228.58434   -161.33368    37655.765 
  305000    295.29303   -1577.1358    475.07157    221.77528    33.569689    37655.765 
  305100    304.46955   -1628.0738    480.70346    217.60877    -183.5208    37655.765 
  305200    303.50384   -1614.0012      457.285    203.93348    242.27762    37655.765 
  305300    294.55894    -1528.522    488.45049    280.47691   -273.70919    37655.765 
  305400    306.43988   -1523.7907     465.6568    315.67853   -484.26302    37655.765 
  305500    304.98877   -1509.7761     468.4523    325.98305    -34.64377    37655.765 
  305600    306.42371   -1504.5885    479.94519    349.09653    198.30616    37655.765 
  305700    303.23035   -1538.7826    448.17289    268.81383    293.90335    37655.765 
  305800    305.68838   -1533.4756    487.55993    324.52759    81.109863    37655.765 
  305900    291.74246   -1531.7466    484.92653    261.10175     703.7885    37655.765 
  306000    303.68527    -1529.419    485.94781    317.99183    143.82688    37655.765 
  306100    294.57567   -1480.6121    491.88003    331.89134    42.054068    37655.765 
  306200    302.44642    -1487.522    472.92196    341.30913   -209.37753    37655.765 
  306300    302.57102   -1491.2047    484.31977    349.58279    -368.8603    37655.765 
  306400     297.9469   -1479.2233    529.15822    385.67206   -324.50159    37655.765 
  306500    303.03513   -1510.5309    519.47528    367.49285   -591.96793    37655.765 
  306600    296.41482   -1492.1984    515.25811    351.92838   -175.24543    37655.765 
  306700    303.37803   -1495.5815    481.81047    346.31462    108.98497    37655.765 
  306800    298.27414   -1473.2878    488.46095    352.37742   -560.73555    37655.765 
  306900    292.96831   -1511.9943    490.30447    291.72769    154.63857    37655.765 
  307000    302.45381   -1519.3864    496.43525    332.99114    583.05811    37655.765 
  307100    294.96922   -1512.8044    463.25946    272.84287    185.05279    37655.765 
  307200    302.60383   -1483.6593     513.5988    386.55438    362.04826    37655.765 
  307300    316.88702   -1535.9847    487.23706    371.90074    811.02692    37655.765 
  307400    299.88726   -1511.8588    525.80212    358.37943    764.43994    37655.765 
  307500    301.82082   -1534.2838    480.76022     299.5809    577.95117    37655.765 
  307600    297.89292   -1506.3737    485.50611    314.62763    160.46609    37655.765 
  307700    307.09732   -1495.5444    511.15564    392.37101    316.17039    37655.765 
  307800    300.96319   -1500.0489    491.86246    341.07311   -58.673822    37655.765 
  307900     301.1721   -1537.8746    469.45161    281.77322    608.06064    37655.765 
  308000    297.96593   -1493.8597     502.6001     344.5629    201.61439    37655.765 
  308100    289.82129   -1530.5323    474.53889    243.31548    -185.4416    37655.765 
  308200    305.77122   -1514.1819    478.18988    334.82263   -214.47325    37655.765 
  308300    305.95702   -1569.8968    475.35356    277.10437   -815.57105    37655.765 
  308400    293.55717   -1558.2632    444.37706    202.17126   -1103.1077    37655.765 
  308500    303.28093   -1514.3804    485.35609    330.62602   -633.16654    37655.765 
  308600    294.70804   -1531.6593    467.29573    256.85334   -393.25535    37655.765 
  308700    290.50673   -1515.0286    472.25363    259.60688   -329.38585    37655.765 
  308800     302.5482   -1506.4569    485.02538     334.9339    131.03211    37655.765 
  308900    293.31193   -1535.7692    481.82569    261.01442    273.95577    37655.765 
  309000    298.78222    -1536.891    452.94262     255.5336   -19.783781    37655.765 
  309100    307.59837   -1498.6784    510.47729    390.80492   -278.87651    37655.765 
  309200    298.87667   -1504.6719    472.31365    307.54721   -519.38275    37655.765 
  309300    305.69541   -1547.8001    503.31536    325.99009    98.796091    37655.765 
  309400    301.97839   -1498.9432    496.67635    351.54402    408.22125    37655.765 
  309500    304.49359    -1523.879    481.77801    322.98591    235.38178    37655.765 
  309600    296.58742   -1514.4608    490.62818    305.80979    31.723927    37655.765 
  309700    305.69998    -1541.477    444.64154     273.6598   -68.262022    37655.765 
  309800    308.74852   -1514.9721    488.21098    357.40121    294.24982    37655.765 
  309900     293.0046   -1526.5638    495.75225    282.76865    208.76303    37655.765 
  310000     293.8592   -1579.4044    452.14927    190.15629   -88.365304    37655.765 
  310100    294.08075   -1525.1862      471.599    264.81749   -117.31447    37655.765 
  310200    298.55875   -1495.7705    485.81767    328.52738    618.89879    37655.765 
  310300    290.21314   -1495.3373    489.14139    294.86972    93.641866    37655.765 
  310400    299.10984    -1496.052    452.47754    297.37633    208.00033    37655.765 
  310500    294.02001    -1483.287    468.42163    303.26701   -353.36347    37655.765 
  310600    289.62091   -1486.0702    500.72074    313.06109    213.76068    37655.765 
  310700    295.68372   -1488.4751    491.57059    328.68649   -121.92645    37655.765 
  310800    304.08938   -1543.7455    474.23794    293.76715    543.28594    37655.765 
  310900    289.84256    -1515.076     499.3886    283.71689     166.4238    37655.765 
  311000    302.18116   -1498.3521    513.39178    369.75959   -17.531372    37655.765 
  311100    297.24602   -1480.7333      473.387    325.24871   -319.23845    37655.765 
  311200    303.32391   -1523.0416    458.30906    295.11053   -785.16415    37655.765 
  311300    303.23932   -1503.0688    484.15609    340.55114   -619.05211    37655.765 
  311400    304.17232   -1540.7091     476.0543    298.99179    106.19513    37655.765 
  311500    298.68637   -1468.8553    481.44178    351.63875     186.8378    37655.765 
  311600     288.4572   -1468.4555    500.31178     325.0498    41.117225    37655.765 
  311700    297.82682   -1478.3251    508.10016    364.97385    241.18515    37655.765 
  311800    303.00069   -1479.5122    489.03673    367.91856    287.95407    37655.765 
  311900    291.57943   -1508.8875    492.91014     291.2136     306.7696    37655.765 
  312000    300.69109   -1521.7414    472.83584    299.13415   -336.00327    37655.765 
  312100    306.44186   -1522.8889    489.90737     340.8397    180.28685    37655.765 
  312200    296.53266   -1529.2352    445.75481    245.91656   -36.611352    37655.765 
  312300    306.77987    -1506.695    472.51382    341.15542   -569.84256    37655.765 
  312400    298.25821   -1512.9196    466.64046    290.85366   -636.11716    37655.765 
  312500    301.41007   -1509.4294    485.03355     326.8672   -861.13514    37655.765 
  312600    290.81061   -1510.7672     493.6419    286.61889   -179.79451    37655.765 
  312700    303.19858   -1535.2126     474.0663    298.13487    -26.87889    37655.765 
  312800    300.37731   -1536.8568    503.25986    313.03604   -46.391568    37655.765 
  312900    290.04225   -1498.9369    480.69751    282.06014   -453.64126    37655.765 
  313000    302.55867   -1476.1977    499.27012    379.48479    225.09516    37655.765 
  313100    294.86415   -1495.4455     460.5032    286.97448    137.99719    37655.765 
  313200    292.39943   -1505.8112    482.07517    287.13103     1.862215    37655.765 
  313300    303.90059   -1495.4758    495.90265    362.85521   -67.837055    37655.765 
  313400    295.22844    -1510.137     450.3999    263.81278    165.10861    37655.765 
  313500    306.07365   -1503.4596    485.85277    354.56368   -96.310119    37655.765 
  313600    295.72705   -1509.1501    477.32042    293.95556   -203.47176    37655.765 
  313700    295.59874   -1501.3687    489.82702    313.66838   -240.65545    37655.765 
  313800     313.0173   -1517.6521    481.17369    366.82147   -394.92284    37655.765 
  313900      311.792   -1532.0676    468.88533    334.62435   -254.97701    37655.765 
  314000    287.59261   -1494.4429    496.87707    291.75168   -141.37147    37655.765 
  314100    311.27117   -1511.6701    470.33875    354.14034     -741.719    37655.765 
  314200    297.80785   -1521.2749    475.25198    289.09087   -364.67248    37655.765 
  314300    294.35937   -1502.6714    469.88925    286.87161    60.800658    37655.765 
  314400    307.84877   -1464.2274    477.88501    393.78622   -204.52565    37655.765 
  314500    293.08227   -1501.5476     484.1244    296.50513   -425.13975    37655.765 
  314600    310.63897   -1557.3093    463.41151    298.73967    42.592576    37655.765 
  314700    301.46422   -1531.3939    497.47449    317.58644    19.682982    37655.765 
  314800    293.22656   -1546.6047    488.88142    256.85193    786.53088    37655.765 
  314900    316.47159   -1553.5827    468.49512     333.6983    720.16183    37655.765 
  315000    300.67207   -1513.2467    483.25235    317.96018   -175.78304    37655.765 
  315100    299.54509   -1531.8111    491.03677    302.12774    23.053561    37655.765 
  315200    305.64633   -1525.8334    489.19302    333.61443     288.0557    37655.765 
  315300    300.20038   -1527.1687     468.9867    287.65785   -640.51032    37655.765 
  315400    301.27421    -1505.727    471.52282    316.44981   -583.54012    37655.765 
  315500    301.08851   -1540.2387    492.11941     301.7021   -631.68284    37655.765 
  315600    289.53934   -1539.2912     472.0786    230.83228   -155.89271    37655.765 
  315700    298.25562   -1544.6872     495.2928    287.72686    170.87324    37655.765 
  315800    295.41585   -1534.7228    528.99472    318.66206    349.43538    37655.765 
  315900    307.83891    -1548.363    504.56505     336.2865    462.53609    37655.765 
  316000    299.55889   -1543.4066    472.04807    271.60544    770.57344    37655.765 
  316100    298.69259   -1566.4751    536.88821    309.49336    331.96189    37655.765 
  316200    308.09184   -1539.9936    468.71819    309.94296    381.50966    37655.765 
  316300    301.46531   -1572.6668    483.24185    262.08572    95.027512    37655.765 
  316400     294.9889   -1612.0082    442.89002    153.35789   -111.90073    37655.765 
  316500    310.55248   -1576.5976      464.939    280.59114   -246.88522    37655.765 
  316600    300.74318   -1559.6418    478.52708    267.15853    387.79715    37655.765 
  316700    298.54514   -1527.3342    497.78931    308.87424    246.30246    37655.765 
  316800    308.65434   -1550.8402    493.95606    326.85592    319.85941    37655.765 
  316900    297.22459   -1541.4052     472.8309    263.92465    77.051167    37655.765 
  317000    297.86867   -1524.3579    495.68368     306.7123   -363.80295    37655.765 
  317100    300.52368   -1547.6188     492.5924    292.26289   -8.7470863    37655.765 
  317200    296.62681   -1554.7885    474.33303    249.36355   -578.47568    37655.765 
  317300    300.11478   -1534.4931    526.10574     337.0687    224.26037    37655.765 
  317400    303.18267   -1531.6956    486.10875    313.62301    258.49927    37655.765 
  317500    291.13921   -1551.4261    505.65828    259.44952    794.13985    37655.765 
  317600    300.70981   -1553.5146    489.69184    284.30088    726.98697    37655.765 
  317700    291.54653    -1554.607    478.90183    231.33826    96.137006    37655.765 
  317800    304.89989   -1580.0384    496.26441    283.13434   -137.18164    37655.765 
  317900    297.53483   -1569.3836    502.46219    266.96836   -44.846385    37655.765 
  318000    300.61746   -1587.3185    474.10248    234.49363   -215.05264    37655.765 
  318100    300.82144   -1553.5684    476.64587    271.70161   -25.994256    37655.765 
  318200    294.94933   -1592.6766    465.15057    194.77258    19.944997    37655.765 
  318300    304.83992   -1596.6936    488.32194    258.26784   -64.640039    37655.765 
  318400    297.83225   -1596.8229    471.99623    210.39647    -6.472767    37655.765 
  318500    301.04364   -1558.0091    492.20867    283.81982    162.82732    37655.765 
  318600    299.09853   -1531.7186    505.37383    314.55529   -211.06996    37655.765 
  318700    301.34413   -1536.1761    496.34444    311.13573   -810.69041    37655.765 
  318800    297.37322   -1516.2377    502.91347     319.8411   -736.13087    37655.765 
  318900     311.8778   -1502.3917    500.94016    396.73982   -629.13941    37655.765 
  319000    301.80348   -1508.7319    507.68474    351.97958   -163.88738    37655.765 
  319100    303.43511   -1532.0643    493.78323    322.06055   -600.83787    37655.765 
  319200    310.37267    -1538.615    515.52021    368.34889    71.299053    37655.765 
  319300    310.22633    -1563.079    492.97689    320.68539   -8.0093105    37655.765 
  319400    295.30209   -1566.3541    484.26822    241.79419   -98.185981    37655.765 
  319500    305.16099   -1515.3878    496.02908    348.72022   -466.49867    37655.765 
  319600    304.39163   -1531.6791    474.97518    307.92583    19.952313    37655.765 
  319700    293.60387   -1560.1857    512.42668     268.5077   -172.12139    37655.765 
  319800    300.18199   -1514.8584     476.8441    307.74307   -37.582149    37655.765 
  319900     306.8854   -1595.8797    506.72056    286.65053    188.59417    37655.765 
  320000    301.35377   -1597.6289    510.59556    263.97734    584.36647    37655.765 
  320100    306.80392   -1574.6253    483.01893    283.83805   -71.336981    37655.765 
  320200    294.33754   -1567.5591     515.7223    267.71912   -313.48636    37655.765 
  320300    283.50705   -1561.8625     485.7665    194.90533   -5.4707634    37655.765 
  320400    293.88025   -1563.9382    466.29753    219.86516    321.83561    37655.765 
  320500    298.47648    -1577.916    501.71194    261.90722    333.56683    37655.765 
  320600     303.3835   -1607.2956    506.61002    259.42458    169.91239    37655.765 
  320700    309.89661   -1576.0228    488.50816    301.79469    576.74441    37655.765 
  320800    301.18272   -1581.1593     464.1956    233.28013    365.49009    37655.765 
  320900    304.88907   -1539.0599     516.5544     344.3544   -125.21019    37655.765 
  321000    301.71396    -1573.688    461.21182    240.14923    94.035821    37655.765 
  321100    298.97477   -1560.0133    498.60513    278.93708   -420.88382    37655.765 
  321200    289.73599   -1541.1076    457.98405    215.80297   -232.67086    37655.765 
  321300    302.80039   -1541.1025    520.88961    337.28312   -579.84296    37655.765 
  321400    305.09766   -1556.4967    488.21887    299.51718   -719.12014    37655.765 
  321500    305.89428   -1575.8998    487.72208    283.18869   -144.91216    37655.765 
  321600    299.48879    -1572.321    467.92837    238.25701   -421.65827    37655.765 
  321700    301.18088   -1529.9454    494.69481    314.98493    155.24867    37655.765 
  321800    296.30157   -1552.2495    507.47483    283.58627    257.38008    37655.765 
  321900    315.91099   -1539.7594    486.71161    363.22489    282.61884    37655.765 
  322000     297.9733   -1518.0602    519.21075    337.00608    77.967073    37655.765 
  322100    300.60134   -1543.5417    483.85767    287.95333    2.1903854    37655.765 
  322200    298.33021   -1534.5972    488.04352    290.90188   -936.76219    37655.765 
  322300    290.57701    -1538.824    467.76804    231.64099    -702.9343    37655.765 
  322400    302.92484   -1548.4215    501.67179     311.3042   -390.45567    37655.765 
  322500    306.29323   -1566.5875    471.44032    278.00772   -773.31606    37655.765 
  322600    297.16335   -1530.4431    472.60347    274.38481   -139.03418    37655.765 
  322700     298.4999   -1557.1894    487.81036    268.83726   -221.05632    37655.765 
  322800    305.85835   -1553.5522    488.20666     305.8597   -166.32773    37655.765 
  322900    305.39769   -1578.1094    472.29624    263.32699     523.2249    37655.765 
  323000     300.4298   -1529.7684    516.49493     333.5949    175.77187    37655.765 
  323100    296.84101   -1552.1738    490.30323    268.90876    26.473971    37655.765 
  323200    306.59138   -1553.4234    497.85748    318.92562     367.6048    37655.765 
  323300       300.97   -1561.4742    514.67373    302.48963    329.01162    37655.765 
  323400    304.32412   -1566.0596    466.93123    265.19878   -201.29762    37655.765 
  323500    312.18039   -1588.2734    505.51283    316.78724    223.82418    37655.765 
  323600    306.37673   -1564.7256    479.23148    288.03516   -56.715966    37655.765 
  323700    304.83633   -1532.1022    482.86559    317.38681    466.83861    37655.765 
  323800    301.07769   -1534.3282    469.19962    284.64438   -330.99113    37655.765 
  323900    305.90419   -1493.0467    507.94849    386.31258   -203.83675    37655.765 
  324000    302.64775   -1537.9237    487.50099    306.38901   -127.05649    37655.765 
  324100    298.77524   -1509.4214    527.77641    357.80573    108.00491    37655.765 
  324200    291.24824   -1576.1971    455.80254    185.31156    694.18989    37655.765 
  324300    302.51639   -1553.1468      465.113    268.18906    351.22913    37655.765 
  324400    299.91861   -1566.0759     496.5645    275.06522    323.96264    37655.765 
  324500    308.59207   -1592.5211    472.90678    263.84661    257.61356    37655.765 
  324600    294.91424   -1543.4011    501.69751    280.43768    607.65241    37655.765 
  324700     297.5278   -1528.1538    493.03868    298.74319   -86.257326    37655.765 
  324800    303.58248   -1556.7692    491.47171    295.70481    312.91149    37655.765 
  324900    303.56065    -1535.188     506.3165    332.03284   -196.23508    37655.765 
  325000    300.08177    -1560.552    510.74757     295.5036    3.1089153    37655.765 
  325100    307.85057   -1588.7263    482.98362    274.39401     95.53825    37655.765 
  325200    300.87396    -1594.963    515.39082    269.28743     286.8778    37655.765 
  325300    297.24461   -1605.4792    467.44548    194.55495    315.45094    37655.765 
  325400    292.85185   -1606.2165    480.78715    187.46605    409.69272    37655.765 
  325500    293.14651   -1620.5251     471.2401    164.93132    625.76859    37655.765 
  325600    296.07656    -1596.579    514.87683    245.64998   -10.572535    37655.765 
  325700    306.39419   -1609.4305    498.76101    262.93802    711.13335    37655.765 
  325800    309.20082   -1625.3634    492.88876    253.71539   -61.492441    37655.765 
  325900    294.15863   -1621.3858    489.88641     187.2544    107.46483    37655.765 
  326000    304.01917    -1636.337    465.40874    192.03177   -379.94157    37655.765 
  326100    300.40944   -1623.5112    476.31102    199.57691   -499.63582    37655.765 
  326200    296.06216   -1656.2995    514.87987    185.86795   -235.49681    37655.765 
  326300    293.50253   -1626.2321    489.72114     179.3015   -547.92566    37655.765 
  326400    308.41722   -1590.8605    501.49851    293.31508    -43.49154    37655.765 
  326500    307.38881   -1611.6185    500.25203    266.70009    115.07094    37655.765 
  326600    298.50404   -1565.2313    487.04803    260.05166    133.44046    37655.765 
  326700    306.15726   -1618.4723    496.23183     250.3049    254.58867    37655.765 
  326800    291.48254   -1659.7435    489.33091    136.34393    357.35418    37655.765 
  326900    297.38795   -1599.2723    504.73016    238.68922    288.97098    37655.765 
  327000    297.09538   -1583.3872    526.62887    275.16135   -84.829788    37655.765 
  327100    294.23713   -1639.2737    491.55006    171.38212   -380.75182    37655.765 
  327200    289.46384   -1582.4275    499.49067    214.76957   -230.87422    37655.765 
  327300    297.88136   -1517.9236    498.39279    315.91255   -731.51029    37655.765 
  327400    298.61646   -1538.0978    535.81331    336.45444   -835.66703    37655.765 
  327500    297.31654   -1563.6015    508.01558    277.32525   -896.71193    37655.765 
  327600    300.46525   -1582.8946    505.80635    269.93901    171.50872    37655.765 
  327700    303.17415     -1611.43    502.66566    250.40729    401.76975    37655.765 
  327800    304.88612   -1597.0538    494.92336    264.71626    319.58281    37655.765 
  327900    303.23189   -1601.8065     475.9453    233.56928    21.022045    37655.765 
  328000     299.6735   -1604.3584    493.27985    232.39916    266.81678    37655.765 
  328100    299.22101   -1601.1167    496.74798    237.08049   -242.43734    37655.765 
  328200    310.83469    -1584.347    506.44262    315.61057    -158.3749    37655.765 
  328300    294.22163   -1603.0742    465.94819    181.91023   -361.31247    37655.765 
  328400    316.02682      -1589.5    498.75345    326.04541   -210.40892    37655.765 
  328500    299.33964   -1642.0776    479.46516    179.36854   -6.6478818    37655.765 
  328600    293.86216   -1645.3225    467.33146    139.43362    243.49132    37655.765 
  328700    300.89079   -1667.0501    485.57464     167.4595    205.03414    37655.765 
  328800    308.26342   -1623.0947    480.55086    239.44368   -426.40404    37655.765 
  328900    295.55683   -1632.8668    470.90723    163.06257   -660.36018    37655.765 
  329000    295.84142   -1596.1581    465.11277    195.25269   -129.52836    37655.765 
  329100    298.76571    -1614.867    497.20732    221.74838   -444.54158    37655.765 
  329200    303.83826   -1602.2303    483.97577    243.89436   -64.254019    37655.765 
  329300    298.05534   -1589.2809     499.8456    246.78802   -340.17921    37655.765 
  329400    299.26798   -1592.1376    488.26307    237.78521    235.37111    37655.765 
  329500     303.9866     -1549.87    511.58168    324.52564   -444.20203    37655.765 
  329600    306.07701   -1569.8724    479.39236    281.70555    358.04637    37655.765 
  329700    305.09425   -1554.1826    478.14432    291.74147    19.063886    37655.765 
  329800    294.30736   -1560.2439    498.32349    257.50019    174.43613    37655.765 
  329900    294.54689   -1599.9232    484.14369    204.71498   -203.95581    37655.765 
  330000    293.21591   -1586.6127    487.86406    215.77887    245.65422    37655.765 
  330100    302.15014   -1552.2086    493.73941    296.11165    293.95262    37655.765 
  330200    302.53535   -1556.6025    490.79526     290.5006   -33.789192    37655.765 
  330300    309.48824   -1569.5518    536.11292    354.03974    186.46939    37655.765 
  330400    282.11941   -1541.9634    472.51773    195.33466    339.85762    37655.765 
  330500    313.83806   -1566.4749     509.9622    350.46676    261.19223    37655.765 
  330600    304.95239   -1537.6101    496.11167    325.64532    553.88941    37655.765 
  330700    295.64826   -1559.5962    490.82371    256.65955    105.92403    37655.765 
  330800    299.64165   -1554.7547    497.03139    285.61158   -194.67497    37655.765 
  330900    296.58487    -1579.751    478.71886    228.59891   -289.82912    37655.765 
  331000    300.32746   -1560.6747    504.01749    289.75227    26.990301    37655.765 
  331100    290.84814   -1557.7285    513.71277    259.89676    81.692613    37655.765 
  331200    294.83062   -1547.5977    508.44055    282.60935    -163.3062    37655.765 
  331300    294.68988   -1567.7146    503.90922     257.3301    787.61113    37655.765 
  331400    297.33001   -1537.6628    512.58102    307.88973   -372.55716    37655.765 
  331500    298.17744   -1528.8531     512.2656    320.18324    437.78394    37655.765 
  331600    308.97532   -1565.6161    500.42344    319.98647    156.62641    37655.765 
  331700    299.34965   -1539.8567    505.67468    307.84387   -152.59484    37655.765 
  331800     283.3656   -1547.8898    493.25211    215.72947    67.013982    37655.765 
  331900     303.3009   -1561.7255    522.53655    320.55094   -515.53378    37655.765 
  332000    292.28792   -1553.6522    484.23847    240.95348   -220.44137    37655.765 
  332100    294.72997   -1597.1525    521.05471    245.21746     40.24091    37655.765 
  332200    302.28431   -1554.4525     523.0996    323.82941   -185.15687    37655.765 
  332300    293.08725   -1542.7272    506.90302    278.12653   -628.95232    37655.765 
  332400    298.54825   -1574.2145    499.32295    263.54155    -844.2117    37655.765 
  332500    298.96844   -1613.1968    493.40569    220.52574   -286.15318    37655.765 
  332600    306.99932   -1589.8406    528.04732    314.52715   -475.93416    37655.765 
  332700    296.93612   -1590.1703    488.82443    229.85982    -535.2953    37655.765 
  332800    304.31516   -1602.0578    494.50596    256.73506   -44.333783    37655.765 
  332900    299.53353   -1607.5413    502.06501    237.37398   -1062.8333    37655.765 
  333000    292.55547   -1608.5883    486.33672    189.31504   -820.70313    37655.765 
  333100    303.86805   -1615.1015    491.77115    238.95214   -388.28107    37655.765 
  333200    299.99311   -1608.1307    501.12021    237.90011   -153.68091    37655.765 
  333300      302.205    -1599.973    491.02237     245.8762    -39.95052    37655.765 
  333400    300.05976   -1568.6448     493.9936    270.55821    625.46078    37655.765 
  333500    296.99625   -1542.8303    521.51638    310.16134    642.26658    37655.765 
  333600    306.00714   -1596.1436    487.56489    263.29365    643.03884    37655.765 
  333700    308.14312   -1600.2959    536.13467    317.28705    994.62326    37655.765 
  333800    273.06889    -1564.802    499.60523    159.00881    407.82823    37655.765 
  333900    294.62184    -1593.915    495.15909    222.07456    374.45048    37655.765 
  334000    309.48225   -1591.0702    501.32454    297.70606    476.60881    37655.765 
  334100      290.407   -1621.8267    499.17023    179.27833    396.34355    37655.765 
  334200     311.6853    -1597.978    499.32915    298.67941   -359.04746    37655.765 
  334300    303.84314    -1581.121    489.72529    270.77511   -91.989423    37655.765 
  334400    300.60075   -1619.6715    487.16174    215.12492    -0.200942    37655.765 
  334500    307.13813   -1572.1414    530.88021    335.68151    564.03958    37655.765 
  334600    293.46071   -1572.9791    502.60788    245.25372    46.053167    37655.765 
  334700     301.3494   -1558.7467    552.45885    344.70321    388.06406    37655.765 
  334800    302.95095   -1566.4626     510.3348    302.04322    882.63124    37655.765 
  334900    309.39124   -1583.6121    507.56384    310.99546    430.97714    37655.765 
  335000    294.46442   -1581.7786    493.18896    231.53507    708.84666    37655.765 
  335100    300.57705   -1601.0762    525.12595    271.57826    697.33764    37655.765 
  335200    305.11328   -1638.2382    507.29624    236.92312    515.00184    37655.765 
  335300    304.26988   -1576.1033    512.48138    300.46201    346.83873    37655.765 
  335400    292.04203   -1638.4311    502.74551    173.57927   -528.79491    37655.765 
  335500    295.61375   -1616.7052    498.24598     206.8181   -176.94366    37655.765 
  335600    305.05843    -1610.475     518.9354    276.07955    493.30355    37655.765 
  335700    301.36996   -1612.6353    517.67535    256.12328    170.86061    37655.765 
  335800    299.70169   -1645.9255    499.39706    197.07569    510.50077    37655.765 
  335900    298.51668   -1649.1865    503.58062    192.68568    152.29295    37655.765 
  336000    304.08107   -1600.5738    527.95908    290.62278   -630.04728    37655.765 
  336100    294.92937   -1613.6914    482.26154    190.77924    -126.7376    37655.765 
  336200    300.84134    -1618.887    506.45335     236.2797   -83.206095    37655.765 
  336300    292.16427   -1653.5856    495.16833    151.39562   -241.67597    37655.765 
  336400    293.41682   -1655.5116    493.18071    153.09734    279.28857    37655.765 
  336500    306.62735   -1655.1246     519.3519     238.8801    2.7975968    37655.765 
  336600    304.46729   -1603.5868    511.19108    272.57325    109.16389    37655.765 
  336700    292.85098   -1603.6689    497.51439    206.73694    71.805833    37655.765 
  336800    293.59646   -1603.7399    508.77683     221.2705   -737.55641    37655.765 
  336900    289.46085   -1608.2771    524.30036    213.71633   -180.26188    37655.765 
  337000    297.83471   -1615.7083    527.10329    246.62921   -263.91631    37655.765 
  337100    308.42167   -1603.3827    506.41843    285.73275   -62.005673    37655.765 
  337200    294.09799   -1594.7332    513.62709    237.37589     -37.4982    37655.765 
  337300    306.44161   -1608.5071    494.67828    259.99128   -434.63883    37655.765 
  337400    303.27585   -1594.9974    533.33516    297.96537   -154.34784    37655.765 
  337500    302.72293   -1589.4959    495.50076    263.15368    -479.5104    37655.765 
  337600    298.86603   -1605.6168    493.66267    227.90362   -987.80598    37655.765 
  337700    311.72938   -1653.5708    499.01557    242.97063    83.038445    37655.765 
  337800    289.26088   -1631.5369    496.64492    161.90459   -192.42381    37655.765 
  337900    302.46771   -1609.0721    492.05583    238.98826    304.36505    37655.765 
  338000    297.25991     -1628.27    506.42764    210.81496   -229.07005    37655.765 
  338100    299.82708   -1585.1062    509.72193      268.782   -345.68905    37655.765 
  338200    305.10235    -1644.959    490.52098    213.37804   -528.04573    37655.765 
  338300    313.38644   -1598.0597    523.28318    330.17824   -162.87333    37655.765 
  338400    290.43022   -1586.4431    531.46166    247.05742    6.4990832    37655.765 
  338500    284.61608   -1600.5862      486.404    161.79104   -586.06761    37655.765 
  338600    299.54472   -1615.9961    499.98246    226.88677    13.777838    37655.765 
  338700    304.62207   -1582.9054    511.90882    294.66631    259.51449    37655.765 
  338800    303.66151   -1595.5327     514.9705    280.79431    83.528149    37655.765 
  338900    303.95535   -1604.7149    499.57543    257.53434    724.83207    37655.765 
  339000    296.75935   -1647.0852    502.87369    186.20171    1036.8398    37655.765 
  339100    298.23941   -1633.8412     503.7221    206.92945    743.68407    37655.765 
  339200    300.13935   -1624.1045    500.48404    221.94575    731.46701    37655.765 
  339300    305.56885   -1607.6386    510.64597    272.91482    701.23863    37655.765 
  339400    295.11797   -1603.7804     490.4874    209.76171    702.41035    37655.765 
  339500    304.50906   -1628.4095     500.8074    237.55414    754.64756    37655.765 
  339600    299.74717   -1576.1363    504.51362    272.18529    205.98961    37655.765 
  339700    292.42102    -1623.993    514.78653    201.75735    622.97114    37655.765 
  339800    298.25463   -1642.8447    500.88937    195.16146    450.48967    37655.765 
  339900    301.49396   -1576.1284    514.96888     290.4796     1005.917    37655.765 
  340000    294.73202    -1608.972    489.21747    201.56986   -3.0079087    37655.765 
  340100    304.79973   -1591.0394    512.99014    288.41006     64.19977    37655.765 
  340200    296.24981   -1580.4347    478.90169    226.59585    255.23647    37655.765 
  340300    316.83027   -1569.6863    513.16513    363.87279    85.808587    37655.765 
  340400    294.46289   -1569.8509    504.15276     254.4197   -10.972643    37655.765 
  340500    304.76657   -1589.5669    489.67406     266.4178    129.74454    37655.765 
  340600    301.90212   -1572.8621    513.65289    294.25973    309.35395    37655.765 
  340700    298.69334    -1561.394    523.59225    301.28187    789.70694    37655.765 
  340800    297.05323   -1542.5497     493.3139    282.49494    696.22138    37655.765 
  340900    309.59702   -1529.2635    504.80843    363.51117      89.6573    37655.765 
  341000    294.81039   -1549.0515    512.74874      285.373    166.17917    37655.765 
  341100    306.69865   -1521.1198    540.74141    394.59403   -7.3261122    37655.765 
  341200      302.907   -1541.4887    481.11944    297.60468    663.70616    37655.765 
  341300    299.26244   -1545.3009    506.47485    302.80886   -10.966999    37655.765 
  341400    298.75524      -1555.6    505.60058    289.36163    134.69493    37655.765 
  341500    300.06269   -1556.5052    483.76082    272.47817    57.784634    37655.765 
  341600    298.91124   -1537.4152    505.37184    308.01703   -252.14419    37655.765 
  341700    295.03267   -1559.3136    473.29746    236.65609   -214.98933    37655.765 
  341800    290.07056   -1559.0208    523.53831    264.94392    -1005.289    37655.765 
  341900    295.92146   -1578.5455     473.6664    221.77769    345.83768    37655.765 
  342000    308.65091   -1576.4971    527.30483    334.53248   -435.42823    37655.765 
  342100    300.51804   -1529.6796    492.20305    309.78736   -560.14194    37655.765 
  342200    296.49186   -1574.1499      503.964    259.02814   -86.745696    37655.765 
  342300    300.18063   -1609.7193    482.01582    218.04781   -248.37159    37655.765 
  342400    290.11465   -1607.6203    494.29867    187.30247    408.19684    37655.765 
  342500    295.52153   -1590.5278    510.70644    245.04248    421.38555    37655.765 
  342600    302.16507   -1563.4801     474.3408    265.50849     874.1123    37655.765 
  342700    300.11617    -1603.813    503.75329    245.40264    64.847023    37655.765 
  342800    298.81356   -1600.8832    487.76913    226.50842    39.403083    37655.765 
  342900     300.4571   -1557.3664     515.5947    305.21905   -306.18283    37655.765 
  343000    302.80879   -1582.7948    494.33606    269.07493    142.70614    37655.765 
  343100    304.82835    -1578.875    507.84417    295.55686    85.043217    37655.765 
  343200    302.38232   -1598.9844    496.75298    253.39034    562.23587    37655.765 
  343300    305.56369   -1585.2278     504.7651    289.42163       312.32    37655.765 
  343400     298.4016   -1586.9015    486.44849    237.32265    72.980197    37655.765 
  343500    305.25629   -1575.0851    516.88168    310.30278    12.707244    37655.765 
  343600    304.92836   -1588.6192    479.99702    258.41386    106.87575    37655.765 
  343700    300.04664   -1545.8182    535.72057    335.05291   -571.27706    37655.765 
  343800    299.76887   -1514.7854    485.38607    314.50604   -444.72648    37655.765 
  343900    293.45097   -1555.5239    493.30926    253.36664   -722.35719    37655.765 
  344000     295.7447   -1580.5685    473.89366    219.18957   -1223.3486    37655.765 
  344100    293.97761   -1577.9438    491.03103     231.0295   -919.78791    37655.765 
  344200    298.53026   -1613.5293    474.77091    199.59407   -1037.1714    37655.765 
  344300    309.22775    -1599.194    500.19901    287.31578    -727.4924    37655.765 
  344400    297.75236   -1648.7487    463.95368    150.06999   -447.44813    37655.765 
  344500    307.07117   -1610.1494     484.2845    250.77766   -508.28258    37655.765 
  344600    300.35452   -1608.2046    520.35887    258.68509   -535.56463    37655.765 
  344700    290.92288   -1606.8559    460.79728    158.18888     -166.478    37655.765 
  344800    300.00269   -1551.1891    513.75393    307.51839   -292.32162    37655.765 
  344900    301.77874   -1588.0426    489.06342    253.93667   -178.09545    37655.765 
  345000    296.73177   -1596.6046    472.97256    206.65756   -697.14392    37655.765 
  345100    307.84965   -1592.7879    478.83981    266.18443     -411.059    37655.765 
  345200    309.24761   -1574.1896    501.07485     313.2851    64.891591    37655.765 
  345300    306.88041   -1587.1921     475.2815    263.87671    202.11754    37655.765 
  345400    303.55948    -1542.511    504.00697    322.39516    463.04433    37655.765 
  345500    309.75827   -1543.8704    498.42323    343.24201    251.61569    37655.765 
  345600    294.28969   -1552.1118     497.9577    265.18728    501.72646    37655.765 
  345700    298.53264   -1580.8049    494.63867    252.19694    367.54133    37655.765 
  345800    293.85284   -1539.3316    509.28153    287.33285   -324.91645    37655.765 
  345900    310.27567   -1569.4799    506.59205    328.12093   -424.69195    37655.765 
  346000    307.72386   -1573.2596    465.05208    271.36111   -434.50157    37655.765 
  346100    302.36516   -1564.9729    493.24343    283.81535   -524.04809    37655.765 
  346200    298.76423   -1548.7794    482.99666    273.61864     304.8943    37655.765 
  346300      302.083   -1535.3675      489.495    308.40738    19.273557    37655.765 
  346400    307.22392    -1584.978    467.25667    259.60597   -601.73338    37655.765 
  346500    297.58942   -1610.2665    466.50795    190.37602   -390.75095    37655.765 
  346600    310.62983   -1608.3876    497.58095    281.78983    192.11973    37655.765 
  346700     301.9779   -1619.4477    490.12344    224.48441    16.156089    37655.765 
  346800    304.40911   -1598.6948    471.23657    237.24996    728.45602    37655.765 
  346900    292.49621   -1613.8593    499.54117    196.98284    876.12651    37655.765 
  347000    303.33381   -1560.4287    479.35832    278.81706    369.14765    37655.765 
  347100    296.28148   -1555.8882    500.03765     272.4203    471.04421    37655.765 
  347200    294.22169   -1583.2371    499.42075    235.22019    313.18805    37655.765 
  347300    304.00791   -1540.9682    494.21633    316.15761   -378.41195    37655.765 
  347400    293.34655   -1561.0779    490.16209     244.1974    -89.66841    37655.765 
  347500    289.45403   -1581.4244    502.75679    218.99481    191.65118    37655.765 
  347600    293.07034   -1525.3246    514.55015    303.10037   -95.587965    37655.765 
  347700    293.51777   -1543.0205    495.11934    267.97962   -138.04342    37655.765 
  347800    305.73058   -1585.7928    497.82953    282.66916   -148.02607    37655.765 
  347900    296.52479   -1576.2919    462.16649    215.23618   -49.255331    37655.765 
  348000    295.12733   -1559.6352    502.59221    266.05371    491.72999    37655.765 
  348100    305.26869   -1558.3687    517.01568    327.20874    221.56155    37655.765 
  348200    297.92877   -1527.6331    498.69995    306.72268   -142.10642    37655.765 
  348300    308.66796   -1515.5826    513.98978     382.2084   -212.97109    37655.765 
  348400    300.59619   -1550.4598    485.68678    282.84128   -224.35045    37655.765 
  348500    284.99405   -1578.4813    508.76131    207.94775   -401.79349    37655.765 
  348600    299.62748   -1566.1252    512.43883    289.58511    158.89232    37655.765 
  348700    307.14558   -1580.2836       503.12    299.81252    715.94899    37655.765 
  348800    307.60156   -1623.4939    488.46577     243.9922    263.14146    37655.765 
  348900    309.63206   -1585.4403    471.62213    274.30516   -75.927375    37655.765 
  349000    304.33578   -1599.6934    469.91812    234.60413   -81.303501    37655.765 
  349100    303.69358     -1593.62    477.37984    245.26017   -421.28304    37655.765 
  349200    296.65741   -1577.0481    489.95787    242.86595    -341.0335    37655.765 
  349300    290.11474   -1581.5385    464.43532    183.52127   -29.338499    37655.765 
  349400     297.0751   -1575.7008     498.1961    254.32403   -66.348498    37655.765 
  349500    289.02343   -1559.0007    489.17606     225.9073   -123.89873    37655.765 
  349600     305.1098   -1575.7598    499.99001    292.07969     258.2413    37655.765 
  349700    296.86641   -1575.5287    482.27737    237.64182   -7.0990685    37655.765 
  349800    309.76149   -1567.0381    495.50308    317.16858    415.19935    37655.765 
  349900    308.33391   -1562.2117    472.83177    292.92363    505.47949    37655.765 
  350000    293.01113   -1606.5484    513.38467    220.44567    679.28084    37655.765 
  350100    295.34719   -1581.6425    500.48777    242.92754    548.32567    37655.765 
  350200    296.00737   -1604.0148    493.43161    216.45879   -105.04797    37655.765 
  350300    300.83316   -1572.7808    492.97642    268.87223   -188.21851    37655.765 
  350400    308.80182    -1535.128    501.56723    350.84047   -137.09866    37655.765 
  350500    305.72755   -1617.9103    488.06411    240.77272   -457.84877    37655.765 
  350600     300.9151   -1622.9956    484.13483     210.1832   -56.881035    37655.765 
  350700    293.49908   -1586.5904    475.09285    204.29943   -34.587665    37655.765 
  350800    293.86961   -1593.5749    480.21148    204.09469   -307.10281    37655.765 
  350900    295.76123   -1586.0675    515.81568    255.68666   -465.54371    37655.765 
  351000    300.50063   -1571.2196    472.04137    248.00763   -332.03585    37655.765 
  351100    292.85844   -1625.1356    495.90691    183.69621    8.8069476    37655.765 
  351200    297.25285   -1600.2188    486.20187    218.60872    185.96858    37655.765 
  351300    312.35141   -1571.3093    480.32848    309.33377    384.79401    37655.765 
  351400    298.44976   -1603.8632    486.26125    220.38962    533.57307    37655.765 
  351500    299.67847   -1588.1775     472.9839    228.30639    313.72059    37655.765 
  351600     298.6131   -1597.7953    506.46376    247.39225    153.48137    37655.765 
  351700    299.05112   -1601.6703    481.60501    220.62218    505.03041    37655.765 
  351800    312.99734   -1617.2962    481.93112    267.84532    61.878423    37655.765 
  351900    298.74957   -1608.7824    482.63487    213.18811    224.46332    37655.765 
  352000    293.27468   -1586.1359    473.06982    201.72486   -685.36423    37655.765 
  352100    302.44171   -1618.4908    480.37367    217.77088   -19.869401    37655.765 
  352200    294.08264   -1585.6219    529.11891    261.91019    153.09024    37655.765 
  352300     311.4749   -1546.9974    491.79213    341.17983    526.09491    37655.765 
  352400    293.99737   -1584.8822    478.84377    211.99239    360.45029    37655.765 
  352500    298.80049   -1558.2384    520.54427    301.86974    480.54302    37655.765 
  352600    299.73769   -1593.5956    507.53755    257.70748    586.31109    37655.765 
  352700    299.35387   -1633.4862    483.14215    191.70071    472.49471    37655.765 
  352800    312.18594   -1628.7262    488.55992    259.40649    285.60019    37655.765 
  352900    306.43047   -1571.4066    520.25944    322.62309    596.15729    37655.765 
  353000    304.92214   -1613.3341    498.44677    252.12076    406.80207    37655.765 
  353100    291.64347    -1574.724    495.52525    228.27929   -273.70235    37655.765 
  353200    308.53145   -1590.3731    495.50778    288.32388    181.65042    37655.765 
  353300    302.85263   -1580.0471    477.08596    254.76912   -282.76319    37655.765 
  353400    308.61507   -1600.1764    503.02579    286.41343   -325.08634    37655.765 
  353500    314.18116   -1622.4504    485.85658    271.92378   -62.362361    37655.765 
  353600    297.89229   -1613.3535    494.80852    216.94739   -163.56344    37655.765 
  353700    293.13556   -1598.4933    479.55799    195.23199   -294.12587    37655.765 
  353800    295.71701   -1627.3026    500.52708    198.96469    149.52839    37655.765 
  353900    292.58027   -1611.6212    495.07711    195.13372   -22.566348    37655.765 
  354000    301.14304   -1614.9762    501.28096    236.37063    556.00086    37655.765 
  354100    306.30013   -1599.3917    500.26262    274.05682    -140.3373    37655.765 
  354200    294.54416   -1649.7234    465.60896    136.36776   -161.13081    37655.765 
  354300     307.5032   -1626.2233    486.21764     238.5737   -569.37821    37655.765 
  354400    297.22328   -1628.5055    486.17777    190.16534    166.24133    37655.765 
  354500    306.84975   -1624.3436    522.06582    273.37208    461.83817    37655.765 
  354600    300.59522   -1612.2487    489.04008    224.40136    195.94137    37655.765 
  354700    303.14087   -1563.4901    511.79213    307.32447    453.12099    37655.765 
  354800    305.08868   -1557.4116    473.83009    284.17319    463.68543    37655.765 
  354900    296.61838   -1539.8514    515.86593    305.79577   -440.91135    37655.765 
  355000    298.51768    -1562.478    507.35071    283.16875   -501.16438    37655.765 
  355100    299.56935   -1559.0271    492.25815    276.24192   -205.85279    37655.765 
  355200    300.30817   -1561.4143    517.27982    302.18861   -103.09167    37655.765 
  355300    298.34437    -1594.075    506.67689    250.12094    144.42908    37655.765 
  355400    302.36211   -1593.7912    508.16289    269.90281    705.15024    37655.765 
  355500    303.60145   -1586.6949    533.40049    307.79283    583.09711    37655.765 
  355600    307.83225   -1555.8125    514.95572    339.19774     889.9719    37655.765 
  355700    300.43026   -1604.4713    487.18238    229.58152    690.93985    37655.765 
  355800    300.86421   -1571.8299    495.01775    272.00371    603.25048    37655.765 
  355900    305.79464   -1575.7351    496.69944    291.88397    511.21201    37655.765 
  356000    288.41598   -1574.7791    499.05439    217.28406    600.76556    37655.765 
  356100     304.6924   -1611.4775    515.41828    269.91897    241.88394    37655.765 
  356200    308.54946   -1629.5015    493.20494    246.97337    354.80961    37655.765 
  356300    298.30146   -1609.2413    510.09304    238.17845     13.67705    37655.765 
  356400    302.77831   -1607.9347    485.09305    234.55536   -244.43467    37655.765 
  356500    280.61307    -1593.111    484.78949    149.70567   -4.1555809    37655.765 
  356600    315.26513   -1560.9815    479.24423    331.63993   -521.99801    37655.765 
  356700    304.78466   -1628.6202    507.62129    245.39288     -159.447    37655.765 
  356800    289.45732   -1565.3611    482.06841    214.38449   -49.690634    37655.765 
  356900    299.26079   -1615.9218    478.82723    204.53297    529.41136    37655.765 
  357000    293.46419   -1557.4531    525.55646    283.74392    397.14122    37655.765 
  357100    293.40869   -1515.9585    510.67988    310.11318    91.104037    37655.765 
  357200     302.1243   -1589.0952     522.8491    288.21898    162.44336    37655.765 
  357300    292.64074   -1562.3745    498.75852    248.33298     546.5901    37655.765 
  357400     299.2197   -1555.1498    509.28561     295.5791    390.94605    37655.765 
  357500     289.0223   -1550.4189    482.26336    227.57143    196.16457    37655.765 
  357600    295.45648   -1545.4513    522.77626    301.89723    1133.9962    37655.765 
  357700    307.03776   -1633.1828    484.74906    228.05902    225.86804    37655.765 
  357800    286.68776   -1615.0957    528.52036    198.68551    877.04548    37655.765 
  357900    300.04419   -1596.5344    475.07589    223.68111   -22.933238    37655.765 
  358000    294.14878   -1596.3398    499.20438    221.57428   -137.44547    37655.765 
  358100    313.04402   -1577.6768    501.29433    327.03723   -76.026353    37655.765 
  358200    296.33422   -1588.6282    491.21811    231.09719    329.72207    37655.765 
  358300    299.33328   -1571.2454    501.39393    272.10097    499.92526    37655.765 
  358400    301.64746   -1581.7819    501.15239    271.69776    457.76198    37655.765 
  358500    294.99815    -1593.659    491.66455    220.52304    474.21285    37655.765 
  358600      294.144   -1574.1143    498.89044    243.46439    53.554093    37655.765 
  358700    305.40709   -1621.6211    468.69305    216.25415   -896.38011    37655.765 
  358800     293.0093   -1564.8213    492.44294    241.22289   -175.41555    37655.765 
  358900    293.18084   -1542.3236    505.18429    277.23095   -419.63596    37655.765 
  359000    302.77002    -1562.915    477.57489    272.01976    100.96263    37655.765 
  359100    299.88715   -1537.5283    494.06389    300.97119   -338.26731    37655.765 
  359200    293.07077   -1549.9188     458.1967    222.15474    191.03424    37655.765 
  359300    291.54535   -1551.8297    518.20254    273.41094   -153.36681    37655.765 
  359400     300.5088   -1573.8469    488.61416    261.98971    257.46288    37655.765 
  359500    296.79209   -1543.5944    500.22371    287.18933     382.9754    37655.765 
  359600    294.88812   -1578.7233    492.27601    235.57697   -193.17959    37655.765 
  359700    296.06199   -1542.7493    502.39925    286.93678    151.08761    37655.765 
  359800    293.89556   -1546.5605    497.51887    268.53279    209.71693    37655.765 
  359900    295.80991   -1565.0222    521.58345    282.71801   -69.366756    37655.765 
  360000    297.64258   -1598.9983    494.88305     230.2576    835.71031    37655.765 
  360100    296.71018   -1585.5526    485.55747    230.19767    274.45051    37655.765 
  360200     302.1604   -1583.4306    496.46722    267.66347    153.96579    37655.765 
  360300    287.27522   -1572.4328    496.00146    211.46322   -774.56256    37655.765 
  360400    306.78787   -1547.0776    509.72408     338.0189   -229.88501    37655.765 
  360500    304.54216   -1588.5784     488.6445    265.37074   -466.33319    37655.765 
  360600    291.32444   -1556.7669    513.95042     263.2313   -65.491836    37655.765 
  360700     298.2609   -1547.6808    518.44133    307.90541    628.85228    37655.765 
  360800    296.67009   -1550.9313    502.23221    281.31397   -286.04556    37655.765 
  360900    300.75304    -1537.809    486.10718    296.61559    1.0504306    37655.765 
  361000    305.12703   -1605.6639    487.06864     249.3314   -171.15576    37655.765 
  361100    306.34234   -1524.0242    527.43879    376.78964   -73.780647    37655.765 
  361200     294.7539   -1553.2137    489.23057    257.43937    64.359148    37655.765 
  361300    300.09085   -1559.2006    488.71897    274.86716   -212.00941    37655.765 
  361400    300.02508   -1550.6187    517.82317    312.25841   -735.53457    37655.765 
  361500    305.20034   -1531.5269    515.77324    352.50173   -1169.9897    37655.765 
  361600    301.73274   -1569.7061    489.93933    272.94289   -524.67512    37655.765 
  361700    289.75434   -1604.0133    494.35241    189.34784   -986.64312    37655.765 
  361800    304.41756   -1624.8492    482.92577    222.82264   -632.05104    37655.765 
  361900    299.95482   -1577.9598    491.34579    258.12492   -740.91852    37655.765 
  362000     300.0143   -1628.6163     463.2011    179.59043   -268.75658    37655.765 
  362100    292.67573   -1574.9625    493.78585    230.92916    -13.16252    37655.765 
  362200     300.4976   -1594.1679    489.61318    242.61755    284.05224    37655.765 
  362300    305.01604    -1588.272     478.2665    257.42358    429.24335    37655.765 
  362400    295.99753   -1583.9175    500.61148    243.69182     432.6808    37655.765 
  362500    302.26243   -1578.1299     521.9247    298.87904    125.30186    37655.765 
  362600    300.22732   -1575.1065    486.86348    257.71755    91.379993    37655.765 
  362700    302.92469   -1597.2306    505.35498    266.17764   -783.47436    37655.765 
  362800    298.27237   -1596.8059    489.86547    230.25586   -904.12815    37655.765 
  362900    294.56752   -1578.7128    505.14735    247.02154   -163.43926    37655.765 
  363000    296.84504   -1592.1152    497.40762    236.08975   -102.47027    37655.765 
  363100    294.83644   -1598.3105    503.56804    227.05005     193.3293    37655.765 
  363200    304.19297   -1570.1699    488.15338    281.72264    395.34003    37655.765 
  363300    304.72916   -1617.8512    489.79129    238.08311   -460.44415    37655.765 
  363400    307.16397   -1637.8382     495.7956    235.01597   -378.31141    37655.765 
  363500    293.42929   -1623.4996    502.75672    194.74121   -283.45453    37655.765 
  363600    295.22311   -1572.2477    501.88618    253.16453   -332.91257    37655.765 
  363700    301.54963   -1566.4366    498.65853    284.11059     -420.172    37655.765 
  363800    291.89529   -1622.1112    503.71633    190.21211     -396.735    37655.765 
  363900    303.80851   -1612.9508    464.77008    213.83482   -400.45106    37655.765 
  364000    301.84385     -1596.15    480.36519    237.42297    33.058287    37655.765 
  364100    301.12249   -1582.7296    473.98698    241.23116   -384.28502    37655.765 
  364200    295.41654   -1615.4685    484.67648    193.60114   -316.83903    37655.765 
  364300    308.95246   -1594.9237    479.86418    270.01709   -429.88293    37655.765 
  364400    296.67357   -1575.6287    501.51552    255.91544   -116.95596    37655.765 
  364500    299.72353   -1571.8741     485.5703    257.39821    185.35917    37655.765 
  364600    299.66796   -1559.9325     520.7553    304.27571    239.74602    37655.765 
  364700    308.22353   -1544.9683    473.67144    310.51186    204.06338    37655.765 
  364800    291.18197   -1584.2397    496.88478     218.0541    366.92168    37655.765 
  364900    299.37002   -1591.0199    488.97127     240.0686    316.03223    37655.765 
  365000    301.74665   -1541.5096    486.96243    298.22481     191.2047    37655.765 
  365100    303.02958   -1519.6226    492.66637    331.56732   -166.61069    37655.765 
  365200    306.88859    -1554.236    493.74584    315.33384   -397.61939    37655.765 
  365300    292.05574     -1547.89    486.35709    247.79334   -484.88466    37655.765 
  365400    300.79952   -1565.8784    468.34225    250.98966    215.55314    37655.765 
  365500    298.19296   -1567.1038     493.4275    263.16396   -39.120508    37655.765 
  365600     286.5064   -1530.0161    489.68106    244.11282    791.07024    37655.765 
  365700    305.59034   -1559.2505    504.75417    315.50738    269.11885    37655.765 
  365800    295.28564   -1540.4712    481.76437     265.0995      509.373    37655.765 
  365900    306.76657   -1522.7401    468.67399    321.21081    533.88145    37655.765 
  366000    297.25511   -1549.8258    488.45399    271.26401    855.03882    37655.765 
  366100    296.01102    -1542.886     486.8851    271.05741    431.10911    37655.765 
  366200    296.01753   -1520.4009    506.50174     313.1884     445.0762    37655.765 
  366300    302.43493    -1529.381    484.68185    311.15853    233.05501    37655.765 
  366400    300.24669   -1565.3922    512.03483    292.69012    110.60278    37655.765 
  366500    307.79525   -1574.1132    489.11154    294.88699    400.07883    37655.765 
  366600    292.05194   -1540.2026    470.88019    239.98677   -67.778253    37655.765 
  366700    296.20434   -1526.7595    492.51256    293.67812    176.11204    37655.765 
  366800    295.57393   -1551.3219    481.23443    255.01135   -638.06685    37655.765 
  366900    296.42515   -1523.3311    486.48939    292.07327   -56.991756    37655.765 
  367000    297.74328   -1553.8093    500.70758    281.72265   -318.92314    37655.765 
  367100    293.77526   -1578.3678     496.0421    234.70943   -435.06599    37655.765 
  367200    298.67968   -1577.4527    453.46077    215.03039    -534.6224    37655.765 
  367300    300.90263   -1570.4654     504.3262    282.84892   -748.41891    37655.765 
  367400    298.46119   -1564.7922    489.81428    263.06491   -293.81518    37655.765 
  367500    298.85589   -1531.9769    501.62242    309.45786    -120.4327    37655.765 
  367600    299.11184   -1553.9435    488.14596    275.16226   -9.0769158    37655.765 
  367700    295.69652   -1553.8025    514.73317    286.57905    379.47749    37655.765 
  367800    306.39891   -1604.1483    499.93654    269.41692    669.06512    37655.765 
  367900    291.26011   -1568.6795    509.29221    246.37211    376.65121    37655.765 
  368000    303.22295    -1583.833    516.49813    292.05559    137.25437    37655.765 
  368100    311.62242   -1569.5198    498.69767    326.22427    304.75409    37655.765 
  368200    293.78025    -1547.574    507.94179    277.42533    394.26378    37655.765 
  368300    293.99813   -1544.4836    508.99422    282.54488    -115.4641    37655.765 
  368400    300.30999   -1535.1352    494.70191    305.89794     245.6884    37655.765 
  368500    297.92728   -1555.3525     519.3236    299.62032    13.817725    37655.765 
  368600    293.78423   -1516.7233    489.07182    289.42384   -695.16721    37655.765 
  368700     296.8336   -1486.2584    511.06666    355.55433   -497.56565    37655.765 
  368800      300.358   -1562.9295     481.0922    264.70917   -603.62318    37655.765 
  368900    297.61602   -1519.5314    521.59144    336.31376   -196.41403    37655.765 
  369000    291.73672   -1518.5219    506.79009    296.16428    67.909171    37655.765 
  369100    289.93791    -1524.783    527.48856    302.53738   -325.93614    37655.765 
  369200    312.30578   -1528.5406    520.76306    392.33254   -871.09972    37655.765 
  369300    296.29049    -1456.115    487.90315    360.09939    273.26537    37655.765 
  369400    296.95723   -1495.2189    544.84296    380.92438   -90.118077    37655.765 
  369500    299.58406   -1535.8274    513.10703    320.35647    423.52199    37655.765 
  369600    288.76371   -1531.2229    503.60625    266.95104    476.66444    37655.765 
  369700    303.17206   -1500.6731    513.23451    371.72365    92.212203    37655.765 
  369800    298.94357   -1502.7428    499.19397    336.65658    486.83941    37655.765 
  369900    292.52865   -1527.3784    499.21284    283.28089    724.57802    37655.765 
  370000    307.71145   -1517.5942    491.19169    353.11047    1143.6486    37655.765 
  370100    302.73055   -1489.1907    518.08024    386.07247    989.20935    37655.765 
  370200    297.63328   -1492.7261    490.74961     332.3547    481.64046    37655.765 
  370300    297.08948   -1524.8801    499.77183      306.785    572.62753    37655.765 
  370400    302.14661   -1511.9666     530.4365    373.03493   -165.89962    37655.765 
  370500    291.70776   -1522.2681    522.25403    307.75216   -104.50035    37655.765 
  370600    294.03822   -1519.6312    506.32053    304.90333    35.428281    37655.765 
  370700    286.50087   -1526.9537    485.28467    242.75403   -140.43481    37655.765 
  370800    300.15312   -1533.6642    492.67486     304.6386   -775.59578    37655.765 
  370900      295.966   -1560.8283    485.61416    251.64239   -636.02527    37655.765 
  371000    298.61475   -1538.5194     497.6849    297.89677   -367.03247    37655.765 
  371100    302.81718   -1557.1354    488.07811    288.51405   -312.28523    37655.765 
  371200     294.5627    -1565.432    492.89986    248.03317   -503.47165    37655.765 
  371300    302.86841    -1586.884    487.65283    258.56977    461.34186    37655.765 
  371400    293.21634   -1555.9143    480.55593    239.17108    515.66118    37655.765 
  371500    297.11569   -1566.1104    498.08407    263.98441   -127.80148    37655.765 
  371600    305.24156   -1569.8572    465.22272    263.80568    13.429072    37655.765 
  371700     299.2067   -1519.6646    494.32479     316.0452    210.80184    37655.765 
  371800    295.50483   -1552.5767    481.14052    253.35286     -415.555    37655.765 
  371900    305.10645   -1533.0972    491.20963    325.94687   -472.11666    37655.765 
  372000    311.94329   -1546.3954    481.98632    334.07587   -71.710028    37655.765 
  372100    297.09696   -1575.4558    482.76161    239.23259   -183.21101    37655.765 
  372200    301.20421   -1566.6906    492.32267     275.9722   -708.41963    37655.765 
  372300    290.15593   -1584.8995    503.34816     219.2578   -597.77837    37655.765 
  372400    300.41721   -1589.0173    451.01715    208.81174    66.266205    37655.765 
  372500    300.99567   -1571.6539    500.17486     277.9262   -106.52941    37655.765 
  372600    296.99139   -1544.1294    471.89078    259.21492    643.56606    37655.765 
  372700    305.84269   -1540.1479    506.17848    337.16569    450.48768    37655.765 
  372800    306.53128   -1593.8703    450.48769    230.83949    301.79565    37655.765 
  372900    309.00516   -1573.0739    510.79305      323.032    886.01485    37655.765 
  373000    305.26052    -1535.254    471.48132    304.75241     741.4856    37655.765 
  373100    297.58039   -1563.9957     497.9211    268.01947    573.97989    37655.765 
  373200    295.61412   -1515.3372    491.07325    301.01498     119.1771    37655.765 
  373300    291.59855   -1489.0759     483.2084    301.40909    205.45613    37655.765 
  373400    301.55085   -1511.2755    486.25109    326.86976    13.810306    37655.765 
  373500    309.89652   -1455.3598    487.87409    421.82323   -353.94442    37655.765 
  373600    295.17611   -1484.5155    493.21122    332.01107   -481.36707    37655.765 
  373700    286.15046    -1510.463    483.32575    255.71484   -400.36138    37655.765 
  373800    301.58276   -1515.0901     474.1845    311.13161   -389.29613    37655.765 
  373900    303.96932   -1574.1868    518.00428    306.55399   -317.72796    37655.765 
  374000    297.84768   -1560.6865    481.43115    256.03705    344.41714    37655.765 
  374100      299.969   -1518.4897    494.51251    320.82537    386.79434    37655.765 
  374200    307.87382   -1561.8965    496.46416    314.80861    434.34403    37655.765 
  374300    294.43802   -1604.5494    477.43277    192.88973     498.7866    37655.765 
  374400    294.27214    -1569.141    501.20916    251.33091    452.23386    37655.765 
  374500    301.84748   -1518.9437    479.21623    313.49658    -14.49734    37655.765 
  374600    311.58687   -1527.1832    466.52644    336.23026    -619.2393    37655.765 
  374700    296.79647   -1532.7739    493.79028    291.59605   -156.63329    37655.765 
  374800     298.8019   -1518.1441    484.28855    305.71466   -253.90441    37655.765 
  374900    293.12733   -1521.9798    497.57096    289.72152   -383.85189    37655.765 
  375000    296.23799     -1518.11    493.93002    303.89593   -137.70235    37655.765 
  375100    311.53778   -1552.4356    443.86135    288.09267   -93.219212    37655.765 
  375200    301.28844    -1521.733    473.61415     302.5989    284.57059    37655.765 
  375300    294.37512   -1559.8212    476.66204    236.56521    72.453544    37655.765 
  375400    297.34009   -1521.7121    479.38798    290.69259    353.32771    37655.765 
  375500    291.20694   -1598.8336    485.13428    191.82166   -744.76996    37655.765 
  375600     315.1372   -1562.8153    477.44069    327.42901    179.70846    37655.765 
  375700    283.20387   -1521.6262    505.37711    253.39303   -607.69005    37655.765 
  375800    293.67767   -1526.1761    485.30104    275.72252   -160.99313    37655.765 
  375900    306.98372   -1541.0557    482.77058    317.96531     215.8322    37655.765 
  376000    285.96757   -1561.3034    480.56946     201.2983   -50.266193    37655.765 
  376100    302.02658   -1531.1896    468.27302    291.11038    -257.7415    37655.765 
  376200    299.60439   -1528.1864    483.08625    298.06778   -10.120471    37655.765 
  376300    304.67243   -1534.6931    482.50586    313.70137    55.664828    37655.765 
  376400    298.01775   -1541.8599    499.14181    293.33669    601.73396    37655.765 
  376500    298.63797   -1571.8767    483.64633      250.605   -108.74341    37655.765 
  376600     307.6589   -1525.8167    493.47247    346.93319   -55.798382    37655.765 
  376700    285.39895   -1529.1442    475.26269    225.60144   -3.0790937    37655.765 
  376800    308.07901   -1552.8097    469.72179    298.07285    177.46283    37655.765 
  376900    311.02917   -1564.1836    488.49168    318.69481    114.97167    37655.765 
  377000    292.88375   -1555.3931    454.90508    212.55028   -206.51467    37655.765 
  377100    298.92187   -1531.9615    468.41541    276.56195   -11.175384    37655.765 
  377200    304.33536   -1540.5509    478.48745    302.31406    19.824894    37655.765 
  377300    300.85348   -1551.4101    472.38263    269.74033    419.94914    37655.765 
  377400    300.10833   -1536.1374    510.65232    319.94209    209.27664    37655.765 
  377500    293.32703   -1509.1994     478.0325    283.85869    240.34943    37655.765 
  377600    307.39157   -1542.8083    498.97855    334.24922    494.46219    37655.765 
  377700    296.57689   -1511.3707    479.64491    297.86938    15.314031    37655.765 
  377800    300.80239    -1513.085    476.98366    312.43737   -438.01739    37655.765 
  377900    296.91919   -1517.5322    467.63478    281.23238   -207.79467    37655.765 
  378000    293.66868   -1535.7106    492.96307    273.80982   -57.316341    37655.765 
  378100    307.32765   -1513.9652    483.55554     347.3827    529.90456    37655.765 
  378200    301.98823   -1505.6275    496.97724    345.20479    603.13989    37655.765 
  378300    297.13677   -1505.9734    478.75827    304.89005    461.92103    37655.765 
  378400    299.99419   -1500.0618    482.97063    327.82424    665.98345    37655.765 
  378500     293.1713   -1542.1664    484.56538    256.72651     242.6027    37655.765 
  378600    307.31375   -1508.8855    469.31494    338.15951    546.94087    37655.765 
  378700    298.88112   -1532.0643    487.77907    295.64021    230.70788    37655.765 
  378800      294.173   -1534.8489    448.19222    232.16158    38.086033    37655.765 
  378900    304.81894   -1504.8755    511.69735    373.36732    183.25643    37655.765 
  379000    297.26873   -1546.4859    482.15999    268.37094    250.14809    37655.765 
  379100    309.33637   -1527.7093    483.68617    342.77455    194.55648    37655.765 
  379200    303.83635   -1510.4448    474.91186    326.60743    178.66922    37655.765 
  379300    298.30503   -1457.1722    473.43826    353.60873     2.846239    37655.765 
  379400    305.11064   -1473.7069    473.57873      367.725   -466.49254    37655.765 
  379500    287.21024   -1500.3561     496.1377    283.38477   -292.73298    37655.765 
  379600    295.44945   -1496.7275    494.16071    321.97396   -263.37836    37655.765 
  379700    296.17504   -1495.9594    481.70724    313.54148   -97.045785    37655.765 
  379800    292.19551   -1482.7902    497.61004     324.7727    95.447475    37655.765 
  379900    290.38682   -1499.8582    496.58478    298.57086    425.59496    37655.765 
  380000     303.9245   -1561.3076    470.20984    271.43786    175.94423    37655.765 
  380100    293.79317   -1542.3537    479.99754    254.75923    682.98642    37655.765 
  380200    307.30929   -1536.8328     500.4251    341.30233    712.16554    37655.765 
  380300    290.81068   -1530.8262     461.1423    234.06067    578.09185    37655.765 
  380400     313.5812   -1491.9301     470.1755    384.07326     1049.675    37655.765 
  380500    286.92033    -1516.792    502.81193    272.32341    113.91251    37655.765 
  380600    312.97841     -1563.36    464.47065    304.23613    207.24654    37655.765 
  380700    299.74202   -1533.7225    475.33582    285.39822   -116.68918    37655.765 
  380800     296.6194   -1467.3662    496.31233    358.73193    340.53704    37655.765 
  380900    304.35444   -1505.7469    495.80577     354.5219   -145.84083    37655.765 
  381000    298.35498   -1482.7867    486.99229    341.77229    499.08219    37655.765 
  381100    291.93909   -1452.5468    494.40725    350.66379   -300.09867    37655.765 
  381200    294.99557   -1456.2257    486.86961    353.14983   -551.46509    37655.765 
  381300    295.26127   -1518.1253    486.79784    292.36963   -197.38738    37655.765 
  381400     288.8305   -1481.5716    491.22348    304.51895    166.10688    37655.765 
  381500    297.50047   -1519.4016    489.27661    303.61082    404.97815    37655.765 
  381600    296.23028   -1512.0306    487.62235    303.63301     589.0073    37655.765 
  381700    292.36684   -1518.1383    495.99977    288.58243    561.12998    37655.765 
  381800    296.94253   -1500.6304    506.44292    337.04693    714.07694    37655.765 
  381900    297.53247   -1501.1182    470.92735    303.68842    470.95933    37655.765 
  382000    298.96134   -1496.8485    505.04036    348.47692    845.73086    37655.765 
  382100     298.0688   -1490.5271    490.40818    336.16477    958.49248    37655.765 
  382200     294.8927   -1503.8653     496.4816    314.66109    817.91091    37655.765 
  382300    308.54101   -1522.1031    495.08787    356.21683    1016.0553    37655.765 
  382400    300.89536   -1525.4577    491.78141    315.27924    1138.1274    37655.765 
  382500    298.72611   -1517.2174    500.11696    322.13001    939.18765    37655.765 
  382600     301.8034   -1543.2477    484.24213    294.02081      508.226    37655.765 
  382700    302.80354   -1522.6585    484.70752    319.55921    492.12265    37655.765 
  382800    292.90871   -1556.5056    496.70711    253.35177    253.12055    37655.765 
  382900    300.96092   -1476.0167    461.66076    334.89346    41.674844    37655.765 
  383000      302.514   -1514.9868    505.80769    347.03303   -647.17301    37655.765 
  383100    288.67877   -1515.9418    488.70734    266.95238   -712.34446    37655.765 
  383200    306.58104   -1505.6902    477.79009    346.54514   -833.18942    37655.765 
  383300     287.9344   -1504.4418    495.52038    281.92828   -870.71993    37655.765 
  383400    301.97156   -1525.3808    497.83129    326.23076   -610.85842    37655.765 
  383500    307.37804   -1524.7965    490.73597    343.95772    20.490222    37655.765 
  383600    301.10769    -1524.671    499.69861    324.93501    187.22976    37655.765 
  383700     291.6345   -1528.2577    480.69092    259.87099     47.72999    37655.765 
  383800    298.47812   -1541.9874    486.86654     282.9978    474.97173    37655.765 
  383900    296.85884   -1552.4739     451.6268    230.01213     275.1778    37655.765 
  384000    295.55271   -1574.5936    477.66539    228.07544    820.77159    37655.765 
  384100    305.90506   -1544.3311    503.98764    331.07122    773.90265    37655.765 
  384200    291.04095   -1521.7105     473.8561    256.92242    308.62406    37655.765 
  384300    285.01187    -1542.744    498.92726    233.93092    183.33204    37655.765 
  384400    297.71518   -1563.8114    488.54668    259.43359     157.4354    37655.765 
  384500    302.39861   -1538.6151    478.53048    295.61018    108.33498    37655.765 
  384600     303.3514   -1541.5873    477.94097    296.31995   -40.945487    37655.765 
  384700    304.49596   -1513.6281    481.51917    332.98857   -12.590267    37655.765 
  384800    298.84262   -1522.2303    479.56954    297.09207    247.46924    37655.765 
  384900    301.80248   -1543.3749    481.42915    291.07652    229.57423    37655.765 
  385000    297.33914   -1501.7734    528.34967    359.58877    291.08935    37655.765 
  385100    301.56402   -1517.9981    472.46895    306.42411     708.9041    37655.765 
  385200    312.85134   -1510.4276    504.94137    397.06956    597.15777    37655.765 
  385300      294.889   -1520.7946    502.08153    303.31513    114.67531    37655.765 
  385400    303.15505   -1520.9622    485.86758    323.99139    139.02914    37655.765 
  385500    309.87748     -1516.72    488.13457    360.63822   -227.81791    37655.765 
  385600    288.05984   -1518.6869    489.13049    261.85574   -527.89217    37655.765 
  385700    296.27196   -1506.4843    509.09017    330.83407   -85.939809    37655.765 
  385800    304.08624   -1545.1729    490.74507    308.83282   -173.78198    37655.765 
  385900     298.4438   -1519.5895    483.07526    301.45057   -201.07492    37655.765 
  386000    290.09387   -1514.3439    483.14421    269.33127   -242.07617    37655.765 
  386100    297.26115   -1546.2955    461.09186    247.45924   -835.12897    37655.765 
  386200    295.90457   -1542.5516    467.42761    251.45713   -502.41962    37655.765 
  386300    304.57966   -1523.1747    491.49688    333.79495   -122.68621    37655.765 
  386400    295.19036   -1513.9209    472.51384    281.97213   -130.73227    37655.765 
  386500    298.91963   -1541.6405    467.22725    265.68482   -265.68418    37655.765 
  386600    288.22826   -1507.0749    503.30245    288.39475   -208.23337    37655.765 
  386700    307.01892   -1540.1195    458.36004    294.64879    187.37881    37655.765 
  386800    297.36863   -1544.8115    468.34698    256.68016   -772.04815    37655.765 
  386900    308.70446   -1537.3725    487.94083    334.53315   -965.77432    37655.765 
  387000    308.40656   -1522.1146    466.33717    326.85188   -334.37877    37655.765 
  387100    294.26871   -1494.1781    473.33953    298.40876   -99.907812    37655.765 
  387200    306.59594   -1517.9094     465.5869    322.18957   -609.74778    37655.765 
  387300    309.28238   -1522.4806    495.11359    359.18868    74.781584    37655.765 
  387400    295.81239   -1580.9091    462.03572    207.29447   -260.39983    37655.765 
  387500    301.57492   -1565.4038    471.37693    257.97521   -7.9962018    37655.765 
  387600    299.91674   -1552.0317    484.36717    276.90366   -55.177743    37655.765 
  387700    310.89133    -1554.232    469.60983    309.14669   -14.062514    37655.765 
  387800    315.26696   -1621.3393     447.9586    240.00471   -252.61409    37655.765 
  387900    306.82005   -1564.3468     479.2706    290.44051     17.41469    37655.765 
  388000     301.6418   -1580.8996    465.47224    236.87452    -388.6338    37655.765 
  388100    293.78838   -1568.0814    442.84235    191.85483   -328.18804    37655.765 
  388200    307.65718   -1584.6831    461.95484    256.54145   -663.53863    37655.765 
  388300    293.27592   -1551.0246    459.66354    223.43542   -151.33522    37655.765 
  388400    298.30995   -1554.0717    512.82106    296.11409   -439.89761    37655.765 
  388500    290.24137   -1591.0143    480.11813    190.29609   -158.90983    37655.765 
  388600    292.96726   -1584.1073    469.65854    198.96397    64.367034    37655.765 
  388700    293.22846   -1561.1282    483.69541    237.15101   -172.32487    37655.765 
  388800    301.21749   -1562.6936    465.40756    253.11366    58.971034    37655.765 
  388900    299.94286   -1588.5313     483.9154    240.06939     79.86968    37655.765 
  389000    303.43471   -1574.7644     485.6762    271.25161     689.7297    37655.765 
  389100    305.26201   -1582.5993    485.52587    271.45837    499.27105    37655.765 
  389200    291.87785   -1594.6472    469.74165    183.62324   -371.20999    37655.765 
  389300    305.76147   -1585.7128    464.66111    249.71928    136.17463    37655.765 
  389400    299.18193   -1567.8216    502.01325    275.46556   -435.69194    37655.765 
  389500    300.97167    -1562.609    465.78699     252.4756    40.347821    37655.765 
  389600    301.27398     -1601.19    462.83671    212.29958    358.95647    37655.765 
  389700     309.9075   -1597.5892    469.79822    261.56721    342.11785    37655.765 
  389800    301.99926   -1567.7705    457.78763    243.92161    204.57086    37655.765 
  389900    302.76157    -1527.821    491.89098    321.39196    183.53491    37655.765 
  390000     295.2933   -1553.5339    468.50871    238.81549    182.26671    37655.765 
  390100     305.6334   -1530.6531    491.77271    331.31639   -33.109838    37655.765 
  390200     300.4759   -1540.3653    485.42148    292.13125    35.702252    37655.765 
  390300    303.52325   -1559.0564    486.79603    288.47631    685.64819    37655.765 
  390400    302.39073   -1553.1916     477.6468    280.11467    191.04305    37655.765 
  390500    302.81891   -1569.8899    486.95282    274.64199    727.46458    37655.765 
  390600     307.3963   -1590.9806    445.76231    232.88179    801.27971    37655.765 
  390700     290.2351    -1527.312    505.61015    279.46224    758.07381    37655.765 
  390800    303.27635   -1607.2836    461.59487    213.94107    575.09431    37655.765 
  390900    304.29046    -1564.953    482.44451    281.66768    66.102258    37655.765 
  391000    310.99713     -1560.51    480.26847    314.00155     14.48957    37655.765 
  391100    299.13612   -1533.2271    488.61065    296.45215    532.21611    37655.765 
  391200    301.34441   -1534.0841    510.78356    327.66811     357.9054    37655.765 
  391300    303.64147   -1557.8363    494.31284    297.74321   -157.49925    37655.765 
  391400    298.38357    -1535.552     468.2484    270.39123   -277.36742    37655.765 
  391500    300.34057   -1585.6896    496.38974    257.16841   -177.28313    37655.765 
  391600    309.78652   -1552.0397    467.77617    304.55223   -259.97426    37655.765 
  391700    308.12527     -1561.51    501.37203    321.23025   -759.38633    37655.765 
  391800    297.46152   -1566.8985    465.52442    232.18708    -317.2308    37655.765 
  391900    294.84483   -1585.4627    452.66808    189.03558   -410.08907    37655.765 
  392000    301.49075   -1595.6692    487.23964    243.19518   -820.35767    37655.765 
  392100    293.87899   -1581.6624    472.25086    208.08862   -149.81953    37655.765 
  392200    292.21316   -1613.7221    493.15765    189.46759   -294.66884    37655.765 
  392300    303.47606   -1576.5979    465.82563    249.75286    77.046078    37655.765 
  392400    304.00674   -1557.5678    478.65037    283.98684     438.5955    37655.765 
  392500    300.53752     -1579.32    454.97498    223.00627    403.88314    37655.765 
  392600    292.11586   -1600.2145    475.11175    184.49302   -149.64199    37655.765 
  392700    298.33606   -1552.2263    469.71109    254.96665    348.11288    37655.765 
  392800    296.14433   -1516.2928     460.1141    271.47728   -247.93571    37655.765 
  392900    291.72274   -1512.3776    462.45967    257.91542    -572.7265    37655.765 
  393000    312.36328   -1513.4724     471.8054    358.70081   -281.70673    37655.765 
  393100    308.23768   -1549.2425    491.21194    323.84158   -509.82886    37655.765 
  393200    297.27337   -1549.6085     448.8466    231.95575   -41.290305    37655.765 
  393300     297.4138   -1591.6719    490.52983    232.20515   -260.11822    37655.765 
  393400    306.43379   -1543.0555    515.68259    346.41216    388.76998    37655.765 
  393500    293.05322   -1529.1093    503.73885    288.42764    224.40669    37655.765 
  393600    292.24772   -1533.1677    478.54546     255.5647   -77.677396    37655.765 
  393700    301.06946   -1543.6541    477.45134    283.53322   -301.50008    37655.765 
  393800    293.99895    -1556.715    478.41049    239.73347   -595.66891    37655.765 
  393900    300.68004   -1584.1087    447.67281    211.55437   -938.10654    37655.765 
  394000    304.63128   -1491.6912    483.79452    357.80749   -358.45215    37655.765 
  394100    298.42845   -1538.9217    458.60573    257.58006   -282.88302    37655.765 
  394200    302.42222   -1537.6828    466.37078    284.48862    -416.9375    37655.765 
  394300     305.0653   -1539.0483    481.82722    310.42885    474.68839    37655.765 
  394400    292.58459   -1551.5621    491.82267    251.95776    332.72446    37655.765 
  394500    305.03128   -1553.3342    467.64317    281.80644     493.4307    37655.765 
  394600    296.37292   -1556.7805    480.63169    252.53201   -89.200896    37655.765 
  394700    301.30796   -1528.2242    510.10139    332.68243    190.18055    37655.765 
  394800    297.12763   -1518.7329    472.32999    285.66137    214.72554    37655.765 
  394900    305.57959   -1517.1279    498.91507    351.74269    347.36974    37655.765 
  395000     311.3987   -1551.0497    482.83669    327.83041    499.24378    37655.765 
  395100    303.71739   -1574.0057    482.42336    270.02469   -197.85419    37655.765 
  395200    295.57889   -1512.3326    470.33279    283.12123   -224.81059    37655.765 
  395300    293.50398   -1502.6126    490.00783    303.21414   -300.65877    37655.765 
  395400     303.8481   -1521.7649    481.39226    321.82046   -212.42871    37655.765 
  395500    294.12121   -1532.4579    485.53018    271.65831   -688.16513    37655.765 
  395600    299.04353   -1512.1162    480.89896    309.43626    -330.6264    37655.765 
  395700    295.88052   -1526.7053    475.71756    275.48557    609.38058    37655.765 
  395800    290.41546   -1588.9226    481.07336    194.12342    401.01185    37655.765 
  395900    306.75491   -1536.0551    471.21956    310.38912    439.02108    37655.765 
  396000    304.52726   -1551.8006    465.12991    278.56715    474.52989    37655.765 
  396100    306.54028    -1562.407    478.46447    290.31989    210.12609    37655.765 
  396200      299.296   -1539.4756    477.61255     279.9223    541.11936    37655.765 
  396300    304.65877    -1522.595    512.46754     355.6999    762.15007    37655.765 
  396400     290.6539   -1518.7037    470.28637    254.62427    660.13464    37655.765 
  396500    303.27032   -1509.9083    484.33653    334.03099    425.90781    37655.765 
  396600    297.47126   -1534.2104    496.80004    296.19448    714.29772    37655.765 
  396700    291.54558    -1534.014    488.16462     261.1898    83.840077    37655.765 
  396800     295.8843   -1566.1969    481.66566    241.95904     26.69754    37655.765 
  396900    303.77341    -1559.409    509.28997    311.73922    238.47784    37655.765 
  397000    293.39192   -1539.6026       474.61      250.324   -288.48892    37655.765 
  397100    308.66636   -1556.6471    472.32864    299.47551   -253.25823    37655.765 
  397200    289.75831   -1523.9855    490.91412    265.95518   -444.19747    37655.765 
  397300    301.45535   -1511.9612    490.82706    330.33185   -748.79181    37655.765 
  397400    297.91298   -1534.9862    463.17061    263.76943   -302.13137    37655.765 
  397500     310.8253   -1543.2436    509.37535    359.60459   -97.904868    37655.765 
  397600     310.6284   -1535.6064    490.39667    347.38041    725.01949    37655.765 
  397700    296.47614   -1518.7134    496.35988       306.79    806.31664    37655.765 
  397800    301.07988   -1512.2186    502.16567    339.72979     653.0661    37655.765 
  397900     301.7903   -1547.3185    499.09984      304.749    350.47543    37655.765 
  398000    298.60736   -1546.8454    489.17853    281.03128    563.21015    37655.765 
  398100    295.97592   -1535.7529    485.24151    276.38962    132.86154    37655.765 
  398200    294.08041   -1565.7647    489.77314    242.41163    202.51909    37655.765 
  398300    300.32157   -1568.1928    469.34039    247.53074    80.107214    37655.765 
  398400    289.96772   -1543.3832    514.55174     271.1339   -51.314412    37655.765 
  398500    292.45784   -1559.0584    484.47454    236.54508     372.6586    37655.765 
  398600    310.15558   -1550.7169     492.5874    332.34086    391.60336    37655.765 
  398700    292.71336   -1560.7046    509.06178    260.63164    740.76045    37655.765 
  398800    300.23977   -1583.0422     482.4027    245.37687    421.38682    37655.765 
  398900    305.42352   -1559.7132    481.86867    291.41133    369.00476    37655.765 
  399000     303.2896   -1560.8568    484.61964    283.45206    258.46145    37655.765 
  399100    295.44272   -1582.6688     481.8442    223.68598   -59.846919    37655.765 
  399200    295.47886   -1607.1269    489.36718    206.91282    528.89773    37655.765 
  399300    299.76937   -1576.0472    480.88403    248.74439    693.47184    37655.765 
  399400     307.1062   -1565.6545     469.1188    280.26394    162.22869    37655.765 
  399500     298.6018   -1514.3571    494.76159    319.07761   -473.03931    37655.765 
  399600    301.24327   -1558.0842    471.72734    264.15837   -551.25028    37655.765 
  399700     292.3265   -1518.4492    495.21363    287.30459   -203.69132    37655.765 
  399800    294.43359   -1549.6621    474.32518    244.64957    145.92931    37655.765 
  399900    303.13807   -1569.8362    479.47468    268.64841    459.34986    37655.765 
  400000    304.89873   -1583.8454    465.58825    248.64604    97.269038    37655.765 
  400100    295.84359   -1610.9463    465.25325    180.61472    19.701574    37655.765 
  400200    302.82264   -1607.0704    465.54759    216.07292   -40.376896    37655.765 
  400300    292.06561   -1585.8249     431.0163    154.56189   -79.427163    37655.765 
  400400    293.77729   -1556.3592    486.86266    247.54764   -134.41356    37655.765 
  400500    299.81731   -1589.9128    463.40115    217.61086     220.6597    37655.765 
  400600    296.73776   -1555.4296    485.52688    260.41364    357.16072    37655.765 
  400700    300.74075   -1548.2487    509.16324    309.17693   -276.06054    37655.765 
  400800    293.83664     -1569.89    480.50739     227.9277    -470.4618    37655.765 
  400900    297.32363   -1539.3925    473.56102    267.11145    234.41642    37655.765 
  401000    297.58107   -1556.6801    498.29619    275.71321   -516.39267    37655.765 
  401100    305.80097   -1549.4997    469.40906    290.85746   -246.20287    37655.765 
  401200    300.71826   -1529.5422    477.35771    295.97709   -251.38089    37655.765 
  401300    290.13824    -1532.836    488.12404    256.01787    30.832045    37655.765 
  401400    305.40151   -1537.9476    507.06631    338.27586    293.35987    37655.765 
  401500    293.62142   -1539.7957    473.39529    249.94502    97.006227    37655.765 
  401600    290.04482   -1511.7725    515.87169    304.41023   -66.643876    37655.765 
  401700     304.7246    -1475.875    478.96577    369.21323   -233.51793    37655.765 
  401800    297.71349   -1476.0626    507.73399    366.36215    300.99022    37655.765 
  401900    296.89265   -1517.1786    501.25327    315.08545    238.32804    37655.765 
  402000    303.55561    -1504.767     487.0939    343.20865   -153.94914    37655.765 
  402100    305.96585   -1477.6509    510.29433    404.33064    -33.21058    37655.765 
  402200    305.41432    -1473.859    482.17292    377.52859   -208.80631    37655.765 
  402300    299.54993   -1475.0863    497.81869    365.65617   -301.61653    37655.765 
  402400    297.06682   -1501.7613    523.05132    353.08164   -20.607279    37655.765 
  402500    290.85438   -1525.6624    489.23432    267.51237   -333.29029    37655.765 
  402600    291.22469   -1484.0994    473.49395    294.99512   -867.77127    37655.765 
  402700     287.6061   -1481.2487    485.49371    293.62291   -482.32718    37655.765 
  402800    302.93486   -1491.7119    497.63956    364.02651   -185.48873    37655.765 
  402900    300.98778   -1534.2177    471.32762    286.47978   -193.97679    37655.765 
  403000    307.41185   -1553.7587    504.70938    329.12056    183.50571    37655.765 
  403100    293.60197   -1541.2272    488.55974    263.59073    796.85305    37655.765 
  403200    293.86802   -1491.7013    503.47729    329.22696    696.48341    37655.765 
  403300    295.54509   -1456.6062    490.56042    358.92375     586.4506    37655.765 
  403400    297.57673   -1498.1314    488.21319    324.15942    384.78626    37655.765 
  403500    314.71818   -1486.4563    483.48587    407.95476    260.04416    37655.765 
  403600    307.00341   -1426.3342    505.15668    455.16121   -365.20383    37655.765 
  403700    309.65707   -1443.1109    507.42021     452.5448   -160.28243    37655.765 
  403800    301.46707   -1536.9967     477.9307    292.45255   -224.70071    37655.765 
  403900     301.8663   -1482.6398    508.05742    378.72601   -279.58426    37655.765 
  404000    298.29333    -1479.304    473.55704    331.54325   -116.31643    37655.765 
  404100    295.25986   -1500.8744    467.36793    290.18435    55.926647    37655.765 
  404200    301.99591   -1510.6162    496.98709    340.26033    300.61179    37655.765 
  404300    302.90549   -1519.3955    484.43835    323.01002   -233.08402    37655.765 
  404400    306.28983   -1530.0459    489.19972    332.29349   -439.95469    37655.765 
  404500    312.58321     -1510.84    484.39048    374.90424   -78.393402    37655.765 
  404600    293.12439   -1527.4571    459.62685    246.28698   -365.35051    37655.765 
  404700    297.51985   -1519.5332    484.15876    298.44818    273.11013    37655.765 
  404800     301.2477   -1496.5165    496.94944    350.96805    33.341188    37655.765 
  404900    305.20167   -1531.5371    469.00152    305.72574    98.210907    37655.765 
  405000    306.55556   -1492.7609    502.68769    384.25773     722.7111    37655.765 
  405100    293.73162   -1477.7837     499.2038    338.25952    446.87249    37655.765 
  405200    306.46914   -1460.4133    491.47471    405.00492     126.3284    37655.765 
  405300    304.07134   -1477.0297    502.03991    388.20407   -63.765169    37655.765 
  405400    297.99387    -1520.176    479.86507    295.63684    422.48427    37655.765 
  405500    308.37517    -1500.444    438.61977    320.66431    459.43959    37655.765 
  405600    296.53759    -1491.112    511.63145    349.93851     334.2565    37655.765 
  405700    297.59762    -1506.948    486.04609    313.26941    417.27954    37655.765 
  405800    301.45897   -1531.1995    452.97962    273.26233    184.82827    37655.765 
  405900    295.23538   -1532.6376    490.95104    281.89445   -110.91605    37655.765 
  406000    291.96715   -1561.9217    468.94435    215.95179   -417.13143    37655.765 
  406100    303.18332   -1549.5163    478.82798    288.52442    14.074072    37655.765 
  406200    295.64729   -1565.2925    473.69962    233.83479   -328.12862    37655.765 
  406300    293.79223   -1549.3022    465.23724    233.04622   -132.31203    37655.765 
  406400    289.60955   -1586.9895    441.96234    153.33246    8.9711361    37655.765 
  406500    300.59495   -1570.1533    448.94705    226.40248    103.71375    37655.765 
  406600    289.95512   -1553.3608     473.8145     220.3626   -130.53121    37655.765 
  406700    311.97272   -1555.1586    458.41035    301.86865   -102.92506    37655.765 
  406800    303.09172   -1555.7869     469.7704    272.78562   -102.25997    37655.765 
  406900    307.74154   -1541.6749    435.10801    273.08097    274.01538    37655.765 
  407000    303.20993   -1562.9354    464.43668    260.83336   -427.97577    37655.765 
  407100    300.91724   -1522.7452    479.29648    305.60491   -482.92691    37655.765 
  407200    295.49153   -1531.5506    478.80559    271.98439    355.76229    37655.765 
  407300      303.155   -1500.8775    500.60717    358.81551    510.63598    37655.765 
  407400    299.93425   -1549.6456    457.60635    252.60747    226.95265    37655.765 
  407500    304.76549   -1524.7831    477.30887    318.83159    531.31234    37655.765 
  407600    298.05404   -1507.8823    444.15688     272.4921   -86.150158    37655.765 
  407700    295.14476   -1492.7185     484.1263    314.58255   -342.69544    37655.765 
  407800    306.48266   -1417.5822    491.27059    447.69257    97.696828    37655.765 
  407900    291.57814   -1454.3919    498.90737    351.70061    299.99114    37655.765 
  408000    298.04933   -1493.2534     481.0354     323.9784    227.49433    37655.765 
  408100    296.16663    -1462.828    486.69106    351.61903    691.83551    37655.765 
  408200    299.45217    -1503.661    494.29247    333.11695    744.42947    37655.765 
  408300    305.72293   -1528.7872    500.33594    342.14686    532.27843    37655.765 
  408400    297.62012   -1526.6698    469.79847    277.40086    633.62975    37655.765 
  408500    295.86248   -1508.2505    465.00586     283.1478    674.98109    37655.765 
  408600    299.02519   -1509.4398    491.45574    322.58724    319.23528    37655.765 
  408700    303.37608   -1514.9526    440.92384    286.04815    402.36489    37655.765 
  408800    304.95066   -1515.8974    486.54258    337.78123    197.92453    37655.765 
  408900    297.58188   -1563.8635    448.67721    218.91439    238.82986    37655.765 
  409000    293.14385   -1504.8804    486.06846    295.39246   -21.954591    37655.765 
  409100    300.65041   -1524.9498     482.1544    305.06196    371.17931    37655.765 
  409200    295.20105   -1562.0577     437.6073    198.97675    638.51431    37655.765 
  409300     289.8211   -1546.7242     473.3273    225.91113    30.011641    37655.765 
  409400    304.10248   -1537.9036    494.78195    320.21187    419.02235    37655.765 
  409500    300.85179    -1562.282    495.79987    282.27807   -228.19869    37655.765 
  409600    299.43747   -1517.3391     477.7068    302.78734    630.33647    37655.765 
  409700    296.29841   -1505.4615    503.65007    326.53535    116.71352    37655.765 
  409800    300.14317   -1525.3452    501.11314    321.35129    632.08623    37655.765 
  409900    297.54956   -1555.4454    490.83037    269.34084    243.73743    37655.765 
  410000    291.51627   -1539.1991     465.4806     233.1892    146.94678    37655.765 
  410100    297.16483   -1579.8132    494.09991     246.5178    170.61724    37655.765 
  410200    296.30676   -1568.4334    472.25327    232.20409    1100.9241    37655.765 
  410300       299.74    -1582.944    494.15866    254.99058    508.15026    37655.765 
  410400     303.4156   -1576.6332    486.14127    269.76213    1018.6311    37655.765 
  410500    296.67983   -1508.3459    466.07882    287.78958     750.2917    37655.765 
  410600    296.71072   -1608.6785    478.07519    199.59189   -63.759773    37655.765 
  410700    297.07926   -1603.2438     472.0521    200.65569    569.33053    37655.765 
  410800    295.45347   -1561.3273    485.17649    248.40798    584.89491    37655.765 
  410900    296.64025   -1580.9739     478.8366    227.74193    739.95849    37655.765 
  411000    294.22911   -1546.1837    489.01464    261.90075    431.17845    37655.765 
  411100    309.78595   -1548.1929    461.63358     302.2539   -390.60055    37655.765 
  411200    302.39025   -1547.7757    480.58107    288.46271   -533.46287    37655.765 
  411300    292.70769   -1609.0847    453.87906    157.04338   -599.91167    37655.765 
  411400     303.5059   -1536.5092    499.56945     323.7192   -133.63062    37655.765 
  411500    301.01745   -1511.9038    484.27117    321.87023    404.47456    37655.765 
  411600    295.63671   -1488.8516    497.77207    334.30076   -380.93246    37655.765 
  411700    293.86743   -1495.4538    490.55725     312.5518   -405.72964    37655.765 
  411800    301.41986    -1496.296    523.43497    378.44586    623.32292    37655.765 
  411900    298.25543   -1518.6253    477.73635    296.23135    369.18029    37655.765 
  412000    301.95009   -1520.5556    491.15327    324.28165    373.23773    37655.765 
  412100    297.69983   -1554.5066    494.26225    274.38516   -26.448463    37655.765 
  412200    301.75667   -1503.6932    472.00959    321.13326   -370.10729    37655.765 
  412300     298.7638   -1539.0348    515.82554    316.19016     221.0832    37655.765 
  412400    301.09139   -1536.7611    468.21873    281.29201   -355.87308    37655.765 
  412500    308.31216   -1515.2613    481.89779    348.84258    494.90162    37655.765 
  412600     297.5745   -1545.7277    474.92261    263.26253    229.03036    37655.765 
  412700    300.31026   -1505.8238    491.07053    331.57915    145.82467    37655.765 
  412800    304.08629   -1563.9465    470.71929    270.03367    104.65212    37655.765 
  412900    292.84329   -1546.2258    455.82692    222.45807   -228.08441    37655.765 
  413000     311.3382   -1548.2477    501.78291    349.30741     668.1668    37655.765 
  413100    304.59167   -1537.9121    493.87773    321.49223    786.19869    37655.765 
  413200    294.69829   -1531.2494    493.70214    283.62597    607.64477    37655.765 
  413300    292.58547   -1507.8226    499.57694     303.4555    235.87204    37655.765 
  413400    303.17114    -1499.497    483.00841     342.6696   -342.22696    37655.765 
  413500    303.93347   -1516.3342    500.20831     346.4499   -693.41594    37655.765 
  413600    303.80692   -1538.1688    479.93118    303.77085   -315.69145    37655.765 
  413700    297.34059   -1473.6462    493.48939    352.86215   -771.65215    37655.765 
  413800    284.64609   -1504.5966    457.14094    228.65213   -575.42171    37655.765 
  413900    296.27804   -1479.8507    467.74292    316.14764   -348.78574    37655.765 
  414000    300.52217   -1494.4412    480.62575    333.46698     88.26764    37655.765 
  414100    303.38209   -1528.0136    472.84886    304.93918   -24.916741    37655.765 
  414200    304.21934   -1497.5414    471.86741    338.18333    281.30068    37655.765 
  414300    305.98769   -1487.0228    466.95937    351.72168    -75.86196    37655.765 
  414400    296.07169   -1549.4203    459.61662    237.52668    -386.7269    37655.765 
  414500    302.48412   -1559.3571    496.53667    293.25774   -6.3394465    37655.765 
  414600    291.65288   -1541.0916    487.63486     254.0634   -549.51943    37655.765 
  414700    293.93216   -1534.0459    495.80439    279.49703   -78.457383    37655.765 
  414800    300.81235   -1562.0487    467.17579     253.7105    224.02672    37655.765 
  414900    292.50333   -1523.0352    479.53579    267.83352     291.1228    37655.765 
  415000    306.45138   -1549.7917    468.97229    293.04452    227.64442    37655.765 
  415100    308.11362   -1578.1587    481.65529    284.81254    144.42556    37655.765 
  415200    298.04069   -1561.0219    460.97535    236.11108   -229.42324    37655.765 
  415300    300.96819    -1578.122     475.8759    247.03595   -606.77195    37655.765 
  415400     296.0015   -1604.7354    456.81233    179.09263   -89.536094    37655.765 
  415500    308.39503   -1584.6394    462.60434    260.54256   -15.668501    37655.765 
  415600     308.4313   -1566.6108    493.78888     309.9183     37.05012    37655.765 
  415700    299.05623   -1586.7551    478.48008     232.4354    441.62154    37655.765 
  415800    300.37428   -1542.5187    470.00249    274.10326    275.73879    37655.765 
  415900    301.53912   -1568.3662    450.20523    233.68062    -195.5184    37655.765 
  416000    296.24637   -1570.1089    485.98085     243.9854   -171.73904    37655.765 
  416100    305.91625   -1633.3906    459.16096    197.23525    427.98627    37655.765 
  416200    295.54997    -1580.048    457.26983    202.21325    397.99015    37655.765 
  416300     301.0364   -1630.2794    481.71421    201.02258    369.40302    37655.765 
  416400    298.19357   -1613.2507    447.95715    171.54941    427.30215    37655.765 
  416500    306.10975   -1608.5177    457.79084    221.60546    423.56645    37655.765 
  416600    305.94239   -1587.6043     483.6029    267.58069     543.8369    37655.765 
  416700    292.56109   -1587.4749      480.057    204.17392   -396.33607    37655.765 
  416800    290.58954   -1550.6796    485.78052    237.85403    89.493533    37655.765 
  416900    287.40913     -1572.95    476.19797    191.74291   -91.836159    37655.765 
  417000    302.58307   -1560.2411    477.31834    273.59899   -95.305626    37655.765 
  417100    316.77378   -1561.6287    477.49551    336.00745    100.58967    37655.765 
  417200    295.82902   -1538.9031    481.21618     268.5555    23.039327    37655.765 
  417300    304.97294   -1546.3907    494.46282    315.30799    125.52359    37655.765 
  417400    292.43667   -1600.6634    479.89044     190.2611    152.74424    37655.765 
  417500    301.16455   -1561.1075    463.04231    252.09719      161.712    37655.765 
  417600    295.05807   -1556.2414    485.91798    252.46268    118.62201    37655.765 
  417700    293.84183   -1561.6904    467.96192    223.60513    333.53249    37655.765 
  417800     294.7622   -1514.7732    482.50491     289.1914    52.941241    37655.765 
  417900    295.39607   -1559.3334     501.7829    266.75096   -76.311473    37655.765 
  418000    298.40243   -1540.2525    465.88146    263.40834   -332.89222    37655.765 
  418100    305.36407   -1567.6442    491.42973    292.77489    32.369484    37655.765 
  418200    296.28606   -1534.2323     484.5868    278.64588   -206.60488    37655.765 
  418300     295.6175   -1558.0976    474.63685    241.83337   -52.230334    37655.765 
  418400    307.69599   -1574.1721    489.25938    294.53092    140.42984    37655.765 
  418500    305.22226   -1551.2628    484.32354    301.41439   -434.39456    37655.765 
  418600    290.30968   -1542.9424    480.44054    238.99659   -352.79448    37655.765 
  418700    291.74115   -1531.4462    464.42495    240.89469   -632.62633    37655.765 
  418800    308.34627   -1549.1198    498.42364    331.66281   -367.97484    37655.765 
  418900    296.69646   -1487.2188    517.54363    360.45611   -456.86491    37655.765 
  419000    290.99247   -1484.6986    482.92734    302.78828   -147.96465    37655.765 
  419100    307.09663   -1485.8541    503.96681    394.86941   -14.336333    37655.765 
  419200    312.73215    -1506.809    490.75704    385.96957    133.26666    37655.765 
  419300    294.20723   -1489.6811    502.34608    331.63669   -260.63664    37655.765 
  419400    303.27957   -1545.4232    478.23993    292.46103    30.327788    37655.765 
  419500    298.93084   -1526.9636    502.16772    315.35243    306.29633    37655.765 
  419600    303.74048    -1529.532    478.85693    311.03548   -101.60031    37655.765 
  419700    311.67513   -1536.6701    463.70148    324.31411   -700.00122    37655.765 
  419800    297.31293   -1525.9389    500.43749     307.3936    257.86747    37655.765 
  419900    303.36082   -1545.3833    497.05119    311.67637    216.96082    37655.765 
  420000    301.56276   -1613.0795    466.79799    205.66604   -238.82967    37655.765 
  420100    300.53262    -1615.286    436.44867    168.49196   -708.78823    37655.765 
  420200    294.33012   -1564.6185    473.09744    228.00157   -548.47675    37655.765 
  420300     298.8347   -1550.2643    477.25104    266.70401    -263.2649    37655.765 
  420400    295.27676   -1576.9116    488.79989    235.65482   -390.29615    37655.765 
  420500    309.71633   -1606.8211    441.43454     223.1146    172.60707    37655.765 
  420600    301.43882   -1553.2235    491.34621    289.51457      22.4141    37655.765 
  420700    299.05237   -1583.8873    460.96814    217.77393    473.92993    37655.765 
  420800    308.72792   -1587.9334    491.38992    287.52651    190.75271    37655.765 
  420900    308.58087   -1604.6297    465.58952    244.37049    155.96917    37655.765 
  421000    291.65715    -1594.406    480.23616    193.36949    148.58286    37655.765 
  421100    299.76904   -1642.7672    490.82502    191.96386   -377.34851    37655.765 
  421200    298.90065   -1570.8223    452.18389    221.37452   -517.70427    37655.765 
  421300    308.43517   -1562.9923    469.49723    289.26245    -588.5906    37655.765 
  421400    304.32208   -1589.8109    478.72412    253.23119   -580.62832    37655.765 
  421500    302.78792   -1572.3817    464.26954    249.32798    -299.9498    37655.765 
  421600    305.47032   -1645.7828    464.54199    188.22484   -732.28147    37655.765 
  421700    296.39617   -1568.8632    472.95412    232.87595   -132.64487    37655.765 
  421800    294.95087   -1577.1093    489.23881    234.43506   -24.332065    37655.765 
  421900     301.3257   -1580.4871    478.04333    248.44099   -72.324495    37655.765 
  422000    301.27572   -1604.2851    461.43543    207.81104    75.407285    37655.765 
  422100    303.00405   -1551.5407    465.38299     272.2514   -1.9673057    37655.765 
  422200    312.79209   -1530.9566    466.91406    338.24772    228.03799    37655.765 
  422300    296.02525   -1579.1889    471.48721    219.42039   -401.93817    37655.765 
  422400    295.88483   -1570.7303    474.47541     230.2377    96.713862    37655.765 
  422500    291.40942   -1550.8067    472.66178    228.28384    57.485392    37655.765 
  422600    308.28001   -1508.1185    503.44929     377.3927   -30.823798    37655.765 
  422700    292.67714   -1525.1198    473.80561    260.79793    403.36462    37655.765 
  422800    307.76789   -1507.4432    512.38103    384.70388    900.23172    37655.765 
  422900    312.07501    -1521.923    476.11726    353.26967    645.80884    37655.765 
  423000    288.68089   -1532.5288    479.86173    241.52925   -349.06822    37655.765 
  423100    286.35878   -1513.9463    472.50271    242.34241   -40.776522    37655.765 
  423200    307.08136   -1505.5016    476.83898     348.0256    364.71862    37655.765 
  423300    282.17223   -1500.3393    504.93023    269.60807    50.942171    37655.765 
  423400    298.44356   -1527.3404    480.27048    290.89382    129.86606    37655.765 
  423500    307.55701   -1538.1343    459.42835    300.11466     207.3819    37655.765 
  423600    299.01192   -1493.2532    501.81743    349.07604    387.76469    37655.765 
  423700     302.9421   -1501.4869    490.89233    347.53677    428.79993    37655.765 
  423800     298.9286   -1518.6915    458.09793    279.54467   -128.83951    37655.765 
  423900    298.63181   -1513.1222    512.98154    338.66704    403.99454    37655.765 
  424000    293.45157   -1528.1165    495.24009    282.70755    461.23663    37655.765 
  424100    298.21403   -1486.1342    510.50107    361.30159    519.07237    37655.765 
  424200    303.53768   -1507.8961    496.67098    349.57628    402.93303    37655.765 
  424300    299.53961   -1500.0278    493.86877    336.71843   -191.59987    37655.765 
  424400    301.24428   -1482.5388    490.50746    358.48839    601.39723    37655.765 
  424500     294.1337   -1509.6908    490.93101    299.88227    679.35589    37655.765 
  424600    306.32946   -1471.3899    509.78935    411.71676   -128.82708    37655.765 
  424700    305.26612   -1467.5468    485.84126    386.84471    179.67277    37655.765 
  424800    305.02826   -1475.4089    492.45312    384.52812   -183.34148    37655.765 
  424900    302.07835    -1488.817    514.79354    380.23559   -498.21758    37655.765 
  425000    295.64763    -1493.509    477.26022    309.18048    221.87308    37655.765 
  425100    304.22795   -1510.2626    497.36078    350.99414    622.87633    37655.765 
  425200    303.68481   -1507.3075    494.95914     349.1126    393.58079    37655.765 
  425300    313.51179   -1515.6455    482.86506    372.73627     777.0129    37655.765 
  425400    299.82091   -1542.2469    492.25591     294.1476    397.16904    37655.765 
  425500    300.99642   -1454.1209    513.26599     408.5536    436.71617    37655.765 
  425600     303.5525   -1511.7119    476.08702      325.243   -82.221287    37655.765 
  425700    311.52592   -1509.0833    470.47874    358.00929   -259.96034    37655.765 
  425800    296.48733   -1507.3609    489.80766     311.6405   -242.33496    37655.765 
  425900    305.96871   -1505.5454    476.88827    343.04294   -1042.4719    37655.765 
  426000    297.47619   -1532.9326    481.00567    281.69999   -539.59586    37655.765 
  426100    312.48442   -1553.7769    467.03579    314.16971   -371.79416    37655.765 
  426200    302.37475   -1548.0528    462.26036     269.7954   -606.00889    37655.765 
  426300    292.31747   -1552.6002     462.9003    220.79977   -728.44478    37655.765 
  426400    296.95588   -1508.1148    503.90286    327.08237   -807.27457    37655.765 
  426500    300.30847   -1534.2102    457.72895    269.84313   -20.995893    37655.765 
  426600    295.98169   -1569.3973    477.87971    235.40929   -270.22402    37655.765 
  426700    295.87812    -1587.555     491.9791    230.88663   -126.82774    37655.765 
  426800    294.03614   -1559.2131    467.62135    226.61295    269.58185    37655.765 
  426900    292.66467    -1555.194    491.65832    248.52057    116.55932    37655.765 
  427000    294.55495   -1591.1125    477.13607    206.55409     21.13852    37655.765 
  427100     295.7096   -1512.0045    474.56949    288.27208    190.61667    37655.765 
  427200    300.36613   -1552.2679    485.00228    279.31728   -247.81432    37655.765 
  427300    304.83271   -1524.8996    486.12165    327.82929   -419.65403    37655.765 
  427400    314.53812   -1483.4398    469.86962    396.54772   -812.26542    37655.765 
  427500    294.57731   -1535.9875    474.18295    258.82627   -464.60481    37655.765 
  427600    297.17474   -1514.2973    489.43879    307.41696    4.0012789    37655.765 
  427700    307.81557   -1494.6894    496.30961    381.59997    461.56631    37655.765 
  427800    305.22183     -1511.25    474.46091    331.56262    261.64029    37655.765 
  427900    306.25185   -1538.1169    474.67143    309.52393    539.36202    37655.765 
  428000    288.76167   -1502.2094    487.45078    279.79985    62.282174    37655.765 
  428100    306.43159   -1500.4447    515.87012    389.20061    358.51417    37655.765 
  428200    292.61993   -1521.2329     481.0174    271.64017   -567.78611    37655.765 
  428300    304.44223   -1508.9473    494.54508    350.45435   -485.90822    37655.765 
  428400    297.47133   -1528.6124    478.33637    283.32909   -155.78346    37655.765 
  428500    296.65752   -1531.7597    495.42699    293.62393    141.36079    37655.765 
  428600    301.79407   -1508.7898    482.22826    326.42303    302.80721    37655.765 
  428700    300.15651   -1481.3328    478.16404    342.47435   -215.84581    37655.765 
  428800    294.76902   -1501.9933    477.89246    297.38948   -114.95748    37655.765 
  428900    294.16455   -1516.7648    506.33238    308.34791    18.620172    37655.765 
  429000    299.38661   -1510.5231    475.04361    306.71207   -76.677189    37655.765 
  429100    301.33103   -1512.7246    488.73043    326.91453   -30.091919    37655.765 
  429200    298.07764   -1481.5758    489.67649    344.42395   -206.28153    37655.765 
  429300    298.81218   -1496.4188    479.80228    322.99983   -476.94728    37655.765 
  429400    306.38703   -1493.2574    460.07769    340.39577    241.71118    37655.765 
  429500    294.54677   -1538.1647    479.45071    261.77993   -470.45155    37655.765 
  429600    293.85585   -1470.0389    489.55405    336.91156    -810.6559    37655.765 
  429700    305.52961   -1512.4314    478.98022    336.28038   -851.38368    37655.765 
  429800    303.33173   -1464.9918    493.75514     388.6415   -674.75085    37655.765 
  429900    302.59411   -1475.3154    485.68549    366.94135   -379.18097    37655.765 
  430000    304.00266   -1444.8831    491.02891    409.03179   -100.39713    37655.765 
  430100    310.19007   -1470.5991    461.72761    381.75348   -167.46923    37655.765 
  430200    297.53113   -1484.9435    515.30795    364.23769    401.93556    37655.765 
  430300    305.47334   -1496.8854    482.39754    354.99134     820.3845    37655.765 
  430400    296.64336   -1518.6084    487.94341    299.22823    514.51302    37655.765 
  430500    291.69972   -1514.1023     497.1396    290.76746    848.34733    37655.765 
  430600    311.92346    -1498.571    492.98516    392.81024    708.79358    37655.765 
  430700    305.14085     -1555.81    472.10099    284.27963    568.73589    37655.765 
  430800     299.8097   -1531.6515    471.46921     283.9061    289.28199    37655.765 
  430900    293.45539   -1558.2716    492.86735    250.19685    71.782466    37655.765 
  431000    309.89972   -1550.6017    468.58903    307.31069    177.86548    37655.765 
  431100    292.72877   -1528.9245    484.17337    267.59239   -258.25519    37655.765 
  431200    305.13262   -1493.3974    474.99452    349.54882   -665.90789    37655.765 
  431300    288.65665   -1527.8395    467.06037    233.30859   -174.74997    37655.765 
  431400    291.77566   -1520.1949    491.40605    279.28175    147.42664    37655.765 
  431500     285.5891   -1500.2524    482.65149    262.73448    351.73544    37655.765 
  431600     302.7706    -1514.594    481.04826    323.81671    480.91197    37655.765 
  431700    292.46574   -1530.0117    452.74581    233.89842    534.97031    37655.765 
  431800    297.91412   -1469.8058    518.61577    384.40012    215.92547    37655.765 
  431900    311.75873   -1476.9495    448.46529    369.17324    723.36751    37655.765 
  432000    312.70948   -1473.8333     470.4793    398.56583     598.0284    37655.765 
  432100    295.36428   -1495.8671    502.16388    330.45573    33.275276    37655.765 
  432200    299.61958   -1481.3108    478.66086    340.58606    27.336331    37655.765 
  432300    305.85894   -1458.8284    510.03299    422.41254    11.500228    37655.765 
  432400    299.74652   -1492.8393    451.20051    302.16636   -22.598669    37655.765 
  432500    298.07163   -1489.4762    509.44854    356.26871   -661.95399    37655.765 
  432600     309.9854   -1487.9741    494.24469    395.97799    8.6015208    37655.765 
  432700    298.51744    -1499.838    448.07231     286.5293   -197.66535    37655.765 
  432800    303.98972   -1488.3853    468.26356    342.70618   -93.684401    37655.765 
  432900    303.27514   -1519.3651    476.57662    316.83592   -27.821033    37655.765 
  433000    293.74016   -1542.2445    465.33766    239.97097    282.22341    37655.765 
  433100    297.43719   -1519.3421    461.41559    275.52553    75.479943    37655.765 
  433200     308.2731    -1529.245    473.52084    326.30677   -20.319393    37655.765 
  433300    300.14044   -1554.1481    447.52868    238.95168   -74.784621    37655.765 
  433400    308.59502   -1547.7623    475.62543     311.3373   -63.471283    37655.765 
  433500    289.41137   -1555.1926    447.96025    190.23882   -3.1437797    37655.765 
  433600     300.8226   -1504.5868    474.29006    318.33261   -47.862061    37655.765 
  433700    306.78215   -1493.7726     472.9998    354.57397    35.237477    37655.765 
  433800    298.12456   -1477.5411    468.00111    326.99362    133.22291    37655.765 
  433900     308.6261   -1470.2117    471.21084    384.61264   -102.38911    37655.765 
  434000    306.58921   -1483.4511    461.76376    352.79452   -335.45047    37655.765 
  434100    301.00941   -1505.3814    492.19587    336.28124    107.78963    37655.765 
  434200     298.8538   -1517.7436    471.02684    293.08614    248.95106    37655.765 
  434300    300.09385   -1497.5358    460.54289    308.36932    33.705753    37655.765 
  434400    304.99321   -1500.8819     478.7516    345.19646    326.65297    37655.765 
  434500    301.25715   -1502.3809    478.01926    326.21586   -143.18914    37655.765 
  434600    300.28565   -1529.7444    463.10788    279.58555   -454.89401    37655.765 
  434700    306.82471   -1532.0176     459.5568    303.07685   -106.79663    37655.765 
  434800    303.03985   -1541.2138    452.13466    269.49046   -44.751372    37655.765 
  434900     310.9872   -1531.6531    464.11404    326.65962    520.42852    37655.765 
  435000    303.78016   -1502.5999    512.90209    372.19062    976.04853    37655.765 
  435100    289.50717   -1545.3184     437.0842    189.66655    581.97698    37655.765 
  435200    299.43013   -1535.1178    494.61262    301.88153    769.72536    37655.765 
  435300    300.01523   -1510.6122     446.9896    281.38722    498.01395    37655.765 
  435400    296.75937    -1489.738    509.96264    350.63801   -136.93246    37655.765 
  435500    300.55051   -1511.9685    480.57249     316.0135    202.89675    37655.765 
  435600     304.8504   -1511.0522    500.38178    356.01611    294.37147    37655.765 
  435700    293.02591   -1517.0388          476    272.63687   -301.48474    37655.765 
  435800    297.88266   -1496.9222     488.4962    327.02316   -317.18231    37655.765 
  435900    293.02737   -1498.0702     470.8862    286.49826   -537.23447    37655.765 
  436000    296.78876    -1543.168    462.57243    249.94952   -320.94869    37655.765 
  436100    302.09346   -1516.8916    511.25331    348.68845    405.52406    37655.765 
  436200    298.01991   -1520.4903    469.49049    285.06469    162.04393    37655.765 
  436300    299.27158   -1522.1035    487.38289    306.95524   -33.897665    37655.765 
  436400    310.28119    -1528.972    462.30575    324.36726   -323.39967    37655.765 
  436500    299.92847   -1526.2609    469.23895    287.59893   -418.97483    37655.765 
  436600     307.3857   -1520.3461    488.15833    345.86487   -566.78506    37655.765 
  436700    290.90144   -1505.4879    487.37862    286.04214   -140.33441    37655.765 
  436800    302.10898   -1522.2695    488.53125    320.65812   -217.47412    37655.765 
  436900    303.15274    -1478.897     474.2259    354.40459   -96.839354    37655.765 
  437000    295.08651   -1499.1201    491.18424     314.9778   -490.01263    37655.765 
  437100    305.10066   -1522.5921    476.82123    322.03759   -237.15686    37655.765 
  437200    296.28738    -1537.458     461.1536    251.99288   -277.85248    37655.765 
  437300    300.10998   -1536.8186    508.86292    317.47888     48.83814    37655.765 
  437400    300.74081   -1495.9222    487.81572    340.15611   -289.82263    37655.765 
  437500    287.71777   -1489.0789    474.81868     275.6183   -169.96334    37655.765 
  437600    305.54611   -1503.8648    490.64842    356.58909   -345.29707    37655.765 
  437700    293.81679   -1518.8717    461.83678    260.18635   -333.66114    37655.765 
  437800    295.83573   -1557.4762    514.53164     283.3279   -85.321307    37655.765 
  437900    293.45991   -1533.9638    486.42192    268.07949   -302.38384    37655.765 
  438000    304.32347   -1562.3217    476.38281    278.38534    -750.3978    37655.765 
  438100    296.01974   -1534.1283    481.45151    274.42065   -228.99367    37655.765 
  438200    310.71016   -1543.2416    496.33807    346.05305   -422.96234    37655.765 
  438300    294.65137   -1530.1616    479.71201     270.5132    -434.0494    37655.765 
  438400    298.38207   -1499.9297    487.11884    324.87724   -481.72243    37655.765 
  438500    295.30241   -1526.8445     481.9676    279.00463   -279.95578    37655.765 
  438600    307.03594   -1507.6109    482.53254    351.40627   -131.16871    37655.765 
  438700     309.6924   -1494.4262    473.91936    367.88697    223.81838    37655.765 
  438800    306.43435   -1554.1077    473.36744    293.04734     265.3637    37655.765 
  438900    306.77362   -1512.7425    470.11871     332.6848    461.86766    37655.765 
  439000    290.63259   -1530.6144    496.16598    268.49771    529.02315    37655.765 
  439100    294.78477   -1557.8051    498.60442    262.36023    719.72887    37655.765 
  439200    299.32934   -1547.7313    480.74927     274.9528    841.28682    37655.765 
  439300    295.81701   -1513.1717    470.94841    283.96532   -2.2130775    37655.765 
  439400    310.21644   -1539.5811    490.81617    341.97829   -233.77154    37655.765 
  439500    314.06998   -1537.3279     463.5977    334.28901   -268.16905    37655.765 
  439600    307.81879   -1551.0734    500.35892    329.27973    -276.8966    37655.765 
  439700    300.89298   -1565.0328    484.95013    268.86221    301.25744    37655.765 
  439800    292.00836   -1557.8836    501.05596    252.28623    171.63567    37655.765 
  439900    298.86806   -1555.7553    516.42642    300.53797    32.592219    37655.765 
  440000    295.97323   -1560.0613    455.31688    222.14452   -55.051948    37655.765 
  440100    301.55425   -1583.4165    485.51541    254.00832   -70.468404    37655.765 
  440200    290.58507    -1545.509     506.2223    263.44637   -60.674753    37655.765 
  440300    294.59147   -1591.3306    476.71519    206.07892    600.75752    37655.765 
  440400    297.27287   -1542.4601    498.32267    288.57792    512.95992    37655.765 
  440500    293.33963   -1577.6667    483.52205     220.9375    318.85438    37655.765 
  440600    294.89094   -1493.9294    492.10188    320.20936    983.87958    37655.765 
  440700    290.58826   -1514.2195     496.5669    285.09482   -208.94713    37655.765 
  440800    294.31533   -1510.9441    503.14821    311.66047     185.6872    37655.765 
  440900    305.66514   -1498.5598    483.96552    355.74479    444.46727    37655.765 
  441000    301.07048   -1498.4187    502.31362    353.63547   -25.710707    37655.765 
  441100    309.30047   -1528.9582    511.73511    369.41365    411.88932    37655.765 
  441200    301.15188   -1523.8686    513.83339    340.07029    85.723947    37655.765 
  441300    293.31475   -1542.3425    488.02337    260.65148   -428.82548    37655.765 
  441400     296.2528   -1534.2564     484.0178    277.90368   -213.04218    37655.765 
  441500    296.83363   -1532.1976    471.46583    270.01445    182.65617    37655.765 
  441600    292.77152   -1515.8864    491.15778    287.80654   -376.28287    37655.765 
  441700    287.94317   -1549.0809    503.70991    245.51803   -47.033994    37655.765 
  441800    296.13033   -1580.1004    477.53143    225.02425    5.6728229    37655.765 
  441900    295.01502   -1567.2276    457.40221    212.76773   -436.10193    37655.765 
  442000    299.00105   -1568.4035    478.28185    250.34139   -640.66988    37655.765 
  442100    303.59395    -1530.255    473.75887    304.55752   -426.19892    37655.765 
  442200    293.54423   -1550.6886    473.24104    238.55183   -711.71507    37655.765 
  442300    298.71112   -1557.7778    479.20237    260.58785   -456.29042    37655.765 
  442400    297.05872   -1572.4668    488.18429    247.47286   -195.81421    37655.765 
  442500    301.88522   -1534.7375    489.82082    308.47649   -649.80111    37655.765 
  442600    305.78004   -1506.8483    476.25559    340.26153    68.541601    37655.765 
  442700    300.78912   -1552.8851    491.17051    286.76465     169.7971    37655.765 
  442800    299.12375   -1562.3068    485.58004    264.28642    999.98116    37655.765 
  442900    300.51026   -1529.4638    461.26759    279.03287    1141.5587    37655.765 
  443000    300.95073   -1574.8545    492.10759    266.45687    272.08661    37655.765 
  443100    299.89048   -1519.7777    466.92854    291.60134    398.05698    37655.765 
  443200    299.52819   -1518.9923    493.77901    317.61306   -109.81805    37655.765 
  443300    299.16695    -1516.712    488.51129     313.0061    276.14172    37655.765 
  443400    300.91559   -1546.6259    473.16127     275.5816    448.78673    37655.765 
  443500    308.04917   -1513.3639    485.46412    353.12723    548.05221    37655.765 
  443600    300.28589   -1559.2771    495.27744    282.22347   -70.540684    37655.765 
  443700    299.10402   -1540.7745    494.75964    294.90986    830.81256    37655.765 
  443800    290.09404   -1496.3296    500.78327    304.98534    336.14985    37655.765 
  443900    305.22341   -1527.4201    500.10782    341.04648    219.52368    37655.765 
  444000    297.60205    -1506.444    493.49979    321.24695    179.06928    37655.765 
  444100    305.87058   -1516.8922    469.40482    323.77277    198.60538    37655.765 
  444200    297.57079   -1507.5895    491.13989     317.6014   -358.55846    37655.765 
  444300    289.28073   -1520.7316    484.08867    260.24257   -402.59192    37655.765 
  444400    303.93756   -1494.0782    491.12684    359.64279   -552.22185    37655.765 
  444500     301.2509   -1514.8949    480.24909    315.90366   -95.811542    37655.765 
  444600    289.54816   -1526.4682    498.73911    270.35533   -538.24656    37655.765 
  444700    301.48752   -1562.3912    475.77864    264.99774    63.986793    37655.765 
  444800    304.42386   -1583.8914    455.41379    236.29663    203.11374    37655.765 
  444900    309.40777   -1580.2016    462.68322    269.59943   -71.089858    37655.765 
  445000    308.56124   -1521.7957    475.20613    336.73315    193.38468    37655.765 
  445100    308.25586   -1524.6662    473.75042    331.03791    26.562322    37655.765 
  445200    286.09829   -1526.4653    493.45038    249.60327   -110.38344    37655.765 
  445300    316.51652    -1512.364    460.81971    367.44308   -10.259723    37655.765 
  445400    298.10154    -1533.929    502.60778    305.10917    137.19923    37655.765 
  445500    303.91827   -1525.3708    481.41364    318.55048    115.32806    37655.765 
  445600    305.97596   -1544.4541    460.40133    287.67978   -338.37889    37655.765 
  445700    302.09194   -1567.2353    477.81841    264.90306   -325.13293    37655.765 
  445800    301.63698   -1523.0332     474.8597    304.10678   -346.72957    37655.765 
  445900    299.91241   -1527.4168    479.87041    297.00243    11.539809    37655.765 
  446000    299.16447   -1495.7554    506.59759    352.03791   -437.75453    37655.765 
  446100    290.07702   -1492.1563     489.0074    297.30655   -832.12919    37655.765 
  446200     294.8177   -1531.2388    479.28667    269.75644   -257.55317    37655.765 
  446300     293.5393   -1523.5602     506.2023    298.61944   -239.12075    37655.765 
  446400    302.16809   -1515.2948    485.31666    324.68317   -180.05256    37655.765 
  446500    291.32233    -1523.361    485.40923    268.08648    247.43369    37655.765 
  446600    299.41526   -1572.0304    487.42731    257.71688    -235.0804    37655.765 
  446700    295.43112   -1550.3119    484.55434    258.70098    479.95559    37655.765 
  446800    301.74855   -1529.2989    504.31946    327.80103    191.75642    37655.765 
  446900    295.30785   -1563.9752     498.7093    258.64001    294.21151    37655.765 
  447000    299.20571   -1543.5437     480.0761    277.91302    172.52277    37655.765 
  447100    302.15545   -1579.3695    474.34617    249.58129     239.9218    37655.765 
  447200    304.52001   -1541.3201    491.52023    315.40549    548.96632    37655.765 
  447300    295.04785   -1578.0235    461.45356     206.1704    -116.7628    37655.765 
  447400    302.50816   -1579.4455    471.61864    248.35907   -513.14226    37655.765 
  447500    305.67017   -1538.4643    480.82616    312.72352   -1016.1296    37655.765 
  447600    297.93394   -1508.5618    471.22875    298.34594   -753.72905    37655.765 
  447700    305.70023   -1546.4074    484.55354    308.64256   -993.66321    37655.765 
  447800    308.17525   -1525.8691    498.28414    354.00728    -824.0069    37655.765 
  447900     305.9221   -1560.0786    469.76448    281.17693   -297.56996    37655.765 
  448000    299.12107   -1547.6028     477.3624    270.76072    461.62807    37655.765 
  448100     291.6748   -1550.5197    488.05143    245.15018     358.9866    37655.765 
  448200    280.48567    -1552.517    465.79356    170.73263    159.57923    37655.765 
  448300    305.71181   -1540.8323    481.52071    311.23674    772.05347    37655.765 
  448400    297.03881   -1537.8462    492.22792    286.04776    264.47028    37655.765 
  448500    286.14765   -1538.1875    460.74769    205.39972    -142.8254    37655.765 
  448600     294.1573   -1558.9301    509.79095    269.60869    19.163304    37655.765 
  448700    297.84936   -1569.5723    459.46628    225.19388   -284.87989    37655.765 
  448800    298.17506   -1556.9175    513.88021     293.7228   -258.66601    37655.765 
  448900    301.39503   -1567.3578    479.57428    263.41214    76.377188    37655.765 
  449000    304.75165   -1523.3195    475.48896    318.41328   -186.75962    37655.765 
  449100    296.90522   -1530.7884    505.87681    306.15556   -955.95455    37655.765 
  449200    300.42225   -1527.0531    467.03631    286.81767   -547.05304    37655.765 
  449300    299.59988   -1555.1912    457.96169    245.91822   -423.89347    37655.765 
  449400    306.39313   -1534.1202    489.40794    328.89048    -34.01816    37655.765 
  449500    304.43496   -1551.9647    478.12032    290.97969   -12.216845    37655.765 
  449600    300.00468   -1543.9797     510.3545    311.33727    672.59808    37655.765 
  449700    298.61516   -1546.9891    468.12789    259.87185    126.11388    37655.765 
  449800    309.78138   -1537.2904    458.11127    309.61363    16.404494    37655.765 
  449900    295.00807   -1552.7605     480.9381    250.73957    132.88686    37655.765 
  450000    306.45958   -1548.1309    477.10775    302.87752    459.95662    37655.765 
  450100    308.95292   -1545.5288    476.05444    315.60435     201.5235    37655.765 
  450200    306.77223   -1509.8517    506.17288    371.62351    543.80754    37655.765 
  450300    292.97512   -1558.1795    453.36847    208.63692    569.85239    37655.765 
  450400     303.5471   -1493.6478    509.58128    376.77712    223.86041    37655.765 
  450500    281.70533   -1519.3377     478.7638    222.35004   -276.09179    37655.765 
  450600    294.06117   -1554.6987    476.43107    240.04929    203.72083    37655.765 
  450700    305.57653   -1518.9191    448.18071     299.2035     429.6745    37655.765 
  450800    297.20114    -1509.065    476.72084    300.04969   -244.94442    37655.765 
  450900    306.78565   -1554.1332    473.83973    295.06899   -1095.5695    37655.765 
  451000    304.68056   -1539.8514    443.64601    269.71971    -384.4814    37655.765 
  451100    297.35477   -1553.4995    465.88299    245.46601   -82.778665    37655.765 
  451200    306.56109    -1592.726    455.18874    236.81851    371.10411    37655.765 
  451300    298.30412   -1531.9863    489.57845    294.93075    77.684172    37655.765 
  451400    309.21104   -1515.4992    485.35527    356.09193    411.89272    37655.765 
  451500    307.94974   -1500.5677     478.5411    358.55466    591.07877    37655.765 
  451600    308.09966   -1498.4594    463.02982    345.82381    824.29027    37655.765 
  451700    306.88811   -1518.6722    469.57137      326.721   -238.71502    37655.765 
  451800    295.93538   -1514.1526    449.65179    262.21844   -19.998148    37655.765 
  451900    307.93192   -1537.1561    461.93312    305.27834    426.50134    37655.765 
  452000    287.60203   -1565.7392    472.04787    195.66838   -169.59488    37655.765 
  452100    287.06124   -1570.0323    447.75148    164.65439   -151.61862    37655.765 
  452200    303.32029   -1532.2587    467.76793      295.336    452.36334    37655.765 
  452300    304.11366   -1565.6916    493.48363    291.17564    389.69629    37655.765 
  452400    302.98085   -1536.1591    458.06114    280.20711    734.53165    37655.765 
  452500    297.71908   -1553.9439    495.65421    276.42616    250.13147    37655.765 
  452600    288.65733   -1573.6254    458.43383    178.89921    30.387375    37655.765 
  452700    295.51017   -1528.5848    456.61914    252.84725    33.575169    37655.765 
  452800     298.3301   -1484.9033    486.13796    338.68976    155.84473    37655.765 
  452900    289.21682   -1481.7694    472.26068    287.09026    86.995284    37655.765 
  453000    308.82853   -1515.4376    479.52435    348.60772    162.56792    37655.765 
  453100    295.81553    -1558.033     449.4158    217.56479    79.945067    37655.765 
  453200    302.19978    -1577.338    451.82965    229.29503   -56.488003    37655.765 
  453300    298.77594   -1564.8101    464.31727     238.9611    58.096766    37655.765 
  453400    291.19008   -1530.9432     483.6791    258.18132   -441.01684    37655.765 
  453500    299.15232   -1520.2147    461.92622    282.85279   -891.30292    37655.765 
  453600     298.7162   -1539.7614    457.63006     257.0547   -287.23732    37655.765 
  453700    298.86537   -1541.9742    461.56865     259.4492   -165.40039    37655.765 
  453800    300.92624   -1485.1039    474.47662    338.46661    56.911019    37655.765 
  453900    292.19584   -1511.2571    455.88203     254.5793   -35.865937    37655.765 
  454000    304.39765    -1518.302    472.13396    318.48874    189.91074    37655.765 
  454100    297.60105   -1486.1956    493.58264    341.57368    212.35487    37655.765 
  454200    297.44824   -1498.9837    468.09308      302.611   -378.23861    37655.765 
  454300    298.57547   -1531.9253    514.94369    321.57353    729.36817    37655.765 
  454400    295.21429   -1521.6123    467.22382      269.098    141.71894    37655.765 
  454500     305.4778   -1505.1187    473.43478    337.81528     163.1206    37655.765 
  454600    305.93391   -1529.4813     472.0162    314.07892   -730.99072    37655.765 
  454700    295.81486   -1559.7425    462.66996    229.10643   -797.29643    37655.765 
  454800    303.00523   -1535.7245    496.22205    318.91191   -987.97711    37655.765 
  454900    302.64464   -1509.5228      461.522      308.797   -927.54328    37655.765 
  455000    301.96383   -1496.2392     484.9884    342.49486   -965.19743    37655.765 
  455100    294.55085   -1549.0674     482.3435     253.7883   -561.14649    37655.765 
  455200    303.75264   -1545.9923    468.61317    284.38593   -651.97712    37655.765 
  455300    298.38014   -1530.9124    456.35651    263.12353   -189.12741    37655.765 
  455400    289.39572   -1501.9261    484.95058    280.42554   -881.05049    37655.765 
  455500    308.58666   -1575.9057    454.02683    261.55781     53.51555    37655.765 
  455600    292.07493   -1575.3442    445.26174    179.32983    -215.4884    37655.765 
  455700    296.93252   -1590.7383    491.96671    232.41794    173.50752    37655.765 
  455800    291.91341   -1568.8507    480.12437    219.96184   -300.93712    37655.765 
  455900    310.16816   -1536.1372    480.43905    334.82856    -151.6531    37655.765 
  456000    298.11023   -1555.7301    455.38462    236.12395   -385.67569    37655.765 
  456100     289.2001   -1514.5621    466.73154     248.6935     76.86464    37655.765 
  456200    294.63195   -1512.3529    481.94006    290.46297    634.62843    37655.765 
  456300     294.5259   -1565.0652    482.74657    238.08173    923.32265    37655.765 
  456400    309.67661   -1543.1601    496.40612    341.56909    676.38997    37655.765 
  456500     306.9569   -1549.4813    483.29953    309.94853    800.42265    37655.765 
  456600    293.16009   -1570.0585    448.65198    192.87066   -35.504185    37655.765 
  456700    299.39859   -1526.1798    484.14669    300.21221    361.76786    37655.765 
  456800    297.04227   -1509.9233    479.37498    301.13321    731.66886    37655.765 
  456900    300.36633   -1552.7235    461.59376    255.45409    290.97985    37655.765 
  457000    296.22273   -1563.0799    467.10725     232.0348    415.82096    37655.765 
  457100    309.39209   -1576.9966      477.403    287.45393    667.13939    37655.765 
  457200    294.95939   -1592.0741    461.66684     191.9365      38.8254    37655.765 
  457300    310.55555   -1564.1641      461.628    289.72739    52.631258    37655.765 
  457400    301.24118   -1569.9983    461.74028    242.24783    341.72132    37655.765 
  457500     303.1837   -1540.7003    473.84851    292.36266    323.54093    37655.765 
  457600    296.38931   -1507.8004    483.26835    304.22219   -284.39227    37655.765 
  457700    289.88813   -1555.5426    490.84527     234.9112   -228.02643    37655.765 
  457800    297.63363   -1539.2506    477.30403     272.3862   -196.73519    37655.765 
  457900    301.10237   -1538.8298    490.45519    301.50894   -30.081989    37655.765 
  458000    296.33479   -1525.0221    470.88612    274.37392   -192.58574    37655.765 
  458100    295.71573   -1491.8873    476.23987    310.08707   -362.78558    37655.765 
  458200    293.01351   -1523.9282    496.65264    286.34452   -700.00031    37655.765 
  458300     289.8918   -1504.9219    480.01779    274.72097   -524.28298    37655.765 
  458400    298.68723   -1533.9958    462.56564    267.62596   -267.83794    37655.765 
  458500    297.87566    -1493.053    504.42792    346.79265    387.73213    37655.765 
  458600    289.51877   -1519.4557    478.75777    257.25481    34.394529    37655.765 
  458700    296.68958   -1513.0797    467.70866    284.72936    681.51275    37655.765 
  458800    294.57391   -1511.6504    505.59455    314.55973    249.85289    37655.765 
  458900    303.31736   -1496.6958    476.87656    339.99444    381.24491    37655.765 
  459000    308.29535   -1487.9117    481.68866    375.90763    261.38694    37655.765 
  459100    297.22938   -1523.2962    479.35784    288.58202   -665.20087    37655.765 
  459200    295.97768   -1508.6525     464.1406      282.397   -496.26352    37655.765 
  459300    299.19539   -1534.3547    468.48522    275.46485    124.47133    37655.765 
  459400     312.2897   -1552.2303    480.27884    328.08647   -150.33796    37655.765 
  459500    298.63287   -1543.7474    486.21893    281.28395   -138.10974    37655.765 
  459600    303.68527   -1494.2184    522.40691    389.65159    7.2523054    37655.765 
  459700    305.12437   -1473.8766    485.62669    379.66488   -249.70122    37655.765 
  459800    296.87656   -1461.5119    478.40678    347.83355   -617.71748    37655.765 
  459900    302.01095    -1463.529    477.67513    368.10293   -69.419622    37655.765 
  460000    298.75078   -1504.7565    487.91018    322.49476   -494.07948    37655.765 
  460100    294.79439   -1559.3631    468.46444    230.70532   -305.08756    37655.765 
  460200    292.18738   -1561.7533    478.74815    226.91127   -280.51337    37655.765 
  460300    300.84091   -1578.2242     465.5074    235.99457   -253.01435    37655.765 
  460400    292.80819   -1542.9753    466.66787    236.39214    31.775956    37655.765 
  460500    303.34166   -1518.4092    477.34546    318.85887    507.26258    37655.765 
  460600    286.75731    -1536.109    493.64798    243.11166    457.20722    37655.765 
  460700      296.009   -1517.6506     483.6291    293.02784   -25.873975    37655.765 
  460800     297.6467   -1541.6684    462.51455    255.23751    321.38539    37655.765 
  460900    297.77606   -1569.2377    488.43495    254.16846    181.32197    37655.765 
  461000    295.97845   -1547.6297    495.61633      274.899    35.333627    37655.765 
  461100    298.59481    -1550.786    482.43367     270.2895   -145.12306    37655.765 
  461200    307.09911   -1522.6072    493.58928    347.74985    182.07317    37655.765 
  461300    297.99272   -1537.1001    470.35904    269.20148    519.56866    37655.765 
  461400    288.60509   -1550.9898    488.82022    231.68691   -295.97355    37655.765 
  461500    296.10122   -1518.5325     466.2223    275.15257   -199.29678    37655.765 
  461600    298.22077   -1539.3684    496.27503    293.87162   -499.20193    37655.765 
  461700    302.79809   -1516.7549    480.11403    320.84488   -341.08032    37655.765 
  461800    296.64452   -1543.4312    488.31624    274.78342   -246.36308    37655.765 
  461900    304.97257   -1521.7467    475.69854    321.18611    32.564555    37655.765 
  462000    297.86785   -1589.1695     483.6347    229.84795    -230.3585    37655.765 
  462100    293.84352   -1548.6903    473.81947     242.4703    400.76717    37655.765 
  462200    304.10881   -1524.2192    512.19497    351.33757   -126.00864    37655.765 
  462300    290.85536    -1503.076    495.08118    295.94999   -408.57198    37655.765 
  462400    307.43711   -1535.3966    480.99194    323.87843   -138.54727    37655.765 
  462500    292.77904   -1515.3624    472.24147    269.44801   -932.85867    37655.765 
  462600    304.18276   -1517.6582    497.04286     343.0781   -799.04097    37655.765 
  462700    293.97668   -1520.6404    469.96081    267.25847   -360.92656    37655.765 
  462800    301.59822   -1524.8545    482.60405    309.85611   -362.02999    37655.765 
  462900    301.95277   -1506.6403    468.29324    315.34892    865.67437    37655.765 
  463000    307.32424   -1495.7513     495.1632    377.18896    241.38907    37655.765 
  463100    308.71742   -1566.3279    462.42918    280.12423    16.012819    37655.765 
  463200     308.6909   -1553.0173    490.57911    321.46579    149.93418    37655.765 
  463300    293.92899   -1562.8815    447.26298    202.10582    -25.55632    37655.765 
  463400     294.9071   -1590.3759    480.41936     212.1528   -139.52893    37655.765 
  463500    299.68276    -1590.272    473.21595    226.46325   -84.418401    37655.765 
  463600    304.98754   -1599.4188    488.41608     256.2986    33.680548    37655.765 
  463700    309.92202   -1550.3775    483.70513    322.75086   -25.881734    37655.765 
  463800    303.64915   -1581.4143    469.64196    249.52878    62.973337    37655.765 
  463900    309.60702   -1562.5775    462.00768    287.44122    178.66904    37655.765 
  464000    305.76097   -1565.6932    462.52997    267.60545    470.96407    37655.765 
  464100    300.82587   -1578.1685    459.60024    230.07571   -126.62048    37655.765 
  464200    303.07913    -1560.112    495.55117    294.18478    555.25039    37655.765 
  464300    282.04197    -1524.835    497.57424    237.17243    137.33378    37655.765 
  464400    306.47984    -1538.688    471.15268    306.45621   -126.85343    37655.765 
  464500    305.43865   -1555.6396    454.26761    267.95175   -456.23916    37655.765 
  464600      308.314   -1551.2135    497.40342    328.40427   -369.13815    37655.765 
  464700     305.7661   -1524.5933    503.90172    350.10014   -418.27925    37655.765 
  464800    304.43897   -1464.3583    475.94908     376.4328   -784.79357    37655.765 
  464900    295.82595   -1506.1055    482.83174    302.95493   -351.58502    37655.765 
  465000    306.83579   -1525.0865    482.53363    333.03444   -487.69151    37655.765 
  465100    292.89518   -1547.0681    485.21671    251.23822   -252.21973    37655.765 
  465200    301.22001   -1535.0202     482.9995    298.39024    -296.2283    37655.765 
  465300     305.7285   -1554.7763    466.02742    281.87421   -536.10959    37655.765 
  465400    296.55845   -1569.9692    468.57079    228.11416   -765.23628    37655.765 
  465500    295.07319   -1534.8633    461.54138    249.53198   -350.60819    37655.765 
  465600    308.39157   -1517.1524     478.5854    343.99504   -326.92809    37655.765 
  465700    311.59531   -1543.7591    485.21764    338.38338    66.127806    37655.765 
  465800    309.91029   -1497.7295    486.06127    377.70247    -481.8582    37655.765 
  465900    289.82589   -1505.7947    455.01562    248.55047   -687.52391    37655.765 
  466000    289.45108   -1579.2449    471.43749    189.84179   -1051.8593    37655.765 
  466100    304.14645   -1544.3665     474.9288    294.09293   -1159.9645    37655.765 
  466200    298.81965   -1564.1905    452.22485    227.68419   -820.14938    37655.765 
  466300     301.8514   -1588.4628    460.56469    225.34348   -472.28783    37655.765 
  466400    291.33765   -1561.2589    493.77422    238.62229    178.84124    37655.765 
  466500    303.14132   -1530.1583    489.46457    318.33073    396.03588    37655.765 
  466600     305.7416   -1580.5337    462.52244     252.6706   -472.32175    37655.765 
  466700    289.22071   -1589.9941    466.16476    172.78708   -36.718204    37655.765 
  466800    295.89138   -1576.7646    490.00298    239.76035    156.98781    37655.765 
  466900    304.14911   -1579.1834     457.9253    242.28441    14.244346    37655.765 
  467000    296.76282   -1546.7436    478.40875    262.09393   -38.139389    37655.765 
  467100    303.81797    -1536.305     477.5097    303.26268     -42.3586    37655.765 
  467200    294.73043   -1534.5718    473.30251      260.048    23.863384    37655.765 
  467300    287.08653   -1526.9655    490.84023    250.92334    136.88619    37655.765 
  467400    294.39988   -1506.2667    471.95634    285.52501   -269.22523    37655.765 
  467500    304.58471   -1503.7713    481.56999    343.29403    80.341843    37655.765 
  467600    298.68548   -1516.9248    485.21351    307.33704    79.030036    37655.765 
  467700    295.92387   -1510.6714     475.6369    291.63316    -127.3796    37655.765 
  467800    309.34988   -1572.4187     482.4026    296.84218     349.0014    37655.765 
  467900    296.76744   -1536.0457    485.73907    280.14282    359.26446    37655.765 
  468000    302.87185   -1532.2144    479.27941    304.88139    415.84802    37655.765 
  468100    300.81872    -1508.182    485.95002    326.37991    132.08587    37655.765 
  468200    296.57733   -1488.3995    469.60082     310.7985    141.63844    37655.765 
  468300    298.46396   -1488.9265    509.27746    358.40613   -197.94171    37655.765 
  468400    294.27214   -1528.6484    481.00462    271.61893   -251.72554    37655.765 
  468500    292.86391   -1547.0648    466.98496    232.86957    283.51787    37655.765 
  468600    299.72138   -1542.1131    494.28231     295.8616    200.90776    37655.765 
  468700    307.76485   -1547.4843    476.24392    308.51205    147.22265    37655.765 
  468800    298.92042   -1516.4269     487.0012    310.67585   -26.031448    37655.765 
  468900    296.31376   -1518.3263    472.74987    282.83916    291.58883    37655.765 
  469000    307.77032     -1442.83    525.54268    462.48955    545.30106    37655.765 
  469100    289.91834   -1446.9148    484.37908     337.2083    421.13978    37655.765 
  469200    294.39767   -1494.0553    486.02999    311.80016    53.806763    37655.765 
  469300    298.95419   -1457.2156    486.89399     369.9314    327.14246    37655.765 
  469400    286.67545   -1465.3992    501.73353    321.54004     552.0384    37655.765 
  469500    301.95684   -1513.3655    466.35695    306.70575    311.48833    37655.765 
  469600    298.04032   -1493.7262    501.32535    343.75506    92.206949    37655.765 
  469700    304.12609   -1512.7159    502.76159      353.485    171.77469    37655.765 
  469800      315.076   -1525.1929    510.19031    397.52665    156.38577    37655.765 
  469900    294.57013   -1525.2955    473.22813    268.53125    392.33343    37655.765 
  470000    306.45445   -1505.1648    489.42847    358.14134    197.44014    37655.765 
  470100     302.2576   -1503.9302    465.36731     316.4998    33.607371    37655.765 
  470200    305.89971   -1488.3972    502.86385    385.85734    234.21735    37655.765 
  470300    302.35693   -1488.1137     500.5334    367.92767   -407.52362    37655.765 
  470400    291.17541   -1503.9349    490.03143    291.47616   -926.64243    37655.765 
  470500    296.34848   -1502.3362    487.36139    313.59644   -929.24691    37655.765 
  470600    306.53782   -1496.4024    489.25696    367.10594    6.5651459    37655.765 
  470700    295.94811   -1530.7972    469.62366    265.60277   -327.03281    37655.765 
  470800    297.14317   -1540.3632    492.89811    284.66889     214.4554    37655.765 
  470900    297.91356   -1554.7568    483.85048    264.68135    38.847838    37655.765 
  471000    295.15561   -1489.2047    477.57822    311.59692   -116.01831    37655.765 
  471100    295.22403   -1531.2465    464.33065    256.61433    223.60869    37655.765 
  471200    307.25276   -1506.8291     497.7836    368.41112    871.50637    37655.765 
  471300    297.17149    -1518.005    487.41981    301.67567    880.88683    37655.765 
  471400    291.15492   -1560.4424    499.14161    243.98704    1118.0663    37655.765 
  471500    303.56365   -1530.7303    497.55367    327.74116    986.06165    37655.765 
  471600    308.23017   -1556.3323    480.78134    306.28753    275.40974    37655.765 
  471700    296.65786   -1534.4462    483.18048    278.69249    570.53255    37655.765 
  471800    306.66145   -1522.0479    483.70091    336.45872    186.47796    37655.765 
  471900    299.85786   -1535.1338    479.63518    288.80558   -164.56839    37655.765 
  472000    302.15373   -1571.9868    489.70064    272.31086   -121.51212    37655.765 
  472100    311.01193   -1547.1704    492.32009    339.45922   -168.77663    37655.765 
  472200    294.76279   -1537.8954    458.31112    241.87813    338.40267    37655.765 
  472300    306.96704   -1549.2722    483.86177     310.7653    260.95664    37655.765 
  472400    294.41742   -1515.6019    515.02385    319.33602     223.8808    37655.765 
  472500    301.99403   -1535.3349    472.81605    291.36214   -345.65895    37655.765 
  472600    306.81306   -1556.8328    486.67242    305.32498   -215.47283    37655.765 
  472700    296.29451   -1520.1461    477.68225    285.86537   -77.764148    37655.765 
  472800    286.74935   -1557.0051    489.93626    218.46816    41.199236    37655.765 
  472900    300.44838   -1581.0174    490.81418    256.74846    907.03729    37655.765 
  473000    297.33029   -1590.0541    479.34623     222.2649   -77.279147    37655.765 
  473100     295.6252   -1600.7145    446.12886    170.74305    330.78711    37655.765 
  473200    295.57141    -1577.214    446.93476    194.80831    912.32854    37655.765 
  473300    302.22925   -1591.1628      486.905     250.6777    293.09813    37655.765 
  473400    309.07483   -1617.4539    484.39578    252.56709    60.673749    37655.765 
  473500     292.6588   -1614.8075    456.70566    153.92798   -248.05223    37655.765 
  473600    305.60961   -1588.9359    471.36586     252.5201   -837.17968    37655.765 
  473700    316.60495   -1613.5331    469.13425    274.98489   -302.07808    37655.765 
  473800    295.95853    -1583.953    470.52634    213.39639     10.06281    37655.765 
  473900     302.3848   -1591.6335    461.88351    225.88289   -85.536339    37655.765 
  474000    311.54352   -1594.5967    454.61037    256.70639   -37.988943    37655.765 
  474100    294.58728   -1607.3378    477.10978    190.44753   -52.782135    37655.765 
  474200    297.89594   -1543.4698    464.54341    256.58233    893.63269    37655.765 
  474300    298.23791    -1571.931    474.32902     239.4398    895.28199    37655.765 
  474400    293.99297   -1553.0394    481.42667    246.39845    958.48226    37655.765 
  474500    299.71123   -1540.4578    485.69606    288.88512    375.73753    37655.765 
  474600    291.51891   -1539.8754     450.0852    217.12939     519.0704    37655.765 
  474700    303.06239    -1537.087    478.58867    300.17224    -192.3474    37655.765 
  474800    296.48058   -1580.6299    480.99736    229.53096    22.204633    37655.765 
  474900      293.894   -1589.6964    472.17308    200.04412    134.69966    37655.765 
  475000    298.27309    -1557.463    464.29882    244.03532   -182.37022    37655.765 
  475100    299.72374   -1622.6425    467.73202    188.79248    597.98268    37655.765 
  475200    293.48064   -1599.4407    456.38978     172.6634    245.01273    37655.765 
  475300    298.59728    -1542.951    483.34314    279.04506    65.694402    37655.765 
  475400    296.44257   -1571.8583    475.70566    232.84045   -37.745886    37655.765 
  475500    304.96569   -1548.7191    474.86186    293.34618    339.37451    37655.765 
  475600    310.15369   -1548.6204    477.35616    319.19766    486.89244    37655.765 
  475700    287.32548   -1535.5715    486.40109    238.94947    19.381516    37655.765 
  475800    297.36161   -1534.4332    488.61626    287.29625   -76.283743    37655.765 
  475900    293.97719   -1540.9022    479.67509    256.71332    334.50884    37655.765 
  476000    305.28593   -1544.7935    489.20497    313.05047     351.5545    37655.765 
  476100    294.00477   -1602.0962    473.87308     189.8409    445.88384    37655.765 
  476200    295.10318   -1571.6381    462.27726    213.62757    360.52641    37655.765 
  476300    293.41118   -1569.0849    467.63536    213.95334    979.84486    37655.765 
  476400    302.65673   -1541.1962     484.1098     299.7656    702.83018    37655.765 
  476500    300.54004   -1547.6418    517.83375    317.55453    224.31113    37655.765 
  476600    308.33152   -1565.2378    475.49232    292.54732    425.57223    37655.765 
  476700    310.60883    -1616.074    477.04258    253.47091   -95.602098    37655.765 
  476800    297.48529   -1626.7956    479.52011    186.39223    -101.8641    37655.765 
  476900    287.18398   -1585.3931    491.30992    193.40232   -14.669963    37655.765 
  477000    286.58499   -1602.4431    507.45393    189.81097   -286.18339    37655.765 
  477100    292.66595   -1590.7907    473.16611    194.43737    281.65435    37655.765 
  477200    293.02034   -1536.1583    468.08865    245.58105   -150.10255    37655.765 
  477300    292.73749   -1562.1423    478.92947    229.16987   -220.70934    37655.765 
  477400    297.91154   -1557.8639    464.73437    242.44906   -305.99441    37655.765 
  477500    297.51863   -1527.7356    481.79171    287.87333     141.3428    37655.765 
  477600    286.93168   -1530.5424    484.77478    240.58677    152.27422    37655.765 
  477700    297.46287   -1532.4955    484.07952    285.15123   -131.92093    37655.765 
  477800    290.09002   -1586.0706    473.16962    187.61268    268.32543    37655.765 
  477900      312.684   -1578.6352    471.56364     294.7341    188.25551    37655.765 
  478000    301.88918   -1591.9295    464.88866     226.3701    52.860339    37655.765 
  478100    301.49664   -1551.3431    479.97605    280.28412    23.535686    37655.765 
  478200    307.59006   -1548.4804    460.85004    291.33842    -172.4809    37655.765 
  478300    309.12258   -1561.7059    477.92789     302.0613   -243.83284    37655.765 
  478400    297.59824   -1571.9115    481.36996    243.63251   -3.6493174    37655.765 
  478500    290.68136   -1595.5283     454.1877    161.82417     464.4476    37655.765 
  478600    301.42052    -1610.813    468.01793    208.51478    209.64862    37655.765 
  478700    306.58778    -1583.578     478.7256    269.62304   -415.00098    37655.765 
  478800    295.40103   -1568.2469    467.24186    223.31863    -416.3468    37655.765 
  478900    310.93942   -1548.3007     507.2873    352.97103   -124.05849    37655.765 
  479000    297.86489   -1571.5832    442.39127    206.17756   -394.75651    37655.765 
  479100    305.37068   -1590.9875    478.29576    256.32726   -5.7219726    37655.765 
  479200    303.72121   -1584.3783    476.32279     253.5687   -54.072297    37655.765 
  479300    296.68129   -1610.4291    490.27086    209.90507    317.94514    37655.765 
  479400    307.29948   -1577.0443    477.22088    277.84269    769.18748    37655.765 
  479500    313.06813   -1593.7938    462.37179     272.1057    517.60384    37655.765 
  479600    303.21175   -1600.5615    454.86948    213.64814    359.60702    37655.765 
  479700     306.9181   -1631.9471    497.77915    241.78835    288.51423    37655.765 
  479800    297.00569   -1612.7409    490.20765    208.98435    246.18322    37655.765 
  479900     306.3104   -1573.0707    465.85169    266.01291   -407.34765    37655.765 
  480000    307.32306   -1620.9768    465.74193    222.53694   -249.12196    37655.765 
  480100    300.37389   -1606.8944    499.08095    238.80425    532.14435    37655.765 
  480200     290.9613   -1559.5115    470.78197    215.69019    149.91712    37655.765 
  480300    297.79809    -1609.808    464.25003     189.5121    205.23983    37655.765 
  480400    302.95158   -1575.0089    504.52476    287.68968    578.57223    37655.765 
  480500     293.5716   -1519.1769     481.3939     278.3391    786.03672    37655.765 
  480600    300.81487    -1537.837    470.70952    281.46714      586.768    37655.765 
  480700    300.23127   -1553.1871    486.33083    279.12206    1044.7682    37655.765 
  480800    294.30511   -1535.8997    467.80903    251.31983    846.05459    37655.765 
  480900    305.37917   -1540.2635    484.01899     312.8126    806.02555    37655.765 
  481000    302.61421   -1536.3525    471.47427    291.78313    720.72884    37655.765 
  481100     297.9484   -1561.0349    478.40113    253.11012     591.2822    37655.765 
  481200    301.31462   -1588.8569    491.78532     253.7635    263.39145    37655.765 
  481300    307.34945    -1578.022      459.759    259.62715     255.3989    37655.765 
  481400    303.73533   -1562.7724    491.24086    290.15597    408.55784    37655.765 
  481500    292.97896   -1618.2625    465.72502     160.9277    462.93967    37655.765 
  481600    299.73916   -1570.1358    469.96678    243.60305    251.63681    37655.765 
  481700    295.40577   -1546.4674    499.01161    276.88915    429.28655    37655.765 
  481800    308.08345   -1543.1114    469.86915    307.93843    651.48177    37655.765 
  481900    296.82706   -1562.7734    471.58953    239.53293    578.72955    37655.765 
  482000    297.78034    -1577.043    483.87404    241.82153    470.06926    37655.765 
  482100    297.08672   -1542.7851    478.53266    267.62837     561.4899    37655.765 
  482200    306.19709   -1550.7525    489.14364    311.11505     1097.433    37655.765 
  482300    307.87452   -1545.7804    463.49652    297.96022    602.67645    37655.765 
  482400    311.89285   -1514.1596    495.13067    379.22988     345.5945    37655.765 
  482500    295.05563   -1500.4398    488.02775    310.36317    677.56474    37655.765 
  482600    294.97996   -1527.6892    474.47202    269.21877    44.602631    37655.765 
  482700     308.2017   -1525.5271    483.49227    339.67603    264.62007    37655.765 
  482800    304.62056   -1484.3749    488.32495    369.60614   -56.205074    37655.765 
  482900    307.96078   -1518.4116    468.82946    331.04865   -198.17878    37655.765 
  483000     291.8601   -1539.4759    469.34078    238.31414   -156.26769    37655.765 
  483100    295.85008   -1535.2648    507.55982    298.63191   -260.42241    37655.765 
  483200    299.12253   -1539.9393    463.44643    264.51482    -16.59886    37655.765 
  483300    305.79648   -1528.5999    464.42813    306.75617    -925.4595    37655.765 
  483400     304.4129    -1510.743    457.52456    311.50671   -387.78193    37655.765 
  483500    289.29869   -1559.0861    482.20147    220.08138   -526.35013    37655.765 
  483600    303.59867   -1563.9389    460.24563    257.38158   -143.51774    37655.765 
  483700    309.30626   -1559.8423    453.18145    280.00189   -98.413585    37655.765 
  483800    307.12252   -1578.5591    476.84301    275.15668    -5.295395    37655.765 
  483900     298.7918   -1516.2383    483.83738    307.12406    86.418952    37655.765 
  484000    294.72666   -1516.6639    475.02253    279.65898     698.9183    37655.765 
  484100    297.05854   -1513.1762    500.69917    319.27747    473.08712    37655.765 
  484200    298.92174   -1547.6518     473.8252    266.28087    647.46424    37655.765 
  484300    293.59383   -1528.0263    475.07596     263.2714    184.92665    37655.765 
  484400    285.94804   -1510.6247    493.27087    264.59075    837.53075    37655.765 
  484500    293.67781   -1529.8899    478.82825    265.53664    200.43858    37655.765 
  484600    310.65715   -1536.8301     470.4759    326.36473     63.22701    37655.765 
  484700    300.54916   -1554.9699    463.67787    256.11139   -359.36919    37655.765 
  484800    307.88585    -1544.998    470.64117    305.93806   -320.98869    37655.765 
  484900    295.60551   -1530.0402    480.34238    275.54262    14.941324    37655.765 
  485000    293.10154   -1505.9028    475.19871    283.31067    479.83066    37655.765 
  485100    299.24956   -1540.2759     470.4926    271.79384    6.9087497    37655.765 
  485200    298.88242   -1514.2868    467.40217    293.04657     52.27257    37655.765 
  485300    297.96012    -1547.283    443.03087     231.5443    -231.9076    37655.765 
  485400    296.56422   -1577.7742    467.51603    219.28024   -570.83306    37655.765 
  485500      302.604   -1541.8148    508.59536    323.39618   -423.99587    37655.765 
  485600     301.9684    -1526.633    476.47282    303.60594   -746.77724    37655.765 
  485700     285.7214   -1541.0734    454.97664    194.83184   -555.40502    37655.765 
  485800    307.16218   -1570.1631    467.94121    274.82869    507.20229    37655.765 
  485900    302.35086   -1554.6464    460.53214    261.36647    566.01362    37655.765 
  486000    307.25845   -1550.9233     459.8008    286.35964    680.78582    37655.765 
  486100    293.28391   -1537.7527    482.41138    259.49106    696.19344    37655.765 
  486200    304.16764   -1550.6889    477.79018     290.7269    605.50184    37655.765 
  486300    304.75741   -1522.3607    472.95247    316.86137     207.2285    37655.765 
  486400    297.91772    -1508.765    478.73138    305.57267    184.43945    37655.765 
  486500    303.95625   -1470.8855    470.91865    362.71105   -299.10974    37655.765 
  486600     298.3516   -1523.1985    481.70714    296.06015   -833.17354    37655.765 
  486700    297.70552   -1535.8081    486.56347     285.4104   -617.95159    37655.765 
  486800    305.32462   -1578.7891    450.78132    240.80472    -426.6324    37655.765 
  486900    296.81578   -1558.4283    487.06812      259.306   -323.24928    37655.765 
  487000    297.48464   -1541.4928    506.12523    298.29718    108.39946    37655.765 
  487100    298.77036   -1543.9409    473.65554    269.14347     323.8189    37655.765 
  487200    296.25978   -1551.4366    474.10462    250.84165   -116.93527    37655.765 
  487300    299.25091   -1573.1656    476.40649    244.82409   -117.70275    37655.765 
  487400    298.68867   -1522.3732    473.83032    290.51968   -434.97291    37655.765 
  487500    296.04969   -1525.4357    458.37458    260.17062   -161.63808    37655.765 
  487600    295.26012   -1527.7485    467.33729     263.2808   -167.54097    37655.765 
  487700    307.77112   -1538.3753    494.16633    335.57152   -200.29419    37655.765 
  487800    303.43919   -1515.8474    478.80294    323.31535    62.643604    37655.765 
  487900    299.50449   -1508.1016    482.37762    316.99611   -77.714976    37655.765 
  488000    302.97687    -1499.308    486.15567    345.13489   -573.68414    37655.765 
  488100    297.27044   -1544.6577    486.87808    274.92485   -115.85129    37655.765 
  488200    297.32831   -1535.8082    481.64268     278.7984   -228.21837    37655.765 
  488300    312.03996   -1513.4689     470.5585    356.00786    327.61589    37655.765 
  488400     294.2021   -1570.9647    482.99107    230.97507   -191.20215    37655.765 
  488500    311.19156   -1537.3126    453.90923     311.7114    -323.3138    37655.765 
  488600    303.16156    -1577.602    484.71724     266.2305    -462.9791    37655.765 
  488700    315.17872   -1512.2059    463.04353    363.82744   -153.39582    37655.765 
  488800    297.57907   -1566.0139    484.23752    252.31171   -303.14869    37655.765 
  488900    309.57355   -1540.5929    460.47387    307.74203   -143.20129    37655.765 
  489000    300.37758   -1476.4734    480.93848    351.09932    171.70416    37655.765 
  489100    309.50023    -1502.244    484.82349    370.11177   -162.43438    37655.765 
  489200    294.13437   -1499.6379    450.39125    269.39843    -188.4295    37655.765 
  489300    294.40335   -1546.3343    477.84822    251.36491    757.81463    37655.765 
  489400    300.79447   -1553.3051    470.45146    265.64957    40.818424    37655.765 
  489500    305.52617   -1525.4404    464.95497    309.23066   -61.713297    37655.765 
  489600    294.68073   -1535.0033    459.97906    246.07029   -228.71176    37655.765 
  489700    292.13949   -1507.6932    494.94706    296.95559   -119.39629    37655.765 
  489800    299.70913   -1523.4503    462.31559    282.50275    75.344627    37655.765 
  489900    297.33151   -1547.9959     483.4084     268.3908    62.469746    37655.765 
  490000    303.57361   -1528.4737     505.8373    338.32607     318.8668    37655.765 
  490100    298.25077   -1515.6258    475.16533    296.63898    272.80057    37655.765 
  490200    303.35684   -1495.7873    484.98352     349.1869   -32.682392    37655.765 
  490300    303.16139    -1496.177    492.97227    355.90965   -120.83285    37655.765 
  490400    297.09245   -1527.0948    485.54159    290.35332    332.14197    37655.765 
  490500    307.70027   -1507.4484    479.74249    351.75696    128.68021    37655.765 
  490600     295.1995   -1519.7459    483.79666    287.47096    172.90598    37655.765 
  490700    295.31927   -1504.6141    509.51223    328.85524    889.14073    37655.765 
  490800    306.07428   -1525.7578    508.45182    354.86739    603.76178    37655.765 
  490900    292.48944   -1541.9389    474.52584     243.8575    518.36343    37655.765 
  491000    295.12903   -1552.9842    475.90464    246.02468    698.49133    37655.765 
  491100    312.85726   -1525.2303    488.22736    365.57939    106.98613    37655.765 
  491200    302.01633     -1501.39    495.27035    347.86128   -154.40632    37655.765 
  491300    297.20133   -1554.1935    458.86525    237.06645   -363.08995    37655.765 
  491400    308.61836   -1527.1587    457.66087    314.08097   -441.90192    37655.765 
  491500    305.38796   -1515.7559    497.04475    350.38532   -175.61491    37655.765 
  491600    300.35629   -1555.6162    484.36578    275.28837   -147.64542    37655.765 
  491700    297.62334   -1512.7306    476.19057    297.74663   -200.51922    37655.765 
  491800    300.48644   -1525.3186    484.35929    306.16291   -341.36658    37655.765 
  491900    298.39622   -1508.5306    488.40601     317.6269   -305.59508    37655.765 
  492000    303.88321   -1539.4183      478.331    301.26321    21.606607    37655.765 
  492100    309.16808   -1561.0092    513.97669    339.01075    494.75315    37655.765 
  492200    304.54167   -1566.5884     467.3966    266.11058   -451.78488    37655.765 
  492300    294.04768   -1533.0009    480.51272    265.76822   -52.475434    37655.765 
  492400    296.07843   -1523.0734     466.3842    270.67139     150.2843    37655.765 
  492500    297.38999    -1526.326    458.63727    265.55176   -595.39709    37655.765 
  492600    305.78247   -1509.5217    467.60134     328.9447   -563.74487    37655.765 
  492700    300.85153   -1547.4189    468.69872    270.03879   -758.37988    37655.765 
  492800    306.81069   -1555.5053    486.08404    306.05346   -219.99779    37655.765 
  492900    302.81617   -1574.6433    483.15268    266.07614   -354.09119    37655.765 
  493000    298.39045   -1573.4441    469.09492    233.37645    342.83823    37655.765 
  493100    303.94066   -1525.1901    472.14041    309.55834   -171.18336    37655.765 
  493200     295.7231   -1550.9129    477.04913    251.90383    108.13334    37655.765 
  493300    301.13567   -1564.6301    485.28668     270.6894     23.62456    37655.765 
  493400    295.29821   -1533.2573    468.38574    258.99116   -373.31436    37655.765 
  493500    296.93497   -1547.3879    468.44904    252.26173    -775.9044    37655.765 
  493600    300.95552   -1577.7459    482.24252    253.72182   -486.80388    37655.765 
  493700    295.87975   -1565.9585      469.989    230.50035   -1011.2983    37655.765 
  493800    295.29383   -1546.2716    495.47528    273.04673   -660.08853    37655.765 
  493900    311.15122   -1541.3782    455.69417    309.24989   -1013.3857    37655.765 
  494000    289.21032   -1536.1635    467.35546    227.76187   -1060.1938    37655.765 
  494100    293.95192   -1508.3351    503.65492    313.14693    -1084.897    37655.765 
  494200    298.42325   -1505.0095    450.92881    283.79203    -242.3386    37655.765 
  494300    307.82406   -1496.5915    484.80426     368.2306   -13.395371    37655.765 
  494400    289.68661   -1505.9993    488.55544    281.26129   -165.81313    37655.765 
  494500    286.44179    -1503.584    492.98867    273.56282    72.668637    37655.765 
  494600    300.38144   -1481.6214    496.62481    361.65492   -39.484374    37655.765 
  494700     299.9993   -1509.1402    499.05703    334.85518   -410.54088    37655.765 
  494800    294.37361    -1480.183     488.2632     327.7978   -339.49148    37655.765 
  494900    299.24277   -1492.5369    468.69837    317.70815    194.69154    37655.765 
  495000    293.16737   -1504.8172    510.85266     320.3453   -137.77455    37655.765 
  495100    306.84582   -1509.2925    453.22003    319.55975   -212.03866    37655.765 
  495200    299.67376   -1526.4594    480.29384    297.31335   -380.61449    37655.765 
  495300    303.64484   -1490.9537    508.70924    379.03736    110.99885    37655.765 
  495400    297.30367   -1507.6591    490.93109    316.12549    166.84574    37655.765 
  495500    303.17754   -1509.7576    486.41648    335.84573    766.25646    37655.765 
  495600    309.35859   -1511.7783    492.57305    367.69211    497.67202    37655.765 
  495700      291.868   -1510.0157    495.16423    293.63313    371.22974    37655.765 
  495800    299.88489   -1519.4397    497.95853    322.94432    350.66463    37655.765 
  495900    304.25344   -1499.2851    476.29555    341.02068    345.90855    37655.765 
  496000    295.73418   -1452.6644    493.58464    366.73743    326.84138    37655.765 
  496100    294.22551   -1484.0166      510.632     345.6691    297.93006    37655.765 
  496200    307.08158   -1436.1451    510.42509    450.96916    632.57696    37655.765 
  496300    300.89101    -1459.102    505.90375     395.7378    655.85578    37655.765 
  496400    294.77866    -1468.862    496.76238     349.4339    895.85446    37655.765 
  496500    301.95204    -1497.339    484.94049     341.2943    661.44634    37655.765 
  496600    303.78691   -1528.4566    463.39355    296.85569    303.09331    37655.765 
  496700    302.73614   -1475.5645    498.56774    380.21129     46.25516    37655.765 
  496800     297.6287   -1448.6242    507.72928    393.41572   -6.2974716    37655.765 
  496900    292.12144   -1458.0424    481.47573    333.05409   -317.41551    37655.765 
  497000    292.12852   -1486.8127    493.68619    316.52601     363.8092    37655.765 
  497100    301.14687   -1493.8201    471.50305    327.76598    166.87771    37655.765 
  497200    308.65744   -1513.5757    468.16741    338.34576   -50.526805    37655.765 
  497300    302.12006   -1516.3767    465.60914    303.67843    410.35468    37655.765 
  497400    301.19674   -1469.1306    500.38739    381.56347   -121.36689    37655.765 
  497500     288.1283   -1439.0567    506.44121    359.10359   -267.96486    37655.765 
  497600    290.32461   -1452.7885    479.52293    328.29979   -333.69671    37655.765 
  497700     306.0919   -1524.4198    475.84034     323.6729   -444.12668    37655.765 
  497800    306.57099   -1514.2434    500.18533    360.34206   -476.15575    37655.765 
  497900    307.68975   -1476.2399    515.62286    418.79864    251.67527    37655.765 
  498000    299.07974   -1543.9235    463.02834    259.92071    211.76738    37655.765 
  498100    293.87725   -1499.1813    458.53453    276.84558    532.43269    37655.765 
  498200    304.32833   -1522.6268    486.28881    328.00805    356.63569    37655.765 
  498300    298.01731   -1565.0396    459.98476    230.99792   -246.68139    37655.765 
  498400    306.21871   -1506.3424    490.99597     357.4744   -446.21003    37655.765 
  498500     301.8747   -1483.6119    500.49498    370.22906   -8.2838069    37655.765 
  498600    295.75771   -1539.2524     458.7966     245.4669   -162.11813    37655.765 
  498700    294.56842   -1558.5147    519.02756     281.1038    130.12444    37655.765 
  498800    307.67248   -1505.9099    461.20662    334.63504    213.92645    37655.765 
  498900    298.31123   -1500.3553    485.06024    322.07545    354.38959    37655.765 
  499000    299.15666   -1477.7302    512.81407    376.24459    288.58591    37655.765 
  499100    295.06199   -1503.0582    452.57445    272.31996    274.22968    37655.765 
  499200    300.43097   -1488.3802     468.7563    327.24973    804.14551    37655.765 
  499300    302.58367   -1495.8432    457.15268    317.83387    788.29518    37655.765 
  499400    305.47855   -1500.7698    502.86224    371.59505    266.50292    37655.765 
  499500    295.85182   -1533.1648    467.30253    260.48238   -89.827028    37655.765 
  499600    303.57442   -1535.3803    504.01913     329.6049    27.280173    37655.765 
  499700    301.57715   -1509.9359    479.99194     322.0681   -31.751948    37655.765 
  499800    309.81196    -1477.851    478.35608    389.43492   -237.01888    37655.765 
  499900    302.60063   -1503.4202    490.06994     343.2502   -282.81826    37655.765 
  500000    292.43101   -1484.5637    475.61654    302.06146   -627.14803    37655.765 
  500100    308.75113   -1481.8536    507.29563    409.61608   -1092.2607    37655.765 
  500200    314.48711   -1507.0106    473.59349     376.4721   -431.89517    37655.765 
  500300    296.52912   -1509.9933    480.99548    300.38319    269.56865    37655.765 
  500400    299.05169   -1501.4837    500.89366    340.10005    282.98406    37655.765 
  500500    288.31079   -1512.9827    491.14232    270.69676     561.3191    37655.765 
  500600    310.33321   -1554.3613    478.51078    315.41613    143.60658    37655.765 
  500700      294.649   -1539.1511    477.71204    259.51317   -19.786225    37655.765 
  500800    308.94425   -1552.1884    465.63558      298.487   -38.038555    37655.765 
  500900    300.10891   -1545.4903    468.10374     268.0432   -417.80956    37655.765 
  501000    305.21682    -1544.984     481.4927     304.8379    19.553642    37655.765 
  501100    296.16602   -1541.4815    508.96799    295.23973    6.5307342    37655.765 
  501200    300.58828   -1508.1571    473.50183    312.92357    119.38157    37655.765 
  501300    296.08549   -1497.7696    505.94315    335.56579   -41.914715    37655.765 
  501400    292.74807   -1544.0974     489.9704    258.30311   -259.42001    37655.765 
  501500    306.72117   -1520.7503    472.79063    327.11377   -480.27174    37655.765 
  501600      292.922   -1488.2882    493.46449    318.38609   -885.11517    37655.765 
  501700    295.07576   -1512.3523    475.96436    286.47748   -186.62776    37655.765 
  501800    297.33883   -1542.7233    480.72409    271.01191   -336.41831    37655.765 
  501900    294.91975   -1574.8857    468.64101    215.92132   -44.241702    37655.765 
  502000    307.11643   -1598.7062    480.46837     258.6076    -377.9306    37655.765 
  502100    301.56962   -1557.7607    464.30941    258.52708   -254.66339    37655.765 
  502200    294.85092   -1569.5421    452.13636    204.45169   -895.20251    37655.765 
  502300    302.64883   -1554.9192    471.84543    273.74281   -709.74295    37655.765 
  502400    299.79516   -1530.9393    467.66357    280.74741    23.719142    37655.765 
  502500    305.59584   -1590.1825    458.25353    238.09951   -641.57557    37655.765 
  502600     307.4149   -1555.9327    461.18909    283.43991    73.073934    37655.765 
  502700    296.53399   -1561.5426    479.12059    246.98093    17.206411    37655.765 
  502800    309.02632   -1533.8172     455.5801    307.17069   -393.53251    37655.765 
  502900    303.87445   -1539.0524    492.21452    315.47332   -317.14588    37655.765 
  503000    296.45714   -1517.3469    476.86335    288.57485    29.270026    37655.765 
  503100    312.88265   -1509.9277    470.77699    363.54546    555.29644    37655.765 
  503200    298.97032   -1525.8825    507.52207    321.96489    110.40655    37655.765 
  503300    303.65537   -1533.9658    473.46681    300.83002    343.88851    37655.765 
  503400    301.76653   -1557.9291    479.84811    274.78009  -0.69207903    37655.765 
  503500    300.73834   -1544.5022    495.65101    299.40042    176.41952    37655.765 
  503600     291.2158   -1526.2462    491.87001     271.1845   -319.62917    37655.765 
  503700    294.86073   -1486.2851    488.97667    324.59302   -265.22812    37655.765 
  503800     302.1377   -1512.6979    455.48347    297.31073   -9.8892422    37655.765 
  503900    306.62936   -1460.5657    483.49338    397.58951   -75.544756    37655.765 
  504000    302.87231   -1493.1587    484.99885    349.65863   -62.516015    37655.765 
  504100    295.76627   -1474.4922    473.97253    325.44146   -622.07871    37655.765 
  504200    300.94727    -1454.704    522.59244    417.07666    124.63258    37655.765 
  504300    289.65038   -1463.2109    501.03606    336.36785   -294.86273    37655.765 
  504400    301.23835    -1488.809    482.39966    344.08385   -809.93483    37655.765 
  504500    304.75735   -1533.4454    467.69395    300.51788   -883.24034    37655.765 
  504600    290.96382   -1482.2869    483.64802    305.79221   -746.45411    37655.765 
  504700    308.71739   -1494.2805    489.27653    379.01875   -611.47793    37655.765 
  504800    299.69729   -1527.9954    452.72989    268.31896    196.68225    37655.765 
  504900    297.02716   -1505.4913    483.31399    309.43649    331.34526    37655.765 
  505000    288.49295   -1502.0261     498.0411    289.36876    652.85476    37655.765 
  505100    300.87729   -1480.6476    486.22869    354.45557   -95.204648    37655.765 
  505200    302.90773   -1503.3681    457.97621    312.58537   -282.42843    37655.765 
  505300    299.57501   -1482.8197    461.88055    322.09702   -47.077031    37655.765 
  505400    299.41685   -1522.5603    488.00878    307.77565     301.7643    37655.765 
  505500    287.69024    -1521.569    471.24587    239.43203   -662.97449    37655.765 
  505600    307.53309   -1502.1723    478.71795    355.25897   -108.71451    37655.765 
  505700    296.36615   -1503.2342    497.10524    322.52149   -218.66445    37655.765 
  505800     297.6729   -1515.1378    491.97524    311.34623   -122.91085    37655.765 
  505900     303.5349    -1502.504    490.02516    348.31008    473.30979    37655.765 
  506000    295.51418   -1511.5886    472.67013    285.91248    38.996745    37655.765 
  506100    302.47641   -1524.8585    514.26701    345.45214   -34.014169    37655.765 
  506200    301.19675   -1513.7683    460.66649     297.2049   -528.68837    37655.765 
  506300    291.10788   -1485.1855    490.06062    309.95203    111.94748    37655.765 
  506400     305.3587   -1544.2958    487.11225    311.78175   -37.158811    37655.765 
  506500     299.2125   -1524.9194    483.64746    300.13905     165.2759    37655.765 
  506600    289.51853   -1530.6633    459.21133    226.49964    73.014058    37655.765 
  506700    305.85838   -1509.9371    483.56378    344.83207   -225.38942    37655.765 
  506800    289.78113   -1476.3602    466.21002    288.97874   -326.21233    37655.765 
  506900    301.80375   -1470.0531    498.53282    381.50769    -538.9383    37655.765 
  507000    290.27618    -1511.492    479.49464     269.3509   -191.78465    37655.765 
  507100    302.33292   -1524.4332    496.95066    327.91775    282.03476    37655.765 
  507200    305.54923   -1431.1604    505.14021    443.79924    614.01968    37655.765 
  507300    306.33817   -1505.4779    469.44487    337.32338    375.07819    37655.765 
  507400    293.24613   -1517.9733    489.75467    286.44436    474.45819    37655.765 
  507500    297.13566   -1525.7516    499.66014    306.00882    1.5277309    37655.765 
  507600     300.3673   -1464.0099    496.15909    378.73738    171.89614    37655.765 
  507700    308.84911   -1474.7452    493.61979    403.48783   -43.774153    37655.765 
  507800    301.10205   -1477.0936    472.78528    345.57385   -512.75928    37655.765 
  507900    298.83642   -1483.7957    471.77995    327.70923   -582.90293    37655.765 
  508000    308.14835   -1513.3518    480.11999     348.2399   -296.78499    37655.765 
  508100    296.94896   -1514.4355    480.18676     297.0145    263.46784    37655.765 
  508200    300.29186   -1509.6189    495.48379    332.11485    248.16205    37655.765 
  508300    300.07428   -1528.4293    507.54012    324.38534    223.48241    37655.765 
  508400     303.7489   -1507.1401    496.06696    350.67515    329.68177    37655.765 
  508500    315.66719   -1519.2673    468.58338    364.49577    293.94371    37655.765 
  508600    309.22928    -1533.463    472.61802    325.47264     50.67403    37655.765 
  508700    288.39498   -1495.3992    488.73557    286.25091     61.23969    37655.765 
  508800    306.08828   -1525.4805    444.32961    291.08524   -68.118925    37655.765 
  508900    300.53725   -1549.2824    468.80299    266.87067   -650.44124    37655.765 
  509000    297.37937   -1552.0427    476.37974    257.52991   -706.23296    37655.765 
  509100    295.89986    -1516.781    467.93287    277.71186   -935.26616    37655.765 
  509200    300.73139   -1534.2276    465.13881     279.1316   -693.93207    37655.765 
  509300    290.47229   -1525.1004    467.25539     244.3824    -373.2281    37655.765 
  509400    307.56839   -1475.3059    487.40529    390.97098    293.20491    37655.765 
  509500    304.61286   -1536.0413    455.03533     284.6156    29.224648    37655.765 
  509600    308.87598   -1529.9786    479.98232    334.73747   -117.95724    37655.765 
  509700    299.16021   -1534.6194    473.65989    280.21714   -217.85012    37655.765 
  509800    290.86009   -1491.1258     478.1043    290.94446   -603.81509    37655.765 
  509900    285.24287    -1479.258    497.24684    296.77204   -902.75902    37655.765 
  510000    294.98303    -1470.072     488.6309     341.0086    70.324962    37655.765 
  510100    310.21115   -1491.6975    483.34816    382.37016    243.41908    37655.765 
  510200    300.97836   -1519.8527    470.37491    299.84982    289.62802    37655.765 
  510300    299.76268   -1555.7847    489.97393    278.06678    407.21123    37655.765 
  510400     298.6453   -1510.7649    460.44559    288.54884   -183.11011    37655.765 
  510500    300.36508   -1534.8254    499.10904    310.86184    163.15136    37655.765 
  510600    294.34952   -1522.5117     494.3533    291.45126    88.983194    37655.765 
  510700    306.71213   -1517.6704    459.66102    317.02349    236.09073    37655.765 
  510800    293.30905   -1563.9995    480.65799     231.6036   -193.41235    37655.765 
  510900    302.32722    -1521.484    466.62766    300.51845    265.99677    37655.765 
  511000    298.40121   -1516.4242    454.98764    276.33729    418.38477    37655.765 
  511100    297.93736   -1585.0554    476.57069    227.20971    195.42574    37655.765 
  511200    287.12227   -1542.1367    475.99678    221.06893    240.52339    37655.765 
  511300    297.97421   -1518.2923    484.17824    301.74553    622.87634    37655.765 
  511400     300.7477   -1518.7565    466.60054    296.13756    986.88431    37655.765 
  511500    294.27739   -1493.6598    512.89275    338.51918    1065.6661    37655.765 
  511600    302.23872   -1536.4673    474.40917    292.91982    966.82126    37655.765 
  511700    286.89939   -1473.5291    513.28314    325.96368    732.85751    37655.765 
  511800    292.14623   -1469.5614     451.0421    291.21271    334.34304    37655.765 
  511900    296.92497   -1454.2724    498.59612    375.47939   -125.57341    37655.765 
  512000    292.88473   -1513.5863    480.65765    280.11416   -426.58939    37655.765 
  512100    305.13353   -1464.6203    478.54832    381.88379   -162.83593    37655.765 
  512200    297.28537   -1501.7695    463.90263    294.90452   -297.40905    37655.765 
  512300    291.12942   -1477.5888    499.69916    327.28381    47.757975    37655.765 
  512400    301.40135   -1524.8134    475.64484    302.05538   -200.47515    37655.765 
  512500    295.05829    -1538.135    481.80308    266.45524   -353.68473    37655.765 
  512600    294.36331    -1526.489    478.94362    272.12607   -45.384912    37655.765 
  512700    298.01974   -1511.6067    488.42101    312.87804   -143.32781    37655.765 
  512800    296.00891   -1547.2848     463.2227    242.98679   -143.79983    37655.765 
  512900    302.28026   -1511.6042    473.78091     317.3409   -329.08771    37655.765 
  513000    306.05363   -1482.7606    470.81197    360.13216     135.2199    37655.765 
  513100    299.03808   -1509.7501    487.28514    318.16406    510.60231    37655.765 
  513200    301.36625    -1513.417    504.05873    341.70837    290.69943    37655.765 
  513300    294.90713   -1526.1975    490.08672    285.99868    93.223881    37655.765 
  513400    307.54377   -1553.1387    490.87339    316.49598    282.59307    37655.765 
  513500    304.69592   -1556.6064     461.1595    270.54705    13.096491    37655.765 
  513600     302.7202   -1507.7843    485.71776    335.06995   -166.64766    37655.765 
  513700    293.02042   -1506.2194    482.27554    289.70717   -217.96952    37655.765 
  513800    298.99651   -1530.1766    464.07535    274.34144   -172.30445    37655.765 
  513900    306.88772   -1525.6006    472.29481    322.51426   -3.6037216    37655.765 
  514000       288.93   -1582.2463    478.09375    191.16064   -300.85349    37655.765 
  514100     302.3849   -1588.9315    457.06979    223.77161    89.344855    37655.765 
  514200     301.2286   -1552.4377    486.00491    284.01672    32.512733    37655.765 
  514300    300.91802   -1584.0719    483.89235    248.87755    319.14311    37655.765 
  514400    297.74002   -1587.5974    474.87905    222.09137    342.89495    37655.765 
  514500    296.29526   -1554.5883    469.97704     243.7214    675.84297    37655.765 
  514600    294.96566    -1564.771    470.32624    227.92707     1014.619    37655.765 
  514700    299.73938   -1558.1587    501.19697    286.81139    949.63954    37655.765 
  514800    298.57829   -1589.4492    464.59736    213.71591    510.24584    37655.765 
  514900    308.97919   -1540.9469    495.54397     339.7935    113.77587    37655.765 
  515000    297.51749   -1532.4106    470.90421    272.30572   -34.056095    37655.765 
  515100    296.99172   -1538.3267     479.0143    272.14257   -605.61936    37655.765 
  515200      295.606   -1550.0852    459.85326    235.01061   -61.266767    37655.765 
  515300    308.39552   -1561.8585    463.82976    284.55103   -517.39145    37655.765 
  515400    298.15246   -1542.5228    474.12588    268.26181   -206.97257    37655.765 
  515500    314.76502   -1524.2965    512.45044    399.28903    76.494678    37655.765 
  515600    307.09974   -1562.2675    467.62852    282.13169   -58.252401    37655.765 
  515700    297.80738   -1563.0867    514.42279    286.44778    34.263052    37655.765 
  515800    299.48276   -1553.4542    462.55799    251.72639    110.83117    37655.765 
  515900    295.58275   -1500.0623     467.6029    292.67894    99.806527    37655.765 
  516000    304.23979   -1582.5745    467.52496     248.8995   -289.61704    37655.765 
  516100    292.02848    -1533.377    499.07272    274.89975   -222.90391    37655.765 
  516200    298.13429   -1519.1837    472.35217    289.74568    34.095485    37655.765 
  516300    301.97443   -1512.7456    454.99712    296.04467   -72.584963    37655.765 
  516400    306.47793   -1527.8976    501.39233    347.47763   -43.625553    37655.765 
  516500    291.26445   -1523.5838    465.22866    247.42365   -538.25235    37655.765 
  516600    300.44235   -1531.3773    477.85145    293.39881   -334.39011    37655.765 
  516700    308.37114   -1544.1845    481.27981    319.56577    252.55027    37655.765 
  516800    305.21073    -1520.769     476.0156    323.54853   -582.49651    37655.765 
  516900    302.94514   -1511.2774    505.79874    352.66627   -513.70748    37655.765 
  517000    306.76566   -1571.6459    456.23511    259.86207   -273.58716    37655.765 
  517100    300.52493   -1569.7476    463.12968    240.67691   -578.58127    37655.765 
  517200    298.27989   -1565.0587    477.72858    249.89991   -348.06751    37655.765 
  517300    302.79402   -1577.8784    425.40116    204.99026    -54.57424    37655.765 
  517400    301.14369   -1569.9617    486.79283    266.89993    118.16176    37655.765 
  517500    309.43276   -1554.9911     482.7395    314.97824    537.13871    37655.765 
  517600    298.80998    -1547.193    449.70814    242.12163    149.52806    37655.765 
  517700    298.47506   -1539.1807    496.10441    295.02867    -163.4601    37655.765 
  517800    294.57091   -1528.3179    468.41759    260.70188    72.953519    37655.765 
  517900    293.21482   -1513.1482    483.54076    284.91519   -138.24568    37655.765 
  518000    299.64154   -1494.0673     472.0652    321.33237   -196.88949    37655.765 
  518100    305.61542   -1492.5204    486.08314    363.67891   -121.52338    37655.765 
  518200    307.71286    -1472.928    505.78456    412.37587    -264.3889    37655.765 
  518300    298.95285   -1511.3879      456.719    285.57813    160.70803    37655.765 
  518400    292.97635   -1521.5355    478.74812    270.66612    386.16694    37655.765 
  518500    306.32751   -1489.8637    482.40109    365.84596    357.70413    37655.765 
  518600    289.93631   -1488.9981    483.35734    294.18378    305.45812    37655.765 
  518700    299.45729   -1545.7829    496.76888    293.49439    145.50781    37655.765 
  518800    294.01916   -1527.1506    489.87942     280.8574     242.6578    37655.765 
  518900    302.88875   -1526.5143    477.60816    308.98602   -649.46397    37655.765 
  519000    305.09942   -1525.0684    481.59525    324.32974    314.43517    37655.765 
  519100    306.44733   -1547.8682    466.11674    292.09428    274.42307    37655.765 
  519200    304.09197   -1539.4999    486.93485    310.72132    207.11036    37655.765 
  519300    304.31456   -1538.2085    473.62864    299.70446    192.07923    37655.765 
  519400    299.73505   -1515.4681    479.89782    308.18337   -427.61194    37655.765 
  519500    293.51235    -1517.548    462.40091    260.70935   -486.02008    37655.765 
  519600    291.16606   -1548.5519    500.90486    257.69069    151.83059    37655.765 
  519700    306.13798   -1495.6576    482.16471    358.96604   -316.93986    37655.765 
  519800    305.42262   -1504.2807    499.35125    364.32238   -814.46825    37655.765 
  519900    306.09906   -1514.5637    467.06232    324.78299   -133.92066    37655.765 
  520000    290.42813   -1490.3437    469.30905    280.99477   -586.41016    37655.765 
  520100     298.2025   -1502.2185    466.82135    301.48587   -970.71401    37655.765 
  520200     291.3247   -1522.4214    459.68773    243.31528   -791.50242    37655.765 
  520300    296.30262   -1545.6332    462.00145    244.73389   -519.53369    37655.765 
  520400    289.38258   -1496.6371    456.40055    257.10556   -770.14858    37655.765 
  520500    297.73501   -1504.6973    470.40995    300.49993   -305.82421    37655.765 
  520600    303.90034   -1504.4851     478.3802    336.32236    -207.4471    37655.765 
  520700    298.32825   -1471.8809     499.6051    365.17101   -175.60188    37655.765 
  520800    297.41225    -1497.802    461.35869    296.89699   -65.822512    37655.765 
  520900    308.82043   -1454.7991    510.71213    440.39778   -404.79887    37655.765 
  521000    301.49357   -1513.2281     461.9346    300.34384    -397.4696    37655.765 
  521100    302.45061   -1514.9145    461.74018    302.75357    79.092223    37655.765 
  521200    306.79286   -1502.6961    460.43757    333.13628   -80.808848    37655.765 
  521300    298.86546   -1534.1727    473.75684    279.43931    454.66237    37655.765 
  521400    300.13128   -1532.3397    470.18286    283.37324    109.27182    37655.765 
  521500    292.80922   -1469.8918    520.33526    363.14768    321.74912    37655.765 
  521600    306.21712   -1479.6669     482.3647    375.51152    587.65382    37655.765 
  521700     308.8679   -1525.5187    470.89514    330.07402    736.96604    37655.765 
  521800    300.85428   -1535.7077    496.60573    309.66936    818.02605    37655.765 
  521900    300.29215    -1526.309    489.12291    309.06518    725.15374    37655.765 
  522000    307.46081   -1517.2591    461.99354    323.12375    545.15475    37655.765 
  522100    299.88443   -1507.6531    477.61272    314.38301     239.4276    37655.765 
  522200    296.37142   -1520.1435    499.63455    308.16509    868.20536    37655.765 
  522300    298.20468   -1520.6601    487.12643     303.3592    874.70407    37655.765 
  522400    300.01842   -1537.1015    447.87309     255.7957    287.61394    37655.765 
  522500    307.21746    -1549.359    501.85121    329.79059    567.00122    37655.765 
  522600     293.8694   -1547.4663    449.62484    219.61572    702.00481    37655.765 
  522700     303.1079   -1570.7383    478.90529     267.0416    668.08455    37655.765 
  522800    295.31272   -1506.9114    469.51782    286.53422    82.984245    37655.765 
  522900    290.71007   -1534.6123    472.46542     241.1466   -391.22684    37655.765 
  523000    303.39521   -1512.4307    475.26549    322.99746   -573.80887    37655.765 
  523100    291.88139   -1504.4189    457.67935    261.80506   -632.64569    37655.765 
  523200     308.0308   -1510.2564    465.16799    335.85627   -489.13181    37655.765 
  523300    302.39101   -1524.3719    482.15648    313.44528    315.01447    37655.765 
  523400    297.27484   -1562.4275    476.37579    246.67251    27.712502    37655.765 
  523500    291.32011   -1549.3841    493.62287    250.26714    443.69167    37655.765 
  523600    293.57411   -1513.6546    462.71858    265.19736    -507.6413    37655.765 
  523700    300.75671   -1538.4187    490.86434    300.77955   -259.17712    37655.765 
  523800    291.12597   -1497.2684    464.92405     272.8136   -73.375927    37655.765 
  523900     294.0546    -1505.301    505.23315    318.21962   -531.87226    37655.765 
  524000    304.11611   -1504.1226    468.94618    328.21818   -292.57881    37655.765 
  524100    300.92145   -1505.7593    465.47059    308.78375   -193.88091    37655.765 
  524200     305.8158    -1536.879    496.08129    330.21684   -88.727783    37655.765 
  524300       301.58   -1579.7291    461.65405    233.94974     350.8341    37655.765 
  524400    305.69778   -1537.5404    470.23534    303.18032    229.77775    37655.765 
  524500    297.73235    -1538.868     460.6983    256.60565   -160.75491    37655.765 
  524600    294.85282   -1517.3261    459.68501    264.22488    389.40585    37655.765 
  524700    299.24792   -1584.5472    480.34238    237.36495    1004.8492    37655.765 
  524800    304.75067   -1547.6787    459.82459    278.38524    472.18715    37655.765 
  524900    293.90475   -1547.5145     466.7153    236.81647    239.44578    37655.765 
  525000    309.34218   -1527.6905    482.72599    341.85932    148.01922    37655.765 
  525100    297.97798   -1568.1423    480.33722    248.07139   -346.45109    37655.765 
  525200    302.45808   -1549.0598    470.93223    277.83383   -525.75616    37655.765 
  525300    294.57447   -1519.7094    458.94309    259.85175   -225.75911    37655.765 
  525400    299.22234   -1524.5117    492.45271    309.39612   -1018.6455    37655.765 
  525500    293.43693   -1510.2426    468.14806    273.42385   -752.00015    37655.765 
  525600    290.76437   -1513.5454     472.4796    262.47105   -526.38254    37655.765 
  525700    301.70493   -1460.5169    472.99613     365.0642   -728.13218    37655.765 
  525800    301.03945   -1489.1895    447.51586    307.92788   -814.35484    37655.765 
  525900    309.24446   -1504.4729    445.01725    326.93001   -509.79104    37655.765 
  526000     297.9582    -1501.531    469.91296    304.16983   -382.94309    37655.765 
  526100    293.35147   -1528.0957     467.9695      255.009   -210.52584    37655.765 
  526200    308.57731   -1543.8944    460.45337    299.95374    355.91913    37655.765 
  526300    292.62564    -1496.228    490.96849    306.62175   -15.643298    37655.765 
  526400    299.92581   -1568.0293     465.8475    242.42711    503.60145    37655.765 
  526500    293.80706   -1560.6342       461.16    217.70353    438.75242    37655.765 
  526600    295.37685   -1536.3594    481.67393    269.52983    728.58941    37655.765 
  526700      295.949   -1491.3214    460.82055    296.27944    151.17217    37655.765 
  526800    318.11488   -1517.6856    474.68928    383.15665    295.72442    37655.765 
  526900    307.74323   -1558.4389     471.4856    292.70219   -94.390925    37655.765 
  527000    297.18515   -1530.1068    454.84994    257.06532    -164.1468    37655.765 
  527100    300.99149   -1541.5471    474.45236    282.29173   -500.95708    37655.765 
  527200    298.08355   -1554.0736    443.02588    225.30201   -802.84554    37655.765 
  527300    309.30799   -1509.9755    461.64311    338.33812   -402.12618    37655.765 
  527400    305.97285   -1526.7539    433.48807    278.45282    311.87102    37655.765 
  527500    301.43835   -1545.1146    493.80975    300.08491    589.50817    37655.765 
  527600    292.32982   -1536.0177    460.73421    235.27151    285.09161    37655.765 
  527700    298.82662   -1552.6387    460.49865    247.54105    416.16184    37655.765 
  527800    291.01829   -1522.6264    451.47736    233.52625    205.06767    37655.765 
  527900    296.48489   -1498.6982    475.34632    305.83088    463.39001    37655.765 
  528000    309.30376   -1497.1052    468.95046    358.49679   -227.08947    37655.765 
  528100    308.01282    -1497.077    456.83933    340.62644    131.55596    37655.765 
  528200     305.3508   -1487.4048    449.81011    331.33518   -610.01701    37655.765 
  528300    295.53414    -1522.995    464.88988    266.81534   -98.378022    37655.765 
  528400    303.37284   -1581.9544    452.39388    230.50189   -82.688929    37655.765 
  528500    303.77759   -1548.4862    481.97826    295.36898    470.53695    37655.765 
  528600    304.31426   -1513.7018    473.62742    324.20852    294.96933    37655.765 
  528700    295.27945   -1519.4261    478.92502    283.27754    170.28635    37655.765 
  528800     288.7901   -1511.0166    465.66161    249.33093    22.889937    37655.765 
  528900    294.55562    -1535.145    466.14043    251.52898   -474.54258    37655.765 
  529000    298.86934   -1534.9642    463.80614    268.71454    122.99467    37655.765 
  529100    296.97322   -1586.1153    454.29114     199.5479    250.59791    37655.765 
  529200    293.79743   -1529.8841     467.3015     254.5519    292.41173    37655.765 
  529300    297.11805   -1509.9167    517.78487    339.88944    599.34266    37655.765 
  529400    293.00692   -1533.6533    487.50474    267.44194    6.2206225    37655.765 
  529500    303.36815   -1543.4336    469.37206    285.97988    112.58135    37655.765 
  529600     296.1622   -1529.7105    457.76962    255.79517   -1.2337778    37655.765 
  529700    293.86408   -1520.2483    474.33402    271.51908   -358.54838    37655.765 
  529800    301.16531   -1532.7236    478.99364    296.43576     144.0114    37655.765 
  529900    305.74865   -1544.1289      461.323    287.90764   -281.80166    37655.765 
  530000    303.16225   -1571.7855    469.83797    257.17079   -494.43301    37655.765 
  530100    304.31695   -1527.8749    471.42182    307.84189   -3.6112284    37655.765 
  530200    306.73555   -1490.9591    479.46804    363.64684   -96.817969    37655.765 
  530300    293.81278   -1520.0387    473.45301    270.61762   -204.76134    37655.765 
  530400    291.12564   -1536.5699    456.16689    224.75355   -169.37511    37655.765 
  530500    298.08287   -1536.6639    471.68415    271.36694    128.07571    37655.765 
  530600    296.35136   -1577.2043    461.37964    212.75945    590.73664    37655.765 
  530700    296.80085   -1545.9226    453.30239    237.97905   -375.44229    37655.765 
  530800    299.54541   -1558.3684    483.72194    268.25709    20.703685    37655.765 
  530900    304.15505   -1559.2911    466.50219     270.7802   -144.64142    37655.765 
  531000    303.14031   -1543.5353    468.39186    283.87643   -170.20702    37655.765 
  531100      311.885   -1554.6167    473.23671    316.84363   -132.79605    37655.765 
  531200    289.03574   -1564.9595    464.28093    195.10862   -234.83077    37655.765 
  531300    295.39961   -1509.3526    494.49078    309.45549    296.83412    37655.765 
  531400    285.52863   -1510.9207    492.53142    261.67511    786.01692    37655.765 
  531500     302.6686   -1521.6317    464.70402    299.97752    682.32459    37655.765 
  531600    293.26386   -1527.9753    469.28595     256.0531    384.04094    37655.765 
  531700    305.58449   -1532.0438    471.01806    308.95177    189.75452    37655.765 
  531800    295.98235   -1569.7368    470.20785    227.40092   -42.972242    37655.765 
  531900    293.58229   -1540.1527     478.1461    254.16346    222.44153    37655.765 
  532000    292.70072   -1503.7137    466.28592    274.79006   -108.59782    37655.765 
  532100       294.99   -1580.9079    483.17534    224.74843    643.99133    37655.765 
  532200     301.7506   -1574.2483    473.81165    252.35301   -2.6399607    37655.765 
  532300    295.17157   -1535.9273    484.61123    271.97889   -236.42406    37655.765 
  532400     289.9173   -1585.6994    456.70388    170.74381   -292.66493    37655.765 
  532500    303.49257   -1580.1105    471.07778    251.56643    -1.356909    37655.765 
  532600    308.83926   -1537.7582    455.16706    301.97793   -491.47084    37655.765 
  532700    295.19967   -1560.1945    473.07896    236.30539   -365.32361    37655.765 
  532800    292.08534   -1539.5707    466.57571    236.46396   -370.15698    37655.765 
  532900    298.38213   -1500.7748     467.5744      304.488   -237.73938    37655.765 
  533000    303.30123   -1510.3356    464.66115    314.06693   -141.76227    37655.765 
  533100    309.92122   -1538.7185    478.78845    329.48969    342.65452    37655.765 
  533200    303.72869   -1530.1663    460.88928    292.38073    617.11929    37655.765 
  533300    308.46447    -1488.376    482.98996    377.50286    665.42088    37655.765 
  533400    293.49415   -1496.5422    484.41874     303.6514    404.24777    37655.765 
  533500    303.01818   -1493.0874    465.00315     330.3882    543.45648    37655.765 
  533600    304.15405   -1506.3286     491.9968    349.23292   -234.13757    37655.765 
  533700    308.59837   -1461.9474    482.00129    403.54303     274.4081    37655.765 
  533800    307.19855    -1523.031    473.34365    327.52628    214.55454    37655.765 
  533900    302.49265   -1507.6412    474.73056    323.20581    334.81394    37655.765 
  534000    293.55205   -1522.1794    456.08256    249.93761    189.74199    37655.765 
  534100    304.65823   -1504.2909    490.10979    351.64389    367.78141    37655.765 
  534200    302.14164   -1482.8372    485.85849    357.56404    81.480031    37655.765 
  534300    293.94255    -1518.434    475.61096    274.96206   -35.555401    37655.765 
  534400    289.56788   -1551.6697    482.31757     228.8207    153.31796    37655.765 
  534500    298.51127   -1524.4058    492.74268    306.60414   -69.974998    37655.765 
  534600    304.09946   -1504.2097    485.78409    344.89432    558.66043    37655.765 
  534700     298.8508   -1514.4119     480.6063    305.98386    149.17982    37655.765 
  534800    293.68694   -1514.3628    475.15434     277.4307   -144.47442    37655.765 
  534900    314.49102   -1515.1835    469.66358    364.38685   -473.43047    37655.765 
  535000     306.6765   -1540.6524    461.96075    296.18155    319.43582    37655.765 
  535100    293.32767   -1539.0992     491.2766    267.20589    442.56107    37655.765 
  535200    298.04438    -1528.446    475.69318    283.42136    1022.2657    37655.765 
  535300    308.47754   -1581.3173    468.68534    270.31556    1150.8778    37655.765 
  535400    298.18424   -1568.2859    453.54124    222.05653    656.72067    37655.765 
  535500    295.88824   -1559.9198    488.31259    254.90073    496.83215    37655.765 
  535600    298.44156   -1563.8496    457.65929    231.76443    263.38461    37655.765 
  535700    304.55986   -1584.0452    461.01844    242.35723    542.49399    37655.765 
  535800    298.20532   -1534.6853    500.14176    302.35218   -143.26195    37655.765 
  535900    280.71093   -1555.2574    469.14093    172.34948     34.62277    37655.765 
  536000    304.72403   -1553.5298     460.4266    273.01674   -75.797711    37655.765 
  536100    297.13287   -1501.1474    470.43584    301.37622   -327.28596    37655.765 
  536200    297.89157   -1541.0383    477.99913    272.44993   -809.67629    37655.765 
  536300    293.17932   -1520.4682    471.54459    265.43977     99.90366    37655.765 
  536400     292.8866   -1524.5314    475.24154    263.76125   -481.19745    37655.765 
  536500    317.90334   -1490.5778    487.12806    421.75491    -162.8892    37655.765 
  536600    298.10181   -1502.5333     465.9021    299.80044   -21.774728    37655.765 
  536700    309.45124    -1491.952    481.95711    377.31779   -107.18378    37655.765 
  536800    306.74517   -1518.9565    467.36193    323.58648    144.91624    37655.765 
  536900    290.51192   -1524.3161     484.8084     262.8974    -234.3139    37655.765 
  537000    290.20237   -1541.1744     484.8667    244.70966   -396.32322    37655.765 
  537100    300.94456   -1499.2572    491.16282    341.08176    110.96424    37655.765 
  537200    307.89248   -1519.0577    486.78046    348.04731    183.26601    37655.765 
  537300    293.42542   -1547.1474     469.2405     237.5599    454.43651    37655.765 
  537400    307.49949   -1538.1951     518.9429    359.31058    1146.3896    37655.765 
  537500    292.38882   -1509.0435    480.53188    282.30795    627.66537    37655.765 
  537600    296.85427   -1542.5627    485.98249    274.25852    521.20228    37655.765 
  537700    301.91178    -1518.726    479.02126    313.80749     587.3308    37655.765 
  537800    295.28789   -1496.3213    463.80779    291.30292    463.10237    37655.765 
  537900    310.23083   -1512.7191     493.8835    371.97205    83.264759    37655.765 
  538000    294.35023    -1489.468    499.09553    329.24029    103.36833    37655.765 
  538100    303.59003   -1526.1186    470.07466    304.99212    130.09452    37655.765 
  538200    291.41679   -1484.1747     472.1384    294.42546   -211.37164    37655.765 
  538300    304.06313   -1509.8085    477.03009    330.37866   -118.81549    37655.765 
  538400    308.79436   -1463.7098    484.42648    405.08455   -363.86997    37655.765 
  538500    302.99482   -1500.8717    479.41945    336.91544   -431.76181    37655.765 
  538600    294.90167   -1471.4702    491.76307    342.37783   -421.61359    37655.765 
  538700    306.13285   -1483.3295    452.86965    341.97608    271.60416    37655.765 
  538800    302.54775   -1518.8478    475.49934      313.015    -159.3793    37655.765 
  538900    299.40572   -1491.3208    498.04038    348.99683    581.45172    37655.765 
  539000    290.63635   -1509.0433    465.19667    259.11628    343.65872    37655.765 
  539100    292.41933   -1491.4045     467.6595    287.21128    780.93837    37655.765 
  539200    306.36058   -1516.6778    491.60912    348.38821    99.996142    37655.765 
  539300     301.4443   -1518.1578    481.06373    314.32242   -279.69961    37655.765 
  539400    298.30235    -1558.818    484.41347    262.92621    223.11795    37655.765 
  539500    289.55997   -1520.9904    484.42592    261.57288   0.52978293    37655.765 
  539600    310.16429   -1519.1003    468.23985    339.64902   -490.78559    37655.765 
  539700    302.62652   -1537.4617     474.7239    293.97881   -221.05274    37655.765 
  539800    295.38991   -1544.6416    468.15751    247.78972   -484.48501    37655.765 
  539900    300.44429   -1509.0778    480.25654    318.11207   -321.58701    37655.765 
  540000    290.04443   -1528.7634    461.38804    232.93389    -290.9466    37655.765 
  540100    304.17521   -1481.7461     468.2796    350.19307   -278.31126    37655.765 
  540200    308.04593    -1525.263    523.45473    379.20426    73.819966    37655.765 
  540300    304.64227   -1496.6145    452.44143    321.58036   -191.49942    37655.765 
  540400    305.89811    -1507.186    465.43536    329.63288   -72.990018    37655.765 
  540500    308.08961   -1553.7947    459.66943    287.08312   -425.41562    37655.765 
  540600    297.45771   -1498.7953    451.38428    286.13309   -338.39808    37655.765 
  540700    302.73174   -1539.2678    491.19462    309.11509    40.311667    37655.765 
  540800    299.55842   -1492.7015    468.84481    319.10514   -100.66412    37655.765 
  540900    305.67098   -1477.1077    467.41985    360.67738   -152.00981    37655.765 
  541000    311.14732   -1510.8171    455.72934     339.8287   -90.393304    37655.765 
  541100    307.17101   -1473.7098    446.54348    349.92384    60.012744    37655.765 
  541200    303.96546   -1509.7237    481.12779    334.12324    352.88809    37655.765 
  541300    309.05964     -1504.47    464.02754    345.11469    275.84188    37655.765 
  541400    298.31468   -1544.7249    451.15741    243.81843    134.75013    37655.765 
  541500    302.33025   -1527.4142    488.89362    316.86779    687.37348    37655.765 
  541600    306.04428   -1531.1934    478.60319    319.44864    132.02383    37655.765 
  541700    291.48434   -1490.8518    453.18152    269.09433    207.61476    37655.765 
  541800    294.95563    -1510.404    461.53838    273.46128   -329.79945    37655.765 
  541900    306.64915   -1541.5993    479.08219    312.23345   -339.75922    37655.765 
  542000    303.06242   -1501.9584    449.44478    306.15715   -305.06651    37655.765 
  542100    297.84441   -1527.8665    457.27031    264.68147    49.198848    37655.765 
  542200    297.35217   -1526.9483    465.18463    271.30719     131.6692    37655.765 
  542300    308.21658    -1519.413    478.00336     340.3679    165.89308    37655.765 
  542400    290.06844    -1511.206    461.47183    250.68278    143.64727    37655.765 
  542500    292.64651   -1523.7989    457.19441    245.37032    164.84179    37655.765 
  542600    302.41037   -1515.8392    463.60394    303.51227    292.85865    37655.765 
  542700    301.54207   -1515.5465    466.25425    302.56253     1455.274    37655.765 
  542800    308.73851   -1501.8887    488.01467    370.24346    692.64072    37655.765 
  542900     293.8056   -1501.2767    453.13201     269.0265    795.79999    37655.765 
  543000    293.70502    -1536.348    472.21205    252.58425    828.93355    37655.765 
  543100    305.44858   -1484.9738    486.30679    370.70125     371.7608    37655.765 
  543200    311.16606   -1511.6385    447.42779    330.78982    133.15034    37655.765 
  543300    299.82924   -1515.2493    468.57417    297.50079    139.27286    37655.765 
  543400     299.4437   -1507.0711    482.83678    318.21318    403.66807    37655.765 
  543500     295.4892    -1515.374    454.79889    264.14382    28.913647    37655.765 
  543600    290.77718    -1571.333     490.3369    222.59825   -237.59699    37655.765 
  543700    290.00026   -1525.6327    466.63911    241.11766    91.272718    37655.765 
  543800    299.44722   -1528.2044    464.34877    278.60769     282.4404    37655.765 
  543900    306.99263   -1522.7654    469.34065    322.86568    123.10229    37655.765 
  544000    295.83808   -1515.3101    471.93252    282.90545   -294.70725    37655.765 
  544100     289.1047    -1533.713    497.43664    259.81994    334.85804    37655.765 
  544200     302.5579   -1533.6017    484.43416    307.24136    317.75694    37655.765 
  544300    297.47987    -1500.245     493.8541     327.2525    179.15625    37655.765 
  544400     309.1872   -1515.5164    469.79077    340.40335    33.731765    37655.765 
  544500    296.62928   -1522.7261    469.69479    276.79873    -39.98641    37655.765 
  544600    306.66237   -1508.2355    463.82637    330.40069   -79.612997    37655.765 
  544700    294.52584   -1491.0563     457.9832    287.32703    -145.0991    37655.765 
  544800    294.99513   -1506.9345    485.82821    301.39774   -229.45355    37655.765 
  544900    287.08087   -1517.4725    474.93203    244.48278   -507.94343    37655.765 
  545000    294.38485   -1537.9868    465.01006    246.79129   -232.39963    37655.765 
  545100    308.00104   -1534.5125    465.92176    312.22052   -294.61794    37655.765 
  545200    306.02039    -1497.834     493.7414    367.83908     71.10514    37655.765 
  545300    291.65968   -1520.1451     483.8185    271.22411    91.801051    37655.765 
  545400    305.08307   -1523.0151    489.85204    334.56649    406.48146    37655.765 
  545500    299.00885    -1505.685    445.42598    280.23903    99.690542    37655.765 
  545600    295.40305   -1566.0671    468.30667    226.57231    124.56291    37655.765 
  545700    298.04816    -1576.523    480.69171    240.35983    500.22178    37655.765 
  545800    307.10916   -1557.9433    490.36544    309.23495    565.24046    37655.765 
  545900    300.83391   -1590.2452    447.85267    206.28744    208.72907    37655.765 
  546000     299.1594   -1529.1988    492.88055    304.85474    36.565524    37655.765 
  546100     295.4969   -1562.7616       462.79    224.78188    -305.2029    37655.765 
  546200    293.64376   -1556.7044    482.64376    242.38491   -32.804818    37655.765 
  546300    291.97114    -1535.765    475.34078    248.52278    688.60272    37655.765 
  546400    299.52748   -1509.7641    461.16642    294.22547    328.03396    37655.765 
  546500    306.40779   -1480.8414    477.37716    370.20425    343.90343    37655.765 
  546600    301.97731    -1498.764    484.58354    339.62558    198.02794    37655.765 
  546700    297.82376   -1547.1564    489.49649    277.52519    83.066253    37655.765 
  546800    298.84262   -1489.1388    482.62569    333.23966    511.87942    37655.765 
  546900    295.25762   -1481.8724    490.86209    332.67043    688.53395    37655.765 
  547000    292.48512   -1527.5655    471.31476    255.00052    515.10815    37655.765 
  547100    293.30935   -1509.0224    494.00805    299.93199    1198.5296    37655.765 
  547200    302.94719     -1534.87    501.78628    325.07048    1065.1609    37655.765 
  547300    297.44022   -1502.0601    485.79544    317.20096    893.92824    37655.765 
  547400    296.05801   -1525.8458    487.51702    288.94018    1125.7374    37655.765 
  547500     304.0354   -1523.1511    504.49446     344.3761    933.83978    37655.765 
  547600    293.91428   -1559.9748    469.15173    226.83532    725.28669    37655.765 
  547700    303.98383   -1531.0948    476.65834    308.36511     740.6573    37655.765 
  547800    302.72427   -1522.2986    481.77866    316.63485    400.21536    37655.765 
  547900    302.30676    -1533.531    476.54905    298.30107    380.84271    37655.765 
  548000    299.86829   -1554.9353    480.13968    269.55544    696.13766    37655.765 
  548100     297.5706    -1533.035     453.9422    254.95737   -306.47383    37655.765 
  548200    307.43042   -1531.3598    467.76112     314.6544   -310.24421    37655.765 
  548300    303.33592   -1534.3516    478.06566      303.611   -173.32164    37655.765 
  548400    305.06601   -1535.2903    483.43982    315.80262   -123.65003    37655.765 
  548500    299.82743   -1505.6549    447.78294    286.29589   -377.69402    37655.765 
  548600    298.49975   -1537.7342    480.45387    280.93537   -294.94528    37655.765 
  548700    306.77793   -1524.9502    465.37905    315.75673   -417.23202    37655.765 
  548800    309.28281   -1506.9857    459.20977    338.78172   -799.17299    37655.765 
  548900    296.84116   -1554.8434    478.18968     254.1263   -548.58495    37655.765 
  549000    292.97578   -1514.6683    498.81895    297.60155   -424.30388    37655.765 
  549100    303.48916   -1514.0283    453.14015    299.69573   -553.86495    37655.765 
  549200    308.31268   -1519.0596    470.78458    333.93339   -2.6830922    37655.765 
  549300    298.38761   -1559.8653    477.61347    255.46114   -273.77601    37655.765 
  549400    289.91308   -1547.7796    476.30113    228.24191   -215.26413    37655.765 
  549500    300.14881   -1540.5195    486.99439    292.08358    144.03096    37655.765 
  549600    297.17029   -1515.0834    451.78534    268.95747    228.54995    37655.765 
  549700    300.33666   -1525.5958    492.56348    313.41851    567.17544    37655.765 
  549800    294.82867   -1539.4667    486.66166    268.95264    307.90452    37655.765 
  549900    300.77202   -1522.0341    476.47874    302.84718    161.89114    37655.765 
  550000    297.58867   -1555.0453    475.75658     254.8424    120.27315    37655.765 
  550100    286.63847   -1519.6053     467.3434    232.77799    301.01991    37655.765 
  550200    295.30103   -1545.2221    463.48856    242.14179   -462.35071    37655.765 
  550300    309.24369    -1521.799    468.34762    332.93087    93.544853    37655.765 
  550400    309.00835   -1557.4494    460.51032    288.38808    236.27898    37655.765 
  550500    301.21469   -1529.0609    464.60786    285.93405   -577.40926    37655.765 
  550600    298.76318   -1507.5833    488.14449    319.95787   -629.16193    37655.765 
  550700    308.89958   -1516.1318    471.25637    339.96412   -275.21419    37655.765 
  550800    283.03321   -1543.9544    465.75794     190.6806   -26.700548    37655.765 
  550900    301.60262   -1487.0086    491.39118    356.50884   -157.47862    37655.765 
  551000    299.10838   -1565.4347    494.35361    269.86313   -412.29857    37655.765 
  551100    308.31832   -1496.9916    492.86943    378.11146   -15.980418    37655.765 
  551200    299.22196   -1533.5517    444.52848    252.43021   -200.33212    37655.765 
  551300    290.94055     -1521.59    516.11903    298.85575   -310.88416    37655.765 
  551400    294.46188   -1541.1667    490.31407    269.26073   -32.133645    37655.765 
  551500    310.78193   -1552.0699    476.66708    317.87561   -146.12899    37655.765 
  551600    303.53868   -1535.6265    494.11644     319.2958     119.6291    37655.765 
  551700    300.24204    -1545.679    486.86098    287.20861   -58.392391    37655.765 
  551800    288.64298   -1524.7435    490.09048    259.37337    102.10912    37655.765 
  551900    303.95872   -1534.3242    487.84225    316.20704    574.22237    37655.765 
  552000    288.84283   -1537.0701    438.24324    196.09543    201.40181    37655.765 
  552100    298.70233   -1579.0003    479.05013    239.17368      -106.17    37655.765 
  552200    310.34324   -1556.0513    472.66229    307.92268   -151.54829    37655.765 
  552300    281.74376   -1576.3836    474.11512    160.82777   -137.42582    37655.765 
  552400    304.71855   -1578.9892    465.65857    252.76477    185.73276    37655.765 
  552500    297.94064    -1532.129    505.46026    309.04041    296.63138    37655.765 
  552600    301.11635   -1524.4712    485.78543    311.26043   -40.460513    37655.765 
  552700    295.83595    -1523.899    504.67395     307.0484    285.77356    37655.765 
  552800    309.49361   -1507.9736    488.70392    368.23303    482.82468    37655.765 
  552900    308.11634   -1552.5884    485.55195    314.29169    480.11324    37655.765 
  553000    302.08732   -1552.9948    496.86956    298.17403    219.29742    37655.765 
  553100    306.60489   -1539.8022    490.99046    325.74038   -13.681045    37655.765 
  553200    296.93562    -1502.128    491.86609    320.94156   -353.74336    37655.765 
  553300    309.44766   -1523.1596    478.59144     342.7285   -302.05536    37655.765 
  553400    298.32029   -1519.2198    471.21672    289.40805   -378.03692    37655.765 
  553500    286.59527   -1547.7695    475.11035    212.18707   -151.76911    37655.765 
  553600    308.69133   -1509.2832    482.08256    356.70533   -107.24275    37655.765 
  553700    290.11458   -1517.0301    486.76706    270.36078    165.92233    37655.765 
  553800    296.61006   -1546.0363    486.95395    270.66152    133.85258    37655.765 
  553900    291.78845   -1538.9691    462.54863    231.70754   -116.18944    37655.765 
  554000    302.38165   -1563.0337    488.95956    281.54465   -148.62632    37655.765 
  554100    296.54444   -1522.1208     495.4611       302.79   -179.94578    37655.765 
  554200    301.92538   -1566.2033    471.26219    258.63213   -335.56855    37655.765 
  554300     300.7282   -1526.3922    501.81121    323.62518    141.48757    37655.765 
  554400    304.47137   -1593.1115    463.87849    235.75429    158.98411    37655.765 
  554500    294.19509   -1577.0924    480.33803    222.16293    336.01826    37655.765 
  554600    296.79527   -1549.2819    473.12038    254.41273    373.61124    37655.765 
  554700    308.08289   -1557.0251    467.89211    292.04526    371.67223    37655.765 
  554800    283.83652   -1582.9436    489.27444    178.80917    382.79824    37655.765 
  554900    287.90811   -1533.1308    486.10447    243.70549    269.32981    37655.765 
  555000    295.60262   -1563.0593    485.74673    247.91482    -179.2894    37655.765 
  555100    299.08836   -1549.1903    459.44579       251.11   -318.49688    37655.765 
  555200    307.03029   -1557.5289    498.48419     317.4145   -492.76282    37655.765 
  555300    293.22855   -1573.3755    461.68684    202.89545   -493.64777    37655.765 
  555400    302.75812   -1577.2373    485.60311    265.67235    465.86121    37655.765 
  555500    301.31818   -1556.6925    468.15228    262.31081     1445.694    37655.765 
  555600    310.76448   -1556.5171    461.45434    298.13741    723.65027    37655.765 
  555700    294.03956   -1566.7582    488.31705    239.77888    577.32312    37655.765 
  555800    297.23085   -1567.2249    460.44492    225.74701    866.52971    37655.765 
  555900    310.92133   -1558.8312    473.83821    308.91035    1437.5081    37655.765 
  556000    296.94921   -1562.9041    489.42494     257.7852    637.67502    37655.765 
  556100     296.8534   -1582.3243    510.66844    259.17899    1135.1292    37655.765 
  556200    290.84543   -1580.7863    487.45498    210.56895     932.9712    37655.765 
  556300    309.42052     -1582.29    481.13122    286.01619    138.43258    37655.765 
  556400    299.39991   -1573.1354    490.60971    259.72548   -212.12499    37655.765 
  556500    301.46356   -1572.6494    494.76384    273.61723    121.70951    37655.765 
  556600    289.97105   -1571.3981    477.56362    206.14582    165.79135    37655.765 
  556700    291.18795   -1554.4617    439.33208    190.30619   -550.31472    37655.765 
  556800    301.91667   -1515.1216    488.23552    326.64814   -308.73786    37655.765 
  556900     308.9856   -1552.5674    509.75563    342.41338   -247.22063    37655.765 
  557000    309.46674   -1519.4355    477.97161    345.91835   -210.57532    37655.765 
  557100    304.38823   -1505.9949    482.05106    340.67076   -320.58736    37655.765 
  557200    299.46622   -1530.4656    476.69092     288.7738    -386.0021    37655.765 
  557300     304.0521   -1500.2801    479.64096    342.46849   -549.90847    37655.765 
  557400    303.39429   -1463.4888    488.44598    385.11581   -372.49121    37655.765 
  557500    303.03979   -1513.4784    491.59762     336.6885   -165.37098    37655.765 
  557600    302.09788   -1534.4385    503.87792    323.78597    309.60995    37655.765 
  557700    292.28776   -1500.7723    502.27851    311.87264     221.0886    37655.765 
  557800    305.50666   -1477.3797     485.3075     377.5564    369.47566    37655.765 
  557900    294.59806   -1491.3198    510.93073    340.33479    639.90976    37655.765 
  558000    301.46531   -1520.6564    515.56867    346.42296    925.84563    37655.765 
  558100     295.8877   -1525.0412    474.06104    275.52531    400.30967    37655.765 
  558200    298.03352   -1494.3584    523.81296    365.58004    632.10751    37655.765 
  558300    299.38979    -1494.467    499.96649    347.70529   -135.68588    37655.765 
  558400     298.6321   -1510.4683    485.89662     314.2373    169.24963    37655.765 
  558500    308.26559   -1511.6398     485.5195    355.87695    244.86962    37655.765 
  558600    302.57246   -1525.8159    490.11353    320.77179    -260.7779    37655.765 
  558700    292.55996   -1539.7358    448.25606    220.10701   -293.83191    37655.765 
  558800    313.43532   -1557.5266    471.84618    319.49351   -157.19529    37655.765 
  558900    299.88921   -1504.4268    484.42965    324.44766    107.79745    37655.765 
  559000    298.70057    -1557.008     464.9558    247.06375    410.41164    37655.765 
  559100    312.08532   -1556.7816    485.22411    327.56415    846.57959    37655.765 
  559200    294.63979   -1530.9792    496.00172    285.93345    143.94609    37655.765 
  559300    304.43511   -1509.6319    484.80811    340.00095   -102.41681    37655.765 
  559400     294.7444   -1485.2554    499.78854    335.91306    106.14229    37655.765 
  559500    301.21336   -1496.9775    504.77961    358.18323    196.52009    37655.765 
  559600     304.6951   -1518.1971    494.13383    341.92697    402.58685    37655.765 
  559700    298.70317   -1546.9015    482.82673    275.05286    215.05296    37655.765 
  559800    298.04845   -1535.5806     481.0691    281.68097    381.51668    37655.765 
  559900    295.59596   -1551.4976    482.65805    256.35799    509.57803    37655.765 
  560000     304.8017   -1552.9242    501.73224    315.27617    424.63778    37655.765 
  560100    289.33378   -1570.0209    466.19427    193.29672    -469.5612    37655.765 
  560200    306.40198   -1545.7852    468.50456    296.36179   -524.16364    37655.765 
  560300    303.55073   -1511.0854     493.6011     343.3756   -378.32743    37655.765 
  560400    306.42517   -1528.4867    432.55356    277.81331    -351.0332    37655.765 
  560500    309.95391   -1487.3802    530.52654    432.71263    429.82296    37655.765 
  560600    304.15474   -1506.0887    472.37263    329.85173    810.60305    37655.765 
  560700    297.39727    -1527.692    483.43498    289.01607    149.20247    37655.765 
  560800    295.50816   -1544.3808    465.35198    245.77511     353.0736    37655.765 
  560900    294.86949   -1538.5234     490.9629    274.38019    239.59269    37655.765 
  561000    293.30195   -1528.7791     485.2858    271.41986    494.87468    37655.765 
  561100    310.97129   -1519.9899    481.65356    355.79097    12.825889    37655.765 
  561200    298.16227   -1519.3317    497.96521    315.33619    430.73296    37655.765 
  561300    288.22555   -1500.1008    475.47541     267.5296   -236.36992    37655.765 
  561400    299.05711   -1489.2608    474.38186    325.83541    47.484158    37655.765 
  561500    301.87694   -1481.0754    497.07753    369.35818    393.40663    37655.765 
  561600    299.54062   -1473.3452    467.73519    337.27198    581.59143    37655.765 
  561700    301.59873   -1500.1279    517.44045    369.42136     481.3279    37655.765 
  561800    301.41943   -1464.6459    475.22173    361.88078    421.02635    37655.765 
  561900    287.73103   -1473.6308    513.02985    329.33701   -469.32549    37655.765 
  562000    300.98478   -1485.4247    479.63435    343.56605    128.09152    37655.765 
  562100    299.66056   -1499.5585    492.29801    336.15924   -469.70311    37655.765 
  562200    291.20117   -1520.0293    482.88789    268.35371   -145.36847    37655.765 
  562300    302.89812   -1516.0233    453.82168     295.7326    102.41678    37655.765 
  562400     304.6867   -1551.0454     474.7168    289.62409    86.176548    37655.765 
  562500    298.04797   -1520.3246    484.72304    300.58875    105.11868    37655.765 
  562600    295.71289   -1520.1392    464.39211    269.97473    63.926831    37655.765 
  562700    294.76638   -1557.9314    447.41021     210.9573    469.29687    37655.765 
  562800    310.52012    -1541.194    505.21862    356.12924    -301.7447    37655.765 
  562900    307.00722   -1537.4496    448.75159    287.65786   -55.250698    37655.765 
  563000    300.07078   -1573.1153    474.62881    246.77237   -955.30687    37655.765 
  563100    298.63573   -1511.3721    457.15379    284.60698     -559.436    37655.765 
  563200    295.42953   -1567.1089    478.43882    235.78133   -513.79409    37655.765 
  563300    303.29145   -1528.2331    488.42546    319.88994   -964.87362    37655.765 
  563400    297.34644   -1525.8961    449.98465    257.13376   -1250.7347    37655.765 
  563500    299.49552   -1479.9752    484.62493    347.32953   -813.63947    37655.765 
  563600    297.89208   -1467.9417    478.61547    346.16515   -845.09673    37655.765 
  563700     296.0167   -1485.8958    463.74896    304.93692   -303.13587    37655.765 
  563800    297.91677    -1492.387    462.61641    305.83146   -350.14479    37655.765 
  563900    302.11624   -1473.7367    479.81258    360.50475   -21.302865    37655.765 
  564000    295.33548   -1524.1945    457.27978    257.11514    242.52485    37655.765 
  564100    300.03261   -1494.7511    480.19909    330.53566    230.87907    37655.765 
  564200    300.81111   -1504.5743    465.34351    309.34706   -415.13903    37655.765 
  564300    299.51796   -1512.6862    472.58563    302.67985    187.54017    37655.765 
  564400    287.93921   -1476.8855    483.32442    297.31023    968.53572    37655.765 
  564500    305.17172   -1528.8604    439.65426    278.92089    1184.3991    37655.765 
  564600    306.72561    -1546.616    472.90205    301.37936     1258.566    37655.765 
  564700    295.47746   -1536.2262    474.64442    263.08456    1013.3801    37655.765 
  564800    301.19749   -1532.5388    455.15706     272.9283    851.08421    37655.765 
  564900    289.78933   -1500.9884    475.37617    273.55345    1244.2586    37655.765 
  565000    298.06281   -1540.0547    459.90987    256.11195    536.82534    37655.765 
  565100    299.99037   -1511.3515    440.90524    274.45203    658.51621    37655.765 
  565200    296.76622   -1516.6349    490.38981    304.19892    507.04802    37655.765 
  565300     305.3738   -1469.5186    480.28275    379.79716    313.53063    37655.765 
  565400    303.93191   -1496.3619    469.25408    335.46094   -447.09036    37655.765 
  565500    293.61187   -1473.0301    465.82375    309.09625   -275.09043    37655.765 
  565600     302.5537   -1481.6865    462.01553    336.71915   -222.16967    37655.765 
  565700    303.02786   -1514.9953    462.57236    306.09289   -132.84931    37655.765 
  565800    304.05051   -1521.1981    488.38334    330.28573   -24.630438    37655.765 
  565900    300.05829   -1525.5052    489.22523    308.92286    18.843987    37655.765 
  566000    296.33341   -1537.7644    478.00924    268.74848     348.2202    37655.765 
  566100     305.9155   -1527.3729    463.78605    307.87468    31.786656    37655.765 
  566200    292.06608   -1481.6849    475.64746    303.33517    68.639753    37655.765 
  566300    297.19038    -1504.452    459.41944    287.31304   -254.32884    37655.765 
  566400    300.61814   -1495.4867    483.61055    335.83658    80.088671    37655.765 
  566500    292.94348   -1496.1346    481.77994    298.95149    318.63842    37655.765 
  566600    304.86168   -1501.6511    461.73925    326.82526    872.48739    37655.765 
  566700    314.71296   -1496.0321    486.66478    401.53441    61.887933    37655.765 
  566800    293.19504   -1533.9908    452.14425    232.58733   -373.79373    37655.765 
  566900    298.24827   -1502.1186      477.972    312.94167   -280.47932    37655.765 
  567000    296.07606   -1496.6648    477.82673     308.5119   -288.43204    37655.765 
  567100    305.86245   -1492.4987    460.66827    339.39319   -660.35823    37655.765 
  567200    299.71224   -1504.7108    456.99639    295.93696   -207.17859    37655.765 
  567300    292.11761   -1537.7674    479.30156    251.13783   -660.13861    37655.765 
  567400    305.89446   -1526.6329    477.21447    321.94871   -84.565094    37655.765 
  567500    305.60257   -1528.3452     481.5941    323.30746   -213.80739    37655.765 
  567600    300.25361   -1528.9649    482.33812    299.45169    40.301571    37655.765 
  567700    296.54532   -1494.5121    490.30964    325.25128    422.02263    37655.765 
  567800    296.50879   -1542.7435    464.13631    250.68271    294.46863    37655.765 
  567900    314.34718   -1485.4037    460.27126    384.12951    487.84838    37655.765 
  568000    300.77253   -1502.2057    480.98646    327.18562    692.90726    37655.765 
  568100    291.43759   -1513.9096    465.74572    258.39116    679.21325    37655.765 
  568200    297.49177   -1470.1556    471.14153    334.68265   -204.92676    37655.765 
  568300    320.69942    -1449.134     466.0784    454.68425    63.457203    37655.765 
  568400     303.5849   -1489.9778     477.0567    348.09204   -37.918608    37655.765 
  568500    293.30199   -1483.4563    464.67928    296.13637   -446.81346    37655.765 
  568600    301.81771   -1505.7305    487.68015    335.04013    35.556515    37655.765 
  568700     304.5061    -1487.736    478.53861    355.94554    320.01641    37655.765 
  568800    302.62903   -1484.4252    472.69833    345.00091    756.37813    37655.765 
  568900    306.27989   -1495.4672    487.18981    364.81773    51.105217    37655.765 
  569000    303.30022   -1505.6285     514.1992    368.30748    188.00702    37655.765 
  569100    297.29208   -1473.6515    451.57899    310.72906   -304.45093    37655.765 
  569200    299.54973   -1475.2285    521.64269    389.33709   -889.38623    37655.765 
  569300    289.55219   -1480.6642    459.11405    276.55243   -319.48726    37655.765 
  569400    294.64113   -1511.8044    477.45759    286.57014   -321.93394    37655.765 
  569500     306.7186   -1487.2212    513.88801    401.72876   -80.829897    37655.765 
  569600    285.18503   -1493.5419    495.67767    280.65967   -381.22416    37655.765 
  569700    297.49995   -1508.5264    476.02018    301.22718    321.91247    37655.765 
  569800    295.78601    -1501.924    479.93801    304.06364   -167.32434    37655.765 
  569900    313.44502   -1517.0838    460.82886    348.96247    5.5000342    37655.765 
  570000    299.81569   -1514.0237    468.88772    298.97923   -239.29759    37655.765 
  570100    304.76391   -1504.3696    494.63446    356.56361   -4.7459622    37655.765 
  570200    300.19734   -1547.9616    471.46784    269.33242    105.51922    37655.765 
  570300    295.64291   -1520.3782    461.25038    266.28029   -441.01718    37655.765 
  570400    309.04471   -1523.3323    481.10654    343.26437   -58.785191    37655.765 
  570500    312.13187   -1531.1315    474.85668    343.05548   -628.36089    37655.765 
  570600    298.04597   -1508.4973    475.37648    303.06051   -178.21044    37655.765 
  570700    298.17162   -1542.7834    502.24392    296.20514    44.407405    37655.765 
  570800    299.22776   -1513.2306    463.28715    291.53598    118.44327    37655.765 
  570900    294.15044   -1466.2702    496.88265    349.32957   -210.23416    37655.765 
  571000    300.85183   -1516.7917    511.13125     343.0999   -248.87709    37655.765 
  571100    293.21531   -1532.5306     470.8663    252.86054   -152.35511    37655.765 
  571200    305.51171   -1535.2678    479.46414    313.84761   -133.23878    37655.765 
  571300    294.43615   -1563.4214    466.89995    223.47656   -351.66559    37655.765 
  571400    300.93674   -1555.6684     465.4237    258.89633   -1.8176804    37655.765 
  571500    292.29236   -1574.7411     476.8281    212.47408    448.54744    37655.765 
  571600    306.16591   -1571.1201    465.28894    266.75302    574.20363    37655.765 
  571700     298.7137   -1564.5292    460.70367    235.34926    485.89933    37655.765 
  571800    292.09242   -1570.0821    491.52414    230.93278    240.93904    37655.765 
  571900    290.02053   -1556.6481    454.88115    198.43517    92.428072    37655.765 
  572000    306.07655   -1551.0459    475.87928    297.01687   -590.17658    37655.765 
  572100    299.71766   -1564.8314    456.59972    235.44409   -661.75741    37655.765 
  572200    297.82544    -1549.385    468.71919    254.52686   -804.98024    37655.765 
  572300    314.93554   -1505.1477    496.79438    403.54629   -739.39229    37655.765 
  572400    307.82972   -1539.5217    454.07492    294.59643   -241.96538    37655.765 
  572500    299.64875   -1527.9713    494.41205    309.80749   -393.24579    37655.765 
  572600    295.27268   -1478.5527    475.73352    320.92904   -762.83238    37655.765 
  572700    306.21187   -1505.5573    486.90589    354.13877   -533.63572    37655.765 
  572800    301.95674   -1513.0303    454.52289    295.20646   -438.65199    37655.765 
  572900    305.32061   -1545.9037    460.34044    283.23132   -223.22716    37655.765 
  573000     293.0323   -1541.6226    475.35664    247.43834   -185.75678    37655.765 
  573100    307.88227   -1545.8884    493.44764    327.83801    141.27388    37655.765 
  573200    290.39004   -1524.5927    478.28716    255.55321    97.136099    37655.765 
  573300    313.66948    -1521.107    491.30321    376.41989    217.63974    37655.765 
  573400    296.24881   -1509.4484     478.2077    296.88366     60.30261    37655.765 
  573500    294.31505   -1474.5762    483.02958    327.90845   -752.62016    37655.765 
  573600     307.7627   -1479.9487    480.24721    380.04127   -299.74827    37655.765 
  573700      308.998   -1516.5346     484.9395     353.6857   -554.04346    37655.765 
  573800    297.05464   -1554.7119    488.42262    265.44774   -765.83902    37655.765 
  573900    297.15574   -1541.0282    459.39327    250.55538    308.93797    37655.765 
  574000    300.77854   -1537.0948    494.54671    305.88371     653.2777    37655.765 
  574100    304.22176   -1505.9578    518.46677    376.37723    876.68832    37655.765 
  574200     288.7229   -1530.3937    502.25382    266.24483    239.27362    37655.765 
  574300    301.82414    -1517.954    503.28019    338.44555   -73.370516    37655.765 
  574400    297.74143   -1504.1673    459.85884     290.5076   -445.80344    37655.765 
  574500    305.57244    -1517.747    491.73261    343.90918   -487.56022    37655.765 
  574600    296.34684   -1503.0422    460.50058    286.02224   -366.91782    37655.765 
  574700    288.64655   -1527.6743    479.69629    246.06439   -360.36172    37655.765 
  574800    303.23292    -1506.051    487.02995     340.4141    413.89798    37655.765 
  574900    300.09596   -1508.9535     491.0679    327.48616    208.78534    37655.765 
  575000    311.40299   -1516.9646    473.88207    352.98019   -39.669596    37655.765 
  575100    300.23065    -1484.685    478.32761    339.61809   -215.24151    37655.765 
  575200    296.78238   -1515.5211    475.63822    290.63363   -392.71017    37655.765 
  575300    308.66074   -1511.9467    484.47561    356.29773   -374.18491    37655.765 
  575400    311.34915    -1526.229    465.29356    334.88582    64.213061    37655.765 
  575500    305.17012   -1559.1986    469.17751    278.09876     289.0955    37655.765 
  575600     292.0594   -1529.7008     464.2447    243.88662    414.36047    37655.765 
  575700    306.57527   -1532.6416    459.33414     301.1119    135.81813    37655.765 
  575800    296.32233   -1570.0483    478.06856    236.47427   -41.696083    37655.765 
  575900    304.58945   -1556.4437    486.21416    295.28712   -62.543025    37655.765 
  576000    297.97802   -1562.2057    479.14306      252.814    260.17953    37655.765 
  576100    295.66064   -1543.2329    485.58087    267.83549    202.93065    37655.765 
  576200    290.74368   -1524.8682    511.97174    290.54765   -38.764976    37655.765 
  576300    299.21142   -1555.3077    475.35838    261.45681   -585.83479    37655.765 
  576400    294.40021   -1568.8454    485.54981     236.5413   -411.23202    37655.765 
  576500    287.08528   -1548.3043    482.24875    220.98743   -448.30325    37655.765 
  576600    301.97936   -1533.7358    489.35166    309.43113    350.02026    37655.765 
  576700    298.58123    -1552.764    493.30277    279.11967   -194.11673    37655.765 
  576800    306.34185   -1541.5761      500.984    332.78076   -90.617997    37655.765 
  576900    299.50984   -1616.2932    469.90744    196.35831   -28.065557    37655.765 
  577000    291.78913   -1593.7398    481.99515    196.38637    145.20713    37655.765 
  577100    313.53803   -1562.8439    465.37322    308.16366     587.6072    37655.765 
  577200    301.98363   -1577.0299    480.21564    257.02013    31.496038    37655.765 
  577300    297.49209   -1534.5532    483.39772    282.54271   -94.763441    37655.765 
  577400     317.5244   -1585.5656    489.79235    327.73255   -56.011677    37655.765 
  577500    306.26908   -1572.9117    489.68104      289.816    39.328239    37655.765 
  577600    311.48191   -1573.8333    464.64034     287.2235   -261.72169    37655.765 
  577700     313.5025   -1585.3508    484.95476    305.07904     119.3762    37655.765 
  577800    293.47646   -1576.5815    512.54721    251.66132    36.829921    37655.765 
  577900    309.52638   -1561.3335    462.10846     288.4245   -4.2345931    37655.765 
  578000    294.81777   -1582.9053    469.46904    208.27264     94.92488    37655.765 
  578100    310.03869   -1609.1996    477.59247    258.33918    42.544024    37655.765 
  578200    298.92135    -1643.286    458.94142    155.76117   -615.68107    37655.765 
  578300    299.03765   -1583.8243    469.29703    226.09987   -514.26409    37655.765 
  578400    306.90889   -1576.6624    477.75496     277.0076    169.58977    37655.765 
  578500     295.4208   -1583.5656    474.87572    215.72246   -202.42473    37655.765 
  578600    297.73167   -1558.5063    486.35874    262.62466   -67.376561    37655.765 
  578700    297.01576   -1566.7312    481.29414    246.12564   -159.37243    37655.765 
  578800    292.79564   -1548.2479    487.16042     251.5559   -165.63974    37655.765 
  578900    306.41287   -1563.8263    466.07018     275.9352    138.16347    37655.765 
  579000    299.99148   -1607.2757     449.7312    187.35885    -699.5153    37655.765 
  579100    309.33238   -1567.9199    504.82666    323.68657   -43.129166    37655.765 
  579200    301.60422   -1555.7275    482.74783     279.1538    346.50874    37655.765 
  579300    298.06869   -1572.3918    487.45527     251.3467    314.37829    37655.765 
  579400    301.82318   -1586.8605    481.98986    248.24443    45.910746    37655.765 
  579500    296.36564   -1588.5286    484.61809    224.73764   -508.36914    37655.765 
  579600    306.37685   -1552.3104    462.86636    284.08573    -272.8116    37655.765 
  579700    300.42373   -1557.5201    473.52879    262.84982    -175.5305    37655.765 
  579800    303.55484   -1537.2772    470.45303    294.05419   -64.647196    37655.765 
  579900    311.96009   -1581.5708    497.42393    314.41332    406.52135    37655.765 
  580000    296.24692   -1580.7622    454.75546    202.10921     532.9329    37655.765 
  580100    304.44619   -1596.9699    472.97232    240.87673    328.42459    37655.765 
  580200    296.86254   -1553.2925     492.4024    269.98569    744.59965    37655.765 
  580300    302.60017   -1582.8322    473.85126    247.61752   -64.328149    37655.765 
  580400    294.41531   -1571.1421    474.24455    223.00704   -137.69258    37655.765 
  580500    299.13371   -1587.3857    470.62637    224.29851   -212.75348    37655.765 
  580600    301.37802   -1555.7844    497.79435    293.12934   -355.71971    37655.765 
  580700    300.18135   -1555.6367    477.89318    268.01101    130.93292    37655.765 
  580800    297.38869   -1496.4602    469.61452    306.38901   -204.18099    37655.765 
  580900    310.84338   -1530.9277     511.4429    374.06906     345.7586    37655.765 
  581000    302.68495   -1538.7328    511.80151    330.04722   -2.9599893    37655.765 
  581100    307.57427   -1536.2064    464.89133    307.58294    781.23011    37655.765 
  581200    299.82899   -1503.0597    513.69989    354.81498     380.3823    37655.765 
  581300    299.93413   -1523.0653    467.56898    289.14988    883.51863    37655.765 
  581400    302.01338   -1538.0139    496.62275    312.57666    451.36317    37655.765 
  581500    297.64852   -1507.3121    475.99661    303.08402    363.00367    37655.765 
  581600    303.90226   -1498.0776    490.55853    354.91677    665.75144    37655.765 
  581700    302.23365    -1539.123    483.65543    299.48762    76.680249    37655.765 
  581800    307.74796   -1536.6969    475.77876    318.75851   -145.88611    37655.765 
  581900    319.89123   -1537.0745    491.84861    388.89076    102.00146    37655.765 
  582000    309.12614   -1482.1359    474.57786    378.29721   -733.92982    37655.765 
  582100    292.95048   -1495.4673    492.58937    310.45962    2.5662101    37655.765 
  582200    304.23364   -1553.0787    498.39117    309.23394   -411.38591    37655.765 
  582300    302.58718   -1559.6668     475.7884    272.66173   -43.522173    37655.765 
  582400    300.90084   -1500.6475    491.82091    340.15351   -51.119426    37655.765 
  582500     287.9191   -1513.5164    464.35498    241.61973   -152.43366    37655.765 
  582600    306.75626   -1528.9551    465.35626    311.63197    77.099129    37655.765 
  582700    306.37436    -1526.373    470.08971    317.23534    -345.5779    37655.765 
  582800    305.13648   -1576.4158    459.10272    250.65595   -287.04863    37655.765 
  582900    303.40951   -1574.3181    482.91118    268.81986    -272.0847    37655.765 
  583000    300.60187   -1579.9697    479.65129    247.32141   -290.13112    37655.765 
  583100    297.55204   -1516.8901    447.30925    264.38615   -634.29968    37655.765 
  583200    293.60969   -1536.9952    501.00131    280.29893   -607.01881    37655.765 
  583300    297.35412   -1559.1613     440.1375    214.05582    118.73964    37655.765 
  583400     300.6758    -1569.236    474.54996    253.28515    -116.5493    37655.765 
  583500    302.03692   -1624.9806    451.79502    180.88773   -461.81394    37655.765 
  583600     308.1263   -1601.6309    478.71296    258.45488   -54.016587    37655.765 
  583700    304.14625   -1603.9322    459.90425    219.50172   -1155.2861    37655.765 
  583800    305.89371   -1581.7388    459.20178    248.82681   -697.18587    37655.765 
  583900    289.91722   -1542.8114    469.85896    226.78651   -843.81913    37655.765 
  584000    300.89924   -1539.4156    473.80193    283.35928   -245.19222    37655.765 
  584100     304.4397    -1542.121    461.88965    284.61396   -724.81008    37655.765 
  584200    301.59028    -1557.452    456.67991     251.2988   -903.29184    37655.765 
  584300    306.71371   -1557.8259    448.71507    265.92912   -208.60717    37655.765 
  584400    302.65945    -1587.143    467.20132    236.92252     4.766685    37655.765 
  584500    297.39523   -1605.5102    476.92065    204.67438    338.44597    37655.765 
  584600    300.62859   -1600.5024    478.04833     225.3055    109.10098    37655.765 
  584700    291.27093    -1579.001    455.87756    182.68444     -1.74261    37655.765 
  584800    295.52525   -1561.6902    479.80642    242.99681    118.75388    37655.765 
  584900    303.25643   -1555.9151    448.51254    252.13796    -124.0809    37655.765 
  585000    298.61904   -1538.5185    478.44988    278.68187    312.40886    37655.765 
  585100    308.13348   -1572.3961    477.35939    286.36833    155.78946    37655.765 
  585200     302.6112   -1539.0914    478.08383    295.64033    576.41396    37655.765 
  585300    292.61695    -1532.948    457.14176    236.03607   -21.604566    37655.765 
  585400    291.70609   -1550.5418    451.89135    209.10834    476.09905    37655.765 
  585500    293.99889   -1565.3123    475.87913    228.60452    588.36443    37655.765 
  585600    294.21117   -1533.4453    464.48412     250.0282    54.495803    37655.765 
  585700    293.95573   -1554.0419    496.32158    260.12388    580.26635    37655.765 
  585800    305.42965   -1571.1584    475.56024    273.68518    606.15595    37655.765 
  585900    295.47749   -1570.3437    455.09833    209.42107   -250.88941    37655.765 
  586000     299.1768   -1583.8593    466.17809    223.56982   -78.214378    37655.765 
  586100    311.01271   -1589.5248    475.85629    280.64445    41.181052    37655.765 
  586200    303.13654   -1553.6856    471.29232    276.60977   -359.90072    37655.765 
  586300    301.58525   -1547.1235    445.24117    250.16603    170.66124    37655.765 
  586400    303.34224   -1556.4251    468.27804    271.77811    188.07047    37655.765 
  586500    304.93163   -1538.3034    464.62502    293.37231     614.1872    37655.765 
  586600    294.85848   -1545.6833    476.64112     252.8492    448.63312    37655.765 
  586700    294.28917   -1543.2245    479.66703    255.78162     382.0793    37655.765 
  586800    302.54194   -1522.2046    490.55164    324.68441   -227.61445    37655.765 
  586900    311.08252   -1478.5948    475.28127    391.31247    169.02493    37655.765 
  587000    292.92155    -1528.247    472.83852     257.7994   -370.16764    37655.765 
  587100    295.80434   -1533.1945    477.48208    270.41932    53.624686    37655.765 
  587200    290.17178   -1541.5049    485.30875    244.68408    293.86604    37655.765 
  587300     307.3116   -1528.3547    474.80341    324.16911    437.36576    37655.765 
  587400    301.67879   -1549.0042     452.1217    255.58526    324.14909    37655.765 
  587500    302.79781   -1540.8942    478.95538    295.54561     188.1008    37655.765 
  587600    301.12426   -1560.1529    504.16775    293.99652    664.40647    37655.765 
  587700    300.04785   -1554.6648    458.14935     248.6406    602.47286    37655.765 
  587800    298.54752    -1504.258    468.75952    302.93134    355.68282    37655.765 
  587900    298.64353   -1548.3873    479.07239    269.54537   -51.830149    37655.765 
  588000    305.14045   -1500.4377    459.33476    326.88389    556.87897    37655.765 
  588100    311.36236   -1563.1786     462.4527    295.15462    428.17044    37655.765 
  588200    293.05864   -1518.9535    483.83951    278.70841    612.26427    37655.765 
  588300     299.4707   -1551.2888    449.78357    241.06329   -22.525314    37655.765 
  588400    294.12775   -1536.3041    460.12045    242.43173    208.88994    37655.765 
  588500    299.75562   -1500.0481    504.03169    347.82945   -243.49471    37655.765 
  588600    299.28419   -1518.7651     476.2342    299.20155   -345.66206    37655.765 
  588700    297.52648   -1506.9874    493.58613    320.45107   -629.25568    37655.765 
  588800     292.5152   -1532.4557    468.22303    247.15345    246.97614    37655.765 
  588900    301.93533   -1500.9259    481.41952    334.11141    304.20822    37655.765 
  589000    304.76019   -1542.5267    489.33854    313.09389    385.30058    37655.765 
  589100    292.83676   -1531.1069    490.55215    272.27296    754.93187    37655.765 
  589200    290.59139   -1565.1429    469.47584    207.09436    440.94867    37655.765 
  589300    303.74073   -1532.7894    460.44933     289.3716    142.22836    37655.765 
  589400    299.54739   -1592.3842     483.6952    234.22337    291.72488    37655.765 
  589500     309.2791   -1539.9434    460.66693    307.26456    20.537884    37655.765 
  589600    301.38352   -1508.5653    480.74119    323.31985    158.97094    37655.765 
  589700    311.24839   -1556.0605    482.72681    322.03589    520.98709    37655.765 
  589800    309.11626   -1575.4218     481.8731    292.26222    455.47864    37655.765 
  589900    303.02427   -1536.3844    463.31919    285.43444    640.37172    37655.765 
  590000    304.87753   -1565.4408    476.77253     278.1399    520.80324    37655.765 
  590100    296.07652   -1563.3206    460.52654    224.55793    323.94002    37655.765 
  590200    304.84164   -1527.9966    496.14596    334.79664    676.95646    37655.765 
  590300    294.72275   -1530.1078    492.41103    283.58605    524.13578    37655.765 
  590400    294.91517   -1523.7282    457.09841    255.51568    798.36414    37655.765 
  590500    304.71845   -1572.3574    475.82031    269.55784    337.26628    37655.765 
  590600    306.90975   -1517.1595    461.83398    320.59337    812.00075    37655.765 
  590700    305.36623   -1544.4486    477.70397    302.25443    248.68018    37655.765 
  590800    306.06996   -1555.9444    477.19248    293.40205    238.26204    37655.765 
  590900    302.60727   -1519.0698    433.31338    270.87386   -159.53229    37655.765 
  591000    303.36323   -1546.5904    470.20178    283.63075    105.59108    37655.765 
  591100      307.057   -1553.7307    460.05592    282.90421    224.37903    37655.765 
  591200    282.70308   -1549.6439    446.20134    163.95449   -42.444605    37655.765 
  591300    287.08173   -1543.2097    484.87066    228.68807   -6.1125888    37655.765 
  591400    298.60022   -1508.7409    457.52362    287.44884    4.0455187    37655.765 
  591500     305.9922   -1522.1395    500.20294    349.86876    389.23757    37655.765 
  591600    296.94566   -1518.9015    485.66049    298.00749    178.28222    37655.765 
  591700    300.96522   -1519.4304    488.35905    318.19736   -243.84429    37655.765 
  591800    296.92545   -1501.3887    454.65053    284.41967   -559.77167    37655.765 
  591900    298.91825   -1531.0841    456.00528    265.01301   -668.85673    37655.765 
  592000    300.95976   -1493.7338    490.03173    345.54215   -476.81344    37655.765 
  592100    298.59633   -1512.9757    458.50783    284.18078   -857.30654    37655.765 
  592200    292.77243   -1479.7268    510.76113    343.57358   -131.80481    37655.765 
  592300    311.19423   -1491.7168    485.18797    388.59799   -356.21391    37655.765 
  592400    291.63215   -1449.6195    481.95757     339.7654   -270.09034    37655.765 
  592500    311.65178   -1498.8204    500.16974    398.52742   -239.80872    37655.765 
  592600    308.58084   -1502.7274    472.66864    353.35187    -68.34589    37655.765 
  592700    308.07124    -1500.976    463.54951     343.6995   -319.86314    37655.765 
  592800    300.87465   -1505.8566    462.38009     305.3862   -267.24338    37655.765 
  592900    311.25338   -1545.3781    467.77712    317.79103    198.52971    37655.765 
  593000    303.68496   -1510.7259    484.73239    335.46817    -82.64197    37655.765 
  593100    297.41575   -1478.9765    475.61898    329.99843   -525.30596    37655.765 
  593200    310.51145   -1526.2782    449.17078    314.95837   -127.27274    37655.765 
  593300    301.71638   -1482.2076    468.99194    339.42064   -578.59491    37655.765 
  593400    302.25303   -1489.6354    476.18041     341.5871   -751.36983    37655.765 
  593500    305.40529   -1514.4727    470.23089    324.93233    -574.2146    37655.765 
  593600     298.2664   -1540.5638    502.76177    299.36752    213.99733    37655.765 
  593700    303.96838   -1535.8823     488.1168    314.96679    323.47682    37655.765 
  593800    297.00491   -1516.5264    493.48625    308.47399    889.16697    37655.765 
  593900    305.96492   -1482.3996    527.04312     416.3266    579.87117    37655.765 
  594000    300.17863   -1535.3816    465.92687    276.28757    752.84021    37655.765 
  594100    305.59172   -1467.9399    467.56987    369.63994    1157.9667    37655.765 
  594200    304.20251   -1488.4487    512.79522    388.12849    694.07509    37655.765 
  594300    312.82387   -1498.5042    493.99898    397.92745    313.54874    37655.765 
  594400    300.33441   -1485.1851    504.18885    365.44439    305.93907    37655.765 
  594500    298.34052   -1491.6608    500.07868    345.91967   -127.67556    37655.765 
  594600    294.47594   -1487.7391    463.48227    295.91955    113.88775    37655.765 
  594700     300.7437   -1494.4939    479.42779    333.20948   -311.62227    37655.765 
  594800    305.24059   -1465.5004    497.75255    400.68791   -323.27561    37655.765 
  594900    315.73446   -1515.8105    455.90266     355.5734   -452.18939    37655.765 
  595000     294.6011    -1496.765     496.0259    319.99839   -296.93601    37655.765 
  595100    292.42533   -1502.1937    481.80415    290.59363    195.36845    37655.765 
  595200    300.15266   -1507.1966    486.68208    325.11138   -646.12732    37655.765 
  595300    301.02759   -1445.1677     477.1348    381.51539   -520.10967    37655.765 
  595400    311.60707    -1496.856    479.59975    379.72134   -417.02052    37655.765 
  595500     303.5483   -1509.2904    474.71143    326.27003   -227.59018    37655.765 
  595600    291.09962   -1483.2604    476.12228    297.90169    17.454702    37655.765 
  595700    298.35994   -1533.7991    477.17628    280.96605   -202.52925    37655.765 
  595800    305.99983   -1479.8181    467.48454    359.50606    251.72251    37655.765 
  595900    299.51593   -1465.6798    478.63397    355.72551   -419.46169    37655.765 
  596000     306.6895   -1501.8228    474.87121     347.9799   -798.55276    37655.765 
  596100    301.85866   -1519.7797    465.41386    298.90833   -195.14053    37655.765 
  596200    308.73596   -1482.3403    479.40681    381.17249   -287.68726    37655.765 
  596300    305.73939   -1484.4856     479.0955    365.28185   -251.72827    37655.765 
  596400    300.31417   -1473.1625    483.90609    357.09361   -586.52096    37655.765 
  596500    297.98485   -1481.1065    482.71065    337.51148   -445.24794    37655.765 
  596600    307.84064    -1501.078     481.7614    360.77556   -832.30619    37655.765 
  596700    292.00236   -1489.2051    467.28786     287.1697   -947.12751    37655.765 
  596800    296.81322   -1508.4816    491.15097    313.32411   -673.39426    37655.765 
  596900    291.05654   -1478.0172    480.55117    307.38066   -88.058935    37655.765 
  597000    301.51072   -1506.3226    474.61083    320.00248    92.468271    37655.765 
  597100    289.05766   -1513.4618    492.57571    274.99934   -51.159484    37655.765 
  597200    306.83962   -1550.7142    476.81267    301.70295    491.47087    37655.765 
  597300    308.25095     -1513.12    460.30547    329.11709   -131.78773    37655.765 
  597400    313.25092   -1519.4225    480.50663     365.4313    -386.0358    37655.765 
  597500    304.84283   -1501.4009    488.38654    353.63823   -233.57709    37655.765 
  597600    310.31121   -1506.2779     421.9084    306.79858   -428.05273    37655.765 
  597700    305.46318   -1542.9891    507.13513    333.57978   -810.88378    37655.765 
  597800    300.02016   -1527.2483    449.98815    267.77169   -646.96047    37655.765 
  597900      296.313   -1494.7496    456.21355     289.8761   -1121.1864    37655.765 
  598000    297.00569   -1487.8604    492.05192    335.70913   -1171.1063    37655.765 
  598100    298.52145   -1456.8105    486.14906    367.65147   -817.37431    37655.765 
  598200    303.54686   -1537.2216    482.08231    305.70323   -28.507356    37655.765 
  598300    302.61592    -1521.623    461.18983     296.2359     660.5185    37655.765 
  598400    295.33316   -1474.5114    486.48819    335.99616    420.15058    37655.765 
  598500    298.69522    -1489.617     463.3042    312.77924    293.99896    37655.765 
  598600     307.8749    -1522.901    476.72667    334.07139    524.12023    37655.765 
  598700    299.30571   -1521.3089    474.68213    295.20211   -377.81095    37655.765 
  598800    304.52312    -1505.023    486.93883    347.13513   -3.7419755    37655.765 
  598900    309.36287    -1498.959    462.80115    350.75869    106.98619    37655.765 
  599000    291.99243   -1467.5429     478.3237    319.82322   -301.53302    37655.765 
  599100    308.51046   -1464.7019    472.71119    391.10434   -46.025563    37655.765 
  599200    300.79529   -1518.2945    467.17387    297.38631    -122.2795    37655.765 
  599300    304.91407   -1526.5604    491.78833    332.19992    662.86427    37655.765 
  599400    300.25106   -1531.9097     443.7288    257.88612    494.61343    37655.765 
  599500    311.36555   -1515.4898    496.47289    376.87796   -106.18459    37655.765 
  599600    299.88447   -1545.9648    437.27439    235.73317   -528.22892    37655.765 
  599700    302.90383   -1558.2145    469.21321     268.9585   -499.91942    37655.765 
  599800    303.95494   -1550.4649    487.02831     299.2355    152.06001    37655.765 
  599900    287.35686   -1525.2096    463.93284    226.98377   -77.453651    37655.765 
  600000    300.75965   -1575.1877     480.0958    253.25519    320.39583    37655.765 
  600100    297.89068   -1587.6915    468.70111    216.49476    295.98114    37655.765 
  600200    302.66316   -1574.8282    475.00878    257.06143   -188.84796    37655.765 
  600300    303.08506   -1580.6318    467.26368    245.40409   -229.58377    37655.765 
  600400    293.62344   -1561.5315    464.16523    218.98824   -143.85253    37655.765 
  600500    299.47853   -1541.3642    474.87929     276.1188    48.999787    37655.765 
  600600    298.47548   -1532.4707    471.75684    277.39303    228.37702    37655.765 
  600700    306.54742   -1497.7993    474.85869    351.35386    509.15335    37655.765 
  600800    293.78605    -1516.814    481.15094    281.42038    753.39055    37655.765 
  600900    311.73502    -1578.191    484.90149    304.26169    406.60704    37655.765 
  601000    305.38392    -1574.509    446.64745    241.21679   -183.05941    37655.765 
  601100    301.19736   -1591.3501    489.92542    248.88475     173.6542    37655.765 
  601200    299.92402   -1532.7858    463.17143     274.9865   -384.40876    37655.765 
  601300    297.03803   -1517.4807     477.1068    291.28872   -478.02954    37655.765 
  601400    298.51372   -1534.3325    478.97921    282.92505   -1025.0804    37655.765 
  601500    293.59213   -1495.3379    489.93206    310.80832   -783.42122    37655.765 
  601600    295.99022   -1512.4617    479.94921     294.4526   -1005.2625    37655.765 
  601700    292.34515   -1505.0947    496.55275     302.0818   -850.09279    37655.765 
  601800    301.10302   -1512.2963    518.58848    356.17866   -613.36001    37655.765 
  601900    302.81353   -1512.1686     490.4206    335.80692   -294.36985    37655.765 
  602000    295.25724   -1519.7734    483.39146     287.2971   -619.18141    37655.765 
  602100    292.47697   -1500.4068    479.35256    290.16051   -796.57217    37655.765 
  602200     307.4802   -1484.4229    461.37941    355.43279    -674.1859    37655.765 
  602300     298.6584   -1517.5291    486.81074    308.20854   -658.50869    37655.765 
  602400    301.50256   -1532.7158    463.19039    282.15231    -405.4088    37655.765 
  602500    300.21415   -1533.7556     505.3493    317.49521    210.65243    37655.765 
  602600    298.81486   -1519.7959     457.9752    277.80767    383.00883    37655.765 
  602700     292.7399   -1562.7903    493.91121    243.51438    267.13846    37655.765 
  602800    296.07814   -1531.5149    493.00521    288.84958   -118.31014    37655.765 
  602900    293.17599   -1536.2864    476.76062    254.82278    71.294417    37655.765 
  603000    304.21325   -1525.7787    470.69981    308.75118   -422.13416    37655.765 
  603100    298.69863   -1511.4291    462.66217    290.34037   -729.02711    37655.765 
  603200    309.50692   -1509.4102    473.78313    351.93532   -529.00209    37655.765 
  603300    296.25191   -1535.4071    484.02733    276.75858   -901.99709    37655.765 
  603400    293.07498   -1544.6254    500.11958    269.38984   -282.60426    37655.765 
  603500    294.93224   -1502.1625    491.89094    311.95047    197.95969    37655.765 
  603600    307.54656    -1515.357    487.57053    350.98728   -132.32372    37655.765 
  603700    307.37992   -1557.0837    509.13908    330.08209    759.67178    37655.765 
  603800    295.34616   -1569.6986    470.31584     224.6949    830.19819    37655.765 
  603900    289.68755   -1535.4051    487.46241    250.76671    394.28497    37655.765 
  604000    301.92473   -1521.2021    481.29969    313.66794    328.87804    37655.765 
  604100    291.75508    -1498.662    455.69065    265.00701   -45.310855    37655.765 
  604200    301.11306   -1550.0029    512.18226     312.1108   -327.87886    37655.765 
  604300    314.44532   -1516.8885    488.33747    381.15085   -351.47346    37655.765 
  604400    306.96497   -1487.3921    464.79704    353.57134    77.802271    37655.765 
  604500    295.16319    -1476.217     525.1739    372.21432   -232.89621    37655.765 
  604600    292.51675    -1499.257    490.35354     302.4896   -431.27751    37655.765 
  604700    308.92211   -1532.4849     483.7204    336.17607   -508.03632    37655.765 
  604800    298.83893   -1536.9445     495.1764    297.96818   -482.89224    37655.765 
  604900    308.92073   -1550.9762    448.26692    282.22507    -311.6749    37655.765 
  605000    299.05332   -1549.2349    489.05497    280.51747   -116.26522    37655.765 
  605100    280.41105   -1587.1086    500.29887    170.31176   -169.94723    37655.765 
  605200    304.73661   -1589.3305    491.44736    268.29325    13.632027    37655.765 
  605300    306.13178   -1584.3999     472.5032    260.53442   -30.012793    37655.765 
  605400    295.19028   -1592.8564    482.36117    212.88369   -85.632606    37655.765 
  605500     304.2542   -1605.5822    502.59034     261.0218   -337.01149    37655.765 
  605600    297.90859   -1587.0458    459.72219    208.24182   -388.89903    37655.765 
  605700    293.50824   -1572.4199    467.41571    210.83387   -432.15288    37655.765 
  605800    297.84346   -1582.7027    510.58547    263.15615   -489.50376    37655.765 
  605900    296.10125   -1590.8858    472.10429    208.68128    334.40448    37655.765 
  606000    299.67968   -1602.0561     508.0011    249.45047    151.17796    37655.765 
  606100      297.182   -1575.8016    494.24294    250.74931    254.93434    37655.765 
  606200    302.27884   -1558.8614    489.97109     286.2675   -369.24597    37655.765 
  606300    290.58355   -1556.5028    481.58523    227.80866   -873.30095    37655.765 
  606400    302.65192   -1530.0045    487.82921     314.6551   -780.64582    37655.765 
  606500    295.22141   -1535.4097    510.65798    298.76664   -1077.2889    37655.765 
  606600    302.15573   -1474.5778    488.54334    368.57149   -1336.4496    37655.765 
  606700    299.51393   -1471.3985    517.56903    388.93287   -523.60777    37655.765 
  606800    302.02447   -1499.8133    480.74087    334.94506   -633.83292    37655.765 
  606900    299.36091   -1499.8866    503.26903    345.45878   -120.49524    37655.765 
  607000    306.17843    -1552.626    515.35233    335.36656    455.89613    37655.765 
  607100    295.62939   -1574.9496    476.22138    226.61925    994.51503    37655.765 
  607200    300.99966   -1578.0169    508.60205    280.00828    199.75391    37655.765 
  607300    302.90026   -1554.5958     468.2695    271.61751    838.98728    37655.765 
  607400    290.92095   -1609.2197    505.97755    200.99666    757.58638    37655.765 
  607500    292.63415   -1582.2492    485.32374    214.99389    356.90375    37655.765 
  607600    307.68692   -1551.9201    474.48305    301.96594      876.893    37655.765 
  607700    298.49271   -1570.2758    490.35264     258.2609    584.69173    37655.765 
  607800    311.53103   -1556.5862    500.80028    340.85083    530.26343    37655.765 
  607900     305.9738   -1581.1902    504.81437    295.34708    619.15517    37655.765 
  608000    302.54179   -1553.1537    510.95669    314.13968    476.16618    37655.765 
  608100    304.38825   -1565.4359    493.00419    292.18286     526.7772    37655.765 
  608200    296.49524   -1557.9989    519.74364    290.97389    1031.0927    37655.765 
  608300     305.8656   -1540.3019    507.07651    338.01245    938.33767    37655.765 
  608400    302.66238   -1557.5167    469.79051    269.15114    714.54502    37655.765 
  608500    301.08381   -1566.5366    474.14291    257.40669     418.4837    37655.765 
  608600    300.26816   -1516.0002    534.92293    365.06644    337.71907    37655.765 
  608700    306.96254   -1539.0194    505.94721     343.0833    341.08336    37655.765 
  608800    290.78196   -1516.0143    502.77557    290.37704    141.91742    37655.765 
  608900     299.8984   -1536.7752    491.87164    299.58246   -68.595793    37655.765 
  609000    294.75277   -1537.6239    526.66109    310.45463   -111.78809    37655.765 
  609100    297.94091   -1505.5611    485.29275    315.44199   -152.95904    37655.765 
  609200    294.06347    -1524.932    522.63697     316.0322   -240.77661    37655.765 
  609300    290.41221   -1529.1722    469.77954     242.5654   -283.52114    37655.765 
  609400     293.0283   -1535.7527    517.67932    295.61304    -624.6517    37655.765 
  609500    308.39908   -1542.6465    485.47136    325.42062    466.29951    37655.765 
  609600    290.47942    -1531.329    505.12737    276.05786    240.32557    37655.765 
  609700    300.63787   -1539.2627     508.3338    316.87221     514.0059    37655.765 
  609800    298.82182   -1528.3822    496.42883    307.70618    399.69976    37655.765 
  609900    295.30464   -1582.6793    477.51211    218.72436     756.0006    37655.765 
  610000    294.70191   -1560.4501    497.56554    258.30481    916.75979    37655.765 
  610100    292.11736   -1578.5964    504.68573     235.6919    236.97656    37655.765 
  610200    296.39496   -1553.8438    490.96423    265.89999    666.03948    37655.765 
  610300    304.73718   -1548.9498     494.2727    311.50185    520.44882    37655.765 
  610400    301.70729   -1565.5013    501.65423    288.74845    581.51902    37655.765 
  610500    297.04989   -1597.2435    504.14447    238.61668    107.26531    37655.765 
  610600    292.47666    -1581.629    508.15939    237.74374    146.48796    37655.765 
  610700    290.38572   -1537.5953    486.45983    250.70388    173.94652    37655.765 
  610800    289.59914   -1553.9413    489.80706    234.17874   -265.66253    37655.765 
  610900    305.76889    -1528.235    492.39291    334.96215   -180.28635    37655.765 
  611000    293.75643   -1522.5674    492.48932    286.87266   -467.57882    37655.765 
  611100    291.76169   -1625.3376    464.38338    147.05384   -1042.8053    37655.765 
  611200    300.50345   -1516.9687    473.68697    303.91683    268.42054    37655.765 
  611300    287.70554   -1535.2015    497.78965    252.41185   -1.5414671    37655.765 
  611400    298.51711    -1553.956    476.91996    261.25748   -117.62201    37655.765 
  611500    304.88051   -1563.8759    503.59535    306.54089   -47.539816    37655.765 
  611600    309.87668    -1563.142    477.75774    303.83574   -141.85031    37655.765 
  611700    303.70698   -1558.7123    514.39767    317.24573   -362.47702    37655.765 
  611800    299.50848   -1598.5458    494.71389    238.90607   -391.85686    37655.765 
  611900    297.19263   -1577.0111    473.93336     229.2779   -240.82033    37655.765 
  612000    302.12776   -1547.0704    511.62874    319.03885   -140.13253    37655.765 
  612100    300.06186   -1579.4402    471.26507    237.04367   -141.85183    37655.765 
  612200    298.56041    -1603.914     497.1504    231.72404   -305.71776    37655.765 
  612300     302.9653   -1623.7927    482.30382     216.7465    58.298248    37655.765 
  612400    296.44508   -1542.4321    459.93404    246.50624   -155.44278    37655.765 
  612500    301.51903   -1565.8431     517.0436    302.95203    156.68379    37655.765 
  612600    302.02527   -1588.2139    468.04094    233.84815    348.95426    37655.765 
  612700    303.64244   -1596.2657    481.29321    246.29862    130.71566    37655.765 
  612800    288.84734   -1554.7489    506.08451     246.2782   -341.61035    37655.765 
  612900    297.30161   -1552.2926    478.56838       259.12   -587.61115    37655.765 
  613000    298.62473   -1558.4756    522.15086     302.4512   -517.52153    37655.765 
  613100    296.41524   -1555.0158    485.04662    258.90131   -532.11587    37655.765 
  613200    295.15882   -1568.4877    461.75593    216.50603   -547.36166    37655.765 
  613300    298.89927   -1559.7785    498.94073    279.16899   -214.80242    37655.765 
  613400    301.62027   -1565.2132    469.74835    256.74053   -143.30828    37655.765 
  613500    291.52616   -1551.5787     517.1804    272.55379   -34.571036    37655.765 
  613600    301.53255    -1544.873    492.83534    299.77447     501.9999    37655.765 
  613700     308.8396   -1546.0042    476.89509     315.4615     352.5639    37655.765 
  613800    292.36947   -1570.0869    491.39638    232.04229    -223.5085    37655.765 
  613900    317.26384   -1570.5639    459.07662     310.8504   -49.392993    37655.765 
  614000    304.84588   -1589.6868     493.7026    270.68211    203.87718    37655.765 
  614100    300.33822   -1545.1806    493.11798    294.39521    338.71445    37655.765 
  614200    305.18211   -1543.1837     477.4661      302.456   -279.44483    37655.765 
  614300    287.59033   -1563.5802    496.12368    221.85068   -5.5459955    37655.765 
  614400     294.7355   -1563.0035    473.42646    231.76302   -93.840244    37655.765 
  614500    300.12591   -1577.2923    477.42714     245.6408   -23.081495    37655.765 
  614600    294.08791   -1595.1477    487.96157    211.25066    12.604424    37655.765 
  614700    299.03672   -1581.4014     486.3937    245.61523    311.06446    37655.765 
  614800    301.11227   -1583.6538    468.68703     234.9612    248.15345    37655.765 
  614900    304.11434   -1587.0752    494.51653      270.828   -283.36997    37655.765 
  615000     296.0159   -1571.7742    493.78812    249.09413    199.80714    37655.765 
  615100    309.87897    -1546.254    489.25876    332.23506   -43.232767    37655.765 
  615200    308.03213    -1570.248    487.13698    297.83965    145.06485    37655.765 
  615300    297.96454   -1562.0058     479.0417    252.85217   -471.28031    37655.765 
  615400    293.22155    -1569.643    491.28923    236.19894   -601.54734    37655.765 
  615500    306.15668   -1570.0492    481.79809    284.29165   -541.69745    37655.765 
  615600    309.49391   -1556.7162    480.32681    311.11455   -712.50342    37655.765 
  615700    299.34172   -1570.9389    466.75693     237.8084   -1276.6739    37655.765 
  615800    293.56392   -1561.3547    481.11466    235.84767   -841.48701    37655.765 
  615900    303.68913   -1603.2161    462.38708    220.65138    -811.8382    37655.765 
  616000    298.07189   -1551.7313    494.62323    279.18942   -222.36626    37655.765 
  616100    303.83239   -1573.1156    477.49355    266.50059    449.37231    37655.765 
  616200    304.48079   -1604.3157    476.97863    237.69239    444.88159    37655.765 
  616300    312.01763   -1610.2255    460.00743    248.60009   -114.36698    37655.765 
  616400    310.98932   -1604.2716    458.27189    248.20838   -74.406739    37655.765 
  616500    297.73508   -1579.5768     473.4012    228.61197   -457.68557    37655.765 
  616600     298.0924   -1548.8402     463.7269    251.27613   -472.38575    37655.765 
  616700    292.83849   -1560.3189    464.76519     217.2817   -863.87432    37655.765 
  616800    298.97731    -1573.549    494.52429    261.33197   -579.81916    37655.765 
  616900     291.7078   -1555.7714    454.44624    206.44126   -271.27995    37655.765 
  617000     307.7525   -1568.4204    480.32044      291.597   -311.22297    37655.765 
  617100    300.42499    -1557.662    490.84232    280.02706    72.887497    37655.765 
  617200    307.73025   -1546.0594    474.47957    308.01747    28.547613    37655.765 
  617300    298.12259   -1560.5235    485.64311    261.64444   -465.73615    37655.765 
  617400    305.56521   -1563.0516    486.83349    293.67302    13.364467    37655.765 
  617500      303.377   -1543.5349    482.23953     298.7857    147.91783    37655.765 
  617600    302.22639   -1535.2805    494.95548    314.59766    653.81174    37655.765 
  617700    299.21444   -1563.8789    482.94655    260.48732    564.44971    37655.765 
  617800    304.22596    -1544.967    483.86216     302.7822      504.594    37655.765 
  617900    297.78226   -1537.4895    501.10144    298.61102     349.8226    37655.765 
  618000    296.08153   -1512.4294    498.47935    313.42442     262.5551    37655.765 
  618100    308.01906   -1552.1802    497.76508    326.47695    444.39981    37655.765 
  618200    308.92163   -1536.6766    460.09778     308.3596    98.602534    37655.765 
  618300    313.37846   -1519.6808    514.62296    399.86108    -302.6542    37655.765 
  618400    295.70062   -1524.1575    460.36965    261.87888   -391.27428    37655.765 
  618500    301.67576   -1557.5049    470.02267     264.9719   -568.51019    37655.765 
  618600    304.81365   -1540.3237    481.14094    307.33897   -457.06243    37655.765 
  618700    291.23167   -1563.9652    493.58297     235.2496    -562.4079    37655.765 
  618800    299.88415   -1559.4834    482.58827    267.52697   -167.46765    37655.765 
  618900    305.09132   -1545.9569    497.08468    318.89436    49.485642    37655.765 
  619000    299.70523   -1563.6084    487.40658    267.41815   -414.38328    37655.765 
  619100    306.55669    -1583.821    457.44575     247.9608   -78.935537    37655.765 
  619200    306.63662   -1567.8846    479.89723    286.70701   -102.06569    37655.765 
  619300    297.26891   -1558.9506    484.11288    257.85989   -284.95258    37655.765 
  619400    302.69636   -1536.3605    475.37535    296.04452     122.4436    37655.765 
  619500    291.34644   -1511.5915    490.61999    285.17489    61.744756    37655.765 
  619600    292.01272   -1566.7378    475.16201    217.55761   -195.78067    37655.765 
  619700    290.29521    -1572.444    487.60705    216.59661   -273.51816    37655.765 
  619800    294.41434   -1521.6096    489.35056    287.64116   -377.94336    37655.765 
  619900    313.71685   -1585.9776    490.55595    311.01443    82.825117    37655.765 
  620000    282.88754    -1581.116    468.82963    155.93758   -236.59837    37655.765 
  620100    297.52945   -1507.5252    512.07616    338.41669   -236.16152    37655.765 
  620200    294.77651   -1595.8852    483.04032    208.67893   -182.86287    37655.765 
  620300    288.40838   -1557.2865    478.10282      213.791   -216.47974    37655.765 
  620400    302.76846   -1516.4108    493.52349    334.46557   -280.73311    37655.765 
  620500    302.81271   -1529.3808    470.04323    298.21371    76.992238    37655.765 
  620600    304.12096    -1556.554    463.54103    270.40341    223.07223    37655.765 
  620700    296.34324   -1561.2742    461.68228     228.9558    530.83239    37655.765 
  620800    292.91522   -1564.8831    498.53307    246.82939    630.74197    37655.765 
  620900    309.15747   -1575.3198    488.53538    299.21127    175.18201    37655.765 
  621000      313.648    -1588.017    484.26579    302.37613    11.106647    37655.765 
  621100    294.24072   -1540.0225    474.21562    253.31494    155.78986    37655.765 
  621200    294.25383   -1565.5174    471.07627    224.73949    800.82844    37655.765 
  621300    300.91179   -1584.0434    453.54657    218.53232    402.13145    37655.765 
  621400     309.9031   -1557.9522    490.34722    321.73351    334.59728    37655.765 
  621500    300.80281   -1501.8123    501.85471    348.58299    544.85269    37655.765 
  621600     291.6362    -1508.334    499.27172    298.38319    100.59582    37655.765 
  621700    293.18577   -1514.7038    477.10653    276.79505    254.98694    37655.765 
  621800    297.46425   -1527.9538    471.27515    276.89471   -357.23165    37655.765 
  621900    298.98122   -1484.7214     482.9111    338.56382   -446.94684    37655.765 
  622000    298.61807   -1511.7099    482.82816    309.86441   -759.63352    37655.765 
  622100    303.93361   -1503.5235    498.11254    357.16548    -365.7704    37655.765 
  622200    317.26167   -1513.3545    476.35453    385.32799    263.90007    37655.765 
  622300    295.65968   -1482.3711    503.38103    346.49315    92.310338    37655.765 
  622400    300.97963   -1491.4316    480.24271    338.14439    336.34617    37655.765 
  622500    306.40458    -1487.633    469.95831    355.97943   -372.98604    37655.765 
  622600    295.39141   -1482.8845    474.46676    315.86276   -691.16305    37655.765 
  622700    303.84648   -1494.0885    492.19597     360.2933    -387.6543    37655.765 
  622800    302.18911   -1510.1901     491.7659    336.33141    185.31012    37655.765 
  622900    307.75085   -1489.3955    475.39257    365.68672   -237.27651    37655.765 
  623000    296.74622   -1494.7446    487.46239     323.0721    60.317032    37655.765 
  623100    306.03808   -1505.2585    482.34786    349.10043   -170.09107    37655.765 
  623200    300.71873    -1529.218    498.66509    317.61075    773.83535    37655.765 
  623300    293.05361   -1551.4291    493.37307    255.74386    367.88045    37655.765 
  623400    301.98822   -1556.1293    491.71894    289.44459    211.98106    37655.765 
  623500    302.28785   -1539.0019    472.40807    288.60445    2.6662754    37655.765 
  623600    303.93385   -1536.0991    489.41626    315.89467   -324.10677    37655.765 
  623700    294.72674   -1536.1509    445.17176    230.32158    -343.7107    37655.765 
  623800    309.05041   -1495.2817    486.44256    376.67661    315.13076    37655.765 
  623900    309.99475   -1549.6208    488.47077    328.59933    318.08892    37655.765 
  624000    300.26794   -1521.7069    476.96114    301.39694   -159.22154    37655.765 
  624100    296.48009   -1496.0065    516.00361    349.15834   -77.055243    37655.765 
  624200     302.6502   -1495.1537    459.68618    321.35521    254.94132    37655.765 
  624300    304.00531   -1540.6512    484.82174     307.0684     841.9386    37655.765 
  624400    292.52357   -1535.3774    477.35916    253.40544   -113.46979    37655.765 
  624500    308.87657   -1563.1639    475.05857    296.63108    -138.1238    37655.765 
  624600    303.28742   -1569.1802    470.12564    260.62486    68.460774    37655.765 
  624700    306.70402   -1620.5566    476.66472    231.10463    2.5376219    37655.765 
  624800    291.30731   -1594.5035    465.61948    177.08691    127.29366    37655.765 
  624900    299.73256   -1584.7929    473.03361    231.98323    87.870969    37655.765 
  625000    303.23489   -1574.4098    515.71745    300.75159    382.77804    37655.765 
  625100    287.92078    -1530.547    481.05977    241.30144    365.40105    37655.765 
  625200    291.99412   -1582.8468    453.16297    179.36622   -263.19202    37655.765 
  625300    294.41637   -1551.7718    481.90387     250.0414    175.48061    37655.765 
  625400    312.93541   -1574.5315    473.17889    301.58017    175.41924    37655.765 
  625500    314.22298   -1547.3207    503.84032    365.22473    331.33692    37655.765 
  625600    312.26877   -1553.7457    486.03675    332.23511     364.9611    37655.765 
  625700    290.59111   -1567.2672     463.1185    198.61146   -73.785509    37655.765 
  625800    301.63824     -1584.89    460.92646    228.32247   -149.97086    37655.765 
  625900     289.6119   -1617.8412    482.20818    162.73723   -332.72882    37655.765 
  626000    303.37878   -1565.7341    480.70004    275.05501   -238.08203    37655.765 
  626100    293.03317   -1593.0767    480.80983    201.44139   -162.28324    37655.765 
  626200    291.67243   -1586.2878    479.22811    200.54819   -390.58496    37655.765 
  626300    296.41248   -1587.6689    465.62818    206.81743   -620.27594    37655.765 
  626400    308.70745   -1562.4442    465.27913    286.81312   -1351.8959    37655.765 
  626500    295.37487   -1553.4511    448.69798    219.45323    -1005.606    37655.765 
  626600    312.58815   -1559.8255    470.06246    311.61288   -420.30428    37655.765 
  626700    292.94592     -1583.11     459.0337    189.24081   -162.04516    37655.765 
  626800    307.62948   -1591.7441    492.05608    279.45746    82.545164    37655.765 
  626900    292.45235   -1597.1162    468.31018    182.29829    4.2741312    37655.765 
  627000    302.46696   -1597.7779    481.39113    239.61441   -31.939582    37655.765 
  627100    313.29069   -1611.6369    477.34214     270.2307   -228.61122    37655.765 
  627200    306.93412   -1586.1037    466.51458    256.43896   -44.666381    37655.765 
  627300    308.71034   -1598.5822    484.14887    269.55786   -175.46574    37655.765 
  627400    310.51951   -1565.0268    470.92076    297.99583    215.16213    37655.765 
  627500    306.51141   -1539.3467    505.16762    339.95399    91.794887    37655.765 
  627600    296.83791   -1568.5451     473.9611    236.18144    622.50488    37655.765 
  627700    302.91306   -1586.7044    437.63623      208.933   -215.04357    37655.765 
  627800     312.2372     -1555.79    494.07762    338.09017   -194.60662    37655.765 
  627900    295.51468   -1561.9481    448.47323     211.3583   -1065.5418    37655.765 
  628000    296.13978   -1527.6024     471.3613    271.39454   -762.49317    37655.765 
  628100    305.99946    -1474.917    490.57511    387.49596    -181.4397    37655.765 
  628200    305.75758   -1476.4664    490.98147    385.26856    -324.0843    37655.765 
  628300    294.09738   -1504.0436    494.86263    309.29822   -485.63229    37655.765 
  628400     287.0285   -1498.9428    472.27564    260.12126   -833.75323    37655.765 
  628500    298.93148   -1486.2401    498.22953    352.14066   -186.01376    37655.765 
  628600    295.57509   -1515.4741    488.64913    298.27905   -685.86167    37655.765 
  628700    298.53849   -1467.7407    476.15581    346.80446    77.353633    37655.765 
  628800    309.03318   -1493.4173    463.85394    355.87517    22.540346    37655.765 
  628900    304.06696   -1527.1187    467.99627     304.0518    274.35658    37655.765 
  629000    294.58714   -1501.7571    490.89505    309.81283    606.88565    37655.765 
  629100    290.96747   -1536.1723    479.50831    247.78343    543.09104    37655.765 
  629200    303.51404   -1545.3498    472.54973    287.89536    397.83932    37655.765 
  629300     303.9188    -1511.645    482.98542    333.85047    449.50627    37655.765 
  629400    295.08676   -1552.9589    489.10674    259.06263    532.15408    37655.765 
  629500    313.88505   -1532.0082    467.26919    342.45113    807.61577    37655.765 
  629600    292.84686   -1545.1886    499.98488    267.66925    95.947341    37655.765 
  629700     296.5558   -1555.3619     457.8997    232.03842   -350.19237    37655.765 
  629800    304.49947   -1560.6107    459.35594    263.85845    -460.1712    37655.765 
  629900     309.1547   -1544.0916    455.43364    297.32529   -615.84255    37655.765 
  630000    305.01746   -1532.5533    478.37647    313.25863   -768.64798    37655.765 
  630100    293.86019   -1550.5208     462.4277    229.32277   -589.39747    37655.765 
  630200    300.73294   -1561.4699    445.52032    232.27777   -607.46812    37655.765 
  630300    296.29366   -1551.3164      456.395    233.40406   -698.05885    37655.765 
  630400    294.87855   -1504.6399    482.46451    299.80592   -139.96591    37655.765 
  630500    309.14317   -1555.3119    476.59061    307.21031 -0.022392686    37655.765 
  630600    306.26729   -1515.8163    473.38598    330.60831    196.50037    37655.765 
  630700    300.66981   -1552.9879    465.16773    260.12419   -168.55391    37655.765 
  630800    296.30608   -1537.5613    480.97242    271.79229   -167.58672    37655.765 
  630900    297.17015   -1503.3149    493.56146    322.50141    134.69435    37655.765 
  631000    296.29112   -1496.6963    502.76344    334.38125   -198.13463    37655.765 
  631100    304.27284   -1484.7579    482.09587    361.43518   -413.60439    37655.765 
  631200    300.00685   -1514.3963    480.96495    311.54083     41.11681    37655.765 
  631300    292.44018   -1510.9619    476.53103    276.61892   -11.865995    37655.765 
  631400    287.57243   -1482.2075    500.10966    307.12911    -488.7382    37655.765 
  631500     305.2882   -1485.8997    491.85954    374.60905   -713.91244    37655.765 
  631600    310.51199   -1487.7339     473.8655    378.19983   -700.35473    37655.765 
  631700    298.09812   -1470.7803    501.62596    367.26078   -481.80147    37655.765 
  631800    307.35781   -1465.1675     466.3263    379.08643    300.64587    37655.765 
  631900    298.32016   -1454.5213    469.23452    352.12374   -12.283638    37655.765 
  632000     293.0673   -1458.0132    472.73982    328.58791    170.53717    37655.765 
  632100    299.11785   -1418.3594    482.74326    405.37057    24.972706    37655.765 
  632200    300.56658   -1407.2476    509.34845     449.5824   -110.20247    37655.765 
  632300      290.578   -1460.0837    472.61248    315.23012   -155.59311    37655.765 
  632400    301.34635   -1466.9254    484.13746    368.18945   -229.01677    37655.765 
  632500    302.51774   -1503.3734    469.15442    322.00991   -272.43121    37655.765 
  632600    299.24704   -1472.0034     504.6241    374.18653    196.07142    37655.765 
  632700    304.32437   -1471.6297    466.22821    358.92677    220.79355    37655.765 
  632800     296.3439   -1486.5486    486.43912    328.44122   -95.439952    37655.765 
  632900    297.01651   -1519.0439    478.95419    291.47639   -60.510127    37655.765 
  633000    297.09062   -1470.0225    500.47929    362.35516   -351.86066    37655.765 
  633100    297.37291   -1480.5288    476.18225    328.81738   -207.27401    37655.765 
  633200    295.17297   -1450.8628    488.01021    360.44869   -675.21263    37655.765 
  633300    306.44773   -1456.9045    485.22238    402.16543   -234.26555    37655.765 
  633400    300.06729   -1495.4728    489.65148    339.42187   -439.59208    37655.765 
  633500    299.64643   -1445.8131    485.33166    382.87501   -781.03773    37655.765 
  633600    298.06976   -1475.9743    466.82991    327.14359   -769.03965    37655.765 
  633700     309.7729   -1440.0387    495.17649     443.8925    224.45774    37655.765 
  633800    289.92924   -1478.8008    466.72382     287.7159   -77.794706    37655.765 
  633900    294.67637   -1460.8219    461.67388    321.92694   -318.64204    37655.765 
  634000    304.00166   -1461.9523    503.96924    404.89844    322.99959    37655.765 
  634100    290.92873   -1490.5625    490.37928    304.09048    28.252309    37655.765 
  634200    306.44357    -1477.802    496.15735    392.18421    407.89677    37655.765 
  634300    302.88734   -1444.5085     492.0618    405.43913    37.571926    37655.765 
  634400    298.94607   -1477.0688    484.86978    348.01754    230.88646    37655.765 
  634500    290.05291   -1453.4075    475.08755    322.02733   -166.56074    37655.765 
  634600    305.06293   -1444.2554    504.65094    428.03488   -433.44565    37655.765 
  634700    303.49374   -1475.2387    452.68313    338.04883   -25.406211    37655.765 
  634800    294.94346    -1461.737    492.41214    352.94749   -419.24664    37655.765 
  634900    300.56274   -1474.5329    491.92817    364.85961   -840.08365    37655.765 
  635000     307.9812    -1475.222    459.24687    364.74719   -709.93384    37655.765 
  635100    296.39236   -1502.9459    469.11029    294.93232   -1205.4792    37655.765 
  635200     296.1969   -1495.0668    476.07206    308.89694   -492.30917    37655.765 
  635300    295.99878   -1510.4139    480.07776    296.66733   -71.984946    37655.765 
  635400    303.97818   -1485.3453    458.54126    335.97222   -123.15193    37655.765 
  635500    293.41011   -1475.7432    492.55277    332.20764    -611.5834    37655.765 
  635600    296.02782   -1504.5342    461.39014    283.98964   -79.552372    37655.765 
  635700    313.00318   -1517.3009    489.64699    375.58266   -437.32665    37655.765 
  635800     293.5736      -1497.9    467.97506    286.20614   -62.198367    37655.765 
  635900    301.60491   -1539.6345    462.87632    275.37835    387.97682    37655.765 
  636000    302.81609   -1522.5181    483.07834    318.12671    201.15621    37655.765 
  636100    296.37356   -1513.5791    471.46008    286.56468   -106.49653    37655.765 
  636200    304.07248   -1502.5388    467.88112    328.54127    629.67941    37655.765 
  636300    299.87175   -1532.3607    435.00051    247.00632    178.36877    37655.765 
  636400    301.91592   -1522.0447    487.84457    319.33065    276.96929    37655.765 
  636500    303.78656   -1476.8411    464.31864    349.39471    17.229371    37655.765 
  636600    292.19193   -1456.8937    492.50324    345.54638    585.36089    37655.765 
  636700     296.6387   -1481.5139    478.62673    326.98516    95.747131    37655.765 
  636800    303.33124   -1498.2938    485.72826    347.31032    706.39448    37655.765 
  636900    297.13779   -1495.8882    478.39264    314.61428    355.91345    37655.765 
  637000    289.07074   -1484.7621    478.30799    289.49003    109.76856    37655.765 
  637100    294.63457   -1542.9826    460.52753     238.4325    -228.9614    37655.765 
  637200    296.11875   -1541.0825    463.08653    249.54533   -511.62473    37655.765 
  637300    300.50433   -1515.8336     446.0535    277.42243    71.530078    37655.765 
  637400    308.65522   -1498.0986    456.39677    342.04215   -382.89464    37655.765 
  637500    301.47201    -1456.233    450.53249    345.84023   -1238.0273    37655.765 
  637600     305.0866   -1506.9879    461.21783    321.97533   -1122.3224    37655.765 
  637700    301.39152   -1494.6611     462.4824    319.00114   -1498.0806    37655.765 
  637800    299.18678   -1494.3607    456.17471    303.10967   -1117.3829    37655.765 
  637900    312.04205   -1507.4927    478.42994    369.86484   -281.46509    37655.765 
  638000    309.93535   -1507.6113    448.84945    330.72122   -46.487509    37655.765 
  638100    314.85853   -1531.6371    462.12017    342.03739    500.42284    37655.765 
  638200    302.74908     -1555.61    464.94893    266.60497    915.45965    37655.765 
  638300    304.61727   -1535.9539    462.72886    292.41633      708.535    37655.765 
  638400    301.55629   -1510.8435    450.77989    291.85494     266.3856    37655.765 
  638500    302.66159   -1475.3395    460.70891     342.2432    286.07223    37655.765 
  638600    294.38545   -1525.5024    466.71982    260.98813   -298.38695    37655.765 
  638700    297.04296   -1495.1849    463.15106    299.65087   -162.29642    37655.765 
  638800    317.39591   -1492.8124     479.5757    409.69308    15.352676    37655.765 
  638900    299.71517   -1520.4721    465.40634    288.59885    349.62383    37655.765 
  639000    301.01143    -1493.112    465.69684    322.06073    197.96838    37655.765 
  639100    295.92549   -1478.3218    470.56134    318.91444   -112.67903    37655.765 
  639200    296.42588      -1457.1    455.52735    327.34552    175.39049    37655.765 
  639300    296.06368   -1468.2496    494.95313    353.99802    388.24251    37655.765 
  639400    296.20494    -1448.648     461.4494    340.72916    996.53772    37655.765 
  639500    307.63393   -1528.2418    480.29195    331.21561      695.917    37655.765 
  639600    304.56628   -1518.2626    457.58415     304.7343    238.95651    37655.765 
  639700    306.74877   -1535.3824    454.72424    294.53896   -173.76589    37655.765 
  639800    305.41472   -1505.3696    465.77193    329.61882   -362.14694    37655.765 
  639900    293.99903   -1513.0477    457.03717    262.02781   -482.97376    37655.765 
  640000    302.28316   -1521.1463    460.82927    294.86014   -724.91787    37655.765 
  640100    295.00355   -1491.7343    468.19104    298.99844  -0.66480274    37655.765 
  640200    301.32891   -1535.8034    452.21966    267.31542    246.95863    37655.765 
  640300    305.22749   -1558.1284    448.30428     258.5529   -97.561336    37655.765 
  640400     295.5983   -1535.2391    460.07284    250.04178    292.94069    37655.765 
  640500    310.65286   -1553.0385    448.24353    287.90481    434.36972    37655.765 
  640600    294.34458   -1510.5982    458.83239    267.82164    -258.3664    37655.765 
  640700    310.33601   -1512.6761    460.90783    339.51094   -2.8166161    37655.765 
  640800    294.72227   -1529.2047    453.49498    245.57096   -221.46379    37655.765 
  640900    306.38545   -1574.3625    467.33304    266.53888   -22.045724    37655.765 
  641000    316.99492   -1547.3939    494.71602     368.4542    34.543674    37655.765 
  641100    296.11712   -1559.1559    458.53465    226.91279   -62.290903    37655.765 
  641200      293.799    -1524.672    451.04595    243.51551   -509.50598    37655.765 
  641300    306.88915    -1515.202     455.4404    316.06484   -93.871104    37655.765 
  641400    297.71117   -1490.4359    465.70182    309.94623   -36.677258    37655.765 
  641500    308.44695    -1474.608    456.48674    364.68911    410.68662    37655.765 
  641600    291.90737   -1469.4205    459.73432    298.97491    47.210561    37655.765 
  641700     305.0533   -1516.2141     470.1157    321.49774    443.14857    37655.765 
  641800     302.5821   -1493.6129    447.78057    310.68512     336.4135    37655.765 
  641900    298.41214   -1506.2363      454.915    286.50158    451.65289    37655.765 
  642000    302.38957   -1521.3765    451.78087    286.05865   -47.893896    37655.765 
  642100    298.87857   -1496.3463    478.95996    322.52766    648.84931    37655.765 
  642200    304.29513   -1499.1536    479.07296    344.11654    278.55494    37655.765 
  642300    286.66962    -1496.291    442.94724     231.8358    307.49986    37655.765 
  642400    310.00767   -1482.8379    456.94977    363.91908    483.05869    37655.765 
  642500    294.80723   -1488.6576    478.65602    311.66001    141.87346    37655.765 
  642600    305.52589   -1487.5404    454.18334    336.35779   -552.64176    37655.765 
  642700    297.64199   -1483.0152    452.95577    304.31075   -76.230223    37655.765 
  642800    298.37086   -1448.6533    452.41146      341.396   -366.12201    37655.765 
  642900    304.49577   -1475.7218    475.12153    364.49642   -461.38536    37655.765 
  643000    301.26137     -1488.42    453.53674    315.71315   -54.983959    37655.765 
  643100    299.82202   -1537.4435     460.9616    267.66169    -58.90068    37655.765 
  643200     290.2529    -1561.615    451.90893    191.53781    433.50445    37655.765 
  643300     305.3813   -1528.1019    445.93929      286.904    439.25249    37655.765 
  643400    295.55291   -1492.1356    440.57905    273.44796   -345.25378    37655.765 
  643500    316.54694   -1490.2316    486.29422    415.18631    186.00824    37655.765 
  643600     292.0687   -1503.1263    458.66625    264.92436    486.91377    37655.765 
  643700    301.57028   -1492.4428    476.95038    336.48888    237.13208    37655.765 
  643800    303.07657   -1478.2577     450.3773    330.85383    438.03695    37655.765 
  643900    296.70046   -1497.1371    445.11489      278.127    632.05397    37655.765 
  644000    300.95391   -1513.1178    480.97537    317.07562     490.5835    37655.765 
  644100    288.50345   -1494.3858    464.77244    263.78752    197.54073    37655.765 
  644200    301.01806   -1505.5061    479.69037    323.68982     300.3515    37655.765 
  644300    300.44699   -1543.9225    474.33003    277.35293    21.158393    37655.765 
  644400     304.9614   -1482.5881    478.16276    362.75884     253.9988    37655.765 
  644500    300.47391    -1498.862     471.0829    319.28705   -465.56243    37655.765 
  644600    304.52271   -1537.1221    450.07682    278.17216   -151.22172    37655.765 
  644700    294.57541   -1543.9297    478.34534    255.03798     3.174016    37655.765 
  644800    305.85015   -1514.7824    470.43024    326.81637    -219.7288    37655.765 
  644900    306.88302   -1496.7811    473.91199    352.92989   -383.87537    37655.765 
  645000    305.17426   -1455.5586    491.86402    404.44388   -354.28553    37655.765 
  645100     314.0005     -1471.31    458.76666    395.16434    -633.5575    37655.765 
  645200      293.471   -1472.4574    461.19604    304.40977    180.23324    37655.765 
  645300    296.20338   -1469.7544    487.98784    346.15414    -96.94124    37655.765 
  645400    305.69275   -1496.8105    491.91399    365.56636   -179.67081    37655.765 
  645500    295.42345   -1533.3487    450.47867    241.55416    156.97099    37655.765 
  645600    297.97742   -1506.1697    492.85429    322.55855    687.58351    37655.765 
  645700     299.8499   -1521.0331     492.2593    315.49482   -384.48825    37655.765 
  645800    297.05615   -1530.8066    455.06535    256.00256   -183.85359    37655.765 
  645900    299.20682   -1508.2952    456.95039    290.04081   -740.33122    37655.765 
  646000    301.32484   -1564.3961    472.74802    259.23287   -789.58133    37655.765 
  646100    308.06424   -1538.0393    457.24689    300.30222   -464.70684    37655.765 
  646200    300.68058   -1539.4682    452.02965    260.55414   -1136.4839    37655.765 
  646300     298.9971   -1520.5119    451.59182    271.52524   -271.18073    37655.765 
  646400    301.61908   -1523.4917    471.49275     300.2011   -482.81673    37655.765 
  646500    298.52735   -1502.1999    447.82418    283.96369    101.84683    37655.765 
  646600    298.76989   -1502.6012    465.64348    302.46898     200.9968    37655.765 
  646700    297.47621   -1463.2557    485.50661    355.87792   -101.99578    37655.765 
  646800    301.39878   -1501.7232    494.21517    343.70438   -30.746932    37655.765 
  646900    291.75616   -1486.8825    476.72212    297.82283   -221.65006    37655.765 
  647000    295.98907   -1477.9675    487.01292    336.00536   -103.20942    37655.765 
  647100    307.57792    -1554.315    459.01444    283.61384   -128.77772    37655.765 
  647200     300.5418   -1541.7461    439.10778    244.73217    -136.7363    37655.765 
  647300    307.87154   -1471.8089    493.41869    401.84048   -84.772724    37655.765 
  647400    309.39704   -1498.4734    481.03988    369.63618    187.53135    37655.765 
  647500    309.56889   -1488.2403    455.69539    355.29527    480.55974    37655.765 
  647600    299.79253   -1479.6595    483.94236    348.29426    325.73711    37655.765 
  647700    290.75266   -1496.8851    489.02421     295.6235    364.22497    37655.765 
  647800    304.18816   -1461.8692    467.23748    369.08586    812.53624    37655.765 
  647900    305.76157    -1491.428     474.6607    354.00414    963.62609    37655.765 
  648000    306.08034   -1547.5744    474.20167    298.82779    1029.8513    37655.765 
  648100    296.29142   -1482.7064    494.80485    340.41393    652.10796    37655.765 
  648200    293.41889   -1466.5973    449.09365    297.93384    323.26876    37655.765 
  648300    305.78034   -1466.1713    476.24846    380.93269    132.13626    37655.765 
  648400    274.20925   -1460.5215    500.68215    269.47861   -33.142125    37655.765 
  648500     299.2654   -1467.3752    448.34264    322.61566    255.76011    37655.765 
  648600    297.25334   -1487.7228    479.50754    324.41259   -58.685663    37655.765 
  648700    282.81449   -1480.0376    454.73744    242.59627    195.04187    37655.765 
  648800    290.47792   -1498.0646     469.7054    273.89344   -100.04908    37655.765 
  648900    297.23733   -1505.3527    464.60556    291.80895   -292.69052    37655.765 
  649000    292.17189   -1478.4529    478.96105    310.35515   -360.61113    37655.765 
  649100    305.86777    -1520.328    470.69954    321.61908    747.90614    37655.765 
  649200    306.55477   -1546.2295    473.87483    301.97274    148.77247    37655.765 
  649300    299.10996    -1531.982    476.02438    284.99367      250.152    37655.765 
  649400    301.55057   -1511.0748    470.48764    311.30576     290.9306    37655.765 
  649500    306.71524   -1533.7843    458.35997    299.62252    415.49539    37655.765 
  649600    299.82373    -1530.164    455.62007     269.6073    745.81351    37655.765 
  649700    302.90489   -1478.0632    478.35971    358.26098    4.4723529    37655.765 
  649800    299.59267   -1513.7735    450.93374    280.27565   -136.98748    37655.765 
  649900    304.62766   -1513.1308    461.98938    314.54645   -44.441953    37655.765 
  650000    314.62033   -1480.5084    468.80923    398.78725    53.929115    37655.765 
  650100     298.8916   -1464.4986     464.4846    339.95844   -772.96328    37655.765 
  650200    297.90548   -1477.2287    462.80554    321.12835   -742.02212    37655.765 
  650300    301.98986   -1526.4288    482.89992    310.33346   -942.17232    37655.765 
  650400    294.89514   -1529.9891    480.45427    272.52082   -225.47263    37655.765 
  650500    294.61891   -1526.8863    450.68044    244.61147   -500.35277    37655.765 
  650600      307.226   -1487.9473    470.91402    360.30341   -737.35853    37655.765 
  650700    296.86655   -1464.6187    455.49148    321.76655   -1044.4436    37655.765 
  650800     296.8423    -1460.181    478.69303    349.29707   -593.76111    37655.765 
  650900    302.01054   -1445.6731    476.19465    384.47661   -611.04811    37655.765 
  651000    314.39568   -1466.7035    479.60587    422.38169   -548.66034    37655.765 
  651100    292.69716   -1480.4499    462.56347    294.31544   -759.10571    37655.765 
  651200    299.96498   -1445.7464    473.37853    372.41664   -224.67113    37655.765 
  651300    296.26406   -1459.8746    503.14418    371.46231    84.330159    37655.765 
  651400    302.89107    -1510.218     437.6808    285.36541    112.04072    37655.765 
  651500    298.37639   -1483.8975    445.02624     298.7914   -79.354687    37655.765 
  651600    313.05912   -1535.5407    445.03796    312.98457   -232.50321    37655.765 
  651700    304.87208   -1492.0429    454.41903    329.15985   -41.917135    37655.765 
  651800    295.90626   -1490.8273    443.75718    279.51852   -258.62152    37655.765 
  651900    302.95491   -1510.4615    478.97669    326.70394   -79.732184    37655.765 
  652000     300.9089   -1510.5254    458.09485     296.5857    232.04076    37655.765 
  652100     302.5294   -1514.7557    431.61444    273.13993    232.98326    37655.765 
  652200    303.66359   -1525.1442    448.76489    284.98658    282.30447    37655.765 
  652300    308.33388   -1493.2208    473.53548    362.61811     382.0242    37655.765 
  652400    301.29773   -1487.3825    475.23007    338.60701    383.27037    37655.765 
  652500    295.29164   -1547.1687    449.02944    225.69404    132.90823    37655.765 
  652600    299.38525   -1491.4935    497.36234    348.05434   -44.196323    37655.765 
  652700     287.5452   -1467.2472    480.86698    302.72468   -73.030957    37655.765 
  652800    302.98296   -1485.7245    469.08874    341.67877   -78.447935    37655.765 
  652900    297.64554   -1500.9324    480.59005     314.0438     441.2558    37655.765 
  653000    299.62367    -1514.711    482.72926    311.27261    22.708615    37655.765 
  653100    311.74367   -1511.7858    463.80345    349.60761    673.42195    37655.765 
  653200    297.48049   -1466.3657    471.73053    339.01103    318.11025    37655.765 
  653300    308.98581   -1523.5879    475.01296    336.65117    877.11147    37655.765 
  653400    297.14006    -1554.586    456.12994    233.66394    488.19756    37655.765 
  653500     305.7068   -1525.7251    479.53449    324.33521    231.92791    37655.765 
  653600    304.07704   -1525.6866    455.96312    293.49599   -169.41807    37655.765 
  653700    301.93761    -1510.859    481.87371    324.64284    457.49591    37655.765 
  653800    302.08565   -1474.5403    479.99748    359.74891    50.231758    37655.765 
  653900    305.22718   -1527.9667    459.71185     300.1208    161.68606    37655.765 
  654000    305.19825   -1499.1022    478.50645    347.65028     41.67789    37655.765 
  654100    297.58812   -1489.7564    446.79225    291.16459     158.1197    37655.765 
  654200    310.22721   -1523.6279    475.28514    342.44875    804.16148    37655.765 
  654300    293.71128   -1532.0749    462.18974    246.86319    64.319686    37655.765 
  654400    298.33417   -1488.9816    489.16626    337.65798      270.016    37655.765 
  654500    310.34739   -1529.8841    493.65021    355.09641    499.94904    37655.765 
  654600    294.93137   -1556.2802     445.7859    211.72378   -235.63082    37655.765 
  654700    295.09298   -1526.6561    502.78243    299.06895   -40.574497    37655.765 
  654800     303.9829   -1489.4641    481.07828    354.41156   -30.667224    37655.765 
  654900    295.42808   -1474.0367    472.32602    322.73427    -92.05274    37655.765 
  655000    305.48733   -1462.9266    475.82048    382.43582   -601.33049    37655.765 
  655100    294.01277   -1457.1103    479.72145    340.71112   -405.21541    37655.765 
  655200    314.54836   -1512.7669    482.88792    380.28489    145.52642    37655.765 
  655300    295.12421    -1526.359     433.5769    230.30055    299.58444    37655.765 
  655400    303.33589   -1553.7853     438.3111    244.42252   -718.94207    37655.765 
  655500    305.74187   -1505.7391    450.26491    315.20891     69.01945    37655.765 
  655600     296.1723   -1545.7528    473.42315    255.45181    232.68458    37655.765 
  655700    297.11069   -1564.0281     476.4395    244.39974    311.06646    37655.765 
  655800    295.81518   -1529.8386    459.08306    255.42481    244.02788    37655.765 
  655900    304.19017   -1511.9848    459.08667    310.82848   -254.92051    37655.765 
  656000    297.41771   -1543.3486    461.40532    251.42148   -32.744531    37655.765 
  656100    290.47296   -1475.5631    473.71918    300.38657    -356.8172    37655.765 
  656200    294.53626   -1476.4001    466.40591    310.45256    57.000858    37655.765 
  656300    310.08886   -1481.5554    451.07052    359.68632     328.3825    37655.765 
  656400    299.16256    -1524.115    470.27501    287.34713    95.695653    37655.765 
  656500    293.57936   -1544.8081    465.83125    237.18001    374.87166    37655.765 
  656600    308.46718   -1513.8002    455.80084    324.90166    718.79278    37655.765 
  656700    306.54131   -1509.8026     464.3977    328.86223    125.70409    37655.765 
  656800    298.56552   -1542.8582    470.32873    265.98112     304.9217    37655.765 
  656900    296.12838   -1488.5274    478.57746    317.63454   -211.07786    37655.765 
  657000    303.25532   -1491.4779    471.26817    339.32578   -122.44408    37655.765 
  657100    305.97972   -1481.0591    451.79973    342.49001   -347.17679    37655.765 
  657200    294.66378   -1482.7766    469.82156     308.0634    44.097983    37655.765 
  657300    293.79161   -1487.6436    486.18122    315.64602    450.86762    37655.765 
  657400    297.26816    -1482.237     473.3248    323.78206    363.99173    37655.765 
  657500    297.62502   -1519.0817    466.48883    281.70124   -117.75289    37655.765 
  657600    294.31463   -1529.1874    463.17008    253.43591   -74.750689    37655.765 
  657700    297.15151   -1517.3095    455.57042    270.43229    56.482024    37655.765 
  657800    298.94981   -1472.3009      491.058    358.99044   -54.688323    37655.765 
  657900     297.8608   -1515.0503    444.09355    264.39439   -65.765742    37655.765 
  658000    300.82485   -1526.8171    463.93473    285.75702    119.75756    37655.765 
  658100    289.37821   -1535.9616    449.92963    211.29052   -202.01655    37655.765 
  658200    295.64783   -1515.2055    464.46826    274.69289   -542.27858    37655.765 
  658300    301.68688   -1506.3704    466.97245    313.10604   -185.71426    37655.765 
  658400    300.38746   -1518.8419    463.31541    291.15202   -440.89505    37655.765 
  658500    305.21976   -1504.7777    456.28097    319.84561   -543.60667    37655.765 
  658600    293.40388   -1463.2108    482.69988     334.8592   -957.74739    37655.765 
  658700    308.77544   -1484.5293    460.04803    359.80174   -675.99454    37655.765 
  658800    293.97849   -1457.0976    461.46408    322.31267   -245.22291    37655.765 
  658900    305.20435   -1518.9515    454.97028    304.29207   -376.27559    37655.765 
  659000    305.99936   -1493.1106    463.83697    342.56387   -364.85234    37655.765 
  659100    314.71922   -1459.3721     456.2409    407.79854   -429.51248    37655.765 
  659200     305.4105   -1446.5689    476.39864    399.02723     12.25455    37655.765 
  659300    303.28206   -1478.4104    479.24727     360.4923   -487.28206    37655.765 
  659400    298.39896    -1483.467    445.98764    300.28448   -374.66085    37655.765 
  659500    310.52084   -1478.8412    449.65377    362.92042     57.90801    37655.765 
  659600    297.14363    -1451.302    474.54703    355.38104    755.72463    37655.765 
  659700    288.20723    -1477.467    497.46305    312.06892    364.94276    37655.765 
  659800    290.61469   -1477.0956    461.34381    287.11412    428.22013    37655.765 
  659900    292.24915   -1477.1178    468.03868    301.11425    173.22345    37655.765 
  660000    296.57181   -1452.3157    446.55291     323.8097     102.5181    37655.765 
  660100    297.83894   -1468.4744    476.65367    343.43248    127.06981    37655.765 
  660200    304.65434   -1484.4766    461.18125    342.51213    171.06754    37655.765 
  660300     294.6045   -1465.7196    458.06958    313.10265   -669.86106    37655.765 
  660400    304.35668   -1469.7561    466.70388    361.42084    67.979567    37655.765 
  660500     294.4751   -1452.0479    478.24291    346.36759   -348.76388    37655.765 
  660600    308.37778   -1494.8037    453.53936    341.23589   -294.36354    37655.765 
  660700    294.26256   -1473.6038    467.71914    313.33503    246.32081    37655.765 
  660800    305.44177   -1506.3636    460.26859    323.24272    302.26953    37655.765 
  660900    304.57135   -1478.8536    456.85411    343.43601     154.2567    37655.765 
  661000    294.37499   -1451.9559    457.37109      325.139    186.75593    37655.765 
  661100    289.47453   -1446.7131    486.97893    338.02015   -664.92685    37655.765 
  661200    308.57903   -1432.3206    467.29965    418.38149   -164.05588    37655.765 
  661300    302.49514   -1480.0442    471.97827    348.06162   -346.85038    37655.765 
  661400    297.49599   -1470.3531    432.28936    295.65195   -140.62571    37655.765 
  661500    304.97648   -1511.4842    453.27155    309.03914     129.6745    37655.765 
  661600    289.65055   -1455.0173    445.43879    288.96497    1100.0177    37655.765 
  661700    287.63424   -1472.3032    490.76332    307.96422       454.29    37655.765 
  661800    297.77331   -1481.3636    439.00426    292.59957    327.97503    37655.765 
  661900    294.89634   -1487.1669    473.13667    308.03088    696.91121    37655.765 
  662000    296.65235   -1496.4541    465.66615     299.1456    22.985357    37655.765 
  662100    303.40954   -1541.3453    465.42502    284.30667   -279.75211    37655.765 
  662200    302.02822   -1537.9251    458.83321    274.94244   -321.60035    37655.765 
  662300     302.2039   -1552.4696    467.38994    269.74217   -285.68778    37655.765 
  662400    302.67226    -1499.341    480.15323    337.73382    6.6929321    37655.765 
  662500    295.68538   -1500.4938    434.71519    259.81984    459.54313    37655.765 
  662600    290.17596   -1505.1082    457.57839    253.36919    666.07277    37655.765 
  662700    298.66553   -1563.4151    464.80318    240.34694    274.13751    37655.765 
  662800    289.68121   -1515.9418    446.52509    229.26425    1170.9219    37655.765 
  662900     299.7441    -1528.302    442.47029    257.96259    574.81737    37655.765 
  663000    302.39924   -1513.3356    446.02087    288.38292    887.25239    37655.765 
  663100    291.62339   -1509.0647    462.15223    260.47556    577.27019    37655.765 
  663200    304.19755   -1552.5607    436.61101    247.81001   -18.603935    37655.765 
  663300    290.15438   -1468.5295    451.19615     283.4689   -13.387469    37655.765 
  663400    298.93871   -1515.9717    454.59656    278.80841   -277.51125    37655.765 
  663500    297.52965   -1482.4172    467.03194    318.48132   -672.01861    37655.765 
  663600    288.14171   -1490.4318    471.04526    272.39255     283.4987    37655.765 
  663700     309.5983   -1458.2152     466.8225    396.57933    291.39866    37655.765 
  663800    293.21037   -1492.5472    434.02209    255.97749    460.51849    37655.765 
  663900    312.86534   -1497.2344    445.96852    351.35271   -378.40868    37655.765 
  664000    301.79236   -1480.4998    440.22124    312.69829   -246.57039    37655.765 
  664100    288.12317   -1483.5329      485.193    293.35608   -373.31983    37655.765 
  664200    296.64484   -1448.2408     446.8398    328.49888   -101.67626    37655.765 
  664300     296.5289   -1467.0207    490.54995    352.90936    66.226795    37655.765 
  664400    298.39607   -1442.7138    462.92646    357.96352   -146.13409    37655.765 
  664500    292.22221   -1460.9926    454.28042    303.36035   -228.77552    37655.765 
  664600    303.80539   -1480.4349    451.03948    332.60613    105.22957    37655.765 
  664700    299.75681   -1483.4092    459.02318    319.46527   -535.90673    37655.765 
  664800    296.46403   -1518.3844    459.39672    270.10154   -522.29546    37655.765 
  664900    301.26796   -1511.5652    447.14017    286.20093    94.777463    37655.765 
  665000    318.14135   -1492.1478    473.47143     407.5953    715.61211    37655.765 
  665100    297.87695   -1536.2105     462.9044    262.11749    297.91148    37655.765 
  665200    289.16918    -1469.106    428.58101    255.86043   -275.12927    37655.765 
  665300    299.99155   -1495.4751    456.49949    305.92802   -349.24256    37655.765 
  665400    302.78001   -1475.7249    479.49278    361.17252   -3.7759279    37655.765 
  665500     302.7282   -1498.2687    468.23842    327.14213     -3.59773    37655.765 
  665600    297.66121   -1538.1376    446.73869    243.05749   -322.06146    37655.765 
  665700    299.91766   -1503.5207    437.88644    278.93812    290.32784    37655.765 
  665800    302.44494   -1489.1382    474.73018    341.49447    362.60867    37655.765 
  665900    288.07555   -1485.4286    450.12872    256.18266    646.45581    37655.765 
  666000    303.74466   -1456.9013    441.77948    346.60747    275.57202    37655.765 
  666100    292.96389   -1472.8236    469.40276    309.97682   -128.44425    37655.765 
  666200    300.23493   -1509.8868    444.24463    280.35255   -210.35353    37655.765 
  666300    307.57494   -1511.7115    438.59475    305.78429    173.86138    37655.765 
  666400    301.17165   -1513.7139    444.58814    281.06838   -428.75604    37655.765 
  666500    305.28425   -1489.5822    474.44809    353.49741   -319.39896    37655.765 
  666600    301.20682     -1521.93    432.82551    261.24731    7.9645745    37655.765 
  666700    314.26336   -1492.0191    481.07232     397.9393    588.71067    37655.765 
  666800     306.8009    -1514.017    453.16635    314.58025    6.9652942    37655.765 
  666900    302.00547   -1510.7801    443.01435    286.16659   -382.87531    37655.765 
  667000    295.16552   -1528.7308    448.99829    243.53535    -65.14713    37655.765 
  667100     290.6423   -1478.3905    469.43597    294.03516   -598.67031    37655.765 
  667200    306.27112   -1522.6104      463.113    313.55837    433.82214    37655.765 
  667300    299.11564   -1516.1991    436.33383     261.1115    75.776474    37655.765 
  667400    297.01805   -1523.4069    434.82791    242.99398    680.33282    37655.765 
  667500    300.37773   -1537.5729    474.06655    283.12856   -73.216033    37655.765 
  667600    293.43872   -1468.4963    447.61921     294.6493    233.05623    37655.765 
  667700    301.38431   -1493.0288    449.55775    307.67647    164.75618    37655.765 
  667800    299.64455   -1469.6086    482.92879    356.66817   -464.22153    37655.765 
  667900    301.65524   -1496.2039    455.27779    311.43608    128.34786    37655.765 
  668000     293.9577   -1472.4533    459.58117    304.98092   -36.059669    37655.765 
  668100    302.17973   -1460.7019    465.68825    359.69991    -183.3678    37655.765 
  668200    310.65311   -1447.8674    459.55884     404.3923    226.12329    37655.765 
  668300    303.93869   -1494.6078    466.75445    334.74579    599.91909    37655.765 
  668400    298.22303   -1519.4948    446.83049    264.31075    315.98611    37655.765 
  668500    309.01525   -1501.4572    462.01754     345.9184   -368.59883    37655.765 
  668600    291.46029   -1524.6601    459.14167    241.13841   -72.867492    37655.765 
  668700    301.33546   -1537.4594    450.37026    263.83942    90.660776    37655.765 
  668800    315.30837   -1533.3049    452.88133    333.14751    530.81498    37655.765 
  668900    303.15323   -1476.1603    453.79996    336.71752    195.34766    37655.765 
  669000    307.24215   -1455.0652    467.25457    389.59842   -12.955619    37655.765 
  669100    294.77919   -1490.5068    441.34163    272.37071   -39.053976    37655.765 
  669200    294.85821   -1517.2959    467.89035     272.4846   -416.42749    37655.765 
  669300    310.08829   -1512.5098    450.36072    328.01966   -495.61591    37655.765 
  669400    300.69656   -1489.6216    439.25333    297.69601   -289.98243    37655.765 
  669500    293.93684    -1508.072    487.01805    296.70555    171.97492    37655.765 
  669600    302.62376   -1507.8407    478.53486    327.39829   -1.2450179    37655.765 
  669700    299.31571   -1533.9145    447.21533    255.17458    119.26025    37655.765 
  669800    298.88286   -1455.8171    453.82089    337.93701   -353.03311    37655.765 
  669900    298.94162   -1517.7984    451.21961    273.61786   -264.00741    37655.765 
  670000    292.82249   -1499.4734    452.40652    265.69679   -33.256839    37655.765 
  670100     299.6041   -1512.3814    454.47645    285.26173     142.1267    37655.765 
  670200    288.88338   -1520.8073    465.74335    240.04016    97.840223    37655.765 
  670300    301.19097   -1503.8888    465.88994    312.28195   -185.50513    37655.765 
  670400    307.44637   -1494.6835    462.53675    346.17784   -280.08646    37655.765 
  670500    296.11824   -1484.6214    443.00979    285.92746    14.322188    37655.765 
  670600    299.40987   -1505.9363    428.11769    264.47721   -261.91953    37655.765 
  670700    306.95503   -1513.6943    429.85043    292.27792   -821.22064    37655.765 
  670800    297.20941   -1488.4448    478.77552    322.76163   -594.24268    37655.765 
  670900    300.99739    -1476.843    495.27825    367.84825    259.26039    37655.765 
  671000    300.87017   -1543.8723    468.75794    273.72825    -158.9203    37655.765 
  671100    296.83253   -1453.9442    441.94089    318.73799    359.62876    37655.765 
  671200    303.31391   -1463.4868    476.52637    372.83779   -37.457017    37655.765 
  671300    308.63356   -1468.6829    469.75594    384.71995    180.90824    37655.765 
  671400    305.49065   -1481.3961    449.37279     337.5335    293.52285    37655.765 
  671500    296.37867   -1528.1026    470.52157    271.12553    758.02958    37655.765 
  671600    310.74926   -1527.4451    456.38225    322.06909     958.5922    37655.765 
  671700    296.98934   -1515.6218    485.92134    301.74382    354.62361    37655.765 
  671800    292.58722   -1494.9893    477.44119    294.16093    85.880068    37655.765 
  671900    295.61375   -1485.6861    442.52853    282.11977    54.543477    37655.765 
  672000    307.80451   -1496.6601    464.26105     347.5311    -26.73224    37655.765 
  672100    300.80367   -1494.2679    444.04385    298.32043   -570.65401    37655.765 
  672200    293.90871   -1504.1685    475.81197    289.27683   -365.87601    37655.765 
  672300    302.43721   -1494.4154    479.87379    341.32622    410.14402    37655.765 
  672400    300.89522   -1487.7053    479.40019    340.64981    741.76207    37655.765 
  672500     296.7457   -1485.3504    475.52085    320.52249    255.20904    37655.765 
  672600    291.76604   -1496.2912    449.00733    260.74365    328.32195    37655.765 
  672700    307.38503   -1472.0093     469.7834    375.82369    534.88221    37655.765 
  672800    304.61378   -1481.8926    454.60412    338.33724     740.4183    37655.765 
  672900    305.11009   -1527.2554     465.5072     306.1025     683.8534    37655.765 
  673000    302.91125   -1475.0723    469.90279    352.82358     435.2535    37655.765 
  673100    304.62686   -1482.5201    473.43058    356.59486   -75.432451    37655.765 
  673200    313.17862   -1531.8237    449.61969    321.81903    109.29136    37655.765 
  673300    301.59135   -1541.4678    457.63481    268.24274    234.73072    37655.765 
  673400    308.37021   -1522.6164    453.30215    313.15205    181.27056    37655.765 
  673500    302.32835   -1438.7832    493.60555    410.20218    451.72729    37655.765 
  673600    304.41074   -1454.4142    468.54802    378.84932    436.83715    37655.765 
  673700    296.90977   -1510.6539    473.74647    294.18018    266.75447    37655.765 
  673800    290.54518   -1508.5225    458.30237    252.33414    115.98971    37655.765 
  673900    303.06554   -1502.0776    456.16225     312.7694    631.47715    37655.765 
  674000    312.47735   -1495.7024    452.75554    357.93233    325.97351    37655.765 
  674100    297.24185   -1519.4779    493.91464    307.01309    676.53053    37655.765 
  674200    289.80924   -1474.2828    466.37838     291.3505    -81.47399    37655.765 
  674300    307.55479   -1452.2497     467.8569    394.41784    342.57323    37655.765 
  674400     298.7072   -1488.8757    443.85739    294.12737   -312.38662    37655.765 
  674500    296.00909   -1501.7569    462.32126    287.61404    415.31545    37655.765 
  674600    300.93145   -1445.6655    479.39909    382.85086   -267.83484    37655.765 
  674700      293.254   -1462.5663    465.18877    317.32074    396.62585    37655.765 
  674800    295.48844   -1479.4101    454.79641    300.10187   -221.50881    37655.765 
  674900    305.53912   -1472.6701    443.68363    340.78763    92.495425    37655.765 
  675000    298.32432   -1446.0428    472.08622    363.47255   -14.949429    37655.765 
  675100    305.20586   -1429.2512    480.98516    420.01407   -247.30572    37655.765 
  675200    297.93419   -1406.2487    476.25807    405.68949   -193.27174    37655.765 
  675300    306.41169   -1428.8128    472.93349    417.80669   0.83093661    37655.765 
  675400    297.08056   -1445.3724    492.71866    379.19949    189.22158    37655.765 
  675500    302.60839   -1481.5444    439.00837    314.09921    485.86882    37655.765 
  675600      299.438   -1487.9612    461.51198    315.97274   -265.59516    37655.765 
  675700    300.66684   -1457.2222     451.8517    342.56058    -211.4732    37655.765 
  675800    299.32912    -1487.338    448.83652    303.43233   -154.11481    37655.765 
  675900    296.77677    -1483.127     466.9585    314.32284   -329.88666    37655.765 
  676000    305.77702   -1457.9297    490.00133    402.91237   -85.853768    37655.765 
  676100    300.35476   -1438.4897    456.64743    364.68967    12.695662    37655.765 
  676200    296.98147   -1499.3643    490.43059    322.47526    173.68267    37655.765 
  676300    300.32278   -1486.1077    472.22943     332.5103    212.16949    37655.765 
  676400    307.53871   -1493.3883    468.50451    353.85474    158.68633    37655.765 
  676500    291.40754   -1493.3442    482.44811     295.5242    650.45469    37655.765 
  676600    300.26829    -1465.144    452.96293     333.9632    285.78108    37655.765 
  676700    297.11231   -1493.3924    467.71063     306.3138    380.41034    37655.765 
  676800    302.81188   -1527.2756    479.79528    310.06724    415.76945    37655.765 
  676900    315.90055   -1472.0378    481.28764    425.47568    618.91751    37655.765 
  677000     297.1884   -1504.7841    455.10554    282.65815    178.21978    37655.765 
  677100    291.64244   -1475.0456    475.23405    307.66187    181.73754    37655.765 
  677200    302.04559   -1482.0579    487.50348    359.55768    39.736458    37655.765 
  677300    301.15935   -1536.0072    462.88994     277.0218    808.43086    37655.765 
  677400    294.34862   -1507.1298    473.64624    286.12201    99.102575    37655.765 
  677500    290.90956    -1485.066    491.87994    311.00172    295.33412    37655.765 
  677600    296.26617   -1489.5691    459.80728    298.44034    332.40343    37655.765 
  677700     308.7202   -1523.2821    465.08029     325.8335    464.99948    37655.765 
  677800    307.08008   -1516.7932    467.27072    327.15996    61.269449    37655.765 
  677900    301.68574   -1497.3797    466.33799    321.45722   -182.74659    37655.765 
  678000    310.98202   -1489.8435      449.977    354.30892   -509.25139    37655.765 
  678100    293.37376   -1465.1883    480.03842    330.08525   -777.73808    37655.765 
  678200    294.99033   -1467.8197    469.53443     324.1972   -312.47696    37655.765 
  678300    294.28983   -1508.0872    479.92358    291.17839   -255.54553    37655.765 
  678400    300.69174   -1488.1466    484.42186    344.31794    149.40499    37655.765 
  678500    302.08251   -1528.9444    447.78782    273.12108     38.54653    37655.765 
  678600    297.53762   -1481.7679    508.33758    360.47201    383.92752    37655.765 
  678700    300.20056   -1483.0613    453.85225    316.63155   -367.44752    37655.765 
  678800    304.67874   -1520.1806    446.00091    291.73727   -128.84077    37655.765 
  678900     292.7619    -1543.103    507.27423     276.6633   -88.137455    37655.765 
  679000    297.29342   -1484.3685     473.6359    322.07492     18.70019    37655.765 
  679100    299.21801   -1474.9344    490.52599    357.02733    310.64875    37655.765 
  679200     307.5492   -1482.7702    492.45189    388.46728    274.78935    37655.765 
  679300    302.99707   -1482.6201    464.03025    339.78792   -240.62699    37655.765 
  679400    300.15433   -1475.4489    474.69405    344.87853   -252.20145    37655.765 
  679500    294.61873   -1457.8645    478.97433    341.92638    102.04256    37655.765 
  679600    310.24892   -1472.6655    479.13324    397.35658   -192.91173    37655.765 
  679700    311.43553   -1469.4759     470.1571    396.88977    285.83404    37655.765 
  679800    295.93772   -1494.3961    488.37486    320.70847   -65.917905    37655.765 
  679900    293.42676   -1481.7131     460.5225    294.28218    444.92092    37655.765 
  680000    295.40433   -1429.5222     489.2597    384.07597    651.39753    37655.765 
  680100    304.95337   -1468.9513     498.4546    396.65143    246.87418    37655.765 
  680200    300.92707   -1472.1411    453.49653    330.45311     19.67141    37655.765 
  680300    300.22504   -1451.8811    447.26146    341.33068   -526.14967    37655.765 
  680400    291.48116   -1455.9002    490.27392    341.12408   -922.42661    37655.765 
  680500    297.26176   -1459.3361    469.46102     342.7905   -692.53083    37655.765 
  680600    290.79195   -1463.8734    467.85657    307.64373   -624.75106    37655.765 
  680700    306.41975   -1474.4291    450.29157    349.58463   -132.50854    37655.765 
  680800    291.62082   -1426.4986    487.38846    368.26636   -283.93355    37655.765 
  680900     310.2518    -1423.848     457.9066    424.96029   -67.636739    37655.765 
  681000    294.15713   -1432.4163    464.53537    350.86621   -19.956853    37655.765 
  681100    305.48097   -1463.9214    485.87036     391.4624   -291.96796    37655.765 
  681200    313.38566     -1453.13    457.58603    409.40734    29.054335    37655.765 
  681300    304.37444   -1479.3163    483.17236    368.40877   -370.49646    37655.765 
  681400    306.18483   -1452.4999    459.29721    379.46622   -857.24901    37655.765 
  681500    310.71617   -1423.0923    468.89689    438.78815   -1211.9347    37655.765 
  681600    301.61601   -1442.3918    454.79348    364.58793   -639.23379    37655.765 
  681700     303.5478    -1443.642    494.20374    411.40855   -642.00391    37655.765 
  681800    298.15342   -1467.5119    458.24722    327.39838   -824.21797    37655.765 
  681900    299.50735   -1467.8188    478.15563    353.06972   -540.80446    37655.765 
  682000    305.14405   -1458.1985    459.96022    369.76469    -577.5508    37655.765 
  682100    303.39997   -1543.7605    462.48706    278.91062    540.76303    37655.765 
  682200    285.25212     -1565.71    466.22812    179.34282   -11.640691    37655.765 
  682300    308.48327   -1529.1119     500.5778    354.43902    306.92615    37655.765 
  682400    300.51663   -1494.9019    459.73927    312.09499   -299.54219    37655.765 
  682500    291.07514   -1515.4965    478.60419    268.03784   -273.78527    37655.765 
  682600    301.75634   -1511.4238    475.32204    316.71367   -894.50864    37655.765 
  682700    295.10077   -1499.7547     439.1268    262.34963   -157.61144    37655.765 
  682800    303.57327   -1527.3616    476.92582    310.52519    142.26524    37655.765 
  682900    301.68295   -1523.4323    464.83775     293.8918    395.46034    37655.765 
  683000    306.72317   -1580.6514    446.39376    240.82479    308.31335    37655.765 
  683100    299.32662   -1525.0062    467.37486    284.29133   -542.43547    37655.765 
  683200    299.26314   -1568.9866    462.64161     235.2931    77.515582    37655.765 
  683300    291.34902   -1504.2983    480.36449    282.22415    84.456354    37655.765 
  683400    294.72097   -1530.4113    441.85367    232.71728     146.0431    37655.765 
  683500    296.58113   -1507.3636    452.12447    274.37511    -183.4251    37655.765 
  683600    303.20901    -1533.895    475.99058    301.42355   -174.37003    37655.765 
  683700    297.50536   -1528.0203    469.72237    275.45976    63.641508    37655.765 
  683800    298.64615     -1527.47    466.69734    278.09932    533.58716    37655.765 
  683900    300.41522   -1526.4012    443.61681    264.01861    200.43317    37655.765 
  684000    307.07493   -1518.8868    497.28164    355.05418   -103.26036    37655.765 
  684100    303.27124   -1502.4631    453.29655    310.44035   -570.26838    37655.765 
  684200    296.17407   -1512.6733    447.83989    262.95593   -685.55661    37655.765 
  684300    294.45216   -1522.2858    461.78404    259.56798   -937.59224    37655.765 
  684400    289.89275   -1504.3221    448.99635    244.30356   -1236.7465    37655.765 
  684500    295.07068   -1482.6804    443.03467    283.19697    -449.7709    37655.765 
  684600      306.085   -1493.0652    459.11576    338.27193    342.13345    37655.765 
  684700     296.9981   -1489.5112    473.01077    314.98312    258.06084    37655.765 
  684800    291.73191   -1539.5811    476.78383    245.07718    520.04478    37655.765 
  684900     308.7288    -1491.818    478.35978     370.6157    533.19155    37655.765 
  685000    297.54324   -1499.4377    435.68147    270.17124   -5.8537489    37655.765 
  685100    299.35486   -1480.2374    489.93165    351.74346   -91.909023    37655.765 
  685200    296.43643   -1466.0004     478.9104     341.8755   -469.52849    37655.765 
  685300    297.69786    -1491.911     476.9188    319.62847   -447.57318    37655.765 
  685400    300.98725   -1483.2365    467.03483    333.16584   -8.9344227    37655.765 
  685500    296.60157   -1485.4223    458.79072    303.07429    64.323134    37655.765 
  685600    301.98397   -1472.8464    478.76294    359.75245    299.69127    37655.765 
  685700    305.25155   -1489.4713    444.65322    323.66685    389.03814    37655.765 
  685800    291.28766   -1472.9436    480.42379    313.36301     410.2823    37655.765 
  685900    307.35741   -1444.8103    483.53701    416.65246     727.8588    37655.765 
  686000     297.0972   -1496.3978    479.39372    314.92376    263.78143    37655.765 
  686100    308.85674   -1495.3632    445.77253    335.05677    396.41654    37655.765 
  686200    304.04067   -1494.6612    479.01283      347.408   -231.30328    37655.765 
  686300    297.56442   -1495.8748    465.07192    303.21959   -192.59148    37655.765 
  686400    293.34734   -1520.3675    437.26682    232.01607   -415.95252    37655.765 
  686500    305.82044   -1537.5754     480.3597    313.81969   -393.97899    37655.765 
  686600    296.60874    -1483.196    462.43521    308.97727   -383.42163    37655.765 
  686700    302.57336   -1495.0511    464.94403    326.37111   -168.65392    37655.765 
  686800    303.74939   -1486.5107    468.67701    343.91686   -538.27365    37655.765 
  686900    304.38777   -1496.6316    456.39817    324.37903   -311.34457    37655.765 
  687000    313.87828   -1533.4024    487.73649    361.49384    102.73359    37655.765 
  687100    308.44409   -1511.8214    488.30263    359.27881    299.24061    37655.765 
  687200    297.90677   -1494.5891    471.13114    312.09929    244.05979    37655.765 
  687300    304.73322   -1503.0853    468.71509      331.791    69.506466    37655.765 
  687400     306.9338   -1521.5971    449.82376    304.25333   -119.89856    37655.765 
  687500    303.51857   -1522.8733    455.50545    293.34789   -276.24572    37655.765 
  687600    305.59162   -1527.6589     459.4271    301.77772     21.55129    37655.765 
  687700       299.03   -1502.6103    457.28481    295.26739   -39.961376    37655.765 
  687800    305.62009   -1498.0511    464.37401    336.45998    91.595876    37655.765 
  687900    299.61288    -1509.727    448.98453    282.46345    -378.4007    37655.765 
  688000    303.53812    -1506.938    462.46483    316.33022   -361.97387    37655.765 
  688100    290.58276   -1500.3024    476.13101    278.55129    267.77031    37655.765 
  688200    293.54499   -1522.2028    460.70689    254.50688   -138.71028    37655.765 
  688300    308.00331   -1504.0539    464.28418    341.05167   -297.63053    37655.765 
  688400    299.07642   -1519.9519    469.96165    290.81065   -394.96809    37655.765 
  688500    307.40316    -1563.254    461.99557    276.87241   -445.90133    37655.765 
  688600    294.95647   -1517.9148    459.36957     263.7854    36.840033    37655.765 
  688700     295.6678   -1477.6472    475.36535    323.23782   -753.27076    37655.765 
  688800    313.29615   -1517.1667    452.88997    340.27326   -548.32669    37655.765 
  688900    294.46331   -1491.5707    458.01868    286.56773   -381.29847    37655.765 
  689000    299.81688   -1472.5516    458.03974    329.60867   -311.97176    37655.765 
  689100    297.21303   -1488.5173    483.08352    327.01335   -170.32544    37655.765 
  689200     304.2656   -1481.2252    449.77142    332.61097    116.13211    37655.765 
  689300    306.10915   -1479.9088    483.14812    375.56894   -316.33419    37655.765 
  689400    294.03619   -1475.5889     478.0105    320.62644    219.22471    37655.765 
  689500    306.65891   -1468.8499     465.1458    371.09023   -273.79764    37655.765 
  689600     294.2499   -1453.1707    489.65098    355.64333    208.30176    37655.765 
  689700    297.50024   -1478.4193    448.17186    303.48727    -75.28853    37655.765 
  689800    296.45282   -1467.0393    468.99505    330.99471   -271.73508    37655.765 
  689900    299.06628   -1489.5393    467.01048    318.22666   -468.53763    37655.765 
  690000     293.3528    -1483.246    430.81011    262.70531    -376.3593    37655.765 
  690100    303.79057   -1467.8942    468.18364    362.22458   -341.13785    37655.765 
  690200    303.87268   -1472.7563    472.41599    361.96299   -5.9066889    37655.765 
  690300    303.03702   -1495.8204     484.1232    346.85965    309.71068    37655.765 
  690400    313.57215   -1497.3095    472.38034    380.85811    258.98885    37655.765 
  690500    298.98739   -1532.8133    447.53293    255.12152    393.71298    37655.765 
  690600    308.38598   -1542.7448    463.04492    302.83716   -216.09718    37655.765 
  690700    290.72663   -1506.9423    469.26745    265.69287    658.08798    37655.765 
  690800    307.31096   -1507.1512    474.50975    345.07614    618.39466    37655.765 
  690900    303.82483   -1507.6591    461.63281    316.06249    472.39518    37655.765 
  691000    304.52066   -1471.3335    483.53419     377.4089    535.32624    37655.765 
  691100    303.37357    -1492.488    455.87436    323.45203    207.05036    37655.765 
  691200    296.28323   -1468.4399    474.09281    333.93162    369.99805    37655.765 
  691300    308.52399   -1477.9691    453.63755     358.8242     10.65593    37655.765 
  691400     296.3662   -1457.9792    460.51697    331.18846   -185.10943    37655.765 
  691500    300.18296   -1436.0718    471.87746    381.56733   -349.98857    37655.765 
  691600    307.48577   -1460.4876    471.32471     389.3384   -260.32712    37655.765 
  691700    306.57169   -1458.0011    490.46063    406.86285    -228.3854    37655.765 
  691800    301.64601   -1485.3981    471.51852    338.44124   -308.71599    37655.765 
  691900     295.6413   -1528.8306    460.88135    257.45161   -483.03331    37655.765 
  692000    299.27772   -1501.0674    473.54813    314.18419   -284.47234    37655.765 
  692100    300.40099   -1492.7628    481.34511    335.32145   -190.93637    37655.765 
  692200    299.55146   -1484.1598    459.18521    317.95609    39.097819    37655.765 
  692300    310.31414   -1503.2183    481.63982    369.60271     339.5241    37655.765 
  692400    303.07092   -1529.6145    437.67801    266.77239    -126.7197    37655.765 
  692500    305.42793    -1509.434    473.60478    333.44646    -116.3477    37655.765 
  692600    299.84409   -1511.0133    488.06402    321.29328    178.46981    37655.765 
  692700    297.61403   -1524.0293    472.64574    282.86134   -74.815384    37655.765 
  692800    300.03584   -1525.9497    458.08863    277.24117   -116.64331    37655.765 
  692900    302.88194   -1527.1258    477.41826    308.15406   -343.80722    37655.765 
  693000    295.42474   -1526.2238    452.17946    250.38566    327.10411    37655.765 
  693100    294.03598   -1526.4358    485.99025    277.75844   -107.05755    37655.765 
  693200    307.33611   -1523.3699     474.3181    328.77846    488.39312    37655.765 
  693300    304.42403   -1532.9305    475.04215    306.88672    332.78535    37655.765 
  693400    297.72121    -1510.508    470.08376    294.30111    245.80262    37655.765 
  693500    303.00289   -1505.1427    491.39114    344.65233     724.1932    37655.765 
  693600    296.88239   -1494.1435     471.8687    308.69002    267.74992    37655.765 
  693700    297.23119   -1485.6627     470.0446    316.91043    558.75104    37655.765 
  693800    297.94218   -1514.0384    474.63244    296.31002    559.63612    37655.765 
  693900    305.74108   -1466.1149    487.41006    391.97468    732.43554    37655.765 
  694000    296.05917   -1456.0255    448.49096     319.7397    490.00461    37655.765 
  694100    292.25587   -1478.6059    476.17615    307.79372    469.44619    37655.765 
  694200    311.13619   -1518.5406    486.09923    362.42523    597.00339    37655.765 
  694300    296.31599   -1562.6012     449.4665    215.29085    404.45343    37655.765 
  694400     297.9935   -1506.8925    469.26245    298.31606    333.60315    37655.765 
  694500    290.14706   -1503.2766    449.80798    247.30076   -227.75806    37655.765 
  694600    303.57114    -1502.495    442.76159    301.21799   -275.48341    37655.765 
  694700    305.31668   -1531.6711    498.13445    335.24023   -29.154648    37655.765 
  694800    300.70818   -1489.4021    476.42844     335.1427   -32.964787    37655.765 
  694900    289.99896   -1502.0268    464.49057     262.5692   -328.62881    37655.765 
  695000    300.55462   -1480.1119    472.04536    339.36139   -98.508929    37655.765 
  695100    306.98302   -1470.6194    469.62976    375.25766   -22.092506    37655.765 
  695200    304.94736   -1480.3209    474.36532     361.1656    222.96532    37655.765 
  695300     299.1128   -1499.9371    492.54894    333.57589    266.84162    37655.765 
  695400    294.90783   -1504.6063     473.4166    290.92291    235.88303    37655.765 
  695500     300.5469    -1503.488    481.87186    325.77717    464.68408    37655.765 
  695600    305.92888   -1493.6546     469.6266    347.49344     361.2974    37655.765 
  695700     307.4635     -1469.77    477.07291    385.70429   -58.688332    37655.765 
  695800     302.0042   -1462.6759    507.05236    398.30301   -22.101336    37655.765 
  695900    298.31751   -1504.6861    483.62454    316.33713    411.64583    37655.765 
  696000    293.61706   -1448.2656    506.35928    374.41958    125.31917    37655.765 
  696100    292.79625   -1460.5093    507.86133    359.99816    -54.86864    37655.765 
  696200    295.92238   -1466.9034    484.10712    343.86469    725.23286    37655.765 
  696300    305.50471   -1474.6388    471.08781    366.06889    830.92544    37655.765 
  696400    305.72945   -1473.5907    496.09773    393.13444     877.0484    37655.765 
  696500    297.48656   -1450.3988    493.96898    377.24357    1022.8592    37655.765 
  696600    294.49425   -1506.6872    481.19366    294.76488    725.13883    37655.765 
  696700    302.23202   -1463.5946    498.44249    389.79583    930.72969    37655.765 
  696800    305.09727   -1499.5231    464.92567    333.19583     300.6755    37655.765 
  696900    301.16121   -1499.3029     485.1367    335.98113    232.32865    37655.765 
  697000    300.88475   -1531.9641    460.59184    277.53573     86.16546    37655.765 
  697100    295.75292   -1536.8881    483.72309     272.7362   -89.251121    37655.765 
  697200     303.4899   -1517.3499    472.54971    315.78704    167.45286    37655.765 
  697300    290.13744   -1481.6414     503.4043    322.48919    155.20174    37655.765 
  697400    297.09923   -1530.3332    455.64414    257.24792    225.21273    37655.765 
  697500    299.09014   -1534.9755    465.86654     271.7535    864.09207    37655.765 
  697600     300.9386   -1572.1265     477.8527     254.8756    374.94091    37655.765 
  697700    296.88441   -1557.5027    439.10543    212.57659    498.31948    37655.765 
  697800    294.09443   -1516.3341    467.20852    269.34046    32.844302    37655.765 
  697900    304.22551   -1602.2908    445.22755    206.82179    -425.7168    37655.765 
  698000    307.73416   -1570.5883    442.17262    251.19916    278.90702    37655.765 
  698100     300.4386   -1551.6048    458.93863     254.2416    248.32046    37655.765 
  698200     298.7474   -1576.6029    460.51268    223.23568    274.66316    37655.765 
  698300    300.71171   -1565.3528    469.12717    251.90658     561.4818    37655.765 
  698400    295.22218   -1565.2861    476.38548    234.62125    646.38299    37655.765 
  698500      302.204    -1531.214    477.44764    301.05593    808.44896    37655.765 
  698600    299.09296   -1574.5198    484.16629    250.52162    538.01284    37655.765 
  698700    291.67251   -1568.1832    473.77449    213.19947     778.1014    37655.765 
  698800    295.18789   -1542.7501     495.3117    275.92976     960.8224    37655.765 
  698900    298.49239   -1554.8165    467.95104    251.31716     442.0435    37655.765 
  699000    302.43314   -1558.7255    488.33182    285.45593    208.15721    37655.765 
  699100    302.08469   -1576.6286    478.22281    255.88164     320.8708    37655.765 
  699200    300.93393   -1566.2398    440.29254    223.18117   -238.22619    37655.765 
  699300    293.37607   -1516.7119    478.74246    277.27598   -87.926755    37655.765 
  699400    302.76061   -1535.8938     493.7395    315.16343   -328.18403    37655.765 
  699500    294.55507    -1518.967    456.05472    257.61882   -222.54931    37655.765 
  699600    296.77766   -1504.7409    474.98671    300.74108    134.19101    37655.765 
  699700     291.5234   -1495.6131    477.13778    288.46433   -35.089781    37655.765 
  699800    299.56622   -1473.2236    465.56527    335.33844    242.95674    37655.765 
  699900    312.66064   -1487.4725    468.16432    382.39275    579.57436    37655.765 
  700000    304.89014   -1506.8808    481.06901    341.05291   -113.52484    37655.765 
  700100    299.28165   -1475.8052    489.07404    354.98988    48.598026    37655.765 
  700200    292.95016   -1489.3258    474.19414    298.20443   -204.01043    37655.765 
  700300     310.3487    -1467.371    487.51101    411.47618    117.01505    37655.765 
  700400    302.38066   -1499.8885    479.81366    335.53944   -140.69242    37655.765 
  700500    305.77844   -1542.8052    453.10941    281.15121   -196.35395    37655.765 
  700600    297.48414   -1555.9803    473.68505    251.36732   -414.04833    37655.765 
  700700    308.12735   -1525.7229    458.77543    314.43005   -232.02275    37655.765 
  700800    299.12317   -1529.3621    471.68667    283.33509    145.98848    37655.765 
  700900    306.08141    -1501.872    448.70656    319.03985   -377.56888    37655.765 
  701000    293.11668   -1530.2573    473.60999    257.43535   -138.65744    37655.765 
  701100    285.63649   -1499.7627    471.84188    252.62703   -598.16334    37655.765 
  701200    308.55328   -1489.8237    456.82962    350.29289   -335.14061    37655.765 
  701300    296.05752   -1494.7089    469.83755    302.39541   -238.02277    37655.765 
  701400    310.68159   -1515.2889    454.53654    332.07616   -25.957418    37655.765 
  701500    294.26716   -1526.7434    479.03537    271.53234    513.54167    37655.765 
  701600    311.84546   -1530.0754    446.60829    314.57926    453.95828    37655.765 
  701700     296.4263   -1511.1794    480.51684    298.25754   -184.31463    37655.765 
  701800    306.28103   -1486.4151     467.2492    353.93433    90.223294    37655.765 
  701900    308.63855   -1477.3159    471.63262      377.986   -306.21157    37655.765 
  702000    307.41469   -1474.1301     479.2741    383.32655     142.8456    37655.765 
  702100    310.53706   -1487.8536    484.50546    388.83251    24.186734    37655.765 
  702200    297.21738   -1503.5212    445.78843    274.73382     -190.104    37655.765 
  702300    293.77224   -1505.4508    485.09718    296.66801   -536.61966    37655.765 
  702400    284.71283   -1498.4943    495.24115     273.1538   -7.9540746    37655.765 
  702500    300.16846   -1505.7964    455.34834    295.24868    406.89681    37655.765 
  702600    299.71093   -1584.1003    492.75214    252.29742    281.47857    37655.765 
  702700    303.09995   -1566.8103    448.51762    240.54635    674.56581    37655.765 
  702800    296.37655   -1611.5534    473.37621    190.51983    259.64906    37655.765 
  702900    295.76677   -1579.3353    449.40603    196.03403    605.16301    37655.765 
  703000    300.59192   -1546.4573    462.89206    264.02989    311.36899    37655.765 
  703100    295.30511   -1507.2298    458.78356    275.44747    224.39533    37655.765 
  703200    290.75739   -1531.9505    476.58855    248.14365    132.42993    37655.765 
  703300    304.74687   -1532.2858    482.62389    316.56041    234.42562    37655.765 
  703400    301.23989   -1526.5744    467.10079     291.0265    491.63815    37655.765 
  703500    306.28768   -1531.4698    486.10668     327.7669   -49.698773    37655.765 
  703600    296.79847   -1520.9521    489.54938    299.18587    359.77913    37655.765 
  703700    310.12617   -1524.9708    481.63924    347.00696    353.28693    37655.765 
  703800    303.56496   -1502.8126     474.9882     333.0993    182.39887    37655.765 
  703900    299.13097   -1506.8022    473.53003     307.7734   -47.552448    37655.765 
  704000     295.6193   -1471.3598    467.63365    321.57607   -178.20094    37655.765 
  704100    300.45572   -1494.2609    474.10202    326.82574   -331.11782    37655.765 
  704200    294.46351   -1524.8319     456.4988    251.78759   -669.76283    37655.765 
  704300    311.14958   -1539.7726    453.95763    309.11167   -403.60937    37655.765 
  704400    299.55013   -1509.9871     463.0822    296.01972    -12.20787    37655.765 
  704500     286.5893   -1508.7643    489.62581    265.68093    151.30548    37655.765 
  704600    302.45382   -1485.4539    492.40895    362.89733    804.36892    37655.765 
  704700    299.14063   -1572.3252    469.20366    237.96723   -302.96836    37655.765 
  704800    308.26892    -1560.143    463.35859    285.22775   -90.789209    37655.765 
  704900    304.79053   -1557.9057    451.58269    260.09514    35.468673    37655.765 
  705000    299.58792   -1521.8993    444.37956    265.57435   -331.82005    37655.765 
  705100    303.15059   -1530.1507    454.06359    282.97893   -412.83451    37655.765 
  705200    303.73114   -1518.8838    473.45225    316.23719    -389.3027    37655.765 
  705300    307.42781   -1513.5812    467.85156     332.5118   -470.74361    37655.765 
  705400    294.82519   -1532.0566    465.71738     255.4029    38.940552    37655.765 
  705500    296.39275   -1522.5166    489.50305    295.75609    178.30244    37655.765 
  705600    293.41158   -1529.2058    480.37575     266.5746   -128.04975    37655.765 
  705700    292.41266   -1510.0962    466.78223    267.61244    548.52686    37655.765 
  705800    296.78426   -1504.9066    455.63146    281.24977   -359.47943    37655.765 
  705900    306.98394   -1529.4939    500.49133    347.24885    1.8056319    37655.765 
  706000    303.00305    -1531.488    467.09284    294.00946    268.12994    37655.765 
  706100    298.52927   -1549.0332    448.42188    237.73671    859.77731    37655.765 
  706200    309.33248   -1575.8929    478.69631     289.5837    1140.0438    37655.765 
  706300    293.60771   -1523.7353    466.63431    259.18302    1030.1645    37655.765 
  706400    300.39534   -1521.6245    459.90117    284.99048    187.70117    37655.765 
  706500     305.4271   -1534.0163    465.62075    300.87634    152.28277    37655.765 
  706600     292.1634   -1535.5062    448.30491    222.60767    253.56793    37655.765 
  706700    300.55874   -1554.7704    455.74775    248.42374    465.85397    37655.765 
  706800    290.82816   -1506.2586    480.71164    278.27593    949.05333    37655.765 
  706900    300.00245     -1537.48    497.85954    305.33199    198.83378    37655.765 
  707000    310.73557   -1585.2164    460.51857    268.37267    139.49679    37655.765 
  707100    292.75577   -1588.2508    474.25109    198.46487    204.07412    37655.765 
  707200    305.69775   -1543.3952    460.68541    287.77551    126.25013    37655.765 
  707300    303.16281   -1503.9134    482.23563    337.44306    32.493207    37655.765 
  707400    301.38268   -1515.3308    462.75147    298.56086   -205.61887    37655.765 
  707500    296.64244   -1542.0176    454.61555     242.4871   -7.4027538    37655.765 
  707600    305.74965   -1500.3171    456.75147     327.1523    498.65524    37655.765 
  707700    309.37518   -1482.0928    506.67979    411.55872     392.8821    37655.765 
  707800    294.30202   -1485.0998    455.56511    289.86193    71.588043    37655.765 
  707900    300.63118   -1494.1213    466.43611      320.086   -207.38926    37655.765 
  708000     297.9955    -1490.326    486.68752    332.31655   -114.04435    37655.765 
  708100     291.7881   -1504.4526    493.31364    296.98748    294.99155    37655.765 
  708200    311.41735   -1496.2551    475.98692    375.85882    492.62088    37655.765 
  708300    304.87159   -1476.0236    465.94117    356.69902    83.586757    37655.765 
  708400    289.34663   -1483.3524    494.55548    308.38411   -333.50902    37655.765 
  708500    293.68685   -1515.0403    467.31788    268.91639   -274.42082    37655.765 
  708600    292.55531   -1525.7634     457.4407     243.2432   -240.20326    37655.765 
  708700    298.30577   -1518.9235    480.59561    299.01818   -268.61546    37655.765 
  708800    291.18323   -1503.2104    461.30764    263.51197   -254.88038    37655.765 
  708900     299.2602   -1498.1812    473.85352    317.29723    -45.73163    37655.765 
  709000    295.76688   -1510.9652    461.87485    276.87347    261.61976    37655.765 
  709100    303.57773   -1504.7926    466.58582    322.77415    118.07324    37655.765 
  709200    296.97871   -1491.1939     471.1656    311.36828   -200.78897    37655.765 
  709300    307.43234    -1455.942    471.79001     394.1097    301.78302    37655.765 
  709400    304.45627   -1495.1848    464.16747    333.90221    289.51993    37655.765 
  709500    296.62735   -1476.1252    451.65337    305.34962   -179.36443    37655.765 
  709600    295.14227   -1480.6547    480.89189     323.4008    129.35685    37655.765 
  709700    305.36752    -1513.454    467.78273    323.33356   -127.76862    37655.765 
  709800    297.47153   -1527.6512    466.71313    272.66792   -116.44389    37655.765 
  709900    311.32963   -1512.3088    466.25845    349.68347    278.37518    37655.765 
  710000    301.75997   -1510.2749    483.70507    326.26178    94.144762    37655.765 
  710100    309.10458   -1503.3966    469.73333    352.09527    498.10854    37655.765 
  710200    294.02789   -1505.8315    477.80576    290.14197    341.20371    37655.765 
  710300     306.2915   -1502.4645    472.70632      343.389    218.39905    37655.765 
  710400    290.02239   -1533.3903    464.55074    231.37088    193.16135    37655.765 
  710500    300.32334   -1528.7662    458.74455    276.36942    457.11022    37655.765 
  710600    301.81639   -1459.6044     465.4266    358.90681    189.92598    37655.765 
  710700    301.61571   -1482.1479    486.02155    356.05861   -3.3947307    37655.765 
  710800    297.96394   -1509.0237    452.25397    279.04384   -271.90465    37655.765 
  710900    307.22808   -1492.2806    454.55187    339.61729   -258.68838    37655.765 
  711000    306.61905   -1503.1777    451.31886    322.75681   -263.98068    37655.765 
  711100    298.33017   -1491.4435    480.11865    326.13051    235.25407    37655.765 
  711200    302.59376   -1538.0539    472.64766    291.16343    22.836956    37655.765 
  711300    302.28656   -1549.2108    488.56375    294.54544    723.64175    37655.765 
  711400    299.82361   -1515.6586    487.63613    316.12828   -24.796259    37655.765 
  711500    295.88774   -1543.7167    457.20122    239.99014   -296.66635    37655.765 
  711600    295.29914   -1542.0104    466.19874    248.05526   -302.49777    37655.765 
  711700    303.77369   -1499.7203    455.38653    317.52576   -41.325026    37655.765 
  711800    294.01274   -1543.2916    452.58462     227.3928   -82.209683    37655.765 
  711900    302.73855   -1479.2635    472.92024    350.87554    178.73428    37655.765 
  712000     294.7903   -1510.7281    492.60895    303.46654    355.54217    37655.765 
  712100    289.72228   -1537.0048    460.47679    222.33706   -119.37787    37655.765 
  712200     300.1777   -1530.1826    474.10434    289.65992     228.2942    37655.765 
  712300    300.24751   -1517.6647    468.45624     296.8427   -80.034078    37655.765 
  712400    298.21433   -1538.7865    439.30599    237.45557     419.5511    37655.765 
  712500     305.0663   -1538.6663    424.57208    253.56016    314.71643    37655.765 
  712600    298.61554   -1565.5287    483.52101    256.72702    1014.4046    37655.765 
  712700    290.68409   -1530.2362    486.54786    259.48868    434.12754    37655.765 
  712800    303.10019   -1526.5029    471.87877    304.21599   -228.48754    37655.765 
  712900    292.16472   -1513.7789    458.79304    254.82902    49.548824    37655.765 
  713000    307.91552   -1508.6151    448.42067    320.23345   -612.59454    37655.765 
  713100    301.13055   -1559.1014    448.33196    239.24048    -121.3852    37655.765 
  713200    300.07318   -1539.7607    451.54575    257.05465   -737.84433    37655.765 
  713300     300.1334    -1487.561    457.77887    315.75741   -666.54224    37655.765 
  713400    296.49297   -1496.9734    460.57025     292.8159   -91.261506    37655.765 
  713500    300.74707   -1490.5744    480.78954    338.50583   -708.69289    37655.765 
  713600     298.9899    -1497.658    435.69907     278.4541   -101.27942    37655.765 
  713700    299.61338   -1495.3747    479.04676    326.88026   -359.50491    37655.765 
  713800    301.52475   -1506.4393    476.09759    321.43543    -584.8809    37655.765 
  713900    286.68101   -1431.2282    438.48251    292.48497   -71.478414    37655.765 
  714000    299.06193   -1470.5027    466.99276    337.22602     -577.942    37655.765 
  714100    291.84707   -1474.0084    465.98306    300.36546  -0.70068344    37655.765 
  714200    286.75168   -1441.1849    481.40208    325.76463   -351.85995    37655.765 
  714300    304.87166   -1442.8817     485.9352    409.83536      -272.28    37655.765 
  714400    305.08634    -1466.735    488.15995    389.16924   -541.65307    37655.765 
  714500    301.66681   -1469.7311    485.14316    367.82612   -364.23003    37655.765 
  714600    302.96648   -1501.1575    445.13126    302.21437   -5.1044789    37655.765 
  714700    301.11538   -1523.3658    469.12081    295.69691    292.68453    37655.765 
  714800    292.73969   -1498.9706     475.7395    289.16138   -89.512175    37655.765 
  714900    293.71682   -1452.9017    460.30806    324.17951    18.463182    37655.765 
  715000    306.87279   -1495.5897    489.38215    369.54559    75.731141    37655.765 
  715100    292.79011   -1479.7061     467.8519    300.76442   -434.15113    37655.765 
  715200    305.75972   -1517.7312    463.54656    316.57842   -693.72696    37655.765 
  715300    291.29145   -1515.2257    467.05439    257.72854   -142.51827    37655.765 
  715400    308.70107   -1497.0407    472.61151    359.52045    -169.0117    37655.765 
  715500    303.01338   -1492.2822    497.51258    363.68126     371.5357    37655.765 
  715600     298.6509   -1511.8319    455.76092    282.82234   -236.43132    37655.765 
  715700    303.53197   -1489.9183    483.41935    354.27685    45.978388    37655.765 
  715800    299.32419   -1466.8991    499.58135    374.59397    188.74471    37655.765 
  715900     298.1691   -1508.1435    471.34595    299.93572    496.05555    37655.765 
  716000      304.998   -1472.9169    471.08172    365.51301   -15.651012    37655.765 
  716100    308.99951   -1478.0131    462.85442    370.12887   -184.17503    37655.765 
  716200    297.10114   -1487.7129    455.70992    299.94249   -164.98784    37655.765 
  716300    294.67061   -1533.7347    445.47123    232.78559    22.437708    37655.765 
  716400    311.11998   -1546.8409    464.05287    312.00592   -175.79687    37655.765 
  716500    304.17244   -1494.9831    478.93496    347.59895    714.06837    37655.765 
  716600    306.68177   -1513.7358    474.24016    335.40116    418.25219    37655.765 
  716700    296.00539   -1534.0382     468.8122    261.80715    416.36553    37655.765 
  716800    304.30088   -1531.8533    458.23028    290.59995    638.49634    37655.765 
  716900    293.32945   -1515.9358    468.61914    267.71983     528.9339    37655.765 
  717000    301.24172    -1528.593    449.54934    271.46462    447.61259    37655.765 
  717100    301.05386   -1525.8527    438.58007    262.39346   -267.01141    37655.765 
  717200     299.4342   -1528.5389     474.5541    288.42016   -353.71599    37655.765 
  717300    293.79645   -1547.3075    444.80551    214.62813   -889.34752    37655.765 
  717400    310.31712   -1523.3323    458.40483    326.26709   -176.88932    37655.765 
  717500    296.13543   -1506.6512    452.01598    272.98082   -285.24122    37655.765 
  717600    300.96642   -1476.6301    468.52764    341.17161   -306.14263    37655.765 
  717700    301.81319   -1507.3378    452.04053    297.77298   -138.60042    37655.765 
  717800    304.27954   -1519.3088    476.10395     320.9224   -295.63125    37655.765 
  717900    301.41414   -1563.2454    471.44812    259.48395      395.381    37655.765 
  718000    296.73005   -1506.0646    467.43133    291.64859    325.38843    37655.765 
  718100    302.04037   -1519.7456    471.07775    305.42093    726.07883    37655.765 
  718200    295.38789   -1514.4071    470.78603    280.64377    464.70657    37655.765 
  718300    297.45733   -1519.5864    450.68737    264.64336    317.21144    37655.765 
  718400    300.88227   -1580.8832    451.68324    219.69691    98.153594    37655.765 
  718500    298.60391   -1484.0474    485.08251    339.71771   -176.97689    37655.765 
  718600    313.93453   -1510.6327    447.96123    344.74048   -140.64544    37655.765 
  718700    292.52948   -1465.4063    460.68247    306.72634   -898.31228    37655.765 
  718800    303.99155    -1520.847     455.5696     297.5588    -626.1581    37655.765 
  718900    297.06354   -1492.4066    436.66811    276.03843   -234.65556    37655.765 
  719000    303.55041   -1512.1182     447.4412    296.18143    240.22101    37655.765 
  719100    296.34984   -1516.3008     449.5473    261.82382   -191.32872    37655.765 
  719200     301.5272   -1524.2995    459.35686    286.84552    313.42212    37655.765 
  719300    296.89426   -1512.5641    463.74878    282.20272   -275.75746    37655.765 
  719400    292.91351   -1502.3322    459.60949    270.44906    112.08093    37655.765 
  719500    299.83406   -1466.2663    456.53678    334.46805    203.73627    37655.765 
  719600    305.35418    -1489.824     476.3685    355.48948    246.85425    37655.765 
  719700    288.70262   -1558.6407    470.82008    206.47317    252.94039    37655.765 
  719800    293.01766   -1527.0094     465.5733    252.20258    476.95682    37655.765 
  719900    308.77231   -1518.6302    465.11669    330.75549    323.29763    37655.765 
  720000    305.80797   -1527.0525    442.53183    286.45876    271.62349    37655.765 
  720100    296.04347   -1490.4115    455.15926    291.95156    386.98927    37655.765 
  720200     299.2781   -1514.8968    460.38825    287.19655    341.27743    37655.765 
  720300    303.12104   -1543.7147    460.03502    275.25386    352.13318    37655.765 
  720400    313.36226   -1501.0245    454.34114    358.16301    338.65961    37655.765 
  720500    287.52977   -1453.2196    470.72924    306.54534    281.09453    37655.765 
  720600    298.50211   -1509.0118     454.3204    283.53483   -9.3948611    37655.765 
  720700    294.64005   -1503.2588    465.50268    283.15592    330.64519    37655.765 
  720800     312.2793   -1518.8769    452.09599    333.21041    279.12147    37655.765 
  720900    300.23973   -1489.8304    445.15331    301.33915    269.52041    37655.765 
  721000    296.76099   -1482.2026    449.28722    297.50521     36.89328    37655.765 
  721100    297.21517   -1519.8096    433.86667    246.51375   -377.79884    37655.765 
  721200    294.55742   -1471.4526    491.77893      340.868   -297.73975    37655.765 
  721300    306.25678   -1484.0071    484.53372    373.51809   -139.44082    37655.765 
  721400    291.65145   -1515.3546    458.64058    250.79978    45.972456    37655.765 
  721500    301.58199   -1491.8207    461.35864     321.5717   -546.15281    37655.765 
  721600    295.67431   -1490.6071    456.94634    291.88803   -185.46681    37655.765 
  721700    303.92542   -1488.8445    452.21129    325.90644    23.757322    37655.765 
  721800    301.87214   -1512.5266    467.93883    308.74678   -171.88172    37655.765 
  721900    287.57322   -1525.8599     472.1242    235.49481   -198.59119    37655.765 
  722000    298.58548   -1528.3385    464.43129     274.6928    378.16778    37655.765 
  722100    309.20331   -1557.5281    425.09182    253.76495    696.59226    37655.765 
  722200    297.28563    -1555.356    427.32464    204.74121    -262.3223    37655.765 
  722300    289.49928   -1569.5963    464.92825    193.19722   -115.68297    37655.765 
  722400    292.82776   -1580.6112    431.92069    164.09688    537.37193    37655.765 
  722500    300.20267   -1562.0228    468.57556    252.40288    237.20054    37655.765 
  722600    307.17672    -1570.895    463.26058    269.48133    65.862002    37655.765 
  722700    306.01826    -1545.005    448.62738    275.54451   -133.91648    37655.765 
  722800     307.7395   -1503.1313    452.62151    329.12899    562.61447    37655.765 
  722900    304.05112    -1503.078    473.85492    333.88015   -2.0539981    37655.765 
  723000    308.96871   -1519.8192    455.49231    320.82253    608.06787    37655.765 
  723100     299.9189   -1490.3427    467.10098    321.33617    380.20329    37655.765 
  723200    299.35015   -1483.6785    488.70889    347.05855   -113.80485    37655.765 
  723300     292.8063   -1456.1542    475.01968    331.55657   0.25716648    37655.765 
  723400    316.57087    -1513.376    452.96763     358.8226   -166.92826    37655.765 
  723500    291.63823   -1502.7418    448.16822    252.88097   -253.55709    37655.765 
  723600    299.63003   -1479.4383    437.92553    301.77005   -149.09967    37655.765 
  723700    298.42904   -1504.4193     452.9988    286.47816    304.68387    37655.765 
  723800    309.63635   -1470.5974    502.38254    419.92774    320.99728    37655.765 
  723900    299.29949   -1515.5325    465.47492    291.74339    336.30058    37655.765 
  724000    296.07207   -1530.4714    467.93146     264.7921   -88.248754    37655.765 
  724100    301.32604   -1560.2213    468.02606     258.6911    18.093375    37655.765 
  724200    301.07233   -1530.7693    445.96978     264.9494    -494.8987    37655.765 
  724300    294.04988   -1541.3367    471.40936    248.33897    -854.1206    37655.765 
  724400    296.55173   -1508.6684     474.2413    295.05528   -519.53756    37655.765 
  724500    314.01731   -1515.5982    450.90814    343.09295     476.9987    37655.765 
  724600    303.49927   -1509.6132    462.17529    313.19131    399.31399    37655.765 
  724700    303.27152   -1516.9043    481.20241    323.90626    736.49369    37655.765 
  724800    301.75953   -1507.5626    484.41817    329.68529    1027.2953    37655.765 
  724900    294.22851   -1516.4763    491.14213    293.73295    371.06096    37655.765 
  725000    292.02247   -1498.2126    454.45093    265.41543    167.13165    37655.765 
  725100    302.24717   -1532.9815     453.9042    275.93857   -162.76351    37655.765 
  725200    292.11701   -1513.1257    472.74332    269.21856   -18.213931    37655.765 
  725300    305.24301   -1521.5423    456.98217    303.88646    556.05196    37655.765 
  725400    309.19288   -1553.3115    450.30179    283.14472   -508.43866    37655.765 
  725500    293.72234   -1486.1127    461.21748    291.90269   -269.47552    37655.765 
  725600     301.7783   -1527.2936    479.38418    305.00441   -555.13996    37655.765 
  725700    291.71653   -1571.8086    437.72686    173.72381   -407.17144    37655.765 
  725800    287.97394   -1523.0282    458.73153    226.73035   -603.87475    37655.765 
  725900    304.49909   -1510.2524    451.36572    306.22491   -9.3533416    37655.765 
  726000    301.80924   -1510.0609    445.37677    288.36842   -196.57418    37655.765 
  726100    298.70666   -1503.0185    479.88046    316.00524    268.92658    37655.765 
  726200    303.08288   -1512.4611    462.62933     308.9307    103.13878    37655.765 
  726300    302.01579     -1504.14    434.12845    283.96702    161.12909    37655.765 
  726400    296.67903   -1528.4349    476.36217    277.98042   -109.17233    37655.765 
  726500    308.56089   -1510.2177    461.05825    334.16175   -31.053547    37655.765 
  726600    306.33232   -1500.7668    457.02933    329.59264    471.26992    37655.765 
  726700    294.13159   -1503.0824     468.0373    283.58748    -405.6654    37655.765 
  726800    291.16669   -1527.6851    437.75775    215.41324   -540.86933    37655.765 
  726900    300.74946   -1559.6467    464.30585     252.9606   -368.00581    37655.765 
  727000    303.21633   -1563.9125    457.02676    252.47501    -262.6738    37655.765 
  727100    296.56959   -1522.5244    454.32854    261.36668    183.31941    37655.765 
  727200     302.9959   -1528.3634    457.83135    287.84046   -299.53495    37655.765 
  727300    289.77721   -1505.9557    474.94494    268.10052   -453.02727    37655.765 
  727400    306.68954   -1477.6974    450.90234     348.1366    4.5066838    37655.765 
  727500    294.13752   -1521.0016    463.85471    261.51236   -225.61939    37655.765 
  727600    295.81235   -1507.0244    466.84014    285.98346    107.89346    37655.765 
  727700    303.50743   -1539.9805    472.80907    293.49433   -5.3658868    37655.765 
  727800    296.75957   -1521.8531    457.71522    266.27635     260.6897    37655.765 
  727900    306.21491   -1534.2862    450.97062    289.48823     88.40656    37655.765 
  728000      291.378   -1532.4843    460.99343    234.79699   -389.83237    37655.765 
  728100    304.62917     -1532.52    467.62235    300.79706    113.44688    37655.765 
  728200    292.59557   -1534.2746    443.42796    220.89972    167.49653    37655.765 
  728300    297.56931   -1529.4296    470.94633     275.5611    228.36116    37655.765 
  728400    309.08289   -1506.7199    491.44716    370.38864    128.73439    37655.765 
  728500    294.98609   -1504.6272    465.19791    283.03411   -180.12841    37655.765 
  728600    305.93864   -1497.0093    461.34463    335.90052    -343.4977    37655.765 
  728700    302.98566   -1495.8601    457.47877    319.94524    -57.47018    37655.765 
  728800    306.81703   -1528.5509    477.56657    324.51886   -6.9336938    37655.765 
  728900    302.36587   -1508.2974    463.06429    310.31494   -813.97599    37655.765 
  729000    301.14433   -1460.9468    472.33171    361.45663   -1037.8624    37655.765 
  729100    305.15283   -1512.8029    494.93085    350.17026   -925.28081    37655.765 
  729200    301.56357   -1519.4161     447.4043    279.93942    -1045.985    37655.765 
  729300    287.47796   -1484.3825    478.00554    282.42647   -166.30927    37655.765 
  729400    297.54952   -1482.5364     471.2793    322.69855    -54.09025    37655.765 
  729500    309.20729   -1493.6871    472.13458     364.6665    -383.9752    37655.765 
  729600    287.74423   -1494.9049     472.1393    267.23163    111.13381    37655.765 
  729700     309.0745   -1511.3865    456.18519    330.42244    330.55423    37655.765 
  729800     308.4211   -1534.3466    476.45181    324.79967    519.84526    37655.765 
  729900    295.33941   -1501.6401    478.44913    300.85644     269.6671    37655.765 
  730000    296.38263   -1486.4307    487.70727    330.00088   -64.861984    37655.765 
  730100    294.70199   -1511.9352    455.34285    264.59747   -82.775196    37655.765 
  730200    297.95843   -1547.1009    498.45116     287.1391    132.28704    37655.765 
  730300    307.96148   -1538.6631    458.60734     300.5781   -264.67047    37655.765 
  730400    306.93445   -1560.6679    465.75621    281.11788   -322.47432    37655.765 
  730500     305.0286   -1527.5415    502.73995    342.68388     105.1193    37655.765 
  730600    302.50415   -1572.8693    446.05839    229.35709   -289.82357    37655.765 
  730700     297.1011   -1516.2213    483.27133    298.99539    52.020191    37655.765 
  730800    289.98969   -1520.1797    473.87582    253.75996    182.82048    37655.765 
  730900    298.76071   -1497.9446    496.22735    337.66834    208.63207    37655.765 
  731000    285.07226   -1477.8832    480.85598    280.99118    493.54335    37655.765 
  731100    302.67048   -1539.0174    467.99407    285.89027    246.48676    37655.765 
  731200    300.29946    -1493.143    464.80141    317.94244   -760.19413    37655.765 
  731300    298.07058   -1463.4649     502.2168    375.04352   -1189.3924    37655.765 
  731400    301.01252   -1502.9926    480.56654    327.05472   -538.38578    37655.765 
  731500    301.24613   -1561.8724    453.77363    242.42927   -247.20759    37655.765 
  731600    300.04824   -1532.3734    467.47337    280.25772   -209.37129    37655.765 
  731700    283.21558   -1571.9418    481.76738    179.52021   -860.41882    37655.765 
  731800    309.33876   -1551.3668    430.69446    266.13608   -499.49301    37655.765 
  731900     294.2769   -1551.0177    458.18844    226.45476   -487.73054    37655.765 
  732000    297.80737   -1524.9433    466.67242    276.84069   -939.84136    37655.765 
  732100    286.99787   -1490.8308    456.44384    252.26417   -865.28554    37655.765 
  732200    283.14838   -1488.7606    475.41317    256.04587   -413.79041    37655.765 
  732300    309.89968   -1512.2474    477.12989    354.20565   -881.41856    37655.765 
  732400      314.294   -1499.3527    442.57179    352.24255   -272.48639    37655.765 
  732500    301.73564   -1480.7416    485.07687     357.0579    -582.5367    37655.765 
  732600    290.76904   -1486.3917    512.19667    329.36275    105.33793    37655.765 
  732700    300.27577   -1498.3714    459.64824    307.45461    362.16201    37655.765 
  732800    308.70841   -1559.4433    469.45605    293.99523   -372.48969    37655.765 
  732900    304.68108   -1482.6547    481.72592    364.99863   -160.64282    37655.765 
  733000    307.38586   -1523.1158     436.0201    290.95757   -451.15772    37655.765 
  733100    298.91428   -1511.6552    455.88578    284.30463   -198.99849    37655.765 
  733200    305.24161   -1527.8681    474.48836    315.06063   -450.10065    37655.765 
  733300    303.11172   -1504.4294    452.19433    306.65673   -3.3208043    37655.765 
  733400    297.95313   -1535.8963    454.80692    254.67576    179.24738    37655.765 
  733500    292.23756   -1505.3718    476.85709    281.62673    527.70582    37655.765 
  733600    296.96968   -1487.1604    470.94136    315.13709    455.39138    37655.765 
  733700    302.59493   -1497.7889     455.4376    314.22363    310.73602    37655.765 
  733800    303.18925   -1501.2081    446.39254    304.42385    340.69723    37655.765 
  733900    304.05691   -1499.7675    463.39734    326.75896   -47.709683    37655.765 
  734000    302.78229   -1544.6118    461.09976    273.90286   -736.72437    37655.765 
  734100    306.58346   -1535.1845    470.19261    309.46413    161.97197    37655.765 
  734200    303.89713   -1530.1975    462.54551    294.76088   -83.465779    37655.765 
  734300    301.17151   -1593.1204      461.676    218.74912   -59.940359    37655.765 
  734400    310.58223   -1546.5744    467.79926    313.60795    564.69549    37655.765 
  734500    294.97483   -1545.7462    460.77366    237.44045    6.2002415    37655.765 
  734600    298.26803   -1546.9761    465.13842    255.33919    436.51819    37655.765 
  734700    304.19783   -1528.9149    450.36906    285.21517    729.46945    37655.765 
  734800    301.73602   -1515.9321    479.74949    316.54169    853.07506    37655.765 
  734900    295.95942   -1540.9257    505.86132    291.76261    623.30761    37655.765 
  735000    296.62868   -1516.4709    481.67044     295.0269    542.35222    37655.765 
  735100    294.53059   -1525.4811    460.95105    255.89137    504.22338    37655.765 
  735200      300.685   -1511.8441    451.99964    288.16798   -58.326387    37655.765 
  735300    314.43475   -1508.1544    463.01902     364.5191    167.70075    37655.765 
  735400    302.67223   -1554.2572    466.65408    269.31835    36.116198    37655.765 
  735500    304.75214   -1528.4387     459.5768    297.38413    217.83826    37655.765 
  735600    298.62137   -1531.3016    459.78899    267.24829    174.55139    37655.765 
  735700    302.91822   -1522.0101    467.98565     303.9998   -83.305496    37655.765 
  735800    295.67648   -1499.0887    438.91751    265.38735     408.9333    37655.765 
  735900    305.36244   -1522.6953    478.27285    324.55956    33.199981    37655.765 
  736000    297.25639   -1504.4259    469.19028    297.40589    626.94849    37655.765 
  736100    308.17272   -1510.0011    463.40861    334.98843    319.03371    37655.765 
  736200    307.84502   -1513.1385    491.81136    358.78463    -229.7626    37655.765 
  736300     303.0954   -1511.9504    444.54973    291.41797    -269.4878    37655.765 
  736400    306.82741   -1499.4756    489.31199     365.3861   -562.23812    37655.765 
  736500    298.87382   -1524.1993    473.51904    289.21245   -642.27017    37655.765 
  736600    308.25822   -1486.0923    482.24526    378.11715   -901.40896    37655.765 
  736700    295.74175   -1529.4017    464.18612    260.63556   -552.75784    37655.765 
  736800    301.91252   -1540.0334    454.19192    267.67409   -784.49407    37655.765 
  736900    305.68613   -1502.5685    495.58587    363.45052   -744.97115    37655.765 
  737000    302.91425   -1503.3088    499.22385    353.92155   -166.84437    37655.765 
  737100    302.08947   -1505.0726    466.26024    315.49658    99.386482    37655.765 
  737200    301.97701   -1489.0352    473.79399    338.56343    192.64971    37655.765 
  737300    300.52428   -1473.1163    481.81619    355.99183    309.19325    37655.765 
  737400    314.21203   -1466.7365    487.67397    429.59342    252.91656    37655.765 
  737500    297.31896   -1454.7187    496.86914    375.07249    19.945523    37655.765 
  737600    300.96049   -1454.8891    482.03066    376.38911   -85.981939    37655.765 
  737700    307.30726    -1461.248    479.17623    395.62919    100.91769    37655.765 
  737800    302.33316    -1512.858    463.94024    306.48364     366.2945    37655.765 
  737900    300.80736   -1525.0354    468.34397    291.86955    113.90591    37655.765 
  738000    295.82257   -1503.6602    480.27994     302.8332    6.0215469    37655.765 
  738100    301.32693    -1490.116    472.25717    333.03143    304.98491    37655.765 
  738200    291.09387   -1508.2549     479.3382    276.09738    283.77135    37655.765 
  738300    303.43477   -1530.7723    462.88244    292.45012    147.51844    37655.765 
  738400    295.17071   -1516.7891    482.56636    289.06835    524.26104    37655.765 
  738500    297.95204    -1540.754    477.33887    272.34503    407.45744    37655.765 
  738600    308.24624    -1538.492     486.8184    330.23698   -44.525506    37655.765 
  738700    290.58621   -1563.2509    468.22337    207.71066   -71.683391    37655.765 
  738800    300.63822   -1526.3119    477.56399    299.05483    83.947396    37655.765 
  738900    298.00832   -1532.2003    489.05224    292.86449     275.0931    37655.765 
  739000     308.4817   -1525.6687    466.12487    323.42233    131.46927    37655.765 
  739100    298.94908   -1507.1907    478.98204    312.02137    140.56806    37655.765 
  739200    299.47086   -1542.5285     475.1943    275.23505    624.36626    37655.765 
  739300      295.011   -1487.8855    479.33992    314.02958    418.20379    37655.765 
  739400    294.29375   -1522.6641    500.93642    297.63186    128.79986    37655.765 
  739500    308.90996   -1514.5472     471.0729    341.41172    512.85717    37655.765 
  739600    303.35145   -1512.0885    451.62533    299.50338   -89.470159    37655.765 
  739700    303.13078   -1513.6294    460.64515    305.99298    141.44111    37655.765 
  739800    299.46748   -1549.3974    464.52238     257.6791    27.844608    37655.765 
  739900    292.23179   -1523.8806    468.63665    254.87154   -58.665756    37655.765 
  740000    305.35533   -1547.0864    469.73203    291.59585   -383.59651    37655.765 
  740100    295.16511   -1535.7596    467.13599     254.6424   -603.29393    37655.765 
  740200    307.04051    -1586.796    449.97929     239.6884   -834.24616    37655.765 
  740300    287.36082    -1583.529    457.67737    162.42669   -448.10011    37655.765 
  740400    301.22409   -1596.3916    465.38205    219.41971   -174.74727    37655.765 
  740500     300.1655    -1569.033    479.32053    255.97097   -218.99569    37655.765 
  740600    303.51961   -1494.0764     468.2953    334.93932     320.4687    37655.765 
  740700    306.66507   -1508.4483    501.30594    367.67958    242.79979    37655.765 
  740800     290.6425    -1526.593    458.97469    235.37219    477.09991    37655.765 
  740900     300.0709   -1542.2164    492.75184    295.79472    127.08497    37655.765 
  741000    302.07452   -1534.7868    453.26446    272.71955  -0.92192485    37655.765 
  741100    311.70603   -1499.4261    485.99495    383.99007    141.67687    37655.765 
  741200    304.70113   -1532.7172    492.34514    325.64523    115.91359    37655.765 
  741300    298.50439   -1565.3754    470.01251    242.87359   -223.41099    37655.765 
  741400    294.77508   -1559.4865    479.39919    241.43013   -200.22532    37655.765 
  741500    306.72087   -1555.8581    448.10433    267.31829    201.86667    37655.765 
  741600     306.1552   -1519.1315    494.07262     347.4772     104.7656    37655.765 
  741700    299.73223   -1541.8605    471.84095    273.72155    189.58176    37655.765 
  741800    302.73298   -1533.8378    500.56375    323.91977   -10.644442    37655.765 
  741900    306.09074   -1560.6237    502.27253    313.89595    459.42943    37655.765 
  742000    297.54271    -1561.382    474.12368    246.66678    156.89968    37655.765 
  742100    306.62587   -1539.3225    478.96264    314.28635    275.05392    37655.765 
  742200    299.36786   -1547.8088    491.55641     285.8551   -221.23698    37655.765 
  742300    297.61999   -1549.8978    488.11803    272.49175    430.73263    37655.765 
  742400    302.24857   -1524.8244    497.07071    327.26848    65.079932    37655.765 
  742500    300.90784   -1588.0337    461.98036    222.95819   -63.568888    37655.765 
  742600    293.94233   -1565.8379    474.48771    226.43394   -578.77749    37655.765 
  742700    297.90758   -1593.3779     479.3273    221.51025    295.34755    37655.765 
  742800    295.07047   -1562.7778    494.02341     254.0873    544.43987    37655.765 
  742900    289.52013   -1604.9243     482.9639    175.99843     279.9421    37655.765 
  743000     290.4728   -1556.4404     497.7117    243.50105    36.434596    37655.765 
  743100    299.30017   -1545.0742    457.38752    254.11745   -288.41448    37655.765 
  743200    298.45999   -1565.0715    495.02318    267.98904    150.64596    37655.765 
  743300    295.27629   -1558.9592    472.77177    237.57707    203.92059    37655.765 
  743400    310.43179   -1578.1585    463.32522    276.87539    941.54466    37655.765 
  743500     306.5868   -1567.2932    493.51091    300.68879    972.68651    37655.765 
  743600    302.54634   -1586.0126    499.02576    269.37028    1011.4006    37655.765 
  743700    304.66186   -1538.7388    483.06903    310.17151    829.35215    37655.765 
  743800      297.127   -1567.4967    474.72922    239.29392     966.9286    37655.765 
  743900    289.97855   -1586.7718    465.22818    178.47035    1061.4048    37655.765 
  744000    301.38363   -1575.7182    492.99648    268.42275    490.14938    37655.765 
  744100    307.89128   -1583.5725    487.20726    283.95392    446.36149    37655.765 
  744200    291.02937   -1572.4055    487.26411    219.58354   -95.597799    37655.765 
  744300    297.77431   -1559.1653    476.96699    252.76505    145.86097    37655.765 
  744400    297.63017   -1558.9906    470.16596    245.49254   -146.18017    37655.765 
  744500     302.0036   -1579.0675    500.96254      275.819   -188.90972    37655.765 
  744600    292.18545   -1541.8554    465.35353     233.4059     228.0509    37655.765 
  744700    303.11777   -1554.3794    499.46768    304.00717   -339.45998    37655.765 
  744800    295.89525   -1513.3202    501.56928    314.78841   -23.348141    37655.765 
  744900    300.58129   -1525.8025    485.29359    307.03858    -339.2249    37655.765 
  745000    303.85336   -1567.2608    494.15856    289.11439    -375.2524    37655.765 
  745100    297.59739   -1559.4349    453.69685    228.43224   -268.65998    37655.765 
  745200    305.19515   -1570.6222    507.41515    305.02502    317.07464    37655.765 
  745300    315.12208   -1570.4458     482.7634    325.05343    47.866931    37655.765 
  745400    294.36716   -1561.4546    469.10446    227.33856    757.79666    37655.765 
  745500    299.41528   -1544.1112     491.3631      289.572    159.17997    37655.765 
  745600    309.02414   -1546.1777    500.06988    339.29012    408.95061    37655.765 
  745700    287.71288   -1568.1973    500.84713    222.50651    360.26383    37655.765 
  745800    286.69863   -1520.5323    514.00521    278.78251    30.837563    37655.765 
  745900    301.10755   -1490.0638    501.40584    361.24882    206.27436    37655.765 
  746000    302.74094   -1517.7258    496.58906    336.09275   -371.62158    37655.765 
  746100    294.40004   -1504.2667    483.49983    299.06926    -639.6334    37655.765 
  746200     305.6486   -1517.7981    496.34016      348.807    -647.4826    37655.765 
  746300    304.25665   -1553.5442    516.63957    327.11999   -296.48917    37655.765 
  746400    293.59606   -1567.0952    464.49182    213.62833    238.92574    37655.765 
  746500    304.83624   -1618.3472     489.9116     238.1874     109.0028    37655.765 
  746600    298.81071   -1564.6766    473.44655    248.37974   -104.78501    37655.765 
  746700    303.61708   -1553.6916    475.08359    282.54931   -132.18139    37655.765 
  746800    302.74781   -1524.2801    458.38324    291.36343   -176.68443    37655.765 
  746900     305.0692   -1543.6793     479.9547    303.94277   -162.48067    37655.765 
  747000    303.72849   -1541.0105    514.38912     335.0355    173.28916    37655.765 
  747100    301.25071   -1532.2063    458.84256    277.18484   -336.64521    37655.765 
  747200    292.31737   -1543.5344    461.08568    228.05049    -1090.385    37655.765 
  747300    303.83252   -1557.2059    444.35695    249.27425   -877.96175    37655.765 
  747400     310.4666   -1482.6677    472.39704     381.5941   -445.43404    37655.765 
  747500    294.49568   -1500.4833    487.99562    307.77723   -117.73163    37655.765 
  747600     292.1217    -1507.783     469.8785    271.71751   -338.24763    37655.765 
  747700    281.64012    -1525.055    502.60243    240.17906   -57.917911    37655.765 
  747800    289.23687   -1525.1832    504.28483    275.79051   -446.43446    37655.765 
  747900    305.55503   -1508.2669    502.19649    363.77505   -315.40544    37655.765 
  748000    307.55964    -1529.814    474.50276    323.52118   -595.98367    37655.765 
  748100    297.97529   -1490.7281    449.23664    294.37295   -425.23159    37655.765 
  748200    294.48264   -1529.9169    499.08753      289.377   -518.26694    37655.765 
  748300     288.6624   -1535.1301    477.65056     236.6339   -441.75008    37655.765 
  748400     298.2012   -1535.3858    486.45168    287.94306      294.093    37655.765 
  748500    309.36605   -1529.8419    475.21511    332.30399    276.01689    37655.765 
  748600     292.1073   -1544.7808    496.60371    261.38035    636.19277    37655.765 
  748700    301.33531   -1486.9687    490.85624    354.81537    310.20728    37655.765 
  748800    296.73014   -1505.5843    483.03367    307.73166   -96.167362    37655.765 
  748900     301.5865   -1534.1599    458.98471    276.87882    82.575132    37655.765 
  749000    307.14062   -1534.3522    471.33844    313.94006     623.1277    37655.765 
  749100    297.41887   -1540.0009    477.46186    270.83094    415.93704    37655.765 
  749200    299.79662   -1534.8824    485.92515    295.07243    566.56466    37655.765 
  749300    311.21997    -1510.797    484.06601    368.51117    678.01226    37655.765 
  749400    294.37392   -1503.8441    469.02974     284.9047    408.61109    37655.765 
  749500    292.93268    -1503.567    473.92176    283.61247   -572.10896    37655.765 
  749600    303.96846   -1473.2237    463.56361    353.07254   -299.85126    37655.765 
  749700    304.21728   -1507.2516    479.97095    336.56747   -56.159541    37655.765 
  749800    299.45863   -1523.6053    474.24312    293.15227   -564.78323    37655.765 
  749900    295.43733   -1506.4972    485.29017    303.27933   -532.36721    37655.765 
  750000    293.82998   -1530.4523    483.79254    270.62068    820.45279    37655.765 
  750100    300.44009   -1535.2239    501.94082    313.63141    740.21391    37655.765 
  750200     294.4479   -1531.0227    463.64598    252.67392    225.34269    37655.765 
  750300    302.15328   -1516.6817     457.8396    295.75288    452.09616    37655.765 
  750400    296.55894   -1521.5037    484.62171    292.63281    373.20071    37655.765 
  750500    301.28589   -1515.0959    443.32507    278.93548    165.20658    37655.765 
  750600     296.8809   -1521.3956    482.60643    292.16899    263.05562    37655.765 
  750700    296.83593   -1541.9689    480.85592    269.64361    966.61523    37655.765 
  750800     304.0352     -1547.01    483.65163    299.67346    929.07728    37655.765 
  750900    301.65719   -1518.6859    493.89219    327.57718    847.43735    37655.765 
  751000    311.76466   -1557.3795    460.61884    300.92341    645.30427    37655.765 
  751100    305.51919   -1610.1613    463.58467     223.1082    605.54571    37655.765 
  751200    301.04156   -1532.9362    485.11725    301.79198    68.122941    37655.765 
  751300    299.06096    -1531.859    457.80742    266.68005    635.01433    37655.765 
  751400    302.08152   -1547.1608    481.45124    288.56365    511.20291    37655.765 
  751500    305.84551    -1572.251    490.20674    289.10349    250.92375    37655.765 
  751600    296.50176   -1584.4914     467.4189    212.18593   -0.7819227    37655.765 
  751700     299.5099   -1523.0741    464.29643    283.96661   -606.11272    37655.765 
  751800    308.66671   -1520.8282    491.80676    354.77413   -731.53455    37655.765 
  751900    303.48402   -1532.0061    457.89086     286.4456   -729.95827    37655.765 
  752000    304.04098   -1490.9878    478.63471    350.70463   -521.20898    37655.765 
  752100    301.52645   -1502.0386    473.14302    322.88915   -159.35882    37655.765 
  752200    303.46942   -1498.4942    492.20002     354.2012    67.450763    37655.765 
  752300    302.59787   -1496.5762    489.90932    349.92122   -16.667321    37655.765 
  752400    295.65972   -1484.1838    493.82524    335.12481   -513.08427    37655.765 
  752500    293.39052   -1490.5851    483.16917    307.89433    415.65427    37655.765 
  752600     294.1939   -1477.3998    511.29202    352.80421    277.33881    37655.765 
  752700    294.76179   -1522.0785    479.41111    278.79045    65.417203    37655.765 
  752800    299.66368   -1490.8988    503.22139    355.75627    369.11622    37655.765 
  752900    290.98173   -1491.9733    476.10516    288.64317    315.79793    37655.765 
  753000    294.82511   -1506.9675    483.45795     298.2322   -47.952644    37655.765 
  753100    292.42607   -1511.6707    464.18868    263.50448   -195.20073    37655.765 
  753200    300.53508   -1485.0978    504.57972    366.82227   -555.44196    37655.765 
  753300    305.29089    -1523.051     448.7673    294.37755   -245.68901    37655.765 
  753400    306.40402   -1507.4877    512.49928    378.66322   -336.01875    37655.765 
  753500    293.92649   -1546.3817     465.8181    237.14951    99.249294    37655.765 
  753600    295.71908    -1532.839    488.62159    281.53217    325.62791    37655.765 
  753700    301.56147   -1555.5689    479.00916    275.38205    125.53809    37655.765 
  753800    302.01597   -1498.0401    470.09882    326.03805     98.51725    37655.765 
  753900    295.09384   -1568.0663    488.18916    243.06934    466.16874    37655.765 
  754000    307.36052    -1521.847    478.25772    334.35045     478.3448    37655.765 
  754100    293.31093   -1546.0079    506.65487    275.60045     1516.669    37655.765 
  754200    294.13966   -1518.8476    485.24227    285.06343    359.87786    37655.765 
  754300    286.29344   -1495.6277    522.00212    309.86752     281.0548    37655.765 
  754400    298.49484   -1492.1437    486.21862    332.26863    338.96522    37655.765 
  754500    292.32357   -1499.2679     490.5964    301.85546    94.253792    37655.765 
  754600    302.06599    -1491.329    512.21566    375.09034   -228.95792    37655.765 
  754700    308.28398   -1527.7017    465.64978    320.02775   -49.273466    37655.765 
  754800    300.21296   -1513.5256    501.45057    333.82118   -812.54929    37655.765 
  754900    306.59953   -1499.3717    460.72127    335.87766   -397.61971    37655.765 
  755000    295.20875   -1515.4353    489.66717    297.69352   -607.44605    37655.765 
  755100    300.10673     -1472.81    504.30259    376.91258   -386.26414    37655.765 
  755200    295.26511   -1519.7141    480.05534    284.05561    187.50454    37655.765 
  755300    313.61926   -1524.1074    483.44262    365.33372    68.133672    37655.765 
  755400    300.28199   -1502.8879     480.3492    323.66701    345.96172    37655.765 
  755500     291.4355   -1487.1931    473.37613     292.7287    419.10275    37655.765 
  755600    294.00423   -1558.9838    492.03125    251.10909    112.75235    37655.765 
  755700    293.72992   -1556.5712    481.00658    241.26718   -472.65204    37655.765 
  755800    293.93592   -1557.7863    471.95089    231.92002   -848.00176    37655.765 
  755900    292.95319   -1582.8552    484.18126    214.67581   -443.98278    37655.765 
  756000    301.83004   -1564.4862    446.33432    234.99392    -427.7836    37655.765 
  756100    301.62767   -1592.5627    476.20471    235.88058     84.75682    37655.765 
  756200    298.85505   -1588.3602    462.69913    214.14746   -296.24504    37655.765 
  756300    299.25801    -1515.493     498.6139    324.73597   -436.86801    37655.765 
  756400    302.91047   -1542.8501    469.23323    284.37263   -129.07642    37655.765 
  756500    300.89781   -1552.0393     480.3592    277.28637    -557.7744    37655.765 
  756600    302.19687   -1570.8279    468.23705    252.19953   -3.4314307    37655.765 
  756700    295.22019   -1541.4817    470.72138    252.75267   -3.9839804    37655.765 
  756800    284.88364   -1523.9134    495.00455    248.26393    93.526757    37655.765 
  756900     305.3428   -1519.5534    478.82944    328.17006    128.45494    37655.765 
  757000    299.10688   -1540.1948     480.0637    280.80641    342.50241    37655.765 
  757100     294.8777   -1551.5176    488.05791    258.51783   -68.983793    37655.765 
  757200    304.28325   -1545.8718    498.60281    316.87495    175.06764    37655.765 
  757300    301.98462   -1528.9818    474.57765    299.43474     343.2975    37655.765 
  757400    306.25645   -1575.7122    485.62753    282.90538    114.18463    37655.765 
  757500    312.44281   -1531.4313    498.18895    367.48199    401.71428    37655.765 
  757600    292.89949   -1539.2185     471.7827    245.67309    9.4646567    37655.765 
  757700    303.39469   -1517.2275    493.88019    336.81307    144.01598    37655.765 
  757800    294.89452   -1554.5112     499.0263      266.568     188.5485    37655.765 
  757900    286.74168    -1551.071    469.33823    203.76979   -248.23387    37655.765 
  758000    296.54718   -1572.0154    482.27275    239.71932   -78.330517    37655.765 
  758100    290.65525   -1567.8944    446.56776    181.72108   -122.27062    37655.765 
  758200    303.23292   -1570.6652    438.77857    227.54844   -512.42735    37655.765 
  758300    290.74101   -1563.5875    473.76769    213.61238   -449.49842    37655.765 
  758400    296.59483   -1569.8517    504.58088    264.40481   -408.80016    37655.765 
  758500    304.24544   -1593.0731     461.8174    232.71866    -308.9166    37655.765 
  758600    301.07762   -1574.5357    489.23997    264.47684   -523.22358    37655.765 
  758700    302.77734   -1551.1815    484.35865    290.56983    -1094.011    37655.765 
  758800    295.06195   -1572.0989    474.41561    225.12026   -619.38771    37655.765 
  758900    296.63196   -1573.2057     472.9084    229.54482   -423.40779    37655.765 
  759000    301.63871   -1584.5514    489.83397    257.57062   -517.32053    37655.765 
  759100    298.67278   -1557.1488    467.08011    248.92269   -551.88086    37655.765 
  759200    291.81975   -1498.6132    501.81054    311.46569   -1255.8994    37655.765 
  759300    299.38886   -1487.8565     472.2146    326.55981   -928.89531    37655.765 
  759400    298.15593    -1493.019    478.83979    322.49512   -411.81602    37655.765 
  759500    309.84183   -1539.5444    487.98159    337.50097    35.631149    37655.765 
  759600    304.92408   -1528.3844    493.75008    332.38252     441.8788    37655.765 
  759700    306.19707    -1532.546    476.90876    317.08658    627.85247    37655.765 
  759800    285.17192   -1506.5187    504.89055    276.83699    -190.9255    37655.765 
  759900    291.25103   -1516.3986    486.07673    275.39676   -190.20133    37655.765 
  760000    292.20791    -1520.869    485.85842    274.99792    69.211238    37655.765 
  760100    303.10006   -1556.0778    489.68038    292.44207    356.49769    37655.765 
  760200     311.3196    -1552.053    482.01201     325.6478    1040.4479    37655.765 
  760300    299.76096   -1562.2514    502.81943    284.43792    818.70593    37655.765 
  760400    303.50415   -1552.0451    483.74147     292.3474    84.700275    37655.765 
  760500    291.06154   -1547.4439    479.05344    236.47868   -299.37461    37655.765 
  760600    295.09985   -1545.1092    489.75612     267.6204    91.931112    37655.765 
  760700    310.72668   -1597.8527    476.66653    271.84456   -280.50502    37655.765 
  760800    303.06427   -1558.9496    477.77084    277.50031    453.26001    37655.765 
  760900     299.9743   -1583.9367    445.92424    206.81387    39.738089    37655.765 
  761000    295.55161   -1558.2168    491.27926    258.06122   -204.28354    37655.765 
  761100    306.64542   -1531.7813    484.84709     327.7996   -261.05254    37655.765 
  761200    302.41638   -1526.8401    486.07099    315.00531   -378.27415    37655.765 
  761300    288.81911   -1512.7493     466.7066    248.77335   -634.37729    37655.765 
  761400    302.26952   -1543.0035    489.23758    301.35018   -610.34867    37655.765 
  761500    298.19281   -1516.2767    461.22615    281.78908   -512.49672    37655.765 
  761600     300.7759   -1513.8123    491.95303    326.56063   -720.78963    37655.765 
  761700    295.26573   -1516.1153    493.89778    301.49961   -19.802403    37655.765 
  761800    304.82643   -1506.2736    497.81761    358.12311    89.028442    37655.765 
  761900    290.78178   -1503.4403    499.07759    299.25222    64.028536    37655.765 
  762000    315.09642   -1534.5039    484.04023    362.15723    175.51736    37655.765 
  762100    293.52528   -1543.7709    509.75433    281.89789    397.02557    37655.765 
  762200    295.86561   -1513.2061    500.70728    313.90759    261.64948    37655.765 
  762300    298.10253   -1515.7474    476.09507    296.78254   -45.142256    37655.765 
  762400    313.82776   -1554.7791    496.86139     349.0156    336.86885    37655.765 
  762500    292.36253   -1512.9613    492.49858    290.23892    64.345815    37655.765 
  762600    296.09732    -1493.427     508.8022     342.8204   -411.94109    37655.765 
  762700    301.72341   -1534.9723    485.81233    303.50777   -654.18973    37655.765 
  762800    312.03397   -1513.6375     494.8819    380.13585    38.048248    37655.765 
  762900    304.82339   -1474.3454    510.96564    403.18567   -256.80087    37655.765 
  763000    305.36753   -1526.3737    499.40864    342.03981    -331.1999    37655.765 
  763100    299.36364   -1481.2765    503.00089    363.81301   -549.06803    37655.765 
  763200    297.77443   -1508.6141    499.50208    325.85196   -540.02739    37655.765 
  763300    293.38538   -1518.0588     491.7195    288.94796   -298.43837    37655.765 
  763400    306.85753   -1536.7065    501.10161    340.07986    35.384716    37655.765 
  763500     296.2775    -1546.043    503.76903    285.97902    467.73249    37655.765 
  763600    302.13506    -1538.468    487.55719    303.60251    247.69897    37655.765 
  763700    306.11873    -1523.803    487.43234    336.00189    463.78743    37655.765 
  763800    293.07911   -1494.0444     513.7754    333.64519    237.54963    37655.765 
  763900    298.51831   -1513.4794    508.54977    333.36925   -295.28957    37655.765 
  764000    309.97074   -1589.9333    459.64065    259.34905    32.035375    37655.765 
  764100     287.2111   -1557.0712    476.61116    207.14704    96.833939    37655.765 
  764200    300.89524    -1568.648    486.81568     267.1226    294.22481    37655.765 
  764300    302.19919   -1566.3366    459.97656    248.44076    26.671506    37655.765 
  764400    303.49358   -1559.0419     482.8642    284.42596   -182.29448    37655.765 
  764500    307.71401   -1534.3317      485.651    330.84378   -316.15737    37655.765 
  764600    294.50256   -1543.1613      491.644    268.77838   -107.53645    37655.765 
  764700    299.75118   -1534.7641    485.27124    294.33316    319.95012    37655.765 
  764800    301.84185   -1559.3756    475.16927    268.99242    639.00307    37655.765 
  764900    290.35232   -1567.5701    477.94956    212.06904    704.19527    37655.765 
  765000    310.36309   -1543.2717    465.99121    314.12018    642.69011    37655.765 
  765100    303.75139   -1522.4646    486.18032    325.47519    327.41314    37655.765 
  765200    298.37367   -1499.3839    495.89457    334.16105    260.22588    37655.765 
  765300    289.58137    -1563.347    482.67106    217.55737   -148.87351    37655.765 
  765400    293.04134   -1593.1271    476.10461    196.72234     -509.981    37655.765 
  765500    296.12876   -1567.6876    486.88726    246.78586    246.93262    37655.765 
  765600    302.29088   -1566.3847    486.81697    275.64411    452.97721    37655.765 
  765700    318.15357   -1562.2593     483.5459    347.61308    546.81283    37655.765 
  765800    301.09427    -1526.121    504.98536    328.71162    414.86856    37655.765 
  765900    301.70203   -1493.2838    488.39071    347.67884    319.73267    37655.765 
  766000    298.22938   -1497.0718    498.98944    338.92119   -28.817041    37655.765 
  766100    297.81402   -1501.5854    478.99345     312.5495   -205.99015    37655.765 
  766200    299.16044    -1506.583     498.9076    333.50218   -383.10858    37655.765 
  766300    290.99884   -1508.1137    475.06435    271.53867   -364.22598    37655.765 
  766400    285.90106   -1513.9127    478.53427    246.35551   -674.50138    37655.765 
  766500    299.02427   -1514.4127    470.74286    296.89731   -557.85319    37655.765 
  766600    304.13276   -1492.4483    500.95925    371.98021   -141.88657    37655.765 
  766700    302.91276    -1546.138    483.33223    295.19405   -415.90017    37655.765 
  766800    294.54076   -1538.8543     468.5976    250.21025   -280.13807    37655.765 
  766900    299.91473   -1499.2808    486.70882    331.98724    16.937829    37655.765 
  767000    304.84531   -1510.8541    484.86134    340.67088    10.762993    37655.765 
  767100    297.74883   -1504.7502    459.70245    289.80143    862.05328    37655.765 
  767200    301.95698   -1498.2663    466.99519    322.44383    154.69617    37655.765 
  767300    307.77143   -1556.7006    465.34206    288.42339    856.37473    37655.765 
  767400    297.07404   -1520.1038    497.88469    309.60493    845.25242    37655.765 
  767500    299.14144   -1500.6461    492.82826    333.27458    573.45171    37655.765 
  767600    301.98433   -1509.3949    477.65055    322.09319    524.96652    37655.765 
  767700    296.39433   -1545.5443    467.65896    250.89148    88.783969    37655.765 
  767800    290.40208   -1517.2691    459.66223    244.30579   -151.23049    37655.765 
  767900    309.37422   -1525.4334    458.28798    319.82197    565.37462    37655.765 
  768000    288.26824   -1526.5759    475.26777    241.03826    408.16505    37655.765 
  768100    298.89644   -1524.6721    496.49127    311.81327    237.50933    37655.765 
  768200    300.38938   -1486.4208    462.51108    322.77739    47.593849    37655.765 
  768300    307.38551   -1453.2056    516.21245    441.05856    160.37271    37655.765 
  768400    305.37419   -1513.6755    457.05028    312.40951    156.33784    37655.765 
  768500    293.77308   -1535.7144    461.61028    242.92122    145.10466    37655.765 
  768600    295.06684   -1511.4878    469.92499    281.26265   -125.12872    37655.765 
  768700    296.05588   -1517.9324    466.27694    275.60402   -196.93069    37655.765 
  768800    293.69648   -1517.0061    449.37035    249.04622    -503.6106    37655.765 
  768900    298.56133   -1573.6013    441.54395    206.43438   -237.67719    37655.765 
  769000    305.31957   -1522.5197    455.32626    301.59642    -451.9536    37655.765 
  769100      292.474    -1555.882    464.34325     219.6626   -60.771605    37655.765 
  769200    295.60492   -1552.7943    455.04978    227.49322   -320.06018    37655.765 
  769300    292.84555   -1511.0376     448.2047    250.03415   -704.69547    37655.765 
  769400    300.56139   -1567.7496    442.10008    221.80873   -664.57853    37655.765 
  769500    300.05835   -1538.1712    462.92561    269.95745   -484.14096    37655.765 
  769600    301.34384   -1543.6221    457.76532    265.10936    472.14746    37655.765 
  769700    302.40339   -1543.3378    454.78043    267.15887   -393.62597    37655.765 
  769800    290.69687   -1533.7108    472.82597     242.3495    233.67522    37655.765 
  769900    294.16964   -1495.7278     485.1731    308.24845    -366.3513    37655.765 
  770000    292.28438   -1520.4124    458.18772    248.12667   -618.26277    37655.765 
  770100    293.09962   -1526.8491    469.79482    256.95187   -322.68816    37655.765 
  770200    307.13724   -1502.9501    475.11969    349.10828    8.5044788    37655.765 
  770300    304.11147   -1533.7594    455.20428    284.81871   -6.6196844    37655.765 
  770400    303.13549   -1528.5623     475.2068     305.6428    687.25562    37655.765 
  770500     296.6693   -1514.8042    472.64036    287.84563    810.35069    37655.765 
  770600    293.46292   -1502.3271    459.07839    272.38619   -6.0658249    37655.765 
  770700    293.80713   -1536.2068    449.57011    230.54127   -216.26312    37655.765 
  770800     301.4144   -1499.3348    471.87894    323.82662    79.797799    37655.765 
  770900    306.89768   -1480.4579    448.66591     344.0728    614.53979    37655.765 
  771000    309.18533     -1494.84    471.82527    363.10592    438.28556    37655.765 
  771100    290.35642   -1497.5572    482.92155    287.07236   -471.20876    37655.765 
  771200    292.41471   -1493.3376     465.5135    283.11148   -631.15288    37655.765 
  771300    298.66521   -1497.1482    474.68847    316.49775    276.87239    37655.765 
  771400    299.78089   -1483.3208    487.38292    348.02137    269.14802    37655.765 
  771500    295.85274   -1527.3307    457.15443    256.17246   -399.78868    37655.765 
  771600    293.14859   -1474.9666     443.5287     282.7878    140.82761    37655.765 
  771700    295.83968   -1502.8084    490.53479    314.01661    52.610738    37655.765 
  771800    292.94483     -1466.41    462.92526    309.82746   -220.14602    37655.765 
  771900    296.58488   -1490.0829    448.01835    287.56649    52.078878    37655.765 
  772000    305.62343   -1482.5189    470.07188    357.70507    407.82909    37655.765 
  772100    302.93185   -1466.2287    454.97837      346.835    175.26218    37655.765 
  772200    299.14163   -1495.6472    474.05519    319.50127     340.3804    37655.765 
  772300    305.48931   -1534.2551    454.06987    289.36555    604.71882    37655.765 
  772400    297.26154   -1474.5707    442.34907    300.44298    537.86212    37655.765 
  772500     304.3627   -1480.9603    457.04155    340.58136   -21.205956    37655.765 
  772600    298.45975   -1457.8555    460.79068    340.97151    209.22283    37655.765 
  772700    288.05736   -1504.2651    455.61331    242.74919   -202.15858    37655.765 
  772800    304.09835   -1486.4425    480.14994    357.02241    55.985856    37655.765 
  772900     293.7726   -1514.2966    465.35008    268.07667   -340.08757    37655.765 
  773000    291.20503   -1483.9254    459.64404    281.23106   -333.03627    37655.765 
  773100    289.34114    -1513.037    454.37055    238.48988    -293.5101    37655.765 
  773200    299.43966   -1488.5899    482.49047    336.32995   -702.90923    37655.765 
  773300     292.0186   -1490.1011    478.07038    297.12909   -228.67213    37655.765 
  773400    296.70416   -1444.5111    465.75906    351.41371   -449.08294    37655.765 
  773500    298.58118   -1468.8081    444.18353    313.95615   -423.58671    37655.765 
  773600    285.37552   -1448.5938    454.43446    285.21864   -775.46934    37655.765 
  773700    300.30458   -1503.0541    419.62701    262.87984    -426.8862    37655.765 
  773800    299.83777   -1467.4973    454.48742    331.20435   -165.11009    37655.765 
  773900    297.11382   -1513.4644    465.57549    284.11347   -245.57226    37655.765 
  774000    299.55988   -1485.7288     442.9992     300.2388    69.800523    37655.765 
  774100    291.57248   -1430.5075    458.60932    335.26161     12.80914    37655.765 
  774200    295.18317   -1435.3782    467.38379    355.35257    364.89211    37655.765 
  774300     309.1298   -1491.1446    452.17278    346.89978    240.21946    37655.765 
  774400    290.97001   -1463.8132    439.20685    279.85247    411.46049    37655.765 
  774500    299.17096   -1486.4602    455.77741    310.54202    458.65789    37655.765 
  774600    305.63157   -1461.5514    459.10298    367.74014    629.64946    37655.765 
  774700    307.45987   -1486.7898    456.15135    347.74668    214.94533    37655.765 
  774800    294.67183   -1463.7207    469.34987    326.68369    571.55671    37655.765 
  774900    302.78918   -1469.4141    456.56856    344.60025    457.17318    37655.765 
  775000    309.67104   -1422.6528    453.06645     418.7118   -67.959548    37655.765 
  775100    295.53523   -1436.7249    438.98831    327.18871     28.84489    37655.765 
  775200    300.30782   -1461.5298     454.1199    338.91163    146.62806    37655.765 
  775300     305.3592   -1453.8726    480.24454    395.33942    323.29196    37655.765 
  775400    300.54361   -1391.1577    461.89592    418.11678    155.24004    37655.765 
  775500    311.09662   -1447.5136    473.25627    420.43185   -1155.4638    37655.765 
  775600    311.10017   -1434.8549    437.11943    396.96963   -816.61278    37655.765 
  775700    293.87766   -1400.5099    444.62792     361.6122   -538.96345    37655.765 
  775800    296.02957    -1451.992    468.76471    343.91426   -796.13105    37655.765 
  775900    297.17115   -1430.4316    483.58732    385.41507    -230.8739    37655.765 
  776000    309.60077   -1420.4923    461.70497    429.19573   -639.08239    37655.765 
  776100    304.03854   -1417.8474     462.3426    407.54206   -875.22681    37655.765 
  776200    299.84516     -1433.85    475.30714     385.7045   -532.74833    37655.765 
  776300    305.32499   -1417.0332    455.65479    407.43577   -550.00243    37655.765 
  776400     316.2024   -1422.5122    448.72328    443.79017   -437.68351    37655.765 
  776500    296.76835    -1421.615    461.78042    370.61898   -386.77532    37655.765 
  776600    300.96497   -1434.3285     471.9147     386.8538   -656.89323    37655.765 
  776700    308.35072   -1448.0071    445.94709    380.31886   -279.99375    37655.765 
  776800    293.40802   -1499.3392    465.12036    281.16985   -421.93613    37655.765 
  776900    302.31421   -1489.5518    453.54034    319.30495   -115.97721    37655.765 
  777000    305.85842   -1454.6917    458.98961    375.50357   -624.35764    37655.765 
  777100    290.08728   -1471.3877    454.94606    284.05975   -620.24703    37655.765 
  777200    303.91898   -1534.6687    422.23143    250.07358    623.93512    37655.765 
  777300    292.81086   -1492.9297    449.38791    269.16976    40.253904    37655.765 
  777400    305.65355   -1507.7062    473.14307    335.72406    86.903546    37655.765 
  777500    307.15556   -1534.5027    446.51684    289.03497   -292.39425    37655.765 
  777600    298.08787   -1526.8529    444.16545    253.68169   -210.22887    37655.765 
  777700      297.645   -1500.5792    463.01967    296.82415    408.73578    37655.765 
  777800    298.39883   -1492.0275    450.56818    296.30395    67.428378    37655.765 
  777900    323.83633   -1513.8118    459.83401    397.82529    424.57551    37655.765 
  778000    291.00353   -1527.3641    461.94976     239.1948    100.58561    37655.765 
  778100     301.7561   -1469.9044    476.25502    359.16492    295.97209    37655.765 
  778200    295.69153   -1541.9944    436.16031    219.79195    488.97355    37655.765 
  778300    298.77726   -1500.9371    462.20509    300.72782    240.11513    37655.765 
  778400    296.09164   -1499.9823    448.88854    276.32604    -203.7274    37655.765 
  778500    308.20351   -1530.6477    471.85201    322.92324    271.02977    37655.765 
  778600    296.41704    -1524.906    429.56633    233.53889   -146.11919    37655.765 
  778700    291.58805   -1479.8436    477.44121    304.82713   -440.65812    37655.765 
  778800    295.49774   -1511.7199    455.94336     268.9807    35.574229    37655.765 
  778900     299.2472   -1541.1867     445.5684    245.94829   -49.610834    37655.765 
  779000    307.48634   -1533.1486    466.39006    311.74528    343.02926    37655.765 
  779100    292.12943   -1484.9773    462.27539    286.95468    485.20312    37655.765 
  779200    289.78981   -1536.1698     479.3095    242.30746    248.76573    37655.765 
  779300    301.82849   -1544.6481    473.35121    281.84197    688.02798    37655.765 
  779400    301.23322   -1496.3824     435.6171    289.70489    506.90648    37655.765 
  779500    305.75711   -1515.2577    459.73955    315.23328    703.66843    37655.765 
  779600     301.9584   -1468.3052     477.5914    363.00748    385.72607    37655.765 
  779700    304.21917   -1468.3648    453.13463    348.62642    218.37964    37655.765 
  779800    292.26194   -1455.3996    478.50656    333.35772    421.91253    37655.765 
  779900    303.31584   -1465.4478    446.13479    340.49383   -477.96409    37655.765 
  780000    293.84701   -1488.8397    441.27005    269.78719   -161.07672    37655.765 
  780100     299.1227   -1456.1959    472.85679    357.66929   -9.9247722    37655.765 
  780200    304.73653    -1505.611    455.45472    316.01973   -310.53105    37655.765 
  780300    301.48669   -1478.0867    455.66538    329.18518   -336.86571    37655.765 
  780400    303.18741   -1433.3676    446.59493    372.45842   -289.44013    37655.765 
  780500    297.78599     -1451.44    460.78912    344.36491   -62.610597    37655.765 
  780600    306.58209   -1514.7177    449.22468    308.95689   -77.735968    37655.765 
  780700    295.21423   -1472.2068    473.51362    324.79299   -132.54606    37655.765 
  780800    290.36387   -1488.1599    447.70697    261.28849   -576.13958    37655.765 
  780900    298.70375   -1466.9012    450.64209    322.87114    27.430644    37655.765 
  781000    305.80742   -1488.2985    445.40863     328.0871   -134.61799    37655.765 
  781100    297.70582   -1446.6536    469.04357    357.04638    305.90703    37655.765 
  781200    292.47126   -1507.8808    474.36994    277.67825   -157.64793    37655.765 
  781300    301.61533   -1489.0387    456.48717    319.63173   -270.08903    37655.765 
  781400     292.3438    -1501.658    457.93453    266.89421   -131.61589    37655.765 
  781500    305.79422   -1532.5509    447.06934    285.43626   -98.416557    37655.765 
  781600    292.44897   -1514.3304    448.08563    244.84445   -380.48035    37655.765 
  781700    295.23127    -1457.082     450.7178    317.19838   -16.218323    37655.765 
  781800    302.48426   -1481.3994     461.0254     335.7048    22.281084    37655.765 
  781900    295.36284   -1444.3049    471.02081    350.86836    423.74065    37655.765 
  782000     301.6614   -1476.7581    469.66224    345.29386    239.47913    37655.765 
  782100    298.87131   -1475.6447    456.79724    321.03397    30.478814    37655.765 
  782200    297.94111   -1436.2892    435.87766    335.29965    314.82062    37655.765 
  782300    300.01125   -1463.2472    445.81182    327.55657   -457.36963    37655.765 
  782400    298.04797   -1495.3589    446.98619    287.81756   -103.10139    37655.765 
  782500    301.50479   -1481.1547    450.16058     320.6936   -438.17882    37655.765 
  782600     299.7701   -1491.3174    457.08338    309.67677   -518.42255    37655.765 
  782700    310.10463   -1476.7397    444.15621    357.65848   -150.85347    37655.765 
  782800      297.015   -1510.6007    429.56975    250.52842   -810.24603    37655.765 
  782900    300.76981   -1498.5801    460.48045    310.29301   -833.91461    37655.765 
  783000    297.54583   -1464.4863    471.26745    340.72024   -413.48308    37655.765 
  783100    300.88508   -1483.5688    436.69949    302.04013   -531.10857    37655.765 
  783200    305.64014   -1488.0003    474.52462    356.75128   -280.58242    37655.765 
  783300    297.47297   -1469.8418    456.66579    320.43641    311.16418    37655.765 
  783400    304.16788   -1465.2111    452.19284    350.60843   -99.547845    37655.765 
  783500    292.84137   -1498.6007    476.87693    291.12457    264.64048    37655.765 
  783600    291.26119   -1527.2974    482.59751    261.06434    633.89876    37655.765 
  783700    308.01422   -1486.2889    468.08907    362.67048    398.57596    37655.765 
  783800    295.29231   -1497.8256     474.3929    300.40354    485.05966    37655.765 
  783900    292.56421   -1502.9105    476.02653     284.7218    93.599847    37655.765 
  784000    295.51517   -1434.3513    469.05755    359.54166   -48.492406    37655.765 
  784100     296.3666   -1452.5612    482.79489    358.88614   -131.56159    37655.765 
  784200    303.40085    -1487.518    478.79397    351.46393    79.237376    37655.765 
  784300    293.42869   -1490.2391    467.03987     292.2822   -716.83524    37655.765 
  784400    308.67076   -1507.8186    438.45433    314.44949   -439.32827    37655.765 
  784500    297.90274   -1495.7118    465.63137    305.45871   -342.06985    37655.765 
  784600     311.7193   -1483.3797    471.70136    385.80244   -372.01784    37655.765 
  784700    303.76038   -1511.3079    447.03408    297.52593   -114.20685    37655.765 
  784800    299.80664   -1500.5653    456.63927     300.1486    232.43972    37655.765 
  784900    298.75112   -1528.3612    471.15922    282.14057    381.20723    37655.765 
  785000    305.43097   -1528.2351    435.06633    276.12055    289.67315    37655.765 
  785100    304.92386   -1478.6525    479.77781    368.14115   -13.878985    37655.765 
  785200    302.62494   -1499.2346    481.40594    338.88077   -220.75517    37655.765 
  785300    306.81738    -1511.365    445.18007     309.3198   -589.16208    37655.765 
  785400    302.56808   -1552.1517    436.55587    240.85876   -315.79152    37655.765 
  785500    303.86569   -1495.7783     484.0005    350.49413    14.925061    37655.765 
  785600    294.37952   -1495.7783    468.16109    292.12691   -223.25644    37655.765 
  785700    304.60553   -1486.7824    462.18708    340.99345    -184.2919    37655.765 
  785800    295.75797   -1486.4396    493.95738    333.44167   -35.742106    37655.765 
  785900    307.87617   -1529.2868    464.31666    315.28128     87.94666    37655.765 
  786000    298.39784   -1471.3344     457.2781     323.7025    96.544358    37655.765 
  786100    305.07927   -1480.8046    461.93467    348.84265   -702.89821    37655.765 
  786200    298.94202   -1507.3556    431.10461    263.94745   -431.35548    37655.765 
  786300    303.54301   -1470.8015    505.65456    395.67836   -885.87464    37655.765 
  786400    295.45288   -1502.9302    464.92458    286.55055   -402.45004    37655.765 
  786500     302.6687   -1471.7256    487.45982    372.63986   -42.387556    37655.765 
  786600    299.71738   -1511.6016    467.00773     299.0806   -565.05067    37655.765 
  786700    301.63681   -1486.6328    474.61474    340.26144   -218.26081    37655.765 
  786800    301.13504   -1486.6279    478.83351    342.23561    225.10557    37655.765 
  786900    290.10123   -1472.2761    477.75618    306.04408   -119.86505    37655.765 
  787000    302.71377   -1511.4757    476.50743    322.13946  -0.48223398    37655.765 
  787100    300.42829   -1524.9778     469.0436     290.9274   -538.73918    37655.765 
  787200    297.55221   -1504.7679    472.54578    301.74557   -110.62069    37655.765 
  787300    299.69086    -1496.725    500.94219    347.77276   -183.19424    37655.765 
  787400    294.84555   -1487.7623    465.70543    299.77648   -373.88914    37655.765 
  787500    298.98805   -1477.3284    482.12324    345.19965    -524.6763    37655.765 
  787600    292.05483   -1486.7733    487.44168     309.9906   -69.626729    37655.765 
  787700     301.6796    -1433.664    478.52253    397.32994     -5.38314    37655.765 
  787800     297.6475   -1508.1228    497.73046    324.00262    151.33946    37655.765 
  787900    294.83573   -1487.5828    460.39759    294.60414    4.2204468    37655.765 
  788000    294.43293   -1541.2087    472.57745    251.35228    87.511896    37655.765 
  788100    302.41621    -1524.606    475.09707     306.2648    445.48248    37655.765 
  788200    302.19814   -1516.3961    481.44628    319.84626    504.58543    37655.765 
  788300    300.77167   -1534.5571    476.58656    290.43044    136.99825    37655.765 
  788400     294.5814   -1533.8465    442.80815    229.61082    579.85049    37655.765 
  788500    301.62028   -1509.6972    474.53885    317.04707    510.02058    37655.765 
  788600    291.42986   -1567.8831    470.79236    209.42961    205.06698    37655.765 
  788700    303.14547    -1552.749    480.97363    287.26774      124.067    37655.765 
  788800    292.80941    -1512.498    471.02141    271.22849    272.01341    37655.765 
  788900    294.75315   -1513.8261     488.3316     295.9247    632.62384    37655.765 
  789000    308.59743   -1547.7092    473.70568    309.48143    533.48456    37655.765 
  789100     295.2676   -1540.9269     483.1291    265.92764    745.22059    37655.765 
  789200    305.31141    -1529.359    473.17453    312.56879    491.32158    37655.765 
  789300    306.98434   -1542.0551    497.71898    331.91711    784.47946    37655.765 
  789400    296.78701    -1539.176     475.3769    266.73812    221.07908    37655.765 
  789500    295.36231   -1522.7842    497.65234    299.01818   -184.63281    37655.765 
  789600    293.85129   -1528.2377    448.63667    237.77496   -253.74746    37655.765 
  789700    303.37135   -1516.1382    486.74967    330.66722    138.19901    37655.765 
  789800    302.64973   -1485.3555    476.42097    347.88607   -754.00106    37655.765 
  789900     303.0719    -1520.457    462.87558    301.13183   -529.34313    37655.765 
  790000     307.7099   -1525.5983    484.55669    338.46442   -559.71771    37655.765 
  790100    297.02875   -1514.0408    460.00005    277.58024    -484.2878    37655.765 
  790200    309.07973   -1524.6385    463.25492    324.26362    83.029166    37655.765 
  790300    298.16857   -1529.2278    464.68373    272.18687     191.1446    37655.765 
  790400    292.16426   -1510.1888    483.27643    282.90044    419.31968    37655.765 
  790500     301.0305   -1470.6233    470.89973    349.83774    535.71599    37655.765 
  790600    305.23282   -1509.8689    482.30982    340.84183   -337.21721    37655.765 
  790700    290.27439   -1534.3687    501.21577    268.18729    -427.8923    37655.765 
  790800    297.79981   -1487.2168    476.86984    324.73072   -658.25039    37655.765 
  790900    307.93973   -1506.5913    468.41085     342.3559   -54.787263    37655.765 
  791000    299.55651   -1512.1492    466.96318    297.76726   -325.50528    37655.765 
  791100    299.99648   -1510.9332    455.11682    289.10936    295.66685    37655.765 
  791200    301.20211   -1479.7034    467.52187    338.14918   -173.95274    37655.765 
  791300    307.23421   -1492.7385    459.68531    344.32025   -181.28325    37655.765 
  791400    297.49101   -1485.0814    476.50772    325.11971    245.35051    37655.765 
  791500    305.63827   -1482.8473    476.68432    364.05564   -282.78796    37655.765 
  791600    291.94587   -1464.6557     476.3778    320.55587   -372.93723    37655.765 
  791700    299.36673   -1490.9181    464.45157    315.63591   -414.57461    37655.765 
  791800    301.10434   -1487.4904     468.5855    330.98748   -954.27387    37655.765 
  791900    296.72065   -1478.8074    467.62663    319.05897   -271.08033    37655.765 
  792000    309.03473   -1483.0375    487.58052    389.98846    151.14725    37655.765 
  792100    290.84772   -1487.1991    483.92121    300.63266   -552.58475    37655.765 
  792200    297.59854    -1480.879    480.15687    333.45328   -346.42823    37655.765 
  792300     295.2743   -1470.5038    468.92105    322.17276   -841.72771    37655.765 
  792400    303.72425   -1446.5643    478.23027    393.30376   -221.81797    37655.765 
  792500    311.37207   -1497.9742    488.24342    386.19322   -373.02818    37655.765 
  792600    305.51643    -1488.102    472.31186    353.88224    208.65844    37655.765 
  792700    312.47025   -1499.7728    446.50526    347.57982    341.93917    37655.765 
  792800    306.69807   -1498.7006    458.45074    334.72004    675.09561    37655.765 
  792900    294.39474   -1468.1849     469.2631    320.89051    460.59505    37655.765 
  793000    312.33002   -1466.5364    481.20107    414.88331    282.43099    37655.765 
  793100    298.86412   -1499.6405    473.22907    313.43776    223.74184    37655.765 
  793200    307.11179   -1530.7696    456.31712    302.37212    534.88621    37655.765 
  793300    312.00846   -1507.0576    454.89761    346.61705     -111.347    37655.765 
  793400    311.37591   -1506.3657    469.05809    358.63368   -203.34854    37655.765 
  793500     297.4272   -1518.8447    459.27489    273.83742   -302.86542    37655.765 
  793600    307.23188   -1495.8487    485.23078    366.74506   -149.42454    37655.765 
  793700    297.99281   -1490.7639    502.71956    347.89865   -14.252739    37655.765 
  793800    301.78357   -1540.5131     463.0588    275.48319    47.443319    37655.765 
  793900     297.9079   -1506.8967    448.86536    277.53095   -62.782974    37655.765 
  794000    306.30594   -1486.2069    468.58441    355.58944    102.97435    37655.765 
  794100    313.08385   -1496.8485    470.81547    377.56514    323.95676    37655.765 
  794200    288.69512    -1505.761     460.9054    249.40456   -493.44306    37655.765 
  794300    296.47648   -1502.3336     464.5053    291.31677    -190.9255    37655.765 
  794400    295.67494   -1496.6754    452.63766    281.51397   -1057.2117    37655.765 
  794500    308.36109   -1557.3675    457.73564     282.7936    285.68758    37655.765 
  794600    313.62906    -1497.137    479.54681    388.45222    16.340764    37655.765 
  794700    300.51272   -1478.3317    485.55653    354.46492    127.18101    37655.765 
  794800    297.32773   -1520.5567    469.90701    282.31166    26.925762    37655.765 
  794900    268.18184   -1473.0301    473.06998     202.3362   -655.20099    37655.765 
  795000    298.92866   -1444.1455    476.98864    372.98164    76.224805    37655.765 
  795100    291.22861   -1471.3227    473.08057      307.376    73.943848    37655.765 
  795200    300.13952    -1450.986    477.78107    372.36208      264.325    37655.765 
  795300    297.05522   -1461.3274    477.73673    348.14898   -240.45178    37655.765 
  795400    298.46657   -1475.1453    459.26361    322.18518     203.7582    37655.765 
  795500     298.1822   -1482.6015     507.0105    361.20101    297.04256    37655.765 
  795600    289.76033    -1519.539    446.79101     226.2876   -324.24356    37655.765 
  795700      293.021   -1492.9579    461.53559    282.23134    154.03415    37655.765 
  795800    302.27007    -1456.853    479.26994    377.53549   -201.65644    37655.765 
  795900    300.50659   -1462.3808    460.34252    345.17426   -79.835198    37655.765 
  796000    299.30277   -1481.0462    465.58122    326.35071    939.89058    37655.765 
  796100    289.82358   -1474.7167    481.97527    306.57781    88.823338    37655.765 
  796200    302.93881    -1488.321    469.00232    338.79793    862.55663    37655.765 
  796300    296.63935    -1511.523    477.00514    295.35741    396.21919    37655.765 
  796400    296.51261   -1520.4603    456.27336    265.12011    91.864443    37655.765 
  796500     298.4055   -1500.7241    445.78562    282.85471   -41.456257    37655.765 
  796600    305.21227   -1467.7058    487.84114    388.44421    49.834247    37655.765 
  796700    299.61724   -1467.2687    480.22364    356.18051    35.116714    37655.765 
  796800    295.33467   -1484.3229    471.76716    311.47041    479.71267    37655.765 
  796900    301.98463    -1479.293    464.67873     339.2246    375.40571    37655.765 
  797000    303.66678   -1499.4018    465.44821    327.42661    395.77699    37655.765 
  797100    295.58282   -1504.1456    472.41453    293.40761   -88.518832    37655.765 
  797200    298.01011   -1503.1627    490.15811    323.01597   -590.58169    37655.765 
  797300    308.49864   -1453.6687    478.45478    407.82813   -355.68979    37655.765 
  797400    287.94226   -1481.1579    444.18495    253.91203   -703.28113    37655.765 
  797500    304.45947   -1462.5098    475.11731    377.54136   -530.72891    37655.765 
  797600    294.04831   -1461.1222    465.13145    322.26848   -403.68696    37655.765 
  797700    308.43031   -1488.7259    466.77222    360.78208    131.44143    37655.765 
  797800     291.3426   -1491.0201    462.99504    278.10409   -251.84306    37655.765 
  797900    304.05219   -1517.3489    458.99935    304.75851   -627.57042    37655.765 
  798000    291.47279   -1532.4129    468.09888    242.39882   -788.42033    37655.765 
  798100    308.76832   -1530.9048    450.74674    304.09299   -357.02619    37655.765 
  798200    294.38439   -1522.0932    471.10018    268.77292   -546.52608    37655.765 
  798300    295.95306   -1495.8364    458.69024    289.65235   -297.23184    37655.765 
  798400    294.35305   -1509.3258     466.3855    276.68512   -121.60317    37655.765 
  798500    292.46138   -1538.4961    461.07766    233.72642   -647.38507    37655.765 
  798600     293.0193   -1508.7115    456.07348    261.00805    70.189919    37655.765 
  798700    306.51715   -1516.4761    472.46683    330.14955   -543.14751    37655.765 
  798800    293.22912   -1489.1209     455.1114    280.57715   -514.19527    37655.765 
  798900    308.17024   -1537.5605     465.9537    309.96298    168.83316    37655.765 
  799000    297.10483   -1508.6905    470.82447    294.09606    784.30103    37655.765 
  799100    296.74217   -1502.4987    487.49038    315.32786    93.624396    37655.765 
  799200    297.09666   -1501.6493    449.14438    279.42049    622.08301    37655.765 
  799300    299.06454   -1495.2713    451.47525    296.95164     900.3204    37655.765 
  799400     303.2106   -1492.8202    483.84925    350.36413    188.11652    37655.765 
  799500    304.63553    -1511.624    470.94282      325.042    299.96037    37655.765 
  799600    283.35533   -1499.8551    488.94673     259.4128    311.01312    37655.765 
  799700    291.38447   -1465.6625    447.89958    288.55398    60.228847    37655.765 
  799800    293.12085   -1471.6839    482.05685    324.47424    130.85522    37655.765 
  799900     303.4251   -1496.4666    476.69741    340.52756    751.60084    37655.765 
  800000    290.12456   -1510.8831    479.05202    268.83744    772.39926    37655.765 
  800100      297.359   -1464.9087    498.61436    366.80714    410.20797    37655.765 
  800200    292.80516   -1484.0224    452.96625    281.62986    213.90218    37655.765 
  800300    302.69184   -1506.7068    453.15199    303.45457    9.5162698    37655.765 
  800400     293.9813    -1515.162    468.26328    271.06012     297.9322    37655.765 
  800500    306.50689   -1515.5291     481.2671    339.85079    653.08519    37655.765 
  800600    295.07046   -1494.6118    486.07647    314.30639   -317.15832    37655.765 
  800700    302.83175   -1475.0128       444.23    326.85379   -71.039621    37655.765 
  800800    301.01026   -1532.9111    461.60329    278.16278   -593.44493    37655.765 
  800900    303.40538    -1550.408    462.84816    272.64845   -119.83373    37655.765 
  801000    293.83519   -1521.4022    463.15031    259.05195   -3.7691171    37655.765 
  801100    293.68389   -1495.2305    503.94675    325.34176    469.40528    37655.765 
  801200    304.68205   -1512.1875     461.1292    314.87347    531.51003    37655.765 
  801300    288.90179   -1484.4149    471.41243    282.18424    206.08142    37655.765 
  801400    302.86223   -1501.8166    480.45443    336.41114    603.55845    37655.765 
  801500    304.21349   -1500.5958    478.49208     341.7274      727.019    37655.765 
  801600    295.63459   -1514.7222    458.35615    269.00467   -361.70214    37655.765 
  801700    304.00832   -1467.6347    470.55584    365.83246   -96.884103    37655.765 
  801800    302.93888   -1479.1362    467.98034    346.96103   -277.24926    37655.765 
  801900    299.24393   -1449.7646    467.28503    359.07233    183.84576    37655.765 
  802000    297.63468   -1494.9516    464.34248    303.72834   -404.92394    37655.765 
  802100    289.97464   -1502.1716    466.28306    264.10786   -114.19345    37655.765 
  802200    289.52877   -1499.8842    462.38845    260.50174   -140.93418    37655.765 
  802300    304.59827   -1471.2786    483.36146    377.63903    153.67965    37655.765 
  802400    292.30013   -1477.1414    495.28831     328.5688    435.96027    37655.765 
  802500     299.9494   -1487.0828    473.46342    331.09528    104.32634    37655.765 
  802600    302.17828   -1490.3479    467.44792    331.80704    339.35311    37655.765 
  802700    312.07835   -1495.5306    481.95752    385.51738    223.16073    37655.765 
  802800    291.23008   -1491.8159    494.52973    308.33852    356.06143    37655.765 
  802900    305.05686   -1473.9405    478.17897    371.85055    690.74277    37655.765 
  803000    291.69842   -1495.8989    460.07252    271.89796   -32.676412    37655.765 
  803100    290.49143    -1497.761    469.25658     273.8089   -349.78752    37655.765 
  803200    297.75408   -1484.3438    479.52421     330.0531   -4.3417793    37655.765 
  803300    291.06294   -1503.9886      463.139    264.02579    138.96007    37655.765 
  803400    300.02632   -1512.2367    459.26057    292.08332   -279.77332    37655.765 
  803500    301.77572   -1501.8237    456.23967    307.31825    52.611505    37655.765 
  803600    302.47651   -1495.9615    476.02387    336.10642    265.78298    37655.765 
  803700    298.96333   -1506.6281    474.50621    308.17204   -19.099283    37655.765 
  803800    306.41061   -1517.7837    479.87793    335.77534   -108.18373    37655.765 
  803900     301.9033   -1523.1154    464.50175    294.86062   -707.40127    37655.765 
  804000    296.78112   -1516.3142    480.05648    294.25311   -305.18522    37655.765 
  804100    304.48991   -1460.0373    451.17636    356.20951    311.24153    37655.765 
  804200    304.87594   -1495.8675    479.92494    350.85845    389.60601    37655.765 
  804300    295.80382   -1508.7428    478.66574    296.05239    168.33367    37655.765 
  804400    298.31379   -1486.8399    477.65654    328.19863   -37.199388    37655.765 
  804500    295.87518   -1530.4489    453.62407    249.62455    284.77065    37655.765 
  804600    293.45827   -1511.4805     456.8517     260.9852   -343.31895    37655.765 
  804700    299.42281   -1510.6702    471.25764    302.94133    495.03277    37655.765 
  804800    295.95612   -1532.1782    465.96505    260.59905     113.0742    37655.765 
  804900    296.72463   -1507.8638    458.31467    280.70848    163.95139    37655.765 
  805000    305.69327   -1526.1447    467.64063     311.9611    126.62982    37655.765 
  805100    298.76433   -1555.8404    494.41143    277.97287    78.061402    37655.765 
  805200    303.21398   -1523.9289    476.16572    311.58703    300.79663    37655.765 
  805300     300.4504   -1525.4053    474.80529    296.36071    114.80046    37655.765 
  805400     301.6328    -1536.841    461.15595    276.57648   -320.45321    37655.765 
  805500     300.5581   -1489.8578    501.21838    358.80411   -314.36974    37655.765 
  805600    297.02374   -1547.8783    459.97349    243.69377   -137.54721    37655.765 
  805700    298.53096    -1535.844    453.91726    256.42883   -626.76346    37655.765 
  805800    301.69427    -1528.898    431.01319    254.65228   -814.92283    37655.765 
  805900    306.78287     -1523.23    493.69911    345.81913   -490.07779    37655.765 
  806000    290.04823   -1532.1224    470.55306    238.75695   -598.23595    37655.765 
  806100     309.4738    -1550.198      452.534    289.74984   -121.00037    37655.765 
  806200    300.07541    -1505.038     463.1757    303.41727   -337.26003    37655.765 
  806300    295.62949   -1518.9965    487.68721    294.03859    779.74304    37655.765 
  806400    297.11629   -1508.1679    484.80654     308.6521    428.91508    37655.765 
  806500     290.7311   -1505.5456    479.52895    277.37112    625.16639    37655.765 
  806600    304.79268   -1481.0365    467.67563    353.06681    364.87504    37655.765 
  806700    292.29428   -1504.5725    476.82708    282.65026    62.480837    37655.765 
  806800    304.34891   -1507.1253    480.16496    337.47788    166.59723    37655.765 
  806900    305.73607   -1556.8751    478.39783    292.17978    112.60916    37655.765 
  807000    303.23543    -1525.532    493.31131     327.2257    87.471688    37655.765 
  807100    291.12962   -1552.7573    471.56821     223.9853   -195.93924    37655.765 
  807200    308.44322   -1517.7939    457.15558    322.15526    249.96941    37655.765 
  807300    301.21136   -1548.4724    472.67576    274.57559    470.82099    37655.765 
  807400    301.35155   -1503.5464    499.22845    346.68267    383.96785    37655.765 
  807500    305.07553   -1484.5731    471.45207    354.57481    594.19758    37655.765 
  807600    308.69762   -1483.2429    475.00775    375.69895    291.62362    37655.765 
  807700    298.52634   -1459.9522    473.91828      352.301    245.99795    37655.765 
  807800    305.29128   -1497.4286    465.30063    336.53506   -362.38925    37655.765 
  807900    296.20339   -1496.8994    488.82141    319.84281   -483.03092    37655.765 
  808000    307.08435   -1542.6473    459.31635    293.37068   -350.17084    37655.765 
  808100    292.35419   -1522.8282    484.76428    272.60036   -14.099384    37655.765 
  808200    313.38073   -1531.8807    501.12576    374.17424    -155.6372    37655.765 
  808300    301.64352   -1484.2034    485.51175    353.61794   -319.57567    37655.765 
  808400    303.51833    -1524.808    485.43613     321.3428    388.39639    37655.765 
  808500    302.54944    -1502.543     479.4606    333.28853    537.03359    37655.765 
  808600    300.05134   -1490.0766    473.33232    328.42741   -358.01537    37655.765 
  808700    292.56521   -1490.8713    483.10251    303.84153    412.88695    37655.765 
  808800     306.1843   -1536.0245     481.4315    318.07363    286.17275    37655.765 
  808900     297.6658     -1587.85    482.12435    228.75133    117.83391    37655.765 
  809000    310.25639   -1565.2247     479.1259    304.82346      249.726    37655.765 
  809100    311.12171   -1560.6768    464.56451    298.68938    133.87151    37655.765 
  809200    298.48589   -1542.7332    476.62576    272.04609   -49.248304    37655.765 
  809300    302.70948   -1554.2789    489.73738    292.54689    805.18486    37655.765 
  809400    297.27506   -1549.3899    470.98309    254.31838   -98.241401    37655.765 
  809500    294.31127   -1527.1534    478.98613    271.27084    153.83733    37655.765 
  809600    308.41795   -1510.9226    450.46882    322.22656   -272.06374    37655.765 
  809700    294.56907   -1575.6377    487.21915    232.17534     -229.927    37655.765 
  809800     297.3391   -1509.2581    500.99812    324.75236    436.18125    37655.765 
  809900     300.0899   -1527.5681    484.43526    302.21169    328.10474    37655.765 
  810000    297.56732   -1558.9709    489.64515    264.70966     579.6068    37655.765 
  810100    304.19062   -1507.3975    494.87937    351.21051    350.55956    37655.765 
  810200    294.72331   -1522.3536    479.36311    278.29486    436.93284    37655.765 
  810300    310.95956   -1540.6371    482.49512    335.93279    156.84861    37655.765 
  810400    298.83957    -1485.487    497.27877    351.53087    633.00827    37655.765 
  810500    296.41693     -1534.99    444.82022    238.70828    214.76566    37655.765 
  810600     304.5266   -1580.3766     454.9879    239.84614    217.02242    37655.765 
  810700    303.24363   -1589.3023    474.36907    244.54991    240.42583    37655.765 
  810800    297.87934    -1526.242     491.9536    301.14585    974.38278    37655.765 
  810900    300.00387   -1531.9704    455.37201     268.3605    220.31533    37655.765 
  811000    291.86114   -1481.5886     476.2972    303.16251    827.26239    37655.765 
  811100    301.23398   -1473.3863    479.69967    356.78695    1034.4788    37655.765 
  811200    305.15001   -1482.3955    470.14013    355.77434    725.17094    37655.765 
  811300    303.48086   -1515.2151    482.80685    328.13838    593.89863    37655.765 
  811400    290.90973   -1498.9749    494.28288    299.49656   -20.010552    37655.765 
  811500    296.17026   -1522.4066    486.98091     292.3466   -140.80282    37655.765 
  811600    298.84697   -1544.8294     465.2241    260.16706    -362.2642    37655.765 
  811700    290.26693   -1544.9898    483.80365    240.12065   -23.111941    37655.765 
  811800    300.04784   -1557.9321    465.44019      252.664    159.54986    37655.765 
  811900    305.89236   -1544.8241    462.70314    289.23684    -294.2014    37655.765 
  812000    302.37345   -1547.3231    484.23955    292.49848   -372.40974    37655.765 
  812100     301.9795   -1510.7554     483.6119    326.67235   -300.17466    37655.765 
  812200    296.30714   -1550.3721    451.45204    229.46584   -454.89414    37655.765 
  812300    298.08705   -1554.7149    478.85679    260.50733   -525.91053    37655.765 
  812400    296.48766   -1521.7057       487.69     295.1795   -697.34865    37655.765 
  812500    302.91466   -1552.2251    496.90353    302.68671   -112.86659    37655.765 
  812600    299.29981    -1562.207    482.59703    262.19246    30.419479    37655.765 
  812700    297.77088   -1526.1868    484.33167    293.09291   -269.53928    37655.765 
  812800    297.36148   -1526.7756    482.44903    288.78606    444.79533    37655.765 
  812900    291.28795   -1511.3205    486.31253    280.87624    528.70092    37655.765 
  813000     300.5903   -1536.9293    469.63644    280.29499    82.862603    37655.765 
  813100    302.65222   -1508.0928    494.37239    343.11138    299.05404    37655.765 
  813200     292.5778   -1501.1253    485.65687    296.19831    -135.6674    37655.765 
  813300    306.98499   -1481.7073    499.11847    393.66736   -222.09401    37655.765 
  813400    293.92668   -1487.0661    500.73695    331.38485   -260.40974    37655.765 
  813500    298.73315   -1501.5942      484.883    322.55087    -235.4635    37655.765 
  813600    299.09681   -1491.3705    476.77905    326.30085   -151.49422    37655.765 
  813700     296.6451   -1480.3281    498.45722    348.03011   -537.45125    37655.765 
  813800    290.46872   -1506.4404     473.7091    269.48018   -413.44218    37655.765 
  813900    288.09735   -1470.8027    468.25679     289.0343   -240.75746    37655.765 
  814000    305.98065   -1485.4129    486.14987    372.49049    -244.9137    37655.765 
  814100     302.3737   -1474.5803    486.22331     367.2261    206.26919    37655.765 
  814200    303.72523   -1435.4398    518.30117    444.50356    123.42715    37655.765 
  814300    299.11795   -1435.8988    491.86078    396.94914   -374.45549    37655.765 
  814400    296.49894   -1479.2702    480.81631    330.79189   -1008.2855    37655.765 
  814500    291.83095   -1476.1909    486.00278    318.13039   -584.22941    37655.765 
  814600    291.57312   -1477.4442    512.95551    342.67397   -803.83815    37655.765 
  814700    302.50608   -1489.4928    483.54034    350.22418    -678.3282    37655.765 
  814800    289.46677   -1496.4932    486.19385    287.42019   -725.04876    37655.765 
  814900    300.78819   -1459.5942    474.13176    363.01262   -255.92239    37655.765 
  815000    304.35207   -1465.4605    481.32074    380.31263     23.10795    37655.765 
  815100    302.33597    -1485.763    479.33224    348.98321    79.672607    37655.765 
  815200    290.08706   -1476.8654    471.41999    295.05497    247.49748    37655.765 
  815300     285.4535   -1483.7025    476.76823    272.79331   -337.74992    37655.765 
  815400    299.97998   -1522.4103    461.08202    283.52339   -166.63871    37655.765 
  815500     299.5265   -1518.7644    498.57316    322.62746    280.80806    37655.765 
  815600    304.10819   -1516.3392    479.06315    326.08308    601.21236    37655.765 
  815700    302.75615   -1483.3786    496.03649    369.95561    162.84853    37655.765 
  815800    300.92379   -1517.8019    472.04283    303.32395    148.50439    37655.765 
  815900    300.50473   -1500.7766    489.33973    335.76743   -574.84488    37655.765 
  816000    299.38023   -1474.4967    472.30214     339.9684    116.54275    37655.765 
  816100    304.89682   -1511.9509    464.98859    319.93235    171.03155    37655.765 
  816200    307.89131    -1508.034    472.88163    345.16695   -101.15435    37655.765 
  816300    306.17464   -1497.2239    496.40968    371.80902    281.27562    37655.765 
  816400     296.5735   -1510.6034    456.60409    275.58071     284.6481    37655.765 
  816500    301.59711   -1545.1665    445.52167    252.45675    51.579172    37655.765 
  816600    301.00894   -1549.8019    473.04875    272.71157    402.54606    37655.765 
  816700    304.55507   -1494.5815    442.82055    313.60151     504.4664    37655.765 
  816800    298.40622   -1497.2551    480.17207    320.71335    394.40508    37655.765 
  816900    317.14819   -1516.5343    476.39829     381.6832    181.84086    37655.765 
  817000    295.47135   -1497.7817    487.21347    314.07072   -206.66267    37655.765 
  817100      290.902   -1547.7649    470.84782    227.23682    121.50137    37655.765 
  817200      302.224   -1550.6272    461.35859    265.64341   -14.028019    37655.765 
  817300     291.0476    -1504.108     494.7064     295.4051    104.26734    37655.765 
  817400    299.65744   -1530.2555    477.93187    291.08217    275.89835    37655.765 
  817500    306.06208   -1541.2332    501.89922    332.78467     27.62543    37655.765 
  817600    315.82953     -1541.69    446.74432    320.96179    41.981909    37655.765 
  817700    295.08468   -1497.9894    468.45236    293.36846    169.57233    37655.765 
  817800     306.1659   -1478.3068    462.41065    356.68791    106.30811    37655.765 
  817900    305.70587   -1465.9739    481.51437    386.06211    65.723478    37655.765 
  818000    293.60247   -1514.9879    461.49514    262.76776   -190.52555    37655.765 
  818100    308.28731   -1511.5813    493.74564    364.25894   -252.23236    37655.765 
  818200    300.11536   -1512.9121    461.25423    293.80073    -329.8461    37655.765 
  818300    297.06487   -1504.5773    512.58521    339.79078   -33.431573    37655.765 
  818400    293.75089   -1476.4743    491.53347    331.98504    180.00483    37655.765 
  818500    299.84907   -1500.6697    456.61634     300.2115     607.5438    37655.765 
  818600     305.2549   -1496.8487    516.03533    387.68657    256.36913    37655.765 
  818700    292.39527   -1537.0503     459.4096    233.20778    -100.7402    37655.765 
  818800    307.01022   -1495.1165    495.27476    376.52759     205.3209    37655.765 
  818900    294.33614   -1526.4173    481.23551    274.36785    172.60057    37655.765 
  819000    299.87454    -1530.096    460.26643     274.5494    150.90332    37655.765 
  819100    304.63742   -1517.2441    492.93567    341.42327     429.5951    37655.765 
  819200    296.80602   -1469.0752    486.94015    348.48744   -371.66363    37655.765 
  819300    308.70336   -1506.8187    460.06726    337.20842   -334.38583    37655.765 
  819400    295.56381   -1489.9883    488.10454    323.16971   -567.21955    37655.765 
  819500    304.67737   -1465.6876    482.35457    382.57775   -307.77777    37655.765 
  819600     296.3296   -1489.5215    469.44342    308.40847    -36.10193    37655.765 
  819700    296.11812   -1534.5986    500.96927    293.90918    150.89015    37655.765 
  819800    297.18853   -1526.4238    476.12011    282.03361    210.94584    37655.765 
  819900    301.10453   -1551.4287    438.76004    237.22457   -92.488467    37655.765 
  820000    299.28742   -1503.8679    519.16309    357.04208   -27.910125    37655.765 
  820100    295.00182   -1499.7334    465.20511    288.00568    218.53055    37655.765 
  820200    296.78288   -1501.6216    455.53355    284.43061   -366.86397    37655.765 
  820300    289.52127   -1528.8542    478.66538    247.77512    125.75105    37655.765 
  820400    299.05202   -1535.1695    485.92865    291.45076    636.60856    37655.765 
  820500    303.65567   -1531.0937    499.70628    329.94294    543.94526    37655.765 
  820600    294.92873   -1515.1751    467.03648    274.06767    660.88808    37655.765 
  820700    304.06088   -1513.8908    486.51007    335.76622    914.77227    37655.765 
  820800    298.37601   -1522.2784    479.24338    294.62586     65.62546    37655.765 
  820900    296.40191   -1469.4333    481.35093    340.72838   -80.269893    37655.765 
  821000     298.7045   -1476.0113     485.7044    348.82671   -612.32834    37655.765 
  821100    308.59574   -1501.3876    475.32766    357.41743   -297.15919    37655.765 
  821200    291.78052   -1496.2864    480.27483    292.08082   -209.25552    37655.765 
  821300    298.75567   -1492.7086    469.56438    316.21875    181.81337    37655.765 
  821400    304.07175   -1499.6482    512.33298    375.88051    440.48215    37655.765 
  821500    300.96147   -1505.2938    467.42151    311.37967    661.96836    37655.765 
  821600    306.85002   -1500.7992    480.55607    355.40801    735.89186    37655.765 
  821700    308.95614   -1532.0933    464.65885    317.65871    252.11736    37655.765 
  821800    293.82255   -1482.3973    479.33219    314.18204     -112.169    37655.765 
  821900    292.07244   -1438.5107    492.56858    363.45899    206.45769    37655.765 
  822000    294.98855    -1538.143    494.96346    279.29489    42.546176    37655.765 
  822100    295.92981   -1514.8384    485.57678     297.4326    227.70807    37655.765 
  822200    304.52013   -1540.9364    467.41184    291.68128    151.90964    37655.765 
  822300    293.07934   -1514.6713    476.19076    275.43467   -84.437639    37655.765 
  822400    294.34303   -1511.7604    493.17732    300.99742    664.86763    37655.765 
  822500    294.97597   -1487.2405    493.54039    328.71791     246.9996    37655.765 
  822600    288.57154   -1536.3803    457.35527    214.68114   -132.30959    37655.765 
  822700    299.62928    -1534.191    482.75432    291.84282   -648.48194    37655.765 
  822800    308.98958   -1491.7797    475.47758     368.9409    -588.5392    37655.765 
  822900    301.89498   -1526.8872    476.48828    303.03805   -191.49118    37655.765 
  823000    294.46775   -1527.7092    465.82965    258.26014    18.914039    37655.765 
  823100    296.29624   -1575.2643    468.79108    221.86383   -22.391419    37655.765 
  823200    305.03717    -1543.351    481.96143    306.13431   -94.818771    37655.765 
  823300    295.29524   -1530.6974    468.97403    262.12604   -47.836802    37655.765 
  823400    303.50137   -1540.5055     468.8005    288.93356   -255.65797    37655.765 
  823500    306.86306   -1604.9214    446.05699    216.84509    154.45149    37655.765 
  823600    302.01668   -1559.3173    472.50828    267.17357   -234.86976    37655.765 
  823700    303.59325   -1508.3499    472.83789    325.53859   -171.80637    37655.765 
  823800    296.10193   -1504.6016    474.94472     297.8091    -230.5936    37655.765 
  823900    295.86276   -1531.5407     499.3811    294.23408   -283.16473    37655.765 
  824000    309.00487   -1567.0128    476.72989    295.02867    17.841363    37655.765 
  824100    301.43863   -1518.3902    478.50702    311.50786   -425.51537    37655.765 
  824200    308.48903   -1560.4259    479.23327    301.80634    131.59727    37655.765 
  824300    298.53122   -1509.3581    473.62936    302.62798    78.880809    37655.765 
  824400    304.53942    -1542.853    482.32759     304.7669    348.67196    37655.765 
  824500    304.45816   -1535.3517    513.58442    343.16071    444.40014    37655.765 
  824600    298.77131   -1542.5127    447.40747    244.32794    233.04165    37655.765 
  824700    304.54148   -1545.8007    495.23582    314.73668    408.63274    37655.765 
  824800    294.55056   -1497.4597    493.92172    316.97292     231.0597    37655.765 
  824900     297.3893   -1541.9547    461.97291    253.25553    -24.50454    37655.765 
  825000    296.63744   -1552.3047    484.49255    262.05448     177.7116    37655.765 
  825100    302.86852   -1562.8754    463.10093    258.02697    259.38699    37655.765 
  825200    297.85607   -1547.6403    483.40318    271.09282    191.54737    37655.765 
  825300     307.4287   -1532.3137    479.41695    325.34862    560.54301    37655.765 
  825400    306.00832    -1525.356      477.057    323.57861    817.29528    37655.765 
  825500    298.18989   -1483.1515    507.69187    361.36689     412.7766    37655.765 
  825600    294.64401    -1493.866    456.30145     283.3653    449.49544    37655.765 
  825700     307.4165   -1485.4972    500.94302    393.63648    126.78081    37655.765 
  825800    287.98035   -1510.7854    475.97555    256.24586     461.8739    37655.765 
  825900     299.1214   -1537.6617    489.63409    292.97501   -122.27008    37655.765 
  826000    297.91097   -1525.1618    490.66948    301.08375    245.22137    37655.765 
  826100     306.3381   -1541.1226     478.9092    311.14269    146.14133    37655.765 
  826200     296.1765   -1508.8165    446.37006    265.35378   -430.28304    37655.765 
  826300    296.39261    -1502.394    470.59549    296.97054   -461.98917    37655.765 
  826400    302.37184    -1472.518      484.096    367.15277   -8.2407911    37655.765 
  826500    293.43987   -1490.9713    469.45845    294.01868     -81.9464    37655.765 
  826600    288.45326   -1495.1304    482.26497     280.3104   -473.98407    37655.765 
  826700    302.58802   -1537.6739    467.05125    285.92131    334.76367    37655.765 
  826800    299.05259   -1522.9737    462.28759    280.00801   -173.68277    37655.765 
  826900    306.34672   -1449.2934    470.90509    395.00642    177.63576    37655.765 
  827000    296.84295   -1481.1941    491.91165    341.50553    130.12589    37655.765 
  827100    318.12201   -1488.3049    477.59461    415.47468    109.91782    37655.765 
  827200    300.21068   -1496.2913    501.54789    351.14256    77.838853    37655.765 
  827300    306.00924    -1514.858     462.1417     319.1655    289.45603    37655.765 
  827400    293.61528   -1497.0303    514.13032    333.41789   -24.313295    37655.765 
  827500    303.77583   -1496.2432    475.14645    340.77237   -157.61585    37655.765 
  827600    290.86461   -1503.2696    447.41208    248.12872    36.916827    37655.765 
  827700    313.54958   -1492.6965    474.58666    387.57633     94.82452    37655.765 
  827800    309.58803   -1476.9615     473.6442    384.60863    -478.8788    37655.765 
  827900     307.7683   -1469.9214    483.59914    393.44566   -49.071104    37655.765 
  828000    302.09593   -1522.5978    462.13415    293.87423   -482.20028    37655.765 
  828100    304.00954   -1493.8875    487.16835    356.19768    467.42878    37655.765 
  828200    295.86767   -1489.9984    459.64693    296.06421    265.09776    37655.765 
  828300    286.04978   -1479.7132    486.22482    288.91233     663.9973    37655.765 
  828400    299.75981   -1492.9413    495.78407    346.70742    422.84442    37655.765 
  828500     305.9032   -1502.1428    505.84722    375.11079    276.02547    37655.765 
  828600     291.2343   -1491.9285    468.32718    282.04232   -328.50064    37655.765 
  828700    300.64741   -1508.7123    481.55228    320.68393   -76.605669    37655.765 
  828800    291.39377   -1536.2666    455.95782    226.04977   -8.6747683    37655.765 
  828900    295.57471    -1522.251    484.64587    287.49724    842.90872    37655.765 
  829000     292.2804   -1517.0358    476.20554    269.50319    490.98925    37655.765 
  829100    299.94144   -1533.5345     494.4538    305.59824    622.86941    37655.765 
  829200    294.59737   -1532.4184    493.47252    281.77487    370.92182    37655.765 
  829300    286.20039   -1498.1128    465.73664    250.69976    384.06867    37655.765 
  829400    307.12071   -1527.7084    470.31668     319.4729    195.00268    37655.765 
  829500    297.03651   -1512.5355    491.01568    310.13593    241.78037    37655.765 
  829600    303.32435   -1539.5029    481.40055    301.74269    776.21945    37655.765 
  829700    292.48027   -1512.7189     478.7122     277.2228    686.49902    37655.765 
  829800    302.54474   -1501.0851     507.0007    362.26547    532.14778    37655.765 
  829900     310.3186   -1458.3913    452.65898    385.46894    171.33154    37655.765 
  830000    300.91714    -1512.139    519.12337    356.03754   -329.64408    37655.765 
  830100    298.92129   -1538.8392    466.73569    268.00198   -322.05466    37655.765 
  830200    301.42327   -1568.2975     460.1753    243.20001   -435.12228    37655.765 
  830300    296.66718   -1506.9497    476.43859    299.48889    -42.95295    37655.765 
  830400     299.3959   -1538.2514    466.48623    270.46802    -468.9024    37655.765 
  830500    299.21407    -1472.195     495.3453    364.56834   -435.61932    37655.765 
  830600    296.93436   -1501.2753     476.1751     306.0976   -492.36833    37655.765 
  830700     290.9144   -1486.5238    485.38505    303.07071   -405.11484    37655.765 
  830800     302.2219   -1517.3999    477.41514    314.91781    258.27304    37655.765 
  830900    298.27391   -1440.4181    500.79261    397.57776    -116.8393    37655.765 
  831000    299.20681    -1495.626    456.05237    301.81186   -15.100921    37655.765 
  831100    303.15277   -1514.9352    453.72284    297.86346   -213.87378    37655.765 
  831200    300.86891   -1542.8465    474.16302    280.15348   -30.937324    37655.765 
  831300    304.86196    -1472.434    469.12475    363.42905   -20.942275    37655.765 
  831400    311.31177   -1527.6516    483.38337     351.3855   -285.04918    37655.765 
  831500    304.03304   -1505.5166    505.89377    363.39932   -521.46426    37655.765 
  831600    309.98708   -1523.8367    458.88622    324.76446   -284.67259    37655.765 
  831700    289.90789    -1510.845    484.02742    272.87964   -139.08818    37655.765 
  831800    300.94169    -1541.489    474.30455    281.97878    244.87736    37655.765 
  831900    297.84253   -1539.3831    451.02139    246.90757   -104.13422    37655.765 
  832000    307.56856   -1539.6016    467.38937    306.66021   -354.00549    37655.765 
  832100    297.61442    -1522.441    452.50805    264.31372   -688.46517    37655.765 
  832200    289.59399    -1550.038    468.15955    216.41144   -176.44889    37655.765 
  832300    298.14093   -1540.1468    482.40541    278.86565   -204.06331    37655.765 
  832400    307.29025   -1563.2654    475.04471    289.40402   -80.731479    37655.765 
  832500    297.25356   -1563.1826    453.57996    223.02618    80.839574    37655.765 
  832600    308.26334   -1544.5355    460.39068    297.84239     407.0481    37655.765 
  832700    302.75756   -1493.8517    460.89079    324.34311    108.35222    37655.765 
  832800    299.62655    -1530.532    469.26754    282.00276   -480.30529    37655.765 
  832900    303.93785   -1529.6967    479.87634    312.77503   -778.04146    37655.765 
  833000    297.31022   -1504.4082     454.4359    282.91051   -656.45568    37655.765 
  833100    297.41495   -1474.8815    488.05846    346.52935   -610.54916    37655.765 
  833200    312.03347   -1470.9799     452.5064    380.41576   -281.21497    37655.765 
  833300    303.33559   -1483.4755    497.96541    374.38532   -19.615085    37655.765 
  833400    307.99703   -1470.5777    471.23204    381.44761    694.48809    37655.765 
  833500    294.79044   -1520.2649     485.2886    286.61001    187.12471    37655.765 
  833600    292.88236   -1482.4914    468.07632    298.61711    258.42723    37655.765 
  833700    287.55806    -1486.633    491.64304    294.17258    -228.5766    37655.765 
  833800     302.6541   -1451.5668    483.31795    388.59135    97.424835    37655.765 
  833900    303.64053   -1505.6053    460.41714    316.07436    564.33912    37655.765 
  834000    296.72133   -1538.2576    471.63284    263.61804    581.56318    37655.765 
  834100    309.28251   -1495.1046    470.64477    362.09644    952.86181    37655.765 
  834200    296.04716   -1490.9639    465.48218    301.73865    414.61335    37655.765 
  834300    293.89402   -1502.6703    483.82203    298.71924    177.82449    37655.765 
  834400    307.72495   -1520.1134    483.50815    342.96823    112.06052    37655.765 
  834500     294.0606   -1487.3945    465.76129    296.68112    35.780477    37655.765 
  834600    300.88837   -1521.6828      469.525    296.76637   -127.87294    37655.765 
  834700    298.60955    -1523.078    473.76454    289.39443   -205.21348    37655.765 
  834800    304.17572    -1532.796    479.80686    310.67272    111.65092    37655.765 
  834900    299.80274   -1512.7245    482.56296    313.89557   -408.09358    37655.765 
  835000    292.39563    -1545.415    484.45744    249.89256    483.75919    37655.765 
  835100    305.13798   -1530.0834    470.61165    308.50402   -8.9830089    37655.765 
  835200     300.5031   -1529.0169    467.62592    285.80599     82.52587    37655.765 
  835300    298.39828   -1538.9941    479.27045    278.03708   -468.79462    37655.765 
  835400    307.15388   -1580.9206    467.48686    263.57961    -354.5856    37655.765 
  835500    304.18831   -1557.9808    446.33448    252.07196    -629.8324    37655.765 
  835600    295.61698   -1555.1369    483.08978    253.24471   -537.83262    37655.765 
  835700     300.3942   -1594.9225    472.20528    223.99152   -511.84217    37655.765 
  835800    303.96509    -1592.095    446.16506    216.78759    -773.1931    37655.765 
  835900    302.51141   -1567.8453     468.5319    256.88704    -503.4912    37655.765 
  836000    298.44363   -1577.8862    474.40043    234.47829    88.741066    37655.765 
  836100    297.34023   -1558.2891    473.99627    248.72453    214.18394    37655.765 
  836200    300.97398   -1561.7335     481.5087    269.08316    660.16109    37655.765 
  836300    301.84235   -1583.1736    453.99986    224.02728    807.80281    37655.765 
  836400     294.7158   -1594.3771    467.49927    194.37385     185.3188    37655.765 
  836500    287.20975   -1538.9162    461.67869    210.36353    231.35482    37655.765 
  836600    310.36993   -1556.8489    488.79659    323.37904    105.64266    37655.765 
  836700    297.54396   -1542.7312    474.72131    265.92086    415.82542    37655.765 
  836800    308.30889    -1538.979    473.86014    317.07254    86.446346    37655.765 
  836900    294.34111   -1579.3503    478.16324    218.38483    728.34298    37655.765 
  837000    304.31208   -1569.5763    477.33433    272.03123    466.06907    37655.765 
  837100    296.58639   -1524.2509    492.50169    297.88858    655.07553    37655.765 
  837200    290.50916   -1518.2574    470.59192    254.72723   -85.042781    37655.765 
  837300    290.91094   -1554.4485    448.90283    198.64836    353.63538    37655.765 
  837400    304.04857   -1581.5265    501.11139    282.67669   -514.10157    37655.765 
  837500    303.53886   -1550.9818    470.91502    280.73991   -590.74742    37655.765 
  837600    304.43338   -1565.0804      472.575    272.31159   -746.35136    37655.765 
  837700    302.06842   -1548.8787    486.96781    292.30359   -75.633017    37655.765 
  837800    298.51121   -1589.5683    445.98605     194.6848   -281.84904    37655.765 
  837900    302.65223   -1600.1068    475.21426    231.93928   -356.29621    37655.765 
  838000    297.11258    -1598.645    461.85872    195.21054   -340.90371    37655.765 
  838100    304.36637   -1584.0666    478.22192    258.67183    9.4789303    37655.765 
  838200    305.18024   -1604.4694    479.98091    243.67673    168.82689    37655.765 
  838300    301.37575    -1609.643    476.82423    218.29039    165.63578    37655.765 
  838400    320.18236   -1615.5527    436.17335    256.04252     623.9957    37655.765 
  838500    304.88575     -1612.93    482.39625    236.31125    414.82165    37655.765 
  838600    304.67636   -1609.0806    465.24883    222.07446    207.17919    37655.765 
  838700    302.89299   -1594.6322    471.82293    235.10191    2.8500619    37655.765 
  838800    292.69206   -1535.8822    479.91062    256.20737    310.99788    37655.765 
  838900     294.2313   -1548.5841    454.57969    225.07524    540.49771    37655.765 
  839000    297.52491   -1511.9429    498.93569    320.83816   -370.70898    37655.765 
  839100    313.53605   -1496.0474    479.20936    388.78746   -128.95775    37655.765 
  839200     309.1551   -1545.1414    479.94844    320.79211    278.41445    37655.765 
  839300    299.19157   -1556.0309    477.43736    262.72367   -182.38628    37655.765 
  839400    307.99942   -1503.4388    499.43501    376.80016    683.38029    37655.765 
  839500    307.37798   -1524.1755    492.92392    346.76644    345.93031    37655.765 
  839600    294.90689   -1527.1892    482.20206    277.12126    344.53677    37655.765 
  839700    302.76964    -1563.345    465.50967    259.52283    76.773646    37655.765 
  839800     298.8344   -1562.0119    482.96298    260.66703    148.28488    37655.765 
  839900    306.79705   -1551.0009    489.63841    314.05114    89.228677    37655.765 
  840000    304.19729   -1549.1307    469.83679    284.46457    125.11649    37655.765 
  840100    306.87188   -1523.5944    463.44582     315.6005     -216.269    37655.765 
  840200    299.34552   -1562.7597    465.19682    244.44447     52.80623    37655.765 
  840300    310.67171   -1580.5138    466.08025    278.35074    200.18351    37655.765 
  840400    298.67166   -1617.0576    465.50916    187.43796   -428.18713    37655.765 
  840500    292.17476   -1589.1818    474.70882    195.38683   -719.35377    37655.765 
  840600     300.0249   -1602.5468    455.71619    198.22258    3.8485736    37655.765 
  840700    295.60477   -1560.3096    458.96726    223.89478   -150.18092    37655.765 
  840800    299.26629   -1549.1206    475.24547      267.777   -22.579771    37655.765 
  840900    290.70916    -1569.671    495.37977    228.99814   -5.8173924    37655.765 
  841000    294.65055   -1528.2274    463.52778    256.25951    -63.29613    37655.765 
  841100    303.31513    -1540.183    477.71674    297.33739     341.0995    37655.765 
  841200    295.14275    -1533.731    463.09006    252.52481   -287.42084    37655.765 
  841300    304.02902   -1512.8371    472.82601    322.99304    224.48125    37655.765 
  841400    302.51391   -1535.6409    472.16761    292.73844    -508.0417    37655.765 
  841500    294.44864   -1493.4286    474.26615    300.89149    -373.2403    37655.765 
  841600    298.26319   -1526.3274    465.41593    276.24366   -2.2391431    37655.765 
  841700     296.6929   -1509.2332    452.72196    273.60408   -357.00955    37655.765 
  841800    301.61437   -1506.0704    478.81591    324.92451   -183.45056    37655.765 
  841900    297.20114   -1508.4413    446.94254    270.89502   -330.53397    37655.765 
  842000    291.08447   -1534.5068    462.59067    233.05582     328.7631    37655.765 
  842100    307.10336    -1508.522    473.43795    341.70277   -50.131043    37655.765 
  842200    305.17025   -1509.3972    495.38745    354.11074     282.4333    37655.765 
  842300    299.90784   -1464.1188    486.34348    366.75294     408.7654    37655.765 
  842400    301.95291   -1523.4962    518.01486    348.21536    870.79903    37655.765 
  842500    298.36534   -1493.3375    455.53044    299.80604    294.52336    37655.765 
  842600     309.0176    -1524.467    516.28439    377.18603    576.01706    37655.765 
  842700    294.30162   -1517.6801    490.25677    291.97155    75.312165    37655.765 
  842800    311.27356   -1498.4879    482.30782    379.30232    756.24721    37655.765 
  842900    300.13788    -1521.212     474.7395    299.08712   -117.45362    37655.765 
  843000    304.97475   -1516.0495    465.35655      316.551    414.27565    37655.765 
  843100    308.55595   -1505.5672    483.54317    361.27498    506.66138    37655.765 
  843200    308.93432   -1504.6396    462.54792    342.90366    43.922401    37655.765 
  843300    308.25958   -1523.4665    462.35887    320.86274    132.60543    37655.765 
  843400     328.2381   -1498.8079    494.36613    467.09503   -578.41214    37655.765 
  843500    297.95804   -1485.0174    488.12854    338.89825   -203.60407    37655.765 
  843600    297.77183   -1478.3087    498.24482    354.88844    -131.4434    37655.765 
  843700    305.64625   -1507.3765    459.13062    322.00852    -275.0787    37655.765 
  843800    302.08943    -1488.368    484.74296     350.6837   -132.57492    37655.765 
  843900    296.45887   -1480.8665    496.76704    344.96662     201.5976    37655.765 
  844000    293.01204   -1497.2237     476.2997    292.68949    -229.4266    37655.765 
  844100    305.99848   -1531.9209    466.21712    306.12972   -664.39905    37655.765 
  844200    300.38941   -1505.6693    488.78838    329.80632   -875.92719    37655.765 
  844300    298.73952   -1500.4018    466.02757    304.91637   -703.37957    37655.765 
  844400    304.07201   -1538.6617    482.39887      306.934     429.3504    37655.765 
  844500    301.89549   -1485.0756    467.78482    336.14847    86.943218    37655.765 
  844600    301.55733   -1520.1974    480.92917    312.65503    275.39313    37655.765 
  844700    294.30641   -1522.1417    466.08047     263.3551    277.17828    37655.765 
  844800    288.19651   -1553.0219     483.6319    222.63479    89.370861    37655.765 
  844900    295.44645   -1579.9858    478.16509    222.70659     384.6645    37655.765 
  845000     297.6071   -1592.2788     468.5036    210.43862   -280.75451    37655.765 
  845100    306.59248   -1545.9208    466.68319    295.25892   -462.15506    37655.765 
  845200    296.66506   -1541.4625    467.76091    256.28885    124.23105    37655.765 
  845300    287.87874   -1578.7298    461.99671    173.86717    277.02103    37655.765 
  845400    303.26837   -1520.9168    462.34538    301.02257    480.61968    37655.765 
  845500    304.15414    -1523.465    484.74325    324.84338    683.63573    37655.765 
  845600    298.54713   -1527.6968    466.54843     277.2797    295.08682    37655.765 
  845700    296.47435   -1558.2774     449.9315    220.78962    292.15989    37655.765 
  845800    306.09439   -1554.9826    463.09695    280.37787    373.91412    37655.765 
  845900     312.4902   -1523.4538    472.22305    349.70603    471.46857    37655.765 
  846000    292.93757    -1575.315    468.51311    206.47778    272.14575    37655.765 
  846100    304.11138   -1599.0682    456.60775     220.9129   -260.35892    37655.765 
  846200    297.34557   -1594.8635    469.49486    207.67267   -567.85395    37655.765 
  846300    297.54734   -1532.7393    464.06627    265.27285   -121.80028    37655.765 
  846400    298.50868   -1544.8264    469.94823    263.37755   -354.53237    37655.765 
  846500    301.60101   -1576.4351    453.50353    229.18745    462.27494    37655.765 
  846600     292.5329   -1567.1234    462.96979    207.31186     32.38115    37655.765 
  846700    300.69453   -1567.7109    465.10336     245.4476    -376.5562    37655.765 
  846800    298.67289   -1510.4974    450.31215    278.80658   -463.87143    37655.765 
  846900    300.37508   -1533.9454    450.52552    263.20309   -343.97808    37655.765 
  847000    313.34621   -1600.2108     461.5945    266.15809   -503.78702    37655.765 
  847100    289.86296    -1576.163    448.86744    172.20024   -55.508782    37655.765 
  847200    306.99884   -1556.8409    484.76636    304.24374    784.92924    37655.765 
  847300    297.48738   -1532.1165    488.22532    289.78595    732.81251    37655.765 
  847400    295.31693   -1542.8589    463.65812    244.74589   -307.50855    37655.765 
  847500    304.46296   -1557.0911    468.02619    275.88467    58.415668    37655.765 
  847600    306.77064   -1529.6242    491.75679    337.42784   -46.071381    37655.765 
  847700    300.10124   -1517.6482    468.87383    296.62099    -149.9759    37655.765 
  847800    293.43963   -1483.3124    494.51303    326.73109     440.2529    37655.765 
  847900    300.72755   -1520.4105    501.28125    329.07394    62.227518    37655.765 
  848000    300.96167   -1512.2479    454.89791    291.90286    475.73179    37655.765 
  848100    298.11235   -1525.7686     470.3272    281.03746   -85.172956    37655.765 
  848200    302.81192    -1507.374    461.34042    311.51418    85.113056    37655.765 
  848300    304.47429   -1488.2439    468.83932    345.59572    23.522072    37655.765 
  848400    313.39842   -1483.9376    480.08193    401.15278   -55.068057    37655.765 
  848500    300.53284   -1493.0634    461.58574     315.8526   -329.88318    37655.765 
  848600     302.0173   -1491.2818    486.42395    349.12751   -219.77567    37655.765 
  848700     304.3017   -1484.4024    480.70451    360.52865    84.548415    37655.765 
  848800    313.59246   -1469.7009    452.82632    389.00378    198.45619    37655.765 
  848900    300.21589   -1457.6329    492.00232    380.27879    76.898449    37655.765 
  849000    289.93335   -1471.3712    471.11676    299.55686      490.438    37655.765 
  849100    307.70957   -1483.2674    477.28181    373.51894    365.46948    37655.765 
  849200    305.38493    -1521.397    476.78521    324.47113    341.77462    37655.765 
  849300     309.7908   -1488.2535    446.51336    347.09482    546.07746    37655.765 
  849400     285.9148   -1479.8722    473.81211    275.73547    88.772339    37655.765 
  849500    314.47366   -1488.8609    469.75695    390.72502   -253.15932    37655.765 
  849600    300.00193   -1495.5872    486.48116    335.84416    110.42005    37655.765 
  849700    307.16544   -1523.3277     463.0339    316.77139    3.6279185    37655.765 
  849800    301.12257   -1511.4191    469.23127     307.7863   -53.556204    37655.765 
  849900    300.71398   -1499.8566    491.31928    339.60503    259.04924    37655.765 
  850000    306.86078   -1475.0731    456.26373    356.88999   -150.99961    37655.765 
  850100    298.72903   -1467.3864    477.01268    348.86986    457.56135    37655.765 
  850200    300.61173   -1489.0808    469.07996    327.68309    5.5797546    37655.765 
  850300    296.50303   -1480.6954    470.09681    318.66552    103.41038    37655.765 
  850400    300.30595   -1511.0135    492.08172    327.38132    575.71723    37655.765 
  850500    291.81926   -1475.2583    483.82626    316.83408    232.32383    37655.765 
  850600    292.16602   -1487.4199    467.77703    290.17776   -137.69277    37655.765 
  850700    311.42003   -1513.8421    478.23045    360.52745   -148.96674    37655.765 
  850800    308.44679   -1516.4698    456.54167    322.88145    88.423162    37655.765 
  850900    296.55885    -1499.892    489.35898    318.98135    168.58531    37655.765 
  851000    304.38706    -1475.611    510.33091    399.32917   -52.117114    37655.765 
  851100    305.25072   -1494.1474    466.17553    340.50937   -552.38358    37655.765 
  851200    304.94202   -1497.5866    487.87769    357.38835   -224.68363    37655.765 
  851300    294.63408   -1496.1791    486.81554    311.52181     -10.4227    37655.765 
  851400    300.09519   -1470.3038    490.94313    366.00757    8.9641984    37655.765 
  851500    292.53869   -1490.5493    460.08289    281.02505   -222.81722    37655.765 
  851600    305.93815   -1491.3757    491.73449    371.92184    280.59518    37655.765 
  851700    294.06493   -1506.0776    466.22192    278.47811    174.91863    37655.765 
  851800    292.72621   -1508.8934    496.00626    299.44496    241.73608    37655.765 
  851900    299.19673   -1500.0553    479.47325    320.75831   -114.24919    37655.765 
  852000    301.62156   -1478.2414    460.08388    334.05366   -7.3433999    37655.765 
  852100    304.04418   -1518.8596    503.20623    347.41875     84.51335    37655.765 
  852200    302.81457   -1476.5674    486.58787    367.58011     280.4659    37655.765 
  852300    294.69773   -1489.9147    488.15005    319.40603   -260.53084    37655.765 
  852400    310.19972   -1463.3803    500.92119    428.20913    308.03688    37655.765 
  852500    300.22841   -1505.3089    502.05245    342.70904   -521.78064    37655.765 
  852600    298.96029   -1529.9913    481.75903    292.04803    83.191927    37655.765 
  852700    299.89708   -1550.4578    482.38752    276.40976    399.53317    37655.765 
  852800     305.8619   -1511.9941    496.95339    356.18046    494.62975    37655.765 
  852900    310.30703   -1499.0038    499.98653    392.13206    752.77673    37655.765 
  853000    301.05855   -1540.9663    494.49116    303.21203    215.60273    37655.765 
  853100    293.28908   -1528.2648    472.90279    259.49347    83.404411    37655.765 
  853200    302.97568   -1503.9535    486.90189    341.23027   -133.11542    37655.765 
  853300    295.74488   -1464.0664    496.23628    358.03513   -239.10696    37655.765 
  853400    305.15921   -1453.1951    468.78222    383.65809   -368.95126    37655.765 
  853500    301.79704        -1411    514.39728    456.39512   -654.59627    37655.765 
  853600    289.95485   -1433.9626    475.84243    341.78758   -334.60387    37655.765 
  853700    298.75123   -1499.9365    481.45142    320.85795   -262.18172    37655.765 
  853800    292.12336   -1436.7892    476.20458    349.04482    297.27014    37655.765 
  853900    301.30005   -1461.1201    477.60657    367.25626    234.12032    37655.765 
  854000    304.65079   -1483.0522    492.01067    374.75005   -284.54394    37655.765 
  854100    292.08288   -1447.1936     476.3653    338.61966   -119.76564    37655.765 
  854200    300.52752   -1488.6253    510.49232    369.17343   -185.66535    37655.765 
  854300    300.53478    -1499.051    472.97786    321.26583   -251.04272    37655.765 
  854400    288.79478   -1482.1593    480.13127     292.6789   -180.37093    37655.765 
  854500     292.0512   -1499.9465    482.29434    291.65377   -55.021384    37655.765 
  854600    305.03128   -1494.1101     479.4421    352.82942     82.42924    37655.765 
  854700    288.26809   -1527.5532    481.29021    246.08279   -143.40677    37655.765 
  854800    299.73867   -1495.9423    496.46009    344.28771    206.53791    37655.765 
  854900    288.96452   -1548.1968    464.21415    211.48523   -36.536755    37655.765 
  855000    289.05351   -1539.5788    492.10416    248.39224    101.51484    37655.765 
  855100    294.28146   -1504.3264    475.53909     290.5172   -111.50574    37655.765 
  855200    305.94462   -1558.5463    456.10425    269.14999   -410.05025    37655.765 
  855300    296.52987   -1545.7734    486.75925    270.37025   -768.15951    37655.765 
  855400    294.96536   -1538.3973    455.73706    239.71029    -278.8892    37655.765 
  855500    302.54614   -1544.9404    451.99424    263.41007    391.19838    37655.765 
  855600    288.13656   -1541.9646    461.87534    211.66683    2.7728259    37655.765 
  855700    305.40975   -1537.9196    458.60083    289.87543   -611.35654    37655.765 
  855800    292.28637   -1508.8934    445.69583    247.16265    -134.3996    37655.765 
  855900    295.41236   -1497.4374    482.34511    309.28222   -13.681192    37655.765 
  856000    292.08402   -1519.0184    480.18457    270.61923    21.355258    37655.765 
  856100    293.40112   -1541.7762    477.01629    250.59788    133.54975    37655.765 
  856200    299.82054   -1554.8889    454.19627    243.44426    191.61221    37655.765 
  856300    289.65563   -1533.5386    463.57347    228.60111   -275.97028    37655.765 
  856400    301.50703   -1516.9251    471.60065    306.37331   -745.67706    37655.765 
  856500    295.48954   -1523.1159    458.66254    260.26714    144.73296    37655.765 
  856600    307.74753   -1544.6483    486.34353    321.37002    419.72034    37655.765 
  856700    297.86067   -1539.6226    479.08398    274.81203    -16.57694    37655.765 
  856800      307.394   -1509.0238    451.56326    320.62926   -161.98733    37655.765 
  856900    294.37107   -1527.4741    450.90993    243.14207   -432.61302    37655.765 
  857000    304.51226   -1523.2263    471.28334    313.22765   -425.76124    37655.765 
  857100    305.74831   -1523.7769    477.13876    324.07379   -92.034748    37655.765 
  857200    311.78272   -1566.6881    472.48962    303.56661     256.9711    37655.765 
  857300    304.17207   -1524.9085    479.64295    318.37993    158.87897    37655.765 
  857400    299.91374     -1535.71    459.03949    267.88424    262.52308    37655.765 
  857500    300.41944   -1530.8483    485.61921    301.59283     254.1273    37655.765 
  857600    308.20625   -1552.0749    500.42022    330.07655    747.32799    37655.765 
  857700     298.0124   -1566.5729    457.65794    227.11588    533.00454    37655.765 
  857800    303.99582   -1564.4598    500.69117    299.08667    168.56442    37655.765 
  857900      304.294   -1594.7066    473.89097    243.37651    110.39431    37655.765 
  858000     293.1988   -1574.2674    469.88649    210.06982    288.98207    37655.765 
  858100    303.45658   -1512.2966    464.90933    313.05056   -54.041607    37655.765 
  858200    297.06352   -1533.1617    442.34534     240.9605   -398.51527    37655.765 
  858300    298.94196   -1552.6358    445.84398    233.40638   -201.31307    37655.765 
  858400    303.36184   -1549.0512    488.93062    299.89256   -604.18862    37655.765 
  858500    305.43294   -1559.1503    478.34338    288.49123   -232.33492    37655.765 
  858600    289.21263   -1554.7256    490.50909    232.36372     365.9987    37655.765 
  858700    295.80005   -1535.8517    483.70958    273.97044    326.09242    37655.765 
  858800     297.3345   -1556.4671    476.30847    252.83306    137.42731    37655.765 
  858900    290.11538   -1520.6711    478.81322    258.76949    60.122224    37655.765 
  859000    305.15174   -1519.1593    478.18387    327.06199    67.675734    37655.765 
  859100    296.39705   -1486.7612     497.8916    339.91939   -124.31491    37655.765 
  859200    309.35446   -1516.1584    467.34444    338.06485    10.745985    37655.765 
  859300    292.59472   -1517.2566    460.38119    254.86714   -683.15602    37655.765 
  859400    304.61509   -1490.1107    474.02434    349.54524    181.06887    37655.765 
  859500    301.69099   -1583.6278    445.66863    214.56321   -25.443186    37655.765 
  859600    312.11519   -1607.1356    464.91278    257.03274    163.48188    37655.765 
  859700    312.05285   -1579.6853    454.45985    273.75067   -389.83442    37655.765 
  859800    310.79463    -1574.662    444.93863    263.61194   -49.018008    37655.765 
  859900    299.55867   -1563.2874    450.15075    229.82626   -256.75356    37655.765 
  860000     295.2278   -1589.6514      484.425    218.32062   -133.23924    37655.765 
  860100     297.5063   -1575.5557    491.95934    250.16554    81.306522    37655.765 
  860200    296.69252   -1570.6992    497.80505    257.21943    233.67814    37655.765 
  860300    299.28233   -1556.1338    463.78811    249.37835    444.67644    37655.765 
  860400    302.04449   -1550.2135    473.03094    276.92461    875.50422    37655.765 
  860500    299.44108   -1594.7761    457.36211    205.02179    774.74851    37655.765 
  860600    302.08038   -1552.0317    485.74214    287.97853    291.06305    37655.765 
  860700     304.5071   -1606.7588    473.67242    232.06111   -258.84054    37655.765 
  860800    290.00876   -1577.7811    471.01874    193.38706   -316.43234    37655.765 
  860900    301.10485   -1569.1806    448.64823    229.36236     179.3067    37655.765 
  861000    313.42086   -1590.4991    465.69088    280.30088   -675.50417    37655.765 
  861100    294.92652   -1561.6006    472.07177    232.66761   -95.060868    37655.765 
  861200    297.50327   -1551.9456    471.17667    252.97943     149.6936    37655.765 
  861300    299.57131   -1506.5746    491.64838    328.09335    207.72883    37655.765 
  861400    288.39659   -1515.8995     480.4945    257.51677    905.45731    37655.765 
  861500    293.10346   -1537.5844    457.27409     233.7131    303.42476    37655.765 
  861600    300.81147   -1461.9776    484.66635    371.26817    141.55446    37655.765 
  861700    297.50876   -1503.8111      474.058    304.01981    123.54234    37655.765 
  861800    298.53225   -1561.4661     477.8319    254.72715   -143.36887    37655.765 
  861900    297.70163   -1561.4405    483.51408    256.71118   -167.97363    37655.765 
  862000    305.94755    -1540.276    454.83603    286.16524   -131.98544    37655.765 
  862100     303.8431   -1503.4395    496.91569     355.6468    756.82619    37655.765 
  862200    295.13584   -1580.9772    472.54131     214.6989    473.74361    37655.765 
  862300     291.9119   -1541.7314    455.09022     222.0403   -198.87132    37655.765 
  862400    298.86377   -1573.8582    461.92345     227.9129   -285.09995    37655.765 
  862500    296.60122   -1525.7286    462.75089    266.72652   -128.95763    37655.765 
  862600    291.22885    -1533.075    482.98997    255.53421   -223.44484    37655.765 
  862700    307.12571   -1481.2474    477.53951    373.17909   -392.94826    37655.765 
  862800    309.86387   -1508.0888    488.25187    369.32568   -646.42537    37655.765 
  862900    294.95549   -1539.2212    459.73283    242.83787   -823.90144    37655.765 
  863000    293.93714   -1517.6557    488.76739    288.87257   -462.80747    37655.765 
  863100    294.07695    -1495.641    495.15389    317.90057   -701.37069    37655.765 
  863200       298.44   -1519.1629    454.77211    273.55698     22.98148    37655.765 
  863300    321.93036   -1528.9175    505.41941     419.7602    260.38316    37655.765 
  863400    292.76542   -1547.4533    457.66425    222.71886    838.26546    37655.765 
  863500    302.21767   -1538.6529    488.10736     304.3381    600.01151    37655.765 
  863600    292.51264   -1500.7329    509.42755    320.06933     755.2159    37655.765 
  863700    293.35569   -1549.0626    492.05984    258.15135     280.0106    37655.765 
  863800    303.28097   -1527.8547    468.79345    300.58925    257.72416    37655.765 
  863900    304.94598   -1544.5408    484.67815    307.25239    666.66521    37655.765 
  864000    305.54334   -1550.3767    476.08685    295.50322    180.76359    37655.765 
  864100    299.22171   -1526.0739    499.27038    314.64885    251.67775    37655.765 
  864200    298.24408    -1537.045    486.65607    286.68052    -291.5697    37655.765 
  864300    308.22879   -1549.2746    468.26192    300.81965   -12.727994    37655.765 
  864400    305.47298   -1511.6627    484.06685    341.88175    328.72358    37655.765 
  864500    291.05046   -1520.0532    481.69811    266.46436    14.247772    37655.765 
  864600    305.97626   -1521.4346    473.03431    323.33358   -503.69404    37655.765 
  864700    306.08956   -1481.5035     479.7779    370.51621   -889.74149    37655.765 
  864800    303.17896   -1517.1909    478.71817    320.72046   -949.36507    37655.765 
  864900    292.56751   -1526.3686    492.34817    277.60019   -475.84136    37655.765 
  865000    303.91724   -1555.1139    470.72173    278.11092   -297.95817    37655.765 
  865100    313.11983   -1590.1127    471.07664    284.72341    102.72931    37655.765 
  865200    305.74438   -1547.4044    499.74861    323.03856   -779.48805    37655.765 
  865300    292.90522   -1572.1082    461.17266    202.19904    104.90897    37655.765 
  865400    299.27015   -1543.8557    480.37216    278.18592   -341.15228    37655.765 
  865500    302.93975   -1569.0264    462.90667    252.00103   -678.49168    37655.765 
  865600    292.55555    -1551.822    476.41721    236.16215   -580.86012    37655.765 
  865700    294.90848   -1594.1433    496.19566    224.16786   -460.38789    37655.765 
  865800    293.51774   -1547.6119    460.50255    228.77131   -31.407638    37655.765 
  865900    307.98759   -1542.2639    484.49871    322.98583    614.06817    37655.765 
  866000    299.44679   -1554.0551    485.85551    274.26181    575.61806    37655.765 
  866100      299.166   -1567.2334    491.07502    265.04418    144.41602    37655.765 
  866200    305.52963    -1537.012    482.42867    315.14832   -40.144325    37655.765 
  866300    295.64612   -1551.2319     486.9923    261.18285   -102.42728    37655.765 
  866400    295.20349   -1548.3436    485.15601    260.25053    77.337219    37655.765 
  866500    284.39904   -1592.9627     452.4597    134.49725    222.30961    37655.765 
  866600    295.49245   -1558.3171    471.71263     238.1291    495.23262    37655.765 
  866700    300.07873   -1535.3245    490.20868    300.17866    652.52761    37655.765 
  866800    305.66097   -1541.3178    478.00761    307.01024   -236.68588    37655.765 
  866900     298.2926   -1504.7312    455.76511    288.32092   -23.646412    37655.765 
  867000    310.59293     -1561.91     491.8245     322.3456    -156.7866    37655.765 
  867100    290.76383   -1549.3029    499.04453     253.2761    422.26796    37655.765 
  867200    311.30352   -1530.7394    523.15335    388.03071     426.6604    37655.765 
  867300    315.39082    -1530.784     480.5189    363.67556    23.358367    37655.765 
  867400    292.85613   -1574.7966     487.8946    226.01251    515.62304    37655.765 
  867500    312.98858   -1531.7656    461.23028    332.63575    1162.2948    37655.765 
  867600    299.65881   -1556.7178    483.50802    270.20207    346.10663    37655.765 
  867700    287.70557   -1555.5629    467.13181    201.39276    434.50876    37655.765 
  867800    301.35756   -1533.4993    501.34964    318.87794   -316.38064    37655.765 
  867900    299.12559   -1525.7223    474.76686    290.06594   -301.84798    37655.765 
  868000    301.02916   -1581.3372    475.97114    244.18935    257.67562    37655.765 
  868100    303.98947   -1563.6547    480.98739    280.15954    330.95401    37655.765 
  868200    296.13843   -1518.6643    488.42315    297.38841   -363.25267    37655.765 
  868300    309.95795   -1529.3332    479.40493     339.6561   -305.26552    37655.765 
  868400    296.37994    -1551.563    491.03917    268.18848    49.254123    37655.765 
  868500    286.53355   -1553.7247    464.23419    195.07897   -656.79007    37655.765 
  868600     296.2467   -1562.4826    474.83905    240.47142    78.611245    37655.765 
  868700    302.72802   -1547.9299    477.42192    286.66361    94.360017    37655.765 
  868800    293.82189   -1537.7942     507.4644    286.91432   -713.39085    37655.765 
  868900    303.12737   -1578.2605    483.50471    264.20618   -414.48781    37655.765 
  869000    310.72474    -1526.324    505.67886    372.37684   -380.14506    37655.765 
  869100    306.16651    -1555.676    479.09965    296.01043   -518.56188    37655.765 
  869200    308.83422   -1520.0159    468.45299    332.98363    -434.9087    37655.765 
  869300    289.31553   -1514.3589    481.20555    263.88821   -94.006806    37655.765 
  869400    298.24617   -1561.7864     466.0353    241.32776   -547.87659    37655.765 
  869500    303.67544   -1543.5995    482.34104    300.16055    476.87782    37655.765 
  869600    288.17504   -1523.3196    506.56508    275.17401   -123.05772    37655.765 
  869700    303.10665   -1540.2236    486.71718     305.3626   -106.87913    37655.765 
  869800    302.48783   -1493.3388    511.74745    374.50339    14.764831    37655.765 
  869900    291.84401   -1471.3918    490.98819    327.97342   -214.93436    37655.765 
  870000    302.12877   -1523.3198    500.32936    331.49463   -434.69322    37655.765 
  870100    299.74754   -1566.7142    462.61175    239.70722    55.587696    37655.765 
  870200    301.93925   -1537.6173    502.73379     318.7519    -785.2665    37655.765 
  870300    288.93684   -1545.4802    462.05105    211.91465   -44.379287    37655.765 
  870400    317.41044   -1513.9002    492.08698    401.18164   -81.558569    37655.765 
  870500    295.95925   -1557.4214     486.3473    255.75212   -326.70252    37655.765 
  870600    302.42765   -1527.5101     487.6199    315.93474    127.91575    37655.765 
  870700    286.64441   -1574.0021    476.18284    187.24722   -224.41374    37655.765 
  870800    302.79967   -1515.1117     497.2207    339.60183   -197.68571    37655.765 
  870900    305.94256   -1563.1029    490.72379    299.20364     259.8413    37655.765 
  871000    306.65443    -1539.653    468.91432     304.0356    318.41781    37655.765 
  871100     306.0262   -1549.4113    469.88369    292.43013   -38.151314    37655.765 
  871200    302.10478   -1562.7481    495.89793    287.52738   -40.188109    37655.765 
  871300    300.39539   -1562.1829    442.73978    227.27098    434.35274    37655.765 
  871400    278.02169   -1560.6113    503.00488    188.80326   -224.63505    37655.765 
  871500    288.56454   -1595.4733    499.72632    197.92776    -341.8877    37655.765 
  871600    299.09648   -1583.9821    498.38821    255.29696    240.67016    37655.765 
  871700    302.20201   -1529.5059    493.91017    319.21771   -463.87827    37655.765 
  871800    299.32631   -1562.7376    490.08555    269.26917   -362.50211    37655.765 
  871900    288.81189   -1548.8161    496.56191    242.52943   -859.74789    37655.765 
  872000    295.43958   -1582.7616    451.94855    193.68341   -184.30704    37655.765 
  872100    294.49292   -1559.0583    479.87479    241.06896   -714.59679    37655.765 
  872200    302.06839   -1520.4564    480.83962    314.59763   -571.01414    37655.765 
  872300    294.62026   -1554.4187     480.5443    246.94904    25.897161    37655.765 
  872400    305.61331   -1592.5227    492.70189    270.28591    16.767858    37655.765 
  872500    307.36964   -1569.9753    487.99905    296.00431    474.16465    37655.765 
  872600    295.64821   -1572.9346    470.55263    223.04982   -10.399785    37655.765 
  872700    290.69893   -1582.0343    471.47274    192.68196   -125.45243    37655.765 
  872800    284.72318   -1560.3852    501.43199    217.50015   -461.42566    37655.765 
  872900    304.30634   -1570.6083    489.34033     282.9794     -220.205    37655.765 
  873000    291.68677   -1559.8254    464.43077    212.27748   -14.975973    37655.765 
  873100    296.46637   -1529.8618    490.65858    289.89653    446.57831    37655.765 
  873200    296.75258   -1532.1766     480.9794    279.18565    124.70973    37655.765 
  873300    303.90885   -1537.9253    498.77544    323.31549    404.30286    37655.765 
  873400    291.92343   -1539.8748    479.03094    247.88927    309.14817    37655.765 
  873500    298.98731   -1553.6754    466.53472    253.26078    326.25739    37655.765 
  873600    302.63098   -1582.3632    489.64063    264.01393   -267.89385    37655.765 
  873700    293.56859   -1537.4091    488.47235    267.17184     609.6492    37655.765 
  873800    295.16607   -1581.8252    453.06598    194.51108    280.35667    37655.765 
  873900     311.2246   -1559.0314    477.96974    314.20124    437.35715    37655.765 
  874000    311.08377   -1573.5493     479.4495    300.53177    79.936527    37655.765 
  874100    296.74494   -1557.7645    479.78465    252.36877    739.29062    37655.765 
  874200    289.83279   -1572.6799    497.00879    223.68934     771.7801    37655.765 
  874300    301.84071   -1611.1566    481.16469     223.2017    503.29281    37655.765 
  874400    305.63122   -1613.7967    481.15551    237.54585    514.96618    37655.765 
  874500    291.22344   -1570.4712    484.19343    219.31718   -102.16308    37655.765 
  874600    298.86237   -1615.0769    464.48109    189.24559     293.1721    37655.765 
  874700    314.97697   -1579.0136    456.77404     289.8458    254.09581    37655.765 
  874800    297.55036   -1570.7525     480.1202    243.32707   -177.16421    37655.765 
  874900    299.46613   -1552.7713    497.98995    287.76676    23.657944    37655.765 
  875000    297.93936   -1563.4404    480.32184    252.58482    -114.5085    37655.765 
  875100    302.20384   -1562.4369    482.65668    275.04139    -175.5252    37655.765 
  875200    310.42298   -1588.3847    462.99155    266.27598   -482.94783    37655.765 
  875300    296.14802   -1563.6224    492.03132    256.08151   -526.83077    37655.765 
  875400    301.72172   -1574.0823     472.1453    250.72321    190.85931    37655.765 
  875500    300.69857   -1590.0059    461.87526    219.94267     260.7804    37655.765 
  875600    305.63802   -1587.9338    506.23881    288.52255   -364.03067    37655.765 
  875700    308.44177    -1572.086    476.29631    286.99749    127.76901    37655.765 
  875800    305.30952   -1570.1147    469.64661    268.27673    449.10596    37655.765 
  875900    290.83741   -1548.8197    476.28734    231.33197    669.34227    37655.765 
  876000    291.34912   -1577.2567    497.22328    226.12494    476.93297    37655.765 
  876100    301.46673   -1535.3013    496.10497    312.32069    657.63615    37655.765 
  876200    298.69148   -1532.5649     464.3422    270.85254     857.3526    37655.765 
  876300    303.68852   -1536.6891    485.05607    309.84465    237.59959    37655.765 
  876400    299.95341   -1554.2739    477.76976    268.22849    410.52751    37655.765 
  876500    284.71725   -1552.0702    481.24638    205.60299    248.66545    37655.765 
  876600    305.46546   -1547.8291    470.56854    292.18334   -18.576159    37655.765 
  876700    303.65449   -1572.0009    473.99016    263.31438    40.068253    37655.765 
  876800    292.58543   -1507.2512    473.60022    278.04995   -289.21055    37655.765 
  876900    297.37785   -1475.8791    501.31468     358.6216   -104.75215    37655.765 
  877000    301.03823   -1567.1139    448.85851    231.34063    -191.7443    37655.765 
  877100     294.1595   -1569.1484    462.10414    211.71346   -530.05057    37655.765 
  877200    292.53475   -1528.6564     493.5069    276.32425   -153.13204    37655.765 
  877300    302.64431   -1492.3264    489.27126    353.74116   -172.86299    37655.765 
  877400    297.70071   -1489.1767     445.8144     291.2711    -626.8744    37655.765 
  877500    301.76287   -1514.9925    447.04949    284.90166   -602.62547    37655.765 
  877600    298.39216   -1537.9591     467.4245    267.19873   -302.13156    37655.765 
  877700    298.79635   -1520.1495    476.39352    295.78936   -68.808158    37655.765 
  877800    305.97664   -1507.4087    497.86341    362.19031   -130.14985    37655.765 
  877900    294.04895   -1530.1584    484.57988    272.68364    66.356273    37655.765 
  878000    304.87338   -1541.8234     489.9639    314.92999    65.762007    37655.765 
  878100    295.37588   -1554.5532    479.56701    249.22474   -63.816625    37655.765 
  878200    294.88962   -1517.4371    500.58192    305.17582    812.42719    37655.765 
  878300    312.45239   -1567.2626    459.22468     292.7294   -53.866631    37655.765 
  878400    300.89871   -1535.4577     464.4817    277.99458    326.13042    37655.765 
  878500    308.54569   -1523.5975    480.16987    339.82538   -387.82915    37655.765 
  878600    304.00682   -1516.4596    481.11231    327.55732   -377.70252    37655.765 
  878700    301.82534   -1539.9653    477.00458      290.164   -620.62525    37655.765 
  878800    290.57656   -1514.0768    459.15806    247.77617   -372.29877    37655.765 
  878900     298.4234   -1569.3164     464.0864    232.64337   -424.28497    37655.765 
  879000    295.57854   -1508.6888    484.27074    300.70142   -110.80904    37655.765 
  879100    291.15664   -1520.1478    491.69149    276.83917   -14.189452    37655.765 
  879200    304.46553   -1538.2987    475.53393    302.19633    684.76572    37655.765 
  879300    311.78197   -1529.7288    457.83373    325.86664    611.07439    37655.765 
  879400    296.73314   -1463.7254    508.06046    374.63079   -105.73551    37655.765 
  879500    294.38436   -1489.4597    455.55128    285.85735   -427.45768    37655.765 
  879600    294.37919   -1468.0967     477.2418    328.88771   -238.18698    37655.765 
  879700     299.7479    -1489.702    474.15553    328.26482   -387.42075    37655.765 
  879800    302.34382    -1499.966    502.65612    358.13928   -786.24933    37655.765 
  879900    298.31655   -1504.1889    445.85622    279.06162   -681.45116    37655.765 
  880000    314.59756   -1498.7821     493.9497    405.55203   -170.50063    37655.765 
  880100    302.20967   -1519.8103    480.17978    315.21727   -159.09742    37655.765 
  880200    294.51648   -1497.2594    468.04562    291.14438   -37.468273    37655.765 
  880300    303.91748   -1516.9713    466.58132    312.11412   -79.372572    37655.765 
  880400    281.77273   -1522.9364    482.98833    223.27805    17.672752    37655.765 
  880500    299.71165   -1562.8272    461.23096    242.05256    128.50137    37655.765 
  880600    310.14372   -1544.3114    496.53276    342.63854    60.003513    37655.765 
  880700    297.51418   -1501.8952    487.55668    319.45875   -84.781714    37655.765 
  880800    306.60469   -1496.4094    490.72436    368.86619    573.54539    37655.765 
  880900    303.40026   -1492.4682    502.09646    369.81359   -356.68284    37655.765 
  881000    296.50665   -1487.0724    486.03716    328.24509    164.54875    37655.765 
  881100    300.00856   -1476.8027    490.18205    358.35923   -179.80703    37655.765 
  881200    288.26554   -1427.9541    497.05238    361.43261    -165.0768    37655.765 
  881300    297.40938   -1461.7459     513.9545    385.53601    -270.5476    37655.765 
  881400    298.63849   -1453.0173    473.08331    358.90368    47.077064    37655.765 
  881500    300.64471   -1486.0387    481.23775    343.03089    232.34933    37655.765 
  881600    301.17696   -1474.4216    514.12711     389.9235   -175.59058    37655.765 
  881700     301.8012   -1491.3124    464.54688    326.25096     416.4505    37655.765 
  881800     300.3995   -1483.8506    498.96126    361.84321    391.98506    37655.765 
  881900    303.39824   -1425.4383    487.24048    421.97843    665.74647    37655.765 
  882000    299.36682   -1418.8707    480.36867    403.60079    443.61037    37655.765 
  882100     296.4502   -1429.6465    505.04019    404.42091    567.35439    37655.765 
  882200    295.81469   -1430.2453    456.73037    352.66324    54.558612    37655.765 
  882300    303.06914   -1398.6573    515.16499    475.20852   -322.81553    37655.765 
  882400    298.15917   -1411.6999    483.92971    408.91861   -350.06882    37655.765 
  882500    302.47093   -1410.3655    507.83695    453.49048   -538.17771    37655.765 
  882600     296.5916   -1448.1337    498.06088    379.58838   -564.51566    37655.765 
  882700    304.64593   -1489.0309    485.92679    362.66577   -422.01184    37655.765 
  882800    302.52092   -1455.1753    476.41326    377.48114   -491.37018    37655.765 
  882900    293.49931   -1455.1725    481.55556    342.18109   -984.88308    37655.765 
  883000    309.07236    -1469.469    475.81019    391.95533   -752.21031    37655.765 
  883100    297.09313   -1515.5963    480.68224    296.99549   -514.82498    37655.765 
  883200    292.16172   -1487.2308    484.17752    306.74813   -86.980424    37655.765 
  883300    302.16427   -1519.6695     460.6451    295.61979    11.002632    37655.765 
  883400    297.51479   -1491.4994    480.39764    322.69818    228.85505    37655.765 
  883500    292.44935   -1494.6216    498.85867    315.32798    567.58095    37655.765 
  883600    292.93273   -1496.0519    461.71941    278.92545    93.213129    37655.765 
  883700    308.01339    -1414.363    479.63271    446.13634   -132.86328    37655.765 
  883800    306.93518    -1444.936    465.85719    396.95408    241.65507    37655.765 
  883900     295.0193   -1438.8773    502.68796    386.42298    128.75735    37655.765 
  884000    302.18678   -1483.6423    458.13552    329.23836    813.43036    37655.765 
  884100    308.95139   -1492.3317    460.05267    352.79284    374.61533    37655.765 
  884200    297.93077   -1470.8098    495.83929    360.69431    263.69905    37655.765 
  884300    292.41324   -1463.2742    458.69458    306.34937    11.587804    37655.765 
  884400    297.56122   -1483.1144    466.07277    316.96645    314.90947    37655.765 
  884500    300.21361   -1485.3017    475.03541    335.63279    294.26146    37655.765 
  884600    306.95986   -1482.2939    485.08334    378.93288   -63.959017    37655.765 
  884700     305.6476   -1508.6915     467.3209    328.88986   -161.53244    37655.765 
  884800    296.98909   -1517.0945    471.30893    285.65756   -296.40866    37655.765 
  884900    307.20066     -1504.87    472.57013    344.92313    -206.6801    37655.765 
  885000    297.90949   -1497.5264     437.2843    275.32737   -438.72099    37655.765 
  885100    290.94674   -1524.9472    499.58003    278.98728   -189.40604    37655.765 
  885200    301.88347   -1548.7912    475.14109    279.73519    53.923787    37655.765 
  885300    298.52582   -1533.8415    437.31061    241.80167    184.11263    37655.765 
  885400    302.10591   -1500.4906    493.51065    347.40269    118.61381    37655.765 
  885500    295.45882   -1527.5757    456.09145    253.09851    197.68189    37655.765 
  885600    310.03462   -1535.0454    469.08473    323.96737   -343.48644    37655.765 
  885700    305.56532   -1491.4746    471.80652    350.22351    -404.0691    37655.765 
  885800    292.76872   -1492.6788    464.08329    283.92716    45.157345    37655.765 
  885900    298.28816   -1492.8442    475.10748    319.53038    248.50799    37655.765 
  886000     310.4937   -1562.4281    472.70877    302.26691    403.97356    37655.765 
  886100    293.78676   -1549.8349    473.98358    241.23541    727.15674    37655.765 
  886200    307.06656   -1534.7032    464.02523    305.94384    510.86543    37655.765 
  886300    303.42113   -1524.4167    477.87666    313.73883    459.59538    37655.765 
  886400    297.21008   -1516.7419    450.93973    266.63172    68.552359    37655.765 
  886500    303.07734   -1460.6232      481.072    379.18639    178.27197    37655.765 
  886600    298.43055   -1457.2375    484.43682    365.10478   -10.248084    37655.765 
  886700    302.47561    -1460.488    458.89991    354.45196    166.70679    37655.765 
  886800     302.7489   -1468.2042     446.5875    335.64852   -382.68458    37655.765 
  886900    296.76666   -1527.9468    474.04412    276.54331   -80.172863    37655.765 
  887000    300.09091   -1531.2045     462.9827    277.12729   -383.55602    37655.765 
  887100    288.66562   -1539.1527    481.86415    236.83941   -109.68022    37655.765 
  887200    306.48467   -1544.7895    468.59585    297.81949     241.4452    37655.765 
  887300    296.91712   -1552.5566    452.24603    230.80993    247.55201    37655.765 
  887400    300.42031   -1528.4866    465.87668     284.2159    43.150215    37655.765 
  887500    291.73106   -1502.5631    482.46443    287.77203    778.96735    37655.765 
  887600    309.37729   -1515.6888    456.69376     327.9861    549.77542    37655.765 
  887700    305.19603    -1506.163    464.86119    326.93416      355.772    37655.765 
  887800    291.92147   -1486.4064    477.10004      299.418    117.32102    37655.765 
  887900    308.67639   -1488.7637    484.66146    379.73674   -122.08077    37655.765 
  888000    292.49263   -1492.7844    477.92939    296.42994    87.510027    37655.765 
  888100    298.63467    -1489.333    450.78993    300.27749    183.90955    37655.765 
  888200    301.81616   -1488.5603    503.29115    367.81448    127.44713    37655.765 
  888300     294.5972   -1459.1218    455.93423    317.53246    443.18073    37655.765 
  888400    299.86092   -1491.0691    473.32225    326.57118    302.87719    37655.765 
  888500    299.92467   -1524.7849    498.22661    318.04549    424.12439    37655.765 
  888600     286.6242   -1516.8126    492.52322    260.68659   -195.50723    37655.765 
  888700    300.11942   -1508.8637    462.44219     299.0554   -205.21376    37655.765 
  888800    287.21083   -1501.8707    465.57468    251.30988   -461.44622    37655.765 
  888900    287.24999   -1519.2494    466.11454    234.64657    -100.6785    37655.765 
  889000    298.32163   -1508.4192    464.02485    293.02273   -309.12565    37655.765 
  889100    307.58027   -1483.0805    477.94334    373.78778    475.54227    37655.765 
  889200    300.63253   -1484.5384     475.8909    339.12974   -47.431547    37655.765 
  889300    297.42244   -1529.3122    468.42916    272.50294    100.80089    37655.765 
  889400     295.7144   -1549.6151    477.27327     253.3867    668.03069    37655.765 
  889500    305.76708   -1525.1514      474.419    320.06376    409.71461    37655.765 
  889600    307.45595    -1524.332    440.70882    294.74436    436.42457    37655.765 
  889700    297.29154   -1542.4227    461.32976    251.70618   -212.73172    37655.765 
  889800    296.05907    -1508.631    496.78994    315.43271     162.4839    37655.765 
  889900    300.36223    -1478.258    484.42558    352.73299    84.458604    37655.765 
  890000    300.84922   -1496.3305    468.27485    320.69298   -133.12397    37655.765 
  890100    291.89232   -1536.6553    463.79468    235.73304    112.21987    37655.765 
  890200    313.20903   -1527.4744    495.89792    372.58295    235.52397    37655.765 
  890300    305.39437   -1503.8555    472.81557    338.08527     317.2566    37655.765 
  890400    305.74325   -1496.2452    458.42577    332.86985  -0.35723305    37655.765 
  890500    309.12713   -1461.8195    471.70431    395.74445    427.07105    37655.765 
  890600       292.63   -1469.8869    476.29293    318.30678    201.78555    37655.765 
  890700    299.69412   -1483.9352    474.36677     334.0017    139.19939    37655.765 
  890800    307.16348   -1443.5655    493.28626    426.77709    300.57073    37655.765 
  890900    293.28041   -1476.8531    473.51127    311.47477   -353.51793    37655.765 
  891000    304.42118   -1483.0012    482.45346    364.21455    123.85303    37655.765 
  891100    305.61046   -1457.0744    471.83214    384.85169    469.84213    37655.765 
  891200    304.03801   -1437.8677    503.13494    428.31166    71.739253    37655.765 
  891300    291.07614   -1491.2109    478.87119    292.59486   -20.110733    37655.765 
  891400    301.36696   -1438.6791    477.12814    389.51881    8.6424793    37655.765 
  891500    297.11749   -1461.2791    492.52201    363.26173   -109.89544    37655.765 
  891600    294.88456   -1477.1162    460.23403    305.12607   -121.36291    37655.765 
  891700    314.13256   -1495.1181     488.9493    402.13088   -176.09385    37655.765 
  891800    293.11055   -1480.9606    490.32704    323.42158   -607.97672    37655.765 
  891900    286.57732   -1444.3069    478.56872     319.0276   -135.89649    37655.765 
  892000    298.51716   -1479.3426    489.13713    348.08829   -107.10146    37655.765 
  892100    293.28387   -1456.0621    465.32261    324.09272   -1334.2711    37655.765 
  892200    299.27804   -1453.4431     482.4161    370.67785   -800.65268    37655.765 
  892300    299.83539   -1492.9857    473.38156    324.59941   -531.59585    37655.765 
  892400    302.64994   -1452.4968     467.7478    372.07258   -150.24824    37655.765 
  892500    288.20832   -1469.2758    471.26125    294.06317    152.60776    37655.765 
  892600    301.44063   -1480.1139    473.74569    345.03186   -229.40244    37655.765 
  892700    298.35238    -1480.753    493.15721     349.9592    1.2881083    37655.765 
  892800    308.17332   -1449.5101    480.40636    412.47987    285.22177    37655.765 
  892900    296.01643   -1499.8596    470.38451    297.60747    32.978234    37655.765 
  893000    308.68966   -1452.5244    468.00682    399.38085    578.80382    37655.765 
  893100    293.57898   -1505.8832    469.36984    279.64184    208.29165    37655.765 
  893200    301.33497   -1472.1919    476.72439    355.45882   -313.65177    37655.765 
  893300    302.37489   -1505.1302    481.86509     332.3233    382.49271    37655.765 
  893400    300.12623   -1519.2137    461.84458    288.13834    600.84804    37655.765 
  893500    302.15636   -1505.6227    484.23663    333.22272    77.449751    37655.765 
  893600    295.80972   -1522.8846    470.66038    273.93164    89.822735    37655.765 
  893700    305.82581   -1521.3456    465.19088    314.90466   -428.72718    37655.765 
  893800    302.02321   -1529.8672    474.49117    298.63574   -212.52543    37655.765 
  893900    299.55415   -1518.7395    477.37956    301.58277    310.51264    37655.765 
  894000    307.69741   -1514.2236    490.02204    355.24848    72.835546    37655.765 
  894100    298.39591   -1506.4947    463.72597    294.98138   -93.931129    37655.765 
  894200    307.26769   -1503.3674    484.37222     358.5284   -43.929468    37655.765 
  894300    299.67908   -1504.6626    480.49085    319.33106    101.23516    37655.765 
  894400    309.38394   -1498.9368    480.56032    368.63449    356.70664    37655.765 
  894500    302.67718   -1494.4658    491.43683    353.91473     91.37126    37655.765 
  894600    295.47101   -1517.2803    465.66118     273.0183    215.11557    37655.765 
  894700    310.68116     -1480.77    468.50276     380.5594    40.213553    37655.765 
  894800     300.2609   -1497.9292    477.32259    325.50453   -73.599736    37655.765 
  894900     299.2663   -1506.6641    483.09284    318.08098     115.4057    37655.765 
  895000    306.74408   -1504.0141    453.20777    324.36981   -511.20939    37655.765 
  895100    293.55986   -1488.6382    483.28345    310.71467   -648.01663    37655.765 
  895200    301.39929   -1503.5103    484.79555    332.49995   -106.29039    37655.765 
  895300    303.77633   -1487.3206    493.30506    367.85577   -134.71889    37655.765 
  895400    296.60252   -1479.4153    492.53359    342.82839   -658.40538    37655.765 
  895500    306.68662   -1499.5629    451.20839    326.56404   -636.28596    37655.765 
  895600    299.15504   -1528.1953     472.1443    285.10237    -828.2392    37655.765 
  895700    305.29072   -1528.7757    477.93172    317.81649   -330.81182    37655.765 
  895800    298.02212   -1545.2661    445.61386    236.42217   -241.04448    37655.765 
  895900    305.74925    -1519.021    492.18643    343.88158    330.95452    37655.765 
  896000    288.37603   -1496.0091    491.62237    288.44284    115.47926    37655.765 
  896100    286.61111   -1490.9095    480.71334    274.72109   -283.86132    37655.765 
  896200     301.3101   -1529.0133    482.35828    304.15985   -115.23625    37655.765 
  896300    300.24244   -1478.2522    494.20026    361.97649   0.52471812    37655.765 
  896400    298.04908   -1499.7957    498.28134    334.68084   -384.04281    37655.765 
  896500    302.76558   -1502.1483    474.78956    329.98127   -68.494644    37655.765 
  896600     307.0306   -1510.1935    453.73336    320.00046     629.6775    37655.765 
  896700    305.53079   -1509.2296    488.44527    348.95245    916.73531    37655.765 
  896800    300.34783    -1482.311    472.63752    336.82739    386.80687    37655.765 
  896900    309.72431   -1517.1454    481.97961    353.37114    -74.99707    37655.765 
  897000     297.1836   -1481.5706    468.71087    319.45543    430.73525    37655.765 
  897100     309.6086   -1519.4224    493.54928    362.14504    778.97055    37655.765 
  897200    303.20171   -1514.9055      481.486    325.87568    762.01366    37655.765 
  897300    293.02208   -1484.6924    485.71263    314.67871   -332.07796    37655.765 
  897400    302.57728   -1468.2754    479.81133     368.0317   -509.27957    37655.765 
  897500    310.98242    -1450.363    483.38947     427.2037   -573.49685    37655.765 
  897600    309.02715    -1477.801    504.90542    412.51585   -525.28334    37655.765 
  897700    304.72539    -1440.195    458.77096    384.70203   -708.37609    37655.765 
  897800    305.54441   -1465.5944    477.19646    381.39997   -758.51827    37655.765 
  897900    295.74908   -1447.2718    488.43388    367.04612    17.195926    37655.765 
  898000    311.68539   -1472.5725    475.84482    400.60102    17.485981    37655.765 
  898100    295.84529     -1476.58    476.52804    326.26338     401.6018    37655.765 
  898200    304.02906   -1472.0301    457.89485     348.8691    530.30345    37655.765 
  898300    295.69195   -1470.9594    487.85071    342.51922    283.30944    37655.765 
  898400    297.54092   -1466.8035    456.75007    323.86365   -55.856972    37655.765 
  898500    301.03582   -1479.3209    465.76156    336.02588    58.405006    37655.765 
  898600    291.45106   -1478.1959    480.24761    308.66717   -478.00397    37655.765 
  898700    300.93731   -1477.4987    450.38473    322.02962   -630.56873    37655.765 
  898800    300.79826   -1448.6065    492.59717    392.51085   -318.19033    37655.765 
  898900     297.1011   -1495.8649    435.44877    271.52917   -694.55559    37655.765 
  899000    300.14797    -1474.852    479.18746    349.94026     55.05367    37655.765 
  899100    299.53794   -1488.8237     507.5515     361.5978    139.21644    37655.765 
  899200     301.3624   -1504.8986    465.92647    312.07724    32.829473    37655.765 
  899300    309.10323     -1504.73    468.04173    349.06426   -484.18003    37655.765 
  899400    286.89645   -1503.7553    500.90984    283.35105    50.108208    37655.765 
  899500    308.52487   -1501.8683    478.62725    359.91864    752.29988    37655.765 
  899600    304.32377   -1533.9581    492.66075     323.0282    502.91763    37655.765 
  899700    306.94512   -1510.8136    468.71349    333.97736    516.25059    37655.765 
  899800    304.68332   -1492.6946    507.84748    381.09034   -39.751725    37655.765 
  899900    300.57091   -1513.3681    462.04127    296.17416    35.387063    37655.765 
  900000    297.01985   -1509.8827    478.24574     299.9441   -193.23739    37655.765 
  900100     301.4937   -1535.2755    486.29572    302.65824   -570.71423    37655.765 
  900200    294.63914   -1529.9964    452.76797    243.67962   -96.962324    37655.765 
  900300    289.18123   -1516.5277    526.10033    306.01209   -266.91165    37655.765 
  900400    310.53451   -1510.2897    465.15574    347.03518   -205.92211    37655.765 
  900500    307.86724   -1474.2383    441.00325    346.97643   -175.27422    37655.765 
  900600    296.81085    -1485.049    481.37458    326.96969    107.17136    37655.765 
  900700     297.0548   -1538.9098    458.66405    251.49203    346.90777    37655.765 
  900800    304.51679   -1502.1143    454.85034    317.92692    516.50931    37655.765 
  900900     288.8199   -1461.9287     496.3537    329.24455    588.26708    37655.765 
  901000    294.61359   -1439.3501    438.99952    320.44291   -7.9948873    37655.765 
  901100    288.92999   -1446.3676    529.47848    378.42399    95.438267    37655.765 
  901200    296.31163   -1459.0504    485.88231    355.23791    203.50085    37655.765 
  901300    302.99663   -1456.9956    484.99798    386.37819   -340.16067    37655.765 
  901400    299.80551    -1516.218    492.66878    320.52029    -51.54804    37655.765 
  901500    298.06497   -1505.0421    504.67855    335.90292    201.02923    37655.765 
  901600     293.2786   -1467.4338    474.26446     321.6392    387.27002    37655.765 
  901700    304.79808   -1493.9311    466.53056    339.05139    700.35236    37655.765 
  901800    307.55995   -1506.9145    486.16116    358.08051    772.79212    37655.765 
  901900    298.71057   -1495.8407    478.98381    322.30387    313.30071    37655.765 
  902000    304.73761   -1490.7204    466.30875    341.76915    888.36942    37655.765 
  902100    299.90372   -1500.7802    457.68431    301.41401    159.22886    37655.765 
  902200    302.12856    -1502.258    488.31261    340.53879    277.35518    37655.765 
  902300    309.32591   -1484.6055    486.97599    389.12134    198.85374    37655.765 
  902400    299.13094     -1503.45     479.4284    317.02378   -200.29973    37655.765 
  902500    302.57293   -1501.0567    467.68071    323.10026   -550.50189    37655.765 
  902600    304.87032   -1542.8755    486.90557    310.80586   -510.15015    37655.765 
  902700     293.2614   -1500.7775    460.68001    274.63393     235.1247    37655.765 
  902800     295.9144   -1483.5268    489.19765    332.29603     321.0406    37655.765 
  902900      306.059   -1492.0043    452.35949    332.46003   -73.943267    37655.765 
  903000    303.96424   -1490.0871    495.09199    367.71861   -104.94071    37655.765 
  903100    307.27148   -1520.2439    475.43954    332.73615   -790.80959    37655.765 
  903200    311.23875   -1514.5156    470.66417    351.47491   -605.49938    37655.765 
  903300    311.79556   -1506.5956     466.4652    357.69227   -148.72652    37655.765 
  903400    309.25268   -1514.3839    473.68234    345.72093   -447.77859    37655.765 
  903500    306.46294   -1502.1323    476.36749     348.1509   -479.98467    37655.765 
  903600    296.64472   -1494.6043    483.95871    319.25372    -765.3062    37655.765 
  903700     306.5602   -1538.4393    494.14293    330.05542   -268.76759    37655.765 
  903800    302.94406    -1511.648    468.67408    315.16621   -198.36286    37655.765 
  903900    288.15728   -1532.8454    487.62021    246.62377    232.13357    37655.765 
  904000    313.22926   -1540.2162    504.80584    368.83977     849.2843    37655.765 
  904100    296.67016   -1537.6668    450.93027    243.27681    65.343116    37655.765 
  904200    303.86917   -1504.6256    495.98212    353.64404   -109.32776    37655.765 
  904300    311.38655   -1486.7918    463.68096    372.87814   -577.57798    37655.765 
  904400    289.87515   -1506.0275    498.68673    292.20957    -612.7235    37655.765 
  904500    296.33493    -1528.278     472.8432    273.07566    234.87517    37655.765 
  904600    306.54079   -1564.4037    475.41255    285.27359      793.449    37655.765 
  904700    296.24585   -1573.5549    455.58797    210.14425    834.31349    37655.765 
  904800    299.68041   -1569.4757    484.82734    258.86033    511.80599    37655.765 
  904900    306.73496    -1553.831    495.06162    316.36586    408.82407    37655.765 
  905000    297.72687   -1549.4137     479.1822    264.51927     575.4317    37655.765 
  905100    299.93999   -1528.8967    496.75419     312.5299     408.1699    37655.765 
  905200    305.13832   -1514.7484    485.06138    338.29029    296.69499    37655.765 
  905300    303.37304   -1556.1425    481.39737    285.31814   -38.170769    37655.765 
  905400    291.89325   -1538.1197    464.19764    234.67578    202.01889    37655.765 
  905500    295.53061   -1509.9092    495.43882    310.43424    643.18831    37655.765 
  905600    294.03381   -1530.9705    487.34377    274.56748    247.31893    37655.765 
  905700    309.42787   -1537.2948    469.82456    319.73766    486.34449    37655.765 
  905800    310.25614   -1552.4832    482.66975    321.10775    747.04782    37655.765 
  905900     302.7855   -1571.0542    456.65869    243.03376    161.32328    37655.765 
  906000    297.05133   -1580.1155    480.27588    231.88262    94.961757    37655.765 
  906100    300.82042    -1612.433    473.15853    209.34505    78.646646    37655.765 
  906200    304.96598   -1610.0596    458.92219    216.06724    57.775458    37655.765 
  906300    303.98927   -1584.9853    478.48163    256.32231    16.779205    37655.765 
  906400    293.30909   -1575.7919    484.24626    223.39957    394.38094    37655.765 
  906500    304.82866   -1531.6309    497.86024     332.8184    98.449159    37655.765 
  906600    305.43306   -1577.2694    464.02493    256.05415    520.52524    37655.765 
  906700    298.62357   -1575.2158    466.83851    230.39353    184.31982    37655.765 
  906800    312.74695   -1513.8779    462.13725    350.34725   -202.07155    37655.765 
  906900    297.19789   -1537.2381    471.95051    267.09164   -403.94181    37655.765 
  907000    300.73537   -1553.0955    480.97219      276.115    144.60622    37655.765 
  907100    303.23943   -1540.6854    480.89074    299.66968   -349.27871    37655.765 
  907200    300.61091    -1517.632    457.09388    287.14213   -590.03281    37655.765 
  907300    295.82522   -1505.8728    461.46444    281.81704   -850.48967    37655.765 
  907400    300.26728    -1528.629    481.89574    299.40652    -1062.579    37655.765 
  907500    307.45769   -1548.8102    459.56218    289.12737   -822.84158    37655.765 
  907600    296.42739   -1586.1263      473.894    216.69274   -394.64736    37655.765 
  907700    299.92355   -1609.2355    450.13928    185.50247   -466.37271    37655.765 
  907800    311.53367   -1535.5638    458.22906    319.31382   -431.70431    37655.765 
  907900    292.16771   -1570.2684    440.12485    179.68469   -422.05817    37655.765 
  908000    289.33999   -1574.5783    451.56669    174.13957   -712.25138    37655.765 
  908100    313.03457   -1584.0864    463.67242     282.9633   -484.24221    37655.765 
  908200    306.57003   -1560.8298    463.12492    276.69094   -367.94826    37655.765 
  908300     303.7341   -1539.0378    451.91977    274.56391   -218.66479    37655.765 
  908400    300.84329   -1536.7888    487.80945    299.74274   -517.32998    37655.765 
  908500    304.65437   -1522.7003    474.10297    317.21038   -481.57017    37655.765 
  908600    296.18173   -1562.3171    449.09966    214.60628   -176.57876    37655.765 
  908700    305.87329   -1557.5163      471.262    285.01794   -235.79416    37655.765 
  908800    302.67874   -1568.1078    455.46938    244.31222    40.796995    37655.765 
  908900    302.82535   -1544.9961    509.69792    322.30981    73.151028    37655.765 
  909000    294.83209   -1552.3396    461.44057    230.87403    325.99936    37655.765 
  909100    304.86391   -1556.2204    470.59929    281.12598    56.068399    37655.765 
  909200    297.10571   -1570.7787    470.88278    232.07003    142.71464    37655.765 
  909300    293.77955   -1553.9509    438.44246    201.54592   -41.802048    37655.765 
  909400    305.84866   -1560.5411    474.14878    284.76954    216.42266    37655.765 
  909500     290.8244   -1556.6863      481.552    228.67167    535.47172    37655.765 
  909600     300.2111    -1538.581    479.49213      286.799    315.23082    37655.765 
  909700    302.17824   -1581.7605    471.11457    244.06093    285.52005    37655.765 
  909800     288.6268   -1561.5559     453.9879    186.38589   -262.32981    37655.765 
  909900    300.87266    -1553.058    460.89847    256.69423   -132.09012    37655.765 
  910000    294.74626   -1567.1468    448.46441    202.70584   -135.97998    37655.765 
  910100    306.28998   -1562.6251    473.61715    284.13243    303.49479    37655.765 
  910200    301.69698   -1569.6404    467.99349    250.90237   -216.47343    37655.765 
  910300    290.73652   -1558.6689    454.46105    199.20415    215.31702    37655.765 
  910400    296.72464   -1531.8181    476.75769    275.19719    42.044876    37655.765 
  910500    305.39781   -1545.3343    458.48778    282.29409   -552.16969    37655.765 
  910600    303.43369   -1555.4355    460.93701    265.83674   -31.434988    37655.765 
  910700    311.48861   -1512.5346    482.42625    366.33821   -113.87789    37655.765 
  910800    314.40865   -1516.7366    460.12083    352.92172    181.65315    37655.765 
  910900    305.45567   -1551.3476    478.11742    296.16987    524.93686    37655.765 
  911000    313.39844   -1544.9719    461.40115    321.43778    358.91107    37655.765 
  911100    296.56684   -1524.7849    478.92254    283.68778    384.15313    37655.765 
  911200    307.61774   -1508.6616    466.38584    336.81714    609.99932    37655.765 
  911300    297.09378   -1505.9279    473.24871    299.23332    175.49577    37655.765 
  911400    302.48081   -1540.3625    478.60621    294.30701    735.42052    37655.765 
  911500    292.66286   -1543.6175    467.23612    235.66671    251.33473    37655.765 
  911600     305.4317   -1544.7001    485.36408    309.95656    557.17211    37655.765 
  911700    283.02468   -1523.3793     468.4237    213.88317     296.2295    37655.765 
  911800    296.52427   -1494.9479    486.63593    321.04732    774.23059    37655.765 
  911900    296.91356   -1534.7476     495.3582    291.71518    564.10599    37655.765 
  912000    287.88742   -1528.2996    465.71813    228.05766    253.74962    37655.765 
  912100    298.84771   -1530.4658      472.183    281.49286    158.09493    37655.765 
  912200    293.48939   -1509.1184    471.10809    277.74323    428.90454    37655.765 
  912300    304.81029   -1537.1887    474.07309    303.39109    109.63121    37655.765 
  912400    298.01017   -1531.5763    479.49179    283.93634    280.98427    37655.765 
  912500    301.35037   -1552.7028    474.37825    272.67084    689.50273    37655.765 
  912600     312.9749   -1562.3327    477.01248    317.78952    1038.9201    37655.765 
  912700    304.80935   -1515.6405    462.15199    313.01396   -7.2459347    37655.765 
  912800    291.32297   -1494.0398     465.8004     277.8018     281.9538    37655.765 
  912900    308.69421   -1512.6888    486.03899    357.26896    286.39558    37655.765 
  913000    294.58695   -1510.2577    493.11589    303.53226    8.9281093    37655.765 
  913100    299.76556    -1494.997    472.58822    321.48165    41.499107    37655.765 
  913200    297.27892   -1473.2233    477.09776    336.61696   -197.33363    37655.765 
  913300    290.62699   -1504.1256    497.29714    296.09258   -431.35105    37655.765 
  913400    302.96754   -1519.7899    448.82113    287.27661    196.77756    37655.765 
  913500    292.04993    -1529.623    469.88795    249.56523    84.956783    37655.765 
  913600     297.8815   -1522.8869    469.80735    282.36438   -105.82834    37655.765 
  913700    295.59949   -1495.5878    473.09974     302.7253    214.37371    37655.765 
  913800    302.31103   -1496.1654    465.26768    324.40441    484.62429    37655.765 
  913900    305.08958   -1518.2546    482.74508    332.24924    32.791113    37655.765 
  914000    306.25436   -1511.6504    463.70373    325.03394    326.23184    37655.765 
  914100    295.26911   -1511.2261    478.40895    290.91511     799.0972    37655.765 
  914200    299.04523   -1556.9437    482.55497    266.27237    544.88171    37655.765 
  914300    296.07929   -1527.5412    472.61909    272.44232    301.11932    37655.765 
  914400    290.41378   -1565.4098    460.63209    197.18745    200.80173    37655.765 
  914500    299.04742   -1556.1795    470.65742    255.14885    331.06441    37655.765 
  914600     291.1779   -1576.7867    470.29291    198.89704    269.59528    37655.765 
  914700    296.94967   -1559.2705     471.2647     243.2607    177.05537    37655.765 
  914800    303.93953     -1559.48    472.63289    275.75586    14.397816    37655.765 
  914900    304.12366   -1537.4557    476.15306    302.12583   -185.95976    37655.765 
  915000    305.94094   -1593.9023     468.9809     246.6542   -406.41157    37655.765 
  915100    296.78653   -1578.1671    440.04495    192.41296   -244.62757    37655.765 
  915200    302.77319    -1559.848    463.98839    261.51443   -98.084613    37655.765 
  915300    296.15709    -1550.077    472.66872    250.30489    160.72903    37655.765 
  915400    289.29436   -1567.6395    499.27111    228.57829   -20.275316    37655.765 
  915500    288.91642   -1541.5229    486.79781    240.52715    77.928041    37655.765 
  915600    302.89904   -1564.2886     449.6191    243.26876   -473.53183    37655.765 
  915700    299.70097    -1561.076    452.37154    234.89647    -121.1097    37655.765 
  915800    305.07878   -1521.8582    475.16878    321.02098    205.91442    37655.765 
  915900    295.37274   -1563.3236    476.21504    237.08822    157.46087    37655.765 
  916000    295.49358   -1594.2338    459.74287    190.24765     613.8324    37655.765 
  916100    305.27838   -1544.4267    492.73827    316.91684    273.01588    37655.765 
  916200    300.33096   -1569.2982    450.47042    227.59741    11.684701    37655.765 
  916300    292.52376   -1555.5153    450.80726    206.71645   -79.592991    37655.765 
  916400    291.01977   -1538.5019    478.50571    244.68573   -273.60065    37655.765 
  916500     304.6195   -1540.9764    454.04713    278.72203    146.26549    37655.765 
  916600    293.78684   -1546.5355    470.70944    241.26103   -211.10716    37655.765 
  916700    295.62471   -1493.4638    475.70449    307.56715    -262.7482    37655.765 
  916800     302.3114   -1501.6322    461.42053    315.09213   -163.25884    37655.765 
  916900    303.98039   -1529.4911    492.33469    325.62979    130.19831    37655.765 
  917000    303.75867   -1493.0495    506.15217    374.89479    359.78852    37655.765 
  917100    297.83698   -1491.6531    478.98053     322.5718     399.7396    37655.765 
  917200    292.83901    -1477.349    478.76389    314.25269   -55.670467    37655.765 
  917300    302.97702   -1467.8351    488.29302    378.74585   -116.30883    37655.765 
  917400    303.50748   -1491.7896    478.24567    347.12213   -128.64608    37655.765 
  917500    296.96605   -1492.7951    464.66259    303.20735    82.038808    37655.765 
  917600     309.3648   -1521.2681    478.82685    344.48397     52.27083    37655.765 
  917700    296.56102   -1515.7349     477.4213    291.21051   -279.62265    37655.765 
  917800    304.59522    -1486.921    497.76841    376.38995     384.7472    37655.765 
  917900    309.36132   -1480.7737    454.71179    360.84768    579.68738    37655.765 
  918000    298.66867   -1504.0994    484.77729    319.65088    152.67562    37655.765 
  918100     302.9436   -1536.4953    474.90948    296.55219    212.87977    37655.765 
  918200    294.88013   -1524.8975    485.78929    282.88019    252.65074    37655.765 
  918300    296.63896   -1519.9129    494.00884    303.96941   -104.08123    37655.765 
  918400    287.75264   -1514.6218    458.64651    234.05957   -115.41313    37655.765 
  918500    303.74807   -1468.4594    480.19163    373.47686   -196.41792    37655.765 
  918600    294.49531   -1494.7566    479.52004    305.02665    181.07169    37655.765 
  918700    289.80253   -1506.6038    489.72489    282.34597    289.77174    37655.765 
  918800    299.57943   -1498.9278    496.85439    340.98258   -249.53966    37655.765 
  918900    296.17227   -1514.8347    499.27225    312.21882    38.080215    37655.765 
  919000    307.41075   -1476.7721    483.97142    385.36421    96.085884    37655.765 
  919100    297.16375   -1493.3334    454.32033    293.21314   -357.85255    37655.765 
  919200    303.51415    -1473.001    474.07812    361.77298   -135.27757    37655.765 
  919300    304.74823    -1491.909    484.02196     358.3414   -24.914091    37655.765 
  919400    300.95358   -1497.1767    456.87742    308.91722   -188.77915    37655.765 
  919500    298.07587   -1542.7447      467.627    261.19764    347.87207    37655.765 
  919600    297.99932   -1518.0195    471.21944    289.17213   -291.70386    37655.765 
  919700    300.73298   -1511.2725    483.18856    320.14356    237.94508    37655.765 
  919800    297.27166   -1540.3599    484.79051    277.14061   -64.463547    37655.765 
  919900    299.30424   -1545.7591    455.24764    251.31083    33.387286    37655.765 
  920000    297.20371   -1524.6084    488.43705    296.23397   -324.60614    37655.765 
  920100    294.07606   -1546.8963    460.33454    231.82189   -174.11993    37655.765 
  920200    287.21946   -1525.9479    490.40074    252.09738    7.1175155    37655.765 
  920300    303.25472   -1557.5266    452.69137    254.69759   -149.52752    37655.765 
  920400    296.01189   -1550.0742    453.10785    230.09592    92.697706    37655.765 
  920500    316.79639   -1559.9297       445.66    305.97235    20.393622    37655.765 
  920600     303.7862   -1506.8554    439.43688    294.49701   -12.577707    37655.765 
  920700    296.38863   -1535.0291    464.67944    258.40159    186.93134    37655.765 
  920800     302.5606   -1503.9462    479.02393    331.49873    35.262318    37655.765 
  920900    300.69491   -1504.2712    493.88315    337.66885    369.11133    37655.765 
  921000    294.02683   -1494.3768    493.37757    317.16376    314.19764    37655.765 
  921100    297.75868   -1472.5579    493.33233    355.66775    516.58093    37655.765 
  921200    295.48053   -1485.5019    473.86768    313.04588    436.07901    37655.765 
  921300    301.09128   -1456.5052    463.52762    356.85624   -161.01943    37655.765 
  921400    308.32973    -1451.609    473.06323    403.73907    673.15674    37655.765 
  921500    303.71095   -1466.9405    465.37071    360.00846   -75.483095    37655.765 
  921600    286.69294   -1504.2861    469.68269    250.68062   -463.93402    37655.765 
  921700    313.23537   -1476.6301    480.16093    407.80835   -325.42905    37655.765 
  921800    304.71319   -1534.9503     476.8754    307.99643   -275.31609    37655.765 
  921900    306.30543   -1496.5505    484.50478    361.16396   -251.74763    37655.765 
  922000    296.65532    -1535.795    495.56778    289.71968   -426.54236    37655.765 
  922100    306.68698   -1525.4326    468.83891    318.32646   -138.00305    37655.765 
  922200    289.14195   -1513.8104    481.45449    263.90743   -379.18291    37655.765 
  922300    297.19578   -1525.2604    466.41319    273.52262    38.090859    37655.765 
  922400    295.82412   -1486.8925    466.68777    306.01574   -48.541752    37655.765 
  922500    302.89743   -1456.1298    476.57344    378.37471   -69.126625    37655.765 
  922600    305.73828   -1457.4208    451.17103    364.41725   -479.15843    37655.765 
  922700    306.94046   -1483.6153    469.00694    361.44817    -148.0015    37655.765 
  922800    306.37412   -1485.8409    472.84128    360.51799    7.2006262    37655.765 
  922900     290.7919     -1464.57    491.83281    330.92318   -101.79082    37655.765 
  923000    306.63311   -1505.1771    461.26182    330.76337   -313.20234    37655.765 
  923100    300.65303   -1510.8044    496.19705    333.26177    121.06283    37655.765 
  923200     288.3186   -1482.7159    494.87905    304.73531    171.91926    37655.765 
  923300    288.93749   -1511.7679    477.33091    260.90977    560.53119    37655.765 
  923400    302.26863   -1513.3117    506.72817    348.52861   -18.211801    37655.765 
  923500    296.75745   -1524.7969    450.99562    256.60337    -147.5595    37655.765 
  923600    294.21029   -1503.1851    465.54199     281.3423    -161.8756    37655.765 
  923700    307.75451   -1490.1012    470.37914    359.98401   -336.09862    37655.765 
  923800    297.17895   -1477.1782    462.70955    317.82565    40.305183    37655.765 
  923900    299.89878   -1489.5526    462.35837    317.29354   -419.94624    37655.765 
  924000    306.23624   -1473.2786    492.00922    391.63003    148.73932    37655.765 
  924100    300.72371   -1483.0708    479.60803    344.72323    85.120967    37655.765 
  924200    292.93876   -1481.9844    477.56568    308.86632   -141.07321    37655.765 
  924300    300.82661   -1497.6435    488.21992    339.22373    491.18941    37655.765 
  924400    297.26096   -1483.7329     487.0886    336.01768    304.66629    37655.765 
  924500    314.95591   -1455.6467    486.72318    443.06743    580.01267    37655.765 
  924600    296.74378   -1477.5705    453.02454    305.79747    163.91584    37655.765 
  924700    307.18897   -1466.7546    470.71781    381.13381   -42.491699    37655.765 
  924800    288.19315   -1495.8433     460.8788    257.04526   -669.29785    37655.765 
  924900    302.32996   -1479.4908    503.38224    379.27849   -569.25758    37655.765 
  925000    293.51665   -1477.1818    453.47364    292.16755    -406.3627    37655.765 
  925100    306.21139   -1506.9111    464.80821    330.68514   -57.799016    37655.765 
  925200    308.65417   -1506.8288    482.35415    359.26466   -436.71644    37655.765 
  925300    297.23378   -1499.6753    486.88294    319.74779   -163.12805    37655.765 
  925400     308.2108   -1508.6121    470.61617    343.75577   -311.03605    37655.765 
  925500    311.21563   -1480.9235    463.36395    377.66316   -370.13302    37655.765 
  925600    301.32593   -1502.5594    468.21984    316.54624    -80.36773    37655.765 
  925700    298.28987   -1498.5993    485.12733    323.80271    855.18756    37655.765 
  925800    305.75979   -1454.7986    468.01565     383.9805    630.80374    37655.765 
  925900    303.12079   -1536.3021    442.08797    264.71836    609.20823    37655.765 
  926000    315.47305   -1534.6661     490.9583     370.6015    360.30292    37655.765 
  926100    312.87127   -1513.5471    470.65228    359.75032    13.778419    37655.765 
  926200    302.76767   -1512.3409    466.64174    311.65013   -688.48469    37655.765 
  926300     289.0153   -1491.4492    476.68724    280.93357   -203.57611    37655.765 
  926400    300.58142   -1535.1365    460.51731    272.92892    39.523437    37655.765 
  926500    297.29407   -1525.4424    467.74048    275.10847   -827.00482    37655.765 
  926600    285.98202   -1497.3098    446.24136     231.0285   -411.52533    37655.765 
  926700    308.97782   -1524.7631    490.91673    351.34393   -3.3133511    37655.765 
  926800    298.32036   -1549.0343     450.8518    239.22897   -112.49645    37655.765 
  926900    293.55942   -1512.0627    486.70018      290.705   -194.40419    37655.765 
  927000    300.09446   -1509.7004     466.1109    301.77543   -150.76318    37655.765 
  927100    296.40489   -1517.8443    483.11415    294.09402    72.380458    37655.765 
  927200    309.09766   -1458.0948    490.56534     418.1981   -362.52766    37655.765 
  927300    309.69741   -1506.9313    467.09345    348.57849    500.77602    37655.765 
  927400    294.36584   -1486.8497    479.03732    311.87034   -44.448826    37655.765 
  927500    315.26231   -1467.5541    457.68957    403.49996    113.25352    37655.765 
  927600    311.11895   -1491.4747    484.21509    387.52967    279.29968    37655.765 
  927700    292.64149   -1479.8252    492.23448    324.36159    276.10502    37655.765 
  927800    298.43174   -1478.5488    500.20323    359.56525    437.45106    37655.765 
  927900    299.02159   -1466.8537    463.76196    337.46339    604.86463    37655.765 
  928000    296.38684   -1515.5259    502.41641    315.63373    105.20176    37655.765 
  928100    292.53973   -1498.8552    486.00808    298.64898    397.24894    37655.765 
  928200    297.85704   -1493.1455    470.68417    312.87293    422.83452    37655.765 
  928300    300.96484   -1471.0676    483.47158    361.67103    -103.9408    37655.765 
  928400    295.16176   -1469.5879    461.98501    315.64814   -463.14858    37655.765 
  928500    293.58917   -1496.5323    479.17067    298.83919   -252.29281    37655.765 
  928600    311.41584   -1463.7601    479.38952    411.74973   -4.4116051    37655.765 
  928700    287.20235   -1467.0068    481.88669    302.44778   -52.178271    37655.765 
  928800    301.46783   -1487.8772    477.06115    340.70597    128.19042    37655.765 
  928900    294.28876   -1480.3468    486.30618     325.2966   -39.005148    37655.765 
  929000    306.86923   -1476.5766    471.70781    370.86838   -468.91453    37655.765 
  929100    296.88287   -1512.0019    487.33788      306.303   -274.54764    37655.765 
  929200     298.1485   -1489.5779    460.05008    307.11314   -8.3402118    37655.765 
  929300    296.38864   -1490.5177    463.47612    301.70962   -39.519563    37655.765 
  929400    291.23677   -1534.2248    455.54846     226.9784    59.203619    37655.765 
  929500    282.04255    -1526.059    456.42144    194.79821   -284.33836    37655.765 
  929600    293.43364   -1525.9726    466.76254    256.29354   -224.71291    37655.765 
  929700    288.73716   -1464.2665    467.23068    297.41279   -280.09593    37655.765 
  929800     307.6786   -1462.8798    485.16038    401.64632   -551.11627    37655.765 
  929900     294.9044   -1456.3819     462.1775     327.8928   -1265.2404    37655.765 
  930000    303.64164     -1479.52    479.30875    361.05621   -1168.8053    37655.765 
  930100    300.79855   -1460.1783    480.79548    369.13868   -526.27752    37655.765 
  930200    304.63922   -1453.3918    495.12038    407.46831   -214.01054    37655.765 
  930300    309.93821     -1488.45    496.47288    397.51875    276.03206    37655.765 
  930400    299.71464   -1472.9574    448.86115    319.56595    119.64565    37655.765 
  930500    305.56933   -1456.0046    508.25966    422.16464    152.77591    37655.765 
  930600    298.23755   -1511.6372    487.86456     313.2676    429.11616    37655.765 
  930700    306.21173   -1502.4423    461.86196    332.20916    23.381711    37655.765 
  930800    297.32698   -1489.6094    462.68859    306.03719   -634.30668    37655.765 
  930900    301.26261   -1477.2205    485.85145    359.23287    345.78048    37655.765 
  931000    294.50487   -1531.4958    483.30712    272.11741   -361.35399    37655.765 
  931100    303.90414   -1499.9514    457.63273    320.12562    244.75867    37655.765 
  931200    297.71349   -1525.1389    482.78284    292.33466   -74.743311    37655.765 
  931300    295.94434   -1499.8375    477.16512    304.08708   -109.33164    37655.765 
  931400    307.20874   -1528.0453    478.46692    327.68086    315.50766    37655.765 
  931500    296.98208    -1513.693    456.75191    274.47067    254.09862    37655.765 
  931600    286.38912   -1496.7949    463.52452     250.6516    682.76735    37655.765 
  931700    308.35446   -1491.9547    486.25431    376.69531    124.39653    37655.765 
  931800    295.90397    -1533.367     492.0859     285.2973    92.589538    37655.765 
  931900    298.08277   -1522.9626    473.42788     286.8116   -179.61351    37655.765 
  932000    309.29607   -1507.5271      459.214    338.30393    91.521564    37655.765 
  932100    304.85784   -1513.6462    494.48807    347.56173    188.58277    37655.765 
  932200    303.30529   -1533.2236    448.63612    275.17204   -250.37441    37655.765 
  932300    288.00337   -1554.9928    464.04967    200.21579   -519.64937    37655.765 
  932400     297.0787   -1560.5211    464.87916    236.20294    -122.7631    37655.765 
  932500    293.31048   -1586.5663    478.60217    206.98728    187.07656    37655.765 
  932600    294.29005   -1592.2696    474.96598    202.03943   -227.96667    37655.765 
  932700    292.96726   -1557.6928    468.00353    223.72348    154.93294    37655.765 
  932800    310.07998   -1544.2671    447.56212    293.42652    366.25652    37655.765 
  932900    306.56196   -1547.6115    467.04642    293.79464     483.4132    37655.765 
  933000    300.26125   -1539.8346    464.98409    271.26216    197.84571    37655.765 
  933100     295.3167   -1536.6287    459.16849     246.4854    243.77758    37655.765 
  933200    297.87784   -1507.3435    492.68833    320.77237    999.58083    37655.765 
  933300    305.46725   -1533.7073    463.95369    299.69833    472.11145    37655.765 
  933400    308.18207   -1565.5593    467.63372    283.69726    306.09277    37655.765 
  933500    296.99668   -1515.7184    467.14932     282.9081    659.72529    37655.765 
  933600    295.74831   -1513.9986    457.39827    269.28026    35.860847    37655.765 
  933700    290.93751   -1501.9845    457.63519    259.96381    114.85071    37655.765 
  933800    301.70505   -1524.9126    451.95467    279.62755   -132.82061    37655.765 
  933900    291.03848   -1557.3088    467.57829    215.03526    680.91819    37655.765 
  934000    297.24209   -1573.2026    456.51345    215.88824    374.67174    37655.765 
  934100    291.12448   -1569.8834    450.75411    186.02206    568.34901    37655.765 
  934200     300.0245     -1567.87    455.97971    233.16107    261.58245    37655.765 
  934300    303.41862   -1555.8048    482.17343    286.63632    348.94436    37655.765 
  934400    304.64711   -1544.4571     450.1143    271.43236    485.10725    37655.765 
  934500    299.62319   -1544.2501    470.85783    269.85996    389.21624    37655.765 
  934600    301.50744     -1507.13    464.08612    308.65571   -328.04097    37655.765 
  934700    300.28817   -1455.9644    457.26917    347.53817   -249.96624    37655.765 
  934800    297.67104   -1499.6428    466.26033    301.11792   -712.19691    37655.765 
  934900    294.53401   -1487.3427     470.6061    303.70016   -723.26645    37655.765 
  935000    300.40541   -1467.6733    484.36075    363.44641   -327.22343    37655.765 
  935100    299.01249   -1488.8096    467.50878    319.21353   -226.14286    37655.765 
  935200     296.7871   -1463.6761    481.89342    348.75499    542.16707    37655.765 
  935300    304.08169   -1464.3381    471.52864    370.43079    623.05237    37655.765 
  935400    288.63742   -1468.7349    471.45038    296.71696    1029.7624    37655.765 
  935500    311.23717   -1478.5542     462.6233    379.38836    558.22828    37655.765 
  935600    302.83235   -1497.8888    463.00434     322.7549    624.93994    37655.765 
  935700    299.90138   -1508.4123    474.97493    311.06206    687.15424    37655.765 
  935800    300.50606   -1512.0359    439.50416     274.6785    132.05343    37655.765 
  935900    304.03444   -1497.3129    437.75562    303.47116    564.19796    37655.765 
  936000    300.53736   -1536.9014    479.17157    289.62072    39.690885    37655.765 
  936100    296.92327   -1529.6621    456.53709    258.02305    190.61671    37655.765 
  936200    292.62588   -1567.8903    450.79495    194.78691    230.05968    37655.765 
  936300    303.01014    -1524.114    470.26331     304.5857    392.05202    37655.765 
  936400    293.24088   -1462.7205    454.26914    306.18808    219.58361    37655.765 
  936500    297.52532   -1501.2293    452.65749    285.27538    -225.3333    37655.765 
  936600    300.55411   -1477.5787    470.83885    340.68575     385.5319    37655.765 
  936700    298.53466   -1501.1402    474.21842    311.45035    669.10256    37655.765 
  936800    314.42358   -1489.4223    466.41898    386.60106    393.89657    37655.765 
  936900    297.98404   -1544.8532    443.00401    234.05446   -217.29625    37655.765 
  937000    301.83636   -1531.4569    442.02902    263.74622    498.35087    37655.765 
  937100    293.18671   -1521.3348    467.73234    260.79407    740.88743    37655.765 
  937200    291.97961   -1542.0084     488.0322    255.00877     1115.478    37655.765 
  937300    297.62638    -1490.587    439.28369    282.99691    60.343088    37655.765 
  937400     305.6006   -1482.2091    443.68014    331.52082    368.45138    37655.765 
  937500    290.28004   -1504.4853    474.18212    271.06235   -80.031568    37655.765 
  937600    307.13432   -1492.1967    457.22209    341.95105   -58.868892    37655.765 
  937700    310.28551    -1502.928    481.15082    369.27567    104.76807    37655.765 
  937800    302.45567   -1461.7642    467.65158    361.83799    295.95768    37655.765 
  937900    307.19764   -1471.7786    478.64887    384.07978    227.42426    37655.765 
  938000    292.00871   -1449.3957    504.34853     364.0683    262.53316    37655.765 
  938100    302.04193   -1466.5068    465.83538    353.42433    250.38831    37655.765 
  938200    301.78439   -1482.2855     441.0001    311.65574    101.91755    37655.765 
  938300    306.88398   -1512.3544    448.84875    312.29767    184.45226    37655.765 
  938400    306.52738   -1520.8397    463.34668    316.71163   -346.57405    37655.765 
  938500    294.27827   -1447.2373    459.00659    331.05952    365.52506    37655.765 
  938600    299.37033   -1467.3715     466.3684    341.11554    324.04948    37655.765 
  938700    304.77557   -1469.2906     467.7679    364.82831    179.28347    37655.765 
  938800    301.42513   -1514.7121    468.92569    305.54417    465.62829    37655.765 
  938900    301.22195   -1510.0545     442.7478    283.11294    196.49788    37655.765 
  939000    294.24202   -1461.1959    458.15969    316.09144    158.36689    37655.765 
  939100    302.41695   -1467.7277    457.50375    345.55301   -423.20043    37655.765 
  939200    297.15691   -1468.2593    448.11237    312.04859   -637.79027    37655.765 
  939300    299.41038   -1461.2937    484.14398    365.14841   -400.60888    37655.765 
  939400    303.53884   -1437.0118     474.5962    398.39098    -287.9828    37655.765 
  939500    314.19161    -1395.613     479.5283    492.47976   -110.38601    37655.765 
  939600    301.86429   -1398.6639    494.71796    449.35345   -498.44457    37655.765 
  939700    298.56583   -1449.6674    451.00828    339.85283     318.9093    37655.765 
  939800    293.31186   -1463.3442    476.67242     328.2858    151.94076    37655.765 
  939900    308.61506   -1438.4764    509.63801    454.72565    110.66419    37655.765 
  940000    290.85593    -1471.982    476.45178    308.41713    16.449283    37655.765 
  940100    308.40309   -1466.3097    453.67478    369.97882    1.4120707    37655.765 
  940200    304.58361   -1466.6432    454.21931    353.06655   -604.59099    37655.765 
  940300    299.56185   -1470.9353    478.40823    350.45012   -725.84069    37655.765 
  940400    306.74131     -1451.53    474.02207    397.65583    131.45372    37655.765 
  940500    290.06101    -1455.258    477.65511    322.78076    21.514478    37655.765 
  940600    306.16606   -1413.4248    477.13238    436.29233    488.51834    37655.765 
  940700    306.20897   -1465.9843    463.96201    370.75493    258.99542    37655.765 
  940800    298.27224   -1450.0136    485.87035    373.05241   -484.84776    37655.765 
  940900    304.48944   -1424.9122    450.52194    390.67803   -483.40123    37655.765 
  941000    300.51209   -1489.1382    479.56457    337.66367   -188.00459    37655.765 
  941100     295.0134   -1489.8322     466.4607    299.21432   -52.678272    37655.765 
  941200    300.39901   -1497.7336    463.07363    312.07031   -26.441549    37655.765 
  941300    298.35481   -1526.2442    472.43618    283.75784    -30.74488    37655.765 
  941400    307.24307   -1488.6663    470.30431    359.05117    85.638693    37655.765 
  941500    294.23107   -1491.8768    454.11829    281.32003    81.841016    37655.765 
  941600    306.00032   -1531.2093    467.59283    308.22528   -462.11764    37655.765 
  941700     308.1858   -1512.4218    461.89819    331.11599    166.38467    37655.765 
  941800     292.2255   -1504.3755    480.86673    286.57853    81.592143    37655.765 
  941900    294.22108   -1530.3073    460.56442    249.29092   -17.454179    37655.765 
  942000    298.85642   -1516.1004    482.62699    306.34125   -167.83848    37655.765 
  942100    309.23541   -1484.5297    474.20233    376.01769   -81.829154    37655.765 
  942200    304.55133   -1495.9411    466.08136    335.48602    13.092837    37655.765 
  942300    305.09841   -1466.7033    453.41403    354.50912     -372.313    37655.765 
  942400    288.16012   -1506.7591    482.65669    267.75929   -455.25146    37655.765 
  942500    299.42833   -1513.5454    432.61934    261.45252   -345.93935    37655.765 
  942600    305.15635   -1508.6607    462.15704    321.55442    374.79713    37655.765 
  942700    293.39293   -1492.0518    476.25804    299.52734    86.694806    37655.765 
  942800    304.68823   -1488.5009    459.99248    337.45108    7.6325828    37655.765 
  942900    307.69634   -1472.4319    477.72723    384.74062    594.21492    37655.765 
  943000    301.03703   -1476.0609    443.55837    317.08816   -221.81201    37655.765 
  943100    293.52173   -1445.6594    485.21869    355.45783   -434.65082    37655.765 
  943200    294.50393    -1448.172    487.32127    359.45116   -408.64708    37655.765 
  943300    298.08793   -1477.0245    461.71025    321.05523    88.665854    37655.765 
  943400    300.87757   -1489.1096    451.32547     311.0916   -429.70579    37655.765 
  943500    303.19716    -1491.954    478.04423    345.36506   -143.75087    37655.765 
  943600    302.16216   -1512.9335    468.89824    310.59951    390.60039    37655.765 
  943700    296.00456   -1548.0334    452.77085     231.7668    190.27204    37655.765 
  943800    309.16613   -1544.0611     449.4536    291.42706    1061.5914    37655.765 
  943900    293.39976   -1506.0931    472.50154    281.76016     735.6801    37655.765 
  944000    289.09993   -1510.1548    477.90107    263.82128     505.7647    37655.765 
  944100    293.51769    -1562.493    482.72089    236.10832    631.23784    37655.765 
  944200    305.20811   -1534.8195    464.05954    297.53019    501.25219    37655.765 
  944300    293.35496   -1540.4083    479.13677    253.87932     299.3493    37655.765 
  944400    296.17825   -1506.4841    482.89523    304.21918    11.418143    37655.765 
  944500    304.35777   -1530.5487    457.87868    291.80794    9.0000934    37655.765 
  944600    294.87675   -1535.8058    465.15112    251.31853   -172.72407    37655.765 
  944700    304.01683   -1534.6169     458.7231    287.05573   -48.648842    37655.765 
  944800    302.28129   -1531.5438    456.58473    280.20971   -219.41315    37655.765 
  944900    297.08676   -1552.0783    449.32346    229.12625   -266.45097    37655.765 
  945000    293.24997   -1535.5696    455.51147    234.62205    35.932201    37655.765 
  945100    289.55416   -1542.6129    432.54876    188.04722   -297.75389    37655.765 
  945200    291.76443   -1562.0063    435.79706    181.81106    -337.8222    37655.765 
  945300    283.52253   -1527.2059    471.33126    215.19608   -473.90087    37655.765 
  945400    300.90609    -1548.397    472.01431    272.62097   -68.705772    37655.765 
  945500    304.61315   -1545.4577    463.93933    284.10454   -222.75658    37655.765 
  945600     297.0134   -1555.0171    463.18068    239.71579    290.88363    37655.765 
  945700    301.47304   -1550.1032      436.705    238.14717    119.85722    37655.765 
  945800    301.67716   -1495.8163    439.25018    295.89435    -561.8878    37655.765 
  945900    298.62937   -1466.8107    458.10977    330.09588   -357.26641    37655.765 
  946000    296.84785   -1485.4721    451.97921    297.31709   -31.128618    37655.765 
  946100    299.53501   -1508.6672    462.00491    296.19459   -80.534761    37655.765 
  946200      296.688   -1504.0482    461.71404    287.75916   -180.93251    37655.765 
  946300    303.31803   -1484.5141     480.9424    356.24496    13.484903    37655.765 
  946400    295.29923   -1534.8397    479.47789     268.5055    62.338056    37655.765 
  946500    301.60778   -1494.2704    468.77959    326.65852   -182.82026    37655.765 
  946600    299.06665   -1442.5063    448.63321    346.88404    -244.2436    37655.765 
  946700     295.4431   -1463.2854    488.97479    350.20171   -169.96255    37655.765 
  946800    298.06471   -1491.2418    455.56666     300.5902   -501.40298    37655.765 
  946900    292.94545   -1511.4752    470.82209    272.66189   -26.921198    37655.765 
  947000    308.14072   -1466.2467    473.79572    388.98648   -302.13071    37655.765 
  947100    297.21778   -1483.7033    481.86649    330.63166   -201.78389    37655.765 
  947200    304.15192   -1514.2014    465.72916    315.08284    487.15728    37655.765 
  947300    294.20859   -1499.0901    450.83827      270.726     629.2998    37655.765 
  947400    297.52782   -1456.5795    476.55106    353.82999    1008.9001    37655.765 
  947500    299.86333   -1509.1611     484.5378    319.70549    765.73105    37655.765 
  947600    305.08518   -1475.9649    455.07128    346.84543    390.53588    37655.765 
  947700    293.02322   -1487.3743    476.57742    302.86671   -111.71459    37655.765 
  947800    302.72865   -1475.8148    464.20765     345.5673    317.76639    37655.765 
  947900     297.1336   -1495.1184    457.24213    294.21479     228.0502    37655.765 
  948000    300.04522   -1479.0837    485.66977    351.73028    360.11176    37655.765 
  948100    310.34514   -1451.4001    480.80453    420.72465    404.52947    37655.765 
  948200    297.99293   -1468.7885    475.91425    343.06921    24.680417    37655.765 
  948300    302.26265   -1449.1096    506.58463    412.56032    129.46599    37655.765 
  948400    300.43796   -1494.2266    472.14769    324.82605    50.563317    37655.765 
  948500    301.88543   -1520.8712    439.61596    272.13891    21.764223    37655.765 
  948600    297.76596   -1515.2065    485.40333    305.12287   -768.46385    37655.765 
  948700    291.29686   -1483.5775    466.88578    289.23241   -533.87565    37655.765 
  948800    307.56411   -1495.3856     460.1621    343.62895   -195.66932    37655.765 
  948900    298.48076   -1497.0035    476.51533    317.64236    -75.27719    37655.765 
  949000    288.20774   -1509.4981    456.79725    239.37427   -274.75154    37655.765 
  949100     304.1347   -1503.4322    467.16203    327.20771   -790.27726    37655.765 
  949200    291.72148   -1492.5268    438.75711    254.05806    -187.7846    37655.765 
  949300    310.68261   -1500.9781    477.99062    369.84561    112.15225    37655.765 
  949400    304.34546   -1478.6834    477.26939    363.00876    250.94438    37655.765 
  949500    291.36744   -1487.5231    452.26488    270.98233    113.87226    37655.765 
  949600    300.45774   -1490.0406     474.8207    331.77366    616.50469    37655.765 
  949700     287.9872   -1502.9075    467.66535    255.84426     587.6359    37655.765 
  949800    315.76283   -1520.1175    477.98974    373.48076    1239.9243    37655.765 
  949900    296.52603   -1488.8012    441.06462    281.63059    296.31429    37655.765 
  950000    291.71667   -1483.9696    454.90287    278.73942   -233.10475    37655.765 
  950100    300.18716    -1509.605    480.86639    317.04191    -13.27474    37655.765 
  950200    292.23557    -1504.408    466.73677    272.46122    116.17717    37655.765 
  950300    291.46892   -1534.8375    469.53441    241.39246    560.05238    37655.765 
  950400     315.6623   -1511.4951    481.82517    385.48785    660.71085    37655.765 
  950500    295.58391   -1531.6856    479.35528    272.81325    879.78492    37655.765 
  950600    297.74584   -1511.2536    458.46761    282.04974    1187.6139    37655.765 
  950700     297.3158   -1521.4053    470.35292    281.85548    392.50594    37655.765 
  950800    316.17766   -1502.8071    467.25083    381.91194    537.97287    37655.765 
  950900    295.72336   -1500.8994    462.34144    287.21078    466.52714    37655.765 
  951000    308.34116   -1454.1734    480.77774    408.94042    274.60396    37655.765 
  951100    299.36317   -1496.8917    452.24769    297.44247    249.14847    37655.765 
  951200     299.5356   -1497.7011    435.41462    280.57311     557.3687    37655.765 
  951300    304.90512   -1481.6051    466.43244    351.75917    6.5937479    37655.765 
  951400    294.68686    -1496.322    471.83939    296.63934   -299.83796    37655.765 
  951500    292.85839   -1460.0053    444.00977    296.92907   -130.46443    37655.765 
  951600     306.4021   -1494.1048      462.946    342.48417   -526.84512    37655.765 
  951700    293.82101   -1459.6974    473.44298    330.98583    145.86163    37655.765 
  951800    308.80842   -1513.0842    481.64808    352.99476    147.45957    37655.765 
  951900     298.3982   -1484.6595    484.05209    337.15295    361.96108    37655.765 
  952000    314.45979   -1479.9389    449.55762    379.38546     616.0926    37655.765 
  952100    307.74977   -1495.8553    485.47823    369.30767    305.77228    37655.765 
  952200    300.34828   -1455.9651     474.2113    364.74911    351.85058    37655.765 
  952300    299.65803   -1488.8687    445.65735    300.19701     15.09683    37655.765 
  952400    297.39754   -1468.1731     467.1776     332.2788   -501.84256    37655.765 
  952500    300.60916   -1511.3721    476.64828    312.94864   -364.55905    37655.765 
  952600    298.74266   -1499.6752    443.33717    282.96658   -750.77603    37655.765 
  952700    297.52893   -1527.8587    467.41346    273.41815   -243.91778    37655.765 
  952800    299.75981   -1489.5378    463.75789    318.08478    11.635785    37655.765 
  952900    300.06247   -1479.7761    464.64167    330.08714    537.29643    37655.765 
  953000    291.20249   -1488.1409    475.53197    292.89205    199.69738    37655.765 
  953100    300.43021   -1475.2269    483.47847    355.12175   -415.46583    37655.765 
  953200    294.45573   -1489.8729    460.71334    290.92625   -760.06382    37655.765 
  953300    299.98714   -1477.6856    471.03303    338.23128   -885.77423    37655.765 
  953400    302.35237   -1487.9088    498.67491    366.25364   -161.26321    37655.765 
  953500    289.41148   -1490.0942    457.04244     264.4199    -245.9417    37655.765 
  953600    306.73898   -1475.6631    482.58428    382.07448    4.9202263    37655.765 
  953700    294.27369   -1453.2665    478.04691    344.05008    -145.9711    37655.765 
  953800    297.84422   -1445.6605    456.51275    346.12906   -136.97294    37655.765 
  953900    296.88051     -1460.34    506.56428    377.18063   -262.38557    37655.765 
  954000    303.57196   -1484.7415    458.02068    334.23428   -186.00418    37655.765 
  954100    302.16102   -1499.8696    473.60982     328.3699   -9.7939131    37655.765 
  954200    295.39977   -1479.6496    459.54689    304.21539   -637.03899    37655.765 
  954300    288.65727   -1513.5907    472.77747    253.27723   -31.731419    37655.765 
  954400    288.41729   -1510.0189    470.11899    253.11468   -346.09367    37655.765 
  954500    293.82708    -1473.609    492.01252    335.67092   -251.87259    37655.765 
  954600    285.36899   -1542.7511    475.66363    212.26113    97.364461    37655.765 
  954700    303.19504   -1493.1188    468.25567    334.40219     146.2513    37655.765 
  954800    296.58348   -1483.8025    474.51766    320.33989   -21.172157    37655.765 
  954900    296.77544   -1509.5501    463.66574    284.60102   -122.60249    37655.765 
  955000    302.02695   -1534.6426    478.23278     297.6188   -234.68297    37655.765 
  955100    299.35621    -1467.791    453.17772    327.44198    292.33184    37655.765 
  955200    308.81439   -1525.9759    442.07759    300.55934   -66.072778    37655.765 
  955300    309.95002   -1540.0435    479.82419     329.3295    -319.0544    37655.765 
  955400    304.15063    -1552.598    440.04079    250.99211   -575.75906    37655.765 
  955500     300.0493   -1476.1483    442.64106    311.65521     -751.505    37655.765 
  955600    299.92922   -1467.3658    461.49618    338.75452   -327.20358    37655.765 
  955700    307.32346    -1480.817    487.62848     384.5851   0.87764864    37655.765 
  955800    295.00858   -1487.3929    446.17727    281.34862   -271.99757    37655.765 
  955900    312.84004   -1503.1837    477.92214    377.24357    282.03602    37655.765 
  956000      304.121   -1509.1577    477.19354    331.45234    75.414768    37655.765 
  956100    301.69224   -1452.0321    477.34352    377.83943    163.90791    37655.765 
  956200    297.53286   -1493.6093    484.25652    324.52816    49.044877    37655.765 
  956300    303.45452   -1491.4822    491.49653    360.44288    206.83465    37655.765 
  956400    289.69894   -1493.0949    454.30064    259.96613    66.244241    37655.765 
  956500    300.00013    -1527.551    476.19124     293.5823    109.69423    37655.765 
  956600    303.44066    -1489.293    479.42028    350.49375    320.16601    37655.765 
  956700    293.11729   -1463.7181     463.7426    314.10984    138.44961    37655.765 
  956800    305.62487   -1498.0455    489.70581    361.81881    440.38996    37655.765 
  956900    300.86346   -1535.2084    452.31825    265.92231    495.05806    37655.765 
  957000    302.28178   -1537.3931    463.18419    280.96218    159.60246    37655.765 
  957100    300.30947   -1524.6749    464.64852    286.30254    467.15721    37655.765 
  957200    296.55399   -1486.2995    461.27212    304.46521   -67.932511    37655.765 
  957300    298.55125   -1523.3291    493.70102    308.81843   -417.23609    37655.765 
  957400    292.78528   -1488.3769    468.72151    292.94155    234.24846    37655.765 
  957500    296.99584   -1504.2967    479.40149    306.57819    235.10418    37655.765 
  957600    295.10378   -1472.3614    481.50961    332.13926   -231.56255    37655.765 
  957700    304.94592   -1480.5617     446.2979    332.85099   -7.6486582    37655.765 
  957800    295.25867   -1486.9456    481.72228    318.46217   -432.52052    37655.765 
  957900    312.58788   -1488.8666    487.39972    399.90777    564.10668    37655.765 
  958000     296.2612   -1540.8222    467.35277    254.71051    204.11962    37655.765 
  958100    317.57554   -1551.9784    481.77864    353.53528    367.38954    37655.765 
  958200    291.20902   -1474.0364    483.67555    315.16948   -68.848065    37655.765 
  958300     296.8425   -1517.6786    461.67433    274.78173   -366.66744    37655.765 
  958400    308.93337   -1523.7981    477.12773    338.32063   -25.477782    37655.765 
  958500     309.9077   -1532.9881    470.00669    326.37771   0.35453842    37655.765 
  958600    304.29332   -1502.9134     461.3368    322.61239   -187.28857    37655.765 
  958700    305.97942   -1507.4533    474.96232     339.2571   -519.41686    37655.765 
  958800    293.05933    -1482.921    475.04874    305.95324    38.814403    37655.765 
  958900    307.86407   -1486.4587    459.30485    353.04332    321.62035    37655.765 
  959000      298.311   -1501.6644     468.7045    304.40956   -80.712223    37655.765 
  959100    293.64425    -1492.685    472.70977    296.47257   -23.895026    37655.765 
  959200    291.98666   -1474.2924    475.12575    309.84996   -178.11263    37655.765 
  959300    297.82544   -1466.8663    481.60393    349.93022    2.4481792    37655.765 
  959400    293.65232    -1410.679    490.87934    396.68431   -59.198016    37655.765 
  959500    301.18354   -1417.6794    493.30851    425.87653   -551.43879    37655.765 
  959600    298.97317   -1464.5349    490.82674    366.62992   -25.861058    37655.765 
  959700    303.93076   -1452.2798    464.58304    374.86687    319.69244    37655.765 
  959800     306.5382   -1473.7941    496.45461    396.91362   -53.609435    37655.765 
  959900    295.11348   -1468.2086     492.1828    347.00872    460.30162    37655.765 
  960000    303.11643   -1429.5902    491.80642    421.12912    75.896383    37655.765 
  960100    305.65682   -1417.6955    506.06372    458.67001   -77.484093    37655.765 
  960200    300.65261   -1436.5414    475.50779    386.83365    380.32081    37655.765 
  960300    294.13078   -1475.1725    485.50445    328.96094    447.90654    37655.765 
  960400    305.61135   -1494.8142    485.61631    360.90012    467.05028    37655.765 
  960500    298.69012   -1495.7188    450.64141    293.99177    74.920107    37655.765 
  960600    302.18505   -1483.0466    464.64051    336.33129    285.00326    37655.765 
  960700    293.56416   -1478.6467    455.74026    293.18234    216.00739    37655.765 
  960800    303.17007   -1529.7435    475.52104     304.9309   -204.93346    37655.765 
  960900    280.57922   -1444.4683    500.31064     313.7178    -490.1332    37655.765 
  961000    299.86314   -1414.2813    490.63107    420.67767   -204.57299    37655.765 
  961100    302.20865   -1464.8634    473.59281    363.57258    367.80664    37655.765 
  961200     299.5456   -1459.8585    477.80153    360.84738    224.13796    37655.765 
  961300    299.26929   -1446.9436    490.54591    385.26796    403.67139    37655.765 
  961400     297.2703   -1458.7411    475.56449    349.52725    468.38513    37655.765 
  961500    312.52461   -1469.8653    457.30827    388.53396    202.07395    37655.765 
  961600    295.55694   -1478.3951    463.18713    309.81467   -326.32837    37655.765 
  961700    300.35994    -1460.758    457.87239    343.66948   -204.17829    37655.765 
  961800    295.44745   -1537.2846    469.43789    256.68509    -139.6473    37655.765 
  961900    301.46835   -1459.0154     493.3843    385.89325   -59.800412    37655.765 
  962000    290.32476   -1480.0361    456.63529    278.16522   -65.111795    37655.765 
  962100    300.70875    -1455.391     458.0633    350.79121    -13.29135    37655.765 
  962200    298.97896   -1481.2159    469.17922    328.32728   -572.11736    37655.765 
  962300    297.50191   -1490.6752    457.56925    300.63633   -523.15702    37655.765 
  962400    296.57645   -1438.2696    482.13724    373.46089   -575.40356    37655.765 
  962500    302.96262   -1447.8442    465.52635    375.90546   -923.76971    37655.765 
  962600    306.64111   -1451.7338    468.79469    391.77538   -519.34261    37655.765 
  962700    298.59201   -1470.8302    487.96155    355.76063   -415.78804    37655.765 
  962800    306.58659   -1483.2639    469.04324    360.24945   -560.32713    37655.765 
  962900    296.87829   -1456.9805     480.7292     354.6951   -341.49789    37655.765 
  963000    290.29628   -1482.6843    448.57628    267.33032   -356.67635    37655.765 
  963100    302.50368   -1500.5449    479.67356    335.29452    61.093857    37655.765 
  963200    313.89102   -1461.7376    511.93031    457.40958    136.24013    37655.765 
  963300     301.4789   -1456.4573     458.7186    353.83292    445.46348    37655.765 
  963400    309.17581   -1434.9691    486.41008     437.5189    58.995164    37655.765 
  963500    309.10447   -1449.8578     510.4928    446.39312    171.63358    37655.765 
  963600    304.41273   -1433.9705    472.50619    403.26009    736.37126    37655.765 
  963700    307.22454   -1448.3391    487.87872    416.86972    590.20812    37655.765 
  963800    294.93566   -1460.3173    497.75794    359.67795    186.51832    37655.765 
  963900    302.32314   -1468.3697    478.23327    365.22005     284.5571    37655.765 
  964000    297.46096   -1490.2769    467.58609    310.86787    83.117938    37655.765 
  964100    295.02616   -1450.8434    455.20714    327.00682    42.531021    37655.765 
  964200    305.68119   -1495.7346    479.09332    353.76973    7.6362504    37655.765 
  964300    303.71654   -1481.1081    496.76155    377.25671   -197.64585    37655.765 
  964400    295.01121   -1463.7093    448.23882     307.1056   -169.21069    37655.765 
  964500    298.26486   -1477.2449    457.72429    317.64197   -465.95775    37655.765 
  964600    304.49481   -1461.5827    475.69526    379.20491   -568.00551    37655.765 
  964700    300.46317   -1501.5566    472.22846    317.68981   -75.318565    37655.765 
  964800    295.53188    -1495.643    447.49127    276.75857   -218.43215    37655.765 
  964900    296.45976   -1492.2374    466.56796    303.40065   -499.52691    37655.765 
  965000    293.73486   -1482.7147    447.76504    281.90439   -744.03727    37655.765 
  965100    298.26485   -1489.8082     438.5091    285.86344   -734.58898    37655.765 
  965200    292.74313   -1514.7956    463.79582    261.40819   -633.09479    37655.765 
  965300    300.80289   -1515.8697    432.22784    264.89909     -479.148    37655.765 
  965400     298.0174   -1525.2442    474.00822    284.81721   -362.01342    37655.765 
  965500    306.00736   -1494.1826    489.52308     367.2138   -442.52149    37655.765 
  965600    301.74535   -1509.5118    398.94706    242.20134   -265.60528    37655.765 
  965700    302.13131    -1491.144    483.72152    347.07398   -100.92384    37655.765 
  965800    295.71041   -1471.3183    463.04929     317.4417   -174.08578    37655.765 
  965900    303.06842     -1542.17      458.095    274.62266    346.48441    37655.765 
  966000    306.42922   -1508.4183    464.03661    329.38292    175.34174    37655.765 
  966100    299.78227   -1503.9523    457.49003    297.50307    -112.4523    37655.765 
  966200    299.48003   -1515.6366    443.56917    270.54301   -271.99738    37655.765 
  966300    306.10646   -1518.7519     459.8123    313.37797    609.92464    37655.765 
  966400    303.36212    -1543.263    457.14013    273.89146   -237.78865    37655.765 
  966500    303.57166    -1518.232    486.40753    329.12924    33.530677    37655.765 
  966600    306.54386   -1506.6145    454.20322    321.86726   -266.94877    37655.765 
  966700    299.71017   -1516.6203    462.37231    289.39422   -224.62002    37655.765 
  966800    301.55115   -1478.2836    469.09883    342.71078    209.19365    37655.765 
  966900    293.50832   -1519.7444    470.98974    267.08372   -366.37826    37655.765 
  967000    301.91597   -1512.4987    488.04172    329.07412   -252.30935    37655.765 
  967100    307.98545   -1483.8326    450.50424    347.41303    14.159877    37655.765 
  967200    296.45175   -1497.0194    472.75306    304.76789    72.322115    37655.765 
  967300     303.7963   -1542.4088    478.31292    297.86492   -95.108254    37655.765 
  967400     297.6419   -1490.5827    445.91948    289.70659   -468.74838    37655.765 
  967500    297.20998   -1507.6765    482.16431    306.92122   -34.934645    37655.765 
  967600    298.20367   -1518.2603    459.86638    278.49435   -481.01353    37655.765 
  967700    301.09248   -1473.4714    487.83355    364.20139   -90.488342    37655.765 
  967800    294.17331   -1501.2312    447.29828     264.8867   -293.51101    37655.765 
  967900    308.27999    -1444.036    481.40342     419.4293    3.4200729    37655.765 
  968000    308.61424   -1486.7707    483.75965     380.5493    317.41527    37655.765 
  968100    296.54645   -1507.0323    462.07815     284.5046    517.55834    37655.765 
  968200    292.66777   -1532.9767     463.1427    242.23616    415.26413    37655.765 
  968300    299.56355   -1489.8736    466.92423    320.03542     211.4644    37655.765 
  968400    300.06786   -1528.3829    468.01699    284.87982    193.40908    37655.765 
  968500    299.15837   -1491.2607    504.50991    354.41755   -245.32072    37655.765 
  968600    304.70232   -1513.2947    460.35059    313.07855   -147.00902    37655.765 
  968700    295.86453   -1519.7372    465.51891    272.18337    537.89854    37655.765 
  968800    309.12719   -1551.2948    466.51758    301.08277    905.12093    37655.765 
  968900     291.1886   -1513.4807    454.36888    246.32696    515.71868    37655.765 
  969000    282.17092   -1511.2208    475.29355      229.084    348.39726    37655.765 
  969100    306.70225   -1520.2005    461.94954    316.73761    119.18284    37655.765 
  969200    302.20964   -1540.3076    458.75531    273.29535    29.965974    37655.765 
  969300    291.80006   -1568.8542    453.84161    193.16742   -20.807764    37655.765 
  969400    293.40592   -1556.8142    451.38263    209.94774   -251.70119    37655.765 
  969500     304.7602   -1566.5877    453.85351    253.54796   -250.44351    37655.765 
  969600    299.43039   -1558.6807    459.09707    242.80422   -17.932477    37655.765 
  969700     307.9243   -1583.6648    434.74951    231.55194    277.71745    37655.765 
  969800    299.85074   -1556.1699    476.93734    265.03978   -26.257677    37655.765 
  969900    303.46675   -1581.0219    436.51131    215.97283    438.95851    37655.765 
  970000    300.43216   -1557.4562    449.30146    238.72418   -103.73961    37655.765 
  970100    298.02063   -1573.3351      473.976    236.70858     247.2014    37655.765 
  970200    294.03138   -1544.9651    441.85505     215.0733    158.50933    37655.765 
  970300    301.41332   -1560.0721    461.18516    252.39068    -165.1489    37655.765 
  970400    309.97048   -1566.7276    460.30865    283.22153   -537.91426    37655.765 
  970500    306.00179   -1539.5107    447.95566    280.29332   -24.532908    37655.765 
  970600    290.68538   -1506.4541    487.61226    284.34095   -155.42214    37655.765 
  970700    313.97887     -1542.81    452.16322    316.96394    235.09781    37655.765 
  970800    296.97396   -1533.7892    459.56917    257.15533    342.48181    37655.765 
  970900    297.63651   -1507.5109     468.5533    295.38806     84.07885    37655.765 
  971000    298.78502   -1549.0178    466.79319    257.26996    -44.78027    37655.765 
  971100    309.43357   -1540.3594    461.86009    308.73421    286.34658    37655.765 
  971200    303.57727   -1524.8222    488.96126    325.11794    309.71137    37655.765 
  971300     301.0412   -1536.7238    453.12276    266.00826    639.84635    37655.765 
  971400    299.60324   -1554.3824    491.77604    280.55641    819.94289    37655.765 
  971500     300.4439   -1540.9546    470.44063    276.41761    6.8252637    37655.765 
  971600    298.38409   -1512.2014    472.68894    298.18474    256.02912    37655.765 
  971700    297.96942   -1526.0149    487.35017    297.17343     222.3812    37655.765 
  971800    300.36736   -1505.1006    437.41625    278.90407    -50.50493    37655.765 
  971900    297.79436   -1491.3236    505.03715    348.76686    4.2211971    37655.765 
  972000     297.6299    -1533.889    471.95266    272.37971     387.4293    37655.765 
  972100    300.54859   -1582.5462    466.46393    231.31864    510.51204    37655.765 
  972200    307.07884   -1533.1674    480.53462    324.04417     676.8794    37655.765 
  972300    298.70853    -1530.665    488.16854    296.65519    473.45865    37655.765 
  972400    292.53264   -1504.3558    461.23165    268.34017    103.44787    37655.765 
  972500    300.04669    -1509.638    452.40038    287.91319   -256.00311    37655.765 
  972600    296.72814   -1516.7528    485.91786    299.43836     302.1373    37655.765 
  972700    294.66708   -1531.4119    459.79839    249.41976   -78.669344    37655.765 
  972800    290.92054   -1486.2807    495.67101    313.62735   -330.85076    37655.765 
  972900     297.4759   -1484.9584    453.63574    302.30292   -63.276793    37655.765 
  973000    299.13731    -1502.723    475.77305    314.12401   -338.79806    37655.765 
  973100    301.25468   -1516.3923    475.78307    309.95714   -64.140521    37655.765 
  973200    294.63776   -1540.7557    470.55791      250.704    30.394813    37655.765 
  973300    297.19838   -1497.3104    471.70784    306.77884   -190.15344    37655.765 
  973400    308.30894   -1491.8183    481.04954    371.42284    133.21302    37655.765 
  973500    293.01102   -1501.0995    488.14158      300.651    -121.5865    37655.765 
  973600    305.46318   -1513.3481    447.62327    303.70886    507.72504    37655.765 
  973700    300.98613   -1491.0068    478.62675     336.9824    194.49477    37655.765 
  973800     301.0278   -1556.8331    466.65636    259.37251     574.6671    37655.765 
  973900    301.90505   -1533.6632    447.20698    267.02595    34.457826    37655.765 
  974000    305.03751   -1551.9549    469.64595    285.21641     416.8549    37655.765 
  974100    301.57683   -1540.1708    483.36285    295.20266    96.551457    37655.765 
  974200    299.63172   -1540.5716    445.26984    247.98873    514.96972    37655.765 
  974300    305.24506    -1556.113    473.15336    285.49614    501.23741    37655.765 
  974400    301.42702   -1551.3069    463.87986    263.91198    202.90886    37655.765 
  974500    295.89644   -1527.7584     461.5004    260.28668   -96.885501    37655.765 
  974600    295.31381   -1506.6151    447.83867    265.15621   -137.61174    37655.765 
  974700    300.20538    -1499.256    450.24879    296.85508   -373.79281    37655.765 
  974800    299.52425   -1583.8232    450.32769    209.31308   -182.93591    37655.765 
  974900    314.12691   -1586.6484    477.52433    299.15037     375.7688    37655.765 
  975000    294.45572   -1559.5775    454.53185    215.04004    352.75881    37655.765 
  975100    297.23084   -1527.2899    456.55115    261.78821   -465.64104    37655.765 
  975200    309.20614   -1544.8568    482.20099    323.55807    -167.6992    37655.765 
  975300    297.63743   -1550.7026    481.84251    265.48964    147.54016    37655.765 
  975400    289.15508   -1569.6745    445.30992    171.95764    182.92628    37655.765 
  975500     295.3512   -1545.0481    485.23626    264.28845    378.77561    37655.765 
  975600     303.4787    -1529.987    473.60736    304.15734    492.87966    37655.765 
  975700    309.36146   -1557.1295    463.10575    292.88643   -220.30927    37655.765 
  975800    297.35344   -1510.6337    472.61589    295.05885    372.06099    37655.765 
  975900    312.15872   -1484.7142    462.58703    377.32354    27.724112    37655.765 
  976000    309.10315   -1527.5428    455.74231    313.95172    139.87143    37655.765 
  976100    300.62001    -1505.007    462.46904    305.18313   -211.11203    37655.765 
  976200    291.62291    -1518.245     459.5742    248.71504    320.09153    37655.765 
  976300    299.70577   -1534.2525     466.2211    275.59102    509.65942    37655.765 
  976400     284.2167   -1533.4649    471.98865    212.70655    374.39212    37655.765 
  976500    298.25178   -1490.3388    460.42379    307.18901    -602.1111    37655.765 
  976600    297.21932   -1540.0613    441.40668    233.82076    -594.1083    37655.765 
  976700      304.527   -1509.1417    458.34568    314.44067   -690.57739    37655.765 
  976800    298.38883    -1512.789    498.25071    323.18016   -1016.5744    37655.765 
  976900    285.93423   -1504.7882    437.66512    214.75962   -794.42246    37655.765 
  977000    311.92628   -1551.4977    452.09345    299.00443   -576.44881    37655.765 
  977100    302.18119   -1535.9686     473.6684    292.41981    230.85192    37655.765 
  977200    313.60729   -1497.8585     470.4946    378.58097    431.26272    37655.765 
  977300    304.56748   -1497.0647    475.24591    343.59931    297.30552    37655.765 
  977400     297.8412   -1514.2978    480.45867     301.4241    754.71685    37655.765 
  977500    307.90431   -1543.4194    473.04358    310.00177    542.01214    37655.765 
  977600    314.74483   -1526.2148    478.19941    363.02926    483.54603    37655.765 
  977700    292.78543   -1538.8018    465.20715    239.00289   -75.141752    37655.765 
  977800    287.61375   -1547.1532    473.08996    215.34902    57.896311    37655.765 
  977900    307.03887   -1560.7472    476.00373    291.75428    40.839794    37655.765 
  978000    291.43348   -1565.3937    480.26542    221.40837    5.4175239    37655.765 
  978100    309.68751   -1527.8425    462.79079    323.32019   -306.96313    37655.765 
  978200    311.59416   -1571.7467    455.83278    281.00583   -89.727031    37655.765 
  978300    306.87001   -1577.6722    421.50586    219.57434   -115.31217    37655.765 
  978400    304.25352   -1592.6941    463.25292    234.56941   -799.91217    37655.765 
  978500    310.36567   -1523.5767    447.18265    315.01821    3.0655755    37655.765 
  978600    299.75776   -1545.1505    500.90856    299.61352   -144.86146    37655.765 
  978700    305.48419   -1583.6692    455.06146    240.92012   -301.40645    37655.765 
  978800     289.8877   -1566.8683    460.12631    192.86464   -553.82061    37655.765 
  978900    309.05521   -1562.4818    480.14038    303.19585   -192.23236    37655.765 
  979000    300.18802   -1550.5562    464.67794    259.90616   -352.60107    37655.765 
  979100    312.11932   -1534.9377    472.01996    336.35637   -101.14355    37655.765 
  979200    296.25084   -1575.0017    475.87438    229.00613    30.233738    37655.765 
  979300    302.42377   -1547.5418    453.36182    261.62762    83.354988    37655.765 
  979400    292.71186   -1594.7289    451.63285    169.17166     192.4088    37655.765 
  979500    304.39926    -1582.457    446.04783    228.25486     58.64401    37655.765 
  979600    314.28004   -1581.8101    444.31731    271.46804   -58.373373    37655.765 
  979700    307.52372   -1519.3155    455.24973    314.60562    336.49224    37655.765 
  979800    309.56058   -1515.9618    468.32642    340.16751    424.23839    37655.765 
  979900    291.02413   -1499.4026    485.57285    290.87171    -91.40015    37655.765 
  980000    290.69661   -1522.0779    480.27173     261.4269    545.68272    37655.765 
  980100    298.95739   -1530.4088    496.68927    306.54779    140.70293    37655.765 
  980200    305.18307   -1503.4814    482.80354     347.5001    199.62885    37655.765 
  980300    308.99453   -1476.1591    441.48694    350.59305   -121.87171    37655.765 
  980400    303.73658    -1489.189    484.19905    356.70314   -199.60597    37655.765 
  980500    298.51668   -1483.3318    489.15591    344.11564   -214.89373    37655.765 
  980600    308.37335   -1473.0988    465.38984    374.77138   -290.05007    37655.765 
  980700    300.13184   -1504.5893    445.08876    286.03199   -415.22541    37655.765 
  980800    295.56532   -1525.6638    474.84917    274.24562    220.70009    37655.765 
  980900    306.02321   -1485.3769    438.16063    324.72813    109.32958    37655.765 
  981000    311.09904   -1427.3014    454.27946    421.67814   -190.95534    37655.765 
  981100    302.86362   -1476.1553    465.21099     346.8352   -217.36312    37655.765 
  981200    303.93896   -1478.1134    466.02469    350.51166   -682.99537    37655.765 
  981300    307.70369   -1484.2017     479.7173    374.99382    -557.7306    37655.765 
  981400     308.6351   -1491.5301     434.1005    326.22424    -680.5354    37655.765 
  981500    296.44594     -1488.84    468.73704    308.90516   -504.84888    37655.765 
  981600     297.2389   -1469.8076    454.96649    317.72195   -215.98128    37655.765 
  981700    310.29068   -1505.3276    482.91357    368.66198   -124.87316    37655.765 
  981800    313.94762   -1458.0832    426.17937    375.56681    106.23835    37655.765 
  981900    303.58832   -1467.3672    487.90428    381.56555    59.541416    37655.765 
  982000    304.37873   -1533.9028    469.36392    300.03302    126.74641    37655.765 
  982100    308.35395   -1489.3072     449.3465    342.43269    -319.2049    37655.765 
  982200     305.8666   -1518.8622    440.21247    292.59254   -432.84404    37655.765 
  982300    293.65757   -1513.8969    443.40038    246.01099   -856.06547    37655.765 
  982400    307.33502   -1487.6782    458.34539     348.4926   -515.16178    37655.765 
  982500    291.57571    -1491.188    470.85609    286.84232   -545.31118    37655.765 
  982600    300.08542   -1498.8397    465.39507    311.87983   -71.517729    37655.765 
  982700    302.91655    -1499.118    453.11381    312.01263   -228.65715    37655.765 
  982800    311.85421   -1522.7044    454.93488    330.31602    66.176095    37655.765 
  982900    298.37771   -1480.9463    474.41377    331.13597   -500.11358    37655.765 
  983000    307.27579   -1544.2169    449.07928    282.42221   -390.30158    37655.765 
  983100    307.80411   -1483.2453    449.01401    345.69709   -637.27448    37655.765 
  983200    293.88046   -1481.7785    471.04531    306.77355   -157.55782    37655.765 
  983300    307.33829   -1493.3213    466.30244    350.82121   -382.01543    37655.765 
  983400    289.98444   -1482.2269    465.79897    283.61244   -450.50276    37655.765 
  983500    298.28439   -1459.3412    468.27653    346.18551    19.395365    37655.765 
  983600    302.89017   -1488.8154    478.07818    347.16129    66.742115    37655.765 
  983700    305.00636   -1520.2731    452.81104    299.92369    312.56743    37655.765 
  983800     294.5882   -1509.3362    458.75024    270.09364    340.69392    37655.765 
  983900    300.14437   -1510.0098    461.62968    297.20861    413.56989    37655.765 
  984000    300.94626   -1580.5845    464.56686    233.16602    575.94829    37655.765 
  984100    300.72735   -1521.1352    434.74631    261.81337   -308.29104    37655.765 
  984200    314.46481   -1559.0392    468.53441     319.2844    692.97838    37655.765 
  984300    289.43068   -1531.3307     465.9351    232.16221    207.88887    37655.765 
  984400    289.95679   -1528.1805    469.02808    240.76396    278.47003    37655.765 
  984500    301.88644   -1488.9209     445.2534    309.73118    206.58224    37655.765 
  984600     304.8131   -1476.4274     475.3555    365.44739    43.775825    37655.765 
  984700    291.94848    -1493.904    480.87655    295.81796   -97.629059    37655.765 
  984800    298.98689   -1505.7804    481.50438    316.12358    294.52784    37655.765 
  984900    298.91508   -1491.9888    469.82678    317.91561   -223.20978    37655.765 
  985000    289.27896   -1507.8385    450.28269    239.32183   -500.72896    37655.765 
  985100    300.30965   -1532.9479    461.38713    274.76895   -149.85656    37655.765 
  985200     308.0334   -1508.6893    450.18099    322.44802   -171.66805    37655.765 
  985300    299.76763   -1517.6878    466.79399    293.00598    288.08035    37655.765 
  985400     307.9861   -1526.4241    441.45628     295.7765    104.23555    37655.765 
  985500    294.42403   -1540.9493    449.39615    228.39048   -138.87821    37655.765 
  985600    289.79857   -1526.0224     469.7505    242.93516    159.53725    37655.765 
  985700    302.96731   -1533.6267    470.13698     294.7546    579.94812    37655.765 
  985800    305.29882   -1512.9505    483.27245    339.01879    238.86732    37655.765 
  985900    297.84397   -1483.4357    476.90262    328.74262    467.35834    37655.765 
  986000    301.40421   -1480.7427    497.45953    367.95358    299.05888    37655.765 
  986100    299.19169   -1494.6975    486.12831    332.74856    549.49197    37655.765 
  986200    303.99219   -1512.0635    482.40732    333.18284    -359.6829    37655.765 
  986300    297.06276   -1501.3263    452.43926    282.88643    32.284423    37655.765 
  986400     296.6502   -1488.3905    492.20566    333.73904    73.265035    37655.765 
  986500    295.63124   -1461.1681    462.36436    326.55202    243.07542    37655.765 
  986600    308.37336   -1500.1007    474.72137    357.10114    9.0868458    37655.765 
  986700    304.48504   -1456.9278    474.69719    382.81796   -392.83372    37655.765 
  986800     307.5339   -1471.5136    474.11015    381.31352   -419.54081    37655.765 
  986900    305.50366   -1467.6717    481.01345    382.95694   -506.32183    37655.765 
  987000    299.09387   -1457.2189    461.17213    344.83238   -177.66883    37655.765 
  987100    306.20862   -1452.5637    488.13806    408.34991   -875.05407    37655.765 
  987200    303.38813   -1449.6878    468.23436    378.67754   -919.16563    37655.765 
  987300    309.74936     -1462.78    488.20606     414.0753     -438.665    37655.765 
  987400     293.5644   -1471.5206    478.54197    323.11119    362.84691    37655.765 
  987500    302.23942   -1496.9974    485.26917    343.25285    114.19406    37655.765 
  987600     296.1533   -1506.9477    473.21791    293.96644    458.62572    37655.765 
  987700    300.55022   -1465.7072    514.72342    396.42437    247.08423    37655.765 
  987800    292.05181   -1518.2683    456.22902    247.26936    185.67358    37655.765 
  987900    299.95244   -1549.3704    484.07872    279.43658    618.45289    37655.765 
  988000    297.01234    -1563.917    468.50316    236.13359    550.54844    37655.765 
  988100    300.94782   -1564.7195    481.29257    265.76378    1006.7956    37655.765 
  988200    292.34225   -1566.6905    455.73749    199.65776    755.64719    37655.765 
  988300    307.24134   -1540.7393    502.53784    339.20393    468.67575    37655.765 
  988400      295.238   -1530.7724    457.38904    250.20942    218.92573    37655.765 
  988500    308.94198   -1553.4514     461.9018    293.48003   -831.19333    37655.765 
  988600    301.37825   -1514.3558    460.65206    297.41669   -745.94692    37655.765 
  988700    301.60298   -1513.7447    489.58773     327.9709   -1032.9692    37655.765 
  988800    298.41777   -1504.6446     461.4101     294.6136   -29.055009    37655.765 
  988900    304.68549   -1497.0392    474.19345    343.10143    33.173311    37655.765 
  989000    300.40589   -1494.7868    501.47749    353.45183   -210.10601    37655.765 
  989100    298.45363     -1572.89    469.52905    234.64797   -380.52485    37655.765 
  989200    297.11494   -1532.1245    453.49954     253.3824   -181.79015    37655.765 
  989300    307.44985   -1535.8219    462.23696    304.75532    -261.6817    37655.765 
  989400    312.03916   -1520.5088    488.23483    366.64078    426.08452    37655.765 
  989500    295.66289   -1513.3481    490.83782    302.98735     1033.627    37655.765 
  989600    315.99873      -1549.8    462.64795    329.51399    416.77929    37655.765 
  989700     312.5764    -1530.033    469.28386    340.57405     517.6903    37655.765 
  989800    293.20575   -1530.7499    465.18121    248.91326    235.69568    37655.765 
  989900    293.63011   -1560.7005     466.4115    222.09542    353.73864    37655.765 
  990000    294.04818   -1524.4405    494.38594    288.20409    419.97106    37655.765 
  990100    303.57631   -1549.3449    482.38909    294.01875    692.21925    37655.765 
  990200    294.84279   -1524.8576    496.66604    293.62946    298.85251    37655.765 
  990300    295.13422   -1530.0512    462.61224    255.68859    165.46814    37655.765 
  990400    296.87048   -1508.0757    470.28694     293.1227   -46.094311    37655.765 
  990500    283.71526   -1486.4346    482.44695    267.94711   -84.671108    37655.765 
  990600    308.44793   -1503.3638    478.51974    357.97071    665.41638    37655.765 
  990700    292.99406   -1519.5218     486.8547    280.86584    496.12304    37655.765 
  990800    295.20472   -1502.2124    468.29132    289.52249    134.35348    37655.765 
  990900    296.54888   -1578.4573    506.18639    257.19869    882.36525    37655.765 
  991000    300.85738   -1533.9111    462.83857    277.71276    636.15487    37655.765 
  991100     302.8596   -1515.6997    487.46979    329.53154    591.06034    37655.765 
  991200    291.90222   -1522.0062     489.2795    275.91128     182.8846    37655.765 
  991300     291.6377   -1523.2512    472.18805    256.38898   -194.39905    37655.765 
  991400    299.97613   -1517.8638    470.71473    297.68538    533.36961    37655.765 
  991500     305.2125   -1504.5937    492.82331    356.53946   -72.765187    37655.765 
  991600    296.95489   -1473.4166    487.42875    345.30204    695.36954    37655.765 
  991700    310.44341   -1519.1382    471.77757    344.40012    603.22679    37655.765 
  991800    304.71365   -1489.3536    461.80095    338.52082    532.06699    37655.765 
  991900    303.53791   -1538.4538    484.89029    307.23893   -235.42643    37655.765 
  992000      299.714   -1505.9128     478.0376    315.78409   -73.441746    37655.765 
  992100    294.59186    -1509.028     481.6044    293.27246   -1205.9475    37655.765 
  992200    308.66771   -1480.8279    485.52008    388.49224   -631.41332    37655.765 
  992300      290.606   -1483.5623     483.4611     302.7257   -1162.5579    37655.765 
  992400    291.85105     -1509.86    465.41399    263.96261   -78.072384    37655.765 
  992500    305.35608   -1523.7447    480.52053     325.7294   -188.23244    37655.765 
  992600    300.08307   -1510.7177    472.80523    307.40142    -82.41548    37655.765 
  992700    315.80011   -1550.3292    465.90887    331.35519   -1.4212558    37655.765 
  992800    296.46564   -1585.4983    458.66633    202.26451    420.83832    37655.765 
  992900    293.13069   -1540.1943    484.79146    258.74252    474.05047    37655.765 
  993000    293.89157   -1544.7001    470.64658    243.50304     470.9927    37655.765 
  993100    304.07967   -1565.6795    471.32578    268.87752    638.81519    37655.765 
  993200    292.13287   -1529.1587    478.54459    259.05792    721.45586    37655.765 
  993300    296.75293    -1577.943    463.02668     215.4681    622.65388    37655.765 
  993400    295.63595   -1536.7181    466.39639    255.05512    287.49883    37655.765 
  993500    292.65982   -1508.6766    477.47783    280.83568   -615.75385    37655.765 
  993600    284.02374   -1528.9481    463.37497    207.74457   -502.84506    37655.765 
  993700    299.36833   -1494.2207    481.10786    328.99682   -221.58214    37655.765 
  993800    305.56908   -1514.1387    494.66041    350.43015   -849.15563    37655.765 
  993900    296.47203   -1534.5407    458.37115    252.95559   -260.91199    37655.765 
  994000    305.43918   -1495.8693    478.70011    352.15688    185.24018    37655.765 
  994100    305.55123    -1521.906    487.92692    335.84939   -566.74775    37655.765 
  994200    296.65099    -1497.653    455.85734     288.1318  -0.38426863    37655.765 
  994300    297.72017   -1495.6422    478.71465    317.79323   -91.288064    37655.765 
  994400    302.56092   -1514.2475    478.80359    320.97852    44.349074    37655.765 
  994500    295.57946    -1497.767    464.73557    292.09218    288.96109    37655.765 
  994600    301.99712   -1530.1848    485.66786    309.37794    -165.6104    37655.765 
  994700    289.62628   -1485.9356    460.08291    272.58199   -465.58707    37655.765 
  994800    303.57823    -1472.077    506.14899     395.0552   -842.61723    37655.765 
  994900    295.00295   -1507.2515    459.90669    275.19425   -402.57752    37655.765 
  995000     297.2637   -1512.8977    468.76424    288.54083   -186.57948    37655.765 
  995100    298.04386   -1476.3861    501.76943    361.55518   -199.12465    37655.765 
  995200     293.8752   -1481.4247    472.17003     308.2285   -48.653218    37655.765 
  995300    294.02165    -1499.955    476.08394     294.2687   -186.12449    37655.765 
  995400    298.52722   -1507.1919    472.63232    303.77925   -396.41897    37655.765 
  995500     299.1767   -1502.2406     489.3781    328.38804   -143.23021    37655.765 
  995600    291.46137   -1523.9046    497.51201    280.26901   -471.41827    37655.765 
  995700    292.40651   -1532.9956    458.02793    235.93113   -6.5545495    37655.765 
  995800    299.43782   -1509.7996    478.72667    311.34824   -468.12851    37655.765 
  995900     296.8745   -1511.3305    490.57483    310.17378   -426.93893    37655.765 
  996000    302.48418   -1490.1081    479.18626    345.15652    223.79603    37655.765 
  996100      291.645   -1519.5325    480.90792    268.86035    546.23189    37655.765 
  996200    306.32579   -1489.9154    474.21474    357.60024    517.81306    37655.765 
  996300     303.0695   -1482.0751     471.9247    348.55206    51.574073    37655.765 
  996400    294.75238   -1497.0181    461.22147    285.61907   -297.14151    37655.765 
  996500    297.28757   -1490.5942    499.21149     341.3986    354.16848    37655.765 
  996600    297.06205   -1492.8268    487.88007    326.82358    433.46071    37655.765 
  996700    297.31273   -1517.5227    484.28303    299.65439    39.459952    37655.765 
  996800    291.89878   -1433.5629    492.33311    367.39285   -293.28306    37655.765 
  996900    294.67055   -1477.9451    479.92805    323.03178   -308.87495    37655.765 
  997000    307.50199   -1473.1376    485.17428    390.61066   -913.32275    37655.765 
  997100    308.29807   -1448.4491    460.43217    394.12594   -331.66772    37655.765 
  997200    290.98641   -1463.7357    489.19731    329.99394   -910.60896    37655.765 
  997300    299.52394   -1489.2866    468.02762    321.54827   -569.79197    37655.765 
  997400    298.86325   -1463.8178    489.95561    365.98307   -1002.5658    37655.765 
  997500    307.94512   -1488.4062    487.61096     379.7653   -897.04607    37655.765 
  997600    295.43953    -1504.717    482.71619    302.49547   -447.84436    37655.765 
  997700    306.44487   -1468.6092    482.92771    388.15326   -1004.2511    37655.765 
  997800     292.7912   -1506.2489    467.67979    274.05434   -582.61629    37655.765 
  997900    310.30226   -1501.8416    469.69537    358.98173    144.64196    37655.765 
  998000    295.62766   -1468.2019    484.26819    341.40594    120.69248    37655.765 
  998100    301.94495      -1511.7    474.65663    316.61764    369.97046    37655.765 
  998200     295.3357   -1483.8418    487.07679    327.26581    512.02774    37655.765 
  998300    309.44405   -1462.5412    469.23875    393.97802    563.44062    37655.765 
  998400    302.92892   -1518.5427    459.87524    299.40475    444.77427    37655.765 
  998500    298.21888   -1467.4468    491.18689    360.69659    289.36122    37655.765 
  998600    300.81176   -1513.5373    462.80694    297.85039    270.98501    37655.765 
  998700     302.6456   -1468.2365    487.93534    376.50095    244.07997    37655.765 
  998800     301.3529   -1533.1033    466.11519    284.01863    575.95173    37655.765 
  998900    300.46769    -1551.931    473.22428    268.33146    98.698247    37655.765 
  999000    297.69929   -1537.8568    456.30571    253.07598    210.92313    37655.765 
  999100     296.1618    -1513.911    485.72617    299.54948    133.99593    37655.765 
  999200    295.00534   -1520.3757    463.68472    265.85874  -0.50382748    37655.765 
  999300    295.16261   -1504.9325    478.61054     296.9328    192.15941    37655.765 
  999400    304.35813   -1493.8777    456.55763    327.15955    114.66803    37655.765 
  999500    305.75792   -1540.1254    482.25957    312.88924    158.95956    37655.765 
  999600    301.34416   -1526.5423    497.64552    322.07073    917.58475    37655.765 
  999700    299.65746   -1461.1619    472.89847    355.14237      593.424    37655.765 
  999800    305.51497   -1505.4763     480.7436    344.93316    531.24374    37655.765 
  999900     297.8671    -1517.933    489.35626    306.80263    469.16731    37655.765 
 1000000    305.80691   -1532.2573    472.97478    311.69214   -232.49454    37655.765 
 1000100    301.53293   -1484.0131    467.22609     335.0268   -173.00027    37655.765 
 1000200    292.48068   -1475.7986    488.24989    323.68262   -323.37746    37655.765 
 1000300    304.34877   -1470.6237    484.37735    378.19127    214.07038    37655.765 
 1000400    303.91802   -1462.3232    497.85852    398.04179    409.49447    37655.765 
 1000500    297.40757   -1530.2403    464.48149    267.56046    -11.06508    37655.765 
 1000600    297.96364   -1502.6293    498.69721    331.88014   -14.608328    37655.765 
 1000700    289.15627   -1514.5719    495.83546    277.59106    153.43838    37655.765 
 1000800    303.25414   -1521.9926    488.25956     325.7972    615.80096    37655.765 
 1000900    303.19285   -1500.8133    478.57033    337.01254    303.87509    37655.765 
 1001000    298.73607    -1479.511    481.61213    341.37622   -167.55942    37655.765 
 1001100    291.16988   -1510.2032    457.47224    252.62392    312.85627    37655.765 
 1001200    299.01449   -1518.6253    459.49662    281.39465   -450.26913    37655.765 
 1001300    304.34576   -1548.2855    457.96047    274.09912   -509.56181    37655.765 
 1001400    303.55757   -1546.5841    466.35841    280.66486    190.93421    37655.765 
 1001500    309.30779    -1558.294    474.48608    302.86167    315.48254    37655.765 
 1001600     297.9713   -1496.4641    510.84593    350.22838    596.01409    37655.765 
 1001700    309.48081   -1541.5681    468.25923    314.13634    298.58138    37655.765 
 1001800     295.2742   -1499.7871    482.83793    306.80592    549.25134    37655.765 
 1001900     299.1257   -1492.3192    520.63366    369.33632    673.42596    37655.765 
 1002000    305.03182   -1463.1998    488.32157    392.62161    510.19698    37655.765 
 1002100    294.29423   -1507.2973    497.28323    309.34768    297.39639    37655.765 
 1002200    305.35891   -1501.4164    461.73096    329.28081    357.34934    37655.765 
 1002300     301.4088   -1490.4196    502.10737    362.94508    148.55557    37655.765 
 1002400    296.31651   -1477.9603    473.86342    324.33096   -750.44229    37655.765 
 1002500    292.28914   -1470.9795    493.13708    332.53019   -803.99894    37655.765 
 1002600    305.50141   -1524.7431    467.13451    311.99642   -443.91005    37655.765 
 1002700    303.95906   -1451.9206    477.57454    388.34446   -545.52651    37655.765 
 1002800    308.90512   -1457.7213    490.73816    417.88126   -495.78463    37655.765 
 1002900    300.71602   -1504.7273     484.6985    328.12271    65.290033    37655.765 
 1003000    308.92401   -1465.4178     499.1531    418.68439    8.5681354    37655.765 
 1003100    306.84527   -1476.3202    478.48095    377.79053    299.17659    37655.765 
 1003200    292.92616   -1446.6385    499.14271    365.73272    319.06479    37655.765 
 1003300    303.01921   -1515.9983    485.53977    328.01853   -73.668857    37655.765 
 1003400    296.55767   -1469.5663     493.6622    353.60497   -97.729872    37655.765 
 1003500    307.11883   -1535.7063    479.51849    320.66839       517.68    37655.765 
 1003600     304.7723   -1575.0366    459.43075    250.73054    161.38965    37655.765 
 1003700    299.44601   -1551.9027    483.62998    274.18512    -40.59842    37655.765 
 1003800     301.9442   -1509.4458    458.16829    302.38009    89.179927    37655.765 
 1003900    291.70425   -1489.7148    447.62158    265.65731     224.8222    37655.765 
 1004000    303.75075   -1423.4069    473.16564    411.51532  0.028795379    37655.765 
 1004100    304.22219   -1510.9744    465.15954    318.05523   -114.96608    37655.765 
 1004200    294.99949   -1492.8078    454.03058    283.74634    52.953553    37655.765 
 1004300    299.43697   -1454.5316     504.8367    392.72241    421.30665    37655.765 
 1004400    300.10788   -1502.1935    456.50538      299.737    730.67587    37655.765 
 1004500    289.85286   -1503.9195    492.89284    288.42378    491.36246    37655.765 
 1004600    302.52923   -1500.5196    472.94608    328.70688    537.35941    37655.765 
 1004700    293.73993   -1516.5311    471.55393    271.89954    207.62886    37655.765 
 1004800    302.35829   -1529.4472    470.33148    296.39835    61.755799    37655.765 
 1004900    304.09511   -1522.2652    467.20534     308.2406    121.11017    37655.765 
 1005000    301.63412    -1554.004    474.40979    272.67328   -298.34187    37655.765 
 1005100    302.05603   -1558.7322    462.05865    257.48544   -297.91355    37655.765 
 1005200    300.12516   -1559.3266    484.19868    270.37468   -218.73836    37655.765 
 1005300    302.27401   -1551.4609    471.37451    275.04979    233.92517    37655.765 
 1005331    305.62509   -1557.9919    457.06275    269.23044   -287.11668    37655.765 
Loop time of 608.193 on 32 procs for 1000000 steps with 1505 atoms

Performance: 142.060 ns/day, 0.169 hours/ns, 1644.216 timesteps/s
100.0% CPU use with 32 MPI tasks x no OpenMP threads

MPI task timing breakdown:
Section |  min time  |  avg time  |  max time  |%varavg| %total
---------------------------------------------------------------
Pair    | 238.49     | 275.02     | 322.94     | 144.9 | 45.22
Bond    | 1.3295     | 1.4858     | 1.6345     |   7.0 |  0.24
Neigh   | 39.173     | 39.253     | 39.328     |   0.8 |  6.45
Comm    | 232.53     | 280.32     | 316.52     | 142.6 | 46.09
Output  | 0.38971    | 0.40519    | 0.82339    |  11.8 |  0.07
Modify  | 8.1592     | 8.615      | 9.1699     |  10.4 |  1.42
Other   |            | 3.098      |            |       |  0.51

Nlocal:        47.0312 ave          74 max           7 min
Histogram: 1 1 5 1 2 2 8 5 4 3
Nghost:        1999.00 ave        2073 max        1941 min
Histogram: 3 5 5 2 4 4 3 3 1 2
Neighs:        5314.19 ave        8609 max         384 min
Histogram: 1 3 1 4 1 5 3 5 4 5

Total # of neighbors = 170054
Ave neighs/atom = 112.99269
Ave special neighs/atom = 2.0066445
Neighbor list builds = 49693
Dangerous builds = 0

# Output the system volume
variable v equal vol
print 'The system volume is $v'
The system volume is 37655.7653451422

# Outputs
variable A equal xhi-xlo
variable B equal yhi-ylo
variable C equal zhi-zlo
variable D equal xy
variable E equal xz
variable F equal yz
print 'Lattice vectors'
Lattice vectors
print '$A 0 0'
33.5179276864884 0 0
print '$D $B 0'
0 33.5179276864884 0
print '$E $F $C'
0 0 33.5179276864884
Total wall time: 0:10:12
