LAMMPS (29 Sep 2021 - Update 1)
# Test LAMMPS input file for single DeFDe

# Initialize simulation

clear

units real
atom_style full
boundary p p p
dielectric 1
special_bonds dreiding

bond_style harmonic
angle_style harmonic
dihedral_style harmonic
improper_style umbrella
pair_style hybrid/overlay hbond/dreiding/lj 4 9.0 11.0 90 lj/cut 8.50000

# Read data file
read_data frag5.dat
Reading data file ...
  triclinic box = (0.0000000 0.0000000 0.0000000) to (15.000000 15.000000 15.000000) with tilt (0.0000000 0.0000000 0.0000000)
  2 by 4 by 4 MPI processor grid
  reading atoms ...
  1515 atoms
  scanning bonds ...
  4 = max bonds/atom
  scanning angles ...
  6 = max angles/atom
  scanning dihedrals ...
  9 = max dihedrals/atom
  scanning impropers ...
  1 = max impropers/atom
  reading bonds ...
  1014 bonds
  reading angles ...
  524 angles
  reading dihedrals ...
  25 dihedrals
  reading impropers ...
  2 impropers
Finding 1-2 1-3 1-4 neighbors ...
  special bond factors lj:    0        0        1       
  special bond factors coul:  0        0        1       
     4 = max # of 1-2 neighbors
     5 = max # of 1-3 neighbors
     9 = max # of special neighbors
  special bonds CPU = 0.002 seconds
  read_data CPU = 0.017 seconds

# Dreiding potential information

bond_coeff 1 350 1.53
bond_coeff 2 350 1.09
bond_coeff 3 350 1.375
bond_coeff 4 700 1.275
bond_coeff 5 700 1.22
bond_coeff 6 350 1.43
bond_coeff 7 350 0.935
bond_coeff 8 350 0.98

angle_coeff 1 50 109.471
angle_coeff 2 50 120
angle_coeff 3 50 120
angle_coeff 4 50 104.51

dihedral_coeff 1 0.111111111111111 -1 3
dihedral_coeff 2 0.0833333333333333 -1 6
dihedral_coeff 3 5.625 -1 2

improper_coeff 1 40 0

pair_coeff 1 1 lj/cut 0.0951 3.8983
pair_coeff 1 2 lj/cut 0.0857947550844456 3.77835472527395
pair_coeff 1 3 lj/cut 0.0951 3.8983
pair_coeff 1 4 lj/cut 0.0953995283007206 3.64309650983885
pair_coeff 1 5 lj/cut 0.0380199947396104 3.52917391183829
pair_coeff 1 6 lj/cut 0.00308382878902186 3.52806914614779
pair_coeff 1 7 lj/cut 0.0953995283007206 3.64309650983885
pair_coeff 2 2 lj/cut 0.0774 3.6621
pair_coeff 2 3 lj/cut 0.0857947550844456 3.77835472527395
pair_coeff 2 4 lj/cut 0.0860649754545948 3.53100349192691
pair_coeff 2 5 lj/cut 0.0342998542270955 3.42058613398347
pair_coeff 2 6 lj/cut 0.00278208554864871 3.41951536039831
pair_coeff 2 7 lj/cut 0.0860649754545948 3.53100349192691
pair_coeff 3 3 lj/cut 0.0951 3.8983
pair_coeff 3 4 lj/cut 0.0953995283007206 3.64309650983885
pair_coeff 3 5 lj/cut 0.0380199947396104 3.52917391183829
pair_coeff 3 6 lj/cut 0.00308382878902186 3.52806914614779
pair_coeff 3 7 lj/cut 0.0953995283007206 3.64309650983885
pair_coeff 4 4 lj/cut 0.0957 3.4046
pair_coeff 4 5 lj/cut 0.0381397430510485 3.29813538230316
pair_coeff 4 6 lj/cut 0.0030935416596516 3.29710294046152
pair_coeff 4 7 lj/cut 0.0957 3.4046
pair_coeff 5 5 lj/cut 0.0152 3.195
pair_coeff 5 6 lj/cut 0.0012328828005938 3.19399984345648
pair_coeff 5 7 lj/cut 0.0381397430510485 3.29813538230316
pair_coeff 6 6 lj/cut 1e-04 3.193
pair_coeff 6 7 lj/cut 0.0030935416596516 3.29710294046152
pair_coeff 7 7 lj/cut 0.0957 3.4046
pair_coeff 2 2 hbond/dreiding/lj 6 j 9.50 2.75 4 9.0 11.0 90
pair_coeff 2 4 hbond/dreiding/lj 6 i 9.50 2.75 4 9.0 11.0 90
pair_coeff 2 7 hbond/dreiding/lj 6 i 9.50 2.75 4 9.0 11.0 90
pair_coeff 2 7 hbond/dreiding/lj 6 j 9.50 2.75 4 9.0 11.0 90
pair_coeff 4 7 hbond/dreiding/lj 6 j 9.50 2.75 4 9.0 11.0 90
pair_coeff 7 7 hbond/dreiding/lj 6 j 9.50 2.75 4 9.0 11.0 90

neighbor 2 bin
neigh_modify every 2 one 10000

# Gemoetric relaxation
fix 1 all box/relax iso 1.0 vmax 0.001
minimize 1.0e-4 1.0e-6 10000 10000
WARNING: Using 'neigh_modify every 1 delay 0 check yes' setting during minimization (../min.cpp:188)
Neighbor list info ...
  update every 1 steps, delay 0 steps, check yes
  max neighbors/atom: 10000, page size: 100000
  master list distance cutoff = 13
  ghost atom cutoff = 13
  binsize = 6.5, bins = 3 3 3
  3 neighbor lists, perpetual/occasional/extra = 3 0 0
  (1) pair hbond/dreiding/lj, perpetual, skip from (3)
      attributes: full, newton on
      pair build: skip
      stencil: none
      bin: none
  (2) pair lj/cut, perpetual, half/full from (3)
      attributes: half, newton on
      pair build: halffull/newton
      stencil: none
      bin: none
  (3) neighbor class addition, perpetual
      attributes: full, newton on
      pair build: full/bin
      stencil: full/bin/3d
      bin: standard
Per MPI rank memory allocation (min/avg/max) = 14.41 | 14.75 | 15.19 Mbytes
Step Temp E_pair E_mol TotEng Press Volume 
       0            0 4.9404771e+16    277.00386 4.9404771e+16 4.0149415e+18         3375 
    5653            0   -1022.0584    34.272407   -987.78601    81.794968    37426.586 
Loop time of 4.63527 on 32 procs for 5653 steps with 1515 atoms

100.0% CPU use with 32 MPI tasks x no OpenMP threads

Minimization stats:
  Stopping criterion = energy tolerance
  Energy initial, next-to-last, final = 
    4.94047712621012e+16  -987.198357935145  -987.289398525081
  Force two-norm initial, final = 8.5210157e+18 97.985304
  Force max component initial, final = 5.8243024e+18 59.327975
  Final line search alpha, max atom move = 1.1061654e-05 0.00065626552
  Iterations, force evaluations = 5653 5654

MPI task timing breakdown:
Section |  min time  |  avg time  |  max time  |%varavg| %total
---------------------------------------------------------------
Pair    | 1.491      | 2.6631     | 3.734      |  35.8 | 57.45
Bond    | 0.0068225  | 0.01197    | 0.020857   |   2.6 |  0.26
Neigh   | 0.093411   | 0.093651   | 0.093938   |   0.1 |  2.02
Comm    | 0.43458    | 1.5049     | 2.6819     |  47.7 | 32.47
Output  | 0          | 0          | 0          |   0.0 |  0.00
Modify  | 0          | 0          | 0          |   0.0 |  0.00
Other   |            | 0.3616     |            |       |  7.80

Nlocal:        47.3438 ave          62 max          27 min
Histogram: 1 1 3 2 8 2 1 3 7 4
Nghost:        1971.66 ave        1997 max        1945 min
Histogram: 2 2 5 1 5 6 4 2 1 4
Neighs:        5058.16 ave        7078 max        2753 min
Histogram: 1 2 7 3 3 1 3 4 5 3

Total # of neighbors = 161861
Ave neighs/atom = 106.83894
Ave special neighs/atom = 2.0303630
Neighbor list builds = 98
Dangerous builds = 0

# MD simulation
velocity all create 300.0 12345 rot yes dist gaussian
timestep 1.0
fix 2 all nvt temp 300.0 300.0 1

# Compute interaction energy
group WAT molecule <> 2 501
1500 atoms in group WAT
group MOL molecule 1
15 atoms in group MOL

compute w WAT group/group MOL pair yes
fix 3 all ave/time 10 5 100 c_w file outa

# Outputs
thermo 100 # Output thermodynamic data every nth step
#dump mf1 all xyz 10000 mol_*.xyz

# Run
run 1000000
Neighbor list info ...
  update every 2 steps, delay 10 steps, check yes
  max neighbors/atom: 10000, page size: 100000
  master list distance cutoff = 13
  ghost atom cutoff = 13
  binsize = 6.5, bins = 6 6 6
  4 neighbor lists, perpetual/occasional/extra = 3 1 0
  (1) pair hbond/dreiding/lj, perpetual, skip from (4)
      attributes: full, newton on
      pair build: skip
      stencil: none
      bin: none
  (2) pair lj/cut, perpetual, half/full from (4)
      attributes: half, newton on
      pair build: halffull/newton
      stencil: none
      bin: none
  (3) compute group/group, occasional, copy from (2)
      attributes: half, newton on
      pair build: copy
      stencil: none
      bin: none
  (4) neighbor class addition, perpetual
      attributes: full, newton on
      pair build: full/bin
      stencil: full/bin/3d
      bin: standard
Per MPI rank memory allocation (min/avg/max) = 13.25 | 13.33 | 13.81 Mbytes
Step Temp E_pair E_mol TotEng Press Volume 
    5653          300   -1022.0584    34.272407    366.09792    1735.4087    37426.586 
    5700    295.54245   -1068.2023    259.65181    525.21677    1151.2904    37426.586 
    5800     298.0486   -1088.9482     187.5561     443.6853    996.63154    37426.586 
    5900    307.09137   -1079.7131    167.43049    473.60428     1201.518    37426.586 
    6000    298.81557    -1100.068    186.83682    435.30749    1061.9449    37426.586 
    6100    297.47123   -1107.9705    209.93979    444.44097    931.61438    37426.586 
    6200    311.08132   -1077.6293    183.31426    509.57833     1186.408    37426.586 
    6300    310.37761   -1096.7885    196.95905    500.88804    721.62763    37426.586 
    6400    305.73842   -1050.0918    194.91821    524.60752    359.86368    37426.586 
    6500     306.5123   -1097.9859    189.10441    474.39207    78.106805    37426.586 
    6600    309.26156   -1056.0637    200.76286    540.37999    515.51631    37426.586 
    6700    303.52353   -1063.1442    208.86354    515.50478    535.33842    37426.586 
    6800    290.80603   -1089.5229    190.88475    413.75385    603.10519    37426.586 
    6900    305.47579   -1054.5537    203.29542    527.33757    891.58654    37426.586 
    7000     287.5629   -1059.0665    203.68478    442.37421    225.47887    37426.586 
    7100    303.12269   -1092.5186    209.40764    484.86553    616.48185    37426.586 
    7200    304.39641   -1059.2962    208.81942    523.24787      742.131    37426.586 
    7300    297.68061   -1076.4556    196.93641    463.89745    653.83605    37426.586 
    7400    308.44693   -1080.8253    221.54518    532.72437    827.76526    37426.586 
    7500    296.20622    -1101.575    215.99452    451.18232    731.22655    37426.586 
    7600    306.96032     -1057.33    213.84209    541.80757    584.80197    37426.586 
    7700    302.03494    -1081.633    210.79743    492.23197    470.82313    37426.586 
    7800    290.49581   -1108.5488    208.76526    411.20854   -175.56198    37426.586 
    7900    281.58561    -1106.271    225.56444     390.0742    96.598853    37426.586 
    8000    300.55502   -1102.7502    224.04999    477.68845    373.38266    37426.586 
    8100    304.31742   -1100.2877    230.27708    503.35762    349.00399    37426.586 
    8200     303.9462   -1075.0005      235.266    531.95844    443.42412    37426.586 
    8300    307.47549   -1088.7726    222.66934    521.51718    275.12181    37426.586 
    8400    304.46384   -1131.0481     226.5579    469.53876   -138.18397    37426.586 
    8500    291.67085   -1129.3662    218.50515     405.4339    222.13021    37426.586 
    8600    291.07287   -1119.0556     230.6071     425.1478   -81.462882    37426.586 
    8700    287.81094   -1099.4056    230.26928    429.73909    184.36266    37426.586 
    8800    289.12491   -1103.9929    224.87779    425.69007    856.53999    37426.586 
    8900    300.40507   -1155.6467    246.01084    446.07619    781.17228    37426.586 
    9000    297.61084   -1163.0908    232.39473    412.40573    1001.7152    37426.586 
    9100    305.42188   -1153.3163    236.99742    462.03372     851.3297    37426.586 
    9200    291.70673   -1096.7567    242.83905    462.53922    1504.2233    37426.586 
    9300    286.48252   -1118.4242    236.52782    410.98393    781.94778    37426.586 
    9400    305.83712   -1111.6921    240.76533    509.29983    580.79669    37426.586 
    9500    305.59988   -1090.0874    227.33082    516.39927    342.57923    37426.586 
    9600    286.62583   -1173.6127    249.27698    369.19128    -45.64252    37426.586 
    9700    304.11176   -1072.2841    242.02374    542.17974    965.92486    37426.586 
    9800    298.97827   -1140.3192    237.47448    446.42822    671.19627    37426.586 
    9900    293.10649   -1085.6583     252.3258    489.44142     668.6825    37426.586 
   10000    298.06691   -1137.3162    232.97726    440.82106    268.95605    37426.586 
   10100    300.49654   -1124.3076    243.97179    475.78894    292.80469    37426.586 
   10200    303.39927   -1165.1439      240.787    444.86771    54.753602    37426.586 
   10300    314.41432   -1129.7818    239.45164    528.60483    627.51083    37426.586 
   10400    294.64009   -1095.9187    250.01711    483.79334    411.76511    37426.586 
   10500    300.03762   -1110.6264    245.39177    488.81907    521.24764    37426.586 
   10600    305.09737   -1127.1503    230.28887    480.02661    196.55377    37426.586 
   10700    305.17922   -1121.8483    244.02309    499.43224    152.68691    37426.586 
   10800    308.61284   -1159.5614    239.63711    472.82894    88.029343    37426.586 
   10900     298.4727   -1179.1984    263.90699    431.69987    157.70615    37426.586 
   11000    287.35862   -1111.6644    221.99099    407.16071    379.93592    37426.586 
   11100    301.75059   -1134.0243    246.00323     473.7632    296.87638    37426.586 
   11200    301.99847   -1152.8951     228.5805    438.58829    541.68089    37426.586 
   11300    289.33877    -1116.707     270.7482    459.81159   -10.384939    37426.586 
   11400     300.8012   -1109.7569    244.40901    492.15177    353.63984    37426.586 
   11500    294.46942    -1136.931    249.84752    441.84128   -113.38376    37426.586 
   11600    302.10322   -1117.6704    262.06357    507.76883    10.534645    37426.586 
   11700    301.34328   -1154.7082    244.51246    449.75032    92.242021    37426.586 
   11800    296.00774   -1120.1706    251.09397    466.79038     128.7524    37426.586 
   11900    296.49641   -1097.9082    260.62002     500.7842    344.26815    37426.586 
   12000    293.59569   -1158.0694    263.10655    430.01873    373.37308    37426.586 
   12100    310.54081   -1141.3529     252.2011    512.30228    332.94607    37426.586 
   12200    308.42838    -1198.424    256.41264    449.90942    476.26059    37426.586 
   12300     308.9167   -1127.0819     269.6474    536.69004    226.07943    37426.586 
   12400    303.83878   -1136.8449    257.61274    491.97594    159.55211    37426.586 
   12500    302.34119   -1132.3855    258.52349     490.5876     231.7625    37426.586 
   12600    302.10727   -1124.7972    263.73728    502.33399    415.40221    37426.586 
   12700    298.94769   -1140.8838     261.5269    469.77798    847.84819    37426.586 
   12800    302.72732   -1134.1026    266.84875    498.93825    720.59174    37426.586 
   12900    308.23404   -1145.6629    265.67788    511.05865    477.39962    37426.586 
   13000    299.95118   -1186.1443     265.7262    433.24548    1038.1957    37426.586 
   13100    300.53191   -1164.8465    283.97377    475.41168    589.92749    37426.586 
   13200     292.9586   -1151.7491    280.52591     450.8833     885.0467    37426.586 
   13300    292.59675   -1174.8463    277.40183    423.02894    472.46932    37426.586 
   13400    297.07918   -1192.6471    262.87147    410.92675     450.3516    37426.586 
   13500    295.41744    -1164.313    279.83694    448.72702    515.91883    37426.586 
   13600    296.19102    -1183.046    282.37333    436.02156     856.1495    37426.586 
   13700    306.67194   -1149.7201    270.31479    504.58872    918.09585    37426.586 
   13800    298.10116   -1207.6869    288.06894    425.69661    731.95445    37426.586 
   13900    291.89327   -1181.0589    273.89085    410.13058     247.9676    37426.586 
   14000    297.32172   -1185.4817    294.20829     450.5236    493.68275    37426.586 
   14100    298.47936   -1153.6323      284.865    478.25402     310.9416    37426.586 
   14200    303.64501   -1156.7218    273.86712    487.47895   -223.43808    37426.586 
   14300    293.04317   -1150.9308    288.66814    460.22545    187.00065    37426.586 
   14400    288.84713   -1146.9658      269.346     425.9318     467.8903    37426.586 
   14500    304.06852   -1170.1321    295.15721    497.27005    462.93296    37426.586 
   14600    290.53617   -1195.0152    276.96157    393.12049    115.89054    37426.586 
   14700    299.93566   -1183.0014    284.16864    454.76078    4.4587674    37426.586 
   14800    303.32993    -1227.099    281.11768    422.93041    330.33257    37426.586 
   14900    303.51621    -1196.872     301.3723    474.25268    62.007765    37426.586 
   15000    307.17735   -1172.5065     307.4752     521.2436    104.26531    37426.586 
   15100    299.57018   -1166.0975    263.61741    449.46406    263.40679    37426.586 
   15200    304.74252   -1167.4076    307.86273    515.74177   -207.05205    37426.586 
   15300    302.06362   -1177.1793    285.45747    471.47511    52.207529    37426.586 
   15400    295.44081   -1185.2214    284.15551    432.24268    255.53109    37426.586 
   15500    310.06332   -1219.7464    280.17749    459.73023    291.80417    37426.586 
   15600    297.19684   -1204.0142    286.12726     423.3465   -16.132626    37426.586 
   15700    297.30767   -1197.7506    278.11385     422.0968    722.02252    37426.586 
   15800     296.9527   -1172.1099    311.76031      479.782    668.30846    37426.586 
   15900    300.46028   -1181.0116    277.59396    452.54355     411.4548    37426.586 
   16000    300.87867   -1162.6056    286.34339    481.58711    54.545635    37426.586 
   16100    310.25457   -1182.5472    288.93308    506.54815    78.026155    37426.586 
   16200    303.41202   -1210.3182    280.57136    439.53532    389.74494    37426.586 
   16300    300.79207   -1192.0199    287.06025    452.49886    123.41528    37426.586 
   16400    292.63931    -1175.474    295.36941    440.56097    427.84245    37426.586 
   16500    290.23378   -1215.5489    290.79708    385.05771    379.14434    37426.586 
   16600    294.01606   -1204.1171    291.28028    414.04191    300.60927    37426.586 
   16700    300.03292    -1213.484    287.69141    428.23992    361.43825    37426.586 
   16800    310.57445   -1177.3534    304.15125    528.40369    317.29479    37426.586 
   16900    298.67522   -1188.0457    291.87754    451.73711   -193.63123    37426.586 
   17000    306.38118   -1201.8179    280.75369    461.61763   -184.78575    37426.586 
   17100    300.00139   -1177.5521    301.00934    477.34743     204.3667    37426.586 
   17200    293.27039   -1210.7682     283.7459    396.49128    558.88809    37426.586 
   17300    308.55577   -1203.1586    310.86069    500.19778    285.18316    37426.586 
   17400     305.3336   -1148.6552    315.41269    544.71168    296.80207    37426.586 
   17500     285.4904   -1163.6093    295.05578    419.84935    41.481138    37426.586 
   17600    305.32528   -1178.3906    309.12365    508.64971   -242.97096    37426.586 
   17700    298.74853   -1191.6625      306.652    463.22563   -312.31269    37426.586 
   17800    299.60043   -1161.1401    301.99266    492.93328   -190.79141    37426.586 
   17900    295.56907   -1207.3294    293.45075    420.00869   -396.03329    37426.586 
   18000    291.16192   -1195.7801    312.17364    430.39163    112.71433    37426.586 
   18100    292.77983   -1162.8738    317.94473    476.37061    184.89252    37426.586 
   18200    296.02689   -1167.0792    291.84641    460.72071    235.15522    37426.586 
   18300    301.87621   -1170.2478    319.29068    511.39402    437.48133    37426.586 
   18400    308.56506   -1171.2993    320.79381     542.0321    540.51542    37426.586 
   18500    298.53799   -1209.3722    302.92571    440.83948    96.918488    37426.586 
   18600    302.98748   -1228.7997    313.14285    451.70938    771.83796    37426.586 
   18700    287.22299   -1172.0984    320.49225    444.61585    204.47027    37426.586 
   18800    296.67523   -1179.1539    302.04762    461.77317    333.41699    37426.586 
   18900    299.41922   -1155.3224    316.47759    512.41809    1039.2895    37426.586 
   19000     306.0493   -1195.6792    317.79368    503.29861    804.33707    37426.586 
   19100    300.45988    -1183.449    292.72814    465.23846    563.43428    37426.586 
   19200    296.01323   -1203.5552    310.52729    442.86396     206.7545    37426.586 
   19300    298.56288   -1207.4414    334.47997    474.43681    113.43985    37426.586 
   19400    287.57464   -1223.8463    307.44833    381.41102    256.45423    37426.586 
   19500    298.25684   -1239.0341    323.95575    430.93879    88.302339    37426.586 
   19600    287.78773   -1222.8423    326.07513     402.0035    797.13361    37426.586 
   19700    308.99595   -1193.5431    315.28392    516.22297    564.38384    37426.586 
   19800    305.21932   -1145.3839    320.25241    552.30698    859.69777    37426.586 
   19900    293.80837   -1168.5609    319.06255    476.44307    552.23313    37426.586 
   20000    313.15691   -1184.4156    331.38077    560.22551    497.55402    37426.586 
   20100    311.66676   -1216.6002    294.12172    484.05688    734.47214    37426.586 
   20200    301.93485   -1220.3423    328.86845     471.1419     407.9635    37426.586 
   20300    308.12023   -1208.2459    329.03681    511.32098    447.73727    37426.586 
   20400    299.57915   -1210.3372    326.79829    468.44574     506.7212    37426.586 
   20500    297.21092   -1211.5699    304.72179    434.44886    23.025332    37426.586 
   20600    299.76167   -1202.8922    333.69019    483.60632    330.07107    37426.586 
   20700    297.97081   -1214.4074    331.96724    462.28614   -186.49496    37426.586 
   20800    290.99153   -1229.7843    307.89468    391.33959   -290.10935    37426.586 
   20900    296.48832   -1251.5122    313.63763    400.16135    222.21827    37426.586 
   21000    296.15774    -1235.267    347.85452    449.13156    109.62236    37426.586 
   21100     304.3161   -1234.2991    323.68282    462.74593   -2.9797306    37426.586 
   21200    295.79528    -1222.799    308.36282     420.4721    -107.7603    37426.586 
   21300    300.34031   -1282.1373    332.87109    406.15354     310.4514    37426.586 
   21400    300.08767   -1217.6293     333.2019    469.85221      7.15076    37426.586 
   21500    289.58479   -1233.7742    307.24619    380.35259    192.11881    37426.586 
   21600    298.00586   -1272.4793    319.02855    391.43373   -52.650828    37426.586 
   21700    303.15915   -1252.2193    348.95592     464.8776   -240.35749    37426.586 
   21800    294.53224   -1217.2236     329.9306    441.91523    71.799936    37426.586 
   21900    300.37633    -1256.775    344.34133    443.14865   -32.230616    37426.586 
   22000     303.7702   -1201.8399    339.68015    508.73889    854.34318    37426.586 
   22100    292.90105   -1227.9042    349.66907    443.61159    169.56987    37426.586 
   22200    305.41068   -1204.5139    337.00156    510.78972    885.80252    37426.586 
   22300      319.207   -1214.3106    340.68797    566.94152    421.82812    37426.586 
   22400    300.20892   -1220.8065    349.81284    483.83308    653.77067    37426.586 
   22500    304.26768   -1266.8129    334.30376     440.6346    371.49551    37426.586 
   22600    299.49361   -1259.8309    345.88581    437.65349    352.98203    37426.586 
   22700    303.19005   -1234.4841     325.0293    458.82563   -111.36978    37426.586 
   22800    289.08344   -1225.1227     350.0861    429.58147   -43.348925    37426.586 
   22900    302.87148   -1181.3518    357.46321    542.95418    -261.5131    37426.586 
   23000    305.02043   -1202.2487    348.85061    523.14277    64.602976    37426.586 
   23100    298.52526   -1203.9275      337.103    480.40399    235.86361    37426.586 
   23200    300.03638   -1211.9717    325.00199    467.07844     170.5495    37426.586 
   23300    296.56611   -1205.1226    376.35203    509.61636   -26.606464    37426.586 
   23400    305.59766   -1245.7672    330.51547    463.89412    562.31466    37426.586 
   23500    314.67661   -1222.8897    339.74982     536.9788    201.68323    37426.586 
   23600    298.28888   -1251.3326    349.06064    443.88972    843.22621    37426.586 
   23700    302.91364   -1232.8372    348.88624    483.08203     862.1274    37426.586 
   23800    298.27312   -1219.7136    341.69218    468.06922    91.621266    37426.586 
   23900    302.55083   -1238.9043    352.02593    478.51724    354.13816    37426.586 
   24000    288.36247   -1269.3297    349.25481    381.28947    319.61317    37426.586 
   24100    296.64983    -1282.439    349.33658    405.66238    733.07794    37426.586 
   24200     304.4914   -1322.5265    338.18131    389.80822    1243.5651    37426.586 
   24300    305.59659   -1311.2965    348.58403    416.42856    842.05859    37426.586 
   24400    297.34514   -1269.9169    347.52829    419.51402    698.03073    37426.586 
   24500    308.69293   -1239.9447    344.78166     497.9516    845.07425    37426.586 
   24600    303.70075   -1276.5678    347.86204    441.87944   -111.14363    37426.586 
   24700    297.12046    -1257.036    349.63272    433.48544    155.94632    37426.586 
   24800    297.08169   -1254.6789    351.05997    437.09482    522.38369    37426.586 
   24900    304.50564   -1237.1988    358.95518    495.97408    213.81422    37426.586 
   25000    294.05211   -1251.3692    372.15869    447.83088     24.66907    37426.586 
   25100     298.5556    -1295.078    345.45462    397.74205    199.52438    37426.586 
   25200    294.26437   -1276.8851    350.77191    401.88615   -106.12429    37426.586 
   25300    305.04374   -1279.8833    335.18622    431.94895    325.90238    37426.586 
   25400    298.75972   -1273.6885    356.33399     430.9321   -152.30116    37426.586 
   25500    301.93802   -1244.3579    347.24192    465.51413    519.08952    37426.586 
   25600     300.1379   -1286.4233      344.469    412.55197    250.91872    37426.586 
   25700     307.8111   -1269.0639    351.21683    471.28793   -369.88881    37426.586 
   25800    300.11287   -1276.5792     366.9492    444.76333     -166.531    37426.586 
   25900     301.1824   -1311.0877    337.03188     385.1642    -409.3065    37426.586 
   26000    296.81237   -1298.8989    342.39277    382.99216   -518.68478    37426.586 
   26100    304.76007   -1268.5759    334.70391    441.49389   -272.82531    37426.586 
   26200    303.48361   -1261.5194    367.84269    475.92862   -352.79673    37426.586 
   26300    299.36155   -1257.6084    362.59335     455.9876    430.27635    37426.586 
   26400    300.21638   -1239.4105    367.62112    483.07104    432.97035    37426.586 
   26500    306.22499   -1238.2689    369.93768    513.64575    554.72274    37426.586 
   26600    297.97727   -1259.4114    358.03087    443.37491    1015.2267    37426.586 
   26700    290.18373   -1193.1612    369.89012    486.31256    543.96855    37426.586 
   26800    305.33014   -1177.9368    357.93072     557.9325    36.575233    37426.586 
   26900    300.68858   -1239.7709    351.61991    468.84045   -292.98129    37426.586 
   27000    291.77961    -1252.757     351.8324    415.86118   -366.03658    37426.586 
   27100    293.75285   -1280.7728    351.77793    396.69595   -483.59073    37426.586 
   27200    298.87112   -1253.8382    346.23173    441.18284   -260.71458    37426.586 
   27300    296.93762    -1225.242    376.59769    491.41925   -32.203129    37426.586 
   27400    296.93154    -1202.858    361.69669    498.87479   -265.35575    37426.586 
   27500     297.7567   -1245.3635    364.35356    462.75007   -85.886884    37426.586 
   27600    294.30641   -1224.5887     367.9734    471.57376    37.269848    37426.586 
   27700    300.53505   -1247.0868    368.34809    477.55985   -385.32082    37426.586 
   27800    290.15352   -1232.2314    372.43607    449.65193   -548.26933    37426.586 
   27900    294.57009     -1262.16    361.11508    428.33417    40.245354    37426.586 
   28000    304.93868   -1269.0207    367.52774    474.67895    12.246129    37426.586 
   28100    307.97139    -1270.542    363.61035     482.9267    581.62605    37426.586 
   28200    299.89991   -1312.8109    343.92954    384.55089    187.93276    37426.586 
   28300    296.30439   -1307.9618    357.98851    387.23252     172.7603    37426.586 
   28400     308.3774   -1331.7479     356.2853    416.22803    568.22512    37426.586 
   28500    301.11986   -1343.0651     366.1471     382.0198   -367.04291    37426.586 
   28600    288.08354   -1322.3424    373.50353     351.2667    107.69259    37426.586 
   28700    290.73866   -1319.0033    369.94747    363.03213     71.33716    37426.586 
   28800    299.67041   -1332.0374    367.73665    388.09574    187.60693    37426.586 
   28900    303.76121   -1326.3699    365.96159    410.44977    119.02504    37426.586 
   29000    304.24263   -1277.0563    364.80489    460.77924    311.33805    37426.586 
   29100    301.42883   -1296.9101     365.1212    428.54324    65.806618    37426.586 
   29200    313.87421   -1304.7815    368.71436    480.43036    1109.0612    37426.586 
   29300    297.71239   -1291.3521    370.00139    422.20931    213.31806    37426.586 
   29400    308.90557   -1307.8504    375.05411    461.27802   -194.59559    37426.586 
   29500    292.79475   -1299.6023    367.60794    389.37268    32.130004    37426.586 
   29600    300.09989   -1307.2436    383.77517     430.8663     241.0871    37426.586 
   29700    296.97503   -1338.4773    365.38245    367.13755     357.1868    37426.586 
   29800    309.86341   -1269.4067    372.56181    501.55209    190.26003    37426.586 
   29900      311.294   -1272.7971    366.77102    498.82711    30.597342    37426.586 
   30000    308.30276   -1307.8036    363.33506     446.8853    14.175199    37426.586 
   30100    298.65687   -1323.5824    385.29073    409.53084     631.9603    37426.586 
   30200    290.01618   -1338.7527    375.48805    345.56277       454.91    37426.586 
   30300    298.01036    -1306.967    396.06249    434.00026   -336.87071    37426.586 
   30400    298.85176   -1311.1612    361.80929    399.35007    232.50264    37426.586 
   30500    302.85625   -1348.7709    360.62836    378.63152    265.25109    37426.586 
   30600    309.09984   -1309.0351    361.67972    447.59562    626.90569    37426.586 
   30700    291.17149   -1321.1045    385.33874    378.27562     870.6753    37426.586 
   30800    294.70591   -1313.8068    376.22051    392.40565    669.44488    37426.586 
   30900     295.0284   -1338.3817    377.69108    370.75674    518.84275    37426.586 
   31000    297.85482   -1343.3413    373.49136    374.35295    789.62807    37426.586 
   31100     304.0246   -1289.7778    383.24478    465.51366    973.62172    37426.586 
   31200     306.5965   -1297.8839    386.01172    471.78136    567.03969    37426.586 
   31300    294.26993   -1279.8768    382.71798    430.86559    567.34313    37426.586 
   31400    298.24136   -1266.7599    380.87681    460.06421    200.40326    37426.586 
   31500    312.02136    -1278.332    375.96738    505.77103    152.98909    37426.586 
   31600    298.65367   -1264.4028    373.01999    456.42518      296.807    37426.586 
   31700    301.35366   -1262.0371    357.97421    455.93005    69.679665    37426.586 
   31800    299.96618   -1280.0043    390.50708    464.23405   -297.60171    37426.586 
   31900     295.3731   -1272.8789    395.11338    455.23748    145.01274    37426.586 
   32000    292.73393   -1274.5685    383.68199    430.20599    53.967793    37426.586 
   32100    299.81062   -1257.5287    382.12939    477.62999    543.23517    37426.586 
   32200    308.89081   -1269.3115    393.72746     518.4236    246.07407    37426.586 
   32300    307.00097   -1306.7298    358.05529    436.80442    51.302461    37426.586 
   32400     292.2899   -1312.4298    377.74688    384.40567   -190.78529    37426.586 
   32500       314.34   -1259.3569    383.34033    542.58295    331.39668    37426.586 
   32600    298.87589   -1314.0124    391.88677    426.68525     493.2568    37426.586 
   32700    301.49734   -1258.6975    379.28148    481.22536    931.12811    37426.586 
   32800    294.03786   -1282.5652    373.63847    418.05036    676.10096    37426.586 
   32900    292.18541   -1258.3924    379.07131    439.29601     438.6684    37426.586 
   33000    297.73962   -1248.8217    405.54693    500.40821    487.37498    37426.586 
   33100      296.787   -1261.0431    384.96649    463.30724    273.28399    37426.586 
   33200    290.85534   -1232.1864    385.69357    466.12174    17.742571    37426.586 
   33300    306.95594   -1276.9464     385.0254    493.35474   -86.327865    37426.586 
   33400    302.38135   -1256.2322    384.88716    493.28581    61.976953    37426.586 
   33500    301.17604   -1292.3668    404.99353    471.81805   -232.27373    37426.586 
   33600    294.94864    -1299.065    392.18945    424.21187    -120.9207    37426.586 
   33700    298.33052   -1265.4599    395.62003    476.50973    50.191104    37426.586 
   33800    306.15498   -1271.9109    414.26143    524.01151    39.440247    37426.586 
   33900    294.05753   -1306.3703    386.71753    407.41313    295.19338    37426.586 
   34000    289.86819   -1327.4305     395.3649      376.094     306.8266    37426.586 
   34100    294.79929   -1290.2324    394.09296    434.27391     395.1488    37426.586 
   34200    297.92197   -1277.9754    415.27233    481.80285    697.95587    37426.586 
   34300    295.97826   -1245.9983    386.34668    476.08235    810.54208    37426.586 
   34400    297.93783   -1264.0117    392.31502    472.88081    935.32895    37426.586 
   34500     304.3353   -1295.4328    396.62386    474.63995    701.88332    37426.586 
   34600    302.96764   -1336.6146    381.38862    412.05072    421.82578    37426.586 
   34700     306.7914   -1323.9386    370.39229    430.98685    75.938234    37426.586 
   34800    293.59099   -1321.0468    396.58836    400.50199   -71.665252    37426.586 
   34900     300.4827   -1305.9679     382.2844    432.37882    239.60811    37426.586 
   35000    294.35454   -1278.7071    406.62628    456.32545    120.30969    37426.586 
   35100    298.37432   -1307.1394    395.00237    434.41026   -207.77644    37426.586 
   35200    317.04021   -1338.1651    396.01631    488.63668    118.60007    37426.586 
   35300    305.03412   -1326.7729    396.35396    446.18372    397.60367    37426.586 
   35400    297.44747   -1359.3969    389.70596    372.67354    359.38661    37426.586 
   35500    297.21507   -1349.9717     393.7566    385.10056    25.411316    37426.586 
   35600    299.67938   -1309.2008    402.20238    445.43859   -58.477422    37426.586 
   35700    300.91204   -1345.7145    401.89603    414.18143    172.26449    37426.586 
   35800    294.26495   -1312.6752    390.14936     405.4761   -495.91579    37426.586 
   35900    307.29657    -1318.172    409.86547    478.50641    -268.3828    37426.586 
   36000    292.92099    -1349.555    392.24102    364.62271    -431.1749    37426.586 
   36100    290.71626    -1382.265     383.8063    313.52823   -337.44093    37426.586 
   36200    301.03267   -1314.4771    395.55933     439.6265   -119.62432    37426.586 
   36300    305.55643   -1336.8686    392.40859    434.49979     42.81452    37426.586 
   36400    290.87764   -1310.2009    416.91091    419.42524    94.440771    37426.586 
   36500    306.86185   -1351.4482    401.31621    434.71908    301.15169    37426.586 
   36600    292.50543   -1334.1604    414.22654    400.12749    503.30245    37426.586 
   36700     315.3532   -1337.8721    383.53254    468.83251    35.585805    37426.586 
   36800    297.88126   -1349.6631    404.02757    398.68669   -154.67095    37426.586 
   36900    301.03708   -1372.5323    411.06355     397.0955   -493.68462    37426.586 
   37000     296.1068   -1360.5718    389.86342    365.60572   -474.60424    37426.586 
   37100     295.2437   -1378.0363    391.07677    345.45944   -64.733059    37426.586 
   37200    295.42596   -1394.5223    380.18156     318.9008    51.144099    37426.586 
   37300    298.10585   -1349.0944     394.5989    390.84023    407.66637    37426.586 
   37400    301.12236   -1347.8324    400.27109     411.3878     492.6891    37426.586 
   37500    300.20784   -1304.2055    381.33894    431.95529    770.10485    37426.586 
   37600    298.41869   -1338.0334    388.81246    397.52659    571.01407    37426.586 
   37700    305.03966   -1362.4165    401.90502    416.11615    434.74564    37426.586 
   37800    293.73133   -1329.2212    399.28335    395.65585    695.77122    37426.586 
   37900    301.18829   -1280.4527    399.04603    477.83992     483.7318    37426.586 
   38000    304.78672   -1261.6334    407.94837     521.8011    151.64606    37426.586 
   38100    302.43114   -1289.1432    401.70196    477.41434   -344.69716    37426.586 
   38200    300.82735   -1306.5249    384.48788    435.58074   -496.54883    37426.586 
   38300    306.72173   -1337.6519    393.09274     439.6596   -85.246575    37426.586 
   38400    299.21047   -1353.3744    382.85297    379.79942   -413.88956    37426.586 
   38500    298.15893   -1364.5036    397.74219    378.81385    234.29889    37426.586 
   38600    305.79527   -1391.9639    377.86441    365.93822    358.83626    37426.586 
   38700    289.60643   -1320.2148    401.31847     388.0819    735.54779    37426.586 
   38800    295.05779   -1383.2979    414.47538    362.75744    329.04559    37426.586 
   38900    312.26017    -1360.458    400.86991    449.62537    746.36685    37426.586 
   39000    308.95973   -1349.0636    414.13469    459.38983    542.85086    37426.586 
   39100    298.17117   -1364.1047    400.44305    381.96885    84.463178    37426.586 
   39200    299.25417   -1363.5551    395.95698    382.91986     797.4963    37426.586 
   39300    289.51004   -1354.0205    405.21175    357.73452    181.61289    37426.586 
   39400    287.58093   -1353.8344    399.07967    343.08255   -327.94572    37426.586 
   39500    297.76245   -1288.9143    390.34897    445.22066    208.69989    37426.586 
   39600    290.41585   -1342.9215    401.47189     369.1816   -178.96111    37426.586 
   39700    295.61895   -1335.4155    438.51977    437.21675   -94.437916    37426.586 
   39800    298.28879   -1334.4992    422.43282     434.0949   -105.96177    37426.586 
   39900    308.15502   -1343.7405     400.1717    447.11826   -314.86506    37426.586 
   40000    303.51718   -1299.2956    405.77919    476.24038    111.75209    37426.586 
   40100    307.81012   -1294.5472    420.97893    515.56231   -152.21659    37426.586 
   40200    312.31402    -1310.612     404.0327    502.87716    103.85826    37426.586 
   40300    302.89223   -1316.9502    413.48547    463.47167   -903.53005    37426.586 
   40400    304.00871   -1313.8522     419.6263    477.74912   -360.14907    37426.586 
   40500    304.66409   -1324.7506    405.25352    455.43569   -300.72595    37426.586 
   40600     305.0777   -1356.3372    407.93642    428.39854    81.488652    37426.586 
   40700     310.3628   -1307.4323    426.17141    519.38976      411.388    37426.586 
   40800    314.92466   -1333.4848    426.28302    514.03633     268.0246    37426.586 
   40900     298.7135    -1313.999    426.48011    460.55914    74.672003    37426.586 
   41000     304.0584   -1353.3607    440.95074    459.78928    522.81811    37426.586 
   41100    306.82656    -1367.471     433.0533    450.27411    522.18977    37426.586 
   41200    305.70439   -1340.7141    433.57668    472.49009    233.13832    37426.586 
   41300    293.61489   -1403.2181     421.9603    343.81045    21.680313    37426.586 
   41400    294.12485   -1386.2749    405.40148    346.49627    103.53716    37426.586 
   41500    291.07911   -1410.6576    405.81435     308.7812   -49.648029    37426.586 
   41600    299.44371   -1372.8633    412.78849     391.2986    547.85455    37426.586 
   41700    306.97245   -1416.5184    389.11699    357.94879    67.674635    37426.586 
   41800    308.87187   -1378.2275    398.25562    413.95036    227.36874    37426.586 
   41900    297.91018   -1344.4424    405.39208     405.4023   -124.67344    37426.586 
   42000    297.20163   -1371.6512    412.01616    381.61997    284.72047    37426.586 
   42100    303.44666   -1334.4946    422.30926    457.25317    182.12104    37426.586 
   42200    307.31752   -1347.9057    435.73966    474.74148   -396.79939    37426.586 
   42300    306.42052   -1327.9055    419.60157    474.55547   -95.039848    37426.586 
   42400    293.29002   -1362.3341    422.25646    383.52453   -381.88917    37426.586 
   42500    309.39096   -1337.4801    445.50791    504.29262     -214.497    37426.586 
   42600    294.73096   -1377.4894    401.25101     353.8666   -31.985231    37426.586 
   42700    299.98191   -1414.3331    427.16298     366.6322   -410.81409    37426.586 
   42800     295.0101   -1401.5801    401.50233    331.28696    30.977127    37426.586 
   42900    303.04594   -1410.6418    401.19246    358.18071    312.34442    37426.586 
   43000    295.48879   -1379.7649    419.23202    372.99221   -200.57857    37426.586 
   43100    293.10435   -1347.5794      422.419    397.60388    191.87245    37426.586 
   43200     301.1305   -1376.1596    418.65281    401.47905   -168.10051    37426.586 
   43300    306.75349   -1361.3927    435.25057    458.21989    296.61947    37426.586 
   43400    297.83627   -1343.5329    431.51845    432.10466    69.940439    37426.586 
   43500    295.92705   -1367.7798    422.41427    390.13736   -206.51725    37426.586 
   43600    304.34316   -1390.2525    426.50398     409.7358     79.58252    37426.586 
   43700    303.84194   -1393.8643    407.88203    385.24013     282.0429    37426.586 
   43800    289.37973   -1375.8071    410.44386    340.59202    456.70077    37426.586 
   43900    309.64836    -1406.588     436.5181    427.35652    366.00732    37426.586 
   44000    296.23583   -1404.6108    424.47885    356.76451    655.55248    37426.586 
   44100    293.93143    -1347.492    436.85409    415.85886      130.355    37426.586 
   44200    300.98595    -1405.887    409.60383    362.05028   -323.79271    37426.586 
   44300    290.69953   -1407.0067    404.61705    309.52173   -519.26875    37426.586 
   44400    297.39083   -1358.4744    407.28283     390.9173    -815.8473    37426.586 
   44500     292.7384   -1326.6637    417.88118    412.33024   -91.020709    37426.586 
   44600    297.23846   -1388.7933    424.28596    376.91388   -51.862873    37426.586 
   44700    313.09436   -1363.4864    418.96041    468.45203    658.97237    37426.586 
   44800    299.08414   -1352.3818    439.68231    437.05126    438.65427    37426.586 
   44900    312.00651   -1340.8288    412.26942    479.50931     922.6585    37426.586 
   45000    302.07782   -1338.1137     420.2522    445.39954    234.36471    37426.586 
   45100    300.93029   -1357.8172    424.16177    424.42686    31.802501    37426.586 
   45200    295.26375   -1324.8168    423.69352    431.38619   -172.37144    37426.586 
   45300    297.09445   -1381.5256    450.38248    409.62823   -96.198504    37426.586 
   45400    301.43391   -1378.9703    421.90452    403.28929    203.00734    37426.586 
   45500     298.8984   -1374.2504    437.77393    412.43603    54.767202    37426.586 
   45600    303.07381   -1376.0735    441.42595    433.10828    330.71669    37426.586 
   45700     301.7185    -1399.829     404.3037    366.11412   -104.36421    37426.586 
   45800    301.29931   -1376.5574    441.97724    425.16752    636.45696    37426.586 
   45900    290.68237   -1335.5763    433.16832    409.42594    415.00851    37426.586 
   46000    302.61442   -1343.7851    409.44611    431.34362    417.82353    37426.586 
   46100    305.82947   -1337.5334    428.78391    471.44257   -456.60797    37426.586 
   46200    298.30262    -1351.874    415.95332    410.30308   -117.04185    37426.586 
   46300    303.11184   -1305.9228    439.75421    501.75892   -8.2467957    37426.586 
   46400    296.31018   -1290.6615    445.10011    491.67059   -84.164595    37426.586 
   46500    314.21833   -1356.0871    428.94661    490.91005     294.3882    37426.586 
   46600    298.48876   -1395.7729    428.46674     379.7576    626.78702    37426.586 
   46700    298.45486   -1331.3281    430.65118    446.23391    426.15283    37426.586 
   46800    294.55006   -1330.9894    413.32682    411.62605    456.79817    37426.586 
   46900    301.09814   -1381.6427    416.95736    394.15445     775.5091    37426.586 
   47000    296.57713   -1408.4932    434.88642    364.82994    300.45425    37426.586 
   47100    311.16704   -1391.8481    420.61201    433.04413    892.30285    37426.586 
   47200    296.11044   -1374.5546    419.84256    381.61856    227.17018    37426.586 
   47300    306.37661   -1362.1565    413.56227    434.06701    208.83243    37426.586 
   47400    286.95169     -1330.94    426.84484    390.90247   -89.017241    37426.586 
   47500    297.91462   -1312.0853    418.18001    450.56745    36.886678    37426.586 
   47600    282.76019   -1306.9701    418.94792    388.05945   -15.281879    37426.586 
   47700    293.61358   -1313.4729    448.35359      459.943    218.51556    37426.586 
   47800    292.70817   -1335.9647    402.63898    387.65061    258.86898    37426.586 
   47900    305.56093    -1308.548    422.71551    493.14757    102.08483    37426.586 
   48000     302.3055   -1342.5083    419.61645     441.3967    393.86111    37426.586 
   48100    294.78221   -1354.2314    439.20316    415.30809    492.93258    37426.586 
   48200    297.50989   -1390.3961    435.45198    387.70202    597.95454    37426.586 
   48300    302.07656   -1327.8769    407.49914    442.87759    464.08562    37426.586 
   48400    311.52919   -1333.1997    397.72461    470.43942    211.32483    37426.586 
   48500    289.87618    -1319.094    440.02641    429.12814   -256.04755    37426.586 
   48600    300.98885   -1366.0728    407.93283    400.20664      418.276    37426.586 
   48700    297.99891   -1373.9506     412.0171    382.91962    364.89545    37426.586 
   48800    299.86781   -1367.5632    414.82344     400.5476    79.941217    37426.586 
   48900    292.27931   -1362.3045      415.142    371.87836   -176.66664    37426.586 
   49000    295.61009   -1363.7854    414.83952    385.12658    216.21615    37426.586 
   49100    306.63542   -1408.7656    426.97663    402.04029     319.4992    37426.586 
   49200    305.28298   -1383.0445    408.52492    403.20619    685.86104    37426.586 
   49300     294.3722   -1390.3046    434.99885    373.18021     594.4925    37426.586 
   49400    298.59126   -1335.1131    419.66819    432.08144    157.61905    37426.586 
   49500    299.79699   -1397.8932    410.53009    365.60462   -354.08326    37426.586 
   49600    294.68541   -1406.0168    446.55258    370.43525    770.41439    37426.586 
   49700    309.02307   -1344.6542    425.51093    475.46127    651.04032    37426.586 
   49800    289.40595    -1381.263    441.28838    366.09888    614.71454    37426.586 
   49900    295.36617   -1392.2707    435.70433    376.40534    166.65042    37426.586 
   50000    295.26908   -1348.2941    429.73187     413.9713   -374.62418    37426.586 
   50100    303.30739    -1371.824    436.71016    433.69617    27.566496    37426.586 
   50200    298.19858    -1368.588    421.79805    398.96426   -289.56886    37426.586 
   50300    299.67343   -1366.7553    431.11465    416.76952   -376.66177    37426.586 
   50400    303.17802   -1323.0207    422.22714    467.43256    116.00913    37426.586 
   50500    298.54752   -1371.1325      421.438    397.63445   -92.381376    37426.586 
   50600    291.04927   -1396.7215    446.55892    363.32716   -55.440866    37426.586 
   50700    303.15133   -1377.1619    435.84107     426.7849   -17.325927    37426.586 
   50800    299.25714   -1373.6921     420.4151    397.25443   -745.37812    37426.586 
   50900     296.4143   -1357.3318    418.25196    398.62201   -525.99657    37426.586 
   51000    300.11946   -1363.9852    430.18528    420.62315    414.71761    37426.586 
   51100    293.63065   -1342.6364    435.95357    418.45653   -304.60397    37426.586 
   51200    300.39984   -1310.2623    435.97299    481.39904    -192.5214    37426.586 
   51300    294.67086   -1363.0098    430.05587    396.87989   -519.51614    37426.586 
   51400    291.03974   -1374.0708    416.41218    355.78817     24.80928    37426.586 
   51500    297.05893   -1380.6549     423.6126    383.56874    549.77048    37426.586 
   51600     294.2404    -1406.767    416.96054    338.08475    370.30867    37426.586 
   51700    292.14161   -1349.8162    409.26483    377.86807    225.08514    37426.586 
   51800    297.95952   -1388.1634    432.92272    389.43464   -62.881637    37426.586 
   51900    294.09797   -1391.2245    411.96059    347.98443   -564.23335    37426.586 
   52000    294.58374   -1347.6902    408.79961    390.55001   -487.88924    37426.586 
   52100    306.69973   -1396.8143    406.65625    393.96139   -641.74305    37426.586 
   52200     297.3572   -1361.8707    414.73807    394.82445   -132.45261    37426.586 
   52300    300.74468   -1395.0631    402.97372    365.15526   -355.48449    37426.586 
   52400    294.28067   -1395.8119    426.24985    358.51089   -427.06668    37426.586 
   52500    296.36145   -1351.0153    410.47538    396.92347   -112.16143    37426.586 
   52600    300.30103    -1319.936    429.90407    465.21054   -108.80302    37426.586 
   52700    295.24136   -1356.5182    427.68864    403.57892   -173.52872    37426.586 
   52800     302.5546   -1438.6989    411.08433     337.7981    78.016711    37426.586 
   52900    308.65595   -1420.9832    434.26761    406.23214    34.307005    37426.586 
   53000    305.30702   -1435.9933    396.52051    338.36147    381.70825    37426.586 
   53100    298.66593   -1388.5999    438.04108    397.30457    154.88779    37426.586 
   53200    304.13665   -1358.6862    445.48356    459.34979    76.263296    37426.586 
   53300    303.69361   -1341.4096    414.79816    443.94151    435.85082    37426.586 
   53400    293.42959   -1347.2865    448.85993    425.80543    330.85905    37426.586 
   53500    313.98555   -1346.8113    440.12343    510.31209   -52.633842    37426.586 
   53600    301.21622   -1318.3357    438.43265     479.4696      436.702    37426.586 
   53700    301.36083   -1345.3902    467.19103    481.82611    356.46223    37426.586 
   53800    299.20855   -1351.9641    407.75952    406.10755   -380.63097    37426.586 
   53900    298.24675   -1347.5907    419.07392    417.45476   -417.46173    37426.586 
   54000    309.63067   -1337.3765    440.89215    500.86228   -214.45044    37426.586 
   54100     312.9139   -1327.9321    446.91646    531.14801   -404.75901    37426.586 
   54200    293.99294   -1327.4375    427.05374    426.39067   -300.74782    37426.586 
   54300    311.58605   -1312.1018    416.05696     510.1263   -646.85788    37426.586 
   54400    312.09016   -1339.4284    438.54979    507.56758   -564.46389    37426.586 
   54500    302.65517   -1320.0391    446.03658    491.86401   -132.88527    37426.586 
   54600    308.09723   -1298.8634    429.01225    520.57516    27.145956    37426.586 
   54700    302.15622   -1351.2297    423.34676    435.73191   -355.14754    37426.586 
   54800    298.15235   -1305.2615    441.07952    481.36359   -36.222774    37426.586 
   54900    287.48156   -1412.1701    459.84203    345.06076   -253.58793    37426.586 
   55000    292.19304     -1365.87    424.35178    377.13332   -135.65128    37426.586 
   55100    305.10345   -1374.6614    444.90263    447.15673   -585.76169    37426.586 
   55200    297.85366   -1340.9987    450.40361     453.6025     231.3511    37426.586 
   55300    292.04045   -1373.9296    438.58728    382.62052    426.93895    37426.586 
   55400    298.83628   -1371.3383    456.71879    434.01264    446.19211    37426.586 
   55500    291.60552    -1369.825    459.48923    405.66429    2.8161084    37426.586 
   55600     308.3155   -1393.0701    423.81806    422.15926   -38.290125    37426.586 
   55700    333.56052    -1370.372    413.38288    548.35161     122.8844    37426.586 
   55800     312.8171   -1456.2734     448.6778    404.13118   -631.36344    37426.586 
   55900    298.44761   -1427.0646    447.66312    367.47656   -542.09358    37426.586 
   56000     297.8896   -1429.3403    424.67473    339.69429   -682.38273    37426.586 
   56100    299.00402   -1398.7893    423.96939    374.56928   -872.61103    37426.586 
   56200    308.06335   -1392.5607    430.72435    428.43704   -899.16088    37426.586 
   56300    299.56748   -1389.3279    438.13599    400.74003   -185.10518    37426.586 
   56400    304.96425   -1387.1687    436.38816    425.50682   -222.10823    37426.586 
   56500     294.0069   -1380.2911    421.78708    368.33343   -394.80875    37426.586 
   56600    304.04787   -1391.2536    414.90113    395.79923   -48.140306    37426.586 
   56700    298.13015   -1437.9285    419.16907    326.68592   -159.29408    37426.586 
   56800    294.15545    -1435.157    430.38712    322.73787    278.82554    37426.586 
   56900    311.65932    -1422.987    426.67097    410.18584   -68.270167    37426.586 
   57000     300.1521    -1381.811    472.23537    444.99475    110.27898    37426.586 
   57100    296.84329   -1418.4617    428.70271    349.87882    169.27834    37426.586 
   57200    299.16658    -1443.136    394.46274    301.44943    469.73388    37426.586 
   57300    288.99575   -1419.0748    436.04188    321.18944    648.91208    37426.586 
   57400     289.6845   -1418.6531    425.86597    314.54347   -149.22054    37426.586 
   57500    290.76385   -1425.1332    434.01653    321.08506   -455.75552    37426.586 
   57600    307.31608   -1453.2645    431.58242    365.21896   -538.99075    37426.586 
   57700    297.20285   -1420.5066    414.77745    335.53137    -120.8988    37426.586 
   57800    291.48454   -1388.0563    412.90099    340.29878   -16.744857    37426.586 
   57900    308.80725   -1395.1258    442.42865    440.93344    203.83416    37426.586 
   58000    290.26455   -1425.6668    423.39594    307.67754   -15.855858    37426.586 
   58100    303.27122   -1398.9843    414.11823    383.78067   -127.91551    37426.586 
   58200    308.15231   -1366.7984     427.9062    451.78267   -231.63117    37426.586 
   58300     294.1235   -1425.7223    443.75605    345.39736    118.05196    37426.586 
   58400    306.15637   -1381.7471     448.2308    448.15097    72.645771    37426.586 
   58500    306.66137   -1405.6494    456.47006    434.76702     623.3745    37426.586 
   58600    301.57064    -1406.935    407.67544    361.71259    -157.3554    37426.586 
   58700    291.70522   -1399.7094     395.9347    312.67537   -492.80113    37426.586 
   58800    299.09042   -1417.6486    432.67087    364.80127    120.83478    37426.586 
   58900    304.73498   -1424.0731     400.9353    352.11485   -386.59335    37426.586 
   59000    299.55493    -1451.148    393.65383    294.38112   -497.84374    37426.586 
   59100    296.94349   -1424.1042     425.5349    341.52077   -230.78339    37426.586 
   59200    297.16355    -1412.865    412.45359    340.67174    169.83137    37426.586 
   59300    299.22721   -1405.9892    440.31704    384.72421    926.85933    37426.586 
   59400    302.08253   -1442.2367      425.676    346.72161    633.13142    37426.586 
   59500    307.93442   -1420.5055    441.70238    410.88844    637.86766    37426.586 
   59600    309.51715   -1386.6874    452.33209    462.47901    514.83122    37426.586 
   59700    301.09557   -1425.0578    425.12552    358.89586    449.34639    37426.586 
   59800    293.16828   -1445.0558    400.22406    278.22096    275.75869    37426.586 
   59900    295.09738   -1439.7229     442.8269    334.86262    377.78245    37426.586 
   60000    310.67725   -1409.4889     411.1209    403.70177    695.80071    37426.586 
   60100    307.15543   -1391.5747    429.37729    423.97855   -156.37881    37426.586 
   60200    300.75995   -1388.9577    435.32519     403.6811   -264.05279    37426.586 
   60300    304.51634   -1396.6266    429.19183    406.83121   -147.37935    37426.586 
   60400    297.33878   -1397.1713    438.13583    382.83856   -826.46102    37426.586 
   60500    317.73826   -1367.5637    478.02666    544.39873   -63.991081    37426.586 
   60600     301.3208   -1371.2055     445.2391    433.87816   -213.48254    37426.586 
   60700    299.18561   -1409.0055    436.47967    377.68276    232.85171    37426.586 
   60800    295.11414   -1409.0751    434.72471    357.48388   -212.27125    37426.586 
   60900    300.55707   -1399.7435    445.04741    401.70188    -252.8613    37426.586 
   61000     304.2579   -1379.7917    421.26223    414.57012    66.611356    37426.586 
   61100    306.45124   -1410.4811    419.50974    392.02666    18.462811    37426.586 
   61200    301.24295   -1425.2757    453.92988    388.14747    482.26173    37426.586 
   61300    305.34805   -1448.2483    459.64754    389.41859     452.7221    37426.586 
   61400    296.95272   -1423.1302    467.21579    384.21733    333.13492    37426.586 
   61500    300.83962   -1409.7277    444.40574    392.35119    582.93307    37426.586 
   61600    293.47919     -1423.73     411.8176    312.54352    98.137387    37426.586 
   61700    299.93213   -1437.4838    445.23062    361.32441    151.40466    37426.586 
   61800    296.81187   -1445.5423    451.67333    345.62712    30.169375    37426.586 
   61900    295.07843   -1403.8382    449.93232     377.7673   -108.55151    37426.586 
   62000    298.62704   -1379.5302    449.66069    417.81831   -42.235422    37426.586 
   62100    303.44558   -1399.2468    465.50642    435.69326    46.213177    37426.586 
   62200    305.44896   -1383.0007    427.46545    422.93956   -189.22272    37426.586 
   62300    314.53056   -1406.1907    427.95626    441.22514    -380.4128    37426.586 
   62400    300.60534   -1324.9464    443.60217    475.27156   -345.83227    37426.586 
   62500    299.26124   -1392.5919    437.95505    395.91309   -510.52119    37426.586 
   62600    302.26202   -1404.7684    471.57512    430.89902    267.36665    37426.586 
   62700    306.14875   -1366.7507    466.83001    481.71226    327.19154    37426.586 
   62800    307.21197   -1369.1048    463.04461    480.37098    13.807083    37426.586 
   62900     301.4767    -1350.655    440.13859    450.03178    213.30421    37426.586 
   63000    293.89716   -1395.8299    431.81022    362.32239   -243.95596    37426.586 
   63100    310.53569   -1401.5119    472.61045    472.52948    551.48478    37426.586 
   63200    302.45184   -1393.6939    479.68173    450.93678    241.34521    37426.586 
   63300    297.05226   -1402.9676    440.75825    378.37163   -120.87071    37426.586 
   63400    291.90577   -1389.7141    440.99325    368.63424   -217.48602    37426.586 
   63500    301.64167   -1370.4226    483.99533    474.86536   -286.87237    37426.586 
   63600    301.02035   -1396.7585    441.40417    403.13445   -10.828727    37426.586 
   63700    294.42303   -1448.8481    446.70465    326.57198   -118.85718    37426.586 
   63800     298.0564    -1434.577    460.48565    371.02118    80.004616    37426.586 
   63900    292.63925   -1420.8426    460.01956     359.8422    147.28363    37426.586 
   64000    295.96066   -1397.6304    436.43258    374.45683   -477.03112    37426.586 
   64100    300.68407   -1423.6019    443.91927    377.28848   -445.96991    37426.586 
   64200    291.84229   -1406.2945      445.409    356.18315   -285.95775    37426.586 
   64300    294.67092   -1395.4837    434.99489     369.3453   -404.73028    37426.586 
   64400    306.75866   -1450.5728    444.42932    378.24196   -77.901598    37426.586 
   64500    297.39861   -1413.7125    443.04108    371.47262    168.12282    37426.586 
   64600    293.70896   -1393.9886    467.33572    398.83986    167.00651    37426.586 
   64700    308.44527   -1358.3736    452.53774    486.16114    104.13205    37426.586 
   64800    300.64339   -1359.9263    449.90535    446.76659   -619.72413    37426.586 
   64900    300.42123   -1361.8484    463.45234    457.38879   -249.83023    37426.586 
   65000    292.84386   -1411.4179    458.13357    368.30433   -289.73656    37426.586 
   65100    289.66687   -1370.9715    475.00235    411.28186   -290.38467    37426.586 
   65200     297.2911   -1346.4025      490.998    486.25435   -139.72619    37426.586 
   65300    290.33026   -1382.8028    438.68761    366.12972    307.45054    37426.586 
   65400    297.34579   -1382.4289    444.07129    403.54798     178.4949    37426.586 
   65500    298.95044   -1392.9505    444.15364    400.35042    122.81811    37426.586 
   65600    301.51865   -1391.2843    416.60624    386.05949   -42.708113    37426.586 
   65700    295.55996   -1402.4477    441.87309    373.27164    121.39197    37426.586 
   65800    305.75661   -1407.1197    448.87646    421.61997   -201.69957    37426.586 
   65900     298.1272   -1406.9131    462.76453    401.28349    289.55226    37426.586 
   66000    303.46525   -1401.7767    475.35086    443.09655     116.1587    37426.586 
   66100    290.59442   -1432.6536    432.27053    311.05394     -34.4265    37426.586 
   66200    299.85912   -1426.4655    434.57448    361.35716   -258.10506    37426.586 
   66300    287.08825   -1448.6468    419.88627    266.85338   -4.9576492    37426.586 
   66400    288.90569   -1433.0477    444.26716    315.03534    292.55565    37426.586 
   66500    297.75048   -1442.2714    463.45086    364.91139    421.97293    37426.586 
   66600    300.95428   -1427.1396    436.78502    367.83595    260.39674    37426.586 
   66700    310.22498   -1440.1202    464.40462    424.31315    54.152539    37426.586 
   66800     290.5116   -1391.2348    440.46979     360.2983    80.143504    37426.586 
   66900     306.3254   -1440.0543    445.68271    388.05849   -131.53654    37426.586 
   67000    291.75592   -1453.7835    459.68145    322.57675   -63.535272    37426.586 
   67100     289.9085   -1405.6307    446.88543    349.59626   -233.65161    37426.586 
   67200    303.53795   -1421.5267    455.41025    403.73401   -43.279621    37426.586 
   67300     285.5925   -1390.3303    463.09357     361.6269   -121.04603    37426.586 
   67400    302.72414   -1390.2664     461.8592    437.77065    224.08828    37426.586 
   67500    311.79467   -1387.1538    464.98505    484.94394   -293.19817    37426.586 
   67600    283.53658   -1413.4767    464.21823    330.32697    9.1941925    37426.586 
   67700    301.19954   -1392.6939    449.11483     415.7183    63.735186    37426.586 
   67800    297.23855   -1395.8868    466.46455    411.99936    238.94144    37426.586 
   67900     300.2059   -1399.2005    468.95539    424.56808     335.9054    37426.586 
   68000    306.09637   -1420.5419    451.49597    412.35055     458.4362    37426.586 
   68100    296.65399   -1421.3231    464.42549    381.88596    464.01095    37426.586 
   68200    299.09063    -1402.321    439.69114    387.15013    486.35733    37426.586 
   68300    296.46559   -1431.4035    472.83353    379.36341      266.801    37426.586 
   68400    300.76795   -1422.6144    442.84635    377.58163     348.0725    37426.586 
   68500    291.87227    -1433.825    442.14548    325.52443   -170.21208    37426.586 
   68600    290.83663   -1450.7189    465.05246    326.86364   -428.66424    37426.586 
   68700    301.30463   -1409.4738    437.56113    387.85903   -308.07315    37426.586 
   68800     305.9422   -1410.8926    460.17536    429.98356    202.42368    37426.586 
   68900    305.75421   -1388.0198    464.71175    456.54436    187.53968    37426.586 
   69000    304.85224   -1408.5158    480.42535    447.69141    336.76739    37426.586 
   69100    303.74283   -1442.3372    449.69576    378.13365     599.0707    37426.586 
   69200    293.96593   -1468.6236    423.69651    281.72543    187.06632    37426.586 
   69300    306.13954   -1460.7041    465.59421    386.48147    297.53662    37426.586 
   69400    293.15403   -1440.1633    451.77069    334.59577    251.58006    37426.586 
   69500    293.38581   -1379.7536    468.22612    412.50699    439.34801    37426.586 
   69600    298.90555   -1406.5288    445.86144     388.2774    208.89662    37426.586 
   69700     312.6327     -1450.07    432.83933    393.66396    28.044711    37426.586 
   69800    307.48922   -1382.2184    462.74472     468.2087    23.426443    37426.586 
   69900    306.87794   -1402.5548    457.62405    439.99294    61.599462    37426.586 
   70000    306.47553   -1381.1596    463.16164    465.10964   -20.702202    37426.586 
   70100    294.05124   -1389.5113    460.35037    397.87657    114.19732    37426.586 
   70200    294.84133   -1344.0092    454.38749    440.98143    365.42216    37426.586 
   70300    306.67674   -1391.0599    456.30703    449.26278   -374.13734    37426.586 
   70400    308.96854   -1412.3247    450.13154     432.1653   -208.71967    37426.586 
   70500     300.7927   -1506.5034    437.15301    288.11091   -255.72553    37426.586 
   70600    291.92303   -1443.6441    446.00208    319.79097    178.46793    37426.586 
   70700    301.03162   -1340.9492     467.8687    485.45905    -304.5922    37426.586 
   70800    296.12082   -1349.3748      473.737    460.73955   -243.72592    37426.586 
   70900    303.59302   -1387.7593    452.67907    435.01881   -9.0307815    37426.586 
   71000    308.28426    -1398.283    463.89175    456.87913    349.32966    37426.586 
   71100    296.66988   -1357.9452    472.93538     453.8455    31.819609    37426.586 
   71200     294.7318   -1398.4868    448.35888    379.98095    53.535599    37426.586 
   71300     300.6391   -1367.6101    474.08505    463.24313   -408.14999    37426.586 
   71400    304.18009   -1353.9416     452.9294    471.73623   -539.10554    37426.586 
   71500    303.29311   -1365.3596    445.69644    449.08241   -588.35251    37426.586 
   71600     304.4722   -1356.2748    470.95849    488.75045   -58.366798    37426.586 
   71700    294.38484   -1347.5566    477.26613    458.25259   -124.74097    37426.586 
   71800    292.14208   -1360.8743    456.66096     414.2082   -472.15266    37426.586 
   71900    307.36987   -1404.6813    452.82281    435.28532   -46.103451    37426.586 
   72000     294.4234   -1352.5913    446.89428    423.02005   -466.07183    37426.586 
   72100    301.99348   -1357.0972    469.80565    475.58882   -237.39812    37426.586 
   72200      301.529   -1372.4767    472.00406     460.3116   -537.83238    37426.586 
   72300    298.48645    -1357.197    452.02933    441.88564     -57.4124    37426.586 
   72400    307.29559   -1345.7312     452.5164    493.59376    437.13661    37426.586 
   72500     292.9259   -1359.9461     457.7875     419.8003    279.73538    37426.586 
   72600    311.66931   -1401.2209     453.7511    459.07706    473.41832    37426.586 
   72700    307.10659   -1435.4709     434.2397    384.72437    519.98105    37426.586 
   72800    303.55559   -1396.0114    442.60505    416.52373    819.97446    37426.586 
   72900    297.96204   -1398.3009    453.30014    399.68601    247.16045    37426.586 
   73000    296.17394   -1429.4704    433.62098    340.76774    574.87395    37426.586 
   73100    292.54439   -1414.5243    436.15381    341.86672    541.14284    37426.586 
   73200    307.85996   -1423.1308    438.55325    404.77799    420.78143    37426.586 
   73300    297.67453   -1414.0425    448.43564    377.78233   -195.45478    37426.586 
   73400    296.03117   -1443.7771    466.24376    358.43952   -265.56013    37426.586 
   73500    304.07572   -1435.9709    435.87313    372.17968    -833.1084    37426.586 
   73600    303.20558   -1426.4773    437.63159     379.5048   -347.54095    37426.586 
   73700    296.21375   -1443.2669    438.34715    331.87703   -373.31235    37426.586 
   73800    310.77986   -1429.3471    457.75364    430.93937   -284.71458    37426.586 
   73900    292.92896   -1431.1383     464.5988    355.43317   -154.11136    37426.586 
   74000    307.23246   -1443.2265    439.01392    382.31102    157.60862    37426.586 
   74100    301.24575   -1415.1853     421.3687    365.68929    47.862524    37426.586 
   74200    312.09199   -1465.9921    444.60721    387.06955     -357.337    37426.586 
   74300    293.50437   -1488.3577    429.31519    265.52703   -573.19089    37426.586 
   74400    299.90982   -1433.8517    451.04543    370.67062    327.20037    37426.586 
   74500     309.0011   -1454.9043    463.41162    403.01269    217.63932    37426.586 
   74600    289.71489   -1420.8555    458.54656    345.15879    553.24533    37426.586 
   74700    290.59301    -1448.146    466.75124     330.0359    420.85046    37426.586 
   74800    296.31252   -1428.8554    452.00577    360.39288    932.80535    37426.586 
   74900    308.06267   -1479.6212     436.0106     346.6597    779.54939    37426.586 
   75000    299.31312   -1447.3324     458.2838    361.73551    747.24157    37426.586 
   75100    297.19997   -1453.0913    445.60122    333.75744    412.14593    37426.586 
   75200    297.01839   -1426.3212    451.40579    365.51263    348.74049    37426.586 
   75300    298.14309   -1384.0733    480.33986    441.77035    180.19039    37426.586 
   75400    307.27019   -1405.1595    467.94408    449.47849    30.365097    37426.586 
   75500    303.71065   -1427.1344    453.97598    397.47144   -39.808437    37426.586 
   75600    290.32635   -1434.7993    484.83519    360.26313   -45.182974    37426.586 
   75700    293.38689   -1392.4273    455.85053    387.46248    262.42292    37426.586 
   75800     309.0668   -1416.5873    458.12342      436.338    159.21288    37426.586 
   75900    310.08217   -1403.4744    457.53968    453.44954    421.60751    37426.586 
   76000    301.91881   -1420.2913     479.4879    421.74002   -1.2168062    37426.586 
   76100    296.34169   -1434.7643    458.06087    360.67077   -95.328306    37426.586 
   76200    306.38194   -1415.6564    452.94448     419.9734   -554.94299    37426.586 
   76300    297.03036   -1415.9168    449.13434    373.69965   -53.013926    37426.586 
   76400    299.92049   -1428.8098    451.73561    376.45089   -344.28208    37426.586 
   76500    303.67731   -1432.8972     433.6573    371.23949    84.052968    37426.586 
   76600    307.79882   -1426.6472    435.19558    397.62796    -626.0359    37426.586 
   76700    300.61539   -1415.6133    454.38918      395.437    537.48301    37426.586 
   76800    302.99207   -1421.6332     445.2764    391.03019    668.63317    37426.586 
   76900    298.61661   -1410.9886    453.54113    390.19331    19.654272    37426.586 
   77000     307.2182   -1409.0155    427.60752    405.05135    569.83056    37426.586 
   77100    309.90919   -1430.1311    445.82951    414.30203    280.44799    37426.586 
   77200    298.90416    -1431.957    458.25674    375.23817    215.36813    37426.586 
   77300    304.37355   -1400.2343    472.36423    445.75145    792.53909    37426.586 
   77400    304.35903     -1400.77    456.19098    428.97696     970.0309    37426.586 
   77500    302.73182   -1449.1957    448.74072    365.75755    591.81982    37426.586 
   77600     310.0833   -1453.3889    435.39273    381.39316    225.95893    37426.586 
   77700    294.87329   -1444.2572    449.71435    336.20444    125.64962    37426.586 
   77800    302.34087    -1452.996    460.26483    371.71696   -445.38337    37426.586 
   77900    285.04867   -1442.6761    454.05803    297.79125   -143.11804    37426.586 
   78000    299.58873   -1439.0754    468.50112    381.45358    -180.7076    37426.586 
   78100    296.31012   -1447.2592     453.7752    343.74763   -179.28096    37426.586 
   78200    293.78396   -1420.3473    434.07448    339.55851    70.824513    37426.586 
   78300    295.97997   -1427.0378    471.16205    379.86602    360.03083    37426.586 
   78400    303.70864    -1428.851    444.00759    385.77742   -112.81436    37426.586 
   78500    313.12283   -1428.5892    461.15954    445.67691    109.36194    37426.586 
   78600    297.73764   -1420.0328     465.3254    388.96662    81.983878    37426.586 
   78700    310.63999   -1424.9922    450.76516    427.67462    69.556996    37426.586 
   78800    291.17593   -1427.2445    453.01879    339.83566    289.80552    37426.586 
   78900    300.57881   -1472.0426    462.85776    347.31126   -22.078879    37426.586 
   79000    299.75884   -1457.9248    477.83758    372.70829    494.16728    37426.586 
   79100    295.10395   -1433.3758    444.80298    343.21544    530.58879    37426.586 
   79200     297.4514   -1462.4734    480.78625    360.69513    151.92633    37426.586 
   79300    309.32859   -1430.7944    463.53511    428.72411    473.02943    37426.586 
   79400    292.54034   -1441.9513     462.2073    340.47495    548.82941    37426.586 
   79500    296.90229   -1423.8802    477.89327    393.91727    364.62201    37426.586 
   79600    292.38403   -1435.2713     448.0717    332.31387   -172.71211    37426.586 
   79700     297.1575   -1411.2743    483.48524    413.26686   -81.314131    37426.586 
   79800    295.43833   -1411.5962    458.30342    380.00461   -145.83782    37426.586 
   79900    319.35205   -1428.9133    467.46317    479.76854   -52.949628    37426.586 
   80000    306.02814   -1439.3957    467.67618    409.36911    127.81013    37426.586 
   80100    293.13268   -1454.2973    470.65594    339.25073    191.78318    37426.586 
   80200    294.37754   -1438.6956    471.00711    360.82158   -97.015373    37426.586 
   80300    293.19086   -1441.2235    467.83951    349.77065   -106.14546    37426.586 
   80400    295.05878   -1435.4085    484.26449    380.44042    52.131391    37426.586 
   80500    296.58475    -1423.699    481.79074    396.56279   -224.78837    37426.586 
   80600    305.93828   -1416.1477    469.79201    434.32734    612.96741    37426.586 
   80700    297.75004   -1423.8629    474.20839     394.0755    330.97319    37426.586 
   80800    289.29588   -1457.1153    458.92658    307.38806    77.319596    37426.586 
   80900    309.95561    -1450.817    463.54416    411.54023    648.88761    37426.586 
   81000    314.98155   -1450.6599    474.72972    445.56467    134.81741    37426.586 
   81100    298.75044   -1414.0016    461.78007    396.02324    171.94861    37426.586 
   81200    299.48025   -1422.0243    471.32901    400.84303   -46.726207    37426.586 
   81300    302.22882   -1463.5014    465.80718    366.24823    323.40247    37426.586 
   81400    294.89566   -1453.0247    446.48565    324.30923    334.97461    37426.586 
   81500    306.46127   -1422.2369    441.21884    402.02522    269.73926    37426.586 
   81600    296.27779   -1476.1209    445.79128    306.75614    83.185701    37426.586 
   81700    292.42409   -1431.4995    472.25952    360.45429    305.54997    37426.586 
   81800     301.7072   -1462.1082    478.08238    377.56258    343.55144    37426.586 
   81900    296.44151   -1405.4129    470.63149    403.04324   -58.790368    37426.586 
   82000    300.01902    -1442.623    469.75464    381.10141    343.50737    37426.586 
   82100     292.7211   -1432.4863    467.65709     356.2054    -189.8525    37426.586 
   82200    302.42265   -1390.2919    480.28719    454.81251   -173.42377    37426.586 
   82300    304.81353   -1403.1696    474.66508    447.10266   -317.61383    37426.586 
   82400    304.68764   -1408.8924    494.43678    460.58337   -1015.6816    37426.586 
   82500    302.84199   -1471.0382    434.48282    330.15427    -513.1413    37426.586 
   82600     297.0947   -1422.5753    458.43391    376.63111   -245.19614    37426.586 
   82700    305.28964   -1452.2208    458.88298      384.418    -616.8891    37426.586 
   82800    287.29522   -1418.0621    486.64961    365.13545     -474.399    37426.586 
   82900    300.24995    -1453.713     473.5631    374.86204    -557.3373    37426.586 
   83000    295.00871   -1429.5677    450.87775    352.66856   -37.485462    37426.586 
   83100    288.24218   -1418.5944    464.78915    347.01622   -48.896961    37426.586 
   83200     298.8446   -1411.8791    456.71261    393.50317   -46.993368    37426.586 
   83300    289.11192   -1421.7544    464.50577    347.49797   -496.54906    37426.586 
   83400    300.28051   -1408.0362    457.71183    404.82545    110.05431    37426.586 
   83500    302.03781   -1408.4016    484.43503    439.11384   -42.615302    37426.586 
   83600    297.19748   -1443.8184     481.9355    379.35344    153.10958    37426.586 
   83700    296.25935    -1441.501    470.33401    365.83557    271.51892    37426.586 
   83800    312.43884    -1409.613    458.48786    458.89465   -45.365508    37426.586 
   83900    296.55538   -1444.2136    445.74057    339.86545   -351.10713    37426.586 
   84000     287.7453   -1441.7669    459.29406    316.10625   -657.20052    37426.586 
   84100    297.31148   -1417.8971    480.94273    404.79642   -427.07394    37426.586 
   84200    288.55882   -1454.5952    464.60853    312.26386   -736.26753    37426.586 
   84300     290.7109   -1455.6491    465.35071    321.66428   -327.17904    37426.586 
   84400    297.28233   -1462.8353    461.48383     340.2678   -370.06613    37426.586 
   84500    308.06334   -1487.8627    453.63066    356.04136    188.70893    37426.586 
   84600    305.44333    -1466.524    465.31736     377.2427    122.93139    37426.586 
   84700    308.59799   -1476.6511    437.06481    353.09991    -88.66959    37426.586 
   84800    288.98999   -1464.7564     459.0812    298.52112   -233.14235    37426.586 
   84900    303.98865   -1458.9557    479.89548    392.82428    62.229068    37426.586 
   85000    309.11001   -1445.8101    469.13458    418.32141   -77.413629    37426.586 
   85100    298.90555   -1460.1716    469.66316    358.43628   -222.01583    37426.586 
   85200    296.64029   -1486.2635     467.5501    320.00839    477.69251    37426.586 
   85300     296.3082    -1462.583    445.34777     319.9878   -237.87213    37426.586 
   85400     293.5559   -1483.9391    446.35131    287.21432   -332.63719    37426.586 
   85500    305.22208   -1508.9052    464.94165     333.4873   -413.52059    37426.586 
   85600    313.74228    -1490.279    460.80125    386.42432    26.826528    37426.586 
   85700    302.86834   -1492.0065    462.13071     336.9528   -51.778046    37426.586 
   85800    292.21697   -1479.2074    472.38097    311.93312   -645.57932    37426.586 
   85900    298.08665   -1459.7251     456.2314    341.75542   -261.20302    37426.586 
   86000    295.73471    -1458.613    457.92745    333.94933   -13.491782    37426.586 
   86100     300.4927   -1455.7029    457.41523    357.81982    259.31156    37426.586 
   86200    301.96666   -1450.4727    472.52709    384.81374    925.20572    37426.586 
   86300     296.0487   -1475.8491    472.17846    332.38126    653.18882    37426.586 
   86400    296.05699   -1454.3891     469.8344    351.53458    927.62258    37426.586 
   86500    301.15827   -1435.0177    459.49061    383.58407    63.554885    37426.586 
   86600    308.02031   -1452.8293    456.10711    393.35696    154.00612    37426.586 
   86700    305.71736   -1423.6266    452.48767    408.54714    198.47595    37426.586 
   86800    293.49953   -1466.8962    458.43182     316.0833   -71.427453    37426.586 
   86900    307.07459   -1490.4433    453.43391    348.80174     -235.929    37426.586 
   87000    297.40893    -1477.963     466.5001     330.7277    74.244506    37426.586 
   87100    298.02889   -1454.9448    474.11279    364.15643   -117.95086    37426.586 
   87200     311.0027   -1465.9066    479.71321    417.34513   -147.74764    37426.586 
   87300     296.9384   -1411.8007    478.40609    406.67252   -501.16587    37426.586 
   87400    303.20007   -1414.5783    476.46861    430.21598    29.515895    37426.586 
   87500     302.5582   -1389.5268    476.26763    452.16975    691.41222    37426.586 
   87600    308.33749   -1413.9853    491.85166    469.37696    558.48277    37426.586 
   87700    303.10193   -1456.9904    463.34096    374.23332    143.77966    37426.586 
   87800    301.31254   -1414.5507    457.29482    402.55152   -319.54591    37426.586 
   87900    296.34916   -1452.0761    472.66253    357.99427   -173.60382    37426.586 
   88000    289.02461   -1463.0969    469.95997    311.21563   -648.88198    37426.586 
   88100    294.10556   -1440.4522    486.73193    373.56234    63.808769    37426.586 
   88200    300.67685    -1458.469    492.49541    390.96494   -320.63387    37426.586 
   88300    292.97965   -1453.8579    456.64017     324.9837   -43.290433    37426.586 
   88400    297.93861    -1436.772    472.29266    380.10164   -218.93353    37426.586 
   88500     291.2334   -1447.3531    478.11012    345.07778    147.32664    37426.586 
   88600    289.54514   -1474.4675     472.6541    304.88835    259.15685    37426.586 
   88700    306.84222   -1494.0363     469.9689    360.69506    180.92037    37426.586 
   88800    299.75792   -1476.4016    449.69112    326.08091    336.42004    37426.586 
   88900    292.91604   -1476.0944    462.89632    308.71629    395.07132    37426.586 
   89000    307.01742   -1451.5714    451.22187    385.20367    241.27081    37426.586 
   89100    307.60859   -1468.4767    435.19894    354.94329    341.42213    37426.586 
   89200    298.45477   -1419.3924    460.61012    388.12813   -232.83435    37426.586 
   89300    287.12248   -1448.0039     451.6523    299.41682    411.95125    37426.586 
   89400    314.24158   -1441.0768    458.64027     435.7189    169.20261    37426.586 
   89500    296.27887   -1417.4708    456.37396    375.99381    383.55298    37426.586 
   89600    300.75989   -1402.5948     471.6198    426.33828    369.89275    37426.586 
   89700    299.94511   -1419.9755    465.62668    399.28734    592.38627    37426.586 
   89800     304.6692   -1396.7748    479.62626    457.80728    494.54302    37426.586 
   89900    295.87445   -1433.5892    486.09794    387.77433    539.98891    37426.586 
   90000    302.16798    -1410.976    457.18895    409.88086     165.2568    37426.586 
   90100    308.06919   -1418.3736    494.83164    466.75776    638.69278    37426.586 
   90200    305.51729   -1391.7108    477.57224    464.64458    243.09484    37426.586 
   90300    302.45874   -1429.9154    458.71433    393.77903      185.104    37426.586 
   90400    306.27903   -1420.1137    468.86246    430.96958    -542.7882    37426.586 
   90500    301.50121   -1415.4197    449.04219    394.28127   -114.38635    37426.586 
   90600    308.57285   -1440.8576    455.32441    407.03954     190.3558    37426.586 
   90700    297.22323   -1432.0267    466.75263    376.07843    104.85874    37426.586 
   90800    304.65821   -1390.4271     473.3906    457.86968     1004.022    37426.586 
   90900    307.03982   -1401.6477    500.64754    484.65412    619.82928    37426.586 
   91000    287.91852   -1413.8939    491.52194    376.98885   -160.44296    37426.586 
   91100     302.2137   -1419.8721    451.53494    395.53704    10.778978    37426.586 
   91200    300.44042   -1406.7287     486.2271    435.36993    239.69829    37426.586 
   91300    297.06926     -1433.86    466.11696    372.91459   -39.587201    37426.586 
   91400    295.77901   -1423.8199     474.4892    385.50416    298.86815    37426.586 
   91500    310.57178   -1428.3017    478.85675    452.14881   -308.67287    37426.586 
   91600    295.44238   -1467.6465    451.84947    317.51861   -785.72685    37426.586 
   91700    290.99538   -1432.2341    453.95539    334.96784   -144.21647    37426.586 
   91800    291.86333   -1442.0732    477.47501    352.56536   -402.19716    37426.586 
   91900    303.37619   -1450.4215    476.12324    394.82225    245.18261    37426.586 
   92000    296.30174   -1418.9262    499.94043    418.20814   -85.049155    37426.586 
   92100    295.18229   -1400.6674    465.85952    397.33398    564.32527    37426.586 
   92200    296.72438   -1418.2456     458.7658    379.62137    618.47143    37426.586 
   92300    307.44038    -1469.674    479.16562    396.95358    426.71833    37426.586 
   92400     302.1976   -1446.3803    448.18461     365.6059    220.71591    37426.586 
   92500     309.6031   -1477.2397     460.5327    380.51522   -185.86945    37426.586 
   92600     288.4028   -1458.0525    472.96486    316.45873    452.01204    37426.586 
   92700    307.35351   -1463.3054    459.91901    383.68349    249.45307    37426.586 
   92800    305.88248   -1480.5287    466.08435    365.98692   -528.73748    37426.586 
   92900    303.92343   -1512.3013    460.07624    319.36507   -702.48443    37426.586 
   93000    306.90609   -1489.4273    480.60431    376.22775    94.595844    37426.586 
   93100    299.10383   -1514.7759    458.88002    293.94371      -181.74    37426.586 
   93200    310.77581   -1466.8829    485.20938    420.84104     -415.906    37426.586 
   93300    292.75509   -1434.8704    452.18944    338.50705   -398.00081    37426.586 
   93400    303.51743   -1456.8019    457.17253    370.12849   -683.63292    37426.586 
   93500    310.44457   -1438.2436     471.2213    433.99739   -500.87647    37426.586 
   93600    298.80582   -1454.2572    448.68015    342.91764   -1022.0842    37426.586 
   93700    290.54413   -1482.5739    484.52934    313.16555   -1303.4219    37426.586 
   93800    301.93293   -1478.6405    465.83224    349.79884   -329.11593    37426.586 
   93900    304.67657   -1465.1111    482.61425    392.49217   -266.85623    37426.586 
   94000    306.77708   -1474.2736    444.49915    354.69407   -6.9446158    37426.586 
   94100    297.01869   -1456.2198    477.29106    361.50068   -23.508234    37426.586 
   94200    304.77704   -1453.9557    458.68418    380.17091   -37.007844    37426.586 
   94300    318.33697   -1479.4242    468.66713    425.88063   -355.01492    37426.586 
   94400    296.31744   -1483.7703    487.32257    340.81705   -118.69153    37426.586 
   94500    309.82744    -1493.044    470.41509    375.60576   -206.06541    37426.586 
   94600    299.37596   -1421.9885    483.82926     412.9084   -213.36402    37426.586 
   94700    306.78055   -1478.6509    467.51008    373.34336   -63.579639    37426.586 
   94800     297.9043   -1484.3357    469.19571    329.28615   -230.29314    37426.586 
   94900    303.56604   -1448.5336    458.34496     379.7887   -375.81238    37426.586 
   95000    296.88025   -1422.2644    475.53188    393.07213    -786.5335    37426.586 
   95100    308.53945   -1450.4681    477.42654    419.38044   -587.18157    37426.586 
   95200    288.37179   -1442.7879    505.05158    363.67015   -602.28144    37426.586 
   95300    305.33162   -1428.3113    495.88752    445.52141   -123.27826    37426.586 
   95400    305.89397   -1418.2426     483.4607    445.70122    43.862305    37426.586 
   95500    298.65119   -1475.5694    474.81123    347.03868     70.36849    37426.586 
   95600    303.27913   -1492.4801    496.58865    372.79097   -73.575964    37426.586 
   95700    294.29742   -1451.3445     471.1574    347.96142   -732.75907    37426.586 
   95800     293.3331   -1401.8937    482.99257    404.89541   -621.93371    37426.586 
   95900    296.88921   -1413.8162    488.83987    414.86874   -314.14113    37426.586 
   96000    299.56704   -1424.5849    475.09777    402.44289    29.812972    37426.586 
   96100     305.9309   -1450.9406    486.69052    416.39968    321.85049    37426.586 
   96200    299.48005   -1468.4437    474.68714    357.78087   -192.85449    37426.586 
   96300    294.49766   -1493.2336    466.60572    302.42427    158.98114    37426.586 
   96400    306.13629   -1482.9929    460.25211    358.83585   -32.904479    37426.586 
   96500    307.22385    -1453.877    473.97748    406.58527   -197.55242    37426.586 
   96600    296.38222   -1436.9479    491.48071    392.08992   -82.125092    37426.586 
   96700     295.9504   -1442.4617    471.29578    364.44237   -309.93629    37426.586 
   96800    305.22819   -1420.0479      470.411    427.84157    -488.8858    37426.586 
   96900    304.33067   -1463.0375     451.7882    362.17872   -404.47256    37426.586 
   97000    301.86491   -1426.7641    470.15418    405.69026   -54.757041    37426.586 
   97100    304.16984   -1417.7541    475.11718    430.06525    -1.889776    37426.586 
   97200    291.94491    -1450.677    473.93515    340.78992    111.36338    37426.586 
   97300    305.87562   -1395.9395     473.3192    457.77999   -189.00035    37426.586 
   97400    298.73575   -1421.1697    481.92437     408.9331   -384.39062    37426.586 
   97500    299.55857   -1417.8464    483.05367    417.09902   -2.2336369    37426.586 
   97600    292.33063   -1387.0203     474.3701    406.62224    68.470333    37426.586 
   97700    307.02788   -1449.8157    470.53045    406.31513   -115.51218    37426.586 
   97800     305.4051   -1433.1112    436.32083    381.48645   -310.33712    37426.586 
   97900    310.82885   -1453.8621    475.23446     424.1263   -668.57392    37426.586 
   98000    303.09897   -1445.5333    463.91868    386.25478   -378.77909    37426.586 
   98100    310.62411   -1453.2196    456.40934    405.01974   -347.39568    37426.586 
   98200    293.48712   -1421.2902      473.971    377.17239   -222.31683    37426.586 
   98300    309.55259    -1424.711    469.58798    441.87124    97.940329    37426.586 
   98400    296.83569   -1467.9862    444.89974    316.51711    122.35993    37426.586 
   98500    306.21522    -1448.806    481.33276    414.45968    580.16772    37426.586 
   98600    286.67748    -1446.648    505.22474    352.33682    613.86746    37426.586 
   98700    307.76737   -1412.5726    458.38244     434.7475    426.28506    37426.586 
   98800    292.26748   -1431.1865    490.46936    378.27036   -489.26202    37426.586 
   98900    296.56576   -1437.0412    457.65072    358.99485   -151.83619    37426.586 
   99000    300.29812   -1474.8715    487.96548    368.32325   -146.87534    37426.586 
   99100    308.03848   -1486.6462     485.8625    389.37749    479.87487    37426.586 
   99200    297.13265   -1457.8873    466.04304    349.09951    735.51397    37426.586 
   99300    302.50111   -1465.8338    490.73013    390.06759    622.18315    37426.586 
   99400    304.58693    -1478.138    475.37731    371.82384    621.08437    37426.586 
   99500    290.95498    -1502.034    473.65039    284.68066    575.91933    37426.586 
   99600    284.27062    -1466.604    461.71953    278.01359   -222.17886    37426.586 
   99700    296.17018   -1416.7497    477.00435    396.85476   -262.34508    37426.586 
   99800    297.31389   -1426.7964    465.65744    380.62265   -658.80917    37426.586 
   99900    306.64804   -1407.7967     465.3865    441.47596   -212.68449    37426.586 
  100000    306.78491    -1426.414    466.09126    424.18115   -363.26025    37426.586 
  100100    303.72288   -1441.7866    476.13925     405.0377   -52.066445    37426.586 
  100200    295.72455    -1432.928    483.96239    385.62347    339.50488    37426.586 
  100300    299.00662   -1489.9205    463.31444     322.7948    475.35027    37426.586 
  100400    288.50454   -1392.4832    472.97277     382.4951    284.94214    37426.586 
  100500    296.92025   -1424.9527    486.57087    401.60339     746.9558    37426.586 
  100600    305.22779   -1440.2474    495.23572    432.46496    650.42362    37426.586 
  100700    296.81547   -1445.0486    481.01808    375.48176    452.63132    37426.586 
  100800    295.03933   -1419.3025    482.70903    394.90321   -81.924268    37426.586 
  100900     300.5037   -1379.9358    476.77092     452.9922   -257.30365    37426.586 
  101000    291.41106   -1424.3317    463.20312    353.99388      -717.56    37426.586 
  101100    294.16324   -1449.1753    498.99687     377.3645    -535.9248    37426.586 
  101200     296.5453   -1422.4426    479.83554    395.68602   -198.06357    37426.586 
  101300    293.08669   -1418.7389    459.57624    363.52185    403.26105    37426.586 
  101400    301.33762   -1436.3322    463.64864      387.237   -421.01232    37426.586 
  101500    293.51846   -1385.6924    485.38254    424.32325    209.08329    37426.586 
  101600    292.70623   -1434.5058    494.64777    381.10949   -87.304323    37426.586 
  101700    308.19942   -1427.4834    465.43295    428.83701    199.41487    37426.586 
  101800    308.52561   -1429.2343    480.06588    443.19111    -76.11137    37426.586 
  101900    288.06359   -1361.6474    465.95427    404.32239   -263.73599    37426.586 
  102000     290.8033   -1442.8277    483.73485    353.28683   -133.57617    37426.586 
  102100    303.63541   -1409.1261    502.90933    464.07361    518.93216    37426.586 
  102200    305.48077   -1418.7769    482.28424    442.12573    223.61949    37426.586 
  102300    301.51551   -1356.4102    481.68082    485.99397    315.30924    37426.586 
  102400    297.52661   -1382.2828     477.4844    437.92326   -187.37616    37426.586 
  102500    300.66484   -1452.4071    481.37018    385.84739    26.101295    37426.586 
  102600    292.75977   -1420.2605    494.45177    395.40046   -183.31791    37426.586 
  102700    305.91517   -1413.5715    460.68763    427.69496     33.88297    37426.586 
  102800    299.66622    -1374.556    487.03377    464.85535   -45.756063    37426.586 
  102900    309.94148   -1408.4335    465.21553    455.53129   -178.95642    37426.586 
  103000    296.71192   -1393.9055     472.9281    418.06756   -10.102768    37426.586 
  103100    316.27846   -1416.2508    485.23224    496.32925    15.823483    37426.586 
  103200    302.96061   -1396.4624    450.10881    420.89137   -9.3647283    37426.586 
  103300    304.25992   -1378.5316    472.46486    467.04194   -189.86027    37426.586 
  103400    303.01171    -1401.223    495.50076     461.7534    67.576745    37426.586 
  103500    301.61751   -1437.7642    446.28855    369.70801   -372.62642    37426.586 
  103600    303.65114   -1449.3308    472.46974    393.50027   -643.85744    37426.586 
  103700    301.33373   -1450.2457    477.49141    387.14873   -399.41165    37426.586 
  103800    309.58861   -1474.0514      471.053    394.15842    94.310815    37426.586 
  103900     309.2511   -1441.8206    474.52867    428.34168    93.734533    37426.586 
  104000     298.9401   -1494.6244    492.19926    346.67553    579.51586    37426.586 
  104100    287.90658   -1514.3486    478.80138     263.7598    175.18109    37426.586 
  104200    301.41973   -1498.3798    479.28199    341.19327    23.525409    37426.586 
  104300    296.82534   -1486.6449    478.81259    331.72455    23.217224    37426.586 
  104400    305.85309   -1511.6595    466.96473    335.60384    93.591145    37426.586 
  104500    298.51348   -1492.4925    464.92744    319.61025   -44.126818    37426.586 
  104600    308.74035   -1445.8179    502.80752    450.31821   -114.78664    37426.586 
  104700    292.25153   -1428.9301    476.85015    366.83549   -607.71742    37426.586 
  104800    295.20067   -1459.2346    482.01442    355.00459   -479.53965    37426.586 
  104900     299.5633   -1480.0266    462.86958    334.75609    -70.21577    37426.586 
  105000    304.73426    -1472.213    481.91582    384.95225    438.20072    37426.586 
  105100     306.5093   -1481.1821    473.54547    375.62345     428.3331    37426.586 
  105200    294.78025   -1466.6009    432.72051    296.44704   -206.84492    37426.586 
  105300    289.42376    -1465.235    459.38331    300.30219   -222.75102    37426.586 
  105400    301.17081   -1467.6362    483.42061    374.95211     407.2841    37426.586 
  105500    295.90944   -1511.7451    481.88563    305.56403   -32.021429    37426.586 
  105600    298.61821   -1487.4511    484.29413    344.49095    337.90022    37426.586 
  105700    306.89543   -1496.6265    472.89775    361.27391    197.66397    37426.586 
  105800    293.78152   -1486.5684    483.43329    322.68512      412.921    37426.586 
  105900    297.57983   -1513.2087    459.64845    289.40154     235.9465    37426.586 
  106000    295.22695   -1507.2115    471.19492     296.3268   -118.86823    37426.586 
  106100    298.22939   -1494.8781    475.39129     326.4064   -569.02582    37426.586 
  106200    294.85406   -1472.8169    472.83504    330.67866   -697.77898    37426.586 
  106300     292.5474   -1449.9351    495.18991     365.5055   -259.16755    37426.586 
  106400    302.91118   -1491.3486    458.98772    334.66098   -301.24622    37426.586 
  106500    306.61729   -1438.5524    482.60662    427.80158   -617.01844    37426.586 
  106600    296.10511   -1460.6074    462.79013    338.48922    154.52183    37426.586 
  106700    294.98862   -1453.8964    468.70891    346.08037   -200.07179    37426.586 
  106800    297.59461   -1466.4355    466.13114    342.72413   -34.784633    37426.586 
  106900    298.16144   -1441.5567    470.32065    374.35057    206.27782    37426.586 
  107000    310.44393   -1440.2278    448.62021    409.40928    163.44937    37426.586 
  107100    298.34581   -1438.1136    495.44869    403.75373    425.98342    37426.586 
  107200    296.37842   -1452.7019    451.37978    336.21785    184.63132    37426.586 
  107300    304.55261   -1386.1898    485.12655    473.36638    6.5020685    37426.586 
  107400    299.15456   -1417.1507    481.57622    414.49399   -213.66707    37426.586 
  107500    306.73421   -1427.4973    458.38749     415.1652    267.11036    37426.586 
  107600    297.83692   -1436.1372    485.21089    393.19572   -44.899549    37426.586 
  107700    297.35447   -1434.0854    482.26578     390.1252   -269.82986    37426.586 
  107800     296.9152   -1414.0997    451.81511     377.6778   -285.15191    37426.586 
  107900    304.20539   -1420.9282    493.01292    444.94735   -242.84513    37426.586 
  108000    301.33939   -1450.9801    486.29708    395.24548     -534.788    37426.586 
  108100    300.15613   -1447.2628    476.58917    383.91494   -283.76948    37426.586 
  108200    301.04595   -1445.6644    481.76951    394.70933   -120.12766    37426.586 
  108300    295.14668   -1397.9182    476.61327    410.67625   -747.50519    37426.586 
  108400    291.48166   -1391.8001    467.58555    391.22654    -80.77156    37426.586 
  108500    298.45122   -1426.3942    478.19862     398.6988    343.06962    37426.586 
  108600    300.19973   -1403.1526    466.22436    417.85702   -273.74985    37426.586 
  108700    292.85231   -1403.4305    476.76171    394.95802    -93.08411    37426.586 
  108800    295.56218   -1426.9761    496.26079    403.14096   -363.20859    37426.586 
  108900    310.00287   -1406.4191    458.77818    451.38544    79.934014    37426.586 
  109000     289.9298   -1466.5553     457.3129     299.1952   -169.27911    37426.586 
  109100    296.41131   -1431.3833    455.61548    361.92055    912.89587    37426.586 
  109200    295.20151   -1434.4187     464.8785    362.68845    415.16687    37426.586 
  109300    310.11113   -1467.3364    480.74314    412.92164    199.09282    37426.586 
  109400    295.17814   -1449.6511    440.78421    323.25624   -114.84804    37426.586 
  109500    304.00253   -1431.5008     475.0863    415.53265    47.541318    37426.586 
  109600    294.57617   -1392.2203    489.41051    426.59664   -70.111919    37426.586 
  109700    298.65494   -1428.6743    454.26549    373.40495    136.19939    37426.586 
  109800    305.35175   -1423.0074    471.22676    426.25551    351.85588    37426.586 
  109900    306.53047   -1430.9034    459.51961    411.97184   -448.27607    37426.586 
  110000    295.45223   -1398.2449    475.17027    410.28541   -582.38226    37426.586 
  110100    300.28803   -1387.9017    457.71126    424.99339   -400.17579    37426.586 
  110200    291.23421   -1402.3574    514.24925    426.21621    -411.0203    37426.586 
  110300    295.95297   -1385.7054    447.72289     397.6374   -402.54405    37426.586 
  110400     295.9884   -1389.4247    463.72961    410.08466   -257.63937    37426.586 
  110500    299.99706   -1371.6954    469.24056    451.41583   -569.49956    37426.586 
  110600    309.06667   -1418.1847    454.63628     431.2529    35.724932    37426.586 
  110700    304.27269   -1389.2096    469.29514    453.25186   -309.91298    37426.586 
  110800     303.5986   -1454.5487    483.57417    399.14969    291.66387    37426.586 
  110900    302.08644   -1388.8114    482.30193    456.79042    617.55515    37426.586 
  111000    300.03277   -1434.0874    446.75299    366.69742    456.85198    37426.586 
  111100    299.38268   -1428.7862    479.53181    401.84361    406.65772    37426.586 
  111200    297.59774   -1474.1151    459.63808    328.56559    440.41458    37426.586 
  111300    297.89466   -1447.1148    462.12499    359.39288    699.59687    37426.586 
  111400    282.79716   -1445.8345     482.2022    312.61612    28.173552    37426.586 
  111500    302.61306   -1437.6437    475.70528    403.73805     180.7286    37426.586 
  111600    299.15691   -1439.6973    450.25845    360.64024    394.22502    37426.586 
  111700    292.48572   -1441.3474    481.53202    360.15704   -498.04952    37426.586 
  111800    309.16714   -1444.3773    471.36062    422.23806    32.186573    37426.586 
  111900    294.25008   -1460.1484     485.8725    353.65897   -243.95664    37426.586 
  112000    290.24848   -1461.3531    479.31255    327.83524    50.269483    37426.586 
  112100    303.30026   -1454.2237    472.29854    386.85267   -213.90872    37426.586 
  112200    295.93099    -1441.543    487.90381    381.88158   -220.10841    37426.586 
  112300    298.53519   -1437.9459    464.63564    373.96302   -217.91009    37426.586 
  112400    301.70171   -1422.2103    485.86792    425.22128   -473.83632    37426.586 
  112500    304.91298   -1433.9483    476.95797    419.06556    26.931966    37426.586 
  112600    297.40174   -1449.6059    473.72189     366.2741   -314.46774    37426.586 
  112700    304.10939   -1431.4574    480.33222    421.30421   -63.389334    37426.586 
  112800    303.39879   -1425.5487    485.99266    429.66645   -178.87946    37426.586 
  112900    288.77038   -1455.6351     496.7804    344.35055   -475.55727    37426.586 
  113000     303.4566   -1465.7245    450.24321    354.00207   -363.27014    37426.586 
  113100    302.94019   -1495.4433     474.5885      346.298   -682.96456    37426.586 
  113200    297.04444    -1463.182    477.68281    355.04641    551.34837    37426.586 
  113300    310.83811   -1476.9308    464.56479    390.42975    467.51598    37426.586 
  113400    290.95634   -1500.3349    475.21962    287.95508    553.93798    37426.586 
  113500    300.46285   -1460.6391    499.78705     395.1207    426.54424    37426.586 
  113600    306.18467   -1513.4023    466.45198    334.84462    472.67506    37426.586 
  113700    291.46714   -1483.1622    448.75291     280.9663    394.25596    37426.586 
  113800    300.12017    -1477.447    468.48505    345.46435   -58.308158    37426.586 
  113900    299.92598   -1460.9399    463.36615    355.97614    295.50665    37426.586 
  114000    297.29116    -1463.775    471.49458    349.37868    23.367707    37426.586 
  114100    289.36642   -1502.2959    492.35826    295.95744    211.73964    37426.586 
  114200    293.47285    -1499.049      467.878    293.25625   -312.21006    37426.586 
  114300    289.52563    -1532.553      469.322    243.38264    41.013242    37426.586 
  114400    295.59722   -1496.5174    462.94415    300.44122    118.11296    37426.586 
  114500    300.73924   -1520.5822    477.50941    314.14733    312.35639    37426.586 
  114600    301.76978   -1485.0567    463.63624    340.45039    57.638374    37426.586 
  114700    286.51677   -1504.4183    459.88722     248.5038    173.24015    37426.586 
  114800    294.46116   -1471.8265    499.15597    356.21692    848.81004    37426.586 
  114900    291.56694   -1467.9927    481.37258    329.20589     1312.117    37426.586 
  115000    305.24209   -1492.2217    483.98718     369.3067    522.96318    37426.586 
  115100    300.45847   -1480.8249    469.36455    344.49262    733.61708    37426.586 
  115200    305.98676   -1503.0789       471.28    349.10297    78.867668    37426.586 
  115300    300.74116   -1534.8379    441.82367     264.2145    48.180771    37426.586 
  115400    292.87973   -1553.1099    482.68711    251.32778   -551.54017    37426.586 
  115500    310.21271   -1489.2684    456.99105    367.69597    239.77222    37426.586 
  115600    303.55523   -1506.6424    489.20218    352.48825     399.7603    37426.586 
  115700    297.81198   -1512.2244     466.6991    298.48422   -54.797637    37426.586 
  115800    312.86266   -1562.9954    457.63737    306.57436     278.6408    37426.586 
  115900    298.56742   -1529.1146    474.68434     292.9885    544.74149    37426.586 
  116000    303.14936   -1497.2329    469.82581    340.68978    276.39827    37426.586 
  116100    303.93512   -1496.7809    460.10179    334.96382    423.51251    37426.586 
  116200    297.88677   -1481.8489    469.03507    331.53326   -665.63706    37426.586 
  116300    303.49121   -1445.8698    489.12197     412.8918   -795.89015    37426.586 
  116400     294.9431   -1410.6189    463.98088    384.42443   -855.08328    37426.586 
  116500    293.40287   -1438.0946    492.77686    378.79372   -469.35667    37426.586 
  116600    294.46214   -1467.7443    472.13162    333.27914   -184.57153    37426.586 
  116700    305.41955   -1457.4467     469.0535    389.94885   -364.57868    37426.586 
  116800    298.94903   -1449.1964    483.34518    383.28975   -211.39426    37426.586 
  116900    295.02546   -1472.9387    499.50377    357.99916   -755.57831    37426.586 
  117000    281.42294   -1462.0667    482.00762    289.98756   -52.565043    37426.586 
  117100    311.53858   -1459.6397    490.81103    437.12822     855.2674    37426.586 
  117200    297.92233   -1477.8593    503.03916    369.68738     711.9694    37426.586 
  117300    291.50593   -1464.0057    468.62986     320.1748    239.95638    37426.586 
  117400    291.03972   -1490.8999    463.83885    286.38564    378.29015    37426.586 
  117500    296.43463    -1468.224    482.39289    351.96249    124.64394    37426.586 
  117600    291.07131   -1439.2488    455.20498    329.54538    717.36546    37426.586 
  117700    303.98942   -1430.0725    485.65248    427.46799    257.17136    37426.586 
  117800    301.32791   -1447.3659    475.34213    387.85295    46.752091    37426.586 
  117900    293.84475   -1437.7766    480.98342    369.31247    -67.78774    37426.586 
  118000    302.14013    -1407.324    495.32031    451.53855   -140.87046    37426.586 
  118100    307.77718   -1429.6709     475.9581    435.26912   -312.57685    37426.586 
  118200    298.82298   -1419.9008    482.45906    411.13037   -334.44886    37426.586 
  118300    306.40963   -1422.8893    472.38022    432.30122   -404.93978    37426.586 
  118400    291.69855   -1437.7719    455.21387    333.86185   -136.46012    37426.586 
  118500    304.54093   -1458.4799    536.49483    452.39176    306.84906    37426.586 
  118600    295.61772   -1428.1354    473.81049    379.78199    292.69936    37426.586 
  118700     298.9967   -1449.3418    519.02169    419.03595    408.32452    37426.586 
  118800    290.91453   -1476.0816    464.57406    301.37415    436.85998    37426.586 
  118900    306.17238   -1448.3065      470.453    403.88603    169.61678    37426.586 
  119000    302.74504   -1399.6782    497.00354    463.59744   -136.28966    37426.586 
  119100    302.52308   -1426.9918    501.67435    439.95296   -194.67148    37426.586 
  119200    290.02668   -1427.3289    512.62904    394.17498   -269.29264    37426.586 
  119300    305.97932   -1464.4477    472.46427    388.88487   -194.68882    37426.586 
  119400    293.62946   -1418.2948    477.96349    384.80268    333.53828    37426.586 
  119500    298.03295   -1442.6208    478.27763    380.66359    156.51496    37426.586 
  119600    299.07491   -1461.9718    470.94568    358.68295   -136.03908    37426.586 
  119700    303.95347   -1423.2098    478.44924     426.9652   -455.50945    37426.586 
  119800    301.39449   -1468.7455    510.84964     402.2813    -316.2139    37426.586 
  119900    292.71933   -1496.9961    485.14104    309.17158   -49.199801    37426.586 
  120000     300.5693   -1481.3924    469.25467     344.3154    -483.1838    37426.586 
  120100    295.77881   -1520.8054    491.45914    305.48764   -377.19049    37426.586 
  120200    293.46171   -1485.6829    480.58192    319.27597   -137.60725    37426.586 
  120300    309.13908   -1475.4662     496.9668    416.62868   -515.63382    37426.586 
  120400    291.91998   -1442.8406    488.15438    362.73307   -462.97143    37426.586 
  120500    300.14553   -1446.9712    457.93399    365.50349    -250.7982    37426.586 
  120600    305.51309    -1425.375    490.24573    443.63488   -523.89511    37426.586 
  120700    297.29992   -1469.9273    500.60019    372.37148   -616.73402    37426.586 
  120800     306.5596   -1476.3914    482.53851    389.63417   -845.56801    37426.586 
  120900    291.12883    -1440.773    466.34473    339.42058   -394.29006    37426.586 
  121000    303.86582   -1459.2109    494.02304    406.14225   -660.86872    37426.586 
  121100    290.96764   -1435.9722    465.39068    342.53988   -361.74152    37426.586 
  121200     310.5471   -1461.0433    477.94651    418.38564   -716.62222    37426.586 
  121300    308.05909   -1441.5481    482.13783    430.84389    70.703515    37426.586 
  121400    307.71489   -1428.9261    515.01257    474.78732    668.97938    37426.586 
  121500    301.91016   -1445.0527     490.7358    408.18743    164.44779    37426.586 
  121600    289.02096   -1433.7178    489.98845    360.60676    610.38276    37426.586 
  121700     300.5773   -1428.5383    510.29962    438.25062    371.56128    37426.586 
  121800    309.93292   -1437.1933    472.15961    433.67696    103.03845    37426.586 
  121900    299.23064   -1450.5677    503.88536    403.72955    373.56559    37426.586 
  122000    297.32981   -1448.5278     481.0185    374.32417   -280.72493    37426.586 
  122100    291.54253   -1423.8189    497.87804    389.77492   -268.03952    37426.586 
  122200    306.33757   -1483.8796    483.66314    382.26861   -527.06784    37426.586 
  122300    286.90882   -1432.2075    466.46352     329.0602   -585.51449    37426.586 
  122400    302.72749   -1443.9287    467.89219    390.15641   -548.36212    37426.586 
  122500    305.27592   -1487.2501    496.48372    386.92752   -439.61156    37426.586 
  122600    304.77935   -1487.8442    468.94469    356.55332   -521.61724    37426.586 
  122700    298.34493   -1454.1666    496.05146    388.29957   -436.24979    37426.586 
  122800    302.90532    -1456.061    467.76094    378.69539   -506.60395    37426.586 
  122900    298.11845   -1463.3821    472.31611     354.3266   -299.43797    37426.586 
  123000    305.53613    -1434.462    479.46254    423.86874   -27.898482    37426.586 
  123100    299.62741   -1452.5713    504.21722    403.84834   -59.297781    37426.586 
  123200    304.27659   -1498.4533    486.16592    360.89656    25.894305    37426.586 
  123300    313.47142   -1484.8115    464.93113    394.79931    35.732502    37426.586 
  123400    300.87601   -1455.3378    490.46548    392.96495   -133.69975    37426.586 
  123500    296.49748   -1461.5963    499.78155    376.26243    332.01366    37426.586 
  123600    297.97303   -1487.7402    490.85007    347.84619   -92.357496    37426.586 
  123700    304.62695   -1499.8911    474.25691    349.13095    442.53006    37426.586 
  123800    303.02837   -1518.8787    462.29715    310.96931     323.7005    37426.586 
  123900    297.35648   -1493.8731     499.2555    347.33628    131.16557    37426.586 
  124000    303.54453   -1509.3402    490.75329    351.29329    82.711232    37426.586 
  124100    305.67404   -1486.6737    478.54595    371.36274   -23.350349    37426.586 
  124200    303.51396   -1482.4144    475.59882    362.92663   -364.13272    37426.586 
  124300    295.15613   -1452.8414    467.49719    346.67961   -203.01827    37426.586 
  124400    296.64723   -1458.3026    487.83065    368.28108   -698.54037    37426.586 
  124500    294.71242   -1486.8186    480.74654    323.94934   -474.90382    37426.586 
  124600    290.46724   -1523.7547    483.32888    270.43731    -265.5744    37426.586 
  124700    297.47951   -1470.3767    491.73743    363.86983    -610.5656    37426.586 
  124800     301.0015   -1462.1587    488.24662    384.49159    -409.8585    37426.586 
  124900    294.22103   -1473.3269    484.45427    338.93109    111.36147    37426.586 
  125000     302.2368   -1458.0085    511.23239    417.20231   -387.51546    37426.586 
  125100    302.28748   -1451.3535    467.16498    380.01874    -413.8648    37426.586 
  125200    291.69851   -1482.1179    508.56806     342.8699   -338.23042    37426.586 
  125300    300.19501   -1464.8652    477.50359    367.40237   -712.20755    37426.586 
  125400    288.36826   -1505.7496    476.34053    271.98145   -605.22009    37426.586 
  125500    296.52394   -1465.3587    487.53072    360.36871    -748.9247    37426.586 
  125600    293.87126   -1460.1561    489.42587    355.49503   -502.30829    37426.586 
  125700    300.35442   -1471.4055    475.98296    360.06081   -226.41541    37426.586 
  125800     286.2914   -1494.2578    483.20849    280.96846   -535.92471    37426.586 
  125900    304.75608   -1438.4045    483.26446    420.20788    11.771806    37426.586 
  126000    298.43818   -1446.9369    486.17846    386.07706   -200.57029    37426.586 
  126100    309.55757   -1464.8105    481.21481    413.42099    152.48321    37426.586 
  126200    300.69223   -1433.9839    488.03821    411.06221    745.03299    37426.586 
  126300    302.00488   -1473.1642    496.39664    386.16427    862.72721    37426.586 
  126400    302.07515   -1485.8034    473.30161    350.74713     1342.843    37426.586 
  126500    297.23751   -1474.4712    470.81462    337.76037    715.59253    37426.586 
  126600    302.54449   -1484.3814    512.60123    393.58687    848.42394    37426.586 
  126700    303.48839   -1497.7681    478.23607    350.09483    824.88996    37426.586 
  126800    298.11041   -1461.2441    472.99835     357.1106    722.63788    37426.586 
  126900    298.71677    -1480.083    533.04984     401.0596    190.60509    37426.586 
  127000    293.14773   -1510.3958    463.13928     275.7035   -4.2129917    37426.586 
  127100    304.66929    -1472.708    469.61803     371.8662    112.50571    37426.586 
  127200    310.22427   -1467.4136    495.15553     427.7674    755.92476    37426.586 
  127300    295.48629     -1477.42     490.0905    346.18433    528.52383    37426.586 
  127400    303.89928   -1453.8905    492.10962    409.70033    462.79899    37426.586 
  127500    296.17785   -1459.0155    466.90047    344.51972    581.07278    37426.586 
  127600    305.45745   -1505.8732    473.86944    346.50932    -45.56357    37426.586 
  127700    301.30429   -1482.4038    477.14457    354.51095   -382.61224    37426.586 
  127800    288.53581   -1468.3717    467.29153    301.06648   -377.63474    37426.586 
  127900     311.7826   -1468.9464    449.38226      387.494   -533.82912    37426.586 
  128000    307.58094   -1503.8962    454.28042     338.4805   -680.40066    37426.586 
  128100    301.54268   -1464.4829    477.44636    373.80944   -129.30641    37426.586 
  128200    293.89268   -1494.5878     512.0096    343.74377    22.161048    37426.586 
  128300    298.58023   -1458.2058    478.90201    368.17274    351.25434    37426.586 
  128400    294.43655   -1461.9185    482.38405    349.24193    553.13794    37426.586 
  128500    300.34309   -1478.6861    472.62281    349.36894    512.62181    37426.586 
  128600    301.61415    -1469.385     492.3702    384.15365    535.32139    37426.586 
  128700    287.22357   -1435.1068    499.29845    360.41617    173.18588    37426.586 
  128800    306.67266   -1450.9288    495.52558    428.59402    510.93375    37426.586 
  128900    298.88785   -1406.8094     483.1951    425.25056    349.19126    37426.586 
  129000    287.82587   -1394.2667    493.44649    398.12252    321.47174    37426.586 
  129100    302.39754   -1428.1547     486.5432    423.09239   -48.832766    37426.586 
  129200    305.78837   -1410.9895    488.52067     457.5377    679.11212    37426.586 
  129300    297.59433   -1454.0766    486.36077    375.31143    167.95368    37426.586 
  129400    304.21027   -1411.6554    484.19826    445.42753    -21.53338    37426.586 
  129500    298.20741   -1424.4274    477.56824    398.93489   -130.72482    37426.586 
  129600    301.56462   -1423.1622    500.72937    438.51213   -509.73031    37426.586 
  129700    301.97714   -1439.3193    469.13517    392.62248   -296.03955    37426.586 
  129800    306.35663   -1454.2924    472.82633    401.10497   -96.518773    37426.586 
  129900    306.06502   -1436.9487       488.67    432.97636   -280.78539    37426.586 
  130000    290.64145   -1458.1744    467.27467    320.74951   -304.31803    37426.586 
  130100    296.48982   -1464.9115    478.16324    351.29437    514.73898    37426.586 
  130200    304.55735   -1466.7756    492.86523    400.54056    591.25843    37426.586 
  130300    299.20271   -1436.2388    498.73765    412.78463    636.63696    37426.586 
  130400    303.39649    -1449.307    481.47399    401.37909    593.56874    37426.586 
  130500    294.73004   -1482.9477    487.05027    334.20339    269.73932    37426.586 
  130600    293.59417    -1446.474    463.86573    342.36649    267.18252    37426.586 
  130700    295.44525    -1471.559    472.54538      334.315   -480.66679    37426.586 
  130800    306.92985   -1478.8915    463.51901    369.78541    -609.2093    37426.586 
  130900    300.79427   -1464.6345    466.23453     359.0684    -121.7319    37426.586 
  131000    300.94796    -1443.153    492.92643    407.93547   -339.99982    37426.586 
  131100    296.37346   -1412.7737    471.98871    396.73259   -309.68732    37426.586 
  131200    306.97125    -1472.785    490.19992    402.75977   -477.33918    37426.586 
  131300    303.48517   -1441.7454    461.11434    388.98127   -289.59837    37426.586 
  131400    305.14888   -1487.8045    470.25642    359.57252   -384.92762    37426.586 
  131500     304.3924   -1507.0644    449.60835    316.25049   -67.923397    37426.586 
  131600    302.48964   -1502.1189    500.71379    363.71442    561.29423    37426.586 
  131700    296.87104   -1486.0223    465.78187    319.52268     615.2923    37426.586 
  131800    300.56436   -1518.9986      473.228    310.66023    12.081216    37426.586 
  131900    308.93021   -1490.1333    475.98515    380.03738    298.24396    37426.586 
  132000    296.30897   -1462.7225    471.95607    346.46004   -91.805621    37426.586 
  132100    301.50044   -1482.2751    471.77806    350.15829   -522.78399    37426.586 
  132200    295.08888   -1508.7928     469.7045    292.63201   -494.17864    37426.586 
  132300    304.40331   -1492.5991    479.40378    360.56057   -651.15944    37426.586 
  132400    298.62448   -1504.8148    484.46838    327.32985   -49.171711    37426.586 
  132500    303.08838   -1484.5456    488.43235    371.70835    244.90004    37426.586 
  132600     307.3586   -1490.3382    473.88769    370.64236   -456.74586    37426.586 
  132700    308.54277   -1464.6415    474.49953    402.29499   -105.59236    37426.586 
  132800    297.19723    -1428.395    490.37053    403.21073   -269.82667    37426.586 
  132900    285.26791    -1451.796     474.2532    309.85593   -352.17216    37426.586 
  133000    303.47732   -1443.7547    474.51906    400.34122   -533.07711    37426.586 
  133100    303.61409   -1443.0982    478.69723    405.79315   -373.49217    37426.586 
  133200    311.60748   -1489.7787    484.65884    401.14801   -96.170674    37426.586 
  133300    292.20855   -1521.8389    485.05069    281.93333    317.14862    37426.586 
  133400    297.55622   -1502.8653    463.67224    303.66226   -405.01347    37426.586 
  133500    302.44726   -1451.7785    488.36532    401.51507     43.38853    37426.586 
  133600    301.55645   -1489.3422    474.02409    345.59001      61.7036    37426.586 
  133700    296.26485   -1471.5873    482.36748    347.80759     757.5224    37426.586 
  133800    303.35067   -1464.8251    480.33223    384.51247    1219.2253    37426.586 
  133900    296.92102   -1454.8337    498.20437    383.35926    1070.1981    37426.586 
  134000    299.60892   -1469.1302    516.02417    399.01296    1445.2061    37426.586 
  134100    303.29784   -1463.0044    482.42412    388.18663    862.42278    37426.586 
  134200    288.60147   -1460.6371    488.71685    330.52278    652.88555    37426.586 
  134300    312.96046   -1502.5886    464.27121     374.0564    774.31374    37426.586 
  134400    296.16193   -1487.0423    478.90486    328.42547      54.9447    37426.586 
  134500     292.5853   -1451.1308    485.75052    355.04148   -117.98169    37426.586 
  134600    298.98177   -1465.8164    475.98008    359.45238    -188.4788    37426.586 
  134700    309.42867   -1458.4519    476.00605    413.98918    -29.29363    37426.586 
  134800    300.37926   -1476.4575    490.15033    369.28837   -182.22892    37426.586 
  134900    303.98071   -1461.7475    481.62813    391.72933   -143.92341    37426.586 
  135000    298.02021   -1435.4637    494.57241    404.05796   -111.48809    37426.586 
  135100    308.55983   -1405.7073    486.80379    473.61051    55.067997    37426.586 
  135200     296.8262   -1445.1362    466.35218    360.77675    89.397218    37426.586 
  135300    298.67236    -1455.304    484.60838    377.19674    455.56269    37426.586 
  135400    304.99481   -1463.9954     507.7016    420.13146    328.47338    37426.586 
  135500    291.82464   -1487.8851    493.28311    322.38703    124.38566    37426.586 
  135600     294.0111    -1489.986     468.1825    305.05286    509.42824    37426.586 
  135700     296.4872   -1516.6547    481.24212    302.61821    539.51253    37426.586 
  135800    301.95745   -1537.5292     500.5544    325.74299    399.65351    37426.586 
  135900    286.92658   -1464.9568    424.28408    254.21159   -253.78527    37426.586 
  136000    301.15309   -1498.1954    494.58827    355.48061    139.49742    37426.586 
  136100    301.86303    -1461.551    469.38524     370.1259   -27.717492    37426.586 
  136200    296.13657   -1442.1629    440.05426    334.33979    374.58584    37426.586 
  136300    299.51018   -1446.8763    512.08735    416.88441    183.83024    37426.586 
  136400    301.80047   -1479.2521    477.27414    360.03137    167.56966    37426.586 
  136500    296.70014    -1509.742    480.18049    309.43028    482.68664    37426.586 
  136600    301.57572   -1559.2472     484.0907    285.83854    61.011193    37426.586 
  136700    299.66468   -1526.4476    469.91768    295.84076   -118.13299    37426.586 
  136800    302.69161   -1521.1016    471.75782     316.6872    304.17547    37426.586 
  136900    298.14988   -1494.0913    489.54644    340.98954    14.173535    37426.586 
  137000    297.00991   -1495.6512    460.10774    304.84637    381.37745    37426.586 
  137100     299.1735   -1485.1497    520.71661    385.72086    109.74714    37426.586 
  137200    303.08966   -1485.6246    467.94239    350.14518   -243.18952    37426.586 
  137300    301.10709   -1469.5748    491.81761    381.12296    204.69423    37426.586 
  137400    298.29174    -1507.317    479.07725    317.93491    61.751611    37426.586 
  137500    295.53893   -1497.8237     451.9332     287.8608    220.89622    37426.586 
  137600    299.01114   -1508.4245    499.21232    340.20911    297.92819    37426.586 
  137700    296.53227   -1531.9593    451.88574    258.16071   -452.44345    37426.586 
  137800    294.03516   -1525.3393    476.65826    278.28389    334.68092    37426.586 
  137900    308.55028   -1512.6248    480.38274    360.22878    364.45886    37426.586 
  138000    297.85317   -1515.0567    480.98898     310.1277    235.48598    37426.586 
  138100    305.83868   -1461.4003    514.13519    432.96851       57.807    37426.586 
  138200    300.33913   -1479.5875    454.14292    329.96981    556.68423    37426.586 
  138300     300.2664   -1518.8793     467.9152    304.12202   -86.206278    37426.586 
  138400    314.76067   -1454.6566    477.76636    443.60779  -0.29022377    37426.586 
  138500    293.62197   -1483.5374    489.37337    330.93622   -155.14919    37426.586 
  138600    300.88795   -1493.4654    492.44193    356.86772    227.24746    37426.586 
  138700    293.59234   -1429.9342    495.53958    390.57184   -48.727974    37426.586 
  138800    302.79916   -1459.9414    489.09864    395.67361    287.24777    37426.586 
  138900    299.22071   -1436.8384    490.64852    404.17714   -107.39997    37426.586 
  139000    293.43168   -1480.2516    488.16528    332.15516     71.04875    37426.586 
  139100    301.14611   -1505.5409     472.7502    326.26551    365.90832    37426.586 
  139200    299.53472   -1534.7529     490.8757    307.90698    51.502436    37426.586 
  139300    297.43295   -1497.9353    472.24579    316.60945    240.80808    37426.586 
  139400    308.06593   -1457.2776    471.66362    404.67112    38.873794    37426.586 
  139500    299.13077   -1491.4024     491.6879    350.24667    165.85735    37426.586 
  139600     306.8666   -1436.4093      477.634    426.09726    10.092568    37426.586 
  139700    301.13119   -1437.3889    473.56317    395.16317   -412.38876    37426.586 
  139800    297.40644   -1431.2748    479.37775    390.28229    87.565714    37426.586 
  139900    299.48886   -1399.8909    497.90051    449.58678    506.63852    37426.586 
  140000    285.87379   -1428.9776    468.12597    329.28146   -44.186906    37426.586 
  140100    300.87513   -1454.0288    488.40933    392.21383   -179.74982    37426.586 
  140200    307.92933   -1447.9532    502.20553    443.92093    373.83063    37426.586 
  140300     295.4343   -1436.0613    501.88619    399.10408    67.831924    37426.586 
  140400    307.46608   -1468.3755    499.43531    418.63775   -147.73492    37426.586 
  140500    300.06057   -1428.8945    495.65404    420.91678   -278.56628    37426.586 
  140600    311.09482   -1475.8185    491.27354     419.4093    82.005707    37426.586 
  140700     300.4255   -1404.4664    500.50527    451.84305    9.8991921    37426.586 
  140800    300.94663   -1402.8004    504.82603    460.18163    304.27596    37426.586 
  140900    304.83387    -1426.563    486.56013    435.69607     763.6867    37426.586 
  141000    297.89514   -1457.6343    519.02165    405.77215    401.23441    37426.586 
  141100    299.16016   -1423.3901    459.49297    386.19661    565.36119    37426.586 
  141200    311.55591   -1432.4163    500.37048    473.98929    223.29104    37426.586 
  141300     303.8011   -1413.1095    490.32981    448.25842   -44.163299    37426.586 
  141400    296.37564   -1429.2631    498.02336     406.2876   -287.41949    37426.586 
  141500    311.80668   -1448.2127    461.94184    420.89602   -655.63115    37426.586 
  141600     299.6286   -1469.7265    489.07646    371.55774   -285.82207    37426.586 
  141700    303.10945   -1455.0211    478.94243    391.83806    211.26895    37426.586 
  141800    298.70307   -1417.7171    489.03378    419.34764    137.67052    37426.586 
  141900    298.78426   -1451.7306     478.4213     375.0881    2.4825943    37426.586 
  142000    290.21605   -1439.1005    490.60666    361.23563   -479.34115    37426.586 
  142100    290.59955   -1422.2296     494.1442    383.37476   -353.90752    37426.586 
  142200    298.08389   -1427.4805      479.524    397.28009   -106.64254    37426.586 
  142300    304.76799   -1440.2538    509.14501    444.29282   -419.70347    37426.586 
  142400    297.46254   -1452.8385    481.30979    370.90383    -378.4149    37426.586 
  142500     309.0707    -1461.317    477.93026    411.43272   -129.05262    37426.586 
  142600    302.71537   -1462.0895    496.78602     400.8348   -573.43098    37426.586 
  142700    295.37157    -1421.529    492.75381     404.2209   -353.02809    37426.586 
  142800    306.71105   -1421.7372     483.6357    446.06901    248.23575    37426.586 
  142900    291.69708   -1419.8328     497.9025    394.48302   -29.743175    37426.586 
  143000    304.61191   -1419.7156    468.44225     423.4239    91.340634    37426.586 
  143100     315.0646   -1447.3418     490.4254    464.95323   -126.01525    37426.586 
  143200    311.35849   -1449.4058    474.82329    430.56165   -336.36653    37426.586 
  143300    302.09194    -1440.291    462.25805    385.29179   -262.83981    37426.586 
  143400    303.07584   -1430.2506    497.60051    435.11496      78.8069    37426.586 
  143500    298.58809   -1443.1372    489.65298    394.02783    62.768893    37426.586 
  143600    294.68769    -1443.359     465.0844    351.63511   -167.36204    37426.586 
  143700    300.08428   -1449.8256    469.55792    373.99652   -369.28748    37426.586 
  143800    295.50159   -1465.7385    503.60486    371.44918    722.39689    37426.586 
  143900    302.21775   -1474.0578    495.97649     385.8112    464.60113    37426.586 
  144000    297.41569   -1429.5551    508.16966    420.83558     381.1572    37426.586 
  144100    295.46852   -1451.0893    492.21071    374.55498    275.76309    37426.586 
  144200    300.96409   -1457.6909    519.85284    420.39671    308.02326    37426.586 
  144300    291.82184   -1433.3157    485.73174    369.39235    296.20747    37426.586 
  144400    297.30325    -1430.639    499.79724    410.87191    258.73774    37426.586 
  144500    295.97052   -1403.9126    484.01258    415.79905    239.60815    37426.586 
  144600    300.39683   -1479.2605    492.92017    369.33452    250.89022    37426.586 
  144700    288.30852   -1438.8207    502.46605    364.76631    609.46124    37426.586 
  144800    307.92233   -1454.4636    502.06627    437.23965    -26.16185    37426.586 
  144900    301.63278   -1441.5903    487.64422    407.30648    398.08012    37426.586 
  145000    304.61306   -1459.9675    504.73438    419.46928     657.6885    37426.586 
  145100    299.23755   -1449.0005    493.97658    395.41914    798.59486    37426.586 
  145200    305.38181   -1409.0121    501.81101    470.97067    536.24969    37426.586 
  145300    295.35053   -1449.3723    476.81067    360.33951    87.163725    37426.586 
  145400    306.02379   -1452.2544    484.31656    413.13113    594.07243    37426.586 
  145500    293.62231   -1487.2487    477.37215    315.22514    487.53137    37426.586 
  145600    310.70471   -1484.9247    482.84847    400.11751    160.75671    37426.586 
  145700    297.96761   -1472.2672    507.01146    379.45611   -157.38862    37426.586 
  145800    295.75485   -1484.2747    481.02665    331.47776   -729.49874    37426.586 
  145900    286.42699    -1504.414    482.01999    270.23566   -703.40331    37426.586 
  146000     301.6654   -1474.2427    504.36403    391.52108   -584.94114    37426.586 
  146100    301.18334   -1468.1905    458.89085    349.92464   -423.70312    37426.586 
  146200    293.30582   -1472.9986    485.38363    336.05844    -225.6125    37426.586 
  146300    297.98367    -1465.645    509.39878    388.53813   -160.77749    37426.586 
  146400    295.61118   -1460.3227    474.17466    347.92939    226.96235    37426.586 
  146500    299.50799   -1456.4687    494.68718    389.88198     409.0139    37426.586 
  146600    299.19395   -1473.6606    496.79004    373.37573    303.23636    37426.586 
  146700    293.37159   -1488.9835    483.26456    318.25131    162.87632    37426.586 
  146800    298.49818   -1494.9547    456.91871    309.07029    169.85034    37426.586 
  146900    290.85153   -1449.8938     464.2399    326.94344    606.97383    37426.586 
  147000    294.15518   -1465.5324    466.45345    328.42762    748.46451    37426.586 
  147100    300.30719   -1449.9163    488.64101    393.99501   -19.829197    37426.586 
  147200    288.35539   -1430.7481    472.33183    342.91611   -10.279048    37426.586 
  147300    291.87231   -1436.4301    492.62438     373.3984   -206.30879    37426.586 
  147400    303.99649   -1442.8162    466.31154    395.41524    -151.0386    37426.586 
  147500    285.48461   -1437.7563    457.87306     308.4935   -37.585685    37426.586 
  147600     306.0812   -1431.9701    490.15407      439.512   -498.71429    37426.586 
  147700    299.70066   -1408.7638    475.09164    418.86092   -516.89126    37426.586 
  147800    299.07458   -1409.1264    514.14195    454.72312   -608.75362    37426.586 
  147900    303.94584   -1461.7297    479.06929    389.03093    87.045872    37426.586 
  148000    299.42077   -1489.1485    468.77161    330.89297    462.35299    37426.586 
  148100    303.62466   -1497.0109    484.88999    358.12093    1100.9822    37426.586 
  148200    297.45371   -1491.0026    474.83461    326.22467    319.31669    37426.586 
  148300    299.58836   -1442.5527    477.31131    386.78487   -6.3520475    37426.586 
  148400    295.55834    -1444.068    453.08909    342.86007   -93.376609    37426.586 
  148500    306.17805   -1441.1055    472.89665     413.5563    -108.6221    37426.586 
  148600    306.45418   -1435.9831    461.63343    408.66163   -391.08564    37426.586 
  148700    300.37707    -1468.937    469.86153    356.51015    168.51801    37426.586 
  148800    313.57356   -1498.7378     463.3179    379.72081    512.47835    37426.586 
  148900    290.92927   -1511.9199    474.83283    275.86115    101.37704    37426.586 
  149000    306.84562   -1480.3624    460.45211    364.86759    301.36497    37426.586 
  149100    299.42845   -1501.8151    477.57646    327.06598    42.369037    37426.586 
  149200    309.51697   -1480.6061    467.43152     383.6589    154.96801    37426.586 
  149300    294.90085   -1458.1254    506.39341    379.13974   -929.04626    37426.586 
  149400    292.89279   -1435.3693    466.93256    353.37278    -960.6974    37426.586 
  149500    301.16269   -1427.6772    469.33615    400.79005   -640.81154    37426.586 
  149600    291.78026     -1477.57    466.62605    305.84469   -334.06851    37426.586 
  149700    291.34171   -1480.4307    480.31869    314.69748    42.167464    37426.586 
  149800    297.38848   -1490.9833    476.65991    327.77483    407.62724    37426.586 
  149900    295.51137   -1463.3968    482.76936    352.99956    623.79822    37426.586 
  150000    307.42121   -1523.5644    488.99105    352.80213    1036.6178    37426.586 
  150100    314.17799   -1500.8351    474.80181    391.83516    421.53373    37426.586 
  150200    293.15823    -1459.155    486.29114    350.14348    -139.1926    37426.586 
  150300    306.26315   -1491.4421    470.33677    361.04387    13.952939    37426.586 
  150400    307.42263   -1466.9605     472.0946    392.51598    305.14077    37426.586 
  150500     301.6769   -1456.3824     481.5871    386.65633   -92.184256    37426.586 
  150600    302.80194   -1405.0773    481.61146    443.06314    470.13094    37426.586 
  150700    302.86647   -1495.9148    471.22358    342.12893    232.99392    37426.586 
  150800    308.32488   -1488.2005    478.85865    382.11185    540.33874    37426.586 
  150900    294.17744   -1450.9456     480.3513    357.01272    181.77572    37426.586 
  151000    300.38229   -1473.3574    477.78543    360.03723    100.50001    37426.586 
  151100    290.49952     -1460.46    484.60963    335.15837    299.70985    37426.586 
  151200     295.6424   -1487.0384    464.10272    311.28266    195.39254    37426.586 
  151300    293.39793   -1449.3273    481.30955     356.0714    292.36005    37426.586 
  151400    306.73509   -1494.0786    485.29171    375.49215    870.82576    37426.586 
  151500    299.00729   -1465.1776    486.26121    370.48747    715.85281    37426.586 
  151600     295.0633   -1483.9738    480.82752    328.45862    1120.5903    37426.586 
  151700     302.0639   -1449.2941    480.67191    394.57595    968.04966    37426.586 
  151800    291.15771     -1453.04    499.30826    360.24746    357.64556    37426.586 
  151900    299.84704   -1430.8227    493.88484    416.25576    90.996312    37426.586 
  152000    303.61086   -1447.8123    472.38124    394.74847     83.17718    37426.586 
  152100    299.90475   -1441.5134    489.25808    401.19875   -166.63485    37426.586 
  152200    306.62865   -1461.0085    483.53598    406.32615    296.84855    37426.586 
  152300    301.43354    -1450.757    482.61408     392.2105    140.81605    37426.586 
  152400    294.25097   -1455.0573    471.12892    344.01048    21.722728    37426.586 
  152500    298.29007   -1429.0712    477.64109    394.73701    728.77402    37426.586 
  152600    296.96933   -1493.3758    537.45672     384.2876    147.29987    37426.586 
  152700    304.37016   -1437.7388    473.68505    409.55246    320.43021    37426.586 
  152800    308.65994   -1467.6286    458.67507    384.01223    196.26878    37426.586 
  152900    293.59364   -1448.9675    473.44191    349.44678   -786.00892    37426.586 
  153000    300.03863   -1475.0222    479.88586     358.9219    -447.9712    37426.586 
  153100    294.79428   -1491.4584    489.14706    328.07944   -298.00563    37426.586 
  153200     304.4875   -1485.2973    468.95873     357.7972   -54.573088    37426.586 
  153300       302.91   -1487.8913    475.77507    354.90038    426.60179    37426.586 
  153400    295.51534   -1487.6386     468.9439     314.9502     383.8861    37426.586 
  153500    292.28676   -1444.8014    462.88723    337.16027    241.55134    37426.586 
  153600    299.41729   -1458.0042    505.65802    398.90801   -164.10544    37426.586 
  153700    296.02139   -1454.3314       470.91    352.50725    316.47567    37426.586 
  153800    315.09769   -1500.9706    491.26052    412.30887    688.55569    37426.586 
  153900    297.15268    -1497.293    488.40068    332.14184    148.76548    37426.586 
  154000    301.77577   -1458.1597    471.71349    375.45171     816.8679    37426.586 
  154100    300.67914   -1464.7633    495.31974    387.50533    515.30554    37426.586 
  154200    297.29939   -1453.3993    498.40532    386.70225    126.19339    37426.586 
  154300    307.87733   -1454.9888    472.16454    406.60966    39.735142    37426.586 
  154400    302.22191   -1458.9923    477.15344     382.0724   -81.197774    37426.586 
  154500    313.67375   -1461.8676    460.16242    413.88764   -136.06352    37426.586 
  154600    302.55422    -1473.022     477.4159    369.80487    53.739639    37426.586 
  154700    293.93306   -1496.8801    490.87405    320.49803    98.697757    37426.586 
  154800    302.47474   -1540.0177    458.98903    284.02362   -209.58721    37426.586 
  154900    297.27492   -1460.7633    480.23674    361.05921    423.08686    37426.586 
  155000     306.5552   -1488.2216    452.75982    348.00539    174.73656    37426.586 
  155100    294.71252   -1481.5029    485.74073     334.2597    165.78532    37426.586 
  155200    289.69662   -1505.3307    474.13608    276.19071     37.48834    37426.586 
  155300    298.13965   -1497.4045    466.85462    314.93843    2.5002493    37426.586 
  155400    297.61651   -1491.8192    502.35724    353.66543    449.67808    37426.586 
  155500    299.94414   -1518.5263    448.06334    283.16888    155.45896    37426.586 
  155600    304.22223   -1469.3434    471.04875    374.64396    681.24956    37426.586 
  155700    295.41277   -1476.1015     468.7309    325.81134    563.60684    37426.586 
  155800    298.29406   -1484.3578    474.93134    336.75862     882.4759    37426.586 
  155900    294.39348   -1526.7534     468.3434    270.17202    681.07163    37426.586 
  156000     305.5397   -1507.9389    504.05548    375.00086    643.79428    37426.586 
  156100    304.06938   -1524.3064    465.83646    313.77891    2.9456307    37426.586 
  156200    297.38867   -1523.9618    492.24466    310.38202   -504.34559    37426.586 
  156300    304.00633   -1478.1493    476.48134    370.29629   -574.55123    37426.586 
  156400    300.34051   -1469.5548    471.22043    357.08624    222.19937    37426.586 
  156500    298.52827   -1491.5258    488.27344    343.98976   -228.32118    37426.586 
  156600     302.0056    -1466.448    477.15812    373.64516    246.94346    37426.586 
  156700    301.31811   -1447.6681    493.15925    405.32364    404.89272    37426.586 
  156800    307.87675   -1465.2991     469.0857    393.21792    316.98841    37426.586 
  156900    296.94358   -1462.8397    502.15226    379.40301    618.66883    37426.586 
  157000    301.88235   -1432.4128     506.2241    436.19019    839.33734    37426.586 
  157100    293.54013    -1449.812    503.22541    378.14429     547.8885    37426.586 
  157200    302.93921   -1435.7144    483.88734    415.32136    158.66529    37426.586 
  157300    299.14387    -1428.321    505.08003    426.77926    443.61018    37426.586 
  157400    284.43047   -1459.1189    485.04524    309.54578   -51.275485    37426.586 
  157500     297.6199   -1472.7499    479.39652    349.78923   -383.65917    37426.586 
  157600    308.43032   -1454.1781    496.91438    434.66577   -538.58815    37426.586 
  157700    298.64261   -1435.9863    480.62913    392.40096   -621.60189    37426.586 
  157800    299.18335   -1458.3948    471.71739      363.521   -632.27499    37426.586 
  157900    305.57465   -1452.3317    495.73792    422.44826    86.077142    37426.586 
  158000    296.32092   -1475.4755    464.28461    326.08959   -176.97547    37426.586 
  158100    294.57214   -1464.2076    487.31891    352.49954   -53.326497    37426.586 
  158200    297.09165   -1455.8934    456.91387    341.77916    -121.9258    37426.586 
  158300    305.98172   -1476.1646    517.02501    421.73946   -2.5623895    37426.586 
  158400    292.11077   -1471.9455    480.08831    326.42308    -123.4442    37426.586 
  158500     303.6023    -1465.131     487.4164    392.42629    327.30283    37426.586 
  158600    303.69359    -1517.957    463.91259     316.5085    442.63723    37426.586 
  158700    301.81796   -1472.9639    471.19177    360.31613    582.69818    37426.586 
  158800    298.11635   -1456.6534    483.26074    371.99046    248.95267    37426.586 
  158900    307.35896    -1477.037    500.94715    411.00468    265.08554    37426.586 
  159000     298.2941    -1477.167    457.81678     326.8351   -39.396662    37426.586 
  159100    291.78782   -1494.6003    477.27481    299.49725   -412.76819    37426.586 
  159200    302.14895   -1490.8181    458.29988    331.06377   -714.43663    37426.586 
  159300    298.43743   -1473.8764    482.85005    355.80578   -241.67003    37426.586 
  159400    301.13465   -1472.9448    464.49487    350.55459   -323.94969    37426.586 
  159500     294.5142   -1499.4973    481.32394    310.95347   -535.55161    37426.586 
  159600    306.80989   -1461.4018    495.83172    419.04656    181.01979    37426.586 
  159700     295.7398   -1522.8474    483.08186    294.89229   -42.102186    37426.586 
  159800    290.75148    -1510.841      501.771     303.0759    216.14774    37426.586 
  159900     296.0691    -1526.878    477.35971    286.62566    55.558858    37426.586 
  160000    294.69228   -1520.1681    473.12688    282.88926   -83.823072    37426.586 
  160100    304.02037   -1533.5579    475.44646    313.91618   -481.24705    37426.586 
  160200    298.76336   -1555.2773    482.27154    275.29729   -43.006488    37426.586 
  160300    302.14844   -1522.1274    476.21211    317.66441   -148.81605    37426.586 
  160400    299.73171   -1517.3192    503.84716    339.20114    595.57583    37426.586 
  160500    301.41604   -1526.9124    472.41506    305.77704    254.95065    37426.586 
  160600     295.1259   -1546.5518    440.78657    226.12211    338.07665    37426.586 
  160700    296.86733   -1496.8326    513.54659    356.46031   -60.793034    37426.586 
  160800    299.23931   -1532.8146    486.93298    304.56937    591.66444    37426.586 
  160900    302.68277   -1557.2707    444.48292    253.20337     369.7142    37426.586 
  161000    301.79262   -1498.9907    503.22095    366.20414    249.04942    37426.586 
  161100    306.01671   -1465.6872    471.78506    387.13489   -19.131823    37426.586 
  161200    301.74808   -1534.2344    478.18472    305.72328   -417.79993    37426.586 
  161300    293.85793   -1518.0712    481.80316    289.89708   -964.94192    37426.586 
  161400    305.70265   -1501.8427    482.02483    359.80183   -723.98725    37426.586 
  161500    300.71967   -1509.4603    479.24419     326.9156   -701.33402    37426.586 
  161600    308.75868   -1498.3724     474.9003     369.9393   -451.65009    37426.586 
  161700    300.21001   -1451.0338    497.69061    401.48851    -528.4329    37426.586 
  161800    305.38251    -1477.309    476.31035    377.17625    -303.6741    37426.586 
  161900    308.13247   -1452.7775    479.57613    417.38397   -125.99202    37426.586 
  162000    298.28284   -1510.0854    481.93505    317.98413   -126.84607    37426.586 
  162100    307.96412   -1459.0221     483.6156    414.41907    139.71061    37426.586 
  162200    300.59858   -1501.9633    480.06345    334.68541   -724.73039    37426.586 
  162300     308.2497    -1472.339    485.25441    404.02978   -99.534164    37426.586 
  162400    298.91238   -1472.1768    482.06085     358.8596    34.530302    37426.586 
  162500    288.80307    -1452.554    464.92818    315.72691   -294.74856    37426.586 
  162600     294.9004   -1451.3682    469.32554      348.827    52.981413    37426.586 
  162700    299.68119   -1460.8904    495.32566    386.88043    157.91071    37426.586 
  162800     299.8188   -1452.8718     495.5557    395.75005   -79.101145    37426.586 
  162900    291.33263   -1493.3952    499.33851    320.71183   -326.23139    37426.586 
  163000    299.15467   -1448.8655    498.52885    399.73234    202.45689    37426.586 
  163100    304.16038     -1443.32     495.4186    424.75815    69.163945    37426.586 
  163200    299.67168   -1448.5991     485.2251    389.02821    202.40139    37426.586 
  163300    297.18882   -1498.1928    493.64522    336.64965    601.63648    37426.586 
  163400    292.78368   -1496.7294    479.69253    304.28016    402.64464    37426.586 
  163500    306.19717   -1502.4678    486.16733    365.55099    466.64119    37426.586 
  163600    300.20533   -1462.3337    489.57417    382.05105    494.53716    37426.586 
  163700     299.3624   -1489.3745    486.39423    348.02614    120.90486    37426.586 
  163800    302.95411   -1485.9948    466.41665     347.6375     74.37833    37426.586 
  163900    304.74685   -1491.7792    501.04495    384.57195   -312.41026    37426.586 
  164000    303.44321   -1475.4697    470.30326    364.25645   -442.91283    37426.586 
  164100     304.2396    -1429.704    510.67623     453.9892   -422.78688    37426.586 
  164200    300.93755   -1433.3138    495.15541    419.95666   -717.31423    37426.586 
  164300    302.99166   -1500.4263    490.21754    357.17638    89.562829    37426.586 
  164400     293.2891   -1459.1759    488.28847    352.71051    172.50624    37426.586 
  164500    296.15311   -1481.0521    479.41761    334.88865     685.7111    37426.586 
  164600    306.39541   -1500.9509    481.40427    363.19948    377.29857    37426.586 
  164700    302.55099   -1508.3267    462.47017    319.53991     243.3845    37426.586 
  164800    293.16512   -1528.3054    486.40883    281.14189    323.55461    37426.586 
  164900    295.09955   -1535.5037    504.05846    300.32318   -212.44901    37426.586 
  165000    303.11254   -1534.0055     487.8025    321.72767   -57.411784    37426.586 
  165100    307.80368   -1526.9145    489.35609    351.54315   -357.84772    37426.586 
  165200    290.63317   -1481.6966    481.66971    311.58501   -384.54195    37426.586 
  165300    296.24263   -1490.1342     485.5905    332.38337    -223.3367    37426.586 
  165400    305.95394   -1465.7403     496.9844     411.9978    99.909823    37426.586 
  165500    291.52883   -1459.3589    489.83304    346.12809    160.46706    37426.586 
  165600     291.9568   -1454.1144     487.0368    350.50785     -407.893    37426.586 
  165700    295.34728   -1453.8293    478.06454    357.12169     116.5513    37426.586 
  165800    308.76853   -1432.0938    527.19025     488.5523   -600.43383    37426.586 
  165900    296.45326   -1448.0255    514.25259    404.10474   -525.19064    37426.586 
  166000    290.32203   -1503.1774    451.27663    258.30703    72.522358    37426.586 
  166100    302.16796   -1508.3844    526.89838    382.18179    130.42376    37426.586 
  166200    293.93164   -1476.6339    477.69243    327.55628    128.80884    37426.586 
  166300    296.84137   -1461.8287    516.03252    393.83308    132.89994    37426.586 
  166400    292.61636   -1453.7509    497.32951    364.14056   -73.267492    37426.586 
  166500    295.40512   -1496.2585    489.07694    325.96596    -99.89598    37426.586 
  166600    302.53084   -1468.4594    500.85159    397.69764    71.308802    37426.586 
  166700    302.26308    -1476.267    497.04173     384.8718    642.53415    37426.586 
  166800    297.75171   -1486.7646    472.70944    329.68243    423.29195    37426.586 
  166900    295.99474    -1498.577    482.09313    319.32456    -38.36928    37426.586 
  167000    295.61877    -1475.672      482.643    341.08267    234.16152    37426.586 
  167100    300.31788   -1448.1004    497.67948    404.89754   -424.58342    37426.586 
  167200    302.83421   -1486.6142    490.01881    370.07913   -678.60831    37426.586 
  167300    297.50987   -1510.8648    458.45622    290.23752   -588.95355    37426.586 
  167400    309.26798   -1484.1712    476.68747    388.22607    75.368242    37426.586 
  167500    297.22593   -1497.8646     494.7572     338.2573     13.84316    37426.586 
  167600    296.96963   -1491.6732    480.52995    329.06477    3.7502022    37426.586 
  167700    305.14781   -1485.3256    493.06039    384.85056   -72.893271    37426.586 
  167800    291.87529   -1490.1411    473.85999    300.93642   -63.691131    37426.586 
  167900    285.62626   -1484.2139    478.76527    283.56737  -0.76764547    37426.586 
  168000    288.25645   -1464.2442    496.76085    333.40257   -11.290371    37426.586 
  168100    305.39042    -1445.309    487.89144    420.79305   -46.944917    37426.586 
  168200    291.96189   -1450.0799    484.62307    352.15155   -37.184756    37426.586 
  168300    294.47064   -1427.8384    504.16687    405.25865   -97.665074    37426.586 
  168400    296.27542   -1430.1187    477.90448    384.86092   -94.500397    37426.586 
  168500    299.35508   -1451.6397    483.66863    383.00239   -443.39655    37426.586 
  168600    301.79419   -1448.9304    489.85064    402.90123   -1017.2756    37426.586 
  168700    295.51431   -1482.0148    505.45526    357.08071   -509.70781    37426.586 
  168800    307.57047   -1497.3724    478.74522    369.42186   -657.97144    37426.586 
  168900    298.33578   -1504.4746     518.1336    360.03232   -545.08119    37426.586 
  169000    305.84077   -1471.7451    481.31371    389.81164   -44.905724    37426.586 
  169100    292.16524   -1453.0261     491.1242    356.62415   -11.205513    37426.586 
  169200    288.35937   -1487.1563    504.30828    318.50239    337.10049    37426.586 
  169300    303.75018   -1468.0448    510.58873    413.35219    184.88124    37426.586 
  169400    293.16948   -1482.9763    499.64585    339.72774    190.87643    37426.586 
  169500    296.18886   -1458.3982    496.99101    375.27726    170.99546    37426.586 
  169600     296.4091   -1452.3122    505.45401     390.8202    23.127579    37426.586 
  169700     297.4631   -1450.0634    490.16554    382.53722    163.89388    37426.586 
  169800    295.69489   -1464.7918    496.73738    366.40077   -108.59506    37426.586 
  169900    300.79125   -1483.1754    484.70646    358.98586    6.7754341    37426.586 
  170000    292.13594   -1467.5495    507.00494    357.84922    367.93982    37426.586 
  170100    309.88038   -1499.4446     484.2544    383.28336    215.29517    37426.586 
  170200    293.93071   -1472.8983    488.41404    342.00924    10.751091    37426.586 
  170300     289.1319   -1469.3524    505.62719    341.11151   -591.91715    37426.586 
  170400    296.10705   -1485.8275    499.11968    349.60747   -177.99451    37426.586 
  170500    300.31202   -1527.6698    512.19329    339.81552   -447.55537    37426.586 
  170600    302.47998   -1503.6585    472.64917    334.06663   -477.85695    37426.586 
  170700    307.77626   -1508.5269    504.17073    384.62155   -769.17975    37426.586 
  170800    290.76949   -1468.8859    504.34131    347.68251   -459.74942    37426.586 
  170900    309.17089   -1519.6367    476.07671    351.71171   -395.44593    37426.586 
  171000    307.90821   -1462.6715    502.46418    429.36589    297.55581    37426.586 
  171100    301.80913   -1522.4069    511.08879    350.73034    667.08954    37426.586 
  171200    304.31681   -1478.6333    489.21868    383.95085    367.03915    37426.586 
  171300    303.12624   -1492.5852    490.66386    366.07113      252.333    37426.586 
  171400    297.37051    -1478.732    518.80289    382.08812    816.13657    37426.586 
  171500    303.17969   -1455.9882    494.64209    406.88758    575.09729    37426.586 
  171600    309.30115   -1472.0097    527.72298    451.57276    601.12112    37426.586 
  171700    306.79894   -1476.7839    507.65614    415.43945    312.95884    37426.586 
  171800    303.84438   -1473.2138    502.53832    400.55794    575.65861    37426.586 
  171900    307.71303   -1479.8031    503.11155    412.00086   -167.26831    37426.586 
  172000    298.37064   -1463.5238    478.35104    361.35797   -248.99674    37426.586 
  172100    298.86767    -1495.253    515.12159    368.64232    442.11088    37426.586 
  172200    302.04658   -1479.2664    473.30666    357.16026    440.27901    37426.586 
  172300    303.23819   -1486.0126    507.31824    389.80335    740.68292    37426.586 
  172400    293.75596   -1506.7225    515.43139    334.41383   -213.58072    37426.586 
  172500    294.34487   -1472.0051    502.87109    359.22855   -328.56613    37426.586 
  172600    298.86877    -1476.822    492.07463    364.03141   -14.129008    37426.586 
  172700    298.89139   -1452.6223    498.21094    394.46942   -263.31582    37426.586 
  172800    304.30182   -1468.6479    524.03845    428.68832   -239.49452    37426.586 
  172900    305.19387    -1443.862     515.0112    448.47284   -426.20889    37426.586 
  173000    297.46761   -1449.0874    494.52564    387.89357    317.08931    37426.586 
  173100    303.68275   -1445.6464    497.54181    422.39937   -228.72631    37426.586 
  173200    306.25093   -1442.5591    491.23714    430.77207   -235.91097    37426.586 
  173300    308.36219   -1479.2217    494.36456    406.76495   -339.85643    37426.586 
  173400    291.07652   -1462.9395    468.78425    319.45748   -456.53815    37426.586 
  173500    302.65389   -1452.2311    498.34115    411.97079    -721.7305    37426.586 
  173600    297.95528   -1392.3577    501.57934    453.87784    -35.27973    37426.586 
  173700     303.0635    -1491.996    457.75381    333.46718   -131.64726    37426.586 
  173800    302.45614   -1462.0243    503.06906     406.0131     535.2276    37426.586 
  173900    292.23076   -1448.4905    491.90892    362.24018    669.98857    37426.586 
  174000    305.29823   -1492.3468    491.16036    376.60812      420.376    37426.586 
  174100     307.0541   -1502.2512    517.37258    400.84009    354.36595    37426.586 
  174200    302.71332    -1501.172    467.36884    332.32585    656.32202    37426.586 
  174300     292.1092   -1524.5995    493.73427    287.40795   -429.89654    37426.586 
  174400    307.54856   -1482.6308    502.50095    407.82032     154.3995    37426.586 
  174500    286.29919   -1467.4808    486.89009    311.46215   -646.93391    37426.586 
  174600    293.15285   -1451.6804     504.1887    375.49138    324.41945    37426.586 
  174700    298.39853   -1456.3313    478.86432    369.18964    487.32502    37426.586 
  174800    306.71921   -1462.6313    518.80568    440.38172    346.39469    37426.586 
  174900    302.11964   -1461.7236    464.06234    365.78849    663.69919    37426.586 
  175000     293.0819   -1464.6717    483.30525    341.29647   -306.81604    37426.586 
  175100    295.57387   -1479.0672    492.63276    347.47464   -134.74929    37426.586 
  175200    302.34024   -1487.7766    501.35385    378.02258   -179.42587    37426.586 
  175300    308.06153   -1470.1439    495.00978    415.13107   -527.84336    37426.586 
  175400    297.20557   -1480.1363       492.28    353.41651   -449.95628    37426.586 
  175500    311.77454   -1470.6812    504.37749    440.71801    433.51332    37426.586 
  175600    303.21233   -1421.4564    506.86163    453.78626    403.55785    37426.586 
  175700    299.33113   -1421.8768    489.48025    418.46882    502.77602    37426.586 
  175800    299.19858   -1451.8189    483.27921    381.72749     578.5023    37426.586 
  175900    306.29169   -1410.2522    523.96331    495.98911    1077.7381    37426.586 
  176000    299.38758   -1413.2194    498.33059     436.2313    711.24308    37426.586 
  176100    296.93231   -1439.9576    515.12893    415.21093    437.01877    37426.586 
  176200    295.12979   -1470.1458    507.88282      369.642    902.88626    37426.586 
  176300     297.0388   -1480.3566    500.92794    361.09149    455.35839    37426.586 
  176400    315.33469   -1472.5172    521.16604    471.73742     456.4939    37426.586 
  176500    302.43379   -1446.3379    478.80781    397.33736    273.84234    37426.586 
  176600    305.09605   -1450.6887    492.32415    418.51757    46.316208    37426.586 
  176700    312.00215   -1466.3345     481.2825    422.99696    88.126397    37426.586 
  176800    307.50919   -1458.4116    489.26945    418.63037    208.95329    37426.586 
  176900    308.70965   -1465.7576    477.03639    404.46887    170.74677    37426.586 
  177000     304.8809   -1482.7198     508.9562    402.14762   -64.633768    37426.586 
  177100    298.44812   -1491.2067     515.3848    371.05845    356.19993    37426.586 
  177200     300.4506   -1497.4087    482.55952    341.06826   -268.84339    37426.586 
  177300    297.14576   -1475.4908    494.46887    359.98094   -685.10695    37426.586 
  177400    300.23355   -1455.3786    483.34737    382.90666    84.510004    37426.586 
  177500    303.30338    -1488.787    521.17332    401.17822   -73.305606    37426.586 
  177600    299.20135   -1509.2773    482.79893    323.80131   -453.03307    37426.586 
  177700    301.39794   -1514.2015    484.02373    330.01498   -503.32226    37426.586 
  177800    310.32451   -1478.9743    469.26241    390.76596   -258.47141    37426.586 
  177900    296.09611   -1484.4819    489.20545    340.98943    111.77905    37426.586 
  178000    297.04349   -1501.5449    516.44199    355.43843    166.33317    37426.586 
  178100    303.52715    -1517.687    470.90718    323.02192     178.5632    37426.586 
  178200     298.9487   -1500.1353     489.5578    338.56196   -238.38803    37426.586 
  178300    298.59984   -1452.0437    507.20827    402.72961   -460.38604    37426.586 
  178400    289.49861   -1482.9276    468.66491    292.22899   -608.61719    37426.586 
  178500    302.60753   -1479.2449    494.01923    380.42589   -662.53629    37426.586 
  178600    293.07337   -1460.5705    502.72329    364.77722   -470.57891    37426.586 
  178700    296.55774   -1434.7287    486.32731    389.94777   -963.56769    37426.586 
  178800    307.70808    -1442.356    487.72685    434.04094   -960.37562    37426.586 
  178900    308.13111   -1488.5079    481.18107    383.25238   -470.00298    37426.586 
  179000      312.483   -1473.9091    483.77683    420.08671     307.1872    37426.586 
  179100    306.96135    -1491.441    491.64251    385.50166    325.68961    37426.586 
  179200    301.23339   -1472.3202    501.13223    388.26221   -59.111469    37426.586 
  179300    297.84124   -1470.0615    472.18774    346.26783    350.09217    37426.586 
  179400      309.703   -1486.8492    487.03684    397.86071    472.66963    37426.586 
  179500    298.23639   -1491.7606    492.45081    346.61505    384.89489    37426.586 
  179600     307.0383   -1481.7826    517.06125      420.926    60.469832    37426.586 
  179700    305.70327   -1455.5281    495.75706    419.85146    596.41932    37426.586 
  179800    306.36199   -1433.1555    490.76399    440.20371   -194.21744    37426.586 
  179900    296.02706   -1385.8018    490.77662    440.92905   -347.45503    37426.586 
  180000    307.58995   -1454.9435    512.78228    445.97571   -608.20824    37426.586 
  180100    296.85382   -1483.8848    503.10981    358.91034   -803.20549    37426.586 
  180200      295.778   -1443.1728    480.06353      371.721   -511.64655    37426.586 
  180300    292.70108   -1423.1151    506.67171    404.50087   -133.27344    37426.586 
  180400     308.5242   -1435.0042    505.44811    462.79709    510.83451    37426.586 
  180500    303.64576   -1463.4139    507.08566    414.00883    680.49977    37426.586 
  180600    303.34411   -1424.6556    536.59784    480.91791    707.58136    37426.586 
  180700    292.69891   -1414.4668     497.8928    404.36054    475.12366    37426.586 
  180800    301.91891   -1412.1853    524.65609    475.01459    207.71642    37426.586 
  180900    309.30995    -1436.019    468.82305     428.7033    23.890315    37426.586 
  181000    292.90608   -1437.3768    517.56266     402.0553   -362.44836    37426.586 
  181100    300.92787   -1422.1416    485.09526    421.02503   -171.57754    37426.586 
  181200    298.46537   -1445.7176    473.24429    374.48488   -709.56367    37426.586 
  181300    299.95891   -1481.0071    481.02178    353.71314   -364.29239    37426.586 
  181400    295.50957   -1491.8486     515.6862    357.45646    -99.52074    37426.586 
  181500    302.02488   -1463.2783     501.6035    401.34735    -313.5755    37426.586 
  181600    294.62801   -1457.8222    493.15926    364.97744    -297.3175    37426.586 
  181700    302.08586   -1472.3837    474.85117    365.76481   -445.58452    37426.586 
  181800    289.83004   -1515.7977    484.69721    276.88699   -839.58363    37426.586 
  181900    302.66028   -1470.6862     477.5536    372.75697   -753.73495    37426.586 
  182000    308.61451   -1452.3515    488.72284    429.13214   -554.65944    37426.586 
  182100    300.03271   -1456.2921    507.56912    405.30857    -10.04038    37426.586 
  182200    303.66807   -1462.8988    487.62535    395.16423   -377.11219    37426.586 
  182300    301.20942    -1469.698    480.99266    370.63668   -806.94186    37426.586 
  182400    310.59139   -1453.5132    507.73188    455.90099   -684.40958    37426.586 
  182500    302.70322   -1480.8766    517.05121    402.25802   -298.44564    37426.586 
  182600    291.57777   -1488.5973    513.14012    340.41764   -482.58625    37426.586 
  182700    297.15727   -1469.2343    493.86036    365.68089   -285.46345    37426.586 
  182800    306.71089   -1540.9917    484.25302    327.43112   -179.78741    37426.586 
  182900    303.46083   -1529.9227    498.44558    338.02532    -57.58854    37426.586 
  183000    307.30988   -1522.1553     479.0775    343.79526   -520.51817    37426.586 
  183100    295.67279   -1539.4594    502.13596    297.03205   -16.396618    37426.586 
  183200    303.39002   -1561.6377    468.65291    276.19816   -149.08446    37426.586 
  183300    297.51041   -1554.7379    483.03756    270.94817    203.73876    37426.586 
  183400    309.41286   -1518.6902    488.15254    365.82601    735.90827    37426.586 
  183500     309.6812   -1521.9413    493.02919    368.66251    900.86705    37426.586 
  183600    299.28898   -1487.9663    500.27045    362.97925    59.106103    37426.586 
  183700    301.04955   -1507.3739    522.27003    373.51661   -6.5664349    37426.586 
  183800    297.70964   -1510.6961    499.98401    332.83557    256.05115    37426.586 
  183900    300.16954   -1513.1362    464.75409    306.26696   -291.83554    37426.586 
  184000    297.36988   -1498.3296    534.86345    378.54812   -549.44129    37426.586 
  184100    302.52289   -1542.9858    504.05903    326.34279   -129.38528    37426.586 
  184200    310.31464   -1485.5743     489.4635    404.32255   -178.96516    37426.586 
  184300    294.06874    -1517.647     495.2095    304.67898   -597.59237    37426.586 
  184400    299.74901   -1509.2588    477.85757    321.35003    255.01015    37426.586 
  184500    295.83838   -1483.7001     492.8146    344.21732   -187.20757    37426.586 
  184600     309.6226    -1457.835    500.63666    440.11186   -419.57024    37426.586 
  184700    300.07007    -1511.901    481.39659    323.69573   -116.34119    37426.586 
  184800    292.49922   -1465.0137    499.64875    354.66833   -381.71405    37426.586 
  184900    297.10927   -1458.2692    500.76996    383.33895   -315.50808    37426.586 
  185000    305.86091   -1483.7943    493.70027    390.23993    746.02153    37426.586 
  185100    299.17255   -1450.6485    514.85379    414.35497    513.19459    37426.586 
  185200    295.94881   -1459.3254    495.03223      371.308    134.20182    37426.586 
  185300    290.50862   -1498.2767    489.03536    301.80853    53.760888    37426.586 
  185400     287.7979   -1502.4851    492.57003    288.90139   -247.32683    37426.586 
  185500    305.77577   -1526.1052    490.91254    344.75703     639.5217    37426.586 
  185600    294.35247   -1543.6569    482.06317    266.80314    511.57655    37426.586 
  185700    315.69234   -1548.8824     486.3315    362.15169    476.79835    37426.586 
  185800    297.22053   -1502.3874    470.84596    309.79889    761.49547    37426.586 
  185900    291.34786   -1492.0586    498.87941    321.65814    993.88689    37426.586 
  186000    298.51282   -1492.3368    476.25508    331.09065    722.44984    37426.586 
  186100    299.55487   -1492.5679    487.08781    346.39502    662.25178    37426.586 
  186200      304.558   -1556.2755    491.51664    309.69507    523.55756    37426.586 
  186300    291.00652     -1521.75    496.24764    287.79445     997.8153    37426.586 
  186400    296.30462   -1529.1231    520.01519    328.09896    1257.8899    37426.586 
  186500    300.37233   -1562.9178    475.58722    268.23368    642.82138    37426.586 
  186600    303.46221   -1504.1811    487.02261    352.35021    719.37636    37426.586 
  186700    301.03352   -1545.6863     500.8668    313.72869   -97.434684    37426.586 
  186800    285.69213   -1562.6032    488.44843    215.15854    373.67252    37426.586 
  186900    305.96685   -1497.0488    528.73053    412.49375    414.06338    37426.586 
  187000    298.14933   -1489.8409    510.96766    366.65866    647.27368    37426.586 
  187100    298.41292   -1532.8177    474.63963    288.54342    456.03825    37426.586 
  187200    290.85521   -1559.8995    482.63239    235.34687    263.29726    37426.586 
  187300    304.12081   -1546.2867    492.78926     318.9835    492.12456    37426.586 
  187400    305.98723   -1535.9484    487.96718    332.92276    94.263315    37426.586 
  187500    299.98167   -1524.5207    445.34514    274.62564    52.728352    37426.586 
  187600    301.03617   -1523.7428    504.72216    339.53943    233.44249    37426.586 
  187700    306.55605   -1508.2949    526.33339    401.50948     296.2612    37426.586 
  187800     287.8815   -1490.5022     472.8362    281.52773    67.360868    37426.586 
  187900    299.35199   -1467.1255    507.65317     391.4872   -432.93199    37426.586 
  188000    287.89939   -1492.5015    492.07711    298.85015   -489.92424    37426.586 
  188100     303.3563   -1515.8732    501.43686    354.59441   -416.83867    37426.586 
  188200    301.33298   -1513.1667    480.93727    327.67016   -197.62582    37426.586 
  188300    301.06004   -1521.7001    507.67548     344.6432    -161.7818    37426.586 
  188400    297.95498   -1469.9521    513.40355     388.1063     64.29712    37426.586 
  188500    305.13763   -1490.3963    503.98703    390.66053    320.80164    37426.586 
  188600    294.51733     -1486.78    499.40538    341.76632   -303.16011    37426.586 
  188700    306.00232   -1479.0499    490.56813    392.49033   -214.44364    37426.586 
  188800    302.64878   -1498.5654    500.46183    367.73415    9.5262233    37426.586 
  188900    293.38512    -1472.648    508.74711    360.13042   -640.31636    37426.586 
  189000     301.3282   -1449.2111    487.50338    398.17027   -270.76689    37426.586 
  189100    307.87499   -1478.2641    544.47673    455.63601   -38.438587    37426.586 
  189200    300.99887   -1484.3412    501.19224    375.24284    127.66202    37426.586 
  189300    300.24166   -1402.6371    495.09408    447.43151   -122.67575    37426.586 
  189400    293.06421   -1463.5227    522.11525    381.17562    375.79115    37426.586 
  189500    295.29473   -1457.1268    485.21263    360.73512   -155.16271    37426.586 
  189600    307.26177   -1464.3733    509.16052    431.44315    191.00669    37426.586 
  189700    300.95792   -1462.5272    503.89183    399.57158     92.91297    37426.586 
  189800    302.59344    -1444.216    517.03054    438.40249    36.163404    37426.586 
  189900     309.2041   -1434.3613    491.17229    452.23247    173.03732    37426.586 
  190000    304.22233   -1507.4429    501.21655    366.71268    240.90529    37426.586 
  190100    306.31925   -1467.7023    521.80032    436.50034    768.58177    37426.586 
  190200    293.50081   -1450.1676    503.95366    378.33952   -49.203516    37426.586 
  190300    305.66443   -1477.4929    493.80126    395.75557    441.54079    37426.586 
  190400    309.24288   -1478.2418    468.74411    386.09884   -72.216009    37426.586 
  190500    302.43139   -1469.4297    515.50425     410.9312   -78.215035    37426.586 
  190600    306.35772   -1476.3819    505.30666    411.50071   -835.92492    37426.586 
  190700    290.32228   -1427.1982    472.81086    355.82154   -427.75393    37426.586 
  190800    291.73791   -1472.0654    478.58748    323.11965    43.269664    37426.586 
  190900    293.76042   -1470.9998    483.32188    338.04718   -121.40217    37426.586 
  191000    301.79362   -1480.0301    506.21739    388.16579    444.67495    37426.586 
  191100    306.85936   -1468.7464     497.8356    413.92906     609.6229    37426.586 
  191200    298.09787   -1456.4713    497.10429    385.93274    883.00593    37426.586 
  191300    294.73023   -1499.9689     504.1271    334.25994    365.72008    37426.586 
  191400    305.50278   -1447.1168    490.09065    421.69152    76.527228    37426.586 
  191500    308.53535   -1443.9826    490.16297    438.58387     374.8114    37426.586 
  191600    302.85145   -1446.5011    481.34687    401.59812     537.5579    37426.586 
  191700    300.18292   -1482.8878    489.96483    361.78652    103.30933    37426.586 
  191800    306.17245   -1505.7725    469.61156    345.57887    664.02429    37426.586 
  191900    300.86158   -1505.7674    467.98317     319.9879    501.40742    37426.586 
  192000    305.23192   -1468.2764    490.68535    399.90425    654.99898    37426.586 
  192100    290.05425   -1480.8383    482.86402    311.02501    574.11412    37426.586 
  192200    303.26898   -1472.2476    488.70309    385.09219    315.93495    37426.586 
  192300    300.56269   -1478.9421    493.41873    370.89991   -344.20303    37426.586 
  192400    294.93501   -1476.2408    484.03334    338.81845    21.655731    37426.586 
  192500    304.37053   -1465.6475    461.08416    369.04459   -398.26457    37426.586 
  192600    308.94594   -1449.4295    474.78685    419.61383    173.67568    37426.586 
  192700    297.06885   -1437.2301    493.31253    396.73827   -365.09023    37426.586 
  192800    304.28161   -1447.5477    491.36478    417.02361    197.78087    37426.586 
  192900    297.65363   -1488.9965     478.6196    332.91798    582.99312    37426.586 
  193000    304.35583   -1455.1968    483.59648    401.94127    159.50411    37426.586 
  193100    299.30797   -1492.5142    484.81315    343.05977    64.973289    37426.586 
  193200    306.10814   -1498.3555     481.5031    364.59722   -306.03759    37426.586 
  193300    312.75279   -1471.1298    474.93049    415.23728   -241.90111    37426.586 
  193400    295.07052   -1460.8721    476.43467    347.20007   -467.58117    37426.586 
  193500    304.98564    -1456.739     494.5728    414.21764   -524.87888    37426.586 
  193600     299.4456   -1443.5088    488.46777    396.34091   -802.86719    37426.586 
  193700    298.09347   -1449.3244    484.65763    380.61308   -747.96954    37426.586 
  193800     325.6568   -1460.5899    520.66521    529.74701    -605.9463    37426.586 
  193900    308.52751   -1430.8268    472.00854    433.54993   -192.39694    37426.586 
  194000     311.6374   -1519.2068    478.84933     366.0454   -95.699075    37426.586 
  194100    295.04472   -1480.1376    493.95041    345.33384   -232.19575    37426.586 
  194200    304.54573    -1506.307     468.2348    336.32632   -636.28863    37426.586 
  194300    296.28966   -1467.2527    506.14814    376.03485   -473.40075    37426.586 
  194400    290.97529    -1522.943    492.74829    282.96118   -130.15065    37426.586 
  194500     297.5214   -1540.3312    502.59476    304.96172   -45.596608    37426.586 
  194600    311.06791   -1505.1762    462.48499    361.14166   -128.93181    37426.586 
  194700    293.13121   -1521.8917    483.30293    284.29665   -278.36684    37426.586 
  194800    297.20114   -1477.4852     490.4802    354.24783    280.84496    37426.586 
  194900    293.77367     -1497.18    510.50481    339.10966    341.62711    37426.586 
  195000    295.26369   -1525.9127    473.05372    279.65019    472.80666    37426.586 
  195100    308.87642   -1561.9827    462.83797    294.79803    408.77206    37426.586 
  195200    296.70781   -1581.3172    480.84266    238.55186   -392.12479    37426.586 
  195300    295.84786   -1573.5956    479.81083    241.36076    333.88094    37426.586 
  195400    304.17642    -1561.735    476.27635    287.27329    48.024308    37426.586 
  195500    296.01916   -1563.7883    480.06868    252.19899    204.71736    37426.586 
  195600    297.83263   -1524.8919    504.29484    323.50564    433.89523    37426.586 
  195700    308.13393   -1563.0992     488.7748    316.26747   -162.87697    37426.586 
  195800    308.58012   -1546.1639    475.89277    322.33441    67.908519    37426.586 
  195900    300.07936   -1509.9249    490.06908    334.38624   -462.94306    37426.586 
  196000    306.51243    -1538.188    477.39345    322.47962     3.775067    37426.586 
  196100    305.17266   -1541.2841    451.47797    287.42175   -1051.6237    37426.586 
  196200    299.81431   -1516.3399    493.01631    329.72232   -872.55838    37426.586 
  196300    291.75807   -1504.9553    475.11083    286.84401    97.124128    37426.586 
  196400    309.68645   -1526.2641    484.86822    356.20248   -168.87156    37426.586 
  196500     294.4546   -1515.8829    471.95714    284.93203   -51.298111    37426.586 
  196600    300.07159   -1521.9577    464.37283    296.62215   -154.03876    37426.586 
  196700    304.40363   -1491.5578    475.49717    357.69668    274.06521    37426.586 
  196800    304.30009   -1507.9296    497.79726    363.15767    119.18507    37426.586 
  196900    297.38167   -1550.4287    452.80046    244.43926   -537.05751    37426.586 
  197000    301.70353   -1512.9427     479.3694    327.99855   -243.51059    37426.586 
  197100    302.87023   -1522.4424    485.47466    329.86936   -233.33394    37426.586 
  197200    306.02058    -1535.094    480.86049    326.82092   -468.83247    37426.586 
  197300    300.61473   -1493.8367    490.19519    353.01669   -147.24918    37426.586 
  197400    292.88003   -1505.4384    462.97396    279.28744    235.50634    37426.586 
  197500    304.64821   -1531.8678      477.931    320.92426    627.33652    37426.586 
  197600     302.5368   -1505.3723    514.18481    374.14486    933.74047    37426.586 
  197700    299.47873   -1476.9804    485.94735    360.49838    536.86264    37426.586 
  197800     293.0319   -1487.6669    514.24811    349.01846     288.5635    37426.586 
  197900    301.91915   -1482.6061    497.69217      377.631    711.50891    37426.586 
  198000    297.35263   -1515.4918    473.67513     300.1198    563.27645    37426.586 
  198100    298.64776   -1498.7488    469.89621    318.92879   -200.33652    37426.586 
  198200    292.66687   -1470.5284    495.34256    345.60406   -786.73411    37426.586 
  198300    295.03647   -1464.4557    469.98406    337.01213   -594.68472    37426.586 
  198400    296.02651   -1496.6018    473.26071     312.6107   -331.85723    37426.586 
  198500    306.83163    -1487.321    489.30743    386.70108   -7.3398194    37426.586 
  198600    310.23293   -1464.6972    498.67607    434.04347    371.53857    37426.586 
  198700    300.70962    -1459.404    491.54975    389.23215   -124.74829    37426.586 
  198800    296.25244   -1485.1488    497.28247    349.10503   -111.01797    37426.586 
  198900    298.98899   -1450.7068    501.37662    399.99112     120.2062    37426.586 
  199000    304.41009   -1481.5982    492.16379    384.35202   -271.20461    37426.586 
  199100    306.67418   -1491.2857    482.93973    375.65818    316.99577    37426.586 
  199200    304.59988   -1487.2746    482.61859    369.98688    198.03078    37426.586 
  199300    295.99805   -1488.3611    495.28859    342.75081    74.246592    37426.586 
  199400    301.72795   -1491.6354    493.47514    363.52181   -36.190068    37426.586 
  199500    291.56036   -1452.0472    495.64097    359.39007    -127.7202    37426.586 
  199600    308.10499   -1453.8115    483.54782    420.19765   -136.49378    37426.586 
  199700    297.68598   -1444.9653    512.71552    411.19109   -331.72972    37426.586 
  199800    293.79053   -1462.1545     462.7781    326.48457   -70.986399    37426.586 
  199900    301.33247    -1465.222    507.24775    401.92305    188.88045    37426.586 
  200000    295.41404   -1445.4628    463.70083    351.42578   -13.052976    37426.586 
  200100    300.89541   -1475.3098    519.74191      402.357   -393.47946    37426.586 
  200200    298.08932   -1501.4545    466.50047    310.30709   -189.11777    37426.586 
  200300    301.79098   -1455.5311    486.45677    392.89217   -145.44612    37426.586 
  200400      306.158   -1452.3311    506.03378    435.37739    104.54637    37426.586 
  200500    297.77638    -1404.151     518.1059    457.80378   -417.68679    37426.586 
  200600    302.61418   -1413.8783    515.07241    466.87564   -123.90022    37426.586 
  200700    301.10889   -1454.2019    500.52972    405.21605    65.300767    37426.586 
  200800    295.59147   -1500.4736    481.64607    315.16095    413.79889    37426.586 
  200900    303.37183   -1477.6491    485.65674    377.10847    463.53671    37426.586 
  201000    289.54146   -1477.8541    520.83854    349.66948    126.60345    37426.586 
  201100    303.66358   -1495.0236    475.52422    350.91806    587.84713    37426.586 
  201200    301.32212   -1508.1923    497.86845     349.5267    546.03613    37426.586 
  201300    298.78005   -1481.0814    492.40053    359.69747    449.83113    37426.586 
  201400     299.1511   -1470.6954    491.41231    370.76977   -415.61628    37426.586 
  201500    307.42667   -1484.2892    480.69867     383.8096   -126.72613    37426.586 
  201600    302.78065   -1470.0547    489.59894    385.97706   -225.40319    37426.586 
  201700    292.02066   -1513.5989    494.92651    299.20117   -57.728514    37426.586 
  201800     296.6441    -1541.153    498.83116    296.41709    150.71863    37426.586 
  201900    307.25717   -1514.0731    491.19848    363.76059   -114.13513    37426.586 
  202000    297.32315   -1462.8095    486.13461    365.12855     18.68865    37426.586 
  202100    296.78506   -1491.7353    484.64884    332.28865   -727.07765    37426.586 
  202200    303.59116   -1479.5856    484.91784    375.42287   -481.63359    37426.586 
  202300    310.31272    -1487.107    484.42639    397.74401   -2.7638208    37426.586 
  202400    306.42003   -1487.1886    491.42698    387.09558   -371.26246    37426.586 
  202500    298.93424   -1487.5535    476.16794    337.68864      209.787    37426.586 
  202600    307.83895   -1487.9038    495.03034    396.38718    296.63397    37426.586 
  202700    300.76727   -1565.6119    493.94619    285.68088    84.538829    37426.586 
  202800    310.42026   -1598.6404     474.5148    276.78441    93.421511    37426.586 
  202900    293.27929    -1576.172    497.44548    244.82722    130.15021    37426.586 
  203000    293.53868   -1596.0912     490.9852    219.61832    207.26113    37426.586 
  203100    303.06029   -1596.4344    468.11589    239.37634    480.26318    37426.586 
  203200    299.70186   -1539.6266    502.73672    315.64858     511.0386    37426.586 
  203300    304.03832    -1532.353    467.71328    307.46891    693.09396    37426.586 
  203400    304.17946   -1550.8659     472.5332    294.41292    517.63742    37426.586 
  203500    302.76413   -1481.0346    515.70326    401.02695    775.74672    37426.586 
  203600    300.88938   -1519.5381    489.95403    328.31352     573.3438    37426.586 
  203700    301.52662   -1516.6931    489.11363    333.19404    407.50444    37426.586 
  203800    293.71504   -1557.1196    501.27172    269.67236    478.11191    37426.586 
  203900    300.20828    -1526.632    497.44684    325.63879   -62.667907    37426.586 
  204000    295.16358   -1515.2993    495.76388    312.52205    322.70004    37426.586 
  204100    304.21582   -1472.6029    495.05702    395.36383    60.934201    37426.586 
  204200    304.18076    -1536.452    493.99149      330.291    -5.680549    37426.586 
  204300    294.62239    -1554.455    481.81252    256.97255   -289.61327    37426.586 
  204400    301.65419   -1556.3675     462.9304    267.91204    401.50885    37426.586 
  204500    300.76983   -1566.2203    476.81994    267.95774    559.50886    37426.586 
  204600    298.85824   -1536.2809    500.16137    312.61173    622.40618    37426.586 
  204700    304.71679   -1497.1909     487.8725    365.85217   -83.477174    37426.586 
  204800    307.90228   -1518.0442    503.63856    375.14083    160.44899    37426.586 
  204900    300.97433   -1517.4944    497.66162    338.44821    293.33202    37426.586 
  205000    308.22141   -1498.7379    521.75986    414.00867    31.972646    37426.586 
  205100    296.81345   -1565.2658    470.06496    244.30236   -113.69174    37426.586 
  205200    311.67051   -1507.7298    517.09965    415.92213   -313.41432    37426.586 
  205300     311.6822   -1583.5805     465.3384    288.36294   -306.33955    37426.586 
  205400      304.772   -1531.1617    462.57407    306.83211    10.590736    37426.586 
  205500    304.95087    -1564.919    515.68898    326.99685   -325.17268    37426.586 
  205600    292.77843   -1517.2459    488.85224    292.89975   -449.25967    37426.586 
  205700    306.01577   -1494.9241    493.37363    379.48231       113.39    37426.586 
  205800    312.24926   -1491.4799    505.12402    422.80827   -35.984143    37426.586 
  205900    312.24154   -1508.7183    477.07551    377.48655   -303.65206    37426.586 
  206000      307.625   -1500.0565    489.07513    377.31373    38.166107    37426.586 
  206100    311.55541   -1457.8915    500.10232    448.24373   -186.84676    37426.586 
  206200    303.81599   -1444.6004    490.96668    417.47157   -166.40197    37426.586 
  206300    295.26261   -1462.4313    473.08387    343.15688   -19.557548    37426.586 
  206400    300.41717   -1487.0999    512.39636    381.06307   -740.93436    37426.586 
  206500    297.38756   -1472.2532    494.43079    364.27173   -570.70641    37426.586 
  206600    293.47973   -1458.9118    499.70166    365.24817   -661.64357    37426.586 
  206700    307.05469   -1446.9854    506.69855    445.43454    -25.05558    37426.586 
  206800    310.63942   -1497.8461    476.97844    381.03136     253.3585    37426.586 
  206900    312.36048   -1479.9472    493.00301    422.72194    106.58408    37426.586 
  207000    288.81254   -1518.1751    514.55691    299.77734   -92.463153    37426.586 
  207100    330.37239   -1525.3958    445.38067    410.93778    231.52987    37426.586 
  207200    258.98939   -1510.7091    559.54657     217.6427   -65.886104    37426.586 
  207300    300.21309   -1505.7178    514.96557    364.09339   -79.715628    37426.586 
  207400    292.07091   -1470.8157    502.80731    350.09204   -361.69175    37426.586 
  207500       292.87   -1505.0158    523.30498    339.99583   -443.23955    37426.586 
  207600    301.56864   -1494.7757    501.24437    367.43179    14.636775    37426.586 
  207700    304.25418   -1498.8295    499.13213    373.38544    516.28375    37426.586 
  207800    305.91709   -1523.2703    498.62984    355.94699   -15.868858    37426.586 
  207900     300.9183   -1455.1576    531.50413    434.37467    604.62396    37426.586 
  208000    290.35829   -1480.1514    503.47021    333.69016     244.5459    37426.586 
  208100    289.88689   -1456.5643    510.97145     362.6512   -634.24724    37426.586 
  208200    295.99169   -1504.6157    518.81915    349.99804   -588.30263    37426.586 
  208300    309.30142   -1473.8724    492.88145    414.86978   -130.60502    37426.586 
  208400    297.61449   -1501.0006    527.96554    370.08318    477.87636    37426.586 
  208500    297.05138   -1466.0274    506.66921    381.21877    243.91734    37426.586 
  208600    311.47443   -1449.2633    505.36738    461.77152    115.29933    37426.586 
  208700    307.04629   -1470.7668    503.18683    418.10348   -758.12533    37426.586 
  208800    296.84159   -1479.9506    518.00881    377.68838   -559.27675    37426.586 
  208900    299.37193   -1510.4991    500.91124    341.46165   -56.935105    37426.586 
  209000    303.98151    -1498.578    502.15398    375.42824    111.51628    37426.586 
  209100    292.83817   -1471.0295    481.47243    332.00593    41.091155    37426.586 
  209200    285.30024   -1479.7029    500.48541     308.3272   -225.74312    37426.586 
  209300    291.23322   -1445.0236    508.89823    378.19456    228.82766    37426.586 
  209400    303.62227   -1486.2532    531.34128    415.31915    638.39481    37426.586 
  209500    292.39504    -1531.992    506.57991    294.15103    870.21119    37426.586 
  209600    292.97252   -1562.8067    483.71886     243.0814    439.90993    37426.586 
  209700    298.91608   -1550.4517    491.01134    289.55189    237.59961    37426.586 
  209800    303.24262   -1544.3399    517.97689    342.15474    159.16657    37426.586 
  209900    306.22408   -1527.7844    524.65179     378.8403    1024.1888    37426.586 
  210000    303.42072   -1522.4124    520.82798    367.73705    282.52767    37426.586 
  210100    296.32753   -1484.3489    493.30252    346.26386    581.89299    37426.586 
  210200    301.86421   -1539.3151    517.95969    340.94162    257.63972    37426.586 
  210300    293.17414   -1526.7247    492.15228    288.50673   -12.346466    37426.586 
  210400    305.18304   -1464.6848    500.75479     413.3447    25.063519    37426.586 
  210500    305.04909    -1488.307     512.1687    400.53188    215.33771    37426.586 
  210600    293.85503   -1528.4443    510.10233    307.80997   -46.472584    37426.586 
  210700     298.7678   -1522.3195    504.19509     330.1986    -356.9244    37426.586 
  210800    301.18899     -1491.72    488.95721    356.48701   -304.14987    37426.586 
  210900    288.04565   -1520.1358    488.00959    267.80841   -105.38246    37426.586 
  211000     304.8355   -1530.8979    502.05119    346.85955   -40.720266    37426.586 
  211100    304.62589   -1521.2483     508.0119    361.52393    38.291408    37426.586 
  211200    304.95046   -1504.4599    528.63484        400.4     105.5862    37426.586 
  211300    291.30705   -1501.0367    512.18732    325.80377    8.0823993    37426.586 
  211400    310.15498   -1498.2235    505.39371    406.88296    115.14699    37426.586 
  211500    301.43656   -1526.4771     478.5717    312.46167    99.502316    37426.586 
  211600    287.52141   -1536.2182    561.86737    323.21787    647.28571    37426.586 
  211700     294.5825   -1530.3929    498.73584    297.77794    211.89965    37426.586 
  211800    303.63392   -1515.4044    511.99156    366.87081     190.9621    37426.586 
  211900    291.45518   -1509.0916    523.40743    329.63747   -305.67172    37426.586 
  212000     304.7179   -1499.3745    499.02095    374.82198   -231.31113    37426.586 
  212100    304.64148   -1518.2367    511.30807    367.90204    213.20133    37426.586 
  212200    284.74116   -1571.5684     508.8974    222.35056    363.44576    37426.586 
  212300    294.92363   -1518.3031    535.65231    348.32379    545.86312    37426.586 
  212400    302.25915   -1494.0507    517.34403     387.3727    154.42304    37426.586 
  212500    305.04787    -1520.851    530.75579    386.56946    94.331317    37426.586 
  212600    291.98104   -1518.7242     505.4408    304.41135   -37.258826    37426.586 
  212700     309.6191   -1551.0505    480.95161    327.19553   -202.44621    37426.586 
  212800    297.53289   -1517.1922    511.54729     337.1051   -844.93762    37426.586 
  212900    297.75232   -1477.2636    490.56604    357.04272   -531.40928    37426.586 
  213000    299.58678    -1502.676    538.63246    387.97555   -165.52771    37426.586 
  213100    315.21382   -1533.5248     535.6537    424.67195    476.70278    37426.586 
  213200    304.77439   -1563.5746    496.16825    308.02412    265.57522    37426.586 
  213300    297.89899   -1527.6916     522.7152    339.42578    152.03459    37426.586 
  213400    295.48575   -1512.7144    517.04892    337.84588    519.28496    37426.586 
  213500    294.10914   -1558.5069    514.33747    283.12942    74.933166    37426.586 
  213600    306.23942   -1543.5641    508.24063    346.71866   -234.67857    37426.586 
  213700    302.68449   -1578.9629     526.6076    313.64363   -245.69491    37426.586 
  213800    298.36405   -1569.1981    496.04174    273.34461   -240.50048    37426.586 
  213900    300.35506   -1578.4572    497.63117    274.66022    7.3569273    37426.586 
  214000    301.56337   -1548.6753    487.58104    299.84504   -860.13324    37426.586 
  214100    294.71035   -1538.2061    528.34861    320.15455    82.339838    37426.586 
  214200    308.61923   -1552.5511    505.83066    346.06163    630.11247    37426.586 
  214300    296.58579   -1554.9739    529.95126    313.45309    970.27986    37426.586 
  214400    303.62886   -1513.8009     518.7687    375.22857    715.01991    37426.586 
  214500    308.12745   -1512.0323    536.25029    414.78064    549.79142    37426.586 
  214600    301.20155   -1524.2004    513.37243    348.47852     830.1489    37426.586 
  214700    304.80123   -1484.0848    537.16065    428.62747    941.67083    37426.586 
  214800     302.3235   -1519.4423    528.00758      372.935    233.47722    37426.586 
  214900    295.40857   -1535.2049      490.043    288.00118    73.135288    37426.586 
  215000     296.3361   -1534.9866    535.41722    337.77956    542.15111    37426.586 
  215100    296.80708   -1521.7351    497.96521    315.70452    593.04174    37426.586 
  215200    291.35818   -1552.5279    505.21768     267.5736    338.96951    37426.586 
  215300    301.36078   -1559.7875    516.38579    316.62335   -121.66237    37426.586 
  215400    304.98312   -1551.6676    500.92705    325.63199   -324.63886    37426.586 
  215500    309.73973   -1564.8064    476.50815    309.54052   -267.65434    37426.586 
  215600    304.11209   -1577.8907    520.99564    315.54653      485.186    37426.586 
  215700    298.91429   -1593.9424    496.75398    251.79569    283.72586    37426.586 
  215800    303.35348   -1540.4665    513.04957    341.60103     392.6864    37426.586 
  215900     301.1394   -1519.8418    497.57094    336.75512   -251.92351    37426.586 
  216000    289.50213   -1572.5218    503.11301    237.09886    183.80973    37426.586 
  216100    294.11935   -1575.2993    511.98209    264.02762    192.79609    37426.586 
  216200    295.10539   -1521.2645    517.67843     328.2087    345.73108    37426.586 
  216300    315.06732    -1565.809    486.12623    342.19919    575.85529    37426.586 
  216400    296.15432   -1565.4036    519.90898    291.03395    541.53975    37426.586 
  216500    304.31054   -1535.5136    502.49361    340.31719    302.15873    37426.586 
  216600    302.65128   -1532.4511    529.95847    363.35639    413.83335    37426.586 
  216700     297.7821    -1533.115    524.23364    334.99335    570.88493    37426.586 
  216800     305.4251   -1536.2443    491.99518    334.11799    378.32488    37426.586 
  216900    304.60796   -1549.8391    498.51184    323.35214    275.95667    37426.586 
  217000    300.06998   -1560.5825    507.84151    301.45869    85.799027    37426.586 
  217100    300.78988    -1523.532    528.66728    362.58389    230.82639    37426.586 
  217200    304.86177   -1505.9216    519.17607    389.07927    568.41592    37426.586 
  217300    303.37594   -1510.3261     522.0913     380.8845    328.51726    37426.586 
  217400    289.68899   -1505.8477     536.5491    338.05233    476.08511    37426.586 
  217500    301.89574   -1507.3504    522.04139     377.1303    83.694301    37426.586 
  217600     302.2833   -1508.9637    508.04642    363.27106    204.98674    37426.586 
  217700    292.71825   -1501.1365     523.9581    343.84338   -194.44896    37426.586 
  217800    294.95363   -1506.6569    536.32512    360.77817    715.92999    37426.586 
  217900     308.9835   -1544.4339    505.44781    355.43988    657.86651    37426.586 
  218000    297.51193   -1493.5077    518.37525    367.52296    767.08565    37426.586 
  218100       305.62   -1519.6886    525.73709    385.29516    308.41976    37426.586 
  218200    306.75642   -1522.6967    532.06581    393.74436      777.307    37426.586 
  218300    297.85362   -1513.0682    537.23575    368.36502     535.8014    37426.586 
  218400    301.35204   -1469.0964    526.74592    417.63509    778.96629    37426.586 
  218500    294.82539    -1535.923    521.36626    315.97449     653.4759    37426.586 
  218600    302.83342   -1541.1017    510.87041    336.43975   -15.407659    37426.586 
  218700    309.70451   -1535.7015    513.37095    375.34927   -7.4048786    37426.586 
  218800     285.9772   -1540.8267    516.21437    265.98743   0.33138113    37426.586 
  218900    294.38004   -1540.3307    488.21444    276.40511    374.72799    37426.586 
  219000    297.37004   -1504.3876    500.11965    337.74716   -942.81822    37426.586 
  219100    297.48024   -1479.6571    530.66749    393.52277   -609.29019    37426.586 
  219200    308.87703   -1460.8996    496.67151    429.71738    45.963808    37426.586 
  219300    301.15844   -1495.6443    511.02038    374.48802    336.97395    37426.586 
  219400    299.68653   -1504.0852    496.55896    344.94303   -239.15304    37426.586 
  219500    297.20269    -1445.415    537.49887    433.34363   -43.540774    37426.586 
  219600    297.88311   -1498.1157    518.53741    364.75224    167.31672    37426.586 
  219700    305.87158    -1512.931    518.70728    386.15833    399.33906    37426.586 
  219800    299.34825   -1505.5941    507.97279    353.32129    150.27538    37426.586 
  219900    308.07122   -1491.8925    513.35531    411.77171    451.91844    37426.586 
  220000    306.72003   -1500.1897    521.45139    405.47271   -212.03493    37426.586 
  220100     311.5206   -1485.2342    502.55804     423.1996   -110.56239    37426.586 
  220200    295.32651   -1514.4764    529.78722    348.10349   -672.76451    37426.586 
  220300    292.93353    -1509.788    473.67314    285.87841   -394.92802    37426.586 
  220400    311.99222   -1506.5602    510.27154    411.71549    -339.2414    37426.586 
  220500    289.42176   -1496.2307    512.33451    322.24874   -946.26383    37426.586 
  220600    301.02518   -1532.2869    496.09215    322.31578   -343.13911    37426.586 
  220700    302.23644   -1511.5574    532.12185    384.54127    112.78266    37426.586 
  220800    299.28005   -1576.4016    476.27342    250.50668     237.3199    37426.586 
  220900    290.53288    -1557.102    539.63833    293.69566    622.86845    37426.586 
  221000    289.84177   -1552.0488    494.20992    250.20152   -504.05939    37426.586 
  221100    293.58104   -1506.3853    507.79035    326.32059   -372.44266    37426.586 
  221200    299.91418    -1497.455    481.61905    337.66072    41.891527    37426.586 
  221300    300.98753    -1496.197    507.60482    369.74842   -544.54104    37426.586 
  221400    296.92663   -1488.9667    509.66085    360.70816    -60.04831    37426.586 
  221500    296.20453   -1458.0197    511.96707    390.70249      87.7453    37426.586 
  221600    294.72863   -1472.0516    528.28343    386.32632    107.75847    37426.586 
  221700    302.86996    -1460.107    496.08114    402.81007    58.768775    37426.586 
  221800     294.4368   -1493.5896    521.77952    356.96746   -508.87912    37426.586 
  221900    304.40838   -1489.6939    517.59936    401.68411   -465.72596    37426.586 
  222000    289.77795   -1487.9339    480.44104    300.25948   -293.74201    37426.586 
  222100    288.53974   -1498.8549     502.9964    306.30592   -97.305997    37426.586 
  222200    297.15356   -1442.6746    519.91155      418.275   -326.30716    37426.586 
  222300    299.40901   -1415.9971    532.11195    467.33162   -135.85054    37426.586 
  222400    304.35976   -1463.9994    536.27786    445.83779   -691.75524    37426.586 
  222500    303.01166   -1462.5787    500.09791    404.99459   -171.71515    37426.586 
  222600    300.77714   -1425.9715     496.7476    428.16724   -409.21545    37426.586 
  222700    302.82953   -1493.7837    516.00446    388.87425   -786.26345    37426.586 
  222800    302.39807   -1492.9358     471.9099    343.68042   -229.73898    37426.586 
  222900    300.79793   -1469.8412    517.59447    405.23823   -28.729202    37426.586 
  223000    296.81754   -1489.5546    508.04648    358.01353   -323.46235    37426.586 
  223100    302.78507   -1484.6076    506.25396    388.09916   -978.96785    37426.586 
  223200    293.28763   -1521.4471    508.41957     310.5638   -356.88685    37426.586 
  223300    297.22292   -1537.7299    497.16179    300.78293   -390.24804    37426.586 
  223400    298.57565   -1525.8265    504.89843    326.52786    82.342956    37426.586 
  223500    296.89838   -1521.3241    494.76672    313.32912   -13.960372    37426.586 
  223600    294.41525   -1532.3709    508.55543    304.86482    14.068477    37426.586 
  223700    301.37015   -1546.8625    502.20079    315.40568    90.964631    37426.586 
  223800    303.00017   -1523.0967    508.78668    353.11352    434.78743    37426.586 
  223900    302.27592   -1494.5076    523.28667    392.93413    147.33438    37426.586 
  224000    306.50714   -1496.0863    512.81321    399.97721    208.27897    37426.586 
  224100    302.46808   -1566.1772    495.34183    294.18684   -204.75988    37426.586 
  224200     295.2092   -1555.1017    502.15368    279.31526   -220.45565    37426.586 
  224300    311.77209   -1549.0746    519.82229     377.7584   -405.25528    37426.586 
  224400    290.87067   -1553.8178    461.78163    220.64763   -299.96246    37426.586 
  224500    295.14244   -1575.6003    502.09695    258.45864    330.14108    37426.586 
  224600     303.4694   -1568.7732    490.16064    290.92859    1013.4602    37426.586 
  224700    292.08866   -1551.6916    520.87117    287.36008    132.09591    37426.586 
  224800    296.30513   -1525.3514    506.80236    318.66012    1232.1935    37426.586 
  224900    299.81026    -1518.508    486.86589    321.38552    819.79539    37426.586 
  225000    302.00788   -1491.5525    516.19205    387.58497    728.56509    37426.586 
  225100    311.43307   -1482.9777    506.69212    429.19518    695.51871    37426.586 
  225200    296.04363   -1457.1093    504.44804    383.36775    310.77713    37426.586 
  225300    306.18043   -1505.0982     519.7835    396.46123    80.788242    37426.586 
  225400    296.54941   -1507.2755    492.62233    323.65842    136.68833    37426.586 
  225500    308.06352   -1503.5839    522.58262    409.27286   -350.19896    37426.586 
  225600    296.83509    -1486.515    472.31023    325.39609   -638.47289    37426.586 
  225700    305.77849   -1528.2371     518.2334     369.9582    -273.6216    37426.586 
  225800    298.64862   -1465.6986    490.13246    372.21914    278.77482    37426.586 
  225900     326.4057   -1539.3538     518.7199    452.41758    395.53459    37426.586 
  226000    297.43531   -1483.5181    497.72374     356.5153    54.774145    37426.586 
  226100    301.36651   -1508.1596    524.72829    376.61955    540.51528    37426.586 
  226200    298.36532     -1491.31    494.59392    349.79063    992.39438    37426.586 
  226300    302.06029   -1472.5024    520.79316    411.47269    824.33512    37426.586 
  226400    300.52184   -1461.0538     520.2474    415.43252    549.62671    37426.586 
  226500    305.84804   -1524.6829    518.56804    374.16098    804.31636    37426.586 
  226600    293.33379   -1480.9995    519.44124    362.24146    64.829543    37426.586 
  226700    298.63427   -1469.8394     476.6528    354.53387   -109.96738    37426.586 
  226800    302.71308   -1477.6302    508.16584    396.66355   -282.94947    37426.586 
  226900    294.59099   -1488.1229     490.2315    331.58192    281.67993    37426.586 
  227000     300.6484   -1507.5651    488.47571    337.72072    889.03207    37426.586 
  227100    297.52414   -1484.8626    504.33406    362.18195    380.51998    37426.586 
  227200    295.57191   -1511.4714    502.89351    325.32226    161.36199    37426.586 
  227300    300.27793   -1539.9946    498.77165    313.91522    6.1164759    37426.586 
  227400    290.76754   -1468.8456     508.9006     352.2733    175.16669    37426.586 
  227500    291.98691   -1502.0335    505.79159    321.47942    392.69707    37426.586 
  227600    311.41293   -1527.3027    488.03532    366.12249    3.1470438    37426.586 
  227700    300.57252   -1463.6772     491.3243     384.1148   -129.68956    37426.586 
  227800    297.10884   -1507.2999    494.10911    327.64551   -150.99111    37426.586 
  227900    288.27504   -1510.8298    460.50304      250.643   -716.12214    37426.586 
  228000    306.82008   -1454.9154    525.45141    455.19852   -402.00131    37426.586 
  228100    289.21425   -1463.3749    498.21525    340.04879   -546.10103    37426.586 
  228200     294.2486   -1474.8613    498.16631    351.23323   -654.13782    37426.586 
  228300    307.54011    -1454.192     504.2251    437.94512    -463.8097    37426.586 
  228400    301.50072   -1463.0507    512.36945    409.97539   -76.904739    37426.586 
  228500    293.92768   -1505.5126    499.78054    320.74779   -132.68907    37426.586 
  228600    298.71876   -1535.6593    506.89989    319.34239   -373.16331    37426.586 
  228700    301.39791   -1534.3242    490.70436    316.57282    249.92481    37426.586 
  228800    299.80727   -1485.3696    521.45104    389.09553    208.81203    37426.586 
  228900    310.31292   -1519.4947    480.64998    361.58089     410.9575    37426.586 
  229000    294.94523   -1497.1713    481.03794    314.93869    17.803353    37426.586 
  229100    298.68636   -1479.3365    482.36079    350.97982   -516.62075    37426.586 
  229200    300.93338   -1477.5859    507.89324    388.40352   -28.835068    37426.586 
  229300    296.68807   -1482.4683    522.56035    379.02941   -134.44621    37426.586 
  229400    303.71226    -1516.185      492.365     346.8171    116.08936    37426.586 
  229500    306.77283   -1478.1836    480.24538    386.51113   -531.82111    37426.586 
  229600     294.3299   -1503.4256    492.92769     317.7972   -226.50941    37426.586 
  229700    295.46648   -1523.8836    485.14179    294.68253   -34.982582    37426.586 
  229800    291.99249    -1494.113    500.20801    323.84148     108.3741    37426.586 
  229900    299.61856   -1500.2442    497.35605    349.27434    257.71365    37426.586 
  230000      301.068   -1515.6978    518.50897    361.51492    462.78246    37426.586 
  230100    305.49788   -1494.7442    484.15977    368.11113   -79.241369    37426.586 
  230200    300.34709   -1464.6323    522.29993      413.118    207.74937    37426.586 
  230300    289.74962   -1493.2623    503.74851    318.11075   -439.35707    37426.586 
  230400    295.35595   -1479.0555    496.02169    349.89174   -761.52554    37426.586 
  230500    300.69073     -1442.55    541.94972    456.40092    -262.6955    37426.586 
  230600    297.93473   -1457.2452    512.76685    400.08511     -285.272    37426.586 
  230700     291.9298    -1416.072      515.475    416.86654   -332.01868    37426.586 
  230800    306.48527   -1396.9275    526.39804    512.62215   -641.62773    37426.586 
  230900    309.44837   -1454.3438    494.72017    436.90023   -334.85279    37426.586 
  231000    299.04806   -1463.2365    504.37245    390.72382   -999.00967    37426.586 
  231100    294.27482    -1444.391    500.03392    383.68943   -734.84462    37426.586 
  231200    296.88578   -1450.0311    515.51275    405.31124   -469.73379    37426.586 
  231300    291.36109   -1452.6894    538.61473    400.82231    -303.9346    37426.586 
  231400     309.2307   -1421.0969    490.14141    464.58609   -420.97634    37426.586 
  231500    293.51129   -1448.6017    514.97935    390.97835   -137.54089    37426.586 
  231600    300.01686   -1495.1191    469.89342    328.73436    594.37827    37426.586 
  231700      297.055   -1469.7987    504.39264    375.18723    849.94579    37426.586 
  231800    297.22709   -1451.3855    530.07368    420.05812    737.57607    37426.586 
  231900    297.76862   -1489.0441    513.20565    367.97544    45.065197    37426.586 
  232000    308.73919   -1487.1571    522.08739    428.25372    520.22317    37426.586 
  232100    298.95245   -1458.1665    497.70942    388.69935   -8.9540657    37426.586 
  232200    306.29318   -1490.3489    495.52362     387.4594    316.64717    37426.586 
  232300    300.64846   -1522.9957    482.31251    316.12716    201.80901    37426.586 
  232400     294.3506   -1479.1805    517.70606    366.91403   -105.45931    37426.586 
  232500    307.01988   -1471.4391    497.46808    411.59324    -121.5334    37426.586 
  232600    300.16404    -1457.012    516.62818    414.24037   -246.44183    37426.586 
  232700    304.48131   -1490.5442     506.3097    389.87335   -784.05855    37426.586 
  232800     294.0133   -1512.5757    527.94734    342.23788   -568.03339    37426.586 
  232900    288.38565   -1502.5934    499.92721    298.80283    165.87246    37426.586 
  233000    296.09685   -1521.5045    506.11669    320.88136   -575.02334    37426.586 
  233100    306.99024   -1522.9053    518.73578      381.261    576.09101    37426.586 
  233200    301.06013   -1541.4921    515.19496     332.3711    274.02483    37426.586 
  233300    299.27426   -1523.8882    503.38197    330.10246    80.067904    37426.586 
  233400    293.06562   -1549.2612    530.23259    303.56085     39.09054    37426.586 
  233500    302.23788   -1547.8223    485.34596    301.50703   -61.527191    37426.586 
  233600    305.64269    -1550.883    503.70709    332.17313    80.554988    37426.586 
  233700    304.58819   -1514.9673    515.56062     375.1835   -30.739411    37426.586 
  233800    297.79493    -1539.495    477.39768    281.83518    -347.6379    37426.586 
  233900    299.82302    -1554.185    504.95694    303.85714   -340.34012    37426.586 
  234000    288.37608   -1557.0891    501.39012    245.72683   -174.48819    37426.586 
  234100    298.90883   -1521.1155    485.59054     313.4346    15.326556    37426.586 
  234200    296.95334   -1536.2153    504.65018    308.56936    -91.18608    37426.586 
  234300    313.54242   -1517.5208    535.29106    432.77038   -128.67006    37426.586 
  234400     301.7629   -1502.4846    488.33945    347.69467   -120.27015    37426.586 
  234500    314.14977   -1542.7033    518.71387    393.75166    -5.219872    37426.586 
  234600    290.64538   -1512.4738    540.39085    339.58403   -148.72139    37426.586 
  234700      334.363   -1477.0996    474.19222    506.05498    15.412787    37426.586 
  234800     301.2923   -1498.2993    521.57031    382.98706   -790.45756    37426.586 
  234900     296.9294   -1485.1415    514.44229    369.32726   -132.62529    37426.586 
  235000    304.43763   -1497.7999    513.55568    389.66653   -502.46361    37426.586 
  235100    296.21101   -1454.4048    491.81074    374.19032    41.544751    37426.586 
  235200    287.82384   -1501.2478     520.7278    318.41357    63.292341    37426.586 
  235300    306.40335   -1513.2706    512.35357    381.86489   -269.56371    37426.586 
  235400    298.81978   -1522.1342    498.48214    324.90558    301.82629    37426.586 
  235500    298.10472   -1518.9692    508.79637    335.15783   -251.01675    37426.586 
  235600     304.8444   -1495.9869    481.29795    361.05754    -39.97071    37426.586 
  235700    305.34604   -1459.6353    503.45367    421.82869   -49.032987    37426.586 
  235800    305.10808   -1471.8513     513.1506    418.23572    364.03122    37426.586 
  235900    303.28763    -1452.358    537.50634    453.86913    225.82785    37426.586 
  236000    301.28775   -1479.7183    508.33006    388.30726    221.78111    37426.586 
  236100    293.10463   -1513.3444    513.13663    322.55768    721.72468    37426.586 
  236200    298.32418    -1510.685     536.0223    371.65838    386.81831    37426.586 
  236300    299.10177   -1533.1871    500.87132    317.51449    172.84771    37426.586 
  236400    301.19295   -1488.9145    506.79695    377.15003   -283.02381    37426.586 
  236500     306.1708   -1489.6597    526.24107    418.31381    77.516979    37426.586 
  236600    302.09761   -1525.2342     494.8825    332.99864    -220.8897    37426.586 
  236700    300.98752   -1471.4857    471.07381    357.92863   -315.61353    37426.586 
  236800     293.8698    -1517.222    495.16521    304.16184     -927.988    37426.586 
  236900    295.30178   -1531.6028    497.89173    298.97003   -46.948067    37426.586 
  237000    307.71232   -1480.8473    504.81489    412.65679     226.0344    37426.586 
  237100    309.13999   -1538.7733    488.36663    344.72551   -227.85466    37426.586 
  237200    299.62855   -1561.0957    483.11167    274.22352   -807.71115    37426.586 
  237300    290.58938   -1493.6746    533.72947    351.46919   -525.09204    37426.586 
  237400    290.14336   -1498.0176    509.84576    321.22961   -857.92266    37426.586 
  237500    313.65138   -1487.0378    475.24863    403.70271   -958.02214    37426.586 
  237600    299.67931   -1491.6145    507.17709    367.99926   -1454.2487    37426.586 
  237700    290.58811   -1505.6077    502.43837    308.23923   -862.01866    37426.586 
  237800    298.11019   -1467.6914    504.53579    382.19974   -774.43354    37426.586 
  237900    306.67237   -1481.1873    537.01823     439.8269   -838.15601    37426.586 
  238000    299.30265   -1479.3571     495.1326    366.51228   -519.40609    37426.586 
  238100    303.84333   -1472.5276    531.79365    430.49468   -88.048288    37426.586 
  238200    293.59171   -1510.7357    490.51448    304.74243   -263.01207    37426.586 
  238300    300.85004   -1458.4019    502.79202    402.11024   -111.20548    37426.586 
  238400     295.6677    -1486.058    507.65092    355.92536   -55.921848    37426.586 
  238500    296.23638   -1524.3967    511.14076      323.643   -93.802412    37426.586 
  238600    297.43636   -1505.8004    510.09305    346.60696   -41.935112    37426.586 
  238700    310.07261   -1469.5363    524.17451    453.97934    237.71054    37426.586 
  238800    292.43282    -1519.767    502.49952    302.46614     134.7674    37426.586 
  238900    291.09896   -1516.5098    495.25942    292.46364   -117.60002    37426.586 
  239000      300.497   -1519.2544    490.12358    326.99598    256.12887    37426.586 
  239100    297.69406   -1538.5086    484.08936     289.0581   -812.23147    37426.586 
  239200    299.50987   -1522.2883    496.89389    326.27757   -666.76681    37426.586 
  239300    300.80564   -1473.9621     502.5209    386.07856    358.58266    37426.586 
  239400    294.71819   -1522.0267    494.43101     302.4517   -195.77522    37426.586 
  239500    294.96211   -1518.7618    502.10205    314.48843    166.61836    37426.586 
  239600    299.85734   -1454.5143    501.76226    400.48805    357.41018    37426.586 
  239700    303.25964   -1431.6762    516.70943    453.62774     -79.9041    37426.586 
  239800    297.42881   -1505.1187    478.89282    316.05442    5.3330905    37426.586 
  239900    300.00225   -1484.0315    488.23419    358.09674   -73.130481    37426.586 
  240000    299.36604   -1447.5822    507.94861    411.38933   -291.20834    37426.586 
  240100    303.84279   -1476.5758    479.89366    374.54408   -858.22084    37426.586 
  240200    308.94196   -1457.9935    521.66916     457.9141   -88.667529    37426.586 
  240300    310.12174   -1470.9341    491.76532    420.39401   -97.436716    37426.586 
  240400    299.72463     -1459.41    473.05217    366.28332   -370.96283    37426.586 
  240500    295.42852   -1452.5617     508.1442    388.83564    -939.0674    37426.586 
  240600     308.8602   -1465.3294    505.05497    433.59515   -1117.6207    37426.586 
  240700    289.57715   -1459.8276    496.25642    343.27493   -563.61385    37426.586 
  240800    292.30084   -1468.6092    516.77672    367.30559    -272.6223    37426.586 
  240900    303.55741   -1464.0742    511.40562     417.2697    88.172254    37426.586 
  241000    296.04452   -1469.6885    505.41776    371.76236   -247.77653    37426.586 
  241100     301.2475   -1464.6017    502.81337    397.72551   -355.05436    37426.586 
  241200    291.78765   -1457.3792    500.10582    359.54867   -378.65671    37426.586 
  241300    296.44391   -1488.8743      499.103    348.06419   -609.40856    37426.586 
  241400    293.69284   -1433.3445    526.37804    418.45357   -187.67495    37426.586 
  241500     305.1903    -1457.584    505.84099     425.5645    473.04976    37426.586 
  241600    297.98203   -1468.8878    511.07908    386.96825   -166.35343    37426.586 
  241700    301.02842    -1488.088    479.12945    349.56655    297.00721    37426.586 
  241800    291.67033   -1459.9259    514.28938    370.65603    157.31385    37426.586 
  241900    305.11549   -1458.7738    513.34057    431.53667    235.46923    37426.586 
  242000    300.16814    -1496.987    518.41515    376.07084    602.16171    37426.586 
  242100    308.03044   -1480.3089    514.04809    423.86408    30.037914    37426.586 
  242200    300.38287   -1476.6186     528.9831     407.9763   -54.858933    37426.586 
  242300    304.11025    -1460.952    524.11027    435.59152    -135.1081    37426.586 
  242400    291.51919   -1480.5885    485.78871    320.81066   -361.20344    37426.586 
  242500    300.25162   -1492.5653    505.37108     367.8253   -267.09091    37426.586 
  242600    303.16312   -1543.8107    457.87662    282.22481   -89.612673    37426.586 
  242700    297.33541   -1520.8036    491.56684    312.62202   -743.76089    37426.586 
  242800     297.6476    -1486.931    486.56928    342.90593   -1000.1166    37426.586 
  242900    308.25598   -1498.3837     512.2412     405.0002   -237.48676    37426.586 
  243000    294.35176   -1488.3264    507.77214    347.83947   -198.96509    37426.586 
  243100     292.4762   -1485.4346    499.60573    334.10056   -670.46717    37426.586 
  243200    306.58529   -1475.6915    482.77435    390.68584    -71.84991    37426.586 
  243300     303.1901   -1501.9355    501.59615    367.94135   -183.69151    37426.586 
  243400    302.47489   -1501.8378    471.29598    334.51113   -335.23812    37426.586 
  243500    297.96413   -1510.5549    519.53096     353.6722   -233.04368    37426.586 
  243600    301.39964   -1509.3282     485.8556    336.72787    84.266434    37426.586 
  243700    305.66371    -1546.383      519.198    352.25894   -93.689429    37426.586 
  243800    317.97516   -1538.3802    497.59041    394.21507    249.56921    37426.586 
  243900    288.27277   -1530.8958    484.35986    254.42362   -256.72519    37426.586 
  244000    301.48496   -1521.9491    526.38958    365.02594     24.36679    37426.586 
  244100    294.10733    -1476.168    491.73041    342.85301    219.90223    37426.586 
  244200    298.39589   -1507.3324    493.80278    333.11503   -96.232584    37426.586 
  244300     303.5543    -1484.653    515.05745    400.32869   -116.18483    37426.586 
  244400    302.09838   -1494.8456    480.77899    349.28722   -254.39677    37426.586 
  244500    310.46963   -1425.5612    496.61337    472.18494    3.4660308    37426.586 
  244600    304.72926   -1446.2618    519.15773     448.1227    47.779222    37426.586 
  244700    292.88838   -1441.3656    502.40274    382.82674    335.27397    37426.586 
  244800    308.23151   -1436.6708     519.6005      473.962    -212.4793    37426.586 
  244900    308.05676   -1447.2833    527.27188    470.23225    455.94703    37426.586 
  245000    297.58775   -1448.2191    499.15702    393.93551   -302.25419    37426.586 
  245100    311.24057   -1473.0101    516.39744    447.99937   -130.47884    37426.586 
  245200    300.99441   -1465.9156    492.19352    384.64954   -216.81827    37426.586 
  245300    303.82314   -1446.3627    516.66943    441.44431   -387.67556    37426.586 
  245400    290.50283   -1474.9403     520.7736    356.85696   -934.59494    37426.586 
  245500    299.22582   -1471.2597    509.03882    388.16922    -85.90292    37426.586 
  245600    288.98169   -1499.4834    522.95618    327.63171     -481.337    37426.586 
  245700    299.92316   -1484.6257    515.51841     384.4299   -98.839152    37426.586 
  245800    301.32852   -1483.1953    506.51819    383.20233    201.93632    37426.586 
  245900    293.81473   -1455.1778    520.70231    391.49463    344.17318    37426.586 
  246000     289.4563   -1492.5512    515.34934    329.09894    554.40015    37426.586 
  246100    291.82147   -1485.8605    491.06104     322.1752    544.74578    37426.586 
  246200     303.8961   -1529.6674    517.44153    359.24089    194.23007    37426.586 
  246300     300.8359   -1543.1511    515.36034    329.86549   -38.340128    37426.586 
  246400    309.15062   -1511.4356    478.72625    362.47088    174.88831    37426.586 
  246500    296.93225   -1483.5833    497.59026    354.04633   -201.26306    37426.586 
  246600    300.25603   -1526.1685    494.47264    323.34347    -69.27481    37426.586 
  246700    295.07047    -1492.183    500.65807    340.11231   -92.655671    37426.586 
  246800     300.6238   -1528.1874     511.1622    339.67391     420.6041    37426.586 
  246900    305.73407   -1545.0392    502.39971    337.12197    241.76728    37426.586 
  247000    300.36279   -1588.1766    506.18875    273.53333    76.773394    37426.586 
  247100    298.77468   -1514.0686    490.14567    324.43123    121.81351    37426.586 
  247200    309.91188   -1527.5425    507.40056    378.47381    221.73127    37426.586 
  247300    288.43123   -1502.2111    501.28518     300.7488    346.33603    37426.586 
  247400     288.9546   -1510.0947    507.48556    301.42752    145.60223    37426.586 
  247500    306.68012   -1482.1111    508.14267    410.06251   -561.07012    37426.586 
  247600    294.25768   -1502.1259    495.85438    321.69769   -424.44331    37426.586 
  247700    311.07481   -1478.5566    506.87681    432.18416   -591.36463    37426.586 
  247800    309.49021   -1502.3845    533.99459    428.32286   -706.26683    37426.586 
  247900    299.78743   -1557.0817    483.93048    279.77339   -1037.3065    37426.586 
  248000    305.81265   -1580.9306    508.27293     307.4584   -971.68246    37426.586 
  248100    307.04987   -1565.3924    516.20408    336.51132   -897.64307    37426.586 
  248200    294.37899   -1540.8392    511.55799    299.23544   -610.88136    37426.586 
  248300    299.69715   -1496.9143     512.2515    367.85439   -40.497356    37426.586 
  248400    303.27407   -1507.9878    501.67471    362.34656   -392.84686    37426.586 
  248500    307.31267   -1522.7987     503.8971    367.98407   -705.46606    37426.586 
  248600     304.7949   -1484.2676    490.35472    381.61019    -995.0988    37426.586 
  248700    309.23462   -1519.7092    512.21858    388.06867    -568.9771    37426.586 
  248800    293.26774   -1502.0045     509.6653    331.16241    497.32299    37426.586 
  248900    294.50616    -1534.252    506.26444    301.10295    756.67084    37426.586 
  249000    305.55218   -1592.4063    483.59612    270.13044    759.45029    37426.586 
  249100     293.8561   -1566.3432    492.39838      252.212    488.04851    37426.586 
  249200    302.97563   -1523.3779    498.49766    342.43257    401.37581    37426.586 
  249300    307.83324   -1553.5157    497.75082    333.47005   -133.25702    37426.586 
  249400    297.96393   -1521.3803    499.46392    322.77889      204.474    37426.586 
  249500    298.06497   -1566.0319    471.07567    250.19506     -693.052    37426.586 
  249600    307.38622    -1544.078    493.37047    336.51005   -175.79723    37426.586 
  249700    296.51829   -1517.1072    511.89102    332.95497   -493.24526    37426.586 
  249800     297.6866   -1534.6431    502.69975    311.50034   -601.14976    37426.586 
  249900    288.29018   -1537.1663    504.80679    268.67859   -580.76025    37426.586 
  250000    293.27131   -1560.5188    500.36239    263.36127   -104.03575    37426.586 
  250100    303.57513   -1500.1136    486.86074    356.76544   -272.92493    37426.586 
  250200    303.41403   -1511.3839    510.01115    367.91856   -162.09736    37426.586 
  250300    304.73283    -1493.445     508.4568    390.25471    914.19813    37426.586 
  250400    305.07707   -1519.3606    521.15988     378.5958    626.94755    37426.586 
  250500    295.19497   -1526.4425    489.93801    295.69456    142.53626    37426.586 
  250600    301.61574   -1457.7151    484.43604    387.89667    232.92823    37426.586 
  250700    299.43419    -1512.262    474.84609    313.91457    506.88554    37426.586 
  250800    297.35518    -1530.137    469.43279    281.24378    243.10047    37426.586 
  250900    300.87286   -1537.7762     498.8742    318.92107    606.24203    37426.586 
  251000    294.87022   -1545.0548    516.16795     301.8467    244.43902    37426.586 
  251100    296.45764   -1504.3175    493.53005    327.10996    388.53982    37426.586 
  251200    298.79996   -1499.0001    511.86255    361.33062   -240.20305    37426.586 
  251300    299.52532   -1487.4624    498.55251    362.83187   -311.89025    37426.586 
  251400     306.9887   -1449.5817    504.72122     440.5631   -554.19484    37426.586 
  251500     298.4104   -1477.1002    500.98584     370.5958   -146.27638    37426.586 
  251600    299.15955   -1474.5106    509.92537    385.50578    176.42371    37426.586 
  251700    298.34761   -1477.2276    498.11711    367.31625    345.55533    37426.586 
  251800    302.98997   -1488.9557    499.74253    378.16431     454.4878    37426.586 
  251900    310.67749   -1521.7194    497.83427    378.18573    544.64473    37426.586 
  252000    291.83329   -1533.5503     514.5494    298.02709    401.72608    37426.586 
  252100    300.94962   -1488.6419    505.29306    374.82062    229.08667    37426.586 
  252200    291.70658   -1480.7847    521.92168    357.59311   -93.920049    37426.586 
  252300    302.41394   -1458.6182     502.7371    408.89682   -260.18901    37426.586 
  252400    301.04924   -1457.5611    521.28439    422.34241    315.79551    37426.586 
  252500    303.36707     -1445.76    509.95146    433.27075   -280.49457    37426.586 
  252600    298.93261    -1438.154    519.05326     429.9661    281.08432    37426.586 
  252700    310.96694   -1451.8264    533.84639     485.3971     35.06416    37426.586 
  252800    284.64067   -1417.6332    523.77515    390.71002     295.6325    37426.586 
  252900    307.00989   -1437.9406    515.37892    462.95747    324.95818    37426.586 
  253000    299.26405   -1490.3244    490.30375    350.54201   -111.42095    37426.586 
  253100    300.38598   -1459.3308    502.24893    398.54397    253.99258    37426.586 
  253200    298.30831   -1446.5136    512.67825     412.4141    149.48185    37426.586 
  253300    303.16518   -1481.3345    498.99831    385.83206   -438.03928    37426.586 
  253400    300.33226   -1489.9282    535.82024    401.27542   -490.67091    37426.586 
  253500    294.80385   -1504.9779    494.50422    319.96029   -168.30802    37426.586 
  253600    298.69066   -1479.0566    501.32496    370.24329    387.81651    37426.586 
  253700    298.09939    -1507.755    527.11732    364.66887    393.05096    37426.586 
  253800    301.74381   -1500.2803    516.48273    377.95606    326.86791    37426.586 
  253900    293.36968   -1513.8228    493.50701    303.64588    194.59854    37426.586 
  254000    303.24018   -1522.5849     510.2105     356.1323    96.238086    37426.586 
  254100    301.40569    -1541.136      480.647    299.73874    213.08983    37426.586 
  254200    292.82185   -1532.0442    513.96433     303.4095    395.16435    37426.586 
  254300     304.6513   -1523.3035    501.96385    353.53531     28.70026    37426.586 
  254400    303.86604   -1560.8844    485.58291    296.02963   -558.21691    37426.586 
  254500     285.6671   -1585.7652    491.10187    194.53694   -418.85998    37426.586 
  254600    302.72358   -1567.5706     475.0108    273.61554   -267.70456    37426.586 
  254700    297.07604   -1575.3601    477.99589    243.32407    65.291113    37426.586 
  254800    302.58658   -1554.5121    490.95704    302.00191    252.96013    37426.586 
  254900     311.8455   -1555.7663    492.70013    344.27584   -34.703406    37426.586 
  255000    298.15155   -1543.0989    508.18816    310.63123   -247.05271    37426.586 
  255100    296.24853   -1508.7423    527.96545    356.17689   -90.257672    37426.586 
  255200    291.57337   -1608.5838    498.50235    205.77358   -199.41842    37426.586 
  255300    295.03085   -1556.9516    475.59298    250.09975   -209.36985    37426.586 
  255400    306.97472   -1517.8708    488.34766    355.83733   -411.48992    37426.586 
  255500    291.70678   -1521.7667    502.59569    297.28608   -371.04561    37426.586 
  255600    293.67302    -1526.132    501.43348    300.63206   -468.04475    37426.586 
  255700    287.95608   -1547.4466     481.9833     234.0671   -479.59155    37426.586 
  255800    301.25435   -1540.0193    513.68151    333.20696   -248.92678    37426.586 
  255900    295.14083   -1517.0086    479.88283    294.82898    231.65255    37426.586 
  256000    300.50085   -1511.5809    518.02191    362.58526    786.43169    37426.586 
  256100    307.72413   -1500.4695    494.11228    382.38529    1102.7049    37426.586 
  256200    298.60256   -1508.8147    537.21464     375.9773    697.22106    37426.586 
  256300    301.34261   -1502.9005    484.92544    341.96795    562.94573    37426.586 
  256400    305.76372    -1498.096    488.14393    369.94323    475.61919    37426.586 
  256500    312.75436     -1502.06    517.32477     426.7084   -49.778175    37426.586 
  256600    301.84644   -1462.4947    478.34999    378.07206    25.729648    37426.586 
  256700    299.32138   -1472.2911    535.79318    414.32337   -419.74134    37426.586 
  256800    307.53293   -1455.0184    503.14357    436.00479   -815.32627    37426.586 
  256900    291.59812    -1492.986    506.85078    329.83147   -808.09647    37426.586 
  257000    307.75044   -1519.7144    503.92551     373.0723   -856.72008    37426.586 
  257100    298.97943   -1464.7956    484.60112    369.08365   -826.23639    37426.586 
  257200    298.40189    -1461.259     523.4403    408.85303   -575.88667    37426.586 
  257300    297.48044    -1463.691    522.86416     401.6865    256.31983    37426.586 
  257400    306.74045   -1481.3638    487.60022    390.53966   -53.546094    37426.586 
  257500    307.40006   -1523.1451    516.10266     380.2376    478.92066    37426.586 
  257600    293.27022   -1527.8597    490.16656    285.81968   -33.569068    37426.586 
  257700    291.92406   -1540.7084    494.39969    271.12894   -224.65982    37426.586 
  257800    306.58966   -1517.0852    498.76463    365.30214   -9.0559196    37426.586 
  257900    299.32837   -1501.5888    529.76927    379.03333    63.627858    37426.586 
  258000    309.72312   -1470.7858    515.31427    442.29228   -84.666955    37426.586 
  258100    305.24914   -1518.4216    483.22534    342.37676    309.35632    37426.586 
  258200    293.16881   -1491.5658    519.60926    351.09855    542.08068    37426.586 
  258300    311.70523   -1510.3139      503.406    399.80112    408.03921    37426.586 
  258400    287.17618   -1483.4131    509.36458    321.96216   -350.66103    37426.586 
  258500    293.83247   -1494.6527    482.05061    313.44813   -421.39646    37426.586 
  258600    294.29931      -1510.2    502.36491    320.32196   -618.03044    37426.586 
  258700    293.71554   -1518.6854    504.73047    311.56753   -313.08013    37426.586 
  258800    291.01804   -1495.2659     505.2611    323.34401   -139.67859    37426.586 
  258900    296.57602   -1523.9492    506.12372    320.60624   -579.15411    37426.586 
  259000    304.60052   -1526.5759     518.3254    366.39531   -165.87779    37426.586 
  259100    300.75678   -1510.7901    517.58483    364.09394    92.629086    37426.586 
  259200    299.73345   -1507.3144    488.86332    334.22987   -26.003932    37426.586 
  259300    306.98847   -1533.9398    485.82387     337.3066     -23.5917    37426.586 
  259400    303.91619   -1527.3566    495.25804    339.45894    180.04167    37426.586 
  259500    301.99127   -1565.5724    498.37534    295.67336     444.0263    37426.586 
  259600    312.38849   -1548.6542    482.94217    344.08053   -302.79509    37426.586 
  259700    303.14864   -1542.4243    518.14506    343.81431   -576.99862    37426.586 
  259800     300.0517    -1553.558    522.20185     322.7611   -980.27297    37426.586 
  259900    295.82985   -1554.5533    468.11201    248.62293    -323.5675    37426.586 
  260000    298.40229   -1558.4425    518.54772    306.77874   -429.41561    37426.586 
  260100    295.25297   -1558.8047    470.68722    244.34338    412.03521    37426.586 
  260200     305.6976    -1569.109    485.27643    295.76436    326.41391    37426.586 
  260300     301.2241   -1515.7386    494.22962    337.89927    134.41264    37426.586 
  260400    303.87288   -1523.9647    492.96251    340.35979    352.05312    37426.586 
  260500    293.26296   -1480.2663    490.04105    333.25478    256.71486    37426.586 
  260600    308.41086    -1520.452    519.91849    391.30817    655.38829    37426.586 
  260700    302.65334      -1540.2    490.36821    316.02653    108.65045    37426.586 
  260800    307.01689    -1503.617    495.55476    377.48851    787.68055    37426.586 
  260900     303.8156   -1467.7212    510.76758    414.14988    143.48017    37426.586 
  261000    291.68841   -1480.8409    503.20383    338.73713    919.95932    37426.586 
  261100     295.4747   -1482.3622    495.59308    346.69231   -29.067095    37426.586 
  261200    296.99818   -1488.2497    512.21107    364.29822    55.831114    37426.586 
  261300    302.49937   -1518.9187    488.11199    334.35676   -118.41403    37426.586 
  261400    290.27666   -1506.4524    493.62316    297.17375   -975.51712    37426.586 
  261500    289.46468   -1493.1533    486.02409    299.20941   -1202.3933    37426.586 
  261600    308.48792   -1474.0681    493.95317    412.07449   -1648.7204    37426.586 
  261700    311.24242    -1510.225     478.6183    373.01368   -1327.3112    37426.586 
  261800    291.03319   -1491.8793    513.46799    335.00589   -1310.0651    37426.586 
  261900     298.5744   -1509.3527    534.02929     372.1269   -745.95966    37426.586 
  262000    293.73569   -1469.7389    525.34053    381.21501   -421.97697    37426.586 
  262100    304.93535   -1520.7702    492.53509     347.9218    -513.2201    37426.586 
  262200    293.77486   -1500.0373    490.90842    316.66134   -408.45907    37426.586 
  262300    300.43421    -1528.493    489.83548    317.18596    60.920123    37426.586 
  262400    294.04725   -1531.3149    521.23675    316.94131   -193.93265    37426.586 
  262500    302.57344   -1528.8649    493.98588     330.6187     399.9633    37426.586 
  262600    305.55481   -1519.8197    478.10131    337.23405    293.13941    37426.586 
  262700     315.8774   -1547.6261    491.52828       369.44    177.03873    37426.586 
  262800    306.01117   -1522.2781    482.29001    341.02386    373.01161    37426.586 
  262900    306.96352    -1496.959    507.83383    396.18475    143.12978    37426.586 
  263000    297.39213   -1487.7259     491.7953    346.18417    1107.8877    37426.586 
  263100    302.14197   -1513.6514    509.83931    359.73843    716.43763    37426.586 
  263200    296.69909    -1501.679    520.89588    358.20395    404.73763    37426.586 
  263300    305.36003   -1530.7235     500.1321    347.48208   -427.44578    37426.586 
  263400    295.70452   -1529.9117    499.41142    303.99833   -836.24435    37426.586 
  263500    314.49034   -1536.9758    515.31544    397.61776   -1296.6684    37426.586 
  263600    302.88599   -1540.0163    479.78862    306.68051   -1286.0432    37426.586 
  263700    289.76596   -1554.7646    512.94968     265.8833   -1137.8154    37426.586 
  263800    280.54956   -1510.6074    519.55664    275.05439   -258.43939    37426.586 
  263900    295.34896   -1525.1547    534.41921    342.15854   -222.49928    37426.586 
  264000    291.38042   -1517.5382    521.41004    318.85607    153.53808    37426.586 
  264100    297.56085   -1498.5041    526.59568    370.96775   -351.51003    37426.586 
  264200    307.08282   -1484.7694     503.7059    404.78477   -375.63983    37426.586 
  264300    298.53362   -1501.0727    499.11491    345.30845   -335.19407    37426.586 
  264400    298.03116     -1491.49    500.72336    354.23203   -710.30446    37426.586 
  264500    286.73789   -1490.2422    504.19029    307.98081   -1057.2808    37426.586 
  264600    300.24737   -1527.3281    532.72866    360.40084    -42.91104    37426.586 
  264700    298.99849   -1563.5746    487.76243    273.55201    63.094463    37426.586 
  264800    305.61723   -1529.2585    507.91046    357.88614    862.59061    37426.586 
  264900    304.90672   -1519.8766    503.68799    359.83913    187.00452    37426.586 
  265000    290.19795   -1547.5824    497.54787    259.61327   -442.72011    37426.586 
  265100    284.25338   -1526.5098    502.12354    258.43397   -118.32626    37426.586 
  265200    293.88556   -1518.0437    527.64127    335.88735   -278.61591    37426.586 
  265300    289.23043   -1529.7039    538.97785    314.55537   -220.64289    37426.586 
  265400    294.32694   -1536.5742    520.03207     311.7396     404.7264    37426.586 
  265500    303.13028   -1538.4628    519.61588    349.16377    82.124354    37426.586 
  265600    300.75736   -1512.7557    509.10232     353.6485   -105.49903    37426.586 
  265700    305.08758   -1466.5008    500.34365    410.68681    118.30518    37426.586 
  265800    299.41662   -1493.6537    511.47766    369.07512   -455.65512    37426.586 
  265900    299.59134   -1497.0517    513.87317    368.86114   -94.845681    37426.586 
  266000    288.45446   -1519.1162    508.36601    291.02938   -267.38362    37426.586 
  266100    295.60387   -1478.8086    510.88559    366.12143    199.50525    37426.586 
  266200    297.12214   -1496.2633    510.03786    354.67087   -350.77562    37426.586 
  266300    303.39269   -1485.3938    518.49811    402.29926   -159.27153    37426.586 
  266400    304.36263   -1487.2658    508.10208    394.40848    189.49407    37426.586 
  266500    302.67342   -1484.9961    504.78787    385.74073    -112.9454    37426.586 
  266600    306.16144   -1500.9623    532.53345    413.26128    -29.13353    37426.586 
  266700     299.3552   -1483.5144    503.50186    370.96141   -370.21101    37426.586 
  266800    303.37479   -1472.7188    514.22964    410.62504   -610.53572    37426.586 
  266900    288.29119    -1476.945    505.62807    329.72581    -1037.735    37426.586 
  267000     293.8214   -1510.9886    518.00027    333.01187   -1288.3617    37426.586 
  267100     301.9005   -1460.5951    501.48309    403.34881   -1166.0171    37426.586 
  267200    306.32707   -1462.3328    504.87419    424.97905    -580.9208    37426.586 
  267300    295.48008   -1446.2739    516.98957    404.20149    -37.50803    37426.586 
  267400     298.9116   -1502.2269    494.96205    341.70716    417.69709    37426.586 
  267500    306.35655   -1508.5166    506.83308    380.88717    645.03088    37426.586 
  267600    292.82967   -1536.7596    513.00183    297.76687    -91.12526    37426.586 
  267700    298.80716    -1516.508    515.39089    347.38363    261.88234    37426.586 
  267800    298.95622   -1492.2925    499.20716    356.08806    594.29523    37426.586 
  267900     294.9849   -1517.5133    506.45716    320.19493    309.81847    37426.586 
  268000    300.30503   -1532.3757    514.37017    337.25494    324.24677    37426.586 
  268100    300.12545   -1547.4483    496.52065    303.52246    732.30833    37426.586 
  268200    293.91862   -1532.6483    514.31137    308.10206    382.23308    37426.586 
  268300    309.10296   -1502.2302    512.26041    404.99527    533.09158    37426.586 
  268400    310.61801   -1561.6904    508.37958    348.49157     988.9849    37426.586 
  268500    293.84786   -1524.6305    512.32712     313.8163    589.98933    37426.586 
  268600     297.3001   -1535.0333    488.90018    295.56626    437.79172    37426.586 
  268700    306.09733   -1504.3022    499.29324    376.39193    399.94447    37426.586 
  268800    301.29933   -1501.2181    496.11283    354.64246   -486.05343    37426.586 
  268900    308.51696   -1467.8218    481.81175    406.31048   -365.65482    37426.586 
  269000     305.2747   -1517.1335    493.46068    354.01554   -219.47223    37426.586 
  269100    304.94363   -1513.0781    515.13675    378.25292    129.89361    37426.586 
  269200    293.25861   -1503.9293    495.87706    315.40819    180.13835    37426.586 
  269300    298.73231    -1495.263    533.71628    386.61618    113.10298    37426.586 
  269400    303.41729   -1440.7385    484.96345    413.53094    78.061859    37426.586 
  269500    297.71464   -1460.1804    518.37626    401.76609    231.36434    37426.586 
  269600    297.82895   -1498.0227    509.95666    356.02003   -160.81279    37426.586 
  269700    294.63269   -1504.2509    534.40425    359.81489   -178.13464    37426.586 
  269800    304.31625   -1470.7232    483.17442    385.81411   -276.85738    37426.586 
  269900    282.31359   -1494.8695     493.7253    272.92191   -202.57522    37426.586 
  270000    310.39871    -1502.829    500.52719    398.51091    597.08832    37426.586 
  270100    299.53222   -1521.5043    493.61926    323.88783    682.41028    37426.586 
  270200     301.2348   -1511.8257    477.63166     325.2625    150.26877    37426.586 
  270300    298.65684   -1526.2893    490.59684    312.12988   -191.30112    37426.586 
  270400    298.81505   -1523.7643    466.70568    291.47765   -51.917721    37426.586 
  270500    301.78012   -1505.2787    489.97915     346.6179    119.45298    37426.586 
  270600    300.43626   -1511.1285    524.56317    369.28743    298.53807    37426.586 
  270700    295.14295   -1531.0388    505.90109    306.82666    262.19577    37426.586 
  270800    300.83977   -1519.3293    487.64826     325.9927    536.55122    37426.586 
  270900    297.77165    -1572.864    481.80683    252.77028   -518.94761    37426.586 
  271000    294.16651   -1560.3793    500.81908    267.99748   -755.01293    37426.586 
  271100     304.8397   -1573.1226    489.21155    291.81417   -269.84613    37426.586 
  271200    301.69026   -1536.6791    486.72997    311.56285   -553.62809    37426.586 
  271300      295.957   -1568.3055    476.40036    243.73291   -313.48465    37426.586 
  271400    300.03684   -1577.7773    452.05654    228.32944   -164.55619    37426.586 
  271500    294.77526   -1534.6673    489.79242    285.43006    73.001157    37426.586 
  271600    293.49773   -1536.1449    500.89797    289.29254    216.45512    37426.586 
  271700    296.64125   -1511.2569    494.61068    322.07983    182.21917    37426.586 
  271800    305.98539   -1522.4929    509.28719    367.68998    173.56285    37426.586 
  271900    286.75732   -1515.7562    487.54166    265.90585   -14.698364    37426.586 
  272000    291.17216   -1568.3831    472.08274    217.74403   -159.48085    37426.586 
  272100    305.94999   -1564.5301    476.18783    292.39365   -97.408892    37426.586 
  272200    290.18232   -1543.3136    513.17427    279.43787    643.64716    37426.586 
  272300     295.8889   -1507.8736    526.76323    354.22043    919.07701    37426.586 
  272400    296.26531   -1541.5114    503.97355    299.49163     303.2995    37426.586 
  272500     296.1392   -1559.1003    494.64956    272.00957    354.05368    37426.586 
  272600    304.80453   -1579.6402    504.06291    299.98919   -297.15886    37426.586 
  272700    300.85374   -1531.5612    510.64167    336.81731    -58.14029    37426.586 
  272800    307.32116   -1576.1793    470.22166    280.96632     45.59549    37426.586 
  272900    298.94616   -1538.3369    503.55436     314.3455    130.10714    37426.586 
  273000    290.23386   -1549.8124    485.85759    245.85498    79.050024    37426.586 
  273100    295.35596   -1611.9218    501.55021    222.55406   -311.90129    37426.586 
  273200    307.89946   -1603.7207    489.46345    275.27646   -211.54688    37426.586 
  273300    295.25004   -1577.7922    481.81452    236.46989   -396.60302    37426.586 
  273400    301.43929   -1572.1342    492.18812    280.43323   -28.173148    37426.586 
  273500    300.17162   -1590.9061    481.92883    245.68115   -434.99268    37426.586 
  273600    308.64263   -1582.4272    497.57438    308.03481   -308.44869    37426.586 
  273700    296.83957   -1581.8873    492.34606    250.07989   -157.90338    37426.586 
  273800    297.74548    -1574.374    505.17899    274.51443    95.367899    37426.586 
  273900    301.76677   -1551.1155    495.83678    306.57853    112.43335    37426.586 
  274000    294.70282   -1556.3746    518.02167    291.62516    339.01902    37426.586 
  274100    289.96283   -1541.8323    506.75732    273.51174    19.695845    37426.586 
  274200    292.96037   -1551.4245    504.35809    275.04806    457.68457    37426.586 
  274300    301.45579   -1556.7243    489.58317    293.31265    727.78696    37426.586 
  274400    299.11991   -1539.4957    531.89711    342.31356    553.93364    37426.586 
  274500    294.37288   -1535.6229    497.40996    290.27608    399.39101    37426.586 
  274600    297.81118   -1589.8818    493.25608    247.38022    81.533751    37426.586 
  274700    308.38389    -1569.205    501.55583    324.07077    256.17186    37426.586 
  274800    291.23656   -1551.6355    510.85381    273.55333   -11.282495    37426.586 
  274900    296.70991   -1534.9291    472.62965    276.73645    72.002632    37426.586 
  275000    293.54104   -1553.6697    489.94428    261.00956    141.51462    37426.586 
  275100    303.42642   -1549.5851    512.83965    332.60175     52.25986    37426.586 
  275200    311.34368    -1554.154    496.77131    347.69461    79.203253    37426.586 
  275300     301.4527   -1479.8019     539.1592    419.79718   -56.420673    37426.586 
  275400    299.37495   -1492.4905    492.57458    351.14718    -103.1719    37426.586 
  275500    310.48587   -1523.4669    500.96486    378.70404   -153.48609    37426.586 
  275600    287.07898   -1468.7031     516.2553    343.12423   -919.41149    37426.586 
  275700    296.90591   -1480.2492    542.42675    402.09795   -1131.9429    37426.586 
  275800    305.94465   -1459.2864    516.89738    438.32276   -1408.6077    37426.586 
  275900    301.23792   -1493.9743    507.21944    372.71576   -697.90783    37426.586 
  276000    304.00791   -1524.5612    514.03875    361.44893   -760.80513    37426.586 
  276100    309.37281   -1507.6639    478.20011    366.71911   -246.94069    37426.586 
  276200     304.5141   -1506.5439     536.3986    404.11048   -435.95447    37426.586 
  276300    293.63495   -1501.3405    528.76639    352.58466   -37.759195    37426.586 
  276400    297.18039   -1510.5471    488.80589    319.41796   -417.07675    37426.586 
  276500    302.77514   -1513.7945    500.51368    353.12713    404.74493    37426.586 
  276600    301.03697   -1510.4831    514.41248    362.49311   -83.855336    37426.586 
  276700    305.82867   -1513.0839    520.85766     387.9621   -288.62446    37426.586 
  276800    296.52939   -1513.2831    501.65176    326.58988   -307.24265    37426.586 
  276900    293.91954    -1507.545    526.71646    345.61457    320.35894    37426.586 
  277000    302.07208   -1524.3304    501.24653    340.15128    36.317632    37426.586 
  277100    307.39542    -1502.581    520.07107     404.7491     396.3659    37426.586 
  277200    297.47331     -1492.19    502.08521    352.37637    5.3444446    37426.586 
  277300    313.37298    -1491.852    509.58643    431.96993    33.181987    37426.586 
  277400    291.65861   -1513.1188    501.63762    304.75852   -146.27562    37426.586 
  277500    300.80517   -1482.2319    504.47366    379.75937    233.58437    37426.586 
  277600    291.16215   -1465.2931    511.17651    359.88256    93.466697    37426.586 
  277700    300.70351   -1519.5073    506.45875    344.01025   -481.78196    37426.586 
  277800     295.5239   -1524.9539    494.16813    302.89775   -319.39932    37426.586 
  277900    299.89565   -1512.5075    492.02254    332.92801     150.5728    37426.586 
  278000     294.4876    -1496.581    511.62296    344.04874   -337.49932    37426.586 
  278100    307.38912   -1533.0987    520.66821    374.80015   -484.17934    37426.586 
  278200    303.54891   -1511.1685    504.15275    362.88424   -1210.5686    37426.586 
  278300    306.76952   -1514.0789     496.8218    367.17733    -694.5367    37426.586 
  278400    306.71097   -1468.5443    491.15261    406.77855    66.860144    37426.586 
  278500    294.34526   -1491.0577     508.2771    345.58375   -353.95379    37426.586 
  278600     288.7804   -1465.2924    513.37405    351.33208   -953.80933    37426.586 
  278700    294.64343   -1487.6331    501.44648    343.52337   -451.35631    37426.586 
  278800    302.50811   -1482.7241    508.17758    390.65632   -201.97347    37426.586 
  278900    314.11049    -1517.642    485.78616    385.70798    198.51767    37426.586 
  279000    303.22945   -1504.5648     521.4339    385.32734    -258.0823    37426.586 
  279100    298.46285   -1534.7015    499.41106    311.65643   -433.48397    37426.586 
  279200     297.6875   -1489.7845    519.13472      372.798    337.08763    37426.586 
  279300    311.54496   -1530.2703    533.93356    409.64895    420.96954    37426.586 
  279400     295.9215   -1481.6894    494.25707    348.04553    84.700213    37426.586 
  279500    304.49195   -1481.8861    522.12555    414.39529    92.814994    37426.586 
  279600    291.83415   -1491.5185     519.9441    345.45748    311.80464    37426.586 
  279700    302.78534   -1533.4517    496.90704     329.9094    342.07024    37426.586 
  279800     290.3629   -1496.7634    508.40459    322.03341    386.28449    37426.586 
  279900    299.20464    -1560.469    508.96012    298.78565    427.52156    37426.586 
  280000    293.82039   -1530.7974    498.81529    294.01357    286.16652    37426.586 
  280100    291.06218   -1535.7481    508.09411      285.894   -23.514532    37426.586 
  280200    305.30208   -1539.8192    525.03807    363.03082    -388.7573    37426.586 
  280300    301.10933   -1510.7891    537.94973    386.05093    166.23376    37426.586 
  280400    298.58986   -1535.5818    506.21497    318.15321    196.90035    37426.586 
  280500    297.87618   -1544.2662    500.60822    300.64123   -5.0135558    37426.586 
  280600    291.81963   -1578.6376    501.17912     239.5079   -273.78423    37426.586 
  280700    305.66934   -1533.6092    525.71942    371.57958    22.326765    37426.586 
  280800    297.01302    -1551.773    486.75144    275.38229    424.78937    37426.586 
  280900    293.10256   -1472.1608    535.80968    386.40502    213.30338    37426.586 
  281000    302.89732   -1477.8059    510.04067    399.19416   -222.76626    37426.586 
  281100    297.33674   -1503.4111    513.38087    351.83451    254.39903    37426.586 
  281200    297.77766   -1482.9071     495.1287    356.07624   -367.63383    37426.586 
  281300    303.54495   -1491.6358    518.26118    396.50751   -312.58354    37426.586 
  281400    296.67334    -1496.071    497.08516    339.88503    214.56286    37426.586 
  281500    303.99953   -1474.8649     500.2381    397.30677    435.21454    37426.586 
  281600    304.87833   -1470.6211    547.27321    452.55167    -94.19504    37426.586 
  281700    290.36656   -1432.4335    504.92766    382.90293   -178.82405    37426.586 
  281800     304.4148   -1498.7871    540.76202    415.78262     55.68961    37426.586 
  281900    296.09935   -1501.2961    521.43566    356.42007    215.00064    37426.586 
  282000    296.06115   -1487.2676    506.38773    355.22822   -261.58141    37426.586 
  282100    302.33604   -1459.5478    526.99651    431.87503    237.54558    37426.586 
  282200    316.04605   -1450.3943    475.36606     451.2707    141.29414    37426.586 
  282300    302.69867   -1436.3291    531.20996    460.94379   -179.64487    37426.586 
  282400    298.02774   -1445.9912    523.57019    422.56227    230.62982    37426.586 
  282500    303.04361   -1466.6617    524.04351    425.00137    490.50299    37426.586 
  282600    299.40071   -1477.4754    522.26149    395.96549    496.54938    37426.586 
  282700    297.72954   -1518.0044    496.13627    321.76933    -258.6183    37426.586 
  282800    281.13441   -1521.8479    525.59509    272.49175    157.30696    37426.586 
  282900    298.17812   -1491.8309    490.73533    344.56629    430.21149    37426.586 
  283000    294.28028   -1496.3029    508.03988    339.80815    268.04225    37426.586 
  283100    298.05039    -1523.728     501.0608    322.41828    -147.9612    37426.586 
  283200    294.99048   -1517.8078    511.65956    325.12793    678.25854    37426.586 
  283300    299.96042   -1524.8387    515.14395    344.01057    292.52262    37426.586 
  283400    300.21824   -1547.2337    488.25605    295.89116    90.718569    37426.586 
  283500    299.16474   -1517.9726    515.55617    347.69802     308.3242    37426.586 
  283600    297.59304   -1522.2214     521.1944    341.99442    452.24044    37426.586 
  283700    297.44912   -1479.8202    511.43107    373.98285   -74.282889    37426.586 
  283800    310.98505   -1493.1914    490.64514    400.91259    72.440275    37426.586 
  283900    299.82742   -1475.3901    529.57049    407.28549    -392.2234    37426.586 
  284000    301.09882   -1500.8538    493.11269    351.10174   -18.027408    37426.586 
  284100    298.54044   -1479.2928    493.22508    361.22927   -171.05504    37426.586 
  284200     297.7553   -1442.8814    544.00507    444.87738    284.41846    37426.586 
  284300    289.21486    -1484.958     514.6221    334.87521    633.44729    37426.586 
  284400     299.7491   -1489.1377    506.95819    370.57211    343.74942    37426.586 
  284500    298.89556    -1476.707    539.49611    411.68875    430.39813    37426.586 
  284600    300.77826   -1525.4059    492.90725     324.8975     148.4153    37426.586 
  284700    296.36187   -1503.4925    487.01781    320.99058    419.53339    37426.586 
  284800    304.84562   -1550.1591    523.76823    349.36106    618.67936    37426.586 
  284900    305.44419   -1507.8317    499.81045    370.43203    473.72949    37426.586 
  285000     297.6203   -1478.8375    518.36747    382.67447   -27.877492    37426.586 
  285100    304.14512   -1514.4476    513.96942    372.11246    249.78898    37426.586 
  285200    303.01121   -1516.1165    509.04619    360.40302    11.860526    37426.586 
  285300    303.08978   -1560.7574    505.05091    312.12144   -181.17967    37426.586 
  285400    301.97442   -1533.4658    526.62106    355.94964   -24.649565    37426.586 
  285500    310.88884   -1499.2886    484.63317    388.36923   -828.09762    37426.586 
  285600    291.87129   -1506.6875    532.12325    342.63529   -698.08946    37426.586 
  285700    307.18851   -1554.5362    517.07292    348.86202   -409.87949    37426.586 
  285800    296.38003   -1539.9836    503.06805    300.63162   -251.94328    37426.586 
  285900    299.28003   -1520.8316    520.38695    350.19012   -461.66762    37426.586 
  286000    297.25956   -1483.0165     506.7597    365.25963   -88.769811    37426.586 
  286100    297.17633   -1504.7371    516.00339    352.40711   -313.66367    37426.586 
  286200    299.98059    -1480.598    485.40817    358.60653     142.9007    37426.586 
  286300    298.45062   -1497.0895    537.57504    387.37717   -212.22574    37426.586 
  286400    307.80704   -1488.1259    496.57947    397.57028   -269.64852    37426.586 
  286500     298.7679   -1501.8328    509.12913    355.61988   -443.12872    37426.586 
  286600    304.70742   -1496.3123    511.09469    389.91067   -521.02696    37426.586 
  286700    293.92904   -1483.0558    491.84408    335.27433   -833.26877    37426.586 
  286800      304.741   -1484.7932    512.68351    403.17007   -403.21357    37426.586 
  286900    297.84838   -1467.1853      521.529    398.51743   -611.04762    37426.586 
  287000    289.13279   -1493.7298    494.93256    306.04358   -477.91317    37426.586 
  287100    304.11528    -1527.924    525.78417    370.31615   -599.78033    37426.586 
  287200    304.31196   -1490.8591    491.29521    373.77966   -294.95299    37426.586 
  287300    297.66328   -1504.6134     538.6703    377.39539   -86.266723    37426.586 
  287400    303.53796   -1498.1033    498.43075    370.17795   -34.232444    37426.586 
  287500    304.49047   -1506.9287    517.09874    384.31915   -65.614053    37426.586 
  287600    333.42356   -1493.2669    456.21143    467.66722    497.02044    37426.586 
  287700    283.20662   -1528.7634    502.74946    252.08234    456.70442    37426.586 
  287800    294.29135    -1539.241    487.65683    276.53689    359.71153    37426.586 
  287900      297.034   -1488.5952    531.50862    383.41194    778.82164    37426.586 
  288000    309.06626   -1523.1963     502.5146    374.11774    235.53299    37426.586 
  288100    299.66352    -1480.658    496.14243    367.84987     609.2751    37426.586 
  288200    296.07097   -1520.8033    511.09442    326.44357    788.14827    37426.586 
  288300    294.71033   -1484.0143    510.86818    356.86583     770.2691    37426.586 
  288400      291.703   -1520.7006    503.83727    299.57671    388.45903    37426.586 
  288500    306.15758   -1495.1883    503.78857      390.273   -65.149308    37426.586 
  288600    296.02195   -1469.0102    486.89255    353.81351    83.412079    37426.586 
  288700    292.15618   -1518.4748    480.31924    280.32957   -297.70733    37426.586 
  288800    298.86187   -1509.7466    480.47947    319.48046   -632.26372    37426.586 
  288900    288.04687   -1520.0337    502.59101    282.49738   -322.49675    37426.586 
  289000    293.27009   -1544.5579    480.04642    259.00072   -268.97338    37426.586 
  289100    302.90345   -1502.4375    517.39737    381.94695    278.64306    37426.586 
  289200    293.29372   -1499.8224    529.69685    353.49332    -236.4359    37426.586 
  289300    308.75757   -1507.5223    480.28171    366.16582   -212.33201    37426.586 
  289400     295.0893   -1506.6015    505.42285    330.54351   -149.90111    37426.586 
  289500    300.19637   -1475.3188    486.29126    365.74257   -372.72371    37426.586 
  289600    291.52212   -1476.8888    511.31633    350.05125   -213.09328    37426.586 
  289700    291.50508   -1458.1533    484.51789     341.9114   -636.38748    37426.586 
  289800    314.43017   -1456.1597    515.70424    478.55102   -333.89685    37426.586 
  289900     309.9094   -1487.8208    473.99419    384.77796   -473.10693    37426.586 
  290000    304.47053   -1543.5146    509.22858     339.7732   -767.02916    37426.586 
  290100    312.92823   -1526.3266    480.16014    366.06183   -554.54381    37426.586 
  290200    296.67264   -1510.7533    484.91091    313.02534    43.042986    37426.586 
  290300      307.676   -1541.0059    507.85243    355.37185   -382.30081    37426.586 
  290400     290.8346   -1536.9187    482.51573    258.11804    420.59361    37426.586 
  290500    302.03848   -1544.7828    482.07986    300.38054   -6.6021755    37426.586 
  290600    298.12755   -1507.7892    501.38551    339.02998   -254.73263    37426.586 
  290700    300.92096   -1500.6579    484.74612    342.12837   -129.99754    37426.586 
  290800    294.88584   -1486.5828    488.27237    332.49361   -491.53343    37426.586 
  290900    303.78088   -1500.7757    504.87757    375.04868    248.81013    37426.586 
  291000    306.17626   -1475.0007    497.78151    404.53787    376.17087    37426.586 
  291100    294.92755   -1518.6056    519.73655    332.12316    342.20948    37426.586 
  291200    303.97065   -1511.2215    508.39065    368.97236    110.63616    37426.586 
  291300    297.80029   -1514.6842    484.16397    313.43656    355.13901    37426.586 
  291400    296.60553   -1507.2475    491.34761    322.66497    251.04034    37426.586 
  291500     297.0633   -1462.0084    545.08346    423.70578    223.43367    37426.586 
  291600    302.48534   -1429.1095    536.97669    472.96733     90.93446    37426.586 
  291700    302.56025   -1448.9734    511.50779    427.97259     145.6429    37426.586 
  291800    308.04551   -1500.6311    477.95342     367.5152    303.11741    37426.586 
  291900    303.50682   -1516.9087    507.71354    360.51481    626.14842    37426.586 
  292000    295.12767   -1543.7072    503.76199     291.9501    880.14244    37426.586 
  292100     302.5818   -1490.1625    520.02803    395.40097    361.23853    37426.586 
  292200    304.89264    -1505.579    473.92698    344.31214    310.93596    37426.586 
  292300    307.98918   -1478.1615    505.70631    417.48346    149.67222    37426.586 
  292400    296.39439   -1455.4053    495.60215    377.80884    84.942921    37426.586 
  292500    304.36626   -1437.1739    488.13935    424.55405   -8.6359076    37426.586 
  292600    295.03018   -1438.5578    511.02583    403.92341    32.902302    37426.586 
  292700    306.55773   -1467.2517    477.80322    394.03016    16.641308    37426.586 
  292800    295.28802   -1416.4714    503.91194    420.05958    204.57642    37426.586 
  292900    291.14806   -1470.5222    533.16202    376.57541   -127.26781    37426.586 
  293000    294.59628    -1430.334    517.71778    416.88102   -213.84882    37426.586 
  293100     295.8565   -1437.2049    492.18856    390.16818   -271.42656    37426.586 
  293200    295.41255   -1485.7696    512.54701    359.95846    -255.8571    37426.586 
  293300     292.7949   -1451.7373    504.23937    373.86974    468.68017    37426.586 
  293400    294.83134   -1479.8689    474.79108     325.4802   -28.712058    37426.586 
  293500    304.11676   -1496.2224    506.06773    382.30795    -136.8093    37426.586 
  293600    296.28201   -1449.1207    518.35884    406.34297   -472.24239    37426.586 
  293700    290.21226   -1470.1425    497.72596    337.29582   -911.97232    37426.586 
  293800    300.17463   -1499.2533    473.01838     328.4371   -422.47855    37426.586 
  293900    301.16227   -1510.7116    501.78413     350.2017   -240.71189    37426.586 
  294000    288.30733   -1480.0077    497.88451    318.99233   -211.98272    37426.586 
  294100     298.1296   -1484.5349    488.85233    349.76036    484.44787    37426.586 
  294200    310.00442   -1489.8021    477.36226    386.59349    200.97533    37426.586 
  294300    293.69859   -1515.3387    493.10026    303.20759    158.66247    37426.586 
  294400    311.79413   -1481.8154    486.85342    412.14821    406.09889    37426.586 
  294500    295.75453    -1539.836    485.04407    279.93239     421.9221    37426.586 
  294600    306.72271   -1526.9623    487.67198    344.93288    190.51461    37426.586 
  294700    302.13968   -1491.6849    507.43635    379.29164     571.8866    37426.586 
  294800    303.48958   -1549.8593    499.56819     319.3411    535.97958    37426.586 
  294900    290.29462   -1545.5466    498.61365    263.15115      492.385    37426.586 
  295000    296.82008   -1566.8065    490.35113    263.07771    65.304972    37426.586 
  295100    293.61012   -1561.2206    483.46964    247.29576   -145.74273    37426.586 
  295200    308.97076   -1516.5794    501.95062    379.73964     29.28063    37426.586 
  295300    297.70879   -1561.1937    486.08056    268.43069    579.06098    37426.586 
  295400    309.10865   -1519.8121     492.5724    367.75106   -75.020272    37426.586 
  295500    308.68212   -1475.4282    500.46247    418.10017    82.066721    37426.586 
  295600    293.78103   -1539.8722    486.49014    272.43599   -270.01556    37426.586 
  295700    294.78986   -1521.3953    474.22255    283.19808    279.24841    37426.586 
  295800    294.15289   -1523.0253    498.51457    302.98553   -156.34201    37426.586 
  295900     308.6206   -1515.3037     501.7406    379.22508    868.48576    37426.586 
  296000     306.8724   -1555.1229    500.74664    330.52238    220.16822    37426.586 
  296100    301.50925   -1503.9237    512.44171    369.21316   -832.86618    37426.586 
  296200    293.64309   -1502.0019    485.45224    308.64592     -529.461    37426.586 
  296300     297.4391   -1508.1527    513.41482    347.58888   -553.20204    37426.586 
  296400     294.3412   -1479.2417    505.71646    354.82084   -784.87533    37426.586 
  296500    292.21299   -1506.9246    487.73163    299.54857   -21.003569    37426.586 
  296600    300.38626   -1465.9216    480.07586    369.78135   -173.39286    37426.586 
  296700    304.40523   -1494.2133    487.80298    367.35418   -199.98783    37426.586 
  296800     296.2556   -1504.8505    488.25687    320.39207     63.99951    37426.586 
  296900    295.75605   -1499.7937    480.78582     315.7233   -148.50431    37426.586 
  297000     288.8026   -1521.5561    504.19809     285.9926   -342.73645    37426.586 
  297100    296.96495   -1539.6956    470.32764    270.81892     330.1489    37426.586 
  297200    294.81275   -1521.9074    491.42022    299.98696    214.36219    37426.586 
  297300    296.10914    -1452.191    493.49664    377.63034    44.393112    37426.586 
  297400    300.47733    -1502.376    487.61994    341.28205   -88.093034    37426.586 
  297500    302.99097   -1523.3943    473.87176    317.85945    464.13943    37426.586 
  297600    309.10785   -1498.0759    496.65996    393.57121    120.11063    37426.586 
  297700    302.12205   -1546.1467    484.37753    301.69145   -1072.0615    37426.586 
  297800    308.54547   -1532.8657    479.74211    339.32561    -897.8101    37426.586 
  297900    305.33119    -1547.123    473.58681    304.40709   -978.16273    37426.586 
  298000    295.07391   -1574.9773    476.42035    233.09583   -758.95891    37426.586 
  298100    298.55181   -1505.3814    503.98343     345.9504   -34.426197    37426.586 
  298200    292.92816    -1510.485    510.82986      322.314   -44.865013    37426.586 
  298300    291.47478   -1545.5439     477.5604    247.42652   -313.27248    37426.586 
  298400     298.6993   -1502.3127    482.26462    327.96591     43.97092    37426.586 
  298500    298.60247   -1523.6108    506.09675    330.06294   -81.215768    37426.586 
  298600    306.50513   -1471.2376    508.50114    420.50477    180.80299    37426.586 
  298700    294.79325   -1468.4726    520.02096    381.93452   -47.143495    37426.586 
  298800    295.59729   -1444.7632    490.93997    380.19154   -360.13141    37426.586 
  298900    301.41911    -1515.916    492.08494     336.4572   -312.32351    37426.586 
  299000    320.04381   -1494.1533    489.16403    439.35134    249.53441    37426.586 
  299100    303.79148    -1497.516    513.55234    387.03098   -229.69245    37426.586 
  299200     308.6831   -1477.1355    496.91755    412.85229   -734.95016    37426.586 
  299300    298.45764   -1482.3257    491.38272    355.98031    50.666674    37426.586 
  299400    306.15152   -1531.2351    478.72045    329.13072    -406.9517    37426.586 
  299500    302.90478    -1500.364    509.54378     376.1728   -6.9377899    37426.586 
  299600    294.69534   -1525.8704    510.64663    314.72054   -361.29247    37426.586 
  299700    305.38306   -1538.7188    485.32633    324.78489   -593.30862    37426.586 
  299800    301.20992   -1565.3156    486.24903    280.27766   -790.42993    37426.586 
  299900    295.94112    -1527.269    475.93677     284.2342   -1112.7607    37426.586 
  300000    291.88703   -1506.8912    471.06899    281.44831   -587.97494    37426.586 
  300100    298.17668    -1550.711    486.58194    281.52635    8.0513642    37426.586 
  300200    299.14381   -1526.9842    498.89922    321.93504    838.04353    37426.586 
  300300     301.6615   -1575.0454    502.18431    288.52111    778.73231    37426.586 
  300400     299.6987    -1599.883    487.84191    240.48307    627.72676    37426.586 
  300500    309.09063   -1558.7735    454.36143    290.49742    880.09961    37426.586 
  300600    307.61422   -1544.7611    518.06674    361.55215    3.8251578    37426.586 
  300700    300.88253   -1551.9758    490.27476    296.16567   -142.38331    37426.586 
  300800     296.5036   -1556.9828    471.21569    252.33778   -637.88828    37426.586 
  300900    302.29353   -1550.1484    487.00463    301.09071   -673.28098    37426.586 
  301000    300.59434   -1541.7218    470.48295    285.32731   -602.04417    37426.586 
  301100    299.72704   -1569.2746    487.29899    270.67648   -512.27021    37426.586 
  301200     288.3849   -1533.8545    506.42733     274.0385   -836.01915    37426.586 
  301300    309.58128   -1520.8376    491.89637    368.18253   -554.70474    37426.586 
  301400    307.65472   -1556.5958    504.87056    336.70402   -292.40061    37426.586 
  301500    291.89993   -1556.9703    500.52587    260.88433   -11.488494    37426.586 
  301600    301.51959   -1506.0286    502.26942    356.98261    17.543289    37426.586 
  301700    303.61394   -1536.3069    490.79974    324.68626    270.13071    37426.586 
  301800    306.97547   -1526.3934    500.59542    359.56592    345.35019    37426.586 
  301900    293.08474   -1524.8385    503.98305    301.82028   -244.44471    37426.586 
  302000    298.49057    -1523.032    504.18717    328.22714    177.96749    37426.586 
  302100    301.47488   -1518.7613    502.32176     344.1004    260.87171    37426.586 
  302200    300.37603   -1528.6474    483.90036    310.83389    67.920188    37426.586 
  302300    295.38153   -1528.3471    496.80017    301.49408   -138.54631    37426.586 
  302400    302.61827   -1521.6997    523.21382    367.21419   -253.07596    37426.586 
  302500    291.36575   -1492.1654     474.4515    297.20414     96.06824    37426.586 
  302600    308.27225   -1552.6058    530.28856    368.89893   -55.161771    37426.586 
  302700    297.56138   -1491.0476    472.04164    323.87261     36.94321    37426.586 
  302800    304.18476   -1491.4143    508.73059     390.0858    77.291102    37426.586 
  302900    303.94279   -1545.7823    494.73359    320.62887   -420.88103    37426.586 
  303000    292.69542   -1545.5623    488.27527    263.63169   -500.68172    37426.586 
  303100    304.88347   -1523.9921    508.07532    360.00598   -754.67923    37426.586 
  303200    298.40744   -1518.1933    494.23314    322.73667   -343.75136    37426.586 
  303300    292.40213   -1477.9148    521.91979    363.60011   -136.75061    37426.586 
  303400    297.12997   -1502.5102    505.85228    344.27373   -302.19024    37426.586 
  303500    303.62927     -1534.97    493.28332    328.57595   -440.55352    37426.586 
  303600    300.93736   -1497.1881    505.39179     366.3179   -959.52317    37426.586 
  303700    308.90573   -1499.7933    501.89637    396.17807   -456.50616    37426.586 
  303800     300.3245   -1470.4145     508.8197    393.75355   -432.05959    37426.586 
  303900    299.50945   -1483.3381    522.05555    390.38758    207.86742    37426.586 
  304000    303.15237   -1488.9926    513.85263     392.9704    194.09258    37426.586 
  304100    307.87443     -1500.85    509.20412    397.77487    38.882117    37426.586 
  304200    293.78656   -1512.1813    518.57813    332.23988   -63.939021    37426.586 
  304300    288.35934   -1506.3095    501.48754    296.52829    -270.0791    37426.586 
  304400    297.06728   -1504.9729    501.93513    337.61098   -197.34399    37426.586 
  304500    289.63535   -1497.3008    509.87583    319.68382   -194.47532    37426.586 
  304600    305.95387   -1506.6722    494.99967    369.08088   -679.83555    37426.586 
  304700    305.68488   -1456.9408    504.44767    427.04639   -801.86337    37426.586 
  304800    295.24828   -1522.7373    504.13626     313.8386   -504.95036    37426.586 
  304900    300.52553   -1525.0045     496.5058    327.75692   -132.07508    37426.586 
  305000     305.4697   -1533.1202    507.70994    353.15807   -358.08889    37426.586 
  305100    282.33813   -1543.9914    507.61759    237.80304   -711.92229    37426.586 
  305200    300.25568   -1536.4275    491.82532     310.4356    447.93772    37426.586 
  305300    317.74412   -1477.2431    504.78897    461.50812   -208.37375    37426.586 
  305400    302.69284   -1470.9839    512.12874    407.18144   -645.01222    37426.586 
  305500    297.86337    -1472.451    503.55056    375.34102    153.50343    37426.586 
  305600    303.68782   -1507.9532    507.51295    370.08664     490.6933    37426.586 
  305700    297.18076   -1500.0806    506.15893    347.23915   -33.474472    37426.586 
  305800    296.62401   -1484.1044    513.19258    367.73644    109.39583    37426.586 
  305900    304.61967   -1492.1892    504.08007    386.62305   -84.262987    37426.586 
  306000    312.50642   -1478.8242    515.25276    446.75326   -579.92455    37426.586 
  306100    290.22131    -1542.168    492.08029     259.6655   -810.87035    37426.586 
  306200    299.78381   -1526.0508    515.82088    342.67833   -1135.4777    37426.586 
  306300    299.24736   -1544.1384    496.83411      303.183   -1247.6565    37426.586 
  306400    296.27809   -1572.1088    476.97918    241.95757   -771.32785    37426.586 
  306500     317.1101   -1531.6184     511.6542    411.13664   -691.05745    37426.586 
  306600    290.16515   -1590.8997    491.43445    210.03449   -522.66087    37426.586 
  306700    308.80594   -1610.5325    487.14946    270.24165    88.504919    37426.586 
  306800    306.58676   -1537.7349    493.35323    339.22797   -1.5372284    37426.586 
  306900    295.02755    -1515.136    501.83728    318.14479    97.920546    37426.586 
  307000    296.44507   -1487.6487    496.45607    346.64805    46.316164    37426.586 
  307100    302.47617   -1516.2628    493.31467     342.1106   -281.69669    37426.586 
  307200    300.94607   -1554.3678    488.60012    292.38582   -212.20557    37426.586 
  307300    290.60522   -1540.7248    496.54723    267.30823    245.70228    37426.586 
  307400    305.30572   -1557.0997    482.44277    303.17137    307.50132    37426.586 
  307500     306.0281   -1563.8819    501.72225    318.92873   -38.249778    37426.586 
  307600    309.70835   -1526.0043    511.10693    382.79982    562.84758    37426.586 
  307700    296.53096   -1550.0096    488.85894    277.07762    -62.42957    37426.586 
  307800    299.54725   -1526.3554    529.72675    355.21208    629.88071    37426.586 
  307900    305.27981    -1494.837    506.78922    389.66368    168.65155    37426.586 
  308000    299.93988   -1530.4743    505.34333    328.48162     744.5757    37426.586 
  308100    296.19964   -1543.4148    498.20058    291.51892    948.44567    37426.586 
  308200    302.95619   -1515.3514    521.01877    372.89241    921.38386    37426.586 
  308300    298.43992   -1513.8441    517.87286     350.8721    513.42222    37426.586 
  308400    299.04161    -1519.108     473.9292    304.37993    270.04648    37426.586 
  308500    293.58968   -1463.3718    516.35607    377.93879    190.48816    37426.586 
  308600    310.16215   -1508.5125    493.24385    384.47649    332.34391    37426.586 
  308700    309.99135   -1523.1918    506.79704    382.57958    114.31504    37426.586 
  308800    293.88691   -1522.7568    500.31882    303.85792   -299.23518    37426.586 
  308900    293.10217   -1567.3729    491.73251    247.11395   -432.29397    37426.586 
  309000     303.0493   -1555.2106    495.00969     307.4443   -452.30109    37426.586 
  309100    296.48661   -1532.0828    481.07274    287.01806   -374.78134    37426.586 
  309200     303.2224   -1550.5575    502.81475     320.6837   -19.047726    37426.586 
  309300    289.04348   -1535.2604    478.83613    248.01351   -424.45504    37426.586 
  309400    297.47745    -1515.123    514.41565    341.79242    89.652154    37426.586 
  309500    297.83307   -1534.7855    521.39769    330.71691     391.4311    37426.586 
  309600    310.69753    -1550.747    485.04885     336.4631    402.76171    37426.586 
  309700    289.85766   -1544.0779    508.93229    272.96649     365.4999    37426.586 
  309800    309.55277   -1530.3474    520.52989    387.17753    193.40392    37426.586 
  309900    292.21874   -1580.8878    516.38488    254.26459    613.17099    37426.586 
  310000    295.73601   -1584.7515    520.06266     269.9519   -63.702533    37426.586 
  310100    294.04264   -1559.2633    501.71848    269.45382   -374.07237    37426.586 
  310200    309.37726   -1515.2329     481.7623    362.73238   -694.70062    37426.586 
  310300    306.44983   -1556.1226     505.1825     332.0516   -1013.2648    37426.586 
  310400    296.20359   -1545.8102    484.57307    275.51383   -360.80124    37426.586 
  310500    290.13002   -1514.2595    511.89409     306.9758   -368.20969    37426.586 
  310600    289.13275   -1522.4829    492.82896    275.18666    -157.8757    37426.586 
  310700    303.87282   -1513.0561    489.10831    347.41395    342.74796    37426.586 
  310800    301.30134   -1499.9546    492.89435    352.69657    618.15596    37426.586 
  310900    298.04904    -1507.766    513.64965    350.96299    97.716855    37426.586 
  311000    294.23746   -1479.6265    489.10298    337.35442    589.21794    37426.586 
  311100    295.36076   -1497.3846    506.01444    341.57712    33.404787    37426.586 
  311200    298.47146   -1500.9261    505.91629    351.97586   -383.61633    37426.586 
  311300    299.37654   -1457.2242    477.69282    371.53894   -31.403572    37426.586 
  311400    296.22138   -1532.6453    507.85474    312.04064    485.24905    37426.586 
  311500    308.32154   -1499.0441    488.45894    380.85339    893.04371    37426.586 
  311600    297.34242   -1542.8409    490.44976    289.49926    235.14397    37426.586 
  311700    289.91499   -1551.1534    496.50878    253.72619    49.403735    37426.586 
  311800    290.29212   -1568.2904    488.66786    230.45023    389.14739    37426.586 
  311900    308.00656   -1536.9205    494.17157    347.26815    314.27438    37426.586 
  312000    300.83614   -1545.5577    491.74032    303.84003    -103.1864    37426.586 
  312100    295.64063   -1507.7099     513.9722    340.47263    589.97391    37426.586 
  312200    302.31034   -1517.8541    486.47858    332.93481    30.594831    37426.586 
  312300    288.63923   -1536.5093      501.986    268.09008     63.21053    37426.586 
  312400    297.54941   -1533.6226    493.33226    302.53415    52.024679    37426.586 
  312500    298.44293   -1490.2539    503.31269    359.91577   -125.13434    37426.586 
  312600    291.85219   -1496.9611    514.41847    334.57072    179.78079    37426.586 
  312700    306.79811   -1509.6335     514.9144    389.84437     25.57846    37426.586 
  312800    309.58659   -1508.7181    528.39091     416.8205    196.91137    37426.586 
  312900    289.86448   -1499.6156    489.68534    298.21264   -505.70547    37426.586 
  313000        295.9   -1500.4438    493.64144    328.57851    270.26039    37426.586 
  313100    292.33995   -1535.7102    509.56029    293.16462   -54.062301    37426.586 
  313200    298.33342   -1543.7104    495.28413    297.93648    321.53081    37426.586 
  313300    293.77434   -1558.2055    512.00749    279.58989    943.65107    37426.586 
  313400    298.91137   -1541.1581    491.31046     299.1234     410.9092    37426.586 
  313500    309.45293   -1537.9861     484.1569    342.71531    341.37945    37426.586 
  313600    299.88463   -1533.5764    505.77382    325.56069    319.89222    37426.586 
  313700    293.04586   -1518.6509    485.12684    288.97618    476.16292    37426.586 
  313800    300.45071   -1566.2726    472.81155    262.45695    394.25025    37426.586 
  313900    302.18903   -1515.9136    497.26492     345.1142   -193.20863    37426.586 
  314000    301.79091   -1518.6985    515.35473    358.62238   -30.243308    37426.586 
  314100    300.31059   -1488.2525    504.95886      371.992    388.51286    37426.586 
  314200    308.55099   -1492.1345    509.95485     410.2945    47.796928    37426.586 
  314300    294.44055   -1476.5747    525.24987    377.46964   -98.668158    37426.586 
  314400    308.36265    -1529.715    491.49168    353.40076   -416.21246    37426.586 
  314500    297.58957   -1481.3913    523.55678    385.17128    -586.3007    37426.586 
  314600    303.58908   -1486.5113    499.64099    383.21089   -390.23546    37426.586 
  314700     298.0342   -1509.7785    539.01347    374.24733   -729.06326    37426.586 
  314800     297.1604   -1537.0873    510.26932    314.25094   -189.95868    37426.586 
  314900     301.1481   -1493.2794    523.56133    389.34715   -266.40483    37426.586 
  315000     294.9707   -1481.6911     511.1001    360.59595   -107.81531    37426.586 
  315100    301.89118   -1489.8163    520.44322    393.04566    503.55158    37426.586 
  315200    302.23107   -1530.1855    519.92418    353.69129    413.87546    37426.586 
  315300    297.97439   -1522.0972    508.30576    330.95098    542.16768    37426.586 
  315400    294.57523   -1502.3223    510.76465    337.84457    57.203915    37426.586 
  315500    303.91894   -1503.7198    512.34625    380.19634    171.55046    37426.586 
  315600     310.7022   -1494.5494    498.14657    405.77952    878.49419    37426.586 
  315700    300.34963   -1503.1013    518.84919    371.20968     661.1005    37426.586 
  315800    302.97107   -1503.7995     496.2502    359.74289    1011.3191    37426.586 
  315900    296.94948   -1498.3424    540.47449    382.24915   -42.039094    37426.586 
  316000    290.36851   -1483.8869    495.60468    322.13527   -321.99918    37426.586 
  316100    304.32713   -1484.3579    510.82954     399.8837   -28.779637    37426.586 
  316200    298.57474   -1467.0418    500.52351    380.93354    168.35876    37426.586 
  316300    296.94149   -1442.8591    530.82359    428.04555    49.626564    37426.586 
  316400    291.36084   -1451.5797     538.5587    401.87491   -139.16312    37426.586 
  316500    295.79917   -1488.5539    488.93149    335.30339   -386.63031    37426.586 
  316600     294.3209   -1493.7823    508.88543    343.35758   -365.42253    37426.586 
  316700    290.58788   -1471.5002    540.81014    380.71749    236.07948    37426.586 
  316800    291.80905   -1515.3229    494.44948    296.04522    306.75298    37426.586 
  316900    296.71747    -1460.259    503.02789    381.83898   -383.85575    37426.586 
  317000     289.4743    -1473.516    487.45744    320.32342   -344.43062    37426.586 
  317100    305.44464    -1476.216    503.54024    405.77957    734.10328    37426.586 
  317200    299.66143   -1473.8568    483.73861    362.23778    621.83756    37426.586 
  317300    301.42014    -1483.919    515.31049    391.68443    755.83132    37426.586 
  317400    294.37931   -1492.4373    495.92568     332.0064    451.78484    37426.586 
  317500    294.98374   -1509.6624    506.54299    328.12639    639.71742    37426.586 
  317600    298.55712   -1469.1544    504.79054     383.0084     627.2287    37426.586 
  317700    305.21132   -1487.5671    468.88036    358.71552    267.87342    37426.586 
  317800    297.22711   -1490.1287    545.43294    396.67422    423.00944    37426.586 
  317900    298.37019   -1462.6845    475.54961    359.39384    340.66321    37426.586 
  318000    301.22839   -1474.9413    503.70127    388.18761     171.7389    37426.586 
  318100    291.88284   -1471.4147    480.42291    326.25984    164.66156    37426.586 
  318200    295.19737   -1480.7576    517.74188    369.19416    322.64979    37426.586 
  318300      291.859   -1496.7334    472.11718    292.52775   -22.314356    37426.586 
  318400    297.16975   -1540.1466    509.36882    310.33338    216.55235    37426.586 
  318500     299.4486   -1552.8484    469.64456    268.19164    684.83085    37426.586 
  318600    307.92986   -1527.3019    511.42599     373.7951     69.24208    37426.586 
  318700    294.83355   -1491.1849    502.48786    341.87092    767.59337    37426.586 
  318800    302.74819   -1484.7541    491.29255    372.82485   -113.73499    37426.586 
  318900    294.86552   -1474.8148    502.89715    358.79459    71.839918    37426.586 
  319000    297.49952   -1432.8032    482.94265    392.73885     103.3644    37426.586 
  319100     298.8252   -1442.6499    504.36021    410.29248    127.67378    37426.586 
  319200    303.19201   -1466.0506    487.02454    389.26322   -284.05052    37426.586 
  319300    297.69213   -1469.2439    486.72567    360.95037   -561.13537    37426.586 
  319400    308.07324    -1492.865    489.01249    386.46549   -48.305534    37426.586 
  319500    300.82135   -1513.6385    513.07402     357.0261   -433.92421    37426.586 
  319600    301.98688   -1435.3673    517.77075    445.25411   -222.40882    37426.586 
  319700     299.8604   -1490.1983    497.46764    360.52324    206.11801    37426.586 
  319800    297.21237   -1481.6765    512.03272    371.65971   -739.69929    37426.586 
  319900     294.7149   -1487.2103    502.96544    345.78764    166.94446    37426.586 
  320000    307.16549   -1502.3991    494.04489    377.86718   -136.42816    37426.586 
  320100    295.14947    -1465.816    509.75539     375.9331    780.47665    37426.586 
  320200    300.66468   -1485.7693    499.44197    370.55622    157.62837    37426.586 
  320300    300.53768   -1509.6933    536.01554    382.63267    -101.2946    37426.586 
  320400    302.06571   -1512.0735    501.39219    352.52509    525.43361    37426.586 
  320500    298.45268   -1514.1477    528.91442     361.6677   -125.37392    37426.586 
  320600    307.78313   -1480.5319     511.3893    419.86616   -266.98907    37426.586 
  320700    292.17428   -1485.4379    498.12982    331.25876   -486.83798    37426.586 
  320800    289.87429    -1468.364     506.4157     346.2388   -229.20348    37426.586 
  320900     303.6815   -1496.8962    533.87525    407.47733   -337.70994    37426.586 
  321000    305.51117   -1472.3162    492.09429    398.53362   -156.63344    37426.586 
  321100    289.00045   -1524.4312    495.97022    275.78257   -478.49299    37426.586 
  321200    294.73126   -1478.3558     498.1823    349.93287   -346.05012    37426.586 
  321300     299.9429   -1501.4745    493.17203    345.32379    57.473369    37426.586 
  321400    308.17468   -1514.6426    501.63491    377.76809    134.95337    37426.586 
  321500    295.99457   -1526.4743    471.95868    281.29203    492.29598    37426.586 
  321600    310.24107   -1547.8444     498.3608    350.61774    822.62408    37426.586 
  321700    300.45309   -1551.5896     507.2924    311.63154    386.74291    37426.586 
  321800    307.22525   -1517.2854    509.08564    378.29129    931.56734    37426.586 
  321900    301.53623   -1516.9728    491.74081    335.58486    680.03519    37426.586 
  322000    302.85692   -1541.9614    507.97664    332.79225    504.92565    37426.586 
  322100     306.3615   -1561.8403    471.44247    292.19522    27.455013    37426.586 
  322200    305.18952    -1516.857    489.49824    349.94514    68.300714    37426.586 
  322300    292.96033   -1593.3697    482.96911    211.71367   -442.60222    37426.586 
  322400    292.84273   -1516.8603    484.39141    289.11468    28.399691    37426.586 
  322500    300.42046     -1514.18    489.05751    330.65891   -389.32161    37426.586 
  322600    306.12379   -1465.3438    507.25678    423.43326    55.298278    37426.586 
  322700    292.35647   -1490.5394    476.69978    305.54945   -1.9233932    37426.586 
  322800    301.24687   -1453.2829    511.51142    417.73953    412.08923    37426.586 
  322900    302.23054   -1452.3181    535.88523    447.51731   -180.39255    37426.586 
  323000    289.12049   -1459.1603     483.6895    329.31451    122.53553    37426.586 
  323100    290.59314    -1436.517    516.91484    391.82912    397.45643    37426.586 
  323200    289.46828   -1453.3076    477.01909    330.06626   -58.097645    37426.586 
  323300    285.21728   -1486.2735     454.0093     254.9061   -816.79556    37426.586 
  323400    299.22417   -1465.0006    483.49326    368.87531   -370.41092    37426.586 
  323500    296.47747     -1479.94    496.56699    354.61399   -135.39866    37426.586 
  323600     301.2904   -1451.6568    484.97162    393.02224    350.64909    37426.586 
  323700    303.21745   -1502.2974    526.86428    392.97099    244.78955    37426.586 
  323800    311.29978    -1474.682    484.62341     414.8206     152.8177    37426.586 
  323900    305.08731   -1498.0713    467.37647    346.14779    96.786897    37426.586 
  324000    305.16738   -1472.8109    501.63423    406.02736   -457.40151    37426.586 
  324100    300.72206   -1469.9788    518.41535    405.57911   -443.24498    37426.586 
  324200    304.43043   -1459.5991    501.44332    415.72241   -234.26207    37426.586 
  324300    296.96747   -1484.5669    520.16185    375.79325   -926.65156    37426.586 
  324400    301.32009   -1447.4894    489.00937    401.36142   -353.31613    37426.586 
  324500     308.0559   -1483.8696    522.44553    428.81565    387.95186    37426.586 
  324600     298.6372   -1481.9171    493.13865    358.95522     449.6327    37426.586 
  324700    296.36068   -1504.5707    484.74825    317.63746    298.55077    37426.586 
  324800    301.79783   -1497.0839    507.68498    372.59857   -290.07344    37426.586 
  324900    292.63175   -1493.5384    474.71224    301.80528   -201.96743    37426.586 
  325000    294.78342   -1513.5481    493.20941    310.00309   -123.91968    37426.586 
  325100    294.31725   -1512.4078    529.15233    344.98246    288.93572    37426.586 
  325200    303.90843   -1535.8732    491.05486    326.70415    426.77891    37426.586 
  325300    288.86464   -1528.4207    517.96328    293.17318   -434.72594    37426.586 
  325400    301.19832   -1504.3955    506.77498    361.67137    56.277674    37426.586 
  325500    296.68714   -1476.5417    496.68048    359.07196    136.62038    37426.586 
  325600     297.8395   -1489.3597    507.79426    362.56823    448.95316    37426.586 
  325700    299.79809   -1474.2188    516.57983    395.33376    504.53221    37426.586 
  325800     306.6008   -1494.4577    497.75175    386.96708   -497.20473    37426.586 
  325900    292.81143   -1548.7195    527.53227    300.25503    193.02741    37426.586 
  326000    297.52454   -1524.4213    491.95282    310.24383     374.9628    37426.586 
  326100    310.47392   -1494.4774    504.90777    411.58251    46.009383    37426.586 
  326200    299.14945   -1466.5727    522.88547    406.35818    478.36706    37426.586 
  326300    303.39512   -1477.2897    509.48978    401.40595    358.68583    37426.586 
  326400    299.46549   -1515.1554    489.40577    325.72214   -495.83845    37426.586 
  326500    301.77063   -1486.2989    519.38325    394.95907   -355.37448    37426.586 
  326600    306.76094   -1512.2613    484.14458    356.27891   -396.89447    37426.586 
  326700    295.76221    -1500.813    492.56178    326.50785     128.9789    37426.586 
  326800     299.0255   -1524.9479    491.07857    315.61678     236.9352    37426.586 
  326900    299.48545    -1523.607    537.22679    365.18162    826.55957    37426.586 
  327000    296.65702   -1473.9754    492.02232    356.84419    263.17578    37426.586 
  327100     310.9643   -1477.9893     501.7114    427.08731    601.54862    37426.586 
  327200    304.58529   -1519.2074    510.24267    365.61237    532.90095    37426.586 
  327300    294.58555   -1493.2731    496.82848    333.00415    762.27527    37426.586 
  327400    302.97307   -1517.4278    522.24033    372.11377   -512.65527    37426.586 
  327500    298.66738   -1522.6016    492.28304    317.55134    -246.8408    37426.586 
  327600    299.43541   -1561.9949    470.08901    259.43002   -342.04873    37426.586 
  327700    299.28907    -1581.155    516.53829    286.05886   -162.63095    37426.586 
  327800     288.9868   -1574.7153    486.58026    216.04694    -704.1916    37426.586 
  327900    297.46809   -1534.9487    500.30141    307.81021   -1066.4972    37426.586 
  328000    303.24004   -1516.9222    486.05464    337.63854   -43.891761    37426.586 
  328100    294.88132   -1519.3579    519.52892    330.95457   -505.85701    37426.586 
  328200    296.99247    -1506.775    500.06696    333.60307   -281.88912    37426.586 
  328300    287.80185   -1512.2209    494.46579    281.07927    -51.99089    37426.586 
  328400    303.69812   -1539.4441    500.96052    332.08976    109.87268    37426.586 
  328500    296.14841   -1501.3175    521.62274    356.80717    631.65652    37426.586 
  328600    298.38225   -1528.5431    508.60516    326.64518    274.30896    37426.586 
  328700      300.698    -1506.438    471.73217    322.32815   -180.45769    37426.586 
  328800     304.0671   -1520.0342    505.46629    357.67064    230.66742    37426.586 
  328900    300.55945   -1497.2713    490.72261    349.86001   -466.63951    37426.586 
  329000    293.92089   -1483.1871    544.76032    388.02245   -631.06829    37426.586 
  329100    298.20179   -1503.0028    509.55384    352.31968   -273.06588    37426.586 
  329200    293.31567   -1498.7054    512.26725    337.27971   -122.63121    37426.586 
  329300    293.68217   -1503.1294    515.20645    337.44891    -248.2293    37426.586 
  329400    297.22088   -1477.6563    494.79095    358.47653    721.61514    37426.586 
  329500    304.86278   -1484.6568    503.07557    394.24813    978.11808    37426.586 
  329600    293.21919   -1541.0866     510.0784    292.27432    31.054768    37426.586 
  329700    301.42615   -1513.1448    513.31184    360.48703    43.178186    37426.586 
  329800    297.31948   -1551.0993    485.12493     275.8125    618.18523    37426.586 
  329900    302.67791   -1521.2754     529.6964    374.39026    584.14242    37426.586 
  330000     297.1842   -1481.8769    493.56386    352.86328    621.65757    37426.586 
  330100    299.60068   -1502.1799    523.33895    373.24089   -247.25477    37426.586 
  330200    300.25509   -1510.2271    476.00305    320.81106   -186.90196    37426.586 
  330300    297.19365   -1521.5608    513.23653    332.89477    233.35098    37426.586 
  330400    289.53168   -1477.0842    523.57027    353.12705     77.54228    37426.586 
  330500    305.80077   -1491.3778    509.47337    398.15805    322.04675    37426.586 
  330600    304.27417   -1531.0376    530.39036    372.52576    347.19931    37426.586 
  330700     291.4352   -1518.4112    503.30482    300.12501   -173.54327    37426.586 
  330800    304.56923   -1522.4847    479.94564    331.96553    59.177288    37426.586 
  330900    300.22203   -1529.5039    522.79985    348.18188   -34.488705    37426.586 
  331000    296.81178   -1532.1602    519.49002    326.82547   -317.25475    37426.586 
  331100    292.89881   -1489.1067    540.60941    373.33932   -232.06098    37426.586 
  331200    305.93958   -1524.9643    511.93447    367.65913    108.00942    37426.586 
  331300    304.47211   -1500.6504    485.82259    359.23857   -33.271271    37426.586 
  331400     299.6313   -1501.6462    504.33715    354.91089    173.49924    37426.586 
  331500    294.82765    -1522.641     506.3346    314.23501    422.08026    37426.586 
  331600    299.56357   -1552.9602     492.1538    291.10792    48.285054    37426.586 
  331700    306.36052   -1527.5707    510.21651    365.23439    450.26431    37426.586 
  331800    293.78684   -1525.1146    476.00694    276.73657    464.58476    37426.586 
  331900    296.44051   -1511.7264    500.02832    326.12205    18.015786    37426.586 
  332000    295.24217   -1515.1904    499.50691    316.72859    110.32358    37426.586 
  332100    297.70934   -1546.3189    485.13976    282.36712   -86.038846    37426.586 
  332200    298.24821   -1494.6079    496.28159    347.65185   -144.98153    37426.586 
  332300    294.35068    -1540.282    518.25671    306.36356   -558.32269    37426.586 
  332400    293.17441   -1488.1313    498.60569     333.5548    -30.28077    37426.586 
  332500    300.26558   -1490.2436    545.14807    409.98692   -43.265884    37426.586 
  332600    300.63376   -1480.2755    523.37646    399.84498   -82.286771    37426.586 
  332700    297.72066   -1487.3635    512.32594    368.55986    478.36577    37426.586 
  332800    302.32896   -1535.0679    505.75087    335.07739    357.04483    37426.586 
  332900    295.50851   -1488.0374    530.08668     375.6634    842.66918    37426.586 
  333000    305.10029   -1497.5283    495.40166    374.77465     575.8894    37426.586 
  333100     309.1765   -1532.8565     505.6012    368.04172    797.32174    37426.586 
  333200    294.57029   -1525.2759    512.29536     316.3994    411.18741    37426.586 
  333300    308.27954   -1548.0638    501.30968    344.49491    484.58008    37426.586 
  333400        304.9   -1547.2943    493.19237    321.89543    54.589652    37426.586 
  333500    306.42586   -1525.0448    506.48571     364.3244   -73.075133    37426.586 
  333600    309.12077    -1584.593    494.51383    304.96631    236.21187    37426.586 
  333700    294.95011    -1553.362    503.00725    280.73927    268.41256    37426.586 
  333800    294.09871    -1565.579    488.68576    250.35845    21.160401    37426.586 
  333900    298.95862   -1544.6902    496.33789    300.83186   -515.24722    37426.586 
  334000    304.01229   -1491.7835    513.41619    393.62386   -547.74884    37426.586 
  334100    298.74803   -1512.1737    477.07077    313.13092   -360.38348    37426.586 
  334200    295.67262   -1536.7516    493.17476    290.77782   -409.72859    37426.586 
  334300    309.22122   -1549.1534    517.48549    363.83091   -60.726316    37426.586 
  334400    303.39188   -1537.3492    472.69231    304.53439   -545.60717    37426.586 
  334500    299.14349   -1505.7469    545.03375     389.3054   -819.85822    37426.586 
  334600    295.20852   -1492.7241    494.39993    333.93609   -950.32595    37426.586 
  334700    292.61247   -1471.6142     483.0104    331.94067   -320.22694    37426.586 
  334800    295.16723    -1491.953    539.03177    379.15261    42.799898    37426.586 
  334900    304.23277   -1466.3553    484.51809    391.14898    83.264792    37426.586 
  335000    295.66443   -1478.3916    499.33593    355.26201   -316.18484    37426.586 
  335100    306.98419   -1473.1818    508.40514    420.62657     76.11644    37426.586 
  335200    300.73714   -1502.9274     499.4139     353.6971    60.489679    37426.586 
  335300    302.11023   -1501.1302    500.34066    362.61773    611.19013    37426.586 
  335400    301.22316   -1470.1077    502.31739    391.61365    357.21596    37426.586 
  335500    301.75569    -1497.418    507.41586    371.80518   -61.128373    37426.586 
  335600    294.16324   -1521.3869     502.8313    308.98737    673.50138    37426.586 
  335700     295.0871   -1524.2333    499.73416    307.21311    481.77122    37426.586 
  335800    296.48227   -1544.1166    512.28741     306.1794    644.30939    37426.586 
  335900    297.54369   -1513.4197    491.16405    320.54305    213.36783    37426.586 
  336000    307.59641   -1501.6179    511.13956    397.68782     915.5446    37426.586 
  336100    293.93074   -1482.2894    520.80929    365.01352    580.15815    37426.586 
  336200    292.88628   -1490.5131    490.47023     321.7372    668.89817    37426.586 
  336300     296.9235   -1485.8687    496.93154    351.06265    479.43822    37426.586 
  336400    290.16359   -1476.6922     516.8991     349.6997    262.21948    37426.586 
  336500    293.38193   -1456.2915     519.5562     387.2816    583.40498    37426.586 
  336600    307.24667   -1503.2436    490.91109    374.25525    455.80273    37426.586 
  336700     308.9399   -1525.2973    496.55021    365.48217    748.70724    37426.586 
  336800    295.25497   -1532.9625    527.94432    327.45167    1056.3705    37426.586 
  336900    304.19218   -1518.5008     492.3946    346.69681    903.73541    37426.586 
  337000    307.54663   -1514.7955    500.49487    373.64079    313.46493    37426.586 
  337100    296.04546   -1521.3269    512.25502    326.96538    34.144138    37426.586 
  337200    305.22769   -1530.1987    487.35634    334.63385    38.282374    37426.586 
  337300     293.9187   -1542.8171    521.21163    304.83389   -234.47532    37426.586 
  337400     303.8971   -1508.5597    499.69716    362.60874    131.56373    37426.586 
  337500    308.49606   -1515.0154    510.70087    387.91166    57.944813    37426.586 
  337600    311.93793   -1534.1158    494.10128    367.74461   -380.66218    37426.586 
  337700     300.8656   -1509.8276     476.9073    324.87004   -181.50172    37426.586 
  337800     308.2091   -1541.0159    531.25313    381.16838    256.20539    37426.586 
  337900    297.84595   -1551.6189    515.15874    307.70267   -185.52073    37426.586 
  338000    294.92212   -1526.5936    493.67363     298.0478    227.73715    37426.586 
  338100    286.17568   -1577.8847    496.06462    209.67539    259.96995    37426.586 
  338200    297.52248   -1540.8989    479.55768    281.36185    159.26235    37426.586 
  338300    292.99977   -1535.2214    512.70472     299.7756    635.65468    37426.586 
  338400    296.12109   -1503.9497    512.92561    345.35452   -205.17525    37426.586 
  338500    298.13458   -1489.3067    483.52935    339.68805   -164.46683    37426.586 
  338600    293.76849   -1464.6336    503.82897    364.95685   -168.21237    37426.586 
  338700    301.70746   -1502.4776    495.80257    354.91459   -491.94626    37426.586 
  338800    294.33914   -1490.5095    511.11571    348.94296    -491.3502    37426.586 
  338900     296.1317   -1488.7128    523.21473    370.92846   -521.91461    37426.586 
  339000    292.06863   -1445.5596    511.16668    383.69719   -667.28936    37426.586 
  339100    296.12086   -1478.7134    511.04152    368.70574    89.072594    37426.586 
  339200    302.20602   -1463.6547    521.03169    421.21657    47.847102    37426.586 
  339300    301.69793   -1471.0478    498.01028    388.50911    316.82338    37426.586 
  339400    306.46925   -1480.1085     524.5734    427.54418    232.33129    37426.586 
  339500    305.93908   -1474.9264    511.54053    417.30082    646.30912    37426.586 
  339600    291.51498   -1523.2579    488.75139      281.085    152.75764    37426.586 
  339700     307.1205    -1533.262    501.06176    353.81819    171.12447    37426.586 
  339800    303.25868   -1520.9648    523.74774    371.37316   -166.29497    37426.586 
  339900    304.39799   -1571.6585    500.49909    302.57245    39.385604    37426.586 
  340000    303.92763   -1585.1302    461.76995    248.24884   -232.00152    37426.586 
  340100    301.61007   -1550.0552    504.74501    315.83991   -179.71971    37426.586 
  340200    298.37948   -1490.0999     500.3358    356.80654   -108.08941    37426.586 
  340300    297.87086   -1488.0663    496.13772    352.34663   -434.26709    37426.586 
  340400    300.72372   -1489.7676    501.85379    369.23619    80.808659    37426.586 
  340500    294.44671   -1498.7312    513.64826    343.73931    195.65872    37426.586 
  340600    311.00619   -1512.1822    502.58804    393.96007   -365.12407    37426.586 
  340700    294.50335   -1515.0061    495.56854    309.64025    38.804505    37426.586 
  340800    297.16439   -1502.9832    521.72426    359.82806     72.83092    37426.586 
  340900    309.04657   -1475.8727    504.07909    422.91702    305.80274    37426.586 
  341000    308.09238   -1483.5698    492.32141    399.15602    780.15867    37426.586 
  341100    290.73845   -1492.9563    518.09275    337.22346    854.90406    37426.586 
  341200    298.24851   -1490.8905    503.00912    358.09818    859.92937    37426.586 
  341300    311.66078   -1507.9357    510.56504    409.13771    718.90691    37426.586 
  341400    289.67428   -1467.7949    533.43146    372.92108     1110.745    37426.586 
  341500    300.12813   -1543.2978     495.7915    306.95589    489.42429    37426.586 
  341600    302.70824   -1532.6299    501.52551    335.00167   -11.325611    37426.586 
  341700     298.1625   -1498.5169     494.7996    341.87403    693.44191    37426.586 
  341800    310.04585   -1504.2111    490.68326    385.69243   -147.40641    37426.586 
  341900    302.57883   -1529.3405    504.98523    341.16673    525.35229    37426.586 
  342000    293.22328     -1541.49    503.43428    285.24522   -559.89237    37426.586 
  342100    292.80658   -1500.7555    506.25831    326.92316   -378.10681    37426.586 
  342200    293.13353   -1505.3794    512.85418    330.37072    190.49447    37426.586 
  342300     297.8709   -1533.4367    493.75491     304.5936   -173.51766    37426.586 
  342400    292.48677   -1510.9252     495.6976    304.74949   -366.08999    37426.586 
  342500    301.42213   -1494.7891    497.15626    362.66906   -545.69838    37426.586 
  342600    294.02217   -1485.7375    510.35761    351.52638   -407.79327    37426.586 
  342700    289.67255   -1497.9547    512.04559     321.3676   -703.64787    37426.586 
  342800    296.85747   -1498.0159    531.88041    373.56634   -258.81803    37426.586 
  342900    288.87505    -1539.894    498.16501    261.94864   -624.70885    37426.586 
  343000     295.2314    -1569.592    499.51034    262.28185   -252.66567    37426.586 
  343100    298.93571    -1547.308    497.88564    299.65845    236.60163    37426.586 
  343200    301.30039    -1517.473    500.20667    342.48621   -15.867654    37426.586 
  343300    308.03817   -1495.0599    488.11706    383.21698   -257.52706    37426.586 
  343400     304.3554   -1548.0998    477.56244    303.00228    565.94508    37426.586 
  343500    299.05072   -1548.4245    492.77484    293.95023    -16.19516    37426.586 
  343600    299.42287   -1547.1584    523.74391    327.86487    299.12805    37426.586 
  343700    308.11384   -1536.7749    472.80419    326.53057   -141.20738    37426.586 
  343800    298.51558   -1547.7955    485.23919    284.62851   -263.10633    37426.586 
  343900    296.55564    -1554.307    475.38993    259.42264   -83.609253    37426.586 
  344000     299.7253   -1521.8921    513.17013     343.9223     249.2544    37426.586 
  344100    298.95257   -1517.8958    493.71138    324.97252    56.283128    37426.586 
  344200    288.10696   -1496.3189    503.20909    307.10149   -7.4763994    37426.586 
  344300    306.86119   -1504.5287    506.77557    387.09492   -188.72556    37426.586 
  344400    305.68846   -1504.0543    507.13376    382.63513    36.638504    37426.586 
  344500    301.93795     -1526.31    479.27863    315.59842    54.598453    37426.586 
  344600    298.96117   -1591.4308    480.87266    238.63759   -210.80498    37426.586 
  344700    303.81406   -1526.7394    517.37709    361.73425   -366.12735    37426.586 
  344800    299.64156   -1567.1015    477.21849    262.38336   -431.03179    37426.586 
  344900    308.41841   -1585.4362    512.54246    318.98204   -140.27728    37426.586 
  345000    306.65029    -1572.084    489.73261    301.54495   -214.83908    37426.586 
  345100    293.09787   -1546.4092    480.46695    256.79277   -171.01324    37426.586 
  345200    307.52188   -1553.3231    539.92911     374.4358   -896.90086    37426.586 
  345300    294.01162    -1540.896    477.31776    263.28043   -226.49406    37426.586 
  345400    296.86382   -1539.1194    499.43174    300.04287    -355.0397    37426.586 
  345500    304.81744   -1583.1037    526.41356    318.93464   -147.71628    37426.586 
  345600    312.72916   -1579.0846    491.08669    323.33201    541.17839    37426.586 
  345700    307.16334   -1605.3634    467.82766    248.67594    478.83212    37426.586 
  345800    306.77951    -1581.246    506.27429    309.50777    756.27672    37426.586 
  345900    300.61633   -1583.6686     497.1976    270.19435    862.88495    37426.586 
  346000     297.4098     -1535.76    497.92908    304.36357    733.71898    37426.586 
  346100    290.97481   -1577.6442     512.2426    247.75213   -3.8254432    37426.586 
  346200    297.55405   -1529.5961    496.67765    309.92704     95.25731    37426.586 
  346300    305.06277   -1501.7285    492.63387    367.63729    230.77256    37426.586 
  346400    307.99123   -1534.1627    496.11209     351.8973   -119.07384    37426.586 
  346500    295.58143   -1520.7688    499.54071    312.71505     529.9434    37426.586 
  346600    300.49722   -1545.9719    517.09281    327.24875    153.82926    37426.586 
  346700    286.53878   -1505.1049    496.06629    284.09552    107.54697    37426.586 
  346800    315.33222   -1526.2851    495.21938    392.01171    572.23542    37426.586 
  346900    297.94475   -1537.4325    511.42422    318.60045    305.20589    37426.586 
  347000    304.13183   -1509.7279     505.2499    368.05261    1146.2023    37426.586 
  347100    303.87049   -1505.2869    515.96534     382.0297      258.904    37426.586 
  347200    298.56157   -1514.6455    493.54046    326.28736    81.348098    37426.586 
  347300    295.16034   -1538.5411    500.86658    294.36823    271.95547    37426.586 
  347400    306.63692    -1547.157     500.6383    337.31728   -92.816348    37426.586 
  347500    307.82185   -1544.3227    502.35694    347.21777   -133.16922    37426.586 
  347600    291.90923   -1545.8977    503.39776    274.87074   -202.33626    37426.586 
  347700    297.20343   -1551.6891    537.32515    326.89919    217.34753    37426.586 
  347800    302.08155   -1585.6285    519.51246    297.16183    235.55916    37426.586 
  347900     301.7645   -1539.0166    501.94986    324.78028    477.46649    37426.586 
  348000    296.46722   -1558.6468    513.44582    292.73969    627.15824    37426.586 
  348100    294.97824   -1513.8776     522.1852    339.52857     75.34757    37426.586 
  348200    309.31767    -1506.655    504.95207    394.23109    141.36148    37426.586 
  348300    305.75149   -1548.4085    502.19474     333.6263    338.49916    37426.586 
  348400    306.76288   -1532.0717    525.17699    377.50973     100.1239    37426.586 
  348500     295.1538    -1508.505     496.6064    320.11471   -292.16931    37426.586 
  348600    299.93112   -1521.2067     494.0284     326.3948   -390.18351    37426.586 
  348700    293.00447   -1543.4282    485.15075    264.03605    182.28183    37426.586 
  348800    303.01076   -1555.8246    494.35375    306.00046    297.66375    37426.586 
  348900    302.91268   -1540.3477    515.43863    342.11969    744.40844    37426.586 
  349000    303.17167   -1536.0517    498.07494    330.22069    614.00151    37426.586 
  349100     300.5192   -1556.4339    507.46127    307.25442    475.94175    37426.586 
  349200    294.52542   -1569.9547    523.91915    283.14193     921.2567    37426.586 
  349300    296.97108   -1536.9399     521.8744    325.14906    604.29754    37426.586 
  349400    295.34743   -1547.0853    486.62773    272.42951    458.69096    37426.586 
  349500    298.18797   -1552.2296    496.87022    290.34698     648.1824    37426.586 
  349600    307.74832   -1573.5975    490.72748    305.98169    270.72891    37426.586 
  349700    307.60636   -1533.0792    508.68465     363.8165   -307.90839    37426.586 
  349800    293.34109   -1551.4736     501.0074     273.3664   -553.53718    37426.586 
  349900     311.8861   -1572.4614    466.20305    301.26689   -514.27798    37426.586 
  350000    291.09276   -1559.1103    514.59318    269.16893   -483.74074    37426.586 
  350100     310.6882   -1537.0875    493.37416     358.4059   -216.18806    37426.586 
  350200    295.72926   -1538.7798     477.7067     273.5372   -477.59308    37426.586 
  350300    294.88201   -1546.9471    498.88709    282.72676   -630.46425    37426.586 
  350400    308.81248   -1578.1586    503.60658    319.10211   -612.57732    37426.586 
  350500    306.73342   -1589.5497    497.42946    292.15124   -118.61926    37426.586 
  350600    289.63583   -1575.3603    473.15786    204.90854   -109.07767    37426.586 
  350700     294.2805   -1559.4168    506.74621    275.40153   -48.193235    37426.586 
  350800     300.9596   -1578.8542    483.42756    262.78788    360.51652    37426.586 
  350900    302.45709   -1556.4331    496.51221    305.05176    53.733179    37426.586 
  351000     303.8279   -1561.6763    494.49879    303.98154    447.92524    37426.586 
  351100    292.60217    -1573.723    492.54875    239.32368   -42.033358    37426.586 
  351200    310.75652   -1531.5447    540.94288    411.82567     613.4522    37426.586 
  351300    301.51755   -1525.0945    498.48865    334.12669    425.75329    37426.586 
  351400    314.05959   -1533.0726    489.93278    374.19431    187.06759    37426.586 
  351500    293.49757   -1532.7469    481.25171    273.04359   -107.40521    37426.586 
  351600    301.79272    -1565.872    527.67084    323.77324   -222.65936    37426.586 
  351700    305.02988   -1527.2756    499.32174     348.6297    237.99396    37426.586 
  351800    300.29892   -1546.4109    484.90697    293.72903   -25.497787    37426.586 
  351900    303.14395   -1537.5011    507.37314    337.94442   -115.82386    37426.586 
  352000    291.49034   -1519.8694    485.71596    281.32688    193.61853    37426.586 
  352100    304.59444   -1592.0425    509.27079    291.84669   -107.14317    37426.586 
  352200    294.74819   -1569.4303    483.15294    243.90541    158.49551    37426.586 
  352300    301.78328   -1583.9598    534.37059    312.34253    75.956244    37426.586 
  352400    291.18878   -1546.6175    499.59565    267.09753    108.48651    37426.586 
  352500    302.48661   -1558.4584    513.37836     320.0258   -86.322674    37426.586 
  352600    295.06763   -1530.0079    524.79806     326.4146   -338.29623    37426.586 
  352700    308.65212   -1538.5291    498.37319    352.77456   -87.712412    37426.586 
  352800    299.02033   -1523.9363    490.07351     315.5999   -177.95192    37426.586 
  352900    308.11253   -1574.7494    520.62539    336.37137     508.0347    37426.586 
  353000    304.34136   -1550.6486    514.94975    337.77744     636.4022    37426.586 
  353100    287.65458   -1614.1044     509.1166    193.18189    809.69185    37426.586 
  353200    307.61416   -1587.1381    522.60571    323.71388    1520.2067    37426.586 
  353300    297.04133    -1555.472    511.36005    296.41972    971.31168    37426.586 
  353400    298.91177   -1557.1477    490.22454    282.04966    971.85884    37426.586 
  353500    304.20406   -1545.5927    493.84471    321.10869    953.89016    37426.586 
  353600     293.4805   -1565.5893    476.20418    235.07668    401.33428    37426.586 
  353700    306.29642   -1576.5559    504.36952    310.11293    290.70467    37426.586 
  353800    300.68989   -1599.4194    490.91651    248.49447    499.29674    37426.586 
  353900    312.18832    -1593.148    491.21835    306.95948    130.35727    37426.586 
  354000    292.75127   -1568.3175    474.68805    227.54138   -534.71562    37426.586 
  354100    296.87512   -1553.1234    495.78009    282.43826    183.50057    37426.586 
  354200    298.21988   -1585.4996    491.33267    251.68338   -62.111265    37426.586 
  354300    297.94758   -1544.3301    488.19818    288.48958    348.99584    37426.586 
  354400     293.9072   -1570.0584     513.5594    269.88838   -131.28546    37426.586 
  354500    310.98528   -1566.8981    482.00093    318.56276     795.8816    37426.586 
  354600    296.09991   -1550.6627    515.14523    300.76551    298.08701    37426.586 
  354700    300.80577   -1584.9876    513.00563    285.53831      34.1276    37426.586 
  354800    300.78996   -1531.5666    516.87428    342.75669    380.85604    37426.586 
  354900    301.05782   -1552.9536    494.14257    299.84679   -552.33579    37426.586 
  355000    294.10885   -1543.7749    497.49136    281.01398    -37.74229    37426.586 
  355100    296.85254   -1596.2826     490.9019    234.29894    172.89692    37426.586 
  355200    297.64075   -1572.5892    511.94526    282.59283   -32.094665    37426.586 
  355300     304.0762   -1545.8545    542.69681    369.12192   -193.20304    37426.586 
  355400    308.80484    -1495.157    536.36361    434.82631    769.39796    37426.586 
  355500    305.48784   -1549.5082     532.0722    361.21425    576.56496    37426.586 
  355600    294.74086   -1493.5151    537.52328    374.15788    187.85852    37426.586 
  355700    310.79193   -1504.8106     508.7168    406.49349    327.33391    37426.586 
  355800    298.77577   -1510.3609    537.78614    375.78427   -118.46191    37426.586 
  355900    308.09641   -1514.7597    506.24977    381.91261    -76.56589    37426.586 
  356000     308.7641   -1543.1761    489.21841    339.47813   -401.88385    37426.586 
  356100     300.4022    -1499.421    540.89102    397.16904   -280.49159    37426.586 
  356200    294.82548   -1504.7346    523.49872    349.29573   -346.07785    37426.586 
  356300    290.60403   -1538.7994    508.45359    281.13467   -293.95656    37426.586 
  356400     306.5837   -1476.1423    527.88164    435.33513   -176.17075    37426.586 
  356500    288.87919   -1545.8717    529.70342    287.52805   -72.233693    37426.586 
  356600    289.21484    -1512.014    513.81411    307.01121   -394.63298    37426.586 
  356700    296.39596   -1466.1159    530.16292    401.66611   -703.52183    37426.586 
  356800    301.58282    -1492.075    535.55961    404.51169    34.943822    37426.586 
  356900    296.95137   -1508.0921    510.46515    342.49871   -70.319263    37426.586 
  357000    306.55052   -1505.5595     522.2717    400.15827    -51.26582    37426.586 
  357100    300.45308   -1554.3918    488.50466    290.04153   -444.24772    37426.586 
  357200    303.34433   -1507.8312    532.14992    393.29549     247.9381    37426.586 
  357300    288.29537   -1482.6434    498.01141    316.42959   -4.4246671    37426.586 
  357400    308.66351   -1527.7693    495.74434    360.95692   -103.42443    37426.586 
  357500    306.87007    -1511.463    518.25237    391.67761   -392.01133    37426.586 
  357600    294.46192   -1527.5615    511.10222    312.43161   -417.95815    37426.586 
  357700    292.58794   -1486.3286    526.25655    360.36167    9.4055072    37426.586 
  357800    297.79645   -1499.2591    518.54214    363.22246    452.41387    37426.586 
  357900    299.62242   -1525.5465    518.31809    344.95154    431.50346    37426.586 
  358000    294.00373   -1441.0744     518.0402    403.78885    88.305687    37426.586 
  358100    309.01059   -1485.4133    507.02489    416.15979   -199.33203    37426.586 
  358200    311.80328   -1495.5131    543.00186    454.64024   -57.500586    37426.586 
  358300    293.71967   -1528.3654    507.20745     304.3832   -198.81079    37426.586 
  358400    307.09065   -1510.8855    526.63403    401.63214     591.1435    37426.586 
  358500     301.0249   -1482.8097    517.12903    392.82859    108.30569    37426.586 
  358600    294.74815   -1494.6261    529.99318    365.54968   -265.16028    37426.586 
  358700    292.55168   -1536.4391    509.55549    293.38647   -277.03626    37426.586 
  358800    303.33987   -1515.0503     523.0665     376.9728    190.32646    37426.586 
  358900    304.99989   -1531.4468    522.20953    367.21088   -122.06218    37426.586 
  359000    300.90149   -1519.4967     506.7448    345.20041   -369.24512    37426.586 
  359100    298.49806   -1516.8012    523.79491    354.09948   -52.183479    37426.586 
  359200     298.2302   -1549.9287    534.26962    330.23785    60.094114    37426.586 
  359300    292.20879   -1569.0791    495.00296     244.6465    26.982837    37426.586 
  359400    308.83997   -1547.3341    550.39793     396.8421   -587.33925    37426.586 
  359500    302.46362    -1556.078    495.37149    304.29557   -190.38289    37426.586 
  359600    290.37433   -1545.7931    461.05781     225.7085   -374.24297    37426.586 
  359700    296.58336   -1604.0251    515.24547    249.68514    -104.6715    37426.586 
  359800    301.81445   -1611.2316    486.97244    237.81329    -459.8786    37426.586 
  359900    297.81953   -1589.8786    522.96956    277.13456   -32.266205    37426.586 
  360000     303.5941   -1563.6377    509.17416    315.64033    247.82458    37426.586 
  360100    297.68932   -1555.3653    512.46748    300.55815    270.75443    37426.586 
  360200    305.54171    -1577.084    516.59772    318.40708   -269.24228    37426.586 
  360300    303.24623   -1583.1966    509.01541    294.35274   -81.886946    37426.586 
  360400    298.63791   -1557.4565     513.0868     303.3672   -289.41453    37426.586 
  360500    307.86492   -1584.6229    491.23538    295.99044    55.046353    37426.586 
  360600    295.14981   -1601.2548    507.41819    238.15867   -861.10307    37426.586 
  360700    292.45114   -1594.1834    486.15825    211.79123   -599.73804    37426.586 
  360800    300.32949   -1599.0015     511.0815    267.45088    -141.0301    37426.586 
  360900    308.58189   -1526.6518    518.39484     384.3566    5.5867635    37426.586 
  361000    293.78878    -1559.026    538.09948    304.92651   -383.57819    37426.586 
  361100     303.0945   -1531.5184    516.77587    353.10677    -475.3849    37426.586 
  361200    301.26773   -1563.0549    514.77065    311.32083    23.363052    37426.586 
  361300    307.78221   -1511.5052     556.8803    434.37973     708.2652    37426.586 
  361400    295.61079    -1595.089     501.3494    240.33605    807.68019    37426.586 
  361500    293.02645   -1542.8044    494.68491    274.29317   -93.108432    37426.586 
  361600    305.51821   -1543.6544    539.43188    374.56479   -379.10333    37426.586 
  361700    307.20903   -1543.4512    502.10388    345.07059   -44.591362    37426.586 
  361800    299.26273    -1525.025    478.69436      304.226   -290.32956    37426.586 
  361900     295.3025   -1547.7831    514.74082    299.64204   -183.99476    37426.586 
  362000    311.19986   -1526.9557    492.31123    369.78385    255.54505    37426.586 
  362100      301.714   -1562.2286    558.20327    357.59382    443.38958    37426.586 
  362200     295.0076    -1520.817    518.75267    329.28914   -95.703256    37426.586 
  362300    301.61889   -1522.8989     521.1294    359.42036   -92.372467    37426.586 
  362400    293.23166   -1523.7836    531.37545    330.93059   -30.962154    37426.586 
  362500     304.5486   -1556.6448    494.33718    312.10395    46.278703    37426.586 
  362600     301.2961   -1533.4601     518.9813    345.25438   -611.23098    37426.586 
  362700    307.67352    -1502.553    513.00372    398.96478    -349.7257    37426.586 
  362800    307.81281   -1498.1231    529.83538    420.85503   -547.68763    37426.586 
  362900    307.22322    -1482.991    535.86305    439.35402   -207.08122    37426.586 
  363000    303.60174   -1493.7651    521.99702    398.37028   -838.41175    37426.586 
  363100    289.31094   -1472.5543    524.59677    357.68722     -330.536    37426.586 
  363200    304.03865   -1455.4813    564.04072    480.66958   -290.17106    37426.586 
  363300    301.34693   -1516.3873    517.46639    361.04159   -86.005763    37426.586 
  363400    310.22521   -1513.1797    540.60905    427.45914    232.15972    37426.586 
  363500    290.22837   -1539.0425    499.65007    270.39263   -31.373011    37426.586 
  363600    308.00141   -1539.5445    522.11762    372.56695    40.596743    37426.586 
  363700    296.70146   -1511.4533     547.6998    375.24433   -99.748779    37426.586 
  363800    289.52407   -1535.3623    514.34105    285.58534   -567.47968    37426.586 
  363900    293.42046   -1532.6751    515.05207    306.56775   -1335.9876    37426.586 
  364000    283.47809   -1563.8701     524.1888    239.64014   -1190.9044    37426.586 
  364100    290.80109   -1545.8182    507.73852    274.29011    -565.1018    37426.586 
  364200    293.46838   -1509.5329    524.08408    338.95821   -961.62602    37426.586 
  364300    295.25508   -1550.8462    526.60931    308.23346    -526.9041    37426.586 
  364400    296.22914   -1513.3042    534.76029    358.32231   -309.12873    37426.586 
  364500    294.05539   -1537.8758     520.6507    309.83113   -948.01992    37426.586 
  364600    298.32244   -1552.3526    503.21449    297.17511   -1133.7178    37426.586 
  364700    292.19038   -1537.6096     519.8003     300.8302   -330.78792    37426.586 
  364800    304.91947   -1548.2941    507.67423     335.4654     -603.661    37426.586 
  364900     290.8354   -1502.8517     531.3812    341.05409   -150.14947    37426.586 
  365000    296.19994   -1534.8758    524.61804    326.47667    32.319419    37426.586 
  365100    293.36697   -1523.9288    509.80054    309.82119    70.413826    37426.586 
  365200    302.49663   -1541.1655    522.42197    346.40751    173.09203    37426.586 
  365300    303.31671   -1548.6786    490.95033    311.12377    504.84627    37426.586 
  365400    304.23861   -1574.8635    505.96069    304.10971    314.34121    37426.586 
  365500    290.57731   -1500.8711    538.34115    348.82989    443.61503    37426.586 
  365600    308.81571   -1568.2415    495.37773    320.80495     473.3458    37426.586 
  365700    296.10359   -1566.1358    520.67129    290.83516   -73.143259    37426.586 
  365800    304.43934   -1577.7608    499.56748    295.72514    433.85832    37426.586 
  365900    302.18426   -1598.5763    507.48769    272.65277     92.14099    37426.586 
  366000     294.4174   -1545.3731    509.43658    292.75346   -203.29379    37426.586 
  366100    286.86836   -1545.2495    513.50618    262.87822    -800.0047    37426.586 
  366200     303.9184    -1535.188    529.80029     366.1797   -443.92785    37426.586 
  366300    299.80245   -1525.7504    499.23505    326.47702   -212.99144    37426.586 
  366400    303.27815   -1508.1172    509.38884     369.9497    -204.2593    37426.586 
  366500    303.15495   -1479.3363    528.29169     417.0775    116.30275    37426.586 
  366600    298.94747   -1559.4218    511.66986    301.38196   -10.811897    37426.586 
  366700    296.38488   -1576.9101    509.01868    269.67771   -279.38733    37426.586 
  366800    297.11232    -1547.634    485.94673    279.16474   -215.90227    37426.586 
  366900    304.25238   -1552.2917    527.42781     348.2108   -112.54737    37426.586 
  367000    290.61686    -1507.395    460.41317    264.55648    97.173576    37426.586 
  367100    300.92123   -1560.1034    528.47006    326.40803    379.41798    37426.586 
  367200    294.96757   -1539.0581    523.31478    315.42951   -185.56816    37426.586 
  367300    298.04763   -1481.8302    497.71904    360.96182    158.26133    37426.586 
  367400    304.40771   -1500.5446    502.80434    376.03548     194.8997    37426.586 
  367500    298.83636   -1503.8584    500.91222    345.68628    619.10322    37426.586 
  367600    303.63479   -1502.0327    512.21299    380.46778    283.87858    37426.586 
  367700    288.10655     -1546.39    505.92931    259.74875   -88.370884    37426.586 
  367800    297.26209   -1493.4056    492.65521    340.77749    -339.8713    37426.586 
  367900     292.2814   -1509.7467     522.2963    331.59993   -934.24053    37426.586 
  368000    295.31424   -1517.6406    483.18316    298.27988   -1062.6734    37426.586 
  368100    301.97517   -1520.5283     495.3341    337.60352   -545.36419    37426.586 
  368200       296.31   -1504.8799    496.12709    328.47832   -749.76913    37426.586 
  368300    305.94803   -1493.4263    504.08645    391.38716    -112.7155    37426.586 
  368400    296.77881   -1488.0567    491.14706    342.43725    288.29316    37426.586 
  368500    297.11685   -1549.6513    508.71113    299.93218    420.19961    37426.586 
  368600    301.78251    -1534.399    513.42934    340.95862    250.56287    37426.586 
  368700    300.58944   -1507.4286      497.093    346.20848    45.176328    37426.586 
  368800    302.39712   -1484.5716    508.02021    388.15061    309.68729    37426.586 
  368900    286.24164   -1456.0307    521.34291    357.10535    206.69801    37426.586 
  369000    299.33074   -1522.9229    520.39727      348.338   -59.613489    37426.586 
  369100    305.40366   -1510.4777    477.77886    345.57155    499.69095    37426.586 
  369200    303.75535   -1457.7085    536.59009    449.71324   -363.91647    37426.586 
  369300    303.41658   -1478.8608    537.78129    428.22324   -12.555741    37426.586 
  369400    308.72951   -1470.7959    502.92187    425.40564   -61.622608    37426.586 
  369500    297.02265   -1527.4587    507.06636    320.05495   -320.95507    37426.586 
  369600    298.80803   -1545.8439    472.83751    275.49821   -414.24572    37426.586 
  369700    299.81308   -1506.8772    482.27397    328.43708   -488.00034    37426.586 
  369800      302.453   -1465.6377    550.06199    449.37848     -480.476    37426.586 
  369900    295.94126   -1484.2866    473.22736    324.50783   -331.72767    37426.586 
  370000     302.9798   -1471.6719    520.72013    416.37978    394.32187    37426.586 
  370100    301.40338   -1486.5022    527.34377    401.05888    834.87856    37426.586 
  370200    308.41273   -1493.0276    483.05169     381.8742    602.73178    37426.586 
  370300    296.67772   -1475.4935    501.38365     364.7808    396.54447    37426.586 
  370400    294.15243   -1526.0426     529.7639    331.21544    378.18474    37426.586 
  370500    291.85635   -1497.6663    519.01943    338.48519    199.06007    37426.586 
  370600    299.85386   -1460.6509    512.30521    404.87873   -457.74306    37426.586 
  370700    300.25553   -1500.5562    508.67066    363.15155    72.668112    37426.586 
  370800     293.2309   -1494.6906    512.67397    341.31871    553.81179    37426.586 
  370900    296.31706   -1481.5696    509.72232    365.41576    468.45839    37426.586 
  371000    302.44842   -1492.3216     497.8013     370.4132    248.94497    37426.586 
  371100    312.06835    -1512.043    502.18818    398.49295    865.59477    37426.586 
  371200    286.09638    -1499.272    505.60173    297.46736    314.61339    37426.586 
  371300    302.39079   -1481.0934     491.2202    374.80028     554.8135    37426.586 
  371400    314.02411   -1488.5755    524.87787    453.47634    281.61496    37426.586 
  371500    288.27631   -1482.0488    472.25289    291.17962      17.1759    37426.586 
  371600    302.07074   -1537.1433    520.77261    346.85838   -107.41951    37426.586 
  371700      301.236   -1547.9113    475.01148    286.56213   -263.56326    37426.586 
  371800    295.50064   -1520.7445    514.40557     327.2396   -152.26407    37426.586 
  371900      294.012   -1512.7076    491.84642    305.99918   -1043.4593    37426.586 
  372000    304.36763   -1488.1246    540.15221    425.62239   -29.330529    37426.586 
  372100    296.12899   -1489.8902    494.74837    341.27238    408.57194    37426.586 
  372200    297.86674   -1512.5627    506.25295    337.94686    550.19124    37426.586 
  372300    299.59402    -1511.816    526.68568    366.92145    533.61727    37426.586 
  372400    309.34696   -1536.1323    507.46745    367.40137    1120.4059    37426.586 
  372500    304.39472    -1502.039    513.70999    385.38805    237.34887    37426.586 
  372600    311.20606   -1561.6126    514.12445    356.96808    673.60671    37426.586 
  372700    308.60924   -1535.9175    520.03449    376.85397    430.00056    37426.586 
  372800    299.91136   -1547.1446    513.87923    320.21852    20.793028    37426.586 
  372900    294.12882   -1500.3892    508.85285    335.85129    -74.67744    37426.586 
  373000    300.58022   -1498.2864    502.70703    360.92309   -538.29911    37426.586 
  373100    298.76241   -1497.0196    508.24634    359.52548    -449.9605    37426.586 
  373200    296.61795    -1520.036    522.37712    340.96198   -353.52313    37426.586 
  373300    306.50126   -1548.8946    493.64361    327.97276   -556.84754    37426.586 
  373400    294.35562   -1544.2438     529.4656    313.63296   -334.55046    37426.586 
  373500    296.82502   -1492.1896    511.61129    358.97713   -678.87487    37426.586 
  373600    308.90828   -1505.9454    507.52017    395.66123   -634.30542    37426.586 
  373700    295.05959   -1548.5094    493.32715    276.40583    -876.0062    37426.586 
  373800    301.63582   -1558.1535    515.58649    318.69926   -405.82829    37426.586 
  373900    303.55168   -1529.2041     470.4941    311.20249     599.5008    37426.586 
  374000    302.85312   -1543.6789    516.64592     339.7269    1161.3535    37426.586 
  374100    300.43562   -1549.7953    506.03621    312.09079    947.18851    37426.586 
  374200    290.45474   -1548.6033    497.63897     259.8424    412.36041    37426.586 
  374300    305.28997   -1525.8501    517.88813    369.79529    303.85649    37426.586 
  374400    304.88571   -1556.4327    494.72344    314.22364   -394.26383    37426.586 
  374500    296.20613   -1504.2924    520.61502    353.08499    -372.2914    37426.586 
  374600    298.57921   -1518.6632    491.36145    320.17024   -1.4974777    37426.586 
  374700    302.21111   -1511.1034    531.20225     383.9614    497.47049    37426.586 
  374800    302.49162   -1539.7764    495.57605    320.92809     74.65101    37426.586 
  374900    301.64583   -1580.0538    474.78709    256.04482     127.0291    37426.586 
  375000    292.19914   -1521.8277    527.42385    324.27518    20.698573    37426.586 
  375100    299.80051   -1507.3325    510.53371    356.18482   -720.36598    37426.586 
  375200    292.32903   -1463.1504    522.79267    378.90751   -172.78178    37426.586 
  375300    300.84983   -1475.8115    500.86305    382.77067    117.33763    37426.586 
  375400    309.04373   -1511.5283    499.35159    382.52113   -71.246935    37426.586 
  375500    306.61499   -1492.6378    519.39996    410.49918    496.92475    37426.586 
  375600    302.46272   -1508.4606    498.71107    355.24855    245.97004    37426.586 
  375700    309.08589   -1539.6904    512.56634    367.76401    385.24759    37426.586 
  375800    306.64138    -1550.147    504.48472    338.19384    37.220602    37426.586 
  375900    288.00971   -1513.7127    505.55283    291.61257   -150.24226    37426.586 
  376000     307.2687   -1500.7069    522.15888    408.13916    296.39171    37426.586 
  376100    309.19738   -1537.8368    488.34651    345.90092    76.488218    37426.586 
  376200    307.31123   -1518.1311     487.6973    356.44535    842.30746    37426.586 
  376300    312.37259   -1528.3088    520.53987    401.95182    1010.7249    37426.586 
  376400    309.83532   -1536.8954    508.20381     369.5786    241.89885    37426.586 
  376500    288.63394   -1488.5376    515.56209    329.61399    460.27654    37426.586 
  376600    307.99387   -1550.4223     505.1921    344.72963     -226.049    37426.586 
  376700    305.97435   -1522.8429    494.41697    352.41992    371.45808    37426.586 
  376800      294.709   -1546.6089    485.42033    268.81733    80.889486    37426.586 
  376900    299.00581   -1554.8325    493.08755    287.65224   -256.63975    37426.586 
  377000    295.81447   -1578.0204    514.67044    271.64488   -551.67709    37426.586 
  377100    292.95854   -1503.1016    493.73914    312.74369   -237.37173    37426.586 
  377200    308.58057   -1545.0275    508.94107    356.52117   -114.27387    37426.586 
  377300    304.03838   -1550.6675    483.30234    304.74381   -780.27252    37426.586 
  377400    295.11825   -1541.3174    465.83573    256.37119   -1377.1285    37426.586 
  377500    303.63857   -1558.8991    506.38119    317.78671   -615.07327    37426.586 
  377600    306.32906   -1539.4623    502.63692    345.62131    11.954003    37426.586 
  377700    306.54146   -1574.7265    501.08993     309.7686   -548.21531    37426.586 
  377800    293.90506   -1552.4426    509.75539    283.69059   -575.61076    37426.586 
  377900    308.78686   -1482.6359    509.12695     420.0296    -279.3124    37426.586 
  378000    298.02105   -1472.3388    522.52636    395.14059   -937.03419    37426.586 
  378100    296.59038   -1482.7573    486.94143    342.68065   -308.65802    37426.586 
  378200    306.78613   -1510.5182    500.09194    374.08307   -648.25269    37426.586 
  378300    291.43453      -1511.6    486.58474    290.21318   -700.58804    37426.586 
  378400    296.07582    -1518.915    514.26622    331.52554   -644.70844    37426.586 
  378500    297.28087   -1518.7745     472.5253    295.36345   -403.63838    37426.586 
  378600    291.92215   -1492.2027    494.37225    319.59854   -298.53711    37426.586 
  378700    282.46325   -1493.0264    529.93787    311.65295    -75.53207    37426.586 
  378800    307.03959   -1475.2689    514.85836    425.24267    393.23259    37426.586 
  378900     294.3225   -1512.6579    506.02213    321.62592    209.81681    37426.586 
  379000     303.5942    -1495.812    533.61694    407.90935    494.91446    37426.586 
  379100    295.99974   -1499.2282    506.87361    343.47643    10.544814    37426.586 
  379200     307.8255   -1502.6309    521.97836    408.54742   -264.92426    37426.586 
  379300    290.47888   -1500.0977    488.40127    299.21921   -293.01963    37426.586 
  379400    300.72792   -1546.8519    509.28864    319.60572   -81.759352    37426.586 
  379500    290.54676   -1539.2068    481.47478    253.48988   -103.69556    37426.586 
  379600    301.42181    -1501.811    502.58387    361.07336    347.10077    37426.586 
  379700    293.30716   -1509.6034    505.90944    319.98556    734.13902    37426.586 
  379800    300.09855   -1521.8364    502.34591    334.83823    678.49163    37426.586 
  379900     304.5302   -1525.7518    493.66792    342.24459    913.49523    37426.586 
  380000    310.53693   -1537.5089    530.62688    394.55449    985.49851    37426.586 
  380100    292.43418   -1498.0106    512.75294    334.48211    824.56103    37426.586 
  380200     308.8501    -1529.906    471.25763    335.17563    444.65468    37426.586 
  380300    299.89782    -1547.047    492.19638    298.57222    157.11317    37426.586 
  380400    301.86472   -1523.5537    519.32538    358.07103    108.76753    37426.586 
  380500    310.38796   -1522.9375     506.6355    384.46217   -205.09843    37426.586 
  380600    296.13597   -1533.4012    487.96927    291.01381   -624.51825    37426.586 
  380700    303.69282   -1536.5217    479.83985    313.86761   -117.46707    37426.586 
  380800    307.43993   -1542.0023    484.94273    330.40041   -145.20805    37426.586 
  380900    309.21834   -1513.7045    498.21213    379.99345     12.15741    37426.586 
  381000    315.99928   -1515.4419    511.82592     422.4718    345.72786    37426.586 
  381100     305.2886   -1525.5729    485.12613    337.30435     248.8426    37426.586 
  381200    293.15004   -1538.8905    496.14005    280.21996    832.99949    37426.586 
  381300    287.52708    -1510.535    489.92445    276.98375    654.08964    37426.586 
  381400      303.713   -1496.5782    510.48988    384.55219    307.04904    37426.586 
  381500    294.39249   -1545.3019    505.84934    289.12493    -149.2371    37426.586 
  381600    306.10105    -1537.688    506.02666    349.75635   -82.475759    37426.586 
  381700    299.47356   -1514.8933    498.39812    335.01294   -84.272679    37426.586 
  381800    296.86835   -1488.7871    505.55307    356.51691   -305.50447    37426.586 
  381900    298.02908   -1492.9619    491.57263    343.59997    -21.22644    37426.586 
  382000    303.51393   -1520.0436    474.13953    323.83807   -355.53324    37426.586 
  382100    294.29308   -1521.3492    500.64734    307.42708   -906.69889    37426.586 
  382200     313.1563   -1477.0969    509.83121     445.9919   -590.61218    37426.586 
  382300     291.1089    -1514.565    485.63368    284.82753   -260.67936    37426.586 
  382400     309.4879   -1507.7334    481.17502    370.14395   -1034.6095    37426.586 
  382500    307.72357   -1509.4137    483.08902     362.4153    -159.5621    37426.586 
  382600    295.21411   -1517.7551    495.53065    310.06103   -688.73226    37426.586 
  382700    306.71937   -1501.9843    492.27063    374.49443      -134.73    37426.586 
  382800    304.09285   -1489.0165    505.94539    389.28367    369.53655    37426.586 
  382900     309.1542   -1557.9847    480.48251    317.69411    199.03276    37426.586 
  383000    297.45982   -1493.7708    479.07701    327.72637    379.82841    37426.586 
  383100    302.75827     -1535.94    499.91979    330.31166   -605.69661    37426.586 
  383200    313.58248   -1497.3997    465.42631    383.20753   -261.69665    37426.586 
  383300    300.30879   -1506.1162    513.75808     362.9194    13.923449    37426.586 
  383400    307.12054   -1481.3071    489.56538    394.27685    11.307252    37426.586 
  383500    298.08023   -1490.9423    502.13843    356.41629    32.764871    37426.586 
  383600    307.95874   -1507.1576    485.89094    368.53462   -136.38444    37426.586 
  383700    293.61288   -1525.5239    486.88085    286.41618   -177.43188    37426.586 
  383800    297.98969   -1533.1912    504.82717     316.4475    -544.0812    37426.586 
  383900     295.8417   -1541.6933    508.96012    302.38455   -510.67777    37426.586 
  384000    295.49301   -1485.4713    497.71975    345.79254    47.069535    37426.586 
  384100    293.98907   -1509.6192    511.82901    328.96676   -294.98636    37426.586 
  384200    302.75461    -1474.035    485.05824    377.33853   -212.37751    37426.586 
  384300    299.83961   -1496.8142    494.32453    350.67042   -80.213046    37426.586 
  384400    302.00384   -1520.0049    496.35804    339.28031    496.08462    37426.586 
  384500    296.45571   -1527.9843    496.56913    306.47353    236.52781    37426.586 
  384600    307.98943   -1505.3389     510.1409    394.74177    324.59109    37426.586 
  384700    306.07049   -1481.2697    524.26749    424.27753    147.73995    37426.586 
  384800    308.41316   -1512.6219    490.75011    369.98026    9.0057013    37426.586 
  384900    301.66287   -1535.1168     495.3354    321.60691    209.38057    37426.586 
  385000    295.32322    -1531.691    489.29097    290.37786   -397.46482    37426.586 
  385100    294.68386   -1526.5062    496.34346    299.72973   -268.89178    37426.586 
  385200    304.93457   -1547.2604    520.14927    349.04224   -359.90536    37426.586 
  385300    299.58777   -1513.8002    489.95168    328.17507    109.33243    37426.586 
  385400    296.42954   -1526.6683    496.30297    307.40529     285.8834    37426.586 
  385500    300.85697    -1519.457    511.11067    349.40506    47.641046    37426.586 
  385600    302.86943   -1498.6482       484.31    352.49535   -592.33193    37426.586 
  385700    282.89832   -1473.6585    496.43548     299.4819   -522.86618    37426.586 
  385800     302.1768   -1487.8329    511.74171    387.61655    -480.8684    37426.586 
  385900    302.27728   -1502.4275    518.55021    380.28393   -869.06602    37426.586 
  386000    303.45207   -1439.0556    495.23023    425.63757   -534.65704    37426.586 
  386100    301.13177   -1464.5022    472.92968    367.41903   -311.06073    37426.586 
  386200    307.08398   -1415.9422    510.14386    480.05524   -106.99541    37426.586 
  386300    297.05358   -1473.5792     495.0252    362.03293   -580.73505    37426.586 
  386400    302.86913   -1482.6185    526.30921    410.52286    -157.8831    37426.586 
  386500    294.24285    -1465.927    511.65537    373.63054    357.69981    37426.586 
  386600    301.96432   -1469.2561    494.71928    388.21199   -95.999645    37426.586 
  386700    306.05302   -1504.0726    503.37956    380.50779     344.2334    37426.586 
  386800    292.83571   -1537.2916    491.65856    275.91885    374.22783    37426.586 
  386900    303.16877   -1549.4217    493.06247    311.82522    -94.05719    37426.586 
  387000    288.47276    -1548.672    485.70418    238.89427   -369.90741    37426.586 
  387100    300.14209   -1565.9177    494.96926    283.57676   -442.75059    37426.586 
  387200    296.28326   -1536.3862    499.54152     300.2658   -301.22212    37426.586 
  387300    305.45023   -1530.8177    488.58037    336.24318   -682.80584    37426.586 
  387400     304.7911   -1525.9672    480.01966    329.55835   -963.40097    37426.586 
  387500    294.50666   -1492.5852    492.67877    329.18631   -222.36017    37426.586 
  387600    310.17192   -1472.7578    511.85944    438.89088    139.47636    37426.586 
  387700    293.28377   -1463.5451    486.59236    346.62116   -147.15822    37426.586 
  387800    304.25029   -1438.1327    495.88799    430.82052   -227.68251    37426.586 
  387900     305.6554   -1503.2876    481.39875    357.51755   -124.97329    37426.586 
  388000    299.26436   -1495.6386    471.49971    326.42507   -497.16106    37426.586 
  388100    302.83806   -1550.5055    485.80841    301.99485    -75.64277    37426.586 
  388200    296.08919   -1558.7522    498.39625    275.87872    32.430052    37426.586 
  388300    304.67425   -1524.5271    496.89457    347.34605    613.66407    37426.586 
  388400    299.89518   -1509.9188    513.18215     356.6742    595.83122    37426.586 
  388500     294.5506   -1479.6838    510.68533    360.29262     208.8655    37426.586 
  388600    297.43625   -1500.3388    496.96504    338.94015    261.69879    37426.586 
  388700    295.98586   -1541.8004    501.69634    295.66426    384.64182    37426.586 
  388800    303.32888   -1549.5204    483.30675    302.69333   -112.61452    37426.586 
  388900    300.28335   -1545.3839    475.32935    285.10811   -113.93048    37426.586 
  389000     306.5614   -1534.4648    495.25998    344.29031   -486.64718    37426.586 
  389100    298.14398   -1529.8793    475.62181    291.25029   -218.00016    37426.586 
  389200     304.4241   -1540.7581    467.00797    300.09957   -615.90681    37426.586 
  389300    301.04749   -1550.1569    493.56731    302.02162   -908.48801    37426.586 
  389400     294.6525   -1567.4101      495.934     258.2749   -303.17811    37426.586 
  389500    306.27925   -1584.8902    469.58944     266.9211    363.18447    37426.586 
  389600    285.80149   -1558.3959    521.02278    252.43364    212.34105    37426.586 
  389700    307.06786    -1554.625    495.93128    327.08705    505.94874    37426.586 
  389800    302.21916   -1548.2033    499.41386    315.10939    20.948294    37426.586 
  389900    305.39554   -1530.2368    511.65946    359.65637    412.35679    37426.586 
  390000     299.0887   -1530.0682    476.66649    296.36959    223.66969    37426.586 
  390100     300.2019   -1523.3076    476.45519    307.94273    101.55396    37426.586 
  390200    309.99037   -1524.8024    511.26877    385.43634    560.74215    37426.586 
  390300    308.88946   -1564.5383    477.03096    306.49419     422.1456    37426.586 
  390400    302.32074   -1577.5752    479.01374    265.79582   -44.206094    37426.586 
  390500    299.61222   -1535.5063     528.3143    344.94194    34.610999    37426.586 
  390600    298.07094   -1479.4921    467.97484    333.66094   -290.18894    37426.586 
  390700    293.33119   -1495.1399    528.30859    356.95661    442.64781    37426.586 
  390800    295.94993   -1462.7702    483.91583    356.75181   -111.08172    37426.586 
  390900    303.81265   -1487.1946    485.00658    368.90218  -0.53363708    37426.586 
  391000    290.91236   -1522.1711    495.59613    286.29693   -275.74938    37426.586 
  391100     303.3047    -1482.345    515.29436    401.74716     -49.6306    37426.586 
  391200     302.8085   -1497.3336    535.78448    405.00938    455.79881    37426.586 
  391300    299.96686   -1508.2621    514.99948    360.47168     110.7729    37426.586 
  391400    303.72477   -1538.3663    496.05403    328.38134    -323.8156    37426.586 
  391500    301.44708   -1492.3233       520.52    388.61124   -164.90417    37426.586 
  391600    306.83557   -1478.9546    493.56258    399.34051    714.62379    37426.586 
  391700    300.30303   -1565.7663    507.30952    296.79465    481.94259    37426.586 
  391800    285.49332   -1538.8942    459.59549    209.11734    383.44893    37426.586 
  391900    295.07404   -1513.1504    495.38702    313.88998    770.78415    37426.586 
  392000    291.49672   -1534.6072    523.80673    304.70857    614.28139    37426.586 
  392100    292.01821   -1539.1251    479.67022    258.40768    123.67431    37426.586 
  392200    295.74247   -1506.1158    492.13485    320.68891    489.18251    37426.586 
  392300     303.3452    -1528.849    505.48854    345.62022    766.78844    37426.586 
  392400    296.84626    -1583.901    466.75165    222.50189    420.43797    37426.586 
  392500    298.05618   -1517.6952    498.20569    325.62206    217.03115    37426.586 
  392600    301.50842   -1480.9745    502.72841    382.44526   -102.77593    37426.586 
  392700    298.71875     -1523.06    461.35718    286.39895    -243.9509    37426.586 
  392800     291.4811   -1517.8824    499.14405    296.70024   -698.27466    37426.586 
  392900     290.8683   -1503.7531    487.75601    296.67598    110.18888    37426.586 
  393000    297.23146   -1522.8741    485.63177    304.14729    -375.8927    37426.586 
  393100    300.94956   -1555.6504     495.2168     297.7357   -312.00828    37426.586 
  393200    293.37047   -1494.5204    492.65149    322.09627    829.19376    37426.586 
  393300    299.89488   -1532.4975       487.13      308.042    91.995096    37426.586 
  393400    293.29758   -1497.8569    476.23323    302.01257    104.11332    37426.586 
  393500    308.21956   -1479.1188    512.01312     423.8727    464.98302    37426.586 
  393600    292.05606   -1546.2315    495.89814    267.69999    238.53679    37426.586 
  393700    302.57829     -1542.16    480.12083    303.48047   -82.706084    37426.586 
  393800    294.89657   -1566.4701    489.75996    254.14231     401.1613    37426.586 
  393900    303.25996   -1547.9643    524.99436    345.62599    618.14099    37426.586 
  394000    302.44014   -1527.2088     489.6372    327.32458    698.25084    37426.586 
  394100    311.08237   -1556.2806    491.30258    338.92003    751.28044    37426.586 
  394200    290.90984   -1500.8087    487.24431    299.29611    377.18688    37426.586 
  394300    304.51908   -1512.8475    494.44812    355.87896   -53.683098    37426.586 
  394400    300.42722   -1489.2342     458.2849     324.8627    128.84875    37426.586 
  394500    306.21081   -1496.1306    491.10396    376.88634    -282.5425    37426.586 
  394600     300.7591   -1484.8141    489.75734    362.25294    762.96516    37426.586 
  394700    301.23996    -1505.001    486.37564    340.85446    938.45329    37426.586 
  394800    299.83978   -1519.0776    504.25022    338.33348    1037.8782    37426.586 
  394900    307.40284   -1495.7355    503.57694    395.13404    840.22758    37426.586 
  395000    303.98903    -1542.186    489.05932    318.75955     353.8919    37426.586 
  395100    301.59564   -1492.8982      494.824    363.01074    378.57607    37426.586 
  395200    303.28202   -1510.8447    487.61216    345.46301    179.72608    37426.586 
  395300    297.92159   -1518.1203    471.33704     297.7209    441.86051    37426.586 
  395400    290.95873   -1492.5712    518.66199    339.17192    126.18215    37426.586 
  395500    295.33348    -1480.034    497.28758    350.07778   -30.694845    37426.586 
  395600    299.66996   -1486.2382     489.2521    355.40841    655.77132    37426.586 
  395700    291.85814    -1447.024    510.96271    381.07888    70.745315    37426.586 
  395800    297.91895   -1466.4781    506.21082    384.22497    620.54202    37426.586 
  395900    306.61001   -1505.2578    488.31504    366.77181    90.688715    37426.586 
  396000    297.21086   -1539.5972    484.31964    286.01915    63.491713    37426.586 
  396100     303.0071   -1483.5972    510.13016    393.98779   -127.78155    37426.586 
  396200     289.3956   -1480.8423    513.10885    338.29341    19.015792    37426.586 
  396300    306.61403   -1488.1644    499.78355    395.35185    -464.6875    37426.586 
  396400    298.91124    -1494.561    502.06637    356.47576   -67.524774    37426.586 
  396500    284.36862   -1511.1677    477.85404    250.02672   -708.11355    37426.586 
  396600    298.46731   -1486.9806    497.18129    357.16771   -298.99253    37426.586 
  396700    291.35171   -1517.6489    466.59813     263.8039   -576.60483    37426.586 
  396800    295.60328   -1520.1093    472.82305     286.7555   -659.68861    37426.586 
  396900    292.08996   -1492.3726    488.15527    313.96895   -282.72426    37426.586 
  397000    298.90484   -1512.5348    503.15236    339.55913   -71.932132    37426.586 
  397100     300.1487   -1499.2831    485.67814    340.95008   -96.726476    37426.586 
  397200    302.44947   -1454.3456    501.24084     411.8335   -57.237113    37426.586 
  397300     302.2106   -1449.9681    497.43714    411.32931   -208.91169    37426.586 
  397400     305.0529   -1470.5815    482.20462    388.31046   -17.196172    37426.586 
  397500    299.14013    -1425.338    520.41954    445.08487    24.601064    37426.586 
  397600    302.26856   -1442.3676    456.79193    378.54613   -109.54031    37426.586 
  397700    305.01625   -1418.9348    524.54432    482.13155   -571.87597    37426.586 
  397800    302.24266   -1433.6396    474.21739    404.58272   -498.88074    37426.586 
  397900     298.4531    -1368.372    487.98214    466.51296     -532.258    37426.586 
  398000    302.56257   -1452.3042    480.21158    393.35605   -547.42208    37426.586 
  398100    289.63882   -1465.9763    482.72071    323.86891    340.92428    37426.586 
  398200     300.3353   -1483.1119    494.38576    366.67098    335.50608    37426.586 
  398300    301.37848   -1405.2824    517.43763    472.26019    677.88086    37426.586 
  398400    295.55112   -1408.1826    506.08718    431.71091    216.17599    37426.586 
  398500    300.76269   -1441.4083    483.30966    399.22729    384.05001    37426.586 
  398600    291.58267   -1428.4568    497.05687    384.49701   -266.36265    37426.586 
  398700     308.6415   -1450.7669    465.11848    407.23413   -204.83143    37426.586 
  398800    302.10628   -1453.8226    484.08015    393.64703   -426.36597    37426.586 
  398900    302.49617   -1472.5029    498.15253    390.79863   -313.52729    37426.586 
  399000    298.78417   -1475.4511    484.87115      357.817    9.8033743    37426.586 
  399100    304.35037   -1511.2766    473.99196    336.23226    76.954377    37426.586 
  399200    301.81135   -1505.0813    470.43299    327.41013   -123.23216    37426.586 
  399300    314.63456   -1489.6835    485.55693    415.80234    58.325007    37426.586 
  399400    296.08983   -1437.4825    509.00409    407.75916   -324.30019    37426.586 
  399500    307.57604   -1402.1688    482.80275    468.70819   -183.21113    37426.586 
  399600    306.79081   -1455.7751    501.74877     430.5042   -496.63679    37426.586 
  399700     310.2786   -1485.5291    521.53717    436.27874   -126.23728    37426.586 
  399800    307.82912   -1502.5521    503.59774    390.26195   -33.856927    37426.586 
  399900    297.14879   -1475.7337    496.16216    361.44508    142.37531    37426.586 
  400000    294.49304   -1432.4319    499.09547    395.69487    57.022039    37426.586 
  400100    294.97272   -1459.4386     464.5816    336.33911   -601.41269    37426.586 
  400200    296.85886   -1463.1401    490.56701    367.13499    -442.9134    37426.586 
  400300    301.98331   -1468.6006    470.24224     364.4762   -675.65408    37426.586 
  400400    297.52737    -1485.307    488.69143    346.10951   -80.298796    37426.586 
  400500    303.97554   -1520.3692    486.44411    337.90022   -74.429111    37426.586 
  400600    291.64968   -1531.4753    495.17757    279.90166    308.79108    37426.586 
  400700    311.59738   -1529.4492    445.72111    322.49418    620.01405    37426.586 
  400800    313.45975   -1521.6471    493.80386    386.78384    896.84527    37426.586 
  400900    303.14096   -1457.4726    508.47466    419.06092    738.29042    37426.586 
  401000     299.7305   -1496.2092    487.41248    343.87091    1004.2609    37426.586 
  401100    289.94979   -1514.0422    494.42435       288.91   -90.839531    37426.586 
  401200     304.7314   -1495.1135    487.66108    367.78408    80.035029    37426.586 
  401300    304.27338   -1476.7955    478.25607    374.63003   -92.381762    37426.586 
  401400     303.5693   -1500.5424    491.64727    361.09685    288.18216    37426.586 
  401500    301.18455   -1493.5195    518.30402    384.01427    622.74935    37426.586 
  401600    298.23741   -1489.1014    502.90883     359.7369    690.88782    37426.586 
  401700    294.70603   -1537.2515    489.47698    282.21796      240.597    37426.586 
  401800     303.4545   -1516.3363    505.23135     358.3689    550.44408    37426.586 
  401900    302.13079   -1490.0565    498.92878    372.37234    340.08152    37426.586 
  402000     299.0322   -1450.5672    490.93146    389.88056   -513.06368    37426.586 
  402100    297.61963   -1440.6029    475.74601    378.28457   -731.08316    37426.586 
  402200    290.97094   -1474.6566    488.68522    327.16485   -549.82083    37426.586 
  402300    288.60385   -1504.5489    450.45632    248.36109   -827.94246    37426.586 
  402400    293.29078   -1458.8467    493.13669    357.89555   -424.23857    37426.586 
  402500    301.10066   -1496.9253    496.58351    358.50938   -245.95864    37426.586 
  402600    307.79461   -1480.8945    475.85042    384.01653    69.239263    37426.586 
  402700    297.73938   -1479.7239    493.26994    357.22788    -217.9326    37426.586 
  402800    296.52194   -1491.9287    479.21281    325.47177    101.60712    37426.586 
  402900    296.96173   -1472.6827    497.93108    365.42076    658.13535    37426.586 
  403000    300.74975   -1459.0315    461.70648    359.94253    377.05307    37426.586 
  403100    307.01358   -1503.6146    494.67751    376.59874    372.01114    37426.586 
  403200    306.94123   -1519.0466     475.0474     341.2101    361.99271    37426.586 
  403300    303.02182   -1503.9845    492.09824    355.63495   -142.89518    37426.586 
  403400    298.29677   -1455.3815    520.81234    411.62824   -31.718264    37426.586 
  403500    301.42754   -1495.6491     488.9846    353.66182    -98.30044    37426.586 
  403600     293.2922   -1472.1298     487.6093    339.09153    596.69652    37426.586 
  403700    302.51031   -1477.8458    505.94465    393.31164    382.23141    37426.586 
  403800     300.3038   -1442.8826    472.96843    385.34072    227.92465    37426.586 
  403900    303.39516   -1457.2094    494.95394    406.95061    315.02841    37426.586 
  404000    292.47987    -1476.901    496.05222    339.09717    106.63981    37426.586 
  404100    303.13848   -1505.2412    483.28538    346.09192    322.31723    37426.586 
  404200    301.07669   -1461.9522    501.04343    397.83424    98.510828    37426.586 
  404300    298.34442   -1514.3598    474.81819    306.87082   -30.225548    37426.586 
  404400    299.32729   -1530.3853    478.43503    298.89773    608.55805    37426.586 
  404500    303.41774   -1498.5836    509.48712     380.2115    278.73965    37426.586 
  404600     283.6712   -1477.2586    502.97721    305.91156    374.57624    37426.586 
  404700    305.00879   -1437.5332    480.00132    418.95646    513.26977    37426.586 
  404800    289.90714    -1476.307    503.84227    335.87066   -177.97902    37426.586 
  404900    306.28729   -1555.0043    488.26162     315.5154   -191.39176    37426.586 
  405000    296.14362   -1512.6911    484.84393     308.6331   -122.43468    37426.586 
  405100    289.91277   -1483.8041    483.48495    308.04168   -351.18642    37426.586 
  405200    292.89546   -1516.5802    484.38521    289.62656    -125.1916    37426.586 
  405300    291.59619   -1538.7968     469.7574    246.91861   -288.27139    37426.586 
  405400    291.49741   -1517.8206    486.90122    284.59279   -140.56603    37426.586 
  405500    294.36725   -1526.5006    470.99654    272.95958   -208.45561    37426.586 
  405600    301.98988   -1448.9668    496.99173    410.88907   -516.64024    37426.586 
  405700    295.67168   -1438.5337    501.27418    397.09096   -616.49041    37426.586 
  405800    294.13886   -1480.0087    492.61404    340.03825   -326.61107    37426.586 
  405900    295.66292   -1504.8495    490.19601    319.65738    17.512896    37426.586 
  406000    294.40474   -1474.7354    502.88635    356.78375   -533.60329    37426.586 
  406100    306.04187   -1506.7393    470.64212    345.05342   -651.29909    37426.586 
  406200    307.16951   -1488.6028    492.26397    389.90071   -431.32933    37426.586 
  406300    292.43023   -1468.8607    471.52316    322.38441   -445.91752    37426.586 
  406400    300.81764   -1455.9435    504.69552     406.3259   -374.37355    37426.586 
  406500    293.62633   -1430.1041    502.03863    397.05445   -1044.8013    37426.586 
  406600    294.85823   -1429.4415    494.96062    396.19851   -555.64412    37426.586 
  406700    291.84204   -1442.4393    509.40828    384.03641   -434.88766    37426.586 
  406800    304.49929   -1472.1975    473.50435    375.49584   -922.92273    37426.586 
  406900    298.88205   -1478.6974    497.29346    367.43479   -890.50518    37426.586 
  407000    295.43934   -1495.7943    479.99854    317.50614   -326.61169    37426.586 
  407100    301.65586   -1453.2735    532.20113    440.28441   -805.31739    37426.586 
  407200     296.8279   -1462.8436    491.38201     368.1068   -848.37566    37426.586 
  407300    301.99153   -1469.6617    477.71388    370.92381   -575.36597    37426.586 
  407400    300.95441   -1466.0936    518.09821    410.19577   -1123.6746    37426.586 
  407500    300.19295   -1464.1242    485.07138    375.70189   -734.82003    37426.586 
  407600    307.68148   -1508.9789    503.20447    382.77557   -621.33417    37426.586 
  407700    306.87159   -1480.8436    484.19579    388.24721   -1.0226058    37426.586 
  407800    296.59824   -1506.6373    521.28755    353.18224   -151.37947    37426.586 
  407900    302.53221   -1539.7631     492.1498     317.6983   -410.92656    37426.586 
  408000    300.24313   -1506.9723    497.64871    345.65751    77.605984    37426.586 
  408100    303.92669   -1518.2262    465.38316     318.7618   -420.33795    37426.586 
  408200     294.2507   -1487.1117    522.52666    363.35258   -1035.6709    37426.586 
  408300    293.29636   -1484.8172    471.66508    310.47864   -366.38491    37426.586 
  408400     297.7266    -1505.435    516.58168    354.77084   -795.53598    37426.586 
  408500    301.50719   -1510.6227    512.77175     362.8348    1.5548041    37426.586 
  408600    298.31113   -1498.3682    483.32168    331.21559   -57.930138    37426.586 
  408700    304.14876   -1495.7773    489.10591     365.9357    117.40695    37426.586 
  408800    309.98507   -1523.6456    512.34389    387.64428   -473.11064    37426.586 
  408900    307.96425   -1507.3549    492.32172    374.79296   -738.30602    37426.586 
  409000    296.47289   -1521.2568    518.09933    334.80881   -517.49832    37426.586 
  409100    293.45447   -1531.4511    485.47352    278.36673   -748.11673    37426.586 
  409200    302.96902   -1509.4984    494.46924    352.25375   -504.24699    37426.586 
  409300    296.95926   -1579.5953    490.92738     251.4933   -655.57201    37426.586 
  409400    299.40025   -1507.7717    494.41667     337.8222     -85.0046    37426.586 
  409500    294.33145    -1508.443    487.69189    307.55095    109.07995    37426.586 
  409600    297.46569   -1518.6872    467.85281    291.61227    259.77309    37426.586 
  409700    306.06969   -1530.6105    475.18442    325.85001     138.1714    37426.586 
  409800    307.06942   -1506.7263    488.51056     367.5721   -75.451984    37426.586 
  409900    303.19918    -1546.252    494.38712    316.45679   -52.414846    37426.586 
  410000    299.71446   -1552.2569    517.01023    317.34864    340.55945    37426.586 
  410100    309.88592   -1566.6465    480.41417    312.26625    139.34413    37426.586 
  410200    309.01776   -1542.2089    486.91722    339.28894   -8.6073571    37426.586 
  410300    292.62092   -1520.0314    493.89179    294.44297    358.35881    37426.586 
  410400    309.63565   -1524.9474    492.78883    365.21052    378.41157    37426.586 
  410500    298.85567   -1510.2575    507.90445    346.36655    485.32902    37426.586 
  410600    284.96479   -1543.3374    512.62923    255.32265   -453.51559    37426.586 
  410700    306.05849   -1524.3795    498.34599    355.19201    218.16159    37426.586 
  410800    297.48672   -1565.9283     469.0336    245.64699   -250.65287    37426.586 
  410900    301.16739   -1558.1311    474.99184    276.01305    120.14595    37426.586 
  411000    296.64514   -1536.1161    498.75004    301.37758    169.58296    37426.586 
  411100    288.03521    -1530.188    484.75335    254.45282   -164.67857    37426.586 
  411200    296.92229   -1499.3926    504.23369    344.83547   -203.10678    37426.586 
  411300    297.17909   -1540.4604    476.28178    276.97463   -268.93115    37426.586 
  411400    301.38413   -1529.5076    462.99363    293.61647    273.11666    37426.586 
  411500    301.90712   -1547.5299    479.70288    294.66361   -238.37234    37426.586 
  411600    304.39942   -1551.1575     479.2715    301.85232   -80.895656    37426.586 
  411700    300.30062   -1509.1221    492.34786    338.46636    149.17697    37426.586 
  411800    302.37193   -1520.1209    486.29012     330.7576    429.16928    37426.586 
  411900    302.58073   -1500.1526    502.02047    367.39855    185.12324    37426.586 
  412000    313.72477   -1531.5252    490.33917    374.63705    301.10086    37426.586 
  412100    293.69185   -1575.1998    504.79565    255.01141    357.66048    37426.586 
  412200    294.59146   -1573.3059       502.56    258.72961   -11.456728    37426.586 
  412300    303.11392   -1526.5868    494.57369    335.92374   -422.32694    37426.586 
  412400    308.57315   -1530.7326    494.52223    356.36372    -395.3752    37426.586 
  412500    298.73717     -1542.09    474.00637    280.10116   -119.48714    37426.586 
  412600    304.62402   -1512.9272    487.34686     349.1715    405.57857    37426.586 
  412700    297.78668    -1578.787    505.55764      270.666    476.70368    37426.586 
  412800    299.70163   -1524.6121    502.26708    330.19232     712.9907    37426.586 
  412900      301.304   -1488.5786    468.84422    340.03442    731.65606    37426.586 
  413000     297.7832   -1533.7579    497.66546    307.78715    385.71302    37426.586 
  413100    296.59592   -1503.0003    525.12959    360.65077    92.779129    37426.586 
  413200    287.59505   -1480.5195    478.40288    295.78442    98.187641    37426.586 
  413300    294.52729   -1546.1847    480.30905    263.31023    2.5316233    37426.586 
  413400    298.78518   -1503.5146    466.28702    311.17395    85.242471    37426.586 
  413500    302.35239   -1501.7204    492.79717    355.57694    96.716614    37426.586 
  413600    299.13666   -1463.0999    517.28136    404.16924   -48.293056    37426.586 
  413700    303.55876   -1491.5969    499.84865    378.19619     430.8892    37426.586 
  413800    294.09133   -1523.5056     511.4584    315.17126    229.51956    37426.586 
  413900    310.23853   -1530.2489    489.48166     359.3226   -73.077109    37426.586 
  414000    294.14788   -1517.7894    485.37464    295.05889    599.67849    37426.586 
  414100    301.65714   -1542.2654    484.12443    303.22154    1139.4733    37426.586 
  414200    312.67093   -1492.3429     474.3761     393.1004    1029.5747    37426.586 
  414300    310.69164   -1485.0478    488.80245    405.88939    351.85876    37426.586 
  414400    296.27638   -1467.7394    501.61847    370.95854    26.119572    37426.586 
  414500    296.26416   -1569.3972    497.69278    265.31988    321.74257    37426.586 
  414600    303.05004   -1534.0112      501.364    335.00142    840.29153    37426.586 
  414700    305.80731    -1517.776    503.56342    365.87942    154.71699    37426.586 
  414800    287.83472   -1521.7538    475.62558    252.85444    469.63847    37426.586 
  414900    302.59907   -1488.2831    489.96297    367.29328    355.53415    37426.586 
  415000    293.01454   -1489.6557    480.36991    313.07318    582.81924    37426.586 
  415100    293.67515   -1479.1606     500.5506    346.73022    755.36541    37426.586 
  415200    305.30995   -1506.8178     491.0213    362.05093    836.15626    37426.586 
  415300    315.54952   -1512.8169    478.64045    389.88158    855.23094    37426.586 
  415400    311.07905   -1469.2722    502.71406    437.32492    528.64589    37426.586 
  415500    297.54721   -1504.8958    495.71734    333.63613    593.70979    37426.586 
  415600     299.7211   -1476.4877     503.0947    379.23231    246.28162    37426.586 
  415700    292.93663   -1488.8714    498.44793    331.58379    124.21765    37426.586 
  415800    302.99735   -1550.0347    486.03077    303.40685   -317.38913    37426.586 
  415900    297.19118   -1490.5579    486.55942    337.20938   -286.87217    37426.586 
  416000    300.56334   -1442.6557     516.6905     430.4611  -0.40611426    37426.586 
  416100    294.18819   -1438.2814    479.87318    369.24731   -450.01082    37426.586 
  416200    298.49967   -1438.6176    497.19058    405.68599   -417.65564    37426.586 
  416300    298.40915   -1492.4943    484.19666    338.40693   -639.27815    37426.586 
  416400    302.34512   -1509.0232    497.35773    352.80188   -73.958826    37426.586 
  416500    303.30035   -1518.9946    495.42624    345.20987   -89.743434    37426.586 
  416600    305.70095   -1511.1488    500.77238    369.23558   -230.66773    37426.586 
  416700     306.3463   -1515.2249    479.74202    347.04152   -484.24173    37426.586 
  416800    302.51862   -1467.3485     489.5838    387.48562   -44.619937    37426.586 
  416900    290.97492    -1488.052    469.01529    294.11751   -322.33707    37426.586 
  417000    307.45411    -1520.583    472.21515    339.15607   -269.62816    37426.586 
  417100    306.54937   -1445.8525    495.04169    432.63002   -846.69176    37426.586 
  417200    306.67055    -1461.779    481.11154    403.32027   -512.41478    37426.586 
  417300    294.97967   -1465.6487     490.7547    356.33349   -212.56147    37426.586 
  417400    303.00795   -1485.4507    498.26409    380.27202   -289.70878    37426.586 
  417500    300.90092   -1504.8912    518.67204    371.73052   -12.595901    37426.586 
  417600    300.40927   -1492.6078    469.22146    332.34462    7.8010179    37426.586 
  417700    292.47145   -1478.9055    498.53297    339.53539   -291.74725    37426.586 
  417800    297.19074   -1469.0112    490.82619    363.02083   -293.21422    37426.586 
  417900    305.39593   -1479.5478    473.41373    372.10135   -784.49045    37426.586 
  418000    292.62374   -1458.5672    507.94445    369.97252   -60.763371    37426.586 
  418100    301.05056   -1514.8334    484.71808     328.5097    32.996132    37426.586 
  418200    299.06255   -1498.5516    482.91976    334.02142    394.20147    37426.586 
  418300    306.33181   -1531.4249    489.07436    340.10853    164.73234    37426.586 
  418400    304.68794   -1479.4035    507.19674    402.83362   -329.28686    37426.586 
  418500    284.19356   -1484.9815    491.58437    289.15324   -365.33881    37426.586 
  418600    299.51409   -1460.3216    497.84094    389.21041   -538.34287    37426.586 
  418700    302.62647   -1467.3508    492.15282     390.5391   -573.35515    37426.586 
  418800    297.17746   -1446.3605    491.18954    385.97501   -124.11888    37426.586 
  418900    303.59424   -1464.8499     504.2022    409.45681   -378.29306    37426.586 
  419000    306.13711     -1486.56    490.32185    385.34225    29.409421    37426.586 
  419100      294.636   -1480.0406    486.05798    335.69382    459.42716    37426.586 
  419200     304.1128   -1480.0248    479.64116    372.06115    414.86029    37426.586 
  419300    305.54955    -1507.148    496.48072    368.26148    1017.0636    37426.586 
  419400    301.50685   -1485.5331    518.14073    393.29188    507.41973    37426.586 
  419500    302.36476   -1475.4157    489.32918    378.46942    246.23942    37426.586 
  419600    302.13084   -1476.2459    490.76111     378.0155   -62.553886    37426.586 
  419700    297.09624   -1489.9571    500.61691    351.43919    4.7414183    37426.586 
  419800    300.53507    -1495.374    472.62264    333.54729    82.984021    37426.586 
  419900    292.40535   -1458.8724    513.60549    374.34274   -697.92301    37426.586 
  420000    300.88233   -1475.4808    474.97304    357.35801    670.26744    37426.586 
  420100    299.97114   -1544.9777    505.35505    314.13107   -51.179772    37426.586 
  420200    305.18281   -1519.2943    492.56565    350.54502     502.8057    37426.586 
  420300    303.08837   -1504.5103    507.91279    371.22406    893.45929    37426.586 
  420400    308.13355    -1487.341    507.08742    410.33664    665.13531    37426.586 
  420500    295.31686    -1476.618    481.02619    337.15735    701.50427    37426.586 
  420600    291.61791   -1515.3914    519.12771    319.79233    360.28199    37426.586 
  420700    304.17583   -1511.2622    487.80902    349.27607    387.91309    37426.586 
  420800    300.96661   -1501.3286    503.38993    360.30755     416.2796    37426.586 
  420900    294.26422   -1476.6765    508.49196    359.81409   -126.65756    37426.586 
  421000    299.63042   -1444.0761    499.52765    407.66754   -757.81129    37426.586 
  421100    309.58144   -1489.7687    484.43849    391.79426   -476.60899    37426.586 
  421200     297.0368   -1434.5231    486.79671    392.78479   -1066.2407    37426.586 
  421300    303.75322   -1454.9841     490.9984    406.83636   -622.30685    37426.586 
  421400    297.46288   -1480.3134    522.42577     384.5464   -488.15985    37426.586 
  421500    307.68146   -1482.8263     488.0071    393.73078   -692.97994    37426.586 
  421600    296.90256   -1450.1049     488.8713    378.67176   -134.58652    37426.586 
  421700    300.61754   -1451.6829    505.02068    410.00862    151.15994    37426.586 
  421800    290.40117   -1443.6858    515.02514    381.90424    318.99855    37426.586 
  421900    305.16932   -1423.9117    493.30817    446.60926    -10.10345    37426.586 
  422000    295.55008   -1403.1784    503.16695     433.7902   -99.204387    37426.586 
  422100    292.42106   -1375.0364    507.11118    451.75537   -694.37914    37426.586 
  422200    302.57207   -1411.3061    527.70596    481.89144   -747.85938    37426.586 
  422300    297.98517   -1428.0056    497.31776    414.10327   -961.89003    37426.586 
  422400    295.74175   -1447.6926      477.811    364.78507   -846.25212    37426.586 
  422500    306.21612   -1412.9328    525.28064    494.28475   -198.78857    37426.586 
  422600    293.81902    -1424.422    480.14591    381.71342   -183.54644    37426.586 
  422700    298.76095   -1409.9182    485.65545     424.0294    21.189862    37426.586 
  422800    299.14642   -1402.2922    503.59125    451.33079   -405.79224    37426.586 
  422900    291.49331   -1465.3589     469.4991    319.63388   -175.49936    37426.586 
  423000    308.19894   -1456.6357    527.42204    461.67167   -496.81899    37426.586 
  423100    298.15367   -1425.7669    465.60593     385.3906    -7.715504    37426.586 
  423200    302.58416   -1441.5596    498.02875    422.01524   -80.254238    37426.586 
  423300     303.4928   -1457.6206     496.7951    408.82125   -86.487184    37426.586 
  423400    295.08226   -1474.4947    496.64141    353.83716    295.19399    37426.586 
  423500     300.7544   -1455.6398    500.00798    401.65664   -84.229024    37426.586 
  423600    297.45329   -1485.2171    497.23949    354.41309   -423.74847    37426.586 
  423700    298.76455   -1473.5194    493.06965    367.85871   -33.545389    37426.586 
  423800    293.27511   -1449.6905     506.4724    380.31677   -635.90889    37426.586 
  423900    296.35196   -1482.5459     488.9803    343.85493    234.86042    37426.586 
  424000    303.71699   -1479.5786    496.36966    387.44961   -67.573479    37426.586 
  424100    291.44849   -1497.0536     488.2506    306.48844   -204.15977    37426.586 
  424200    302.01901   -1486.2835    505.74591    382.45802     419.6092    37426.586 
  424300     295.3959   -1517.0719    473.16278    289.19677   -494.02378    37426.586 
  424400    299.20234   -1494.7825    476.56666    332.06833   -390.06211    37426.586 
  424500    297.58653   -1487.4652    516.09587    371.62271   -532.20071    37426.586 
  424600    296.31754   -1483.0628    474.04749    328.24986   -302.52226    37426.586 
  424700    299.73645   -1525.5226    488.24997    315.42189   -295.08475    37426.586 
  424800    300.82287   -1513.1515    464.39244    308.83847   -44.268765    37426.586 
  424900    307.89466   -1531.8362     480.4859    338.16177    2.6935118    37426.586 
  425000    296.72696   -1534.4801    467.46818    272.10098    321.73435    37426.586 
  425100    297.07966   -1525.1807    479.36171    294.88554    46.733127    37426.586 
  425200    301.91133   -1545.6273    476.05479    292.93717    168.81593    37426.586 
  425300     306.1641    -1534.289    479.11794    326.53106   -265.90132    37426.586 
  425400    293.38787   -1545.2608    508.18456    286.96754   -103.21859    37426.586 
  425500    306.64556   -1570.0792    476.95951     290.7553    369.77039    37426.586 
  425600    311.01986   -1533.1331    490.70369    361.18658   -52.546607    37426.586 
  425700    302.31512    -1470.989    481.20191    374.54481   -93.282036    37426.586 
  425800    297.79772   -1510.2497    500.98407    334.67952   -16.589169    37426.586 
  425900    304.26753   -1501.9282    496.15739    367.37225    202.44535    37426.586 
  426000    290.33944   -1514.4098    504.02531    299.90187    242.14836    37426.586 
  426100    290.99128   -1531.3909    475.35987      257.197   -378.23729    37426.586 
  426200    312.95157   -1514.6727    481.85491    379.51588    405.12578    37426.586 
  426300    298.91262   -1466.7598    505.21312    387.42996    112.03338    37426.586 
  426400    293.27992   -1532.7832    494.02082    284.79415    -288.4505    37426.586 
  426500    295.97839   -1507.6336    470.66216    298.76315   -33.232491    37426.586 
  426600     304.2001   -1484.0014    478.58803    367.42544   -263.69889    37426.586 
  426700    302.54143   -1492.5057    495.78492    368.63246   -411.36955    37426.586 
  426800    294.55714   -1542.4282      457.738     244.6304   -947.49394    37426.586 
  426900    297.15717   -1531.5874    471.67072    281.13771   -531.64313    37426.586 
  427000    293.72675   -1506.7274    491.95425     310.7999   -132.62243    37426.586 
  427100    302.00803   -1516.5792    500.16872    346.53555   -264.15602    37426.586 
  427200    293.67123   -1517.5665    485.29171    293.04777     414.6316    37426.586 
  427300    296.60346   -1479.9285    527.49063     386.1177   -1.5739458    37426.586 
  427400    298.48744   -1491.0033    467.34489    323.39937    198.82762    37426.586 
  427500    307.92742   -1483.0188    487.83468    394.47585     213.8333    37426.586 
  427600    293.23926   -1532.3444    486.47219     277.5009    62.274849    37426.586 
  427700    311.20728    -1500.328    510.49884    414.63259    358.00079    37426.586 
  427800    295.73399   -1507.1364     502.1515    329.64678   -42.947002    37426.586 
  427900    295.98962   -1465.4527    523.20154    393.53417    92.160085    37426.586 
  428000    304.58038   -1519.4274    497.29227    352.41986    81.478348    37426.586 
  428100    306.29641    -1540.202    480.04438    322.14171     57.23977    37426.586 
  428200    292.81399   -1512.6949     496.4226     305.1816   -154.70006    37426.586 
  428300    303.72032   -1490.4489    485.95504    366.17963    718.02149    37426.586 
  428400    294.64239   -1479.6864    485.52893    335.54784    459.92282    37426.586 
  428500     289.4486   -1499.8383    489.31314    295.74092    96.668819    37426.586 
  428600    301.64863   -1493.8833    506.18381    373.62461    381.99837    37426.586 
  428700    298.06321   -1475.8032    496.90604    366.24619    703.39862    37426.586 
  428800    303.64353   -1532.0983    480.68262    318.91126    883.73862    37426.586 
  428900    303.55379    -1487.435    497.17468    379.66172    318.73844    37426.586 
  429000    308.44393   -1508.8273    515.83285    398.99653    150.06053    37426.586 
  429100    303.14431   -1457.8125    506.22256     416.4841    557.38921    37426.586 
  429200    288.37136   -1491.1442    517.26478    327.52507   -115.05842    37426.586 
  429300    290.05265   -1487.6273    500.10409    321.46885   -93.275618    37426.586 
  429400    297.85232   -1461.9269    501.15866     383.4233   -6.7767767    37426.586 
  429500    298.57212   -1525.5573    488.92295    310.80559   -374.06857    37426.586 
  429600    304.85249    -1497.489    478.21166     356.5056   -532.94897    37426.586 
  429700    300.95386   -1519.8756    507.65687    345.96991   -70.283435    37426.586 
  429800    291.46763   -1481.8635     474.7368     308.2511   -336.81667    37426.586 
  429900     297.4957   -1496.3914    478.64278    324.83356   -296.00108    37426.586 
  430000    297.27213   -1510.8494    495.00203    325.72583   -400.64239    37426.586 
  430100    297.91066   -1496.5596    497.31219    345.20741   -95.909509    37426.586 
  430200    300.58394   -1465.9233    487.34873    377.94467   -422.73653    37426.586 
  430300    300.21414   -1503.5692    497.14816    348.42927   -154.77567    37426.586 
  430400      306.312    -1508.869    490.85962    364.36028    723.18776    37426.586 
  430500    299.63609   -1524.3761    497.88738    325.75287    26.455677    37426.586 
  430600    310.16219   -1507.1799    487.27433    379.83981    90.167831    37426.586 
  430700    295.89394   -1512.9389    508.38673    330.80131   -328.26516    37426.586 
  430800    303.07216   -1470.4254    491.89687    389.21984    65.559141    37426.586 
  430900     302.5508    -1485.407    492.80776    372.79627    199.82532    37426.586 
  431000    308.41041   -1501.4623    484.26198    374.63929    13.987433    37426.586 
  431100    294.06466   -1519.5085    505.66473    313.25431   -389.86374    37426.586 
  431200    293.71919   -1554.8333    482.30231    253.00793    175.33665    37426.586 
  431300    304.05029   -1546.8956     474.2859    299.55291   -525.71772    37426.586 
  431400    302.76543   -1522.6326     487.5385    331.27002    27.027529    37426.586 
  431500    311.82396   -1523.8906    477.29749     360.6517   -142.73268    37426.586 
  431600    299.94973   -1553.4588    495.27692    295.47519   -517.29241    37426.586 
  431700     303.6848    -1532.934    454.62392    292.20321   -375.41878    37426.586 
  431800    295.87989   -1550.4894    491.42661    276.22735   -519.55078    37426.586 
  431900    300.59893   -1529.7116    482.89277    309.76798   -305.40495    37426.586 
  432000    290.80781   -1524.7821    511.09957    298.71757    233.86098    37426.586 
  432100    303.30594   -1507.6727    511.80819    372.93891    17.789935    37426.586 
  432200    302.28495   -1537.2236    501.21742    328.18964    235.46387    37426.586 
  432300    302.63462   -1489.9365     505.2975    381.13481   -12.888094    37426.586 
  432400    298.08947   -1511.3591    489.72617    323.62889  -0.52842539    37426.586 
  432500    293.72474    -1529.264    501.54083    297.84082    107.61949    37426.586 
  432600    303.38763   -1540.9214    476.66202    304.91273     152.7317    37426.586 
  432700    308.04613   -1505.3073     500.6374     385.5258   -154.73974    37426.586 
  432800    298.38008   -1524.6342    499.44858    321.38772    331.66241    37426.586 
  432900    294.46538   -1510.7609    516.04886    334.19447    571.15403    37426.586 
  433000    297.65466   -1521.6614    485.87416     307.5123    636.37478    37426.586 
  433100    304.48146   -1513.1088    512.58668    373.58642    219.39733    37426.586 
  433200    299.09456   -1533.0166    522.33244    339.11359   -153.26806    37426.586 
  433300    291.33677   -1493.3419    490.63053     312.0758   -57.325014    37426.586 
  433400    296.78309   -1551.0067    474.19175    262.55126    155.77383    37426.586 
  433500    303.70009   -1531.9482    503.57594    342.20994    589.64528    37426.586 
  433600    310.74456   -1490.6917    519.35028     431.0321    203.47335    37426.586 
  433700      294.942   -1511.2086    496.53967    316.38852    1280.9197    37426.586 
  433800    294.88339   -1546.2275    504.56224    289.12767    944.73523    37426.586 
  433900    304.16963   -1589.0153    511.32454    295.01045     1375.956    37426.586 
  434000    298.60194   -1511.8236    487.71876    323.46974    793.19759    37426.586 
  434100    313.83082   -1519.9912    494.14623    390.45673    846.07016    37426.586 
  434200     294.6292   -1525.2394    491.51115    295.91751    555.00898    37426.586 
  434300     292.8277   -1492.1607    517.11666    346.47163    380.71215    37426.586 
  434400    297.74975   -1486.6727     503.3797    360.43567     563.4356    37426.586 
  434500    307.38303   -1478.0549    520.18327    429.33158    162.41154    37426.586 
  434600    291.13321   -1496.0629    502.34809    320.15378    17.323312    37426.586 
  434700    307.54052   -1495.8274    526.22311    418.30966   -94.570081    37426.586 
  434800    297.20205   -1537.8112     493.3855     296.8312   -41.502215    37426.586 
  434900    304.93243   -1524.9578      496.732    347.91786    236.99782    37426.586 
  435000    293.11587   -1515.4941    525.85716    333.17922   -247.87094    37426.586 
  435100     306.8444   -1509.2916    509.30799    384.78877   -374.07855    37426.586 
  435200    290.54008   -1502.1938    479.40534    288.40339   -173.87475    37426.586 
  435300    303.04181   -1485.4951    502.01002     384.1264   -967.70114    37426.586 
  435400    296.44762   -1479.3837    495.84397    354.31244   -646.24139    37426.586 
  435500    297.07643   -1497.3912    530.28286    373.58161    -548.2079    37426.586 
  435600    298.02333   -1496.5155    510.25698    358.70481   -563.34269    37426.586 
  435700     294.6318   -1532.4315    490.22453    287.45058   -353.66143    37426.586 
  435800    296.51529   -1497.2358    500.86837    341.79015     412.0736    37426.586 
  435900    296.91406   -1448.0073    505.82959    397.77955    533.24293    37426.586 
  436000    297.09172   -1459.2645    526.02204    407.51654    437.01352    37426.586 
  436100    299.74889   -1481.5455     501.1374    372.34259    681.38206    37426.586 
  436200    304.06787   -1489.5589    530.36685    413.04999   -177.12542    37426.586 
  436300    306.08335   -1515.6462    500.53929    366.23086    27.121951    37426.586 
  436400    294.00118   -1470.6957    499.38147    355.49733   -234.88152    37426.586 
  436500    303.66609   -1522.2244    495.28472    343.48909   -431.06092    37426.586 
  436600    297.35616   -1477.0702    515.87171    380.75395   -108.16182    37426.586 
  436700    309.80161   -1504.0869    481.67477    375.70597    -323.2234    37426.586 
  436800     290.0526    -1538.112    511.53764    282.41745   -1089.1212    37426.586 
  436900    300.69819   -1538.5133    507.07782    325.59937    -494.7075    37426.586 
  437000    301.93316   -1541.4467    489.53362    310.69515   -526.83303    37426.586 
  437100    297.70744   -1529.0144    503.25068    317.77398   -822.56499    37426.586 
  437200    304.82449    -1505.239    502.56724    372.98488   -997.72778    37426.586 
  437300    290.28312   -1522.7925    489.08441    276.32407   -812.98308    37426.586 
  437400    304.83638   -1506.6321    535.85328     404.9314   -40.261541    37426.586 
  437500    304.52551   -1515.9987    499.55945    357.86807   -308.72615    37426.586 
  437600    302.82633   -1511.5549    486.31928    341.40335    51.340525    37426.586 
  437700    288.99199    -1479.164     517.3709    342.41232   -435.68949    37426.586 
  437800    295.03343   -1494.2183    506.41412    343.66587   -981.59237    37426.586 
  437900    303.28728   -1499.5972    515.39098      384.513   -644.73825    37426.586 
  438000    304.40015   -1487.3281    497.89476    384.30824    -476.5216    37426.586 
  438100    310.53175   -1496.1847    506.79648    412.02496   -894.69723    37426.586 
  438200    300.97274   -1482.9986       516.78    392.05524   -48.181996    37426.586 
  438300    295.51437   -1528.4453    520.74546    325.94074   -614.31795    37426.586 
  438400     301.8088   -1527.7816     490.5547    324.81999   -304.04137    37426.586 
  438500    299.68672    -1522.666    488.47278    318.27691   -548.09759    37426.586 
  438600    304.45398   -1493.5772    507.30162    387.70889   -305.22349    37426.586 
  438700    308.84055   -1538.2586    489.34826    344.87052    -182.9868    37426.586 
  438800    296.61595   -1544.7823    508.39213    302.22176   -431.16915    37426.586 
  438900    299.13234   -1559.9852    478.08798    268.07103    68.209947    37426.586 
  439000    292.55996   -1553.7883    532.10249    298.62164   -242.73269    37426.586 
  439100    305.67063   -1536.0365    507.90641    351.34511   -295.67673    37426.586 
  439200    308.45187   -1545.2239    479.54586    326.34868    24.959276    37426.586 
  439300    300.05228   -1559.2794    493.92976    288.77023   -155.89968    37426.586 
  439400    295.97173   -1521.8773    516.42507    330.25235   -336.16576    37426.586 
  439500    289.30681   -1541.5313    491.94684     256.0417   -6.0386942    37426.586 
  439600    294.34311   -1568.9069    492.28534    251.73317   -126.42039    37426.586 
  439700    300.61044   -1565.9868    509.94007    300.59212    233.95775    37426.586 
  439800     310.3065    -1545.425    481.17988    336.15146    232.80961    37426.586 
  439900    310.21384   -1614.5072    498.17596     283.6472    534.36202    37426.586 
  440000    295.86581   -1555.5291    493.46412    273.16154    192.03857    37426.586 
  440100    292.20772   -1569.6465    494.59369    243.66497    1.2007199    37426.586 
  440200    292.02699   -1586.9458    505.04353    235.99984   -267.31721    37426.586 
  440300    310.78202   -1550.6302    501.41094    353.32335     -546.131    37426.586 
  440400    285.35468   -1586.0631    521.86676    223.59407   -477.78849    37426.586 
  440500    302.87891   -1559.6202    507.68119    314.93731   -35.254324    37426.586 
  440600    291.59101   -1537.4194    497.20288     275.7181   -1066.6555    37426.586 
  440700    300.16382   -1587.7699    502.88498    269.73827   -137.04685    37426.586 
  440800    309.47129   -1584.7183    514.39468    326.30377   -603.30287    37426.586 
  440900    299.85075   -1550.7848    500.12172    302.54726   -312.57122    37426.586 
  441000    305.56222   -1587.3738    485.61848    277.23062   -310.24907    37426.586 
  441100     294.6153   -1579.4905    492.83082    242.92339    146.49162    37426.586 
  441200    307.85344   -1589.9778    533.23765     332.5859    218.29298    37426.586 
  441300    290.47597   -1575.7065    496.76081    231.95674   -210.80439    37426.586 
  441400     306.9398   -1575.2204    505.06956    315.05206    290.68485    37426.586 
  441500    289.12028   -1586.6115    498.18133    216.35415    160.56865    37426.586 
  441600    293.88206   -1567.7819    487.20249     245.6946     265.5023    37426.586 
  441700    300.35799   -1535.1017    500.54109    320.93886    715.38619    37426.586 
  441800    304.17952   -1519.7634    510.80201     363.7845    387.84831    37426.586 
  441900    299.10062   -1539.0566    501.80009    312.56857   -210.35575    37426.586 
  442000     299.1918   -1512.2147    530.09198     368.1138   -679.01872    37426.586 
  442100    311.45211   -1531.4087    531.17133    405.32935   -266.77761    37426.586 
  442200     292.3895   -1553.2908    498.66787    264.91518   -496.78981    37426.586 
  442300    300.76022   -1560.9825    523.18927    319.52153   -493.70367    37426.586 
  442400    298.48459   -1545.6761    515.65463    317.02353   -615.79878    37426.586 
  442500    299.46101   -1539.9428    515.09119    326.59988   -269.59285    37426.586 
  442600     309.2128   -1552.7002     518.2252     360.9858   -655.11926    37426.586 
  442700    299.52742   -1522.8192    520.30042    349.23241   -10.311216    37426.586 
  442800    291.00555   -1548.0391    528.32604    293.57941     80.81684    37426.586 
  442900    301.85239   -1561.5838    503.29907    303.95893    225.44304    37426.586 
  443000    303.46606   -1564.7427    528.72139     333.5048    421.34148    37426.586 
  443100    308.17089   -1556.8821      503.669    337.54559    781.12438    37426.586 
  443200    308.22919   -1570.9017    522.56982    342.68995    795.49752    37426.586 
  443300    290.64808   -1573.9448    545.38699    283.12136    235.53582    37426.586 
  443400    305.35571   -1573.1278     542.3261    347.25228    192.28231    37426.586 
  443500    300.95591   -1546.9307    509.20413    320.47136   -212.78776    37426.586 
  443600    311.61537    -1536.287     509.8324     379.8489    207.80261    37426.586 
  443700    305.57388   -1563.0646    494.44157    310.41554   -183.80916    37426.586 
  443800     296.5077   -1564.8967    509.04606    282.27269   -71.689751    37426.586 
  443900    307.15687   -1538.0196    513.35678    361.51967    550.77929    37426.586 
  444000    294.63189   -1581.5033    519.07859    267.23323    316.46348    37426.586 
  444100    300.45689   -1574.2906    501.08438     282.7396    460.10933    37426.586 
  444200      292.878   -1540.0816    525.43737    307.09846    948.30508    37426.586 
  444300    296.84733   -1553.8101    499.65959    285.50562    476.30692    37426.586 
  444400    298.22548   -1499.8065    530.38169    376.45076    314.10678    37426.586 
  444500    295.17785   -1530.7079    513.94511    315.35903    22.565736    37426.586 
  444600    307.80242   -1547.0279    534.73019    376.79817    -999.5976    37426.586 
  444700    294.53186    -1529.703    499.21019    298.71373   -739.01595    37426.586 
  444800    303.75707   -1521.8224    498.44685    347.46379   -526.30623    37426.586 
  444900    292.06925   -1504.1741    522.17522    336.09396    -392.4715    37426.586 
  445000    295.32451   -1534.1504    522.57539    321.20866   -612.61585    37426.586 
  445100    284.40446   -1545.3883    519.95041    258.06422   -190.95141    37426.586 
  445200    302.36005   -1559.7514    487.12479    291.90814    553.01904    37426.586 
  445300    308.94189   -1580.5704    498.45629    312.12403    376.85242    37426.586 
  445400    296.00664   -1564.4373    514.59856    286.02339    277.10904    37426.586 
  445500    303.96868   -1550.0274    538.84182    360.60879   -202.57437    37426.586 
  445600    298.55732   -1547.2074    504.76045    304.92627   -100.47023    37426.586 
  445700    294.61562   -1576.1489    502.05409    255.48969   -119.14861    37426.586 
  445800    308.04216   -1611.4805    527.47026    306.16755    535.34513    37426.586 
  445900    308.85884   -1603.8167    502.40827    292.45491    947.39297    37426.586 
  446000    295.71102   -1573.7591    515.39599    276.16488    213.67868    37426.586 
  446100    306.21645   -1558.5134     497.6714    321.09638    322.27538    37426.586 
  446200    298.28818   -1517.5708    496.91562    325.50337   -127.59878    37426.586 
  446300    301.59036   -1571.2898    505.31167    295.08295    427.17642    37426.586 
  446400     296.6787   -1589.0042    503.30967    253.20054   -55.148661    37426.586 
  446500    289.24884   -1536.9153    510.82181    279.27104    61.241018    37426.586 
  446600    290.91476   -1555.1366    520.07139    277.81755    225.00824    37426.586 
  446700    295.64175   -1591.4584    511.97568     254.7326    31.305591    37426.586 
  446800    294.17902   -1567.0551    516.48603    277.04509     186.5106    37426.586 
  446900    298.22683   -1552.9227    499.76153    292.72052     40.72007    37426.586 
  447000    302.86965   -1569.1349    503.63747    301.33711   -48.823723    37426.586 
  447100    291.56649   -1593.6306    503.23579     225.4291     256.2004    37426.586 
  447200     308.1739   -1567.2241    509.20283    332.75104    288.64373    37426.586 
  447300    310.39729   -1578.5909     503.6036    325.81899   -63.535077    37426.586 
  447400    298.76433   -1593.3764    515.95492     270.8859    538.60321    37426.586 
  447500    299.03868   -1556.6468    501.49907    294.39784    327.86259    37426.586 
  447600    306.48413   -1579.5537    533.07251    336.66532    726.05324    37426.586 
  447700    302.48303   -1563.7267    503.02479    304.38781    104.66102    37426.586 
  447800    301.24449   -1593.6567    485.69054    251.53403    30.944466    37426.586 
  447900    287.61243   -1554.9042    527.28103    270.35633   -188.49466    37426.586 
  448000    306.32638   -1556.5835    523.95023    349.80127    59.686238    37426.586 
  448100    307.50196   -1551.2818     500.0017    336.45977    386.89188    37426.586 
  448200    297.59881   -1609.6018    499.23724    232.68291   -347.93039    37426.586 
  448300     292.1255   -1553.9652    524.04904    288.43055   -199.80086    37426.586 
  448400    288.94523   -1567.0379    492.52529    229.48171   -655.91104    37426.586 
  448500    295.38873   -1561.9833     487.7493    258.83953     120.8834    37426.586 
  448600    292.74532   -1555.8729    508.80584    274.07687   -269.33763    37426.586 
  448700    302.34612   -1572.4211    486.87098    278.92166    248.16579    37426.586 
  448800    297.99786   -1580.0757    518.98528    283.75795    332.97219    37426.586 
  448900    305.43007   -1546.1217    515.49074    347.75859    1462.8082    37426.586 
  449000    300.62209    -1537.885     488.8347    307.64113    1352.3712    37426.586 
  449100    302.81665   -1507.8706    541.55261    400.27731    966.02195    37426.586 
  449200    302.93361   -1544.6883    515.47869    337.91356    138.93887    37426.586 
  449300    305.89318   -1568.7227    501.36444    313.12127    321.93425    37426.586 
  449400    297.39034   -1528.2229    506.04092    319.92466   -139.83268    37426.586 
  449500     312.4291   -1514.8671    490.84342     385.9521    422.48125    37426.586 
  449600    299.80483   -1589.7595    492.71115    255.95475   -555.83438    37426.586 
  449700    298.34666   -1527.5793    511.54289    330.38614    -135.8532    37426.586 
  449800    290.57529   -1580.2652     485.1825    216.26804   -240.30874    37426.586 
  449900    296.71053   -1577.7083    514.29613    275.62649   -493.51106    37426.586 
  450000    302.19347   -1501.1564    524.28432    386.91087   -425.12736    37426.586 
  450100    299.04968   -1551.7706     527.4556    325.28013   -585.36353    37426.586 
  450200    310.87806   -1538.7966    512.57628    376.75568   -84.094835    37426.586 
  450300    292.73196   -1553.6846    473.53387    240.93293   -24.330854    37426.586 
  450400    298.26092    -1550.386    463.86827    259.51787   -222.11247    37426.586 
  450500    292.16692   -1528.6776    517.17894    307.03501   -237.57844    37426.586 
  450600    304.30929   -1550.8567    476.31128     298.7861   -255.19638    37426.586 
  450700    305.25837   -1528.7263    466.84358    315.73198    191.46841    37426.586 
  450800    301.31861    -1580.127    513.92987    293.63763    385.99175    37426.586 
  450900    295.26566   -1573.6042    492.22439    251.13826    233.19784    37426.586 
  451000    295.11907   -1600.9063     499.2042    230.15441    252.52093    37426.586 
  451100    304.83764   -1588.3743    512.17777    299.51943   -497.88347    37426.586 
  451200    302.49469   -1588.5701    473.85848     250.4307   -331.76986    37426.586 
  451300    307.13672   -1575.3896    499.36296    310.06494   -65.724025    37426.586 
  451400    306.42087   -1568.4867    519.78356    334.15782   -324.77859    37426.586 
  451500    301.33375   -1559.1049    503.52598    304.32416    251.61411    37426.586 
  451600    297.68966   -1561.6435    505.64745    287.46143   -30.936429    37426.586 
  451700    293.82182   -1539.6379    482.38655    268.75078    201.51399    37426.586 
  451800    303.31682   -1543.2867    504.55306     330.1189    245.86471    37426.586 
  451900    294.99469   -1508.2239    527.77021    350.84155    18.891846    37426.586 
  452000    294.16189   -1536.4929    503.48162    294.52556  -0.76203871    37426.586 
  452100    306.48149   -1550.7118    521.95838    354.38111   -178.95143    37426.586 
  452200    308.68052   -1521.0456      503.676    375.68902    263.19815    37426.586 
  452300    299.11097   -1526.2048    491.82701      315.494     165.3045    37426.586 
  452400    307.85465   -1520.2305    515.44738    384.54841   -258.59697    37426.586 
  452500    316.10185   -1508.7703    485.00959    402.79005    71.975313    37426.586 
  452600    298.49497    -1523.834    485.93471    309.19253   -67.464057    37426.586 
  452700    301.11483   -1546.2106    481.71771    294.42217    -144.2742    37426.586 
  452800    314.90528   -1577.4024    500.83582    344.58404   -340.64809    37426.586 
  452900    299.87021   -1527.9317    492.15394    317.52043   -224.00643    37426.586 
  453000    301.67047   -1496.4589    510.38592    375.34971   -383.09494    37426.586 
  453100    295.93571   -1472.6577    508.65658    371.54087   -241.23986    37426.586 
  453200    301.93897   -1487.8957    508.60171    383.34035    -203.2963    37426.586 
  453300    289.93892   -1491.6885     508.8239    325.61423    277.64446    37426.586 
  453400    300.71039   -1502.9341    526.57377    380.72951    643.60025    37426.586 
  453500    287.66753    -1514.966    506.12466    289.38683    313.07181    37426.586 
  453600    307.16785   -1519.0409    505.70372    372.89487    370.79142    37426.586 
  453700    298.44142   -1459.3944    505.05351    392.50927     311.8435    37426.586 
  453800    305.50779   -1467.6759     533.6521    444.71653    252.27061    37426.586 
  453900    316.03357   -1513.5519    520.40415    433.09477    769.69113    37426.586 
  454000    306.19478   -1525.2491    488.79311    345.38463   -134.28165    37426.586 
  454100    303.90678   -1488.5007    527.61849    410.63282   -132.40796    37426.586 
  454200    295.73468   -1536.9477    478.49968    276.18677   -389.21514    37426.586 
  454300    306.27008   -1506.1423     491.0896    367.12781   -575.70214    37426.586 
  454400    299.21104   -1527.4416    511.51099    334.39283   -1036.6111    37426.586 
  454500    295.64292   -1533.1164    484.43126    285.53552     -787.966    37426.586 
  454600    307.53591   -1534.6359     500.9286     354.1858   -463.63217    37426.586 
  454700    298.68058   -1504.7161    506.14144    349.35478   -296.71435    37426.586 
  454800    302.40598   -1490.8143     518.3925    392.32018   -3.8674255    37426.586 
  454900    295.88789   -1507.3753    524.26435    352.21527    416.52206    37426.586 
  455000    295.68576   -1482.3143    516.61757    368.71722     581.2022    37426.586 
  455100    302.91091   -1476.7661    534.73268    424.98728   -175.44315    37426.586 
  455200     305.3875   -1461.6158    514.40706    430.98863    102.75117    37426.586 
  455300    299.32509   -1494.1912    512.05583    368.70274    58.240373    37426.586 
  455400    296.84726   -1521.1041    514.16669    332.71833    -60.77999    37426.586 
  455500    293.71175    -1524.595    499.89713    300.80757   -15.168251    37426.586 
  455600    299.74256   -1540.3396    485.52075    297.90322    103.48107    37426.586 
  455700    302.03198   -1527.5988    492.08024    327.53558     242.5548    37426.586 
  455800    312.11805   -1519.2396    533.35882    422.69123    705.76576    37426.586 
  455900    298.08478   -1533.9967    501.46464    312.70855    192.15034    37426.586 
  456000    292.53357   -1519.4532    489.72545    290.46061    553.18402    37426.586 
  456100    287.83108    -1551.097     510.0407     257.9099   -39.620241    37426.586 
  456200    294.26622   -1500.1501    493.55099    321.40859   -361.62992    37426.586 
  456300    303.49341    -1514.525    517.35522    372.47968   -479.68062    37426.586 
  456400    306.52945   -1520.0096    494.00708    357.34852   -281.10731    37426.586 
  456500    299.50862   -1513.9637    503.43095    341.13362   -250.56405    37426.586 
  456600    294.50269   -1539.0407    501.38004    291.41423   -451.93697    37426.586 
  456700    290.60614   -1526.8825    479.74245    264.34995   -458.12627    37426.586 
  456800    310.92798   -1557.7169    483.56583    329.05028   -250.19565    37426.586 
  456900    296.18323   -1538.0074    495.82199    294.47369   -485.87272    37426.586 
  457000    303.12755   -1572.3128    472.88318    268.56874    -853.8823    37426.586 
  457100    294.76598    -1579.586     484.9379    235.61499   -690.44923    37426.586 
  457200    302.24444   -1534.6826    488.63436    317.96471   -313.32288    37426.586 
  457300     297.6811    -1529.643    506.07315    319.84905   -765.15307    37426.586 
  457400    298.50546   -1515.7804    465.28469    296.64348   -618.38018    37426.586 
  457500    300.38125   -1494.4174    518.90157    380.08864    -351.8943    37426.586 
  457600    298.04759   -1504.3414    511.34093    352.07233   -565.19061    37426.586 
  457700    299.23374   -1495.2679    544.05213    399.21008     39.22644    37426.586 
  457800    301.49622   -1527.1448    501.03289    334.52441    517.81741    37426.586 
  457900    304.14652   -1504.3149    511.21894    379.50104    209.20808    37426.586 
  458000    287.76464   -1506.8071    509.45997    301.31929   -20.929076    37426.586 
  458100    299.31259   -1517.0675      509.792    343.50621    388.37132    37426.586 
  458200    299.05115   -1472.5166    513.71026    390.79553   -13.980983    37426.586 
  458300    297.98003   -1480.5687    510.99189    375.19111     767.6708    37426.586 
  458400    304.80856   -1466.1837    495.35498    404.75596    30.613052    37426.586 
  458500    302.24078   -1512.4627    487.65731    339.19106   -277.60761    37426.586 
  458600    299.83835   -1554.5715    490.83994    289.42283   -496.85692    37426.586 
  458700    305.85141    -1576.189    476.24866    280.35068   -418.44203    37426.586 
  458800    298.54195   -1517.9634    518.84673    348.18712   -154.86487    37426.586 
  458900    307.11427   -1501.8243    483.47134    367.63728   -453.06769    37426.586 
  459000    299.90095   -1508.9905    512.18634    356.63272   -623.06955    37426.586 
  459100    289.41964   -1455.5325    494.24423    344.84705   -257.40872    37426.586 
  459200    295.70152   -1466.2521    494.95875    363.19171   -169.08307    37426.586 
  459300    290.90941   -1517.3342    476.35476    271.87916    194.13158    37426.586 
  459400    307.26726    -1520.048    524.20193    390.83462   -358.48254    37426.586 
  459500    300.27806   -1516.5699    472.91862    311.48755    100.75929    37426.586 
  459600    304.39898   -1494.2095    516.38501    395.91181    354.08293    37426.586 
  459700     305.3198   -1522.9742    505.82196    360.73967    178.42674    37426.586 
  459800    296.98528   -1507.9239      515.064    347.41871    74.494332    37426.586 
  459900    298.78269   -1500.7948    492.19391     339.7894   -395.77549    37426.586 
  460000    300.12174   -1489.9868    509.41636    373.86296   -359.91396    37426.586 
  460100    302.92617   -1477.8252     493.8912     383.1556    59.854012    37426.586 
  460200    308.40194   -1489.5184     498.9914    401.27442   -351.30479    37426.586 
  460300    291.04452   -1567.7968    477.19227    222.86384   -200.06767    37426.586 
  460400    295.96279    -1495.553    485.99668    326.10788    -863.5946    37426.586 
  460500    295.38324   -1528.7996     492.9056    297.15475   -1068.1817    37426.586 
  460600    301.25448   -1534.7219    486.05442    310.87783   -444.11446    37426.586 
  460700    296.53969   -1535.8293    502.49361    304.93206   -218.23678    37426.586 
  460800    299.73931   -1565.2297    500.81653    288.29427     132.7714    37426.586 
  460900    302.49097    -1551.234    502.71816    316.60976    184.44919    37426.586 
  461000    302.04187   -1548.8738    475.00276     289.2277     88.22766    37426.586 
  461100    298.33073   -1557.5599    508.88113    297.67184   -129.75986    37426.586 
  461200    304.24295   -1537.6343    486.39988    321.79767    -305.5983    37426.586 
  461300    297.73171   -1558.5944    502.86107    287.91395   -383.62681    37426.586 
  461400    301.06763   -1531.8151    489.79662    316.68361    562.72328    37426.586 
  461500    295.70672   -1554.2189    505.20255     285.4922    388.03049    37426.586 
  461600    294.20269    -1574.998    504.73218    257.45514    466.04119    37426.586 
  461700    303.38072   -1553.7735    510.71276    326.08015    744.15945    37426.586 
  461800    302.15947   -1577.7406    508.38675    294.27567    87.917017    37426.586 
  461900    310.17987   -1554.6707    505.40352    350.55792   -12.593416    37426.586 
  462000    308.21758   -1518.5148    491.97351    364.42812   -77.050868    37426.586 
  462100    296.54521   -1569.1661    515.52929    284.65585    487.15949    37426.586 
  462200    298.95002   -1591.9005    516.10473    273.34967    541.49129    37426.586 
  462300    300.05358   -1578.0504    493.85769    269.93299     700.7253    37426.586 
  462400    295.80476   -1539.4063     518.0972    313.64195    372.33259    37426.586 
  462500    303.35996   -1563.5438    507.73168    313.23508    77.603456    37426.586 
  462600    306.23716   -1569.2263    517.30741    330.11303    136.57256    37426.586 
  462700    293.54369   -1548.8412    494.11413    270.01992    339.44361    37426.586 
  462800    312.81863   -1593.4802    525.45931    343.71282     109.5124    37426.586 
  462900    299.44855   -1580.9661    480.97177     251.4009    141.17867    37426.586 
  463000     302.6947   -1546.5065    509.81396    329.35245    44.405043    37426.586 
  463100    298.08424   -1517.0432    496.25619    324.45121    -177.4206    37426.586 
  463200    298.82607   -1536.6638    529.50691    341.42918   -696.12044    37426.586 
  463300    301.32499   -1538.1088    473.40778    295.16254   -739.39568    37426.586 
  463400    303.07073   -1598.3998    499.94444    269.28653   -52.658189    37426.586 
  463500    305.86933   -1530.1861    509.26783    359.45359    121.27049    37426.586 
  463600    302.78491   -1527.2845    532.65413    371.82172    291.95667    37426.586 
  463700    290.39779   -1549.6725    515.63083    276.50795    154.38101    37426.586 
  463800    303.40994   -1538.5538    520.68311     351.4021    216.16809    37426.586 
  463900    296.93448   -1553.7291    518.14768    304.46801   -225.08077    37426.586 
  464000    298.93562   -1503.3313    526.65646    372.40558     221.1249    37426.586 
  464100    295.15985   -1577.6039    485.00348    239.44016    407.64224    37426.586 
  464200     310.4853   -1584.5079    491.71095    308.40659    341.93471    37426.586 
  464300    305.15001   -1589.6277    496.56599    284.06398    775.44566    37426.586 
  464400    296.24082   -1549.4793    491.88616    279.32577    569.30196    37426.586 
  464500     302.7125   -1553.8433    496.24826    308.53028    579.14268    37426.586 
  464600    293.13409   -1545.6686    514.66662    291.89649    37.918917    37426.586 
  464700    299.48674   -1564.8323    519.30718    306.04247   -429.37738    37426.586 
  464800    294.43741   -1608.6996     508.6617    228.74236    106.76751    37426.586 
  464900    300.70752   -1559.6318    487.50131    284.94646   -293.77806    37426.586 
  465000    315.39177   -1570.2144    495.03124    348.16298    -320.5845    37426.586 
  465100    296.57828   -1553.1493    489.51164    274.80425     4.709581    37426.586 
  465200    306.80776    -1537.438    495.15402    342.32304   -14.146899    37426.586 
  465300    299.13727   -1504.4551    497.62795    343.16331   -766.22299    37426.586 
  465400     305.0057    -1551.927     519.3319    343.87927   -620.48495    37426.586 
  465500    300.47442   -1558.3262     484.0091    281.70789   -728.09139    37426.586 
  465600    296.53984   -1540.1196     494.2317    292.38051   -661.31238    37426.586 
  465700    289.67842   -1551.3487    506.76513    262.71968   -714.34488    37426.586 
  465800    303.57739   -1523.9477    504.57872    350.65953    -416.9799    37426.586 
  465900    307.60717   -1558.3809    501.93348    331.76723   -1097.4789    37426.586 
  466000     299.5469   -1577.0812    527.05837    301.81621   -225.49095    37426.586 
  466100    307.38739   -1507.7279    529.54092     409.0358    362.35546    37426.586 
  466200    310.90705   -1527.5491     514.2523    389.81005   -351.05637    37426.586 
  466300    287.67775   -1537.5456    515.50235    276.23102    210.65549    37426.586 
  466400    298.93193   -1513.0982    511.38326    347.34888   -175.70546    37426.586 
  466500    294.47438   -1481.8195    510.56591    357.69351   -24.459488    37426.586 
  466600    305.43757   -1499.3724    494.55627    373.60721    400.84152    37426.586 
  466700    292.55541   -1546.6258    488.24675    261.90781   -31.122532    37426.586 
  466800    307.25045   -1565.2685    498.24367    319.58001   -445.33323    37426.586 
  466900    301.96203   -1476.1278    511.08306    397.69371   -460.96861    37426.586 
  467000    306.75376   -1515.1825    495.89821    365.07893   -662.94653    37426.586 
  467100    305.21194   -1502.6378    491.19488    365.96224   -653.23867    37426.586 
  467200    310.05701   -1498.4646    513.51762    414.32367   -602.30405    37426.586 
  467300    302.95295   -1526.7028    516.98404    357.49169   -389.80333    37426.586 
  467400    299.45202   -1535.7125     495.3364     311.0348   -399.96461    37426.586 
  467500    293.88321    -1500.845    503.10172    328.53588   -673.22668    37426.586 
  467600    300.70546   -1537.2493    510.40546    330.22384   -264.06332    37426.586 
  467700    299.07274   -1523.3671    493.46492    319.79709   -216.55774    37426.586 
  467800    301.08035   -1470.5753    513.67175    401.85596    85.597011    37426.586 
  467900    290.50672   -1500.6072    512.77218    323.20625    305.78143    37426.586 
  468000    310.53175   -1502.1744    509.55721    408.79594    245.41338    37426.586 
  468100    293.20807   -1536.5774    495.21464    281.86961    228.20883    37426.586 
  468200    301.74842   -1517.8442    515.25933     359.1896   -234.23903    37426.586 
  468300    300.66683   -1462.4091    494.92326    389.40743   -46.322953    37426.586 
  468400    296.12257      -1518.1    485.41339    303.69867    52.484307    37426.586 
  468500    311.00755   -1524.0697    517.99895    397.48965    163.97236    37426.586 
  468600    304.56212   -1516.0918    509.37121    367.75197    251.59499    37426.586 
  468700    285.66129    -1505.621    520.54828    304.10135    -9.999113    37426.586 
  468800     296.0613   -1491.3687    504.98714    349.72721    187.60747    37426.586 
  468900    298.44111   -1498.3656    527.92507    376.40819    58.769454    37426.586 
  469000    306.34918   -1509.0349    510.20848    383.71102    88.280953    37426.586 
  469100    302.51893   -1520.4212    502.39347    347.22398    23.190948    37426.586 
  469200    306.85024   -1531.8013    521.48763    374.48498    724.31436    37426.586 
  469300    296.47577   -1476.8548    510.11785    371.24229    311.33246    37426.586 
  469400    309.26909   -1508.7012    528.25531    415.26899    529.81681    37426.586 
  469500    299.54757   -1508.4414    515.52788    358.92864    425.48174    37426.586 
  469600    307.91912   -1526.9262    494.84836    357.54468     416.1765    37426.586 
  469700    308.87893   -1483.3418    514.53941     425.1517    240.77175    37426.586 
  469800    308.86824   -1492.9319     503.3665     404.3404    623.16363    37426.586 
  469900    292.47203   -1490.7934    520.40494    349.52218    154.09023    37426.586 
  470000    303.58753   -1518.8518    501.61436    352.83679   -206.35346    37426.586 
  470100    310.20284   -1487.5727    490.81804    403.17408    760.32292    37426.586 
  470200    295.21709   -1533.0889    516.32305    315.53308    595.73536    37426.586 
  470300    299.30094   -1515.0382    509.44518    345.13614    580.87582    37426.586 
  470400    299.73261    -1527.237    519.37742    344.81763    646.68404    37426.586 
  470500    293.22316   -1493.6701    482.99186    312.62218    477.03174    37426.586 
  470600    307.40452   -1548.3859    484.79272    323.70695    715.68856    37426.586 
  470700    297.94741   -1509.9483    512.87022    347.54261    445.67544    37426.586 
  470800     309.6333   -1528.0005     504.4223    373.78033   -10.796878    37426.586 
  470900    297.85612   -1496.3008    503.34153    351.24948     504.3109    37426.586 
  471000    312.32194   -1531.9558    552.79358     430.3299   -28.722811    37426.586 
  471100    303.46017   -1501.4351    482.78613    350.85046     214.4671    37426.586 
  471200    295.05267   -1475.7639    485.38889    341.18188    395.89728    37426.586 
  471300    302.49267   -1529.3696    501.68963    337.45327    40.118421    37426.586 
  471400    305.28326   -1530.3903    478.93013    326.26689   -40.254639    37426.586 
  471500    303.38888   -1506.5449     556.5814    419.21427   -547.15815    37426.586 
  471600    292.49519   -1490.5292     500.3711    329.85702   -587.69737    37426.586 
  471700    277.94111   -1522.1079     522.8624    255.08785   -762.41592    37426.586 
  471800    295.45513   -1487.6369    491.34015    337.07641   -898.23473    37426.586 
  471900    295.82961   -1504.8879    494.43594    324.61118   -354.76646    37426.586 
  472000    302.03228   -1504.3563    521.58144    380.28064   -7.2000086    37426.586 
  472100    309.36376   -1525.1619     480.6602    351.64039    140.73152    37426.586 
  472200    296.42729   -1545.8534     512.6414     304.5485    160.56883    37426.586 
  472300     304.9235   -1547.5701    527.76305    356.29639    569.42161    37426.586 
  472400    302.60556    -1556.584    506.14746    315.20617    19.910378    37426.586 
  472500    304.35671   -1543.5068    551.69104     381.7297    -238.7315    37426.586 
  472600    295.61369   -1566.1743    494.07695    261.99144   -322.33787    37426.586 
  472700    301.13438   -1553.3609    485.62866    291.27107   -337.86111    37426.586 
  472800    302.54308   -1561.2075    515.81191    319.96516   -587.36892    37426.586 
  472900    296.28649   -1495.4116    477.44518    319.15862     356.3789    37426.586 
  473000    310.13348   -1544.6371    523.90445    378.88315   -152.15065    37426.586 
  473100    299.92377   -1529.3651    503.67744    327.85223     154.6215    37426.586 
  473200    303.82755   -1534.1377    528.33833    365.35806     472.4326    37426.586 
  473300    306.12269   -1530.5691     502.7223    353.66848    243.42437    37426.586 
  473400    294.23847   -1573.7335    492.33762    246.48654    69.175784    37426.586 
  473500    305.42448   -1594.8041    529.67353    313.23377   -185.88232    37426.586 
  473600    304.43084   -1529.9275    496.62734     340.5799    384.14688    37426.586 
  473700    295.19407   -1563.1468    475.49196    244.54019   -200.26586    37426.586 
  473800    308.96148   -1551.4802    499.95435    342.80071    94.951217    37426.586 
  473900    300.06341   -1583.0101    498.63232    269.79234    -82.87369    37426.586 
  474000    311.42711   -1543.1869    502.65748    364.92442   -423.19729    37426.586 
  474100    303.87104   -1537.2949    524.01358    358.07242   -124.52875    37426.586 
  474200    292.57023   -1542.3734    501.62487    279.60517   -277.62158    37426.586 
  474300    299.27992   -1518.0335    537.22069    369.82139   -832.11362    37426.586 
  474400     300.4053   -1476.4902    499.11257    378.33539   -521.32686    37426.586 
  474500    297.42799   -1486.5813    484.36004    340.05533   -1235.2113    37426.586 
  474600    306.71027   -1557.7579     488.4091    314.81824   -755.99652    37426.586 
  474700    305.98195   -1563.6397    492.38272    309.62316   -112.23373    37426.586 
  474800    290.78328   -1536.6537    498.37215    274.00776    118.88209    37426.586 
  474900    298.25539   -1527.2811    492.12273    310.85226    221.28812    37426.586 
  475000    302.06476   -1521.8762    486.97926    328.30512   -256.31008    37426.586 
  475100    306.81647   -1551.4523    497.64686    330.84084   -292.30881    37426.586 
  475200    301.73817   -1575.7935    492.32889    278.26359   -411.06844    37426.586 
  475300    307.28495   -1618.1398    482.34641    250.96714   -418.08864    37426.586 
  475400     310.3223   -1568.9505    499.71257    331.22996   -111.69388    37426.586 
  475500    303.48703   -1588.9395    494.93765    275.61889   -515.69507    37426.586 
  475600    293.22977   -1564.7131    526.18512    284.80223   -180.53394    37426.586 
  475700    308.05668   -1503.6214     492.6233    379.24521   -172.57826    37426.586 
  475800    300.91813   -1506.7168    537.66317     388.9738   -438.05549    37426.586 
  475900    304.45667   -1581.0069    498.28307    291.27287    316.59431    37426.586 
  476000    299.14235   -1528.4542    482.33263    303.89186   -104.40281    37426.586 
  476100    314.18155   -1561.4147    542.16033    398.63012   -568.44482    37426.586 
  476200    298.41433   -1534.1817    501.03495    313.58115   -130.31972    37426.586 
  476300    299.34677   -1533.1099    513.26493    331.09092   -458.71895    37426.586 
  476400    301.76768   -1533.8371    503.84879    331.87305   -821.31314    37426.586 
  476500     299.8608    -1586.561    484.78876    251.48354   -259.06902    37426.586 
  476600    298.98735   -1537.2096    503.94115    316.04546   -465.83273    37426.586 
  476700    293.32759   -1526.8819    505.45104    302.34086   -346.25556    37426.586 
  476800    315.53058   -1500.7856    509.28248    432.46949     258.0089    37426.586 
  476900    291.98328   -1500.3171    526.80511    344.19287    471.12202    37426.586 
  477000    298.27295   -1490.5692    510.74102    366.26168    887.74555    37426.586 
  477100    299.06737   -1463.4562    511.37743    397.59621   -9.7210541    37426.586 
  477200    299.66518   -1534.6217    500.30268    318.05392    551.32124    37426.586 
  477300    299.55383   -1523.7228    491.38643    319.53402    235.22287    37426.586 
  477400    312.37895   -1538.8876    504.01375     374.8756    657.43177    37426.586 
  477500    300.71626   -1552.8365    525.65966     329.9395    470.54252    37426.586 
  477600    301.16915   -1553.6821    499.55821    305.03634    402.43268    37426.586 
  477700    292.64126    -1581.908    502.53089    241.29722    269.85476    37426.586 
  477800    297.79375   -1569.7885    505.42378    279.56254   -95.022936    37426.586 
  477900    298.30891   -1581.2571    496.66049    261.65553   -268.41258    37426.586 
  478000    299.85067   -1572.7905    504.91255    285.33208   -327.40205    37426.586 
  478100    308.94927   -1521.2731     495.7523    368.75071   -199.46742    37426.586 
  478200    292.01428   -1496.8542      534.934    355.92463   -466.31566    37426.586 
  478300    302.34502   -1531.3226     517.6467    350.79095    362.78617    37426.586 
  478400    304.29569   -1498.3274    507.90584    382.84858    791.45969    37426.586 
  478500    289.46125   -1482.3958    507.91097    331.83822    346.33773    37426.586 
  478600    304.37457   -1530.6609    496.90927    339.87446    368.43332    37426.586 
  478700    297.39292   -1545.3913    502.01816    298.74513   -241.78259    37426.586 
  478800    304.92834   -1549.1779    512.62904    339.57642   -59.850645    37426.586 
  478900    306.56884   -1522.9975    501.91529    362.44659    644.24933    37426.586 
  479000    297.27115   -1514.7853    514.06751    340.85096   -275.93162    37426.586 
  479100    297.11019   -1543.5006    512.11504    309.45686   -149.56676    37426.586 
  479200    298.00227   -1548.9834     507.1674    303.05229    358.66856    37426.586 
  479300     290.3979   -1544.9632    520.73506    286.32207    150.55317    37426.586 
  479400    300.15625    -1580.953    529.15112     302.7872    572.52269    37426.586 
  479500     296.8835   -1588.0719    499.10252    250.84995   -224.30757    37426.586 
  479600    278.80462   -1539.1755    482.33328    201.38815   -728.80837    37426.586 
  479700    289.58231   -1549.8992    514.47155    271.44183   -411.63349    37426.586 
  479800    306.51298   -1528.1159    500.87208    356.03282   -292.55453    37426.586 
  479900    292.83078   -1525.5098    535.29721    331.31704   -324.25357    37426.586 
  480000    295.10335   -1551.7519    502.33559    282.36927   -497.78896    37426.586 
  480100    299.32156   -1539.6731    562.20455    373.35366   -125.63205    37426.586 
  480200    296.20161   -1578.9889    498.92152    256.67458   -174.86283    37426.586 
  480300    301.40878   -1540.6463    499.96089    319.55628    44.840272    37426.586 
  480400    301.37205   -1546.1711     515.3602    329.26506    79.780308    37426.586 
  480500     303.4408   -1575.9645    506.42759    299.87517   -543.02089    37426.586 
  480600    294.83427   -1547.2031    520.27618    303.64434   -437.58425    37426.586 
  480700    304.61285   -1599.0707    485.24744    260.87818   -237.31848    37426.586 
  480800    310.14668    -1636.387    494.32054    257.60892    231.78689    37426.586 
  480900    308.26822   -1633.1189    487.16868    245.24778   -60.492902    37426.586 
  481000    298.31384   -1585.1363    486.75602    247.89414   -923.07827    37426.586 
  481100    312.88068   -1571.7865    489.24894    329.47613   -579.14777    37426.586 
  481200    289.90663   -1559.3652    506.16754    255.13537    100.03452    37426.586 
  481300    297.98818   -1529.7174    499.53079    314.61806    650.20934    37426.586 
  481400    297.65342   -1563.8884    514.09118    293.49673    318.01256    37426.586 
  481500    302.18727   -1547.1442    503.88395    320.49473   -263.88531    37426.586 
  481600    291.23485   -1566.5862    499.40869    247.14982   -441.06455    37426.586 
  481700    299.06227   -1568.7791    485.93997     266.8129    354.59132    37426.586 
  481800     299.1375   -1594.2133     492.4126    248.19078    410.20265    37426.586 
  481900    295.24175   -1544.7749    504.82165    292.45693    73.281026    37426.586 
  482000    300.81626   -1576.9525    497.33068    277.94587   -379.75905    37426.586 
  482100    306.26933   -1578.3603    476.32951    280.14626   -323.52949    37426.586 
  482200    308.97153   -1587.7793    502.72135      309.314   -382.42724    37426.586 
  482300    298.77403   -1550.7185    485.60712    283.23979   -50.000223    37426.586 
  482400    307.03043   -1574.1371    510.12855    321.60336   -363.28263    37426.586 
  482500    306.87167   -1578.3377    512.09433    318.65204   -546.71104    37426.586 
  482600    295.04822   -1557.0072     500.1505     274.6801   -608.54326    37426.586 
  482700    296.18343   -1498.7718    524.82236     362.7105   -482.32828    37426.586 
  482800    304.11461   -1513.2349    498.36389    357.58196   -311.64539    37426.586 
  482900    294.46234   -1553.1117    478.97546    254.75656   -494.59727    37426.586 
  483000    299.87515   -1536.1634    532.70259    349.85966   -9.3816957    37426.586 
  483100    304.70847    -1544.443    498.16496    328.85498    300.97673    37426.586 
  483200    308.16522   -1544.8236    475.05226     320.9618   -27.856319    37426.586 
  483300    298.95562   -1582.2308    475.85701    242.79694    24.820567    37426.586 
  483400      301.523   -1581.6998    499.62197    278.67926   -118.32408    37426.586 
  483500    297.86506    -1583.386    500.25329    261.11634    81.038817    37426.586 
  483600    301.39877   -1532.3896    505.29366    333.10059    53.215636    37426.586 
  483700    299.97361   -1584.7102    503.78501    272.83967     695.2586    37426.586 
  483800    299.16128   -1555.0796    513.54967    308.56891    409.26557    37426.586 
  483900     297.5995   -1552.2135    505.34476    296.18187    479.87666    37426.586 
  484000      303.535   -1565.3276    515.59972    320.10933    825.98371    37426.586 
  484100    303.97593   -1548.5689    509.78121    333.03941     168.5845    37426.586 
  484200    307.21128   -1565.6697    511.97955     332.7379   -116.15898    37426.586 
  484300    300.99179   -1557.5682    501.08241    301.87405   -425.88835    37426.586 
  484400     317.5523   -1502.7839    499.09569    429.40829   -63.418723    37426.586 
  484500      304.484   -1507.6536    516.22001    382.68638   -195.62708    37426.586 
  484600    295.90276   -1495.4093    487.75527    327.73925    161.70559    37426.586 
  484700    300.02452   -1505.9426    529.08981    377.14178    528.93365    37426.586 
  484800    296.74972    -1507.883    510.65548    341.98805    80.796166    37426.586 
  484900    290.24458    -1511.271    521.81523    320.40241     288.6796    37426.586 
  485000    290.68622   -1533.5904    486.36846    264.62936    117.41038    37426.586 
  485100    299.43809   -1543.3598    502.55129    310.53953   -82.162368    37426.586 
  485200    294.34389   -1523.2658    534.17751    339.26986   -220.07232    37426.586 
  485300    305.48278   -1544.4196    522.68598    356.89378   -246.80064    37426.586 
  485400    307.02986    -1532.645    501.22006    354.18432   -436.40151    37426.586 
  485500    313.97145   -1493.1904    513.17959    436.92555   -343.93993    37426.586 
  485600    307.60331   -1479.3025    498.41138     407.3061    17.855662    37426.586 
  485700    305.18969   -1548.9824    519.36114     347.6834    390.01539    37426.586 
  485800    300.00427   -1491.5232    518.56736    380.94732    11.469673    37426.586 
  485900    300.73084   -1534.8506    526.19611     348.5277    102.59354    37426.586 
  486000    300.15126   -1552.4419    501.01213    303.13677    169.15256    37426.586 
  486100    293.64462   -1540.9688    515.72959     299.9632   -562.50898    37426.586 
  486200    303.78396   -1521.5347    511.38186    360.80788   -51.980767    37426.586 
  486300    300.49636   -1559.8602     497.7437    294.00747   -383.16308    37426.586 
  486400     295.5484   -1563.4017    521.91043    292.30282    292.63942    37426.586 
  486500    293.07844   -1576.6515    479.90826    225.90406    166.21166    37426.586 
  486600    294.46022    -1546.994    539.36785    321.25703    509.57596    37426.586 
  486700    295.38965    -1516.436    503.01928    319.66096    41.232732    37426.586 
  486800    296.70676   -1518.6809    496.73239    317.07318   -366.48091    37426.586 
  486900    294.03076    -1553.462    512.01554    285.49861   -70.085046    37426.586 
  487000    293.41793   -1597.0394     501.3466     228.4866   -374.75842    37426.586 
  487100    293.32682   -1575.5734    465.52765    213.72245   -203.79293    37426.586 
  487200    303.71552   -1589.9525    484.14641    264.84577   -280.83477    37426.586 
  487300    300.46008   -1552.3932    473.62147    277.18855    418.12941    37426.586 
  487400    306.62341   -1561.9068    510.24642    332.11466    365.56093    37426.586 
  487500    288.27033    -1561.815    462.71246    201.84605   -151.58682    37426.586 
  487600    300.32661    -1588.912    513.55347    279.99936    216.62423    37426.586 
  487700     302.6701   -1556.4739    488.90335    298.36338    409.69429    37426.586 
  487800      293.573   -1557.9298    512.15978    279.10919    290.82575    37426.586 
  487900    301.77311   -1554.2066    489.02669    296.70593    50.883094    37426.586 
  488000    304.71686   -1496.9179    495.71385    373.96684     62.44994    37426.586 
  488100    300.41501    -1515.722    506.56211    346.59701   -116.09254    37426.586 
  488200    297.39651   -1482.3504    484.09041    343.87455   -384.90664    37426.586 
  488300    297.76314   -1518.7057      510.318    335.40143   -149.18128    37426.586 
  488400    309.86152   -1522.9766    496.09391    371.50572   -128.50804    37426.586 
  488500    300.17006   -1522.9981    507.66435    339.31764    381.14867    37426.586 
  488600    301.21166    -1470.263    526.28342     415.3725    231.04027    37426.586 
  488700    294.67546   -1497.4631    524.84946    357.24089   -1.7321721    37426.586 
  488800     294.1085   -1510.3253    514.05039      331.021   -9.1479114    37426.586 
  488900    284.88771   -1523.3215     507.9685    270.32998   -121.51509    37426.586 
  489000    307.19372   -1523.1849    488.71544    351.87931   -141.71662    37426.586 
  489100    290.19256   -1503.3969    519.97212    326.19867    100.92318    37426.586 
  489200    295.12311   -1527.9908    493.73013    297.61416    429.94303    37426.586 
  489300    298.00698   -1549.0705    498.67964     294.4987   -626.41411    37426.586 
  489400    297.77501   -1523.1706    484.56642    305.23844   -384.60176    37426.586 
  489500      305.213   -1514.5555     495.9397    358.79412   -909.70266    37426.586 
  489600    302.96262    -1509.466     514.7851    372.57312   -424.82592    37426.586 
  489700    300.53365   -1574.8741    481.79862     263.2168    20.999392    37426.586 
  489800    299.31961   -1574.2978    490.81612    267.33171   -56.760237    37426.586 
  489900    301.56898   -1575.1446    488.69307    274.51308   -7.3155724    37426.586 
  490000    304.74127   -1565.7281    519.22896    328.78191    805.41781    37426.586 
  490100    305.16066   -1590.3144     496.6131    283.47246    258.51441    37426.586 
  490200    308.47004   -1534.6764    516.65982    374.09214    297.75956    37426.586 
  490300    299.40973   -1539.7832    500.74404    312.18087    433.10173    37426.586 
  490400    293.95054   -1510.5035    506.66706    322.74659    699.85797    37426.586 
  490500    309.61864   -1544.5108    488.16153    340.94302    -315.4211    37426.586 
  490600    294.46581   -1515.7838    518.57307    331.69769    166.79897    37426.586 
  490700    318.92543   -1523.4837    514.75604    430.56567    386.46143    37426.586 
  490800    306.80019   -1534.1368    507.68069    358.11676    131.77046    37426.586 
  490900    290.63728   -1568.7341    500.61127    243.50766    208.08928    37426.586 
  491000    293.77371   -1535.9858    501.30054    291.09981    478.25698    37426.586 
  491100    294.28201   -1547.8772     487.6481    267.84991    352.41319    37426.586 
  491200    306.14655   -1515.4318     517.7574    383.94863    183.57129    37426.586 
  491300    302.18963   -1581.6245    496.86338     279.0045    -187.4691    37426.586 
  491400    296.98547   -1558.6046    471.63735     253.3123   -176.36723    37426.586 
  491500    304.49708   -1575.0969    510.10178     309.1839   -91.605691    37426.586 
  491600    299.63931   -1546.1092    510.96566    317.11258   -154.58611    37426.586 
  491700    305.94336   -1542.7383     478.4406    316.40825    -243.1392    37426.586 
  491800    300.54237   -1554.2099    502.01424    304.13599     236.2566    37426.586 
  491900    297.78417   -1552.1956    500.98402    292.67246    21.233739    37426.586 
  492000     302.8973   -1543.4307    503.51564    327.04424   -478.94836    37426.586 
  492100    295.96491   -1536.3486    477.46115    276.78628   -706.96528    37426.586 
  492200    303.61463   -1529.1004    505.73918     346.8353   -422.54697    37426.586 
  492300    294.14822   -1564.0252    508.97852     272.4285   -78.426118    37426.586 
  492400    308.31843   -1548.8282    514.35028    356.94666   -276.25566    37426.586 
  492500    291.62487   -1527.1854     508.1318    297.03378   -693.99387    37426.586 
  492600    308.30237   -1546.1887     502.0784    347.24176      102.729    37426.586 
  492700    291.16062   -1594.5113    523.42373    242.90473    265.36615    37426.586 
  492800    302.35044   -1588.4869    467.42035    243.42481     -69.4279    37426.586 
  492900    298.97802   -1553.8039    503.44871    298.91663   -23.128727    37426.586 
  493000    292.77808   -1552.6042    508.61447    277.30207   -446.31768    37426.586 
  493100    301.21181    -1548.093    531.90828    343.16801   -5.3498231    37426.586 
  493200    299.19935   -1523.9822    475.74026    302.02867   -187.44132    37426.586 
  493300    303.30824   -1487.7016    522.99931    404.11156     388.1916    37426.586 
  493400    292.28195   -1539.4356    497.76732     277.3845    415.28021    37426.586 
  493500    297.47476   -1528.7478    491.35421    305.09405    157.32088    37426.586 
  493600    294.63076   -1535.0623     521.6482    316.23872    431.68179    37426.586 
  493700    297.22221   -1544.9355    523.78913    320.20147    452.25705    37426.586 
  493800    298.00545   -1553.1733    511.97365    303.68296    115.41007    37426.586 
  493900    294.46342   -1543.9153     508.6468    293.62913    289.09459    37426.586 
  494000    302.16963   -1537.2694    514.52945    340.93534    -291.0016    37426.586 
  494100    301.38633   -1554.0444     481.9168    288.01278   -457.23738    37426.586 
  494200    291.83964   -1512.2376    491.84942    296.66843   -768.88893    37426.586 
  494300    298.92078   -1498.1658    515.42816    366.27583   -766.39985    37426.586 
  494400    298.96366    -1492.834    523.83802    380.21101   -276.81982    37426.586 
  494500    299.30443   -1531.1612    486.39399    305.97767   -46.855989    37426.586 
  494600    288.43428   -1508.2701     505.6435    299.06187   -120.39182    37426.586 
  494700    300.11359   -1509.5949    487.56013    332.36176   -33.375609    37426.586 
  494800    306.50477   -1500.4072    512.99874    395.83112   -457.08106    37426.586 
  494900    307.53753   -1521.3412    516.65116    383.21033   -407.70484    37426.586 
  495000    296.26167   -1498.6921    495.62565    333.94652   -673.25831    37426.586 
  495100    304.61927    -1470.768    560.77631    464.73872   -377.51594    37426.586 
  495200    303.35344   -1481.8364    501.74552    388.92697   -456.20948    37426.586 
  495300    293.76221   -1539.6876     501.0959    287.14141    2.2794652    37426.586 
  495400    292.05439   -1523.6771    549.82301     344.1717    611.31895    37426.586 
  495500    310.95454   -1538.9596    472.43758    336.79914      926.911    37426.586 
  495600    295.16505   -1536.7063    491.18247    286.54029      541.737    37426.586 
  495700    292.48791   -1524.6282    486.17249     281.5265    501.63158    37426.586 
  495800     298.8917   -1538.8998    533.12429    343.10667    300.28665    37426.586 
  495900    300.00878   -1543.3683    498.86545    309.42072    277.02099    37426.586 
  496000     297.7257   -1540.4589    488.66409    291.82527   -85.793634    37426.586 
  496100    308.84392   -1523.0401    482.25306    353.00896   -552.24664    37426.586 
  496200    307.73988   -1504.6626     486.4996    370.65059   -400.77387    37426.586 
  496300    294.71963   -1520.3042     513.0601    322.80982   -795.62825    37426.586 
  496400    296.89301   -1496.7664    485.72305    328.81885   -237.85948    37426.586 
  496500    293.11807   -1512.5677    523.23041    333.48887    -675.5986    37426.586 
  496600    299.32819   -1545.9656    502.13453    307.02099    142.13694    37426.586 
  496700    300.99761   -1542.2339    515.55387    331.70612      277.671    37426.586 
  496800    299.94304   -1539.0024    523.20855    337.83309    154.41648    37426.586 
  496900    300.04166   -1570.3299    511.63162    295.37367    214.76702    37426.586 
  497000    305.19864   -1541.0374    514.35375    350.66141     557.1659    37426.586 
  497100    299.63608   -1551.0891     498.8366    299.98905   -49.586536    37426.586 
  497200    301.51908   -1547.2604    496.67299    310.15206   -336.55649    37426.586 
  497300    299.17099    -1541.448    495.78854    304.48325   -860.60091    37426.586 
  497400    305.29713   -1541.8477    482.55097    318.49283     -469.167    37426.586 
  497500    290.69279   -1517.1582    510.20899    304.93176   -719.96179    37426.586 
  497600    304.39633   -1525.2202    521.51738    370.02147    -66.37298    37426.586 
  497700    297.42987   -1522.6309    507.72387    327.37797   -76.371574    37426.586 
  497800    298.36064   -1516.3761    516.00451      346.114    347.19808    37426.586 
  497900    302.06361   -1554.3274    492.71024    301.57971   -107.12215    37426.586 
  498000    298.21388   -1534.6564    498.35235    309.51919   -321.29884    37426.586 
  498100    301.16862   -1531.0075     508.6305    336.78081     336.7775    37426.586 
  498200     296.0209   -1552.2266    495.99491    279.69474    366.84654    37426.586 
  498300    287.99965   -1536.8172     529.9156    292.82537    495.08089    37426.586 
  498400    290.63676   -1508.2492    529.60502    332.98397   -387.81296    37426.586 
  498500    297.00862   -1534.2751    495.41808    301.52699    218.43623    37426.586 
  498600    300.56633    -1505.559    536.95549    387.83625    -183.1314    37426.586 
  498700    306.45095   -1533.7051    496.71126    346.00284    212.39246    37426.586 
  498800    308.48967   -1514.5885    516.75344    394.36228    144.15189    37426.586 
  498900      295.579   -1542.2345    509.67642    301.37407    106.53227    37426.586 
  499000    296.78801   -1560.6099    488.88771    267.66617    400.09693    37426.586 
  499100    302.80979   -1561.4505      513.377    318.49088   -92.417197    37426.586 
  499200    295.20951    -1557.052    495.25164    270.46438    161.16468    37426.586 
  499300    308.88709   -1552.5518     490.8053    332.24441     587.1891    37426.586 
  499400    303.41469   -1545.0746    499.27566    323.49535    24.221236    37426.586 
  499500    286.62582   -1573.5607    510.06453    230.03086    413.47387    37426.586 
  499600    291.55237   -1602.4974     516.3344     229.5972    103.61183    37426.586 
  499700     305.6767   -1592.6084    495.56034    282.45451   -660.89395    37426.586 
  499800    308.43844   -1564.6154    499.97762    327.32838   -375.74269    37426.586 
  499900    298.09061   -1590.9325    500.69713    255.03162      -518.25    37426.586 
  500000    304.07873   -1590.8161    490.79071     272.2656   -611.69232    37426.586 
  500100    298.43812   -1589.1638     458.9196    216.59102   -25.502025    37426.586 
  500200    286.08868   -1570.0196     531.9626    253.04584    146.60184    37426.586 
  500300    298.53019    -1585.529    522.54244    284.26419    780.97319    37426.586 
  500400    291.12297   -1581.9419    470.55948    202.43994    769.03223    37426.586 
  500500    304.70073   -1585.5647     508.9562    298.48956    954.51371    37426.586 
  500600    296.34791   -1633.9865    496.76221    200.17792    735.66629    37426.586 
  500700    298.62107   -1588.8379    506.17522    264.99819    592.93855    37426.586 
  500800    301.36547   -1567.8688    508.15313    300.33056    538.48704    37426.586 
  500900    298.14886   -1541.8717    486.64523    290.30342    263.24697    37426.586 
  501000    296.31995   -1550.7075    524.80608    311.37463    31.249362    37426.586 
  501100    300.07688   -1610.2827    476.94656    220.89475    517.44428    37426.586 
  501200    300.39643   -1573.9775    515.37429     297.0698   -313.07285    37426.586 
  501300       293.81   -1567.3033    489.01436    247.65982   -112.19667    37426.586 
  501400    293.11657   -1585.3982    478.55596     215.9771   -82.826358    37426.586 
  501500    297.43528   -1583.1958    541.00423    300.11785   -140.19018    37426.586 
  501600    289.39313   -1536.9705    515.57902    284.62422   -512.04576    37426.586 
  501700    291.79401   -1563.4683    505.81325    259.19566   -409.82435    37426.586 
  501800    306.63018   -1588.1977    508.28948    303.89737   -90.677462    37426.586 
  501900    298.31114   -1569.0022    501.65484    278.91484   -333.85591    37426.586 
  502000    313.24521   -1558.8296     528.4633    383.29251     416.9563    37426.586 
  502100    298.08406   -1545.3883    510.93559    310.78469   -170.30651    37426.586 
  502200    296.70238   -1568.6885    511.31555    281.62902    152.39618    37426.586 
  502300    315.75473    -1543.774    530.73215    411.94228    16.982522    37426.586 
  502400    301.28524   -1548.0554    488.57773    300.20642   -195.58775    37426.586 
  502500    301.24538    -1540.712    497.94105    316.73335   -350.76894    37426.586 
  502600    304.95083   -1518.6231    527.58224    385.18595   -290.01701    37426.586 
  502700    310.18261   -1551.3609     520.8019    369.27845   -7.0401872    37426.586 
  502800    309.72793    -1554.716    500.05145    343.12099     114.0059    37426.586 
  502900    308.26574   -1545.2597    509.54969    355.47676   -62.897762    37426.586 
  503000    299.87157   -1490.2334    523.69018    386.76108    413.29186    37426.586 
  503100    299.30335   -1517.3539    500.92359    334.30963    219.51376    37426.586 
  503200    302.65755   -1521.6164    514.50299    358.76393    574.06426    37426.586 
  503300    296.71081   -1529.5455    483.88873     293.3832    996.02144    37426.586 
  503400    304.00842   -1551.6523    494.00981    314.33123    1120.4148    37426.586 
  503500    298.45048   -1552.5686    500.36424    294.68665    1160.8494    37426.586 
  503600    291.48613   -1487.3181    496.61648    324.75965    753.32102    37426.586 
  503700    302.92055   -1497.6443    566.10238    435.52227    316.92582    37426.586 
  503800    299.38312   -1504.0057    526.82439    373.91866    135.20592    37426.586 
  503900    298.02015   -1507.7126    497.10868    334.34506    220.59399    37426.586 
  504000    296.78152   -1527.5555    492.97125    304.77488    528.49016    37426.586 
  504100    304.15683   -1553.2181    519.79857    339.22393    479.57967    37426.586 
  504200    299.50436   -1552.4992    529.84924    328.99719     657.2481    37426.586 
  504300    309.39798   -1537.4627    502.15436    360.98819    822.03812    37426.586 
  504400    306.18191   -1504.0843    499.43797    377.13622    88.801342    37426.586 
  504500    298.50828   -1484.5507    529.78553    392.38671    260.03533    37426.586 
  504600    290.51389   -1486.5541    508.10446    332.62401   -144.74702    37426.586 
  504700    299.54393   -1510.7921     517.1437     358.1773   -457.43017    37426.586 
  504800    291.91781   -1533.2398    517.18792    301.35753   -467.54365    37426.586 
  504900    297.16003    -1557.391    489.15854    272.83482   -402.58713    37426.586 
  505000    302.88895   -1520.0066    523.31939     370.2344   -937.29667    37426.586 
  505100    298.77258   -1577.2956    492.84986    263.89894   -584.86003    37426.586 
  505200    307.44969   -1544.3695     506.0735    349.20798   -220.00268    37426.586 
  505300    296.91134   -1533.0103    508.86143    315.79605   -333.40207    37426.586 
  505400    291.26125   -1495.0823    486.94858    306.31265   -9.9086155    37426.586 
  505500    296.03329   -1523.3531    513.06106    325.69031   -901.85554    37426.586 
  505600    309.97194   -1509.6939    485.98367    375.17655   -251.51052    37426.586 
  505700     296.4605   -1551.4728    498.57174    285.00932    -605.7912    37426.586 
  505800      307.577   -1556.9777    530.51514    361.61595    479.11429    37426.586 
  505900    293.82412   -1590.3113    489.39915    225.10032    128.70722    37426.586 
  506000    299.43471   -1595.5477    503.62097    259.40605    673.75508    37426.586 
  506100    290.98387   -1582.1172    497.95584    229.03327    878.05457    37426.586 
  506200    299.67357   -1570.2525    498.35962    280.51785    851.53327    37426.586 
  506300    300.82704   -1560.4225    505.34411    302.53796    950.02295    37426.586 
  506400    296.35683   -1550.6858    472.57107    259.32781    38.954774    37426.586 
  506500    292.18436   -1570.5888    514.07808    262.10168    1310.0383    37426.586 
  506600    298.54298   -1563.9971    500.46716    283.77854     437.7188    37426.586 
  506700    305.54063    -1558.726    504.00136    324.16387    546.38606    37426.586 
  506800    299.80703   -1572.8875    494.45386    274.57935    175.80452    37426.586 
  506900     307.7351   -1530.5713    503.83218    362.05295    106.40162    37426.586 
  507000    301.55559   -1543.5763    501.52865    318.85658    225.50716    37426.586 
  507100    299.06285   -1569.2069    486.73494    267.18268    223.28994    37426.586 
  507200    308.50136   -1542.7615    515.45213    364.94071    151.87523    37426.586 
  507300    290.40064    -1607.181    484.72873    188.11029   -293.56994    37426.586 
  507400    297.83469   -1564.5743    512.18683    291.72451   -173.03529    37426.586 
  507500     302.2454   -1572.4216    513.12255    304.71829    139.78291    37426.586 
  507600    303.68949   -1539.2684    499.90212    331.16816   -221.79107    37426.586 
  507700    289.91696   -1529.9832    501.58042    279.97693   -172.75986    37426.586 
  507800    297.94123   -1482.0616    537.99978    400.53099   -253.08246    37426.586 
  507900    298.06084   -1530.2672    495.77119    310.63662   -159.50775    37426.586 
  508000    304.17371   -1548.8372    496.13759    320.02002   -475.31881    37426.586 
  508100    296.18938   -1538.3208    516.97445    315.34046   -513.03473    37426.586 
  508200    293.07812   -1511.5872    495.87981    306.93848   -322.22824    37426.586 
  508300    303.69991    -1521.179    522.94426    372.34668   -51.542217    37426.586 
  508400    312.64537   -1581.8487    511.27608    340.37915    84.523302    37426.586 
  508500    298.70952   -1563.2863     488.5383    273.31204    312.53441    37426.586 
  508600    305.49528   -1534.8226    527.51901     371.3802    281.02714    37426.586 
  508700    301.67085   -1492.8958    545.33242    413.86102    258.16837    37426.586 
  508800    292.86084   -1544.0588    505.81758     283.4241   -156.37288    37426.586 
  508900    308.15532   -1589.5999    503.55809    304.64659    332.13091    37426.586 
  509000    301.69458   -1568.3505    503.96736    297.14833    186.40864    37426.586 
  509100    303.60356   -1552.1835    492.05372    310.01684    189.00313    37426.586 
  509200    313.81565   -1543.9514    496.83914    369.12097    294.46972    37426.586 
  509300    296.07825   -1578.1961    504.85661    262.84576   -174.40157    37426.586 
  509400    298.79656   -1609.7468    476.69575    215.40185    106.34507    37426.586 
  509500    294.70232   -1540.9304    519.28933    308.33465    517.10654    37426.586 
  509600    296.01684   -1585.1926    498.46015    249.17564    621.43272    37426.586 
  509700    310.70833   -1583.6543    500.02856    318.58434    649.44683    37426.586 
  509800     301.1859   -1549.4622    499.00511    308.77874    497.05922    37426.586 
  509900    289.74481   -1532.6046    497.54169    272.53987    365.41203    37426.586 
  510000    289.95754   -1555.9487    521.26325    273.87743    411.83205    37426.586 
  510100    295.71725   -1571.7275    490.72788    253.55652    368.69535    37426.586 
  510200    303.04404   -1551.8481    509.25212    325.02556    203.83149    37426.586 
  510300    300.38864    -1534.308    502.47997     323.8098    83.559485    37426.586 
  510400    290.50471   -1526.9244    496.73533     280.8431    224.05212    37426.586 
  510500    300.64211   -1555.9569    521.79438    322.61924    269.60461    37426.586 
  510600    295.72601   -1571.8168    508.42007    271.19889   -272.10773    37426.586 
  510700    311.03684   -1554.7132    493.94722    342.92668   -420.77471    37426.586 
  510800    294.08642   -1540.7739    488.27591    274.69827   -390.61407    37426.586 
  510900    305.17486   -1600.3242    513.50576    290.41935   -475.72876    37426.586 
  511000    300.07869   -1555.2893    503.71867    302.66842   -531.29462    37426.586 
  511100    293.76828   -1515.8955    487.95307    297.81813    117.44331    37426.586 
  511200    303.76913   -1560.7347    493.13154    303.29065   -67.547435    37426.586 
  511300    303.21882   -1534.7044    511.67361    345.37947    292.53393    37426.586 
  511400    293.55921   -1557.5825    488.24579     255.4803    -146.3085    37426.586 
  511500    313.40216   -1495.1979     532.9972    452.16647    133.16535    37426.586 
  511600    289.75193   -1533.8766    493.69665    267.45499    205.74689    37426.586 
  511700    295.91784   -1544.7129    499.60892    290.35734   -373.50356    37426.586 
  511800    313.12559   -1531.7781    519.56312    400.90408    274.61213    37426.586 
  511900     303.8226   -1537.7939    517.34969    350.69097   -303.74488    37426.586 
  512000    294.08473   -1565.2915    508.50552    270.40261   -74.645345    37426.586 
  512100    301.10474   -1582.1354    523.19704    299.93117   -132.48668    37426.586 
  512200     306.2812   -1553.9315    507.41347     335.7126    325.34879    37426.586 
  512300    301.38092   -1588.6716    509.32553    280.76989   -385.96532    37426.586 
  512400    288.35318   -1567.1682     517.1678    251.32207   -494.01788    37426.586 
  512500    301.33121   -1580.3047    482.98364    262.57053   -307.86665    37426.586 
  512600     299.2111    -1537.968    497.90839    310.26408   -39.730966    37426.586 
  512700    306.09396   -1547.7544    520.25097    353.88225    373.06253    37426.586 
  512800    299.03252   -1572.1604    503.85463    281.21197   -246.06885    37426.586 
  512900    310.35163   -1553.9306    502.82426    349.49395    327.56517    37426.586 
  513000    293.77876   -1525.6698    525.39948    325.53746    14.702232    37426.586 
  513100     296.2789   -1570.7257    502.21257    268.57767    39.507668    37426.586 
  513200    310.35074   -1525.3802    524.30699    399.52304   -211.55282    37426.586 
  513300    291.32881   -1551.2077    519.11184    282.65541   -217.95259    37426.586 
  513400    306.01595    -1558.595    502.22694    324.66554   -508.43184    37426.586 
  513500    293.96346    -1559.642    508.02928    275.02862    78.657086    37426.586 
  513600    298.15935   -1551.8797    510.08153    303.77902   -48.910201    37426.586 
  513700    298.02369   -1545.8957    513.86661    312.93586    470.49809    37426.586 
  513800    303.44823    -1580.258    505.48692    294.67455    669.32007    37426.586 
  513900    287.55715   -1529.4837    526.25928    294.50555    563.94526    37426.586 
  514000    304.06954    -1546.905    506.47932    331.82389    -24.49956    37426.586 
  514100    292.52386   -1521.5199    510.47642    309.10106   -9.5045596    37426.586 
  514200    290.60254   -1521.1427    514.42869    304.75964   -241.72275    37426.586 
  514300    303.54617    -1494.771    529.06525    404.18185    -482.5115    37426.586 
  514400     300.0908   -1492.6679    498.81246    360.43828    -78.91812    37426.586 
  514500    309.74827   -1458.7563    518.32677    457.44784   -125.56474    37426.586 
  514600    296.74691   -1490.7927    521.77951    370.18971   -226.75348    37426.586 
  514700    303.30102   -1460.0143    524.12352    432.89047    126.37858    37426.586 
  514800    307.16663   -1448.4162    513.46122    451.27158    34.726223    37426.586 
  514900    303.18401   -1451.0542    493.19525    410.39423    159.35387    37426.586 
  515000    291.02979   -1455.4856    538.77097    396.68725    103.31059    37426.586 
  515100    304.51101   -1484.7452    505.12024     394.6169    302.27233    37426.586 
  515200    300.44207   -1509.5614    511.51189    357.82944   -118.35734    37426.586 
  515300    305.77982   -1499.2209    525.24558    405.99262   -146.35979    37426.586 
  515400     303.0083   -1512.6867    524.29602    379.06952    60.289072    37426.586 
  515500    308.70645   -1512.8993    521.82293    402.09933    172.33451    37426.586 
  515600    310.43151   -1497.8759     497.8634    400.94828   -364.77766    37426.586 
  515700    295.17967   -1533.0429     514.8798    313.96697   -612.43326    37426.586 
  515800    305.13528   -1505.8258    525.28644    396.51981   -822.80915    37426.586 
  515900    292.24672   -1504.1745     475.6944    290.41367   -450.28502    37426.586 
  516000    301.11773   -1502.5118    502.02287    358.43927   -184.88127    37426.586 
  516100    304.62981   -1491.2951    521.76703    405.24994    51.050742    37426.586 
  516200    301.57191     -1531.57     505.5015    334.90942   -356.00034    37426.586 
  516300    292.39005   -1505.6601    506.75274    320.63329   -8.5395658    37426.586 
  516400    302.49785   -1494.9907    519.82457    389.99046    5.6445258    37426.586 
  516500    307.23855    -1501.251    518.17769    403.47779   -368.87842    37426.586 
  516600    303.97152   -1529.7847    487.95888    329.98134   -707.89218    37426.586 
  516700    296.45291   -1512.5294    512.53237    337.87907   -712.01375    37426.586 
  516800    299.72466   -1503.4794    493.80543    342.96741   -216.65503    37426.586 
  516900    300.36875   -1491.5434    526.85864     390.8633    176.91916    37426.586 
  517000    307.28158    -1496.496    530.76093    421.01025    149.51416    37426.586 
  517100    302.02488   -1532.7372    513.32312    343.60799     451.0958    37426.586 
  517200    301.64423    -1516.261    514.04481     359.0881    685.25996    37426.586 
  517300    312.84749   -1523.7083    504.55151    392.70712    563.98677    37426.586 
  517400    294.11489   -1538.0055    476.61065    265.92988   -140.56542    37426.586 
  517500    300.69104   -1482.8308    516.45294    390.62465    158.05781    37426.586 
  517600    294.88684   -1530.4712    511.36599    311.70327    -391.0661    37426.586 
  517700    292.75121   -1531.8262    514.16296    303.50725          573    37426.586 
  517800    296.58798    -1499.453    492.21711     331.2497    22.903945    37426.586 
  517900    312.11735   -1516.3061    510.21543    402.47821    261.96822    37426.586 
  518000    293.99475   -1556.2457    512.60171     283.1386   -173.26976    37426.586 
  518100    301.89941   -1564.2736    506.10296    304.28521    161.38038    37426.586 
  518200    297.63626     -1565.27    499.05859    277.00503    343.17488    37426.586 
  518300    305.73491   -1541.2476    503.73581    342.25344    221.98527    37426.586 
  518400    303.11894   -1563.4061     508.1798    312.73327    705.00855    37426.586 
  518500    303.30696   -1587.6089    499.55572    280.75491    596.70548    37426.586 
  518600    298.77525    -1568.396    506.16883    286.12954    -390.8419    37426.586 
  518700    297.09982   -1523.2612    508.04323    325.57767    268.69381    37426.586 
  518800    305.75297   -1540.4872     502.4892    341.84876    139.62272    37426.586 
  518900    293.39049   -1548.3155    515.52246    291.26257    -112.3824    37426.586 
  519000    306.44978   -1488.1258    502.53123    397.39687   -354.77922    37426.586 
  519100    306.61872   -1526.5159    498.95153    356.18953   -50.005691    37426.586 
  519200    294.12223    -1513.408    495.84403     309.7939   -244.57172    37426.586 
  519300    303.13449    -1519.909    501.02209    349.14277   -38.358095    37426.586 
  519400    292.45913   -1495.6527    501.66269    325.86238    59.769831    37426.586 
  519500    304.79592    -1577.137    504.69512    303.08576   -105.48553    37426.586 
  519600    296.72283   -1512.8775    520.87031    347.08703   -673.89321    37426.586 
  519700    302.95889   -1532.2188    522.87799    357.89637   -375.89898    37426.586 
  519800     289.2293   -1516.2977    512.92215     301.9008   -224.59606    37426.586 
  519900    292.25956   -1536.8279    490.56435    272.68824     255.9176    37426.586 
  520000    314.78333   -1499.7239    524.11789    444.99426    272.95842    37426.586 
  520100    285.36264   -1543.1357     504.9222    249.61282    571.23004    37426.586 
  520200    287.99651   -1529.2641    489.10279    259.55151    578.53742    37426.586 
  520300    307.41806   -1558.0198    531.25484    360.59622    108.92787    37426.586 
  520400    303.65488     -1517.74    500.69589    353.33406   -13.274438    37426.586 
  520500    296.36734    -1502.863    518.50856    353.13545   -494.77048    37426.586 
  520600    294.66746   -1461.4689    517.41202    385.76158   -588.89729    37426.586 
  520700    292.93033   -1523.3088    501.92293    300.59302   -553.00762    37426.586 
  520800    305.41984   -1545.8735    521.18993     353.6598   -113.55309    37426.586 
  520900    304.63392   -1526.2159    515.39748    363.97816    303.14312    37426.586 
  521000    295.49258   -1560.3387    489.75202    262.95546    108.76926    37426.586 
  521100    293.34125   -1567.8266    471.33027    227.33705   -43.887734    37426.586 
  521200    298.73842   -1516.8544    514.01859    345.35473   -266.70839    37426.586 
  521300    295.99858   -1493.4271    517.25297    359.65158   -343.77575    37426.586 
  521400    301.16215   -1516.6147    510.76368    353.27767    376.90254    37426.586 
  521500    298.50649   -1502.7632    525.89691     370.2775    574.16034    37426.586 
  521600    302.20164   -1540.5115    511.11952    334.42783    546.59455    37426.586 
  521700    306.22356   -1480.6081     538.6883     440.0507    535.54495    37426.586 
  521800    304.59214   -1515.6041    473.30984    332.31381    277.37555    37426.586 
  521900    297.78144   -1523.5638    537.28123    357.58915   -134.52991    37426.586 
  522000    295.93846   -1523.2001    522.15687    334.51121   -110.70179    37426.586 
  522100     305.0873   -1521.6094    477.47146    332.70465    727.60034    37426.586 
  522200    295.44725   -1504.5405    559.30875    388.10586   -64.188525    37426.586 
  522300    293.47896   -1530.4235     500.3634    294.39468   -60.831907    37426.586 
  522400    300.57813   -1507.3421    507.02923    356.18015   -354.79466    37426.586 
  522500    297.94112   -1483.2235     534.6777    396.04646   -123.27372    37426.586 
  522600    298.68961    -1486.128    518.90527    380.74747    631.29301    37426.586 
  522700    308.71293   -1582.8038    510.17344     320.5746    806.28563    37426.586 
  522800    310.35534   -1521.4474    525.78099    404.95065    640.49871    37426.586 
  522900    304.54581   -1484.2781    514.75769    404.87854    38.746731    37426.586 
  523000    305.06155   -1493.5338    522.39846    405.59106    397.17846    37426.586 
  523100    290.26803   -1488.4847    492.22004    313.69938    456.05472    37426.586 
  523200    297.60554   -1498.2132    530.43127    375.29597    245.25621    37426.586 
  523300    291.54534   -1521.7124    523.45712    317.47319    196.43226    37426.586 
  523400    302.84011    -1488.619    507.09017    385.17235   -115.66725    37426.586 
  523500    302.84569   -1494.5142    500.32508    372.53728    253.81521    37426.586 
  523600    306.25736   -1507.4936    533.09462    407.72409   -205.28411    37426.586 
  523700    293.61969   -1526.1801     521.6587    320.56852   -427.80843    37426.586 
  523800    294.57316   -1534.4432    501.47816    296.42783   -269.86327    37426.586 
  523900    303.80258    -1523.266    503.85585    351.63459   -93.094489    37426.586 
  524000    299.62865   -1542.3348     500.8533     310.7265     344.8478    37426.586 
  524100    293.54172   -1519.5119    499.65286    304.87906    155.56742    37426.586 
  524200     308.4085   -1516.2301    503.60663    379.20754    429.91639    37426.586 
  524300    287.19289   -1511.4539    518.20241    302.83463   -329.56708    37426.586 
  524400    290.84071   -1522.2819    525.16969    315.43629    94.986279    37426.586 
  524500     311.2763   -1546.0154    516.71876    375.47661    663.88209    37426.586 
  524600    307.28332   -1538.6103    508.75642     356.8993    598.03829    37426.586 
  524700    298.78942   -1546.1544    495.51711    297.78336   -141.87585    37426.586 
  524800    296.08106   -1544.0141    493.50937    285.69327   -316.17918    37426.586 
  524900    305.88178   -1555.9275    515.00409    339.50466    427.09581    37426.586 
  525000    307.29358   -1557.3602    506.15665    335.59587    432.24246    37426.586 
  525100    298.23094   -1547.3902    492.92799    291.43803     -471.076    37426.586 
  525200    308.15777   -1554.1112    508.21272    344.80103   -1141.8459    37426.586 
  525300    296.06748   -1504.8218    490.49244    321.80728   -733.25564    37426.586 
  525400     300.9361   -1463.8014     544.7967    439.10379   -209.47759    37426.586 
  525500    302.47631   -1525.0641    482.27156    322.26684   -35.393403    37426.586 
  525600    295.54553   -1535.4166    523.39757    321.76208   -28.175267    37426.586 
  525700    304.49612   -1479.4699    509.19376    403.89858    657.06388    37426.586 
  525800    298.25008   -1582.4984    514.42977    277.91797    446.60064    37426.586 
  525900    297.20944   -1579.5357    494.02296    255.77758    63.348526    37426.586 
  526000    291.58239   -1571.1968    504.71935    249.41821     193.1953    37426.586 
  526100    292.23692   -1568.4714    497.07274    247.45092   -474.73782    37426.586 
  526200    299.96864   -1546.5162    496.55324    303.77945    391.11475    37426.586 
  526300    296.18113   -1525.8425    502.42758    313.23469   -70.944252    37426.586 
  526400    315.41503   -1551.4924    509.79417    381.75294    170.15522    37426.586 
  526500    304.43597   -1556.3107    493.31774    310.91029    193.63186    37426.586 
  526600     303.4177   -1503.3185    515.06659    381.05589    -246.6522    37426.586 
  526700    295.22248   -1523.7754    522.08731    330.63512    173.73948    37426.586 
  526800    312.34605    -1539.729    527.13397    397.00593    568.79302    37426.586 
  526900    298.62116   -1529.6951    492.43176    310.39799     643.0888    37426.586 
  527000    299.30322   -1526.6396    509.03053    333.13036    459.72205    37426.586 
  527100    301.06893   -1540.4572    536.78762    355.03835     143.7948    37426.586 
  527200    309.13104   -1551.0338    492.61243    336.67046   -79.865731    37426.586 
  527300    298.57137   -1541.8407     505.2728    310.86865    -567.9757    37426.586 
  527400    299.71858   -1568.0493    521.05847    305.62303   -270.16326    37426.586 
  527500    290.33364   -1527.4134    510.08516    292.93188    -417.1994    37426.586 
  527600    298.65273   -1538.5386    525.57753    334.84267     -733.364    37426.586 
  527700    298.01393   -1492.4173    507.41787    359.92151   -236.54779    37426.586 
  527800    291.54383   -1508.1372    522.66724    330.25168    122.73036    37426.586 
  527900     297.2433   -1531.2351    523.41251    333.62054    499.75765    37426.586 
  528000    295.14209   -1513.2273    559.81094    378.54409    635.10523    37426.586 
  528100    302.73041   -1494.3518    515.32029    387.17459    126.14586    37426.586 
  528200    301.49496   -1526.6662    506.89507    340.85946    105.93265    37426.586 
  528300    301.42988   -1526.3325    536.48181    370.48626   -84.435142    37426.586 
  528400    301.61328   -1474.8517    523.54286    409.85572   -103.82831    37426.586 
  528500    306.66391   -1518.8868    524.42615    389.49718   -107.54023    37426.586 
  528600    296.83798   -1538.5449    493.57627    294.64524     277.9381    37426.586 
  528700     292.2704   -1560.1161    500.94213    259.82669   -724.45698    37426.586 
  528800    306.34594   -1507.0554    522.17688    397.64427   -167.12931    37426.586 
  528900    305.66202   -1550.8717    498.30686    326.87146   -351.64193    37426.586 
  529000    297.47107    -1552.718    512.96499      302.718   -26.648552    37426.586 
  529100    302.30989   -1571.9003    502.41269    294.82079    282.65109    37426.586 
  529200    304.44351   -1546.0674    537.77092    365.64072   -328.40658    37426.586 
  529300    302.87465   -1545.7425    500.37269    321.48726    104.22123    37426.586 
  529400    294.75565   -1561.2439    516.75911    285.73169    225.91833    37426.586 
  529500    306.66507   -1547.7692    507.16078    343.35462    139.28778    37426.586 
  529600    300.76966   -1536.0426    514.31051    335.62531     205.7163    37426.586 
  529700    299.48907   -1551.8791    521.01111    320.71015    390.76723    37426.586 
  529800    301.31284   -1556.2439    550.22937    353.79415    89.506535    37426.586 
  529900     300.9865   -1573.2104    503.40079    288.52635    278.93763    37426.586 
  530000    299.48475   -1604.3169    505.79473    253.03645    121.91406    37426.586 
  530100    299.37552   -1538.4281    507.90712    320.54465    211.70405    37426.586 
  530200    300.17256   -1553.6894    502.53916    303.51249    727.07336    37426.586 
  530300     295.2499   -1554.9345    525.50744    303.01991    718.41122    37426.586 
  530400    298.92641    -1562.775    508.84109    295.10495    161.84337    37426.586 
  530500    308.09449   -1558.0049    480.59012    312.99912    427.62293    37426.586 
  530600    292.82597   -1573.3399    531.48006    279.64811    284.63664    37426.586 
  530700    312.59894   -1560.4385     525.7699     376.0737     638.1896    37426.586 
  530800    297.84582    -1548.276    510.98406     306.8703     172.3583    37426.586 
  530900    296.85767   -1534.7015    548.12041    353.12166   -493.76755    37426.586 
  531000    302.11303   -1514.3752    514.37366    363.41839    119.91794    37426.586 
  531100    302.25447   -1529.9226    499.27571    333.41135   -360.12237    37426.586 
  531200    298.20683   -1506.1796     523.8873    363.49914   -238.04196    37426.586 
  531300    302.93395   -1515.4836    521.63327    373.27432   -119.24081    37426.586 
  531400     307.4274   -1553.0159    513.43172    347.81917   -331.65021    37426.586 
  531500     303.1909    -1560.389    523.07773    330.97299   -77.942635    37426.586 
  531600    301.98967    -1527.725    545.37399    380.51214   -38.694694    37426.586 
  531700    301.79198   -1543.2404     524.6672    343.39782    284.52452    37426.586 
  531800    298.06956   -1575.1964    509.82671    279.80228    432.85965    37426.586 
  531900    304.96156   -1566.6678    533.45471     343.0621    470.50978    37426.586 
  532000    294.36519   -1533.5846    544.50051    339.37024    250.12393    37426.586 
  532100    285.38634   -1550.9541    523.00837    259.98756   -186.66588    37426.586 
  532200    308.37234   -1552.5246    512.86124    352.00451   -121.34099    37426.586 
  532300    304.11478    -1565.333    495.01871    302.13947   -286.77515    37426.586 
  532400    306.90267   -1534.2748    477.83735    328.59788   -117.32202    37426.586 
  532500    296.24145   -1523.1131     533.9366    347.74528    173.91334    37426.586 
  532600    295.26565   -1563.1614    508.53066    277.88736   -378.05086    37426.586 
  532700    296.62621    -1507.229    512.82816    344.25737    124.82825    37426.586 
  532800    295.71204   -1517.8663    535.13916    351.80545    241.56969    37426.586 
  532900    291.48336   -1487.9995    520.63557    348.08486    218.52859    37426.586 
  533000    296.96932   -1496.2794    535.82191    379.74919    259.87585    37426.586 
  533100    294.72115   -1504.6379    520.95224    346.37513   -273.11654    37426.586 
  533200    312.16774   -1491.4687    515.73946    433.06699    -163.6335    37426.586 
  533300    308.29738   -1518.7745    518.98023    391.53528   -616.59644    37426.586 
  533400    296.19443   -1536.4603    503.38451    303.63383   -460.55547    37426.586 
  533500    292.45775   -1532.9028    522.67106    309.61442   -886.63836    37426.586 
  533600     307.9562   -1494.6223    507.04381    402.21135   -788.48563    37426.586 
  533700    304.68611   -1509.0585    504.14306    370.11663   -381.94605    37426.586 
  533800    300.35437   -1539.6872    505.96175    321.75774    87.870775    37426.586 
  533900    307.62185   -1566.8715    521.96824    343.37769   -167.71727    37426.586 
  534000    309.42476   -1515.7846    487.75067    368.38338   -356.55629    37426.586 
  534100    312.40054   -1525.9036    489.30416    373.24749   -581.29185    37426.586 
  534200    298.01643   -1546.9209    536.54354    334.55481   -517.92216    37426.586 
  534300    297.64308   -1544.9924    512.67342    310.92825   -40.007276    37426.586 
  534400      292.974   -1534.8695    508.37363    295.68012    563.91345    37426.586 
  534500     303.8269   -1509.1695    550.63158    412.61657    633.73736    37426.586 
  534600    297.13577   -1530.5142    506.77416    317.21779    584.59522    37426.586 
  534700    300.20803   -1509.0516    505.64033    351.41149    237.07347    37426.586 
  534800    314.07384   -1513.0047    526.50576    430.89949    397.08976    37426.586 
  534900    292.98936   -1553.0292    489.18122    258.39729   -246.51593    37426.586 
  535000    294.51015   -1520.1742    499.71025    308.64454   -219.85833    37426.586 
  535100    297.90783   -1504.2026    503.54933    343.78884   -180.02678    37426.586 
  535200    291.96102   -1514.6568    512.31622     315.2639   -249.16647    37426.586 
  535300    293.39748   -1489.7149    511.54739    345.91962    463.82189    37426.586 
  535400    305.75961   -1502.6016    489.68391    366.95899    120.66103    37426.586 
  535500    297.92804   -1530.0257    501.35084    315.85838   -473.84312    37426.586 
  535600    306.61869   -1520.5301    485.51504    348.73861   -404.50885    37426.586 
  535700    314.86837   -1498.9309    514.50273    436.55594   -511.68443    37426.586 
  535800    296.14928   -1511.1945    490.31274    315.62411    83.805125    37426.586 
  535900    303.12767   -1528.9975    496.32319    335.32463   -58.148565    37426.586 
  536000    301.27578    -1515.227    500.07106    344.48548   -282.06777    37426.586 
  536100     300.4482   -1520.0593    512.99491     348.8422    128.64043    37426.586 
  536200     302.6895   -1529.4147    513.70775    350.31456    75.863347    37426.586 
  536300    310.30074   -1521.7617    513.59205    392.20095    357.56652    37426.586 
  536400    295.66378   -1523.2122    517.17887    328.28152    107.61382    37426.586 
  536500    295.81708    -1521.165    487.88644    301.72806    244.58755    37426.586 
  536600    307.35255   -1532.5823    504.12701     358.6103     248.7205    37426.586 
  536700    309.47384   -1527.4739    523.40281    392.56779    389.28484    37426.586 
  536800    309.22963   -1513.2948     523.1665    405.40841   -359.85697    37426.586 
  536900    302.14188   -1521.5081    505.20989    347.25189   -252.03281    37426.586 
  537000    306.53746   -1501.1832    513.65845    395.86243    35.779316    37426.586 
  537100    302.04788   -1487.0597    519.79376    395.85997    39.866512    37426.586 
  537200    287.34063   -1519.4887     509.3724    286.63655    206.38316    37426.586 
  537300    298.45073   -1458.5062    526.44005    414.82602   -274.94524    37426.586 
  537400     307.1135   -1486.3517    498.57437    398.20945    85.526058    37426.586 
  537500     298.8725   -1516.1969    502.48762    335.08632     -184.139    37426.586 
  537600    305.17556   -1503.8143    502.03572    375.46233    -171.6059    37426.586 
  537700     292.1382   -1538.8742    484.52207    264.05186   -86.766061    37426.586 
  537800    305.00266   -1520.4188     541.6907    397.73256    141.65451    37426.586 
  537900    302.78342    -1533.934    462.90937    295.42067   -287.21818    37426.586 
  538000    302.32277   -1526.4023    529.00816    366.97236   -311.70355    37426.586 
  538100    297.41528    -1514.428    501.36621    329.15743   -111.65609    37426.586 
  538200    301.56332   -1534.5022    515.28156    341.71849   -621.58969    37426.586 
  538300    295.03515   -1516.6298    487.83071    302.67873   -553.70695    37426.586 
  538400    300.63073   -1524.7368    518.77902    350.77262    -453.8039    37426.586 
  538500    303.35233   -1527.9263    472.58267    313.66915   -544.43262    37426.586 
  538600    295.42275   -1533.5611    484.65735    284.32323   -787.66343    37426.586 
  538700     308.8002   -1536.1092    485.77357    343.26313   -573.79693    37426.586 
  538800    297.80577   -1527.1891    529.79263    346.58495   -177.44864    37426.586 
  538900    299.59043    -1561.413    505.90363    296.52615    179.30543    37426.586 
  539000    301.82265   -1556.6649    493.01969    298.46419    392.98824    37426.586 
  539100    304.72157   -1547.0714    510.77407    338.89479    420.92163    37426.586 
  539200    294.03668   -1532.5871    494.53169    288.91637    520.38558    37426.586 
  539300    303.33952   -1543.0764    508.15693    334.03552    407.87653    37426.586 
  539400    300.38723   -1504.3091    515.49053    366.81288    464.44202    37426.586 
  539500    295.82506   -1513.8509     520.0889    341.28069    112.60329    37426.586 
  539600    299.31837   -1495.8774    494.54872    349.47907    114.14181    37426.586 
  539700    305.08288   -1478.1352    522.55621    421.24372    290.00644    37426.586 
  539800    290.04309   -1462.0984    496.85621    343.70674   -269.20463    37426.586 
  539900    304.72715   -1512.0904     499.5583    362.68522    200.72541    37426.586 
  540000    292.34137   -1476.2202    499.98813    343.08884   -111.56467    37426.586 
  540100    308.14782   -1468.4032    530.83519    453.08663    131.94047    37426.586 
  540200    295.13146   -1442.4088    508.05014    397.55378    577.05358    37426.586 
  540300    300.02032   -1459.7014    509.41376    403.68799    544.15077    37426.586 
  540400    303.31901    -1469.543     492.2279    391.54731    693.79151    37426.586 
  540500    301.27577   -1461.0051    509.77944    408.41578    370.02214    37426.586 
  540600    293.10091   -1459.5752    493.00098    356.17445   -332.14435    37426.586 
  540700     303.8196    -1489.971    502.51704    383.66758   -274.14435    37426.586 
  540800    285.14993   -1473.1316    512.44144    326.17616   -735.84768    37426.586 
  540900    309.92934   -1440.8277     484.1347    442.00153   -370.15332    37426.586 
  541000    300.58336    -1468.657    515.75968    403.61924   -796.25323    37426.586 
  541100    292.69193   -1478.0385    511.24642     354.1109    -269.3981    37426.586 
  541200    291.79994   -1505.5478    523.03841    334.36813    81.708624    37426.586 
  541300    292.49561   -1519.5535     484.1074    284.57091   -283.59395    37426.586 
  541400    299.09653   -1484.6457    516.70468    381.86559   -127.47834    37426.586 
  541500    296.07414    -1483.396    496.46439    349.23514    -118.0033    37426.586 
  541600      309.667   -1557.2447    488.09653    328.36243   -301.29075    37426.586 
  541700    293.50651   -1512.6422    519.27695    331.21388   -370.38147    37426.586 
  541800    305.93109   -1495.1183    493.54828    379.08065    215.03249    37426.586 
  541900    296.41422   -1512.6137    493.42951    318.51729   -448.20204    37426.586 
  542000     308.1507   -1542.0503    512.89916    361.51644    38.842124    37426.586 
  542100    296.75233   -1512.8601    499.39758    325.76487    414.06887    37426.586 
  542200    296.01356   -1543.4756     523.1781    315.59584    599.84326    37426.586 
  542300     301.4389   -1531.2392    515.92646    345.06483    457.33447    37426.586 
  542400    307.09588   -1511.4027     497.3223    371.82689    328.76601    37426.586 
  542500    301.48676     -1460.69    518.93387    418.83753    147.73411    37426.586 
  542600    295.41613   -1454.5681    513.23408    391.86309   -454.81499    37426.586 
  542700    300.73132   -1525.3234    517.79202    349.65292    59.406931    37426.586 
  542800    287.18276   -1512.0592    543.97213    327.95333    251.06442    37426.586 
  542900    295.06958    -1497.175    490.92275    325.38097    76.247005    37426.586 
  543000    307.19922   -1503.3993    506.36285    389.33722    546.37855    37426.586 
  543100    298.77515   -1515.9748    515.60893    347.99037    271.56548    37426.586 
  543200     296.5417   -1528.7996     488.6988    298.17596    577.25403    37426.586 
  543300    304.72441   -1546.8969    540.23258    368.54058    319.68373    37426.586 
  543400    294.62491   -1537.3364    480.55558    272.84558    232.30109    37426.586 
  543500    309.08371   -1539.0443    519.38999    375.22396   -78.431183    37426.586 
  543600    300.76591   -1515.1739    506.43734    348.60385   -33.290111    37426.586 
  543700    302.67999   -1509.7973    491.11233    347.29363   -270.66562    37426.586 
  543800    298.58157   -1544.2891    521.03936    324.23287   -910.04928    37426.586 
  543900    294.82808   -1555.1387    467.25742    242.66207   -381.80277    37426.586 
  544000    296.47371    -1528.312    499.79888     309.4568    11.265771    37426.586 
  544100    307.16724   -1499.6485    502.49465     389.0754   -404.56915    37426.586 
  544200     295.0423   -1522.4626    517.95564    327.00315   -438.81626    37426.586 
  544300    296.68384   -1496.5089    490.93634    333.34565   -325.80078    37426.586 
  544400    297.34495   -1482.3009    524.95731    384.55825   -493.83949    37426.586 
  544500    308.52747     -1513.14    511.97492    391.20292   -757.21998    37426.586 
  544600    303.99939   -1492.9361    501.67999    380.67683   -358.59505    37426.586 
  544700    301.33181   -1484.1049    500.92259    376.71197   -298.36278    37426.586 
  544800    310.76448   -1521.1281    522.61448    403.94979   -273.50131    37426.586 
  544900    291.49904    -1492.539    524.13065    347.11122   -323.67025    37426.586 
  545000    293.62153   -1507.8025     504.4881    321.78382   -178.70886    37426.586 
  545100    304.27655   -1474.4045    524.69926    423.47857   -279.98845    37426.586 
  545200    304.29764    -1504.053    487.71333    356.93927   -612.24025    37426.586 
  545300    300.80803   -1510.7433    502.93769    349.72497   -377.18065    37426.586 
  545400    292.71208   -1523.7964     522.4459    319.64343   -434.37743    37426.586 
  545500    299.43814    -1519.122    490.71192    322.93821   -281.08828    37426.586 
  545600    307.86685   -1521.2944    515.66242    383.75461    454.26088    37426.586 
  545700    299.79874   -1526.1833    461.26049    288.05283    98.820929    37426.586 
  545800    296.72185   -1528.3472     497.4326    308.17516   -102.44151    37426.586 
  545900    292.78416   -1513.0823    504.06497    312.30185    89.550384    37426.586 
  546000    301.79762   -1449.6979    504.90368    417.20226    685.18324    37426.586 
  546100    293.02709   -1475.6724    503.19728    349.94044    212.44637    37426.586 
  546200    295.52111   -1497.2146    500.24269    336.69908    529.38783    37426.586 
  546300    301.73385    -1490.194    496.93306    368.44775    183.14928    37426.586 
  546400    295.51612    -1470.658    496.88601    359.87643    627.42304    37426.586 
  546500    288.69926   -1498.6449    535.59397    339.83334    232.80838    37426.586 
  546600    300.87927   -1522.1392    494.88927    330.60208   -181.08061    37426.586 
  546700    303.19682   -1481.3342     499.9556    386.93245    201.30418    37426.586 
  546800    309.44518   -1513.6429    519.81255    402.67915   -489.88275    37426.586 
  546900    294.06038   -1483.1464    514.24022    358.17256   -14.342379    37426.586 
  547000    297.35581   -1485.7303    519.17441    375.39492   -914.30535    37426.586 
  547100    298.85028   -1495.3555    515.06586    368.40561   -170.40174    37426.586 
  547200    291.48778    -1479.337    513.99264    350.12439   -43.495848    37426.586 
  547300    284.53869   -1428.9451    504.92534    360.08809    208.08294    37426.586 
  547400    304.78712   -1471.7456    508.60793    412.35027     58.83519    37426.586 
  547500    302.14298   -1479.4761       526.71    410.78899     67.88875    37426.586 
  547600    282.73657   -1464.8345    524.13464    335.27511   -37.180637    37426.586 
  547700    305.12691   -1466.1747    516.23302    427.07975   -529.85122    37426.586 
  547800    287.50742   -1450.7147    499.96159    346.75248    24.203023    37426.586 
  547900    295.36001   -1463.9444    521.06014    390.05963    200.06585    37426.586 
  548000    295.90162   -1505.7105    500.23817    329.91584   -60.580758    37426.586 
  548100     306.0614   -1475.6472     498.0439    403.63537    456.20928    37426.586 
  548200    304.09082   -1455.6307    518.68843    435.40332    376.60951    37426.586 
  548300    297.23745   -1504.7941    496.04393    332.66657   -105.12741    37426.586 
  548400    303.05856   -1501.1096    503.74489    370.32233    296.38633    37426.586 
  548500    299.76014   -1532.9865    503.05406    322.86901     270.1261    37426.586 
  548600    294.35052   -1450.7528    541.28873    418.92404   -241.85123    37426.586 
  548700    295.48916   -1498.7436    482.34402    317.12712   -21.949714    37426.586 
  548800    306.22673   -1511.8282    499.83383     369.9905   -24.364356    37426.586 
  548900    304.06761   -1514.1187    487.14826    345.27039   -464.78541    37426.586 
  549000    306.45636   -1503.4376    483.93688    363.52043   -73.542007    37426.586 
  549100    308.28243   -1524.8616    505.58118    371.98165   -216.71633    37426.586 
  549200    298.27676   -1519.2306    473.56741    300.44381   -7.1963976    37426.586 
  549300    295.13708   -1480.4273    518.75105    370.26159   -57.449262    37426.586 
  549400    298.41828   -1506.0066    515.52694    356.26608    327.20858    37426.586 
  549500    293.79491   -1487.4834    484.29818    322.69545     301.7039    37426.586 
  549600    308.71259    -1491.972    535.28245    436.51382    296.41769    37426.586 
  549700    300.96445   -1565.2105      500.406    293.43196    231.20657    37426.586 
  549800    302.78816   -1566.4711    484.47399    284.46958    26.515784    37426.586 
  549900    296.39828   -1519.3465    511.89727    330.18028   -59.988589    37426.586 
  550000    289.96617   -1541.2951    482.68193    249.98864    42.945946    37426.586 
  550100     307.4912   -1517.2309    514.72592    385.18629     -120.008    37426.586 
  550200    309.92096   -1486.5451    504.57335     416.6849    82.416305    37426.586 
  550300    298.83938   -1472.2716    520.12226    396.49672   -191.84882    37426.586 
  550400    301.11422   -1459.2318    498.34945    398.03001   -74.116133    37426.586 
  550500    309.91194   -1521.9477    488.92295    365.59119   -447.18647    37426.586 
  550600    298.85334   -1498.8023    485.05061    334.95739   -476.94672    37426.586 
  550700    299.21716   -1518.8621    503.99357    335.48245   -238.66902    37426.586 
  550800    294.55603   -1549.9705    498.56528    277.91035     276.2337    37426.586 
  550900    302.42205   -1462.8557    540.44206    442.40092    144.68139    37426.586 
  551000    308.45005   -1493.0592    477.23957    376.19891    -32.57718    37426.586 
  551100    294.57558   -1467.7711     514.8256    376.45826   -486.32382    37426.586 
  551200    299.21345    -1488.466    500.63584    362.50411   -630.35891    37426.586 
  551300    290.18835    -1479.402    501.34539    331.54789   -381.59937    37426.586 
  551400    300.49486   -1444.5135    488.08902    399.69271    47.791058    37426.586 
  551500    298.02793   -1472.7907    509.18552    381.37888    405.79933    37426.586 
  551600    291.08168   -1546.3246    492.54096    259.85241   -323.57277    37426.586 
  551700    297.86587   -1517.9218    509.60889    335.93976   -523.81545    37426.586 
  551800    302.92866   -1527.7864    502.82286     342.1373   -14.497536    37426.586 
  551900    301.44685   -1517.1535    497.13599    340.39594    237.22356    37426.586 
  552000    291.90597   -1485.7438    517.83632    349.44852    28.430377    37426.586 
  552100    298.00722    -1514.914    507.44609    337.42266    219.77247    37426.586 
  552200    296.61141   -1510.9586     487.3901    315.02291    12.305746    37426.586 
  552300    288.77644   -1568.9451    500.26437    234.55188    660.68277    37426.586 
  552400    299.99702   -1577.7871    495.32802    271.41139    624.51828    37426.586 
  552500    306.63084   -1572.2444    490.02497    301.58909    308.43031    37426.586 
  552600    306.90073   -1578.3094    484.75821    291.47531    284.69652    37426.586 
  552700    308.36673   -1533.5078    503.51223    361.64699   -162.40659    37426.586 
  552800    298.23516   -1500.7383    474.16817    319.34914   -445.60383    37426.586 
  552900    287.70521   -1529.5513    497.42826    266.27514   -637.06977    37426.586 
  553000     301.9675   -1454.1116    513.36335    422.01492    -339.2502    37426.586 
  553100    301.82654   -1525.3048    493.91792    330.74016   -150.60807    37426.586 
  553200    312.44517   -1545.3309    497.78884    362.50626   -128.41927    37426.586 
  553300    289.49456   -1476.6838    497.65329    327.44297   -537.29897    37426.586 
  553400     288.5745   -1508.2809    480.37364      274.414    391.00981    37426.586 
  553500    296.87554   -1523.8237    493.46195    309.42167    212.30068    37426.586 
  553600    304.84799    -1508.908    499.38431    366.23893    331.10541    37426.586 
  553700    313.31637   -1516.3979    481.90985    379.49189    808.24121    37426.586 
  553800    300.66901   -1523.2317    501.43656    335.10798    546.21908    37426.586 
  553900    290.75954   -1507.7896    478.89936    283.29196   -191.48156    37426.586 
  554000    305.04278   -1478.8717     524.9012    422.67123   -5.7139139    37426.586 
  554100    302.05702   -1446.2604    519.71029      436.617    120.20776    37426.586 
  554200    300.79418   -1490.6261    518.20526    385.04721    199.63516    37426.586 
  554300    295.51689   -1478.0162    522.75766    378.39338    232.36148    37426.586 
  554400    293.47123   -1453.1345     506.2816    377.56699   -530.61439    37426.586 
  554500    291.59759   -1429.5424    509.58274    396.00467    112.06143    37426.586 
  554600    290.10255   -1478.6412    513.88547    344.46151   -295.00992    37426.586 
  554700    305.29454   -1475.2624    506.79306    409.30853    54.040247    37426.586 
  554800     299.6118   -1471.1863    507.66057    388.60631   -11.732387    37426.586 
  554900    294.79411   -1435.1783    531.21432    426.42604   -197.12447    37426.586 
  555000    301.60065   -1468.6099    496.09773    388.59536    581.31863    37426.586 
  555100    293.97639    -1442.831    520.23683    404.10555    20.748577    37426.586 
  555200    299.82103   -1491.1059    483.44635    345.41674   -422.92961    37426.586 
  555300    305.30172   -1496.1457     499.2333    380.89792   -487.43715    37426.586 
  555400    292.35495   -1501.5751    480.71888    298.52598   -980.01995    37426.586 
  555500    306.20631   -1521.5374    487.63704    347.99234    -256.2015    37426.586 
  555600     297.0065   -1509.5546    496.29754    327.11736   -227.24552    37426.586 
  555700     292.5177   -1522.7622    504.89097    302.24547   -505.66939    37426.586 
  555800    283.59604   -1459.6167    500.73831    320.97539    182.74757    37426.586 
  555900    293.42489   -1476.4977    500.86401    348.57705   -48.036402    37426.586 
  556000    299.60559   -1463.3924    503.47151    392.18307     156.3458    37426.586 
  556100    303.42418   -1437.5636    517.56494    449.33845    357.42851    37426.586 
  556200     295.1873   -1485.2806    508.07846    354.96229     568.4536    37426.586 
  556300    299.14706    -1480.522    501.23306    370.74573    224.10672    37426.586 
  556400    306.92491   -1489.1603    474.11052    370.08585     440.1041    37426.586 
  556500    298.45731   -1508.4661    518.26115    356.71693   -205.85499    37426.586 
  556600    294.97585    -1480.339    486.59341    337.46461   -323.51488    37426.586 
  556700     305.6632    -1424.823    506.73738      461.356   -666.27695    37426.586 
  556800    299.81539    -1447.705    492.22286    397.56864   -376.51559    37426.586 
  556900    297.00494   -1461.6763    516.15399    394.84508   -768.40995    37426.586 
  557000    311.32378   -1460.0888    498.92566    443.82437   -392.68783    37426.586 
  557100    291.32964   -1473.2504    483.50487    325.00957   -402.52687    37426.586 
  557200    298.80549   -1437.7734    503.99929    414.71907   -476.87725    37426.586 
  557300    303.88283    -1465.289    500.16717    406.28509    28.503386    37426.586 
  557400    293.13982   -1489.7097    487.10488     320.3195   -86.485396    37426.586 
  557500    298.59594   -1479.1964    475.59025    343.94135   -542.41224    37426.586 
  557600    306.09779   -1456.3893    491.31707    416.33069   -403.51751    37426.586 
  557700    303.65422   -1465.0578    493.77899    399.09638    166.19632    37426.586 
  557800    304.43555   -1510.9421    493.20345    356.16271   -199.55612    37426.586 
  557900    316.72525   -1490.7413    473.26722    411.89001    648.31156    37426.586 
  558000    293.44418   -1455.0104    510.66294    379.95038    267.85904    37426.586 
  558100    292.49665   -1439.5484    506.27396    386.74722   -41.724443    37426.586 
  558200    290.16663   -1484.5099    482.78814    307.78463   -25.749954    37426.586 
  558300    301.84052   -1460.8128    506.01623    407.39355   -24.102414    37426.586 
  558400    300.86594   -1472.5968    518.31531    403.51042    16.744414    37426.586 
  558500    297.63365   -1485.7897    487.44619    344.86115   -458.37159    37426.586 
  558600    294.90685   -1488.4185    532.22967    374.70998    -297.0781    37426.586 
  558700    303.32673    -1502.153    484.34259     351.0869   -406.76589    37426.586 
  558800    297.50589   -1497.2048     497.7462    343.16954   -415.24641    37426.586 
  558900     294.1265   -1501.3983    492.29711    318.27597   -80.091229    37426.586 
  559000     301.6511   -1507.8803    503.01504    356.46997   -273.83814    37426.586 
  559100    300.14701   -1521.4134    491.25725     324.3912    348.04811    37426.586 
  559200    286.56265   -1507.2049      477.166    263.20295    305.65416    37426.586 
  559300    296.91999   -1502.8933    477.48043    314.57117   -248.63801    37426.586 
  559400    290.19079   -1454.3442     532.5796    387.85091    150.36036    37426.586 
  559500    296.89108   -1447.7207    484.12162    376.25445    362.60462    37426.586 
  559600    299.04776   -1453.6835    477.36532    373.26836    116.22735    37426.586 
  559700    307.85129   -1460.7641    504.31204    432.86427    207.09273    37426.586 
  559800     306.1227   -1463.5156    488.48656    406.48634     657.4336    37426.586 
  559900    292.05062   -1499.2771    478.37421    297.10593   -79.509746    37426.586 
  560000    301.25702   -1530.7454    450.82964    279.64106   -425.66091    37426.586 
  560100    289.17329   -1521.2785    478.36563    262.11066   -558.42371    37426.586 
  560200    301.48841   -1570.9108     479.9084    269.59863   -340.93073    37426.586 
  560300    301.33845   -1524.5705    500.61748    335.97132   -9.7791941    37426.586 
  560400    303.25184   -1496.5166    475.16621    347.20897   -279.39308    37426.586 
  560500    304.72935   -1508.5452    463.68349    330.36551    -645.7467    37426.586 
  560600    297.07824   -1473.3538    510.25931    377.60369   -764.13042    37426.586 
  560700    290.51074   -1473.1257    485.79747    323.73119   -909.02632    37426.586 
  560800    285.29556   -1510.1355    494.99267    272.38074   -1136.9773    37426.586 
  560900    311.23426   -1505.4863    492.40617    391.50338   -325.71415    37426.586 
  561000    297.91931    -1493.401    508.71247    359.80536   -62.154712    37426.586 
  561100    296.50008   -1490.2751    499.41526    347.22911    -34.34629    37426.586 
  561200    290.56376   -1535.9187    490.80724    266.18722    439.82306    37426.586 
  561300    307.95146   -1503.8755    491.57221    377.46516   -402.62228    37426.586 
  561400    301.44725   -1479.7774    472.49216    353.13005    -420.9457    37426.586 
  561500    296.69303   -1521.3364    458.35927    275.98263    91.454141    37426.586 
  561600    309.54912   -1492.8574    491.10014    395.22138    116.37901    37426.586 
  561700    289.32924   -1457.7258    498.93338    346.93498    -249.3667    37426.586 
  561800    296.18044   -1469.3468    488.96701    356.26665    86.607442    37426.586 
  561900    296.02314   -1468.3052    493.48807    361.11938    584.05803    37426.586 
  562000     304.2029   -1441.0101    498.90649    430.74781    166.91522    37426.586 
  562100       296.12   -1483.5587    502.66337     355.4784    660.45863    37426.586 
  562200    302.17892   -1478.3484    489.55897    374.92787    108.59252    37426.586 
  562300    307.26292   -1493.0085    493.94342    387.59597    180.93803    37426.586 
  562400    303.34362   -1455.4533    507.57547     421.0957   -364.76987    37426.586 
  562500    297.94845   -1458.7718    517.87129    403.72487   -428.54836    37426.586 
  562600    295.83296   -1496.5665    491.27835    329.79016   -174.07678    37426.586 
  562700    303.43629   -1506.7109    486.43437    349.11516   -81.038333    37426.586 
  562800    299.13418   -1475.9651    509.73567    383.74707   -218.41674    37426.586 
  562900    306.64209   -1482.0982    502.37735    404.13844   -152.98867    37426.586 
  563000    291.10855   -1453.8622    511.51323    371.40835    87.867378    37426.586 
  563100    292.33645   -1470.7471    483.79442    332.34607    22.538181    37426.586 
  563200    297.12589   -1490.8615    497.43796    347.48964   -375.99047    37426.586 
  563300    300.96614   -1510.8515    467.85565    315.24818   -407.45293    37426.586 
  563400     300.8083   -1512.4133    465.12661    310.24511   -473.56196    37426.586 
  563500    294.74341   -1474.6581    509.30558    364.80869   -839.62037    37426.586 
  563600    307.34928   -1453.3152    502.33434    436.06999   -525.59058    37426.586 
  563700    301.27081   -1462.1598    486.88043    384.33968    47.072542    37426.586 
  563800    298.11464   -1473.3209    486.24639    358.30092    259.09276    37426.586 
  563900    301.51944   -1548.5418    503.30172    315.50104    294.17861    37426.586 
  564000    294.62757   -1518.9083    464.72257    275.45268    611.12126    37426.586 
  564100    296.30242   -1524.5355    466.53074    279.19218    274.26117    37426.586 
  564200    290.51041   -1479.1718    501.22683    333.11298    416.35802    37426.586 
  564300    299.55321   -1508.2089    477.50827    321.16702    116.83663    37426.586 
  564400    305.05983    -1487.933    494.24463    383.03031    384.08978    37426.586 
  564500     303.3574   -1488.3758    522.78866    403.44857    223.29006    37426.586 
  564600    293.57615   -1472.6359    484.87596    337.13351    441.02813    37426.586 
  564700    301.45734   -1490.6361    503.34536    373.17013    790.82707    37426.586 
  564800    297.46706    -1463.401      482.318    361.36989    329.10361    37426.586 
  564900    312.80294   -1481.8172    518.46669    448.31238    498.73316    37426.586 
  565000    301.04026   -1511.8492    516.86439     363.5938    131.10413    37426.586 
  565100    295.23602   -1456.8152    472.21158    347.78075   -294.42301    37426.586 
  565200    291.92101   -1530.1458    487.83659    275.11463    230.60247    37426.586 
  565300    301.63918   -1539.7286    494.55335    316.10625     154.2631    37426.586 
  565400    303.19735   -1513.8182    519.02924    373.52447     116.0086    37426.586 
  565500    296.43446    -1480.027    515.25645    373.02233    362.35805    37426.586 
  565600    307.58722   -1544.7634    471.95705    315.31828    392.09146    37426.586 
  565700    310.33324   -1545.3067    477.65922    332.86976    701.14597    37426.586 
  565800    289.74209    -1491.884    518.75407    334.46061    162.45239    37426.586 
  565900    289.05495    -1445.197    479.80572    339.09825    361.70695    37426.586 
  566000    314.92517   -1502.4284    491.00934    409.82141     127.9351    37426.586 
  566100    294.83753   -1518.3499    515.53904    327.77511   -82.458543    37426.586 
  566200    301.87403   -1519.6534    486.45161     329.1395    435.91452    37426.586 
  566300    296.90762   -1496.0553    487.70486    331.57774   -159.51461    37426.586 
  566400    300.45049   -1540.8072    498.11091     313.2207   -342.78886    37426.586 
  566500     293.8158   -1551.7805    484.14928    258.34368   -386.40398    37426.586 
  566600    299.96344    -1540.744    472.21893    285.19392    184.62991    37426.586 
  566700    293.45596   -1526.3987    493.25764    291.20994   -241.82798    37426.586 
  566800    295.96737   -1525.1267     480.9918       291.55   -490.38973    37426.586 
  566900    294.82411   -1540.3076    491.55977    281.77756   -24.808131    37426.586 
  567000    295.99631   -1523.5868    501.66913    313.89783    561.78951    37426.586 
  567100    297.32658   -1511.1368    496.68899    327.37105     520.7871    37426.586 
  567200    304.04626   -1508.7432     514.7543    378.15562    548.58575    37426.586 
  567300    308.72278   -1522.4547    502.15208    372.94675   -12.227651    37426.586 
  567400    303.31884   -1472.7531    498.55945    394.66798     449.7989    37426.586 
  567500    305.91107   -1485.7929    500.66649    395.43389    252.45391    37426.586 
  567600    308.12698    -1471.482    493.38087    412.45942    206.54585    37426.586 
  567700    292.74706   -1475.5035    519.57602    365.22437    103.37736    37426.586 
  567800    311.97869   -1440.6205    499.38737    466.70995   -148.98556    37426.586 
  567900    299.81239   -1475.9979    489.82922    366.86855   -147.03221    37426.586 
  568000    307.12386   -1461.5206    483.14089    407.65378   -735.63494    37426.586 
  568100    293.87966   -1483.6238    490.51599    333.15535   -487.66239    37426.586 
  568200    293.85621   -1479.7399    505.54714    351.96458   -632.00206    37426.586 
  568300    299.97085   -1532.8957     514.8899    335.74658    49.281595    37426.586 
  568400    293.11108   -1487.0109    497.25434      333.038    -65.29304    37426.586 
  568500    309.88474   -1508.3147    496.91764    387.09622     604.4024    37426.586 
  568600    296.60959    -1532.046    488.71256    295.24973   -115.57466    37426.586 
  568700    296.07368   -1477.9715    472.54318    330.73637   -384.25796    37426.586 
  568800    292.89361   -1470.4525    510.18914    361.54983   -316.80453    37426.586 
  568900    304.03681   -1465.7287    522.70391    429.07702    -751.0976    37426.586 
  569000    308.32571   -1473.7363    514.61286    432.33396   -13.518716    37426.586 
  569100    300.62247   -1448.7568    502.24193    410.17819   -402.75619    37426.586 
  569200    299.78789   -1501.9427    524.62918    375.61312   -293.12697    37426.586 
  569300    287.94988   -1490.9169     485.7573    294.34279   -307.55196    37426.586 
  569400    313.39856   -1522.1534    498.31962    390.51707   -142.93648    37426.586 
  569500    296.20705   -1493.3939     513.3698    356.74248   -906.59517    37426.586 
  569600    309.61441   -1482.6641    501.45808    416.06723   -195.05016    37426.586 
  569700    302.61953   -1433.9683    512.02404    443.76144    351.09653    37426.586 
  569800    308.45657   -1461.0332    518.15313    449.16786    451.51309    37426.586 
  569900    292.02993   -1451.9944     496.8154    362.73639    185.02726    37426.586 
  570000    307.48394   -1467.8919    508.57428    428.34093    722.27278    37426.586 
  570100    313.13483   -1472.3617    502.52868    443.32768    215.29349    37426.586 
  570200    305.94403   -1425.9362    502.22627    456.99904   -345.38764    37426.586 
  570300    305.22512   -1436.8052    493.21174    433.87113   -191.03133    37426.586 
  570400    288.84945   -1431.4577    514.45596    386.56038   -453.01615    37426.586 
  570500    305.66788   -1444.5841    493.68455    428.56317    134.94478    37426.586 
  570600    294.04033   -1478.1323     497.9074    346.76333    199.29895    37426.586 
  570700    292.14415   -1433.6442    512.63615    397.42287   -61.797372    37426.586 
  570800    286.57036   -1468.2585    496.55486    321.57306   -158.91441    37426.586 
  570900    312.05589   -1436.4088    474.60529      446.488   -420.49117    37426.586 
  571000    290.88996   -1457.4194    498.74626    354.09762   -772.78046    37426.586 
  571100    284.27818   -1512.2069    493.29253    264.01782    -765.1696    37426.586 
  571200    292.85279   -1481.8053    480.06202     319.8857   -957.49217    37426.586 
  571300    298.78185   -1474.0164    514.55842    388.92852   -839.52738    37426.586 
  571400    297.65921   -1499.1126    483.28194    327.48942   -358.86477    37426.586 
  571500    294.18383   -1473.7995    486.07198    339.90836   -337.56751    37426.586 
  571600    302.21649   -1512.6752    532.05096    383.26263    224.84287    37426.586 
  571700    305.10213   -1526.9271    489.16844    339.15092    337.43929    37426.586 
  571800     298.3651   -1491.1085    472.14475      327.542   -17.279609    37426.586 
  571900    300.66806   -1538.1056    487.65161    306.44485   -111.15993    37426.586 
  572000    307.41237   -1517.6475    493.55137     363.2394    36.347499    37426.586 
  572100    299.25928   -1511.6309    486.63506    325.54521   -113.91814    37426.586 
  572200    303.46519   -1477.2964    486.35365    378.57938   -186.68512    37426.586 
  572300    284.45938   -1525.5851    489.11982    247.28469   -293.82894    37426.586 
  572400    295.60004     -1496.77    511.45862     348.7158   -120.85969    37426.586 
  572500    303.60915   -1501.5076    478.14493    346.80916    224.66839    37426.586 
  572600    297.12679   -1483.0151    533.62928    391.53145    15.697268    37426.586 
  572700    288.60813   -1504.9561    493.30587    290.82282    153.29333    37426.586 
  572800    305.15873   -1485.3994    474.48937    366.25498    739.93988    37426.586 
  572900    300.39311   -1499.8181    476.69726    332.53716    770.23298    37426.586 
  573000    307.04675   -1494.5679    486.17583    377.29344    76.811198    37426.586 
  573100     304.9308   -1465.5795    503.58688    414.14368   -125.25937    37426.586 
  573200    285.59286   -1468.0619    508.11708    328.92051    -375.4503    37426.586 
  573300    301.49778   -1499.6574    490.07809      351.064    51.429259    37426.586 
  573400    302.77251   -1504.2691    494.51696    356.64397   -269.10101    37426.586 
  573500     301.8306   -1516.9928    478.44853    323.60107   -7.0121835    37426.586 
  573600    291.13979    -1498.156    492.83194    308.57422   -17.145096    37426.586 
  573700    305.07573   -1470.1643    498.92402    405.55019    348.06975    37426.586 
  573800    297.76441   -1470.2334    474.97646    348.53784    53.708814    37426.586 
  573900    304.21311   -1465.9275    522.35442    429.32435    186.36704    37426.586 
  574000    299.99621   -1489.0501    517.22155    382.03829     375.0227    37426.586 
  574100    306.00442   -1496.9277    495.57007    379.62391    711.59665    37426.586 
  574200    304.67348   -1479.9068    481.20834    376.27662    214.36322    37426.586 
  574300     293.2752   -1507.1562    484.38307    300.76216   -553.28708    37426.586 
  574400    306.06215   -1526.8855    485.32709    339.68362   -478.73528    37426.586 
  574500    300.91505   -1530.1619    509.63327    337.48491   -369.55692    37426.586 
  574600    300.06303   -1513.4617    496.50317    337.20984   -312.17264    37426.586 
  574700    302.93254   -1532.9629    483.09847    317.25385   -246.62016    37426.586 
  574800    310.06712   -1535.6427    483.51837    347.19196   -647.16344    37426.586 
  574900    295.40389   -1518.5015    465.88001    280.52043    -632.0196    37426.586 
  575000    294.41788   -1519.8564    483.52531      292.361   -553.21487    37426.586 
  575100    312.59169   -1531.7311    486.39227    365.37071   -427.65365    37426.586 
  575200    303.08506   -1536.9764     470.6621    301.49229   -608.11735    37426.586 
  575300    294.60458   -1532.6662    505.28982    302.15829   -712.25095    37426.586 
  575400     298.5429   -1508.2591    489.43259    328.48162   -602.33492    37426.586 
  575500    306.72208   -1478.3548    500.99668    406.86217    115.22879    37426.586 
  575600    304.30959   -1490.5868    531.56177    414.30783    113.67329    37426.586 
  575700    301.14967   -1501.0202    499.05866    357.11074   -26.979967    37426.586 
  575800    307.24845   -1493.5727    484.20582     377.2289   -73.218824    37426.586 
  575900    296.44469   -1512.8039    490.91871    315.95381   -527.17285    37426.586 
  576000    298.30425   -1502.1581    476.07762    320.15067   -59.489649    37426.586 
  576100    291.41433    -1506.287    494.85812    303.70834   -447.08928    37426.586 
  576200    298.18462   -1477.4974    484.71718    352.91095   -456.73011    37426.586 
  576300    299.05437   -1472.9859    496.61271    373.24312    2.3528972    37426.586 
  576400      298.646   -1498.6349    515.48024    364.61873   -243.19577    37426.586 
  576500    286.15069   -1484.8512    471.03061    277.56219   -162.44591    37426.586 
  576600     309.7629   -1451.0054    529.61539    476.55332   -252.59701    37426.586 
  576700    303.51847   -1488.8563    503.87314    384.77946    -330.5464    37426.586 
  576800    302.90184   -1528.2602    483.54542    322.26495   -256.31889    37426.586 
  576900    299.41727   -1497.4435    508.62725    362.43786   -414.42922    37426.586 
  577000    306.16177   -1523.6684    472.98878    331.01207   -367.17393    37426.586 
  577100      302.764   -1488.2947    491.37007    369.43308   -295.25259    37426.586 
  577200    298.26587   -1472.6681     519.3433    392.73308    17.986047    37426.586 
  577300    292.88055   -1507.0489    509.60059    324.30594    356.58505    37426.586 
  577400    293.79631   -1508.3646    488.70764    306.23002     612.7625    37426.586 
  577500    305.00605   -1533.6533    488.41329    331.23598    347.63652    37426.586 
  577600     307.0553   -1523.8835     489.3285    351.16909    107.19932    37426.586 
  577700    294.23763   -1524.1001    481.54512    285.32364   -8.0433194    37426.586 
  577800     305.5604   -1492.7046    481.29923    367.57233    483.08395    37426.586 
  577900    299.67131   -1503.4067    482.79535    331.78924    393.78599    37426.586 
  578000    309.56249   -1491.9501    526.90183    431.99068    474.61558    37426.586 
  578100     295.2362   -1495.7944    476.50835    313.09911   -68.188491    37426.586 
  578200    296.63872    -1483.394    496.22829    351.54893     219.7744    37426.586 
  578300    305.74108   -1508.2137    480.45915    352.03859    168.72634    37426.586 
  578400    292.72408   -1528.6366    505.16397    297.57552    107.74308    37426.586 
  578500    305.28105   -1505.3649    500.93657    373.28867    223.52201    37426.586 
  578600    297.58515   -1505.5009    516.04455    353.52947    56.175233    37426.586 
  578700    305.30804   -1506.0796     499.7558    371.51505    66.244761    37426.586 
  578800    290.67412   -1514.3001    481.49384    278.99048   -21.057809    37426.586 
  578900    305.15893   -1492.9691    491.76798    375.96473    37.191697    37426.586 
  579000    300.56504   -1468.3222    484.18509    372.29677    356.04917    37426.586 
  579100    308.76669   -1481.6751    487.01676    398.78919    127.75255    37426.586 
  579200    314.08825   -1513.7983    482.14326    385.80838     54.23138    37426.586 
  579300    296.48729   -1500.0059    469.86014    307.88548   -202.58905    37426.586 
  579400    286.45577   -1448.8224    501.48784    345.42501    411.32162    37426.586 
  579500    296.33165   -1464.8065    503.01663      375.539    237.77594    37426.586 
  579600    307.68533   -1483.7149    510.79538    415.64794     160.7481    37426.586 
  579700    298.02931   -1478.4199    484.53938    351.10976   -176.08613    37426.586 
  579800    308.22852   -1468.4782    530.35343      452.894   -364.83239    37426.586 
  579900    300.94726   -1425.7892    509.90191    442.27162   -53.186716    37426.586 
  580000    299.09838   -1420.4543    502.46082    431.82149   -9.2143596    37426.586 
  580100    291.05721   -1462.3592    510.98159    362.14794   -61.236274    37426.586 
  580200    301.33447   -1476.6917    488.12459    371.33924   -333.48991    37426.586 
  580300    307.70383   -1483.7871    481.89601    386.75984   -122.97012    37426.586 
  580400    293.78267   -1437.5984    520.41548    408.64257   -204.95897    37426.586 
  580500    297.11394   -1461.7145    523.47911    402.62394   -214.96129    37426.586 
  580600    292.75755   -1482.4714    473.12425    311.85201   -520.55743    37426.586 
  580700    305.14632   -1476.4907    502.49566    403.11392   -220.02798    37426.586 
  580800    304.32634   -1437.0081     499.7759    436.17622   -400.52038    37426.586 
  580900    290.41776   -1431.9284    500.31163    379.02303   -218.85277    37426.586 
  581000    310.08664   -1477.7052    496.61101    418.31014   -280.49384    37426.586 
  581100    298.02506   -1446.6818    519.36045    417.64972    38.313191    37426.586 
  581200    302.84059   -1448.0323    502.98645    421.65747     286.4573    37426.586 
  581300    290.10552   -1528.0871    498.12838    279.27202    6.4355712    37426.586 
  581400    309.52225   -1494.5262    486.60621    388.93731    41.005568    37426.586 
  581500    299.05462   -1525.7078    474.68534    298.59503    461.23959    37426.586 
  581600    291.50135   -1505.8981    517.37359    327.00546    -160.3929    37426.586 
  581700    310.06917   -1529.4133    506.75246    376.66467    334.17572    37426.586 
  581800     304.8702      -1528.5    482.07768    329.44049    53.709011    37426.586 
  581900    308.70159    -1528.397     481.9922    346.74891    153.62581    37426.586 
  582000    293.50168   -1529.6919    485.68264    280.54812   -419.81527    37426.586 
  582100    296.02827   -1476.1613    511.93982    371.73823   -77.518923    37426.586 
  582200    297.81326   -1449.2382    510.96551    405.74257   -294.07107    37426.586 
  582300    298.65284    -1490.659    491.75946    348.90475   -643.88393    37426.586 
  582400    317.07884   -1459.0185    546.93857    518.87993   -474.48086    37426.586 
  582500    300.78096   -1452.3362    474.75201    379.82421   -170.58912    37426.586 
  582600    298.01738   -1461.7236    513.16279    396.37566    123.89131    37426.586 
  582700    302.82556   -1482.6165    506.26146    390.28046    251.58605    37426.586 
  582800    296.80794   -1504.5616    486.11313    321.02987    264.72718    37426.586 
  582900    315.15404   -1506.8667    475.35178    390.75839    -101.8326    37426.586 
  583000    306.28325   -1481.1223    480.20082    381.31844    -53.95793    37426.586 
  583100    295.67251   -1522.1348     505.1875    317.40686   -162.71751    37426.586 
  583200    305.80462    -1495.492    485.76601     370.3539    45.630978    37426.586 
  583300    292.99878   -1504.6629    485.54489    303.16976   -489.63198    37426.586 
  583400    299.80918   -1525.6418    467.86076    295.24178   -497.14909    37426.586 
  583500    292.30214   -1520.4537    509.08908    307.77924   -598.19139    37426.586 
  583600    302.83551    -1486.817     493.1832    373.04658   -111.99792    37426.586 
  583700    294.66155   -1532.2672    476.28899    273.81356   -329.36641    37426.586 
  583800    303.99548   -1508.0447    493.73898     357.6096   -194.13942    37426.586 
  583900    302.56394   -1543.7498    500.30364    322.00865   -229.95121    37426.586 
  584000    305.09185   -1515.4397    489.56086     350.9843   -121.75215    37426.586 
  584100    292.39162   -1550.3455    466.61386    235.81612    348.12874    37426.586 
  584200    301.62039   -1567.3908    489.51964    283.32551    130.36085    37426.586 
  584300    297.98483   -1511.7172    492.30768    325.38006   -173.72637    37426.586 
  584400    291.50135   -1486.1658    515.33837    344.70254    149.75164    37426.586 
  584500    290.43128   -1483.8362    499.01034    325.87497   -255.74716    37426.586 
  584600    306.60255   -1445.8945    512.92345    450.70986    62.070226    37426.586 
  584700    305.13159   -1479.2671    508.68439    406.45978   -76.442496    37426.586 
  584800    302.95949   -1468.6089    529.99368    428.62472   -288.14303    37426.586 
  584900    296.38348    -1436.562    483.12554    384.12631    -723.6515    37426.586 
  585000    295.73357   -1426.2855    533.21639    441.56064   -441.75254    37426.586 
  585100    306.99107   -1438.3878    497.91705    444.96345   -154.43994    37426.586 
  585200    292.56671   -1479.9276    494.42554    334.83587   -402.05909    37426.586 
  585300      302.603    -1404.343    505.00326    466.29135    148.77668    37426.586 
  585400    298.58814    -1404.196     514.7749    458.09119   -280.65039    37426.586 
  585500    292.88748   -1422.2456    530.09287    429.63281   -253.33592    37426.586 
  585600    306.04112   -1457.5948    498.45424    422.00661   -133.36769    37426.586 
  585700    307.98289   -1474.3625    512.44787    427.99564    154.38736    37426.586 
  585800    303.37073   -1461.2582    525.06518    432.90278   -90.952817    37426.586 
  585900    307.40243   -1469.4219    507.60105    425.46979    271.19877    37426.586 
  586000    301.35524    -1498.046    515.73036    377.68446    555.45104    37426.586 
  586100    296.06253   -1496.8157    527.88061    367.17921    674.01444    37426.586 
  586200     302.7503    -1500.031    490.19575    356.46063    129.00915    37426.586 
  586300    307.18766    -1480.786    520.79149    426.32694    293.84747    37426.586 
  586400    292.91572   -1484.2993    480.29264    317.90633    444.51062    37426.586 
  586500    306.53728   -1485.6648     562.3125    460.03399    74.425324    37426.586 
  586600    292.56973   -1509.9707    488.19424    298.57502     294.9696    37426.586 
  586700    310.81781    -1483.077    515.27625    434.90341    378.60369    37426.586 
  586800    288.20221   -1486.0808    496.09047    310.65077   -304.70166    37426.586 
  586900    291.92657   -1465.3016    521.98395     374.1313   -56.788962    37426.586 
  587000    304.56613   -1472.8203    502.64285    404.31322    144.94167    37426.586 
  587100    287.88363   -1458.8903    507.55878    347.87187   -45.458549    37426.586 
  587200     302.3176   -1434.0108    519.86678    450.19908   -482.30227    37426.586 
  587300    293.16053   -1468.6015    494.87761    349.29387   -515.10948    37426.586 
  587400    310.63902   -1495.9677    513.33517    419.26469   -673.33661    37426.586 
  587500    298.20593   -1449.5795     526.0528    422.26066   -569.31438    37426.586 
  587600    293.06233   -1507.0971    489.62642    305.10397   -288.68441    37426.586 
  587700    303.54272    -1501.888    490.05617    358.04017   -475.08899    37426.586 
  587800    295.75397   -1532.7901    501.40054     303.3323   -97.305926    37426.586 
  587900    304.09234   -1553.3342    495.86667    314.88488    69.777814    37426.586 
  588000    308.89673   -1546.1155    512.33364    360.25253    159.75103    37426.586 
  588100     286.4343   -1514.0432     475.5878    254.20724   -243.14952    37426.586 
  588200    309.55717   -1534.2909    504.66866    367.39271    43.506717    37426.586 
  588300    302.83007   -1526.8614    507.24027     347.0347    -178.2778    37426.586 
  588400    297.74438   -1478.9195    511.89565    376.68061    353.29206    37426.586 
  588500    301.71194   -1567.5316    466.49553    260.57378   -136.94919    37426.586 
  588600    297.06143   -1561.3987    477.62534    256.84894    184.03661    37426.586 
  588700    299.65345   -1528.9556    484.05131    307.41568    313.82243    37426.586 
  588800    297.03395   -1551.5001     507.8726    296.87078    64.393468    37426.586 
  588900    312.98875   -1526.9298    510.14984    395.72152     387.8064    37426.586 
  589000     294.3409   -1524.4239     496.3816    300.30236   -947.65204    37426.586 
  589100    301.40423   -1542.0585    497.03266    315.19532    27.671235    37426.586 
  589200    285.97239   -1556.5392    479.89791    213.93676    -433.3289    37426.586 
  589300    308.37787   -1546.6779    494.16014    339.17508   -296.55601    37426.586 
  589400    295.60244   -1562.3885    485.59665    257.24616   -167.44928    37426.586 
  589500    301.22623   -1516.0254    485.23692    328.62934   -416.77281    37426.586 
  589600    292.12927   -1549.8174    485.51398     254.0603   -448.61687    37426.586 
  589700    294.38498   -1534.9776    490.25712    283.82321   -977.92668    37426.586 
  589800    294.68918   -1537.4375    453.69544    246.17438   -382.09596    37426.586 
  589900    299.48156   -1511.7164    535.20187    375.02968   -440.40878    37426.586 
  590000    296.62542   -1538.8392    483.68931    283.50474   -279.58274    37426.586 
  590100    303.70244    -1537.705    453.82426    286.71209   -216.60208    37426.586 
  590200    289.51466   -1546.9304    486.40341    246.03714    -945.0485    37426.586 
  590300    295.82985   -1512.0115    480.01447    303.06717   -405.22297    37426.586 
  590400    295.22855   -1574.9578    471.37423    228.76704   -76.489476    37426.586 
  590500    294.68278    -1518.324    499.22157    310.78519   -413.96758    37426.586 
  590600    302.87305   -1540.1588    479.42482    306.11585   -119.33016    37426.586 
  590700    296.22542   -1533.1113    507.10784    310.84594    636.34744    37426.586 
  590800    301.39967    -1566.686    500.37497    293.88952    722.16478    37426.586 
  590900     286.6307   -1562.3612    499.41205    230.59984    135.51095    37426.586 
  591000    297.33507   -1508.4397    499.83037    333.24792   -233.52681    37426.586 
  591100     301.7348    -1519.296    481.24351    323.66045    67.412267    37426.586 
  591200    308.49231   -1515.2632    497.01828    373.96434   -487.13247    37426.586 
  591300    298.64767   -1531.4733     475.4388    291.74645    260.15742    37426.586 
  591400    303.98928   -1567.1471    522.41567    327.15589    118.95705    37426.586 
  591500    301.22485   -1544.2464    476.02826    291.19347    537.33993    37426.586 
  591600    298.25515    -1523.641     513.4545    335.82297    514.02705    37426.586 
  591700    301.15346   -1496.5107    483.47674    346.05542     234.9466    37426.586 
  591800    301.10712   -1522.3766    486.83334    323.33698    131.28234    37426.586 
  591900    305.73906   -1493.2563    490.11069    376.63839   -399.46575    37426.586 
  592000    303.90505   -1476.1533    503.74794    399.10185   -418.16962    37426.586 
  592100    305.52751   -1455.9515    499.58062    422.45834    436.33628    37426.586 
  592200     297.0088   -1497.5475    516.93968    359.77701     152.2362    37426.586 
  592300    304.03432   -1507.9481    492.56287     356.7054    166.11819    37426.586 
  592400    297.49552   -1533.3831    506.14763    315.34581    480.32381    37426.586 
  592500    304.35915   -1545.5364    497.46871     325.4889    626.62019    37426.586 
  592600    295.99285   -1515.7156    499.83934    319.92364    673.77523    37426.586 
  592700    305.23553   -1506.1679    495.99721    367.34093    362.70092    37426.586 
  592800    299.89849   -1526.8744    495.28219    321.83365    591.84508    37426.586 
  592900    296.72223   -1556.8654    468.38702    250.61316    402.76887    37426.586 
  593000    300.69931   -1520.2796    522.11347    358.87375    360.57132    37426.586 
  593100    303.06616   -1545.0387    516.44512    339.12774    181.75786    37426.586 
  593200    299.07782    -1545.815    454.69738    258.60455    92.668074    37426.586 
  593300    296.48694   -1572.1425    503.52662    269.41378     111.7403    37426.586 
  593400    301.02339   -1535.6852    474.45837    297.27562   -243.67676    37426.586 
  593500    299.92114   -1540.4571    500.76402    313.83501    99.486681    37426.586 
  593600    302.39811   -1551.8763    485.93182    298.76194    291.61121    37426.586 
  593700    297.31809   -1544.9833    481.05391    277.85127    157.41897    37426.586 
  593800     300.8586   -1538.9789    485.28849    304.06837   -178.88533    37426.586 
  593900    296.22203    -1505.811    483.69204    314.71522   -1.0065773    37426.586 
  594000    289.99172   -1549.3202    513.48029    272.87712   -666.76557    37426.586 
  594100    298.68084    -1491.999    487.62165    343.55326   -455.12471    37426.586 
  594200     300.4121   -1551.9625    495.14997    298.93121   -416.73099    37426.586 
  594300     299.2507   -1567.2345    496.53676    279.80462   -378.82805    37426.586 
  594400    293.33343   -1544.9651    504.75134     283.5843   -525.65403    37426.586 
  594500    306.77088   -1513.1395    488.16718    359.46824   -127.31616    37426.586 
  594600    291.36735   -1516.5259    495.53973    293.93909    -287.7696    37426.586 
  594700    289.50014   -1512.6112    483.41348    277.30089   -669.68965    37426.586 
  594800    301.24734   -1483.6607    511.57229    387.42476   -936.78212    37426.586 
  594900    301.17796    -1482.741    507.91048    384.36948   -554.62487    37426.586 
  595000    294.22898   -1513.3046    522.83843    337.37341   -624.87606    37426.586 
  595100    299.46426   -1541.5308    500.59612    310.53152    3.2398745    37426.586 
  595200    292.55734   -1551.6383    501.72504     270.3824   -69.975174    37426.586 
  595300    300.12057   -1503.2821     525.8801    377.02601   -520.48515    37426.586 
  595400    295.98087   -1528.1992    492.06617    299.61276   -618.73401    37426.586 
  595500    298.72825   -1553.1999    485.47648     280.4212   -996.50716    37426.586 
  595600    306.59938   -1559.2394    485.33315    309.76035   -944.36085    37426.586 
  595700    288.94902   -1543.4328    493.08617    253.66488   -716.05303    37426.586 
  595800    297.59068   -1584.1011    512.27941    271.18914   -506.78498    37426.586 
  595900    291.69925   -1521.5681    517.87459    312.72959   -63.143243    37426.586 
  596000    306.51053    -1556.344    499.37275    326.29432   -128.13891    37426.586 
  596100    298.40165   -1560.5249    494.05915    280.20491    -154.5536    37426.586 
  596200    294.90546   -1538.4826     487.8802    280.29012    35.661137    37426.586 
  596300    300.92093   -1525.2853    532.38434     365.1391     281.6087    37426.586 
  596400    308.37192     -1537.72    510.60818    364.55409    879.10371    37426.586 
  596500    305.02193   -1503.1718    467.63771    341.01354    157.74053    37426.586 
  596600    317.86344   -1490.4458     518.0372    462.09203     321.3781    37426.586 
  596700    305.49745   -1531.1623    493.20343    340.73472    234.96489    37426.586 
  596800    299.48484   -1516.3011    491.67994    326.93788    408.15449    37426.586 
  596900    306.08341   -1478.7767    516.64809    419.20935    961.28858    37426.586 
  597000    298.56455   -1522.3357    517.56058    342.63071    209.29212    37426.586 
  597100     302.9612   -1471.0107    499.87157    396.10849    251.33296    37426.586 
  597200    300.04417    -1502.654    507.18327    358.61258    10.555505    37426.586 
  597300     297.8894   -1524.7338    499.40332    319.02845    134.35966    37426.586 
  597400    302.74924   -1513.1361    508.95789    362.11289   -214.63803    37426.586 
  597500    304.40211    -1513.666    491.57054    351.65495    566.21228    37426.586 
  597600    303.23826   -1527.6821    521.87415    362.69007   -39.591004    37426.586 
  597700    297.59957   -1531.3941    470.39366    282.05045   -340.59982    37426.586 
  597800    303.77243   -1483.7389     525.9812    413.15102    297.43383    37426.586 
  597900    311.19554   -1513.3726    504.45269    395.48889    384.08305    37426.586 
  598000     302.5886    -1498.006    515.77863    383.33875    702.91771    37426.586 
  598100    305.70998   -1550.3539     519.0335    348.33231    716.22129    37426.586 
  598200    296.73198   -1514.9878    468.58249    292.73021    506.56591    37426.586 
  598300    296.69147   -1508.1818     552.1361    382.90698    504.73854    37426.586 
  598400     292.3965   -1530.8517    512.34014    301.05819    308.23132    37426.586 
  598500    305.16794    -1476.821    476.67573    377.06127   -65.341924    37426.586 
  598600    304.14499   -1502.5932    499.79345    369.79023    -33.87474    37426.586 
  598700    311.64318   -1483.3016    524.30085    447.42822    -80.33014    37426.586 
  598800    293.19199     -1518.75    501.96531    306.37504    539.30791    37426.586 
  598900     301.5409   -1499.5991    515.16314    376.40201    724.97456    37426.586 
  599000    308.80858   -1531.1201    500.67202    363.18847    328.12735    37426.586 
  599100    298.01314   -1526.8928    489.23822    307.26279   -304.61387    37426.586 
  599200    303.46597   -1505.6999    506.02789    369.85363    648.34561    37426.586 
  599300     307.9624   -1494.7302    498.27564     393.3632   -81.889974    37426.586 
  599400    297.56149   -1478.2064    513.66877    378.34139   -39.483789    37426.586 
  599500    303.48605   -1491.9488    507.39998     385.0675   -345.09984    37426.586 
  599600    296.95391   -1481.3952    488.76987     347.5118   -649.38962    37426.586 
  599700    301.67633   -1506.8225    488.61011    343.23672   -373.86856    37426.586 
  599800     306.8709   -1494.7816    514.03612    404.14642   -450.18284    37426.586 
  599900    300.56507   -1492.4103    512.59235    376.61615   -545.61209    37426.586 
  600000    312.49642   -1518.4575    491.46873    383.29088   -564.95015    37426.586 
  600100    286.19882    -1534.224     495.4887    252.86462   -577.72115    37426.586 
  600200    308.05903   -1564.3879    482.63591    308.50194   -522.00324    37426.586 
  600300    300.50306   -1558.9946    494.57516    291.73474   -301.84989    37426.586 
  600400    306.26339   -1562.0994     465.2685    285.31936    -1089.182    37426.586 
  600500    297.65084   -1556.6677    489.35499    275.96955   -853.41295    37426.586 
  600600    304.31964   -1536.7808     518.6259    355.22335   -389.14895    37426.586 
  600700    282.82118   -1525.5383    498.98838    249.80689   -538.93054    37426.586 
  600800    291.33936   -1528.2417     501.9318    288.48907      203.889    37426.586 
  600900     299.3114   -1585.1619     467.6527    233.26712   -604.61728    37426.586 
  601000    303.24273   -1570.0577    483.59083    282.05129   -8.3148342    37426.586 
  601100    300.42759   -1530.6513    509.45858    334.62093     204.3168    37426.586 
  601200    297.43071   -1554.2218    494.64767     282.7147   -252.70835    37426.586 
  601300     303.0082   -1515.9574    489.30234    340.80472   -103.21921    37426.586 
  601400    296.61038   -1538.3824    502.45313    302.65751   -618.03283    37426.586 
  601500     297.6007   -1519.8261    493.66546    316.89536   -541.46876    37426.586 
  601600    289.40083    -1489.378    526.64982    343.32222    32.545141    37426.586 
  601700    283.74232   -1471.1364    522.58856    331.96606   -216.65879    37426.586 
  601800    299.26654   -1487.4243    476.30226    339.45183    200.52061    37426.586 
  601900    293.39075   -1510.1883    517.87731     331.7458    204.56667    37426.586 
  602000     296.6904   -1494.4743     491.6182    336.09174   -254.67359    37426.586 
  602100    291.51001   -1503.0211     498.8629    311.41089   -479.59445    37426.586 
  602200    295.90601   -1473.2446    488.03508    350.19849   -736.32269    37426.586 
  602300    297.08954    -1501.552    488.93797    328.13514   -172.00351    37426.586 
  602400      300.666   -1473.9591    508.05782    390.98832   -110.61244    37426.586 
  602500    302.17855   -1497.6826     501.9857    368.01876    51.317957    37426.586 
  602600    305.13769   -1511.3821    517.94599    383.63391    614.80535    37426.586 
  602700    294.39818   -1496.1787    523.38129    355.80577    337.05579    37426.586 
  602800    297.31792   -1485.1385    473.98397    330.62535     1217.453    37426.586 
  602900    304.43744   -1480.3384    492.78793    386.35934    702.97584    37426.586 
  603000    289.85888   -1535.1974    525.90039    298.82056      961.008    37426.586 
  603100    302.27771   -1528.7051     501.8002    337.25826    347.23112    37426.586 
  603200    292.00354   -1543.1423    505.94886    280.60289   -45.672604    37426.586 
  603300    290.88207   -1527.3668    487.04039    272.40876    43.247017    37426.586 
  603400    299.24344   -1482.6029    522.49792    390.36461   -211.29103    37426.586 
  603500    301.05681   -1488.1221    489.18218    359.71337    -811.0118    37426.586 
  603600    299.20639   -1485.0577    497.05091    362.29559   -110.56033    37426.586 
  603700     293.2121   -1535.3339    514.16295    302.07949   -198.90497    37426.586 
  603800    294.76478   -1514.6966    511.82352    327.38454    -10.38251    37426.586 
  603900    297.25469   -1533.6712    493.45635    301.27966    237.70854    37426.586 
  604000    307.89001   -1530.7238    506.07315     364.8404   -88.044716    37426.586 
  604100    292.42775   -1467.2151    480.67721    333.17283    116.02303    37426.586 
  604200    290.11259   -1459.5019    482.70288    332.46356    416.16407    37426.586 
  604300    303.42031   -1504.3252    536.84101    401.83536    134.58319    37426.586 
  604400    297.92177   -1538.4075     476.3602    282.45774    396.20596    37426.586 
  604500     304.9811   -1553.0097    506.08948    329.44319    182.30554    37426.586 
  604600    293.70365   -1520.5744    489.49732    294.39179    461.94007    37426.586 
  604700    289.85421   -1582.4013    458.67619    184.37145   -134.94238    37426.586 
  604800    306.20471   -1595.5321    486.20509    272.55842    68.870291    37426.586 
  604900    303.10892   -1537.3324    454.77563     285.3575    138.72526    37426.586 
  605000    297.32365   -1519.5981    493.23297    315.44062   -394.23038    37426.586 
  605100    292.44912   -1549.7502    480.27839    250.33542   -473.95793    37426.586 
  605200    288.93405   -1515.2768    478.87952    267.54659   -132.25705    37426.586 
  605300    305.80047   -1557.2116    490.14496    312.99451   -526.18986    37426.586 
  605400    296.28473    -1488.252    498.92182    347.78696    21.242437    37426.586 
  605500    297.68413   -1498.9977    498.98676    343.42157   -424.43937    37426.586 
  605600    306.75623   -1484.9177    492.08515    391.54186   -371.82635    37426.586 
  605700    302.50943   -1496.9759    492.59071    360.82364   -249.07492    37426.586 
  605800    299.68406   -1538.9015    490.55654    304.11319   -380.47877    37426.586 
  605900    298.00214   -1503.7772    499.95667    341.04711    60.481757    37426.586 
  606000    298.35366   -1531.9841    493.06327     307.5333   -150.68559    37426.586 
  606100    303.27053   -1495.3964    511.88507    385.13235   -168.84873    37426.586 
  606200    308.47032   -1510.4616    490.28848    371.93689   -364.19606    37426.586 
  606300     293.1206   -1487.5657    515.54137    350.81325   -169.39871    37426.586 
  606400    308.21596   -1475.9733    501.44696    416.43576   -334.80474    37426.586 
  606500    299.05534   -1480.4238    494.97531    364.17221   -316.00498    37426.586 
  606600    309.65231   -1446.5755    513.15808    464.02687    138.28535    37426.586 
  606700    307.46772   -1488.4095    497.13193    396.30783   -82.269796    37426.586 
  606800    292.39621   -1482.3907    519.59667    356.77445    177.22083    37426.586 
  606900    294.52524   -1470.7391    502.23069    360.66824   -518.99289    37426.586 
  607000    306.20186   -1486.1924    503.15036    398.83058    138.37897    37426.586 
  607100    295.80534   -1504.4781    521.70998    352.18552    174.32973    37426.586 
  607200    298.69048   -1477.0613    498.84276    369.75562    478.88762    37426.586 
  607300    308.88061   -1455.5096    516.99264    455.44468    288.48089    37426.586 
  607400    292.76884    -1463.748    525.13186     382.6339    512.19071    37426.586 
  607500    297.24135   -1470.9074    515.58145    386.10835    466.97028    37426.586 
  607600    301.33249   -1477.5889     487.5476     369.8561     327.6639    37426.586 
  607700    292.35138   -1451.1374    506.91088     375.1396    433.88443    37426.586 
  607800     294.6014   -1506.4896    490.17075    313.20153    160.65383    37426.586 
  607900    307.93653   -1515.8483    502.47308     376.3258    486.50046    37426.586 
  608000    294.09784   -1514.8624    493.35825    305.74369    741.45647    37426.586 
  608100    305.89772   -1495.1684    507.07032    392.40192    258.83465    37426.586 
  608200    299.84286   -1478.9831    524.45406    398.64574   -191.15885    37426.586 
  608300    299.79934   -1471.1695     481.1801    362.98893    282.04153    37426.586 
  608400    294.70794   -1468.6438    473.25207    334.60942   -524.94352    37426.586 
  608500    294.21428   -1523.6852    486.81914    290.90723   -844.86695    37426.586 
  608600    296.41306   -1494.4112    476.48442    319.76954   -483.43843    37426.586 
  608700    295.74491   -1504.7782    486.16469    316.06739   -597.49268    37426.586 
  608800    306.44862   -1478.4842    498.28457     402.7866    96.081054    37426.586 
  608900     298.4881   -1460.1964    485.83817    372.70262   -373.15397    37426.586 
  609000    292.00122   -1468.6365    505.07708    354.22639   -189.06836    37426.586 
  609100    293.77763   -1455.3533    500.06223    370.51164    105.08301    37426.586 
  609200    304.55154   -1479.3836    514.41994    409.46115    71.918308    37426.586 
  609300    298.81705   -1512.1227    494.50631    330.92895    352.66177    37426.586 
  609400     311.2495   -1565.4189    517.15862    356.39201   -226.72291    37426.586 
  609500    295.03629   -1520.2944    503.07363    314.26225   -168.86334    37426.586 
  609600    286.66643   -1492.2558    499.53947    300.99392     101.7617    37426.586 
  609700    310.78766   -1471.4348    505.14436    436.27759   -197.00658    37426.586 
  609800    300.60556   -1506.2045    506.08127    356.49356    174.17627    37426.586 
  609900    300.77802   -1485.6773     500.9979    372.71567    16.661917    37426.586 
  610000    295.65776   -1461.2129    512.41839    385.49308   -30.857734    37426.586 
  610100    298.89967   -1474.2745    495.05279    369.69653  -0.85225274    37426.586 
  610200    293.21064   -1540.2085    500.76304    283.79846   -352.70933    37426.586 
  610300    305.73211   -1496.8566    481.21766    364.11374    152.16195    37426.586 
  610400    302.68244   -1469.0199    495.94537    392.91506    258.66102    37426.586 
  610500    310.03362   -1475.9407    504.71332    427.93778   -353.77362    37426.586 
  610600    291.92839    -1496.813    525.41938    346.06351    15.504112    37426.586 
  610700    299.69152   -1512.8717    491.80168     331.4218    23.747528    37426.586 
  610800    295.57842   -1499.8067    496.27238    330.39532   -128.06347    37426.586 
  610900    313.20862   -1520.7371    481.33643    374.09302    110.24684    37426.586 
  611000    291.09072   -1493.1174    517.22763    337.78706    539.17924    37426.586 
  611100    293.96715   -1516.6514    494.64427    304.65091     67.96824    37426.586 
  611200    307.12128   -1531.5401    486.99512    341.47692    650.75496    37426.586 
  611300    286.11175   -1490.6552    510.89697    311.44875    436.90217    37426.586 
  611400    298.08207   -1504.4591    492.57682    333.34611   -184.01001    37426.586 
  611500    299.37805   -1516.4347    506.94249    341.58494    394.88338    37426.586 
  611600    303.75556   -1515.6472    506.17757    361.36296   -84.653402    37426.586 
  611700    285.29579   -1487.3454    488.28929    288.46851    125.77828    37426.586 
  611800    301.14651   -1514.2233    523.29066    368.12543   -104.50171    37426.586 
  611900     298.9992   -1561.0499    497.77779    286.09528   -213.58324    37426.586 
  612000    297.82775   -1543.1248    498.60724    299.56311    412.80515    37426.586 
  612100    289.12966   -1552.9406    466.70254    218.58866    94.960881    37426.586 
  612200    301.96123   -1538.9601     488.9445    312.71928    166.97224    37426.586 
  612300    298.90035   -1533.6254    486.80304    302.09894   -339.54769    37426.586 
  612400    297.38592   -1529.1107    474.59536    287.57138   -17.932397    37426.586 
  612500    305.15265   -1506.0591    512.87522    383.95371   -386.26816    37426.586 
  612600    302.47079   -1539.1882    496.06016    321.90641   -1009.5767    37426.586 
  612700    293.51987   -1546.8194    441.34816    219.16822   -436.71894    37426.586 
  612800    297.49417   -1550.8284     511.5306    303.27748   -332.63706    37426.586 
  612900    308.49465   -1518.6532    509.63138    383.19806    271.24295    37426.586 
  613000     298.7798   -1549.7888    487.19388    285.78226     229.5971    37426.586 
  613100    301.39917   -1515.6992    491.03589    335.53496     436.5241    37426.586 
  613200    302.63296   -1553.8532    481.04539    292.95854    133.50579    37426.586 
  613300    303.81187    -1591.793    474.07355    253.36726     282.1875    37426.586 
  613400    289.89844   -1571.1845    526.21848    263.33009   -428.29677    37426.586 
  613500    294.26933    -1545.923    456.13844    238.23718    137.38601    37426.586 
  613600    289.72367   -1553.0486    515.38749    269.84626    502.26945    37426.586 
  613700    302.78723    -1531.488    506.34408    341.31866    249.37597    37426.586 
  613800    295.52311   -1554.3568    480.21727    259.54045    143.81248    37426.586 
  613900    304.86156   -1513.1474    545.96469    408.64119    454.76118    37426.586 
  614000    304.51716   -1570.4627    477.86163    281.66859    506.23284    37426.586 
  614100    303.01734   -1539.8318    505.42795    333.09717    990.87501    37426.586 
  614200    287.59977   -1507.2571    496.90753    287.57277    290.35158    37426.586 
  614300    304.99558   -1527.8191    519.90477    368.51439    240.36262    37426.586 
  614400    304.35626   -1537.7857    508.39331    344.15113   -184.00566    37426.586 
  614500    295.48139   -1516.2729    500.47019    317.68893    -93.68751    37426.586 
  614600    296.97576   -1555.6453    517.87098    302.46137   -174.40097    37426.586 
  614700    302.02329   -1578.4778    491.52412    276.06128    178.90978    37426.586 
  614800    313.42897   -1535.5111    515.37084    394.34793    413.72461    37426.586 
  614900    305.69823   -1553.0863    507.94292    334.45637    441.49632    37426.586 
  615000    290.90207   -1540.1185     514.7295    287.43644    273.82362    37426.586 
  615100     302.7818   -1576.2199    492.94138    283.15959    447.16981    37426.586 
  615200    305.80628   -1542.7319     530.2364    367.59179    455.27729    37426.586 
  615300    299.42338   -1570.5276    513.21767    293.97172   -8.5666826    37426.586 
  615400    303.89582   -1526.7999    492.79933    337.46501    759.89154    37426.586 
  615500     312.6348    -1509.801    515.87341    416.97646     331.7405    37426.586 
  615600     306.3896   -1568.7978    515.44689    329.36891    278.36887    37426.586 
  615700    295.51441   -1558.3999    488.00041     263.2412    84.365296    37426.586 
  615800    298.38507   -1574.9212    516.09012    287.76479   -305.82653    37426.586 
  615900    299.28522   -1514.2494     490.3115    326.72023   -273.24825    37426.586 
  616000    297.68421   -1523.2337    510.11708    330.31624   -435.54852    37426.586 
  616100    301.28388   -1561.5444     493.6422    291.77581   -1058.1793    37426.586 
  616200    295.54917   -1497.7297    514.32096     350.3888   -279.49935    37426.586 
  616300    302.07673   -1529.3207    525.07773    359.01311   -522.89689    37426.586 
  616400    287.54499   -1495.0543    491.77507    294.39589   -223.31549    37426.586 
  616500    290.92734    -1482.501    507.28552    337.72401    -6.887752    37426.586 
  616600    303.98348   -1505.8363    500.29493    366.31982   -522.97207    37426.586 
  616700    304.19611   -1527.2492    511.09277    356.66432   -137.34758    37426.586 
  616800    305.19172   -1487.5596    523.97465     413.7289   -294.76619    37426.586 
  616900    297.85545   -1479.5436    517.03179    381.69388   -43.406261    37426.586 
  617000    293.16633   -1516.0706    508.02004    314.99335   -474.85092    37426.586 
  617100    302.58338   -1533.0851    506.00106    338.45859   -222.13899    37426.586 
  617200    302.54965   -1519.3109    518.12402    364.20347   -608.45193    37426.586 
  617300    307.89626   -1476.6601    517.78056    430.63974   -511.53951    37426.586 
  617400    316.98593   -1469.1492     499.7515    461.14286    14.283853    37426.586 
  617500    294.57778   -1521.7253     524.0676    331.75609   -233.73042    37426.586 
  617600    296.84048   -1514.0577    508.24688    333.81434    4.3302719    37426.586 
  617700    308.54064   -1502.2958    538.62325    428.75477    107.88706    37426.586 
  617800    302.61462   -1472.6166    521.27779    414.34476   -182.87845    37426.586 
  617900    298.33142   -1457.7928    528.48939    417.05031   -510.38581    37426.586 
  618000    313.23846   -1482.8649    525.56281    456.32634   -62.608987    37426.586 
  618100    291.56148   -1500.5218    507.61095    322.89048    58.516899    37426.586 
  618200    305.12488   -1512.0277    522.06843    387.05295    240.83051    37426.586 
  618300    299.34207   -1564.3689    519.44362    305.98949    347.05406    37426.586 
  618400    293.12653    -1543.202    510.84478    290.50713     143.8258    37426.586 
  618500    295.27753   -1538.7697    527.79058    321.59253    422.14786    37426.586 
  618600    306.63106    -1538.626    520.32073    365.50424    558.31949    37426.586 
  618700    308.27559   -1542.2369    505.80277    354.79712    306.90413    37426.586 
  618800    303.20093   -1540.4376     523.2166    351.10858    380.48293    37426.586 
  618900    293.49976   -1555.1519    502.14925    271.54603    41.020536    37426.586 
  619000    309.89394   -1578.8003    504.84944    324.58392    798.20248    37426.586 
  619100    298.94273   -1537.2737    502.14539    313.98423    107.33137    37426.586 
  619200    307.78484   -1531.6337    507.04139    364.42413    22.226078    37426.586 
  619300    298.43999   -1548.6954    514.59974    312.74806    198.92246    37426.586 
  619400    305.51114   -1545.0165    498.94523    332.68413    276.52174    37426.586 
  619500    310.29471   -1504.7677    499.25668    394.83238   -233.74562    37426.586 
  619600    311.50313   -1570.7598    531.07411    366.11122     307.6349    37426.586 
  619700    304.95245   -1555.5251    525.22022    345.92915    428.52475    37426.586 
  619800     312.6231    -1558.531    522.89316    375.21352    722.54401    37426.586 
  619900    294.34493    -1569.089    507.80056    267.07442    635.03462    37426.586 
  620000    307.88138   -1520.2468    499.72935    368.93469    662.81973    37426.586 
  620100    297.44202   -1483.7652      503.903    362.47764   -348.71862    37426.586 
  620200    307.01998   -1478.5953    519.82935    426.79882    68.226082    37426.586 
  620300    300.72258   -1503.2955    484.65309    338.50244    135.48158    37426.586 
  620400    290.48763   -1475.1597    515.06198    350.85735    569.46707    37426.586 
  620500    300.48675   -1462.2565     539.7054     433.5295    336.58176    37426.586 
  620600    296.25316   -1497.2956    521.26705    360.94611    270.42418    37426.586 
  620700    302.80438   -1533.3265    467.74583    300.95926    349.23048    37426.586 
  620800    303.02125    -1551.876    481.37803    297.02066    598.97291    37426.586 
  620900    306.50957   -1525.8522    509.14722    366.55627    144.05551    37426.586 
  621000    298.55863     -1495.93    502.00323    353.45234    64.408886    37426.586 
  621100    304.09749   -1511.5867    482.65919    343.44814   -367.81809    37426.586 
  621200    301.31781   -1472.8241     506.2992    393.30625   -302.07666    37426.586 
  621300    303.06429   -1550.9725    526.18133    342.92171    -124.2951    37426.586 
  621400    303.23805   -1518.5056    506.03531    356.02676   -201.74396    37426.586 
  621500    306.04103   -1504.3687    524.65727    401.43532   -539.71408    37426.586 
  621600    296.61789    -1540.103    492.98886    291.50652    -330.4058    37426.586 
  621700    302.13849   -1506.8246    505.87752    362.58776    144.66957    37426.586 
  621800    295.30001   -1508.1106    525.37118    349.93373    113.99667    37426.586 
  621900    296.49256   -1520.3556    509.58363    327.28311   -18.470737    37426.586 
  622000    315.40883   -1477.3562     506.0709    452.13781    210.24703    37426.586 
  622100       296.51   -1534.3991    504.21871     307.9534   -285.37941    37426.586 
  622200    306.34031   -1489.5792    539.73984    432.65801   -401.61467    37426.586 
  622300    302.71088   -1548.3285    510.36772    328.15715   -442.44064    37426.586 
  622400    295.85893   -1490.7252    502.42007    346.89037   -245.83641    37426.586 
  622500    299.99458   -1528.3859    526.35134    351.82489   -584.47815    37426.586 
  622600    299.05166   -1507.0566    494.43016     336.9777   -710.62257    37426.586 
  622700     295.7513   -1545.0301    484.37479    274.05449    -410.7362    37426.586 
  622800    299.91408   -1530.5615    506.55531    329.48998    -641.9942    37426.586 
  622900    306.03784   -1530.4089    477.37591    328.09938   -236.89073    37426.586 
  623000    300.58732   -1533.2414    512.76207     336.0551   -210.95684    37426.586 
  623100    298.28053    -1526.918    500.76168    319.96767   -405.81475    37426.586 
  623200    304.46848   -1559.1748    497.89691    312.77201   -669.04439    37426.586 
  623300     291.9814   -1558.6501    496.62789    255.67418   -700.30531    37426.586 
  623400    292.19651   -1513.3957    488.21778    293.48929   -266.98304    37426.586 
  623500    296.96513   -1541.8575    474.01061    272.34084   -250.39031    37426.586 
  623600     292.0289   -1518.4364    500.09804    299.57238    393.91411    37426.586 
  623700    295.90048   -1500.3008    535.08296    370.16524    494.00578    37426.586 
  623800    295.98024   -1502.0471    496.60945    330.30534    68.275695    37426.586 
  623900    303.22186   -1501.1182    512.34706    379.65288    215.30727    37426.586 
  624000    288.02663   -1531.0952    483.62802    252.38153    307.47108    37426.586 
  624100    306.18592   -1482.6221    498.39582    397.57438    621.11003    37426.586 
  624200     291.8536   -1533.1498    515.87733    299.84716    706.04294    37426.586 
  624300    294.14993   -1511.5914    490.97351    306.86502    132.72196    37426.586 
  624400    300.81543   -1512.7407    504.39077    349.21397    190.28627    37426.586 
  624500    300.88029   -1522.0729    535.42449    371.20821    164.58148    37426.586 
  624600    305.97477   -1491.0655    503.80007    393.58227   -214.79965    37426.586 
  624700    302.30122   -1464.0172    504.59898    404.85098   -507.25277    37426.586 
  624800    306.74877   -1474.5682    487.76822    397.54082   -298.11434    37426.586 
  624900    297.00361   -1463.0543     504.5174    381.82453   -593.18062    37426.586 
  625000    292.88329     -1486.97    490.85742    325.65399   -723.69141    37426.586 
  625100    294.21047   -1442.2958     525.0218    410.48208    -24.66017    37426.586 
  625200    299.48415   -1513.9829     486.5918    324.16478   -203.52702    37426.586 
  625300    310.92484    -1501.783    495.24668    396.65078   -25.461564    37426.586 
  625400    294.94075   -1451.9841    517.62275    396.69042    115.48489    37426.586 
  625500    303.84314   -1509.5023    471.56355     333.2891   -149.78436    37426.586 
  625600    293.56443   -1489.0092    519.91064      355.742    164.02484    37426.586 
  625700    291.99884   -1475.7147    507.77986    349.84029   -522.05501    37426.586 
  625800    291.98663   -1493.0323    498.85113    323.53879    -292.6925    37426.586 
  625900    300.05883   -1517.6143    502.05329    338.58838   -246.70858    37426.586 
  626000    299.78088   -1495.3502     524.5916    382.13649    304.09775    37426.586 
  626100    302.89035   -1504.1361    505.54206    368.33384    144.66541    37426.586 
  626200    309.48066    -1471.096    542.29633    467.86995   -47.003673    37426.586 
  626300    298.92414   -1483.3772    515.29926    380.95072    196.67673    37426.586 
  626400     297.0306   -1491.2927    509.71916     358.9096   -336.04412    37426.586 
  626500    299.45618   -1536.8937     517.0371    331.57313   -175.75242    37426.586 
  626600    302.32872   -1504.9049    501.65947    361.14787    396.87795    37426.586 
  626700      298.535   -1542.9151    521.00982    325.36721    712.01101    37426.586 
  626800    313.02218   -1513.2442    484.93378    384.34195    469.13161    37426.586 
  626900    295.49291   -1525.4205    479.77954    287.90268    49.276376    37426.586 
  627000    303.58018   -1543.0969    506.54601    333.49021     9.511812    37426.586 
  627100    309.56187   -1498.7228    513.61404    411.92741   -78.893593    37426.586 
  627200    303.42349   -1521.9989    490.42761    337.76269   -209.57802    37426.586 
  627300    303.17921   -1536.7428     483.7385    315.22721   -372.83381    37426.586 
  627400    299.04953   -1501.7385    525.88826     373.7443    148.46212    37426.586 
  627500     293.3283   -1541.4587    513.99283    296.30899   -241.90538    37426.586 
  627600    292.59711   -1539.9071    479.46172    260.02972    -742.3263    37426.586 
  627700    296.20446   -1508.3055    501.16256    329.61186   -864.63328    37426.586 
  627800    296.21779   -1539.4417    515.56725    312.94056   -867.61466    37426.586 
  627900    303.87896   -1496.7632    514.25415    388.88044   -49.773015    37426.586 
  628000    300.47902    -1519.145    503.20717    340.10783    352.95795    37426.586 
  628100    307.68231   -1515.7558    472.49289    345.29088     523.0466    37426.586 
  628200    304.91953   -1525.0173    475.97555    327.04379     237.9791    37426.586 
  628300    301.54245   -1548.8369    490.77637    302.78436    195.12529    37426.586 
  628400    310.04841   -1499.9613    502.54509     401.8157    520.19211    37426.586 
  628500    299.82185   -1532.5615    494.56561    315.08405   -61.584941    37426.586 
  628600    309.64621   -1565.4091    498.96401    330.97168    546.13305    37426.586 
  628700    313.07239   -1520.3766    517.66284     410.1652    298.92045    37426.586 
  628800    300.60785   -1532.9233    498.79046    322.49426    80.073055    37426.586 
  628900    292.09986    -1520.499    473.37401    271.10607    463.59497    37426.586 
  629000    301.98978   -1563.8621    508.32742      307.329    -14.81545    37426.586 
  629100    292.99083    -1544.387    477.53345    255.39838     262.6646    37426.586 
  629200    295.74309   -1539.9885    475.15608    269.84036    186.58726    37426.586 
  629300    304.84595   -1548.1431    490.48314    318.09347   -14.620924    37426.586 
  629400    288.83493   -1510.5038    517.13934     310.1321   -335.26304    37426.586 
  629500    294.03402   -1520.3199    489.16964    295.80952   -1132.6524    37426.586 
  629600    302.08433   -1526.9402    474.01121    310.36138   -343.87516    37426.586 
  629700    291.99019   -1501.2712    504.94745     321.4123   -109.12055    37426.586 
  629800    308.11229    -1535.751    494.80993    349.55318   -63.137618    37426.586 
  629900    297.56302   -1549.5294    474.94314    268.29966   -299.19403    37426.586 
  630000    297.99066   -1548.3962    501.35506    297.77476    252.59625    37426.586 
  630100    288.11672   -1543.5396    489.73901    246.45474   -507.43949    37426.586 
  630200    305.32606    -1581.017    505.34964    302.25276    34.383674    37426.586 
  630300    299.79051   -1590.2429    477.85593    240.55159    168.68753    37426.586 
  630400    303.67803   -1533.6825    478.63922    315.43936   -120.96634    37426.586 
  630500    298.59209    -1556.961    481.89075    272.45989   -19.435296    37426.586 
  630600    299.97217   -1586.8013    486.83606    253.79307    111.87068    37426.586 
  630700    294.56749   -1597.1258     501.3912    233.63276    148.72501    37426.586 
  630800    291.79344   -1578.0255    474.10889    212.93156    69.659787    37426.586 
  630900    299.71734   -1535.4298    495.42597    312.60451    144.26028    37426.586 
  631000    295.57649   -1555.6835    488.59071    266.82805    191.94003    37426.586 
  631100    297.31119   -1579.9509    453.29715    215.09569    264.09812    37426.586 
  631200    296.35199   -1560.5558    509.23948    286.10428     281.4153    37426.586 
  631300    288.42973   -1551.1592    481.45317    231.96184    -163.5387    37426.586 
  631400     306.9971   -1547.1063    494.41621    332.77134    64.573183    37426.586 
  631500    308.49388   -1524.4592    491.88803    359.64524   -466.01634    37426.586 
  631600    303.41819   -1567.2865    484.33064    286.35418   -377.18511    37426.586 
  631700    295.82565   -1559.5308    483.44853    258.96302   -574.35559    37426.586 
  631800    304.90436   -1567.5811    473.80596    282.24186   -245.93007    37426.586 
  631900     297.0203   -1564.9413    513.74429    289.23965   -1325.0017    37426.586 
  632000    295.16996   -1560.2246    466.30738    238.16902   -940.98217    37426.586 
  632100    307.21319   -1553.5508    484.29509    317.18095   -499.33585    37426.586 
  632200    308.62484   -1572.7806    472.24867    292.27541   -1031.6972    37426.586 
  632300    311.10309   -1570.8528    462.09479    295.23358   -328.03439    37426.586 
  632400    312.39745   -1597.7351    471.31688     283.4147   -454.36924    37426.586 
  632500    296.71771    -1610.769     468.2797    196.58185   -473.21434    37426.586 
  632600    309.91584   -1577.9979    464.61769    285.25336    225.76926    37426.586 
  632700    290.74019   -1527.5817    509.30358    293.81672    212.67237    37426.586 
  632800    291.49331   -1507.4392    507.86277    315.91726    481.57629    37426.586 
  632900     309.4869   -1509.8305    513.26071    400.12799   -50.499345    37426.586 
  633000    300.44701   -1495.7891      490.413    350.52515   -262.28263    37426.586 
  633100    293.92293   -1504.7702    501.72299    323.41119   -751.18218    37426.586 
  633200    297.38727   -1565.6525     507.3815    283.82183   -344.39895    37426.586 
  633300    302.58698   -1510.5476    491.60191    346.61317    96.075921    37426.586 
  633400    305.35974   -1490.6483    506.21861    393.64246   -242.64296    37426.586 
  633500    297.04914   -1519.5295    495.54763    316.58501   -274.73061    37426.586 
  633600    292.69344   -1526.1573    496.27788    291.03037   -481.61922    37426.586 
  633700    312.15151   -1515.9053    513.31979    406.13754     151.9914    37426.586 
  633800    298.47635   -1523.4202    507.11602     330.7036    42.530181    37426.586 
  633900    299.46721   -1532.8572    499.44045    318.06276    558.82378    37426.586 
  634000    284.78036   -1558.9314    520.12402    246.39118    194.64167    37426.586 
  634100    294.09371   -1516.1033    487.28234    298.40818    191.56515    37426.586 
  634200    309.33354   -1496.8467    511.30389    410.46293    220.22993    37426.586 
  634300    302.00036   -1539.4916    507.50419    330.92406    14.406593    37426.586 
  634400     295.5863   -1535.3671    490.68932    289.28735    8.0004409    37426.586 
  634500    293.56662   -1566.8446    504.66599    262.67177   -318.49758    37426.586 
  634600    290.36432   -1524.1774    488.51521    274.73647    149.28736    37426.586 
  634700    306.16483    -1488.119    527.15908     420.7456    384.27233    37426.586 
  634800    295.85536    -1499.417    500.71116    336.47355    578.93766    37426.586 
  634900    289.40882   -1482.2695    533.83107    357.64808    1049.5003    37426.586 
  635000    310.19918   -1478.9262    525.99646    446.98252    781.44742    37426.586 
  635100     298.6434   -1467.3763    492.54562    372.93102     430.9734    37426.586 
  635200    308.95464    -1452.376    509.83433    451.75409    112.25853    37426.586 
  635300    304.18885   -1450.3907    511.95915    434.35643    276.76913    37426.586 
  635400    309.02592   -1459.4347    492.69483    427.87758    279.57027    37426.586 
  635500    297.26402   -1437.5385    507.66806    411.66615    751.64948    37426.586 
  635600    303.19799   -1461.5749    518.73013    425.47153   0.52296805    37426.586 
  635700    302.86127   -1503.5562    498.73787    361.97834    442.17984    37426.586 
  635800    292.47741    -1531.465    510.70269    299.17262    579.61084    37426.586 
  635900    299.01212   -1500.5273    514.55567    363.45406    9.0082927    37426.586 
  636000    303.09957   -1457.8483     511.8522    421.87605   -218.02907    37426.586 
  636100    303.00284   -1480.6648    528.25776    415.02855   -507.84324    37426.586 
  636200    292.94816   -1515.6641    520.86692    327.26213   -530.21284    37426.586 
  636300     304.1407   -1499.3022    505.12907    378.39749    -548.1258    37426.586 
  636400    299.93645   -1498.2227    510.85125    366.22571   -16.975905    37426.586 
  636500    295.83852   -1490.8603    530.08321    374.32627   -76.023446    37426.586 
  636600    306.43883   -1504.9358    513.35204    391.35828    160.78394    37426.586 
  636700    296.69738   -1492.1149    491.41783    338.28233   -160.58469    37426.586 
  636800    296.34796   -1485.9614    522.99897    374.44008    181.22616    37426.586 
  636900    309.56969   -1512.8472    482.11895    366.34315    452.25119    37426.586 
  637000    300.99155    -1528.429    481.42682    311.35655   -5.3197623    37426.586 
  637100    295.40298   -1474.8143    512.66341    370.98689    413.44715    37426.586 
  637200    303.32682   -1487.3477    518.11927    399.66921    184.39022    37426.586 
  637300    287.12047   -1505.1258    508.97936    299.61285    -70.70526    37426.586 
  637400    291.15004   -1512.3369    477.35908    278.96673    313.19873    37426.586 
  637500    294.13688   -1492.1272    485.40704    320.70381    139.46514    37426.586 
  637600    305.65238   -1531.2917    477.35317    325.45425   -359.24739    37426.586 
  637700    312.31341   -1549.4995    501.00885    360.96303   -134.24408    37426.586 
  637800    299.68768   -1542.0369    509.92308    320.36062   -432.74967    37426.586 
  637900    309.50279   -1534.5034    475.82521    338.09134    11.132757    37426.586 
  638000    292.75579   -1496.5401    525.40496    350.05602    -428.4167    37426.586 
  638100    311.99634   -1497.5788    490.66325    401.10725   -162.86059    37426.586 
  638200    296.32212    -1464.307    526.12952    399.10838   -400.01295    37426.586 
  638300    295.72716   -1455.5367    499.15006    378.21419   -916.65667    37426.586 
  638400    302.01793   -1455.7688    516.49121     423.7131   -878.53892    37426.586 
  638500    305.96625   -1486.7043    499.06291    393.16791    11.340094    37426.586 
  638600    297.60158   -1507.6093    490.30527    325.75593    68.907388    37426.586 
  638700    303.01342   -1528.0349    496.63701    336.08542   -197.41195    37426.586 
  638800    291.63489    -1543.749    490.84713    263.23079    -282.0674    37426.586 
  638900    292.74907   -1537.3408    500.01099    283.83107    9.2951925    37426.586 
  639000    295.24155   -1515.8829    505.13449    321.66092    -585.9453    37426.586 
  639100    293.24894   -1507.7955    507.22428    322.84552    -69.49838    37426.586 
  639200    293.57183   -1491.4247     498.5258    331.97503   -470.32519    37426.586 
  639300    301.82763   -1507.8133    508.17153    362.49009   -446.87269    37426.586 
  639400    306.05147   -1479.5471    494.68255    396.32931   -291.06663    37426.586 
  639500    304.03185   -1473.4165    503.18185    401.84476   -495.70417    37426.586 
  639600    296.80345   -1485.6073    484.02359    337.87433   -451.56557    37426.586 
  639700      301.545   -1470.8183    490.45457    380.49262     14.78573    37426.586 
  639800    302.03082   -1473.3218    526.88032    416.60746   -531.92409    37426.586 
  639900    284.85616   -1457.7066    475.12808     302.9621   -420.48353    37426.586 
  640000    303.14898   -1450.2252    500.20533    418.07522   -267.63069    37426.586 
  640100    291.96505   -1429.9673    518.64031    406.29564   -266.98875    37426.586 
  640200     307.3593   -1467.3914     518.1784    437.88304    59.330424    37426.586 
  640300    302.01846   -1518.7042    494.15887    338.44778   -49.306325    37426.586 
  640400    296.75144   -1491.2627    498.55198     346.5126   -258.46779    37426.586 
  640500    308.81089   -1500.5926    493.80882    386.86322   -138.02317    37426.586 
  640600    310.73375   -1489.5134    510.25053    423.06189    372.43785    37426.586 
  640700      296.378   -1472.2475    500.70242    365.99292    578.22146    37426.586 
  640800    301.49791   -1457.3458    511.64656     414.9447    -264.3327    37426.586 
  640900    291.41969   -1476.6245    527.05757    365.59455   -152.16807    37426.586 
  641000    294.19745   -1526.5063    494.10471    295.29576   -694.19945    37426.586 
  641100    307.31456   -1486.2303    487.42987    388.09373   -274.16552    37426.586 
  641200    293.33366   -1482.7372    502.77848    343.84041   -374.35339    37426.586 
  641300    291.29559   -1507.5461    512.01858    319.07388   -511.64398    37426.586 
  641400      294.271   -1501.7136    489.94748    316.26317   -755.71241    37426.586 
  641500    300.39144   -1549.4837    499.51887    305.68561   -311.06987    37426.586 
  641600     288.1536   -1541.8843    495.47472    254.01221   -113.18528    37426.586 
  641700    311.72538   -1529.7231    485.27411    362.35097    205.95275    37426.586 
  641800    307.60584    -1506.033    509.81549    391.99115    216.00619    37426.586 
  641900    307.65745   -1521.2555    507.65835    374.84445    539.57721    37426.586 
  642000    293.84579   -1533.1059    510.48462    303.48901    261.33866    37426.586 
  642100    302.62064   -1495.5146    478.73885    348.93494    6.6116911    37426.586 
  642200    311.60886   -1460.6624    488.11958    433.73122   -69.105529    37426.586 
  642300    309.90073   -1453.1246    524.15783    469.59863    326.36444    37426.586 
  642400    293.01297   -1519.8969    491.71856    294.17346    40.978777    37426.586 
  642500    301.86611   -1507.6067    476.58995    331.28887   -95.398264    37426.586 
  642600    292.44944   -1509.0786     505.5143    316.24439   -359.28307    37426.586 
  642700    309.62928   -1485.4628    501.29669    413.17425    210.99301    37426.586 
  642800    296.58098    -1523.247    527.17313    342.38024   -140.67309    37426.586 
  642900    290.45829    -1514.078    507.29902    304.04371     329.3777    37426.586 
  643000    298.42909   -1428.6161    494.52333    412.70168   -305.09701    37426.586 
  643100    305.21417   -1478.5028    512.41004    411.32245    -81.94683    37426.586 
  643200    304.37115   -1479.7107    508.53767    402.43768    149.51479    37426.586 
  643300    297.66475   -1491.6524    489.92383    341.61654    -124.3153    37426.586 
  643400    296.16657   -1473.2328    513.59576    376.94678   -406.77194    37426.586 
  643500    294.02225   -1481.2374    499.81467    345.48391    184.86448    37426.586 
  643600     292.3656   -1493.3976    517.48244    343.51518   -438.98558    37426.586 
  643700    304.54048   -1476.7143    513.92915    411.58973   -284.83785    37426.586 
  643800    296.61071   -1437.2631    489.78261    391.10779   -925.32285    37426.586 
  643900    316.00469   -1453.2896     490.0411    462.86373   -151.48958    37426.586 
  644000    291.62236   -1467.7576    516.80644     365.1249   -50.243637    37426.586 
  644100    288.09334   -1424.8419     543.3077    418.61563    312.50103    37426.586 
  644200    306.86908   -1482.5342    513.14445    415.49394    423.98731    37426.586 
  644300    308.47211   -1460.3729    515.32853     447.0737    195.27931    37426.586 
  644400    291.48984   -1480.1361    531.26775    366.60966    239.28353    37426.586 
  644500    298.66205   -1479.5695    530.06374    398.34008    773.27173    37426.586 
  644600    311.12873   -1424.8164    489.21228    468.50322    435.41622    37426.586 
  644700     303.6814   -1462.6583    510.61646    418.45602    695.96427    37426.586 
  644800    290.13629   -1472.9399    529.81861    366.24824    218.12574    37426.586 
  644900    295.84692   -1499.1774    519.03074    354.99466   -119.81107    37426.586 
  645000    301.72047   -1474.0983     484.2653    371.81526    176.57473    37426.586 
  645100    291.89465   -1493.8068    479.22583    302.72392    63.438718    37426.586 
  645200     288.0438   -1471.5622    491.35005    319.71412   -515.50117    37426.586 
  645300    304.76952   -1481.9497    514.17111    407.62988   -227.09722    37426.586 
  645400    300.97316   -1496.3981    498.16057    360.03826   -181.20601    37426.586 
  645500     300.0804   -1543.7547    507.80565     318.2977    218.65715    37426.586 
  645600    297.50373   -1543.2046    496.12427    295.53807    378.99446    37426.586 
  645700    300.12553    -1517.823    509.17705    345.80452    403.84425    37426.586 
  645800    291.19352    -1528.087    488.06996     274.1237     176.2774    37426.586 
  645900    310.26337   -1537.3841    541.96104    404.77891    788.36431    37426.586 
  646000    290.26345   -1565.9483    464.80951    208.80466    654.66727    37426.586 
  646100    295.38327   -1538.5023    499.99622    294.54286    471.83204    37426.586 
  646200    285.91274   -1546.9436    504.32358    247.68882   -315.16463    37426.586 
  646300    297.98598   -1544.9666    494.89053    294.71866    278.52799    37426.586 
  646400     293.6643   -1548.8233    495.68605    272.15402   -327.27457    37426.586 
  646500    307.62424   -1563.1779    493.11817    318.23201   -315.84015    37426.586 
  646600    303.50093   -1542.2947     505.1903    332.57902    115.37833    37426.586 
  646700    307.58702   -1538.9026    515.87172    365.09283   -69.288955    37426.586 
  646800    308.22594    -1524.803     498.0031    364.20724    578.96332    37426.586 
  646900    293.62027   -1536.0635    507.92579    296.95485    259.56665    37426.586 
  647000    299.28383   -1522.7697    499.59951    327.48166    581.18996    37426.586 
  647100    310.02776   -1540.8646     522.1766    380.45068     60.26497    37426.586 
  647200    308.42497   -1551.6072    483.94019    324.23841   -328.41704    37426.586 
  647300    302.87879   -1526.9595    538.69474    378.61098    234.69305    37426.586 
  647400    294.51858   -1503.7294    487.10592    312.52314   -15.303483    37426.586 
  647500    305.14252   -1532.2101    495.05722    339.93903     91.78784    37426.586 
  647600    299.99967   -1560.2429    488.76506    282.40461   -145.22633    37426.586 
  647700    301.49616   -1542.6923    506.69206    324.63575    280.04647    37426.586 
  647800    291.59608   -1528.1209    516.45898     304.2956    611.50083    37426.586 
  647900    294.80539     -1516.11    489.57045    303.90134    649.76692    37426.586 
  648000    305.13473   -1561.2619    492.60724    308.40204    593.30269    37426.586 
  648100    303.50777   -1533.9067    522.10373    357.91135    118.35643    37426.586 
  648200    304.21289   -1541.2831    501.26139    332.87474     703.7394    37426.586 
  648300    285.50341   -1543.1929    505.47989    250.74858    908.57466    37426.586 
  648400    301.33314   -1536.0768    496.52909    320.35262    383.94074    37426.586 
  648500     308.6343   -1526.2416     479.1313    345.73971    437.32182    37426.586 
  648600    300.54088   -1519.9536    499.47935    335.85064    58.887808    37426.586 
  648700    300.01132   -1559.3896    481.71044    276.25585   -266.94203    37426.586 
  648800     297.1394   -1537.5588    512.99631    316.41172   -250.37824    37426.586 
  648900    302.31453   -1539.2273    490.38409    315.48605    -271.9321    37426.586 
  649000    293.68137   -1539.4401    514.70019    300.62843   -463.69739    37426.586 
  649100    293.76064   -1489.1799    487.64493    324.19104   -591.76264    37426.586 
  649200    293.47499   -1504.4172    491.84473    311.86438   -653.45267    37426.586 
  649300    300.16918   -1511.6412    502.56659    345.57284   -213.95721    37426.586 
  649400    305.49181   -1521.8582    508.79902    365.60895    39.674012    37426.586 
  649500    300.09388   -1530.4611    509.23022    333.07673   -130.50537    37426.586 
  649600    299.18382   -1569.4837    484.66938    265.38623   -492.40921    37426.586 
  649700    307.72892   -1584.6675    519.03282     323.1294    19.405434    37426.586 
  649800    291.41589   -1577.6706    517.85193    255.32557    641.43773    37426.586 
  649900    298.18709   -1573.1744    499.93906    272.46704    324.12317    37426.586 
  650000    290.33452   -1571.1754     497.4048    236.49351   -51.808294    37426.586 
  650100    294.84513   -1539.8506    498.65728    289.42701    544.99517    37426.586 
  650200    294.45453   -1512.3922    500.30356    316.76882    832.28873    37426.586 
  650300    304.61398   -1474.7515    516.31439    416.26952    1408.4858    37426.586 
  650400    302.39862   -1555.5695     533.0784    342.21766    689.37679    37426.586 
  650500    300.16171   -1530.8299     514.0263    337.81011    814.81888    37426.586 
  650600    302.36811   -1522.3365    502.28128    344.51588    667.28891    37426.586 
  650700    294.41313   -1525.4206    503.74467    306.99471   -430.63704    37426.586 
  650800     303.6185   -1521.8798    500.78249    349.11676    182.65525    37426.586 
  650900    301.08579   -1535.9166    482.09488    304.96229   -109.17908    37426.586 
  651000    301.31323    -1511.742    518.15363    366.22206   -24.399527    37426.586 
  651100    288.74292   -1470.6107    501.94004    334.41068    51.407373    37426.586 
  651200    296.60997   -1548.4941    497.16689    287.25765    618.23965    37426.586 
  651300    305.16325   -1505.2827    495.51368    367.41637    821.45066    37426.586 
  651400    300.45987   -1519.2768    509.71132    346.39375    484.36896    37426.586 
  651500    295.53254   -1545.5969    508.40235      296.528    768.73055    37426.586 
  651600    304.15857   -1547.8636    475.16383    299.95155     236.1624    37426.586 
  651700    300.79605   -1543.9858    524.56129    338.05192    651.42925    37426.586 
  651800     311.7926   -1551.7242    492.09815    347.47727    467.20836    37426.586 
  651900    307.25019   -1448.4761    529.12138    467.24895    501.47935    37426.586 
  652000      304.528   -1511.5428    506.33942    369.11516    354.36839    37426.586 
  652100    298.77893   -1495.3103    504.74756    357.81053    641.45047    37426.586 
  652200     290.7046    -1489.578     500.6352    322.99152   -321.89692    37426.586 
  652300    306.95757   -1517.4618    503.74233    371.56361    170.19263    37426.586 
  652400    305.01514   -1496.6435    482.40194    362.27546    103.24244    37426.586 
  652500    292.63505   -1528.7492    508.94044     300.8375   -601.44111    37426.586 
  652600    292.16552   -1600.7964    493.43973    211.17069   -347.26449    37426.586 
  652700    296.65233   -1492.4224    496.11104    342.46475   -481.97767    37426.586 
  652800    302.76357   -1473.8893    505.48005    397.94648    225.83103    37426.586 
  652900    303.28903   -1546.3009    518.27615    340.70239    26.184105    37426.586 
  653000    299.19124    -1492.967    494.11816    351.38519   -188.30748    37426.586 
  653100     302.9522   -1501.9446    529.21795    394.48046   -437.31239    37426.586 
  653200    295.81666   -1495.2858    503.63988    343.35882    -330.8576    37426.586 
  653300    292.86538   -1502.4916    499.94998     319.1441   -130.13446    37426.586 
  653400    306.46096   -1501.0507    501.51219    383.50334   -777.70281    37426.586 
  653500     293.7192   -1480.7702    485.04781    329.81656   -504.09563    37426.586 
  653600    306.12408   -1516.9406    522.24961    386.83056   -292.61951    37426.586 
  653700    299.19961   -1508.0571      490.069    332.28376   -277.33624    37426.586 
  653800    298.14829   -1489.9234    495.29083    350.89463   -329.08052    37426.586 
  653900    298.59534   -1457.5093    520.81795    410.85342   -287.92466    37426.586 
  654000    299.74832   -1467.9435    480.17565    364.98029   -37.876829    37426.586 
  654100    312.10845   -1518.9757    508.37083    397.92379   -86.489336    37426.586 
  654200    284.55083   -1500.5457    481.13243    264.74937    57.162975    37426.586 
  654300    288.39059    -1514.932    486.31729    272.87657    167.32078    37426.586 
  654400    307.53045   -1505.9791    515.90031    397.78963   -239.14621    37426.586 
  654500    289.09273   -1493.0003    490.57347    302.23314   -154.77958    37426.586 
  654600    298.15084   -1534.1715    518.23534    329.60262   -144.72177    37426.586 
  654700    300.43254   -1507.8953    515.36642    363.30711   -645.29393    37426.586 
  654800    301.06331    -1467.205    502.32867    393.80623   -365.81194    37426.586 
  654900     314.1753   -1486.9159    481.19225    412.13265    -491.6135    37426.586 
  655000     299.3227   -1482.0972    474.66322    343.39335   -737.61056    37426.586 
  655100    302.43565   -1507.5639    508.56559    365.87758    -532.8451    37426.586 
  655200    288.63932   -1542.4817     497.9815    258.11356   -43.882525    37426.586 
  655300    305.44088   -1515.0796    496.55324    359.91197    88.592606    37426.586 
  655400    288.26916   -1529.2764    473.02218    244.68907    192.71419    37426.586 
  655500    292.09831   -1557.5735    501.82605    262.47654    252.33179    37426.586 
  655600    291.90435   -1522.5632    491.11441    285.89988    55.073329    37426.586 
  655700    293.33059   -1466.3467    498.42641     355.8649   -268.34641    37426.586 
  655800    291.96696   -1507.2753    494.47263    304.82862   -178.51513    37426.586 
  655900     296.7924   -1495.3096    479.24287    323.34143   -15.780356    37426.586 
  656000    303.33978   -1459.5495    515.30856    424.71519   -491.49259    37426.586 
  656100    312.23036    -1457.471    500.86379    452.47172    263.11245    37426.586 
  656200    299.66427   -1497.3263    482.56607    337.60853   -152.42069    37426.586 
  656300    305.68195   -1476.1421    506.09986    409.48401    152.45429    37426.586 
  656400    288.41593   -1423.7972    507.81089    385.61934   0.10525592    37426.586 
  656500    299.99741   -1495.9277    490.32193    348.26647    173.58431    37426.586 
  656600    295.53987   -1452.6834    494.21193    375.28411    145.68969    37426.586 
  656700    299.47018   -1425.5828    496.42509    422.33516    335.67324    37426.586 
  656800    294.12705    -1435.756      506.603    398.22657    608.03892    37426.586 
  656900    302.86021   -1460.4231    507.26092    413.62972     287.4299    37426.586 
  657000    301.71477   -1500.6803    493.53024    354.47249    482.70585    37426.586 
  657100    305.41274   -1445.2414    495.19484    428.26478    466.23023    37426.586 
  657200    293.94327   -1477.3966    487.10248    336.25612    513.40789    37426.586 
  657300     306.4036   -1480.4406    507.92257    410.26499    584.62203    37426.586 
  657400    302.67778   -1499.5672    467.57707    333.97851    587.65879    37426.586 
  657500    295.26798   -1500.9118    488.15532    319.77206   -181.98353    37426.586 
  657600    301.41178   -1500.6153    468.77897     328.4189   -225.18632    37426.586 
  657700    295.00735   -1495.6575     492.8956    328.59046   -14.189231    37426.586 
  657800    296.45057   -1517.0753    511.21246    332.00274    -108.6559    37426.586 
  657900    307.11187   -1530.1044    496.64768    352.52267   -67.228201    37426.586 
  658000    292.21737   -1473.9594     500.9332    345.73513   -251.55735    37426.586 
  658100    302.30628   -1474.7073    490.79912    380.38384   -88.573436    37426.586 
  658200    285.07762   -1500.1519    500.07812    286.46625    386.96066    37426.586 
  658300    310.32486   -1529.5626    482.29994     353.2168    352.07573    37426.586 
  658400    306.93084   -1480.4279    479.12939    383.86387   -103.57201    37426.586 
  658500    302.95314   -1484.0688    506.75304    389.89549   -408.07398    37426.586 
  658600    305.55597   -1493.9983    494.28857    379.24801   -338.46212    37426.586 
  658700    286.35796   -1421.4439    524.66182    395.53606    3.4966863    37426.586 
  658800    303.96045   -1462.6263    471.85529    380.98618    67.437074    37426.586 
  658900    306.89697   -1465.7143    499.80491    419.10017    841.36705    37426.586 
  659000    308.29805   -1451.8876    510.20747    449.65247    164.28352    37426.586 
  659100    299.92976   -1473.9315    493.07222    372.70764   -570.36721    37426.586 
  659200    301.81088   -1472.2845    521.00954     410.7814    177.75149    37426.586 
  659300    304.73668   -1436.3009    507.88824    446.84765    503.06897    37426.586 
  659400    307.88369    -1513.052    504.81838    381.22902   -287.86914    37426.586 
  659500    296.82253   -1464.5093    503.27314    378.30799    -59.97504    37426.586 
  659600     307.3299   -1478.1598    467.54137    376.34493   -451.16774    37426.586 
  659700    299.60307   -1511.5095     485.7975    326.38056   -556.46616    37426.586 
  659800    302.52231   -1511.7856     502.3231    355.80444   -305.50711    37426.586 
  659900    295.35772   -1454.0349    493.62719     372.5258   -118.92183    37426.586 
  660000    295.92383   -1463.8461    493.25919    364.90151   -230.51595    37426.586 
  660100    304.00329   -1485.1503    504.16463    390.96492   -6.5423832    37426.586 
  660200    305.76324   -1490.4718    504.91521    394.33655   -37.964138    37426.586 
  660300    293.11925   -1467.6942    499.33106    354.46834   -91.138143    37426.586 
  660400    309.52413   -1447.2165    501.24153     450.8908   -119.96095    37426.586 
  660500     293.6261   -1465.1344    511.96789    371.95232   -648.18416    37426.586 
  660600    306.29363   -1450.4068    508.52594    440.40588    267.80005    37426.586 
  660700    299.38844   -1495.1933    473.09081     329.0215    372.49433    37426.586 
  660800    307.45278   -1472.8437    496.65213    411.32636    345.36003    37426.586 
  660900    304.89258   -1448.5439    495.27084    422.69076   -564.43489    37426.586 
  661000     296.5527   -1448.1937     511.7007    401.83346   -570.62743    37426.586 
  661100    304.54345   -1465.5205    518.58912     427.4569   -660.62841    37426.586 
  661200    314.25769   -1484.5152    480.94598    414.65885   -400.90206    37426.586 
  661300    297.61477   -1495.5562    508.23535    355.79862   -270.70247    37426.586 
  661400    300.31603   -1501.0647    491.42854    345.67395   -213.21546    37426.586 
  661500    304.76262   -1512.0265    517.79799    381.14883   -84.957045    37426.586 
  661600    297.05699   -1481.3424    466.44598     325.7058   -352.69712    37426.586 
  661700    300.99589   -1460.8213    499.85332    397.41033   -452.41072    37426.586 
  661800     311.0378   -1457.8596    500.69595    446.53329   -74.227142    37426.586 
  661900     310.7297   -1452.8487    513.75932    463.21705   -55.529475    37426.586 
  662000    294.92376   -1454.1356    487.79351    364.63304   -6.0106931    37426.586 
  662100    300.32698   -1483.4856    511.13677    383.01075   -182.78906    37426.586 
  662200    306.27959   -1497.7383     493.1903    377.67538    197.66219    37426.586 
  662300    291.22338   -1494.9727    485.38038    304.68324    734.65196    37426.586 
  662400    288.94871   -1521.1015    513.61209    296.52062    835.35374    37426.586 
  662500    304.65279   -1466.2608    504.74691     413.3678    77.189586    37426.586 
  662600    294.73621   -1422.3951     510.9804    418.71403   -336.75963    37426.586 
  662700    293.35804   -1457.7067    476.22671    342.42916   -495.73629    37426.586 
  662800    301.94011   -1458.1824    500.10861    404.56576    22.063798    37426.586 
  662900    297.43336    -1440.745    485.92979    387.48558     155.8476    37426.586 
  663000    297.98571   -1486.3993    464.46449    322.85872    469.22976    37426.586 
  663100    301.77384   -1474.4868    481.31788    368.72023   -111.19453    37426.586 
  663200    304.97505   -1473.1123     480.6439    383.86765    123.81628    37426.586 
  663300    302.22829   -1482.8575    488.96266    370.04524    -129.2218    37426.586 
  663400    288.93296   -1474.1375    493.45903    323.26053    15.622704    37426.586 
  663500    302.33513   -1432.5406    524.24016     456.1218     276.2303    37426.586 
  663600    291.09773   -1451.9953    508.25398    369.96713   -43.741082    37426.586 
  663700    305.56746   -1422.0167    525.04636    482.03929   -497.24557    37426.586 
  663800    310.91836   -1450.9624    522.14816    474.34361    29.289954    37426.586 
  663900    293.97786   -1459.9158    530.36726    397.15777   -453.96329    37426.586 
  664000    300.42352   -1466.6274    490.22849    379.39636   -740.62194    37426.586 
  664100    303.79433   -1430.4087    521.38778     461.9866    -654.5688    37426.586 
  664200    295.08526   -1439.7423    483.41099    375.37264   -316.88426    37426.586 
  664300    296.06594   -1444.9476    498.57877    389.76089    4.1283556    37426.586 
  664400    305.59499   -1445.9126    521.21704    454.43823    457.61992    37426.586 
  664500    293.29706   -1478.4832    474.56002    319.71074    249.14109    37426.586 
  664600    302.09757   -1458.8084    534.75297    439.29473   -495.41591    37426.586 
  664700    298.41897   -1455.5628    480.12102    371.30702    193.66704    37426.586 
  664800     298.3561   -1453.2402    507.09168    400.31658   -152.96193    37426.586 
  664900    290.77734   -1487.9482    489.80992    314.12424   -24.481037    37426.586 
  665000    303.81254   -1459.0897    505.22085     417.2209     63.69317    37426.586 
  665100    311.00089   -1470.9783    488.41909    420.97112    443.60492    37426.586 
  665200    306.52747   -1443.0249    501.69657    442.01373    354.44559    37426.586 
  665300    293.55096   -1447.3685    497.75981     375.1711    258.69864    37426.586 
  665400    308.58724   -1463.6563    486.97425    415.95561    754.88239    37426.586 
  665500    292.34792   -1449.3858    506.75696    376.72164    96.604123    37426.586 
  665600     291.7521   -1463.5912    478.79025    331.86062    139.94892    37426.586 
  665700    299.06599   -1461.4323    502.72192    390.95842    267.57929    37426.586 
  665800    298.39708    -1489.709    475.55699    332.49805   -42.035854    37426.586 
  665900    308.44947   -1465.1615    518.77835    445.63276    282.47503    37426.586 
  666000    309.00751   -1476.5594    475.11009    393.08504    77.952853    37426.586 
  666100    306.99482   -1489.6694    480.66976    376.45149   -139.34433    37426.586 
  666200    311.42706   -1475.8154    514.07646    443.71466    554.51889    37426.586 
  666300    315.47555   -1500.7327    462.04697    385.03847   -20.256086    37426.586 
  666400    315.95633   -1496.3517    470.39161    399.93388     9.304725    37426.586 
  666500    292.29587    -1473.643    495.43205    340.90469   -287.17604    37426.586 
  666600    304.70897   -1480.1828    485.83378    380.78621    -33.40301    37426.586 
  666700    304.07196   -1485.0113    521.04296    408.29214   -7.1250775    37426.586 
  666800    291.79504   -1475.3479    502.87187    344.37933    365.42476    37426.586 
  666900    292.65337   -1465.1493    500.45269    356.03241    20.583888    37426.586 
  667000     302.5222   -1476.1367    510.95798    400.08773    659.14227    37426.586 
  667100    298.16676   -1482.6222    484.85239    347.84084   -151.45593    37426.586 
  667200    293.30992   -1462.0648    498.91755    360.54474    432.75572    37426.586 
  667300      303.117   -1482.0577    499.89319    385.78622      249.412    37426.586 
  667400    309.36096   -1464.5662    491.17023    422.73345    545.31707    37426.586 
  667500    308.75307   -1455.3238    493.33766    431.39995    348.58287    37426.586 
  667600    291.18053   -1532.7173    507.03221    288.39699    167.26803    37426.586 
  667700    297.93256   -1447.7863    487.52166    384.28903    37.448819    37426.586 
  667800    293.79182   -1446.4433    500.70179    380.12524   -113.44384    37426.586 
  667900    308.07076   -1466.6297    501.50502    425.18218    522.51611    37426.586 
  668000    295.56867   -1457.5738    501.53261    377.84437    162.62136    37426.586 
  668100    312.71388   -1463.9826     500.4556    447.73398    242.14364    37426.586 
  668200    293.20767   -1483.3999    487.34558    327.17619   -45.835115    37426.586 
  668300    304.70488   -1477.0785    518.15659    416.19492    116.83388    37426.586 
  668400    308.20686   -1452.8676    520.64627    458.69975     276.5682    37426.586 
  668500    293.37724   -1458.5105    511.01402    376.49929    586.34738    37426.586 
  668600    301.36802   -1452.2148    508.93172    416.77468     509.5125    37426.586 
  668700    302.52008    -1445.554    488.48554    408.18845    728.39813    37426.586 
  668800    302.29438   -1474.3099    515.81797    405.74637    299.92671    37426.586 
  668900    298.16893   -1446.4208      491.417    390.61664    280.50125    37426.586 
  669000    283.80926   -1507.1371    483.75602    257.43492   -232.95472    37426.586 
  669100    295.46595   -1466.5464    522.43619    389.31184   -594.95278    37426.586 
  669200    307.09353   -1457.7491    497.37105    425.51864   -15.287112    37426.586 
  669300    303.88856    -1509.589    486.87753    348.72137    172.92283    37426.586 
  669400    298.45817   -1494.3595    493.77798     346.3442    303.71752    37426.586 
  669500    306.41516   -1494.6332     472.5562    360.75815   -404.67042    37426.586 
  669600    290.69565   -1528.7333      469.245    252.40556      -179.21    37426.586 
  669700    298.41978   -1425.2336    491.33444    412.85337   -551.46976    37426.586 
  669800    290.40434    -1475.869    489.33892    324.04911   -587.72789    37426.586 
  669900    296.43451   -1482.3828    487.09498    342.50527   -781.45281    37426.586 
  670000    303.74239   -1466.8674    477.33561    381.24134   -258.24466    37426.586 
  670100    304.17421   -1486.4535    483.06328    369.33172   -435.15119    37426.586 
  670200    293.76659   -1510.0293    474.72606    290.44968   -80.663844    37426.586 
  670300    294.38957   -1535.2072    458.68308    252.04022    352.18902    37426.586 
  670400    307.03695   -1526.9882    481.97111    340.62419    264.67698    37426.586 
  670500    299.66044    -1499.691    488.60522    341.26574    479.86568    37426.586 
  670600    293.53039   -1502.5519    464.24828    286.38331    783.12775    37426.586 
  670700    302.18463   -1463.5955    499.42035    399.56789    746.88554    37426.586 
  670800    297.47936   -1470.5292    465.19707    337.17627    591.03987    37426.586 
  670900    305.69166   -1496.7957    497.35082    380.12526    427.42196    37426.586 
  671000    313.77363   -1491.7276    476.15605    400.47198    401.17981    37426.586 
  671100    293.16881   -1483.9243    472.33654     311.4674    450.10536    37426.586 
  671200    295.32284   -1520.9017    493.48041    305.35489   -308.64899    37426.586 
  671300    294.86838   -1501.2979    487.99972      317.427   -648.30446    37426.586 
  671400    291.14089   -1481.3678    467.09777    299.63319   -332.39443    37426.586 
  671500    296.12044   -1468.2205    475.83024    343.98543   -589.39132    37426.586 
  671600    295.07439   -1468.9898    500.15319    362.81837   -324.94743    37426.586 
  671700    295.64016    -1464.794    479.99699     349.4112   -545.12231    37426.586 
  671800    300.03886   -1476.1403     507.3284    385.24736   -292.82194    37426.586 
  671900    298.60688   -1501.7392    436.39418    282.25188   -830.91505    37426.586 
  672000    305.25474   -1469.5583    496.85131    404.89132   -348.46265    37426.586 
  672100     306.9276   -1455.4424     482.1379    411.84335   -311.89914    37426.586 
  672200    291.73995   -1451.2986    471.87578    337.18395    124.48483    37426.586 
  672300    301.60125   -1472.8583    464.84898    353.10097   -55.021976    37426.586 
  672400    292.26049    -1500.092    494.44013    313.30403   -144.69415    37426.586 
  672500    304.40295   -1481.3695    480.37395    372.75864    211.12836    37426.586 
  672600    293.08774   -1470.2181    492.50226    344.97347    642.22942    37426.586 
  672700    306.21502   -1496.8795    480.43999    365.49245    484.60784    37426.586 
  672800    304.07052    -1489.256    507.35492     390.3529    1285.8393    37426.586 
  672900     288.3811   -1503.9212    506.49568    304.02289      452.316    37426.586 
  673000     294.0522   -1463.0741    484.54313     348.5108   -280.23238    37426.586 
  673100    294.87694   -1460.9627    474.79614    344.59725   -266.28274    37426.586 
  673200    299.43089   -1460.8336    476.34615    366.82811   -304.13777    37426.586 
  673300    290.68257   -1476.0292    471.04779    306.85346   -121.70869    37426.586 
  673400    291.01873   -1461.3401    481.72989    333.74174   -56.874072    37426.586 
  673500    297.50159   -1468.1607    485.63816    360.08624    237.95844    37426.586 
  673600    294.01684   -1476.3431     490.1317    340.67084    184.98905    37426.586 
  673700    312.14753   -1473.8451    465.33125    400.19116    659.98484    37426.586 
  673800    303.30193   -1402.7975    480.62447    446.61233    1242.2309    37426.586 
  673900    308.63279   -1457.8125    473.43033    408.46105    1114.4404    37426.586 
  674000    302.27913   -1461.6806    495.52258    398.01156    820.29012    37426.586 
  674100    293.13089    -1485.948    478.89505    315.83105    740.24556    37426.586 
  674200    306.24845   -1448.2172    479.73869    413.60433    438.42757    37426.586 
  674300    308.64792   -1460.5052    475.79823    408.20462    239.94255    37426.586 
  674400    305.35407   -1473.1653    480.96455    385.84578    121.37662    37426.586 
  674500    299.05929   -1466.2316    495.73886    379.14582    -63.32209    37426.586 
  674600    310.37762   -1450.2683    479.62335    430.07266    607.34143    37426.586 
  674700     293.2475   -1481.0097    479.31416    321.71473    464.51551    37426.586 
  674800    290.11017   -1475.3963    489.80586     323.6612    353.68067    37426.586 
  674900    310.66082   -1497.8306    474.39565    378.56073    139.73163    37426.586 
  675000    302.13748   -1506.4636    496.92897    353.99568   -85.715786    37426.586 
  675100    308.07906   -1440.5543    491.44847    441.23852    350.28297    37426.586 
  675200    298.78404   -1494.8034     464.5238    318.11671    274.12573    37426.586 
  675300    289.88005   -1443.7882    485.85682     350.2818   -165.71178    37426.586 
  675400    295.17151   -1479.6137    481.31943    333.79891    -349.5755    37426.586 
  675500    307.85105   -1473.4274    470.94531    386.83321   -350.01601    37426.586 
  675600    306.17339   -1463.9415    499.25616    417.05877     -195.606    37426.586 
  675700    299.30985   -1442.1161    497.24524    405.89848   -366.07606    37426.586 
  675800    307.08121   -1453.3839    463.62976    396.08688   -90.253772    37426.586 
  675900    294.96593   -1476.7372     495.8998    350.32803   -427.83554    37426.586 
  676000    297.28208   -1487.7182    480.49549    334.39532   -141.97661    37426.586 
  676100    308.99943   -1473.2194     488.0798    409.35831   -172.02297    37426.586 
  676200    299.86315   -1456.0417    495.45672    392.68133   -32.841986    37426.586 
  676300    288.39278   -1483.2586    494.80131    313.04384    -135.5631    37426.586 
  676400    294.55477   -1527.8183    483.18269    284.67427    6.3840665    37426.586 
  676500    308.07145   -1521.7713    461.82551    330.36417    353.28388    37426.586 
  676600    300.66911   -1513.5342    470.69759    314.06704    -432.2418    37426.586 
  676700    301.81705    -1506.495    486.63072    342.21982   -233.05044    37426.586 
  676800    311.33715   -1536.4442    466.85294    335.45658   -111.85863    37426.586 
  676900    296.13866   -1518.9391    469.65688    287.17568    43.521657    37426.586 
  677000    293.14034   -1512.7531    462.45668    272.63021    78.043207    37426.586 
  677100     311.5141   -1531.9411    475.51577    349.42108    374.81469    37426.586 
  677200    291.65609   -1527.8375    463.98604    252.37689    458.98083    37426.586 
  677300    298.01596   -1479.2564    477.15702    342.83066    104.29156    37426.586 
  677400    304.94495   -1475.4063    467.35995    368.15384   -394.95478    37426.586 
  677500    301.48435   -1491.6369    444.99968    313.94547   -154.73503    37426.586 
  677600    303.19603   -1459.5073    484.50386    393.30401   -470.38653    37426.586 
  677700    299.05716   -1447.1959     471.7696    374.20267    -327.1721    37426.586 
  677800    295.88882   -1488.5422    454.92061    301.70883   -732.05116    37426.586 
  677900    302.02538   -1455.8343    484.65883    391.84884   -54.266894    37426.586 
  678000    303.90975   -1488.2514     463.5689    346.84593   -32.527985    37426.586 
  678100    300.62737   -1480.5118    498.40172    374.60508   -257.05393    37426.586 
  678200    296.13327   -1501.6516    471.57125    306.35329    144.46496    37426.586 
  678300    314.17327    -1428.511    465.80381    455.13997    352.97543    37426.586 
  678400      293.268   -1458.8909    481.08009     345.6919    114.11418    37426.586 
  678500     296.8707   -1435.7769     483.7588     387.7434   -2.6144419    37426.586 
  678600     296.5726   -1451.3111    482.67591    369.78106   -698.34184    37426.586 
  678700    291.72234   -1446.8287    503.51859    373.21718   -306.46622    37426.586 
  678800    285.50316   -1451.9625    485.68364    322.18159   -125.23856    37426.586 
  678900    298.67138    -1414.466    487.83654    421.25847   -126.40451    37426.586 
  679000    312.82117   -1465.6526    489.31659     435.4092   -406.04214    37426.586 
  679100    295.22676   -1420.9784    500.99347    412.35757   -264.07419    37426.586 
  679200    299.25827   -1441.8107    491.43074    400.15658   -103.33534    37426.586 
  679300    292.01669   -1459.5463    487.80581    346.11522    979.12349    37426.586 
  679400    303.88081   -1429.5373    487.51582    429.37631    511.29403    37426.586 
  679500    302.03581   -1426.1105    476.08419    413.04516    599.56663    37426.586 
  679600      305.275   -1446.0516    491.65051    423.28859    812.67142    37426.586 
  679700     302.6342   -1494.6283    495.75214    366.89579    541.48438    37426.586 
  679800    296.51598   -1436.6856    480.61676    382.09186    122.08637    37426.586 
  679900    308.40161   -1413.8932    485.95364    463.86034   -158.96721    37426.586 
  680000    301.63033   -1419.6993    501.78628    443.32855   -380.75972    37426.586 
  680100    295.60827   -1433.2055    474.09339    374.95216    -628.6149    37426.586 
  680200    293.35993   -1474.0006     483.9577    333.87477   -367.60494    37426.586 
  680300    300.98265   -1437.5255    479.86189    400.65493    -644.9813    37426.586 
  680400    302.41934   -1452.2941     469.6928    382.20098   -156.86743    37426.586 
  680500    303.39332   -1458.4218    485.97999    396.75594   -39.847318    37426.586 
  680600    298.21851   -1438.6483    484.70134    391.89716   -539.30781    37426.586 
  680700    290.84328   -1439.7669    446.85426    319.64748   -480.85049    37426.586 
  680800    309.53152   -1480.8941    471.29651    387.30152   -739.70317    37426.586 
  680900    301.38744   -1499.4155    498.20945    358.93932   -635.84134    37426.586 
  681000    303.97918   -1491.1665     473.6734     354.3487   -438.59326    37426.586 
  681100    296.13324   -1477.3887    488.47894    347.52373    -390.0224    37426.586 
  681200    305.02158     -1482.42    480.65045    374.77646    93.059578    37426.586 
  681300    298.43069   -1489.7097    487.30471    344.39672    15.672505    37426.586 
  681400    301.12025   -1449.9852    508.91178    417.86612    226.74958    37426.586 
  681500    302.32221   -1503.8033    496.01829    356.57897   -187.43875    37426.586 
  681600     291.3008   -1511.1492    453.77205    257.24772   -119.07637    37426.586 
  681700    305.53936   -1473.0768    481.78226    387.58825   -444.70465    37426.586 
  681800    294.35368    -1493.836    488.97588    323.54222    54.794913    37426.586 
  681900     300.3609   -1486.8892    462.97291    331.59633   -481.34431    37426.586 
  682000    303.02044   -1466.0327    507.19889    408.68121   -267.59267    37426.586 
  682100    292.96486   -1493.2726    478.96651    307.82858    455.35166    37426.586 
  682200    293.14772   -1503.3056    489.51079     309.1651    232.67272    37426.586 
  682300    292.16313    -1488.426    486.68673    316.77729    457.69887    37426.586 
  682400    284.29942   -1441.7086    486.08766    327.40717   -27.409724    37426.586 
  682500    304.52108   -1503.5406    443.37144    314.11815   -32.652695    37426.586 
  682600    302.49547    -1477.535    499.72413    387.33503   -479.22171    37426.586 
  682700    301.78773   -1487.4668    471.55009    346.03515    -84.90587    37426.586 
  682800    300.84224   -1465.3615    485.66588     377.9893   -1.3657121    37426.586 
  682900    308.23112   -1466.6797    493.96281     418.3136   -197.61566    37426.586 
  683000    310.73519   -1492.3349    470.40104    380.39745   -659.94639    37426.586 
  683100    294.54615   -1479.8855    485.51356    334.89906   -129.11115    37426.586 
  683200    297.29915   -1452.7333    470.31426    359.27604    -347.7573    37426.586 
  683300    295.23412   -1452.8647    496.64133    376.15238    120.80057    37426.586 
  683400     301.7775   -1417.1676    509.41008     454.1482   -570.46449    37426.586 
  683500    299.83833   -1451.9281     463.7675    364.99372    490.48484    37426.586 
  683600     296.4647   -1441.4857    499.02855    395.47213    265.92287    37426.586 
  683700     301.3454   -1440.2057    494.61771    414.36767   -140.24188    37426.586 
  683800    301.93154      -1441.5    499.72441    420.82526    340.28172    37426.586 
  683900    305.22416    -1437.428     498.2407    438.27293    526.63766    37426.586 
  684000    305.99872   -1427.6432    521.18081    474.49343    562.89283    37426.586 
  684100    305.82035   -1445.5629    476.73354    411.32153    363.91473    37426.586 
  684200    299.78271   -1462.9061    462.90497    352.90215    82.089452    37426.586 
  684300     299.3994   -1461.8028    458.18151    347.55219     968.4805    37426.586 
  684400    301.46677    -1443.897     515.5616    432.16797    662.40138    37426.586 
  684500    300.05095   -1466.0674     476.8308    364.87721    31.573609    37426.586 
  684600    298.32235    -1464.703    486.93413    368.54393    142.72824    37426.586 
  684700    304.84416   -1471.4252    477.16145    381.48163   -318.12244    37426.586 
  684800    302.07665   -1486.5362    476.63715    353.35669   -273.81079    37426.586 
  684900    305.46996   -1510.6357    482.97306    350.90694    202.46935    37426.586 
  685000     290.0686   -1490.9499    488.98632    307.10043   -295.33497    37426.586 
  685100    305.24565   -1454.7993    501.70026    424.45824     300.8349    37426.586 
  685200     299.3945   -1461.7348    489.80329    379.21982   -160.61274    37426.586 
  685300    295.72503   -1487.5639    501.45574      348.483   -567.69211    37426.586 
  685400    305.84541   -1502.1249    459.93188    338.07099   -785.26429    37426.586 
  685500     294.6265   -1477.6916    503.52849    355.47045   -512.37464    37426.586 
  685600    297.27126   -1495.7455    465.93497    311.75873   -475.26093    37426.586 
  685700    298.39086   -1488.2747    489.52944    347.87667    118.78077    37426.586 
  685800    296.76481   -1488.5643      473.873    324.59236    333.53723    37426.586 
  685900    300.70102   -1482.7382     503.2713    377.58066    146.45647    37426.586 
  686000    310.26957   -1459.4391     480.4552    421.24603    172.04774    37426.586 
  686100    292.17162   -1470.8353    489.80477    337.52432    496.41473    37426.586 
  686200    305.09679   -1489.4387     490.3362    377.78301   -127.59017    37426.586 
  686300    303.37736   -1451.2845    483.61903    401.46032    91.548721    37426.586 
  686400    301.96555   -1461.5833    497.14357    398.31465   -74.125279    37426.586 
  686500    296.72621   -1492.9367    480.84247    327.01529   -114.04784    37426.586 
  686600    309.82532   -1484.5442    488.20152     401.8824    214.27682    37426.586 
  686700    293.71437    -1501.152    502.85883    327.22407    591.63043    37426.586 
  686800    284.61137   -1447.6527    493.16608    329.94923    1081.1673    37426.586 
  686900    301.12746   -1455.6925    499.87867     403.1583    471.62224    37426.586 
  687000    297.16007   -1517.4173    478.37037    302.02057    38.717523    37426.586 
  687100    305.95394   -1489.0268    482.05553    373.78249    300.49446    37426.586 
  687200    290.58303   -1482.5735    488.47968    317.29188   -592.62959    37426.586 
  687300    311.69949   -1472.4912    491.21953    425.41148    415.78893    37426.586 
  687400    301.89514   -1478.3823    505.49293    389.54717   -814.26966    37426.586 
  687500    307.27311    -1521.052     489.3453    355.00034   -790.79909    37426.586 
  687600    305.32103   -1484.4871    466.64836    360.05872    -656.0202    37426.586 
  687700    301.49855   -1504.3298     464.0382    320.35525   -248.39686    37426.586 
  687800    297.29503   -1477.8947    470.00791    333.78977   -166.47985    37426.586 
  687900    302.64247   -1484.8736     492.8756    373.81125     350.0631    37426.586 
  688000    292.64928   -1460.2522    484.19924    344.65755    77.375312    37426.586 
  688100    299.19997   -1457.1854    470.49466     363.5827   -415.12252    37426.586 
  688200    303.74181    -1441.475    495.91284    425.20839   -339.38545    37426.586 
  688300    307.10601   -1419.1285    496.90073     463.7252    140.52629    37426.586 
  688400    299.21086   -1456.3249    510.56261    404.56028   -340.62875    37426.586 
  688500    306.44392   -1469.8701    505.16801    418.26285   -87.260301    37426.586 
  688600     312.0979   -1493.8461    468.13642    382.77138   -170.48574    37426.586 
  688700    296.42398   -1484.6408    500.84145    353.94622   -125.48781    37426.586 
  688800    306.94133   -1484.9201    490.47668    390.76638    261.74702    37426.586 
  688900    299.57481   -1499.0065    495.17968    348.13827    511.30583    37426.586 
  689000    296.79045   -1478.8756    489.11913    349.64289     446.3331    37426.586 
  689100    303.39893   -1478.9843     469.9964    360.23525    149.70638    37426.586 
  689200    292.65441   -1456.3551    487.84531    352.22392   -352.15627    37426.586 
  689300    300.67268   -1491.5987    497.28455    362.60555   -260.61628    37426.586 
  689400    308.63652   -1508.9005    482.05629    366.01592    235.59306    37426.586 
  689500    290.52371   -1542.6726    462.63815    231.08349    338.41846    37426.586 
  689600    292.79672   -1523.9352    492.92012    290.36083    73.297059    37426.586 
  689700    304.29548    -1491.346    481.80989     363.7331   -519.58477    37426.586 
  689800    295.74465   -1457.7919    469.57451    346.46242   -1031.7226    37426.586 
  689900     294.0272   -1527.5711    466.56989    265.92785   -883.44883    37426.586 
  690000    310.19201    -1518.323    461.00815    342.56512   -831.15974    37426.586 
  690100    296.41269   -1507.5838    499.96119    330.07204   -447.07119    37426.586 
  690200    305.26147   -1466.3665     486.8244    398.08651   -32.771199    37426.586 
  690300    297.47078   -1438.0157    485.21859    389.67253    9.9487149    37426.586 
  690400    296.61702   -1472.5422    519.12257    385.19707    206.56473    37426.586 
  690500    297.71519   -1469.1603    489.38889    363.80129    6.3619279    37426.586 
  690600    305.55103    -1453.405    502.66313    428.19353    327.39043    37426.586 
  690700    289.52959   -1486.9291    482.55908    302.26148   -262.18191    37426.586 
  690800    299.63426   -1494.9968    494.18164    351.41821   -256.86458    37426.586 
  690900    310.83552    -1463.149    508.21514    447.85024   -158.21489    37426.586 
  691000    300.56081   -1517.5023    475.73538    314.64795    128.08673    37426.586 
  691100    307.20346   -1499.4863    498.91486     385.8213    478.35527    37426.586 
  691200    303.71174   -1480.7048    480.36372    370.29371   -28.163649    37426.586 
  691300    300.35062   -1447.0968    485.56157    393.93101    886.13251    37426.586 
  691400    304.30572   -1432.4549    493.26727    434.12782    730.34403    37426.586 
  691500    294.63668   -1458.8646    503.00173    373.81668     378.7727    37426.586 
  691600    300.62124   -1451.4173    509.97994    415.25019    846.25604    37426.586 
  691700    294.34615   -1498.3164    483.84368    313.89565    252.87591    37426.586 
  691800    287.89707    -1458.363    502.78325    343.68428    835.21607    37426.586 
  691900    297.96292   -1497.9597    486.64319    333.37421    523.91679    37426.586 
  692000    307.02591   -1493.0551    521.99883    414.53523    537.06216    37426.586 
  692100    308.35421   -1478.3449    496.11722    409.35838   -338.14632    37426.586 
  692200    292.54363   -1488.1395    472.68867    304.78284   -940.65982    37426.586 
  692300    298.41327   -1466.0589    494.63684    375.30107   -455.01456    37426.586 
  692400    310.18775   -1528.1933    473.83001    345.49741   -401.53768    37426.586 
  692500     301.8297   -1516.0289     488.3338    334.44621   -155.49279    37426.586 
  692600    309.11133   -1509.2212    476.52301    362.30472    358.76535    37426.586 
  692700    287.79589   -1493.9403    492.35722    297.22436   -319.45437    37426.586 
  692800    303.62559   -1487.6373     483.6535     366.2622   -258.40473    37426.586 
  692900    288.26922   -1499.4829    506.75053    308.21114    101.44892    37426.586 
  693000    308.08899   -1558.1985     478.3136    310.50422    103.70567    37426.586 
  693100    300.03698    -1522.418    461.19825    292.83105    203.66002    37426.586 
  693200    305.05792   -1541.7961    515.26164    350.17563    125.66212    37426.586 
  693300    296.75879   -1499.3543    482.08764    321.98988    86.025809    37426.586 
  693400    303.87095   -1539.7113    488.40503    320.04701   -202.16887    37426.586 
  693500    283.75957   -1521.6282    528.96148    287.92503   -60.300096    37426.586 
  693600    305.41433   -1500.9922    508.18349    385.50979    35.351494    37426.586 
  693700    294.46381   -1516.0091    492.48405    305.37434    439.51228    37426.586 
  693800    305.57237   -1484.0394    492.30177    387.29415    1090.6603    37426.586 
  693900    294.27148   -1526.7118    491.40476    292.72442    495.30522    37426.586 
  694000    294.17565   -1516.9777    482.14292    292.76416    485.75925    37426.586 
  694100    296.70264   -1524.6407     500.9024    315.26486    874.27376    37426.586 
  694200    301.81773   -1521.1887    492.43357    333.33216     660.8415    37426.586 
  694300    294.16961   -1532.7166    493.71434    288.56941    506.34029    37426.586 
  694400     291.1307   -1550.5584    478.15376    241.45263    299.29338    37426.586 
  694500    299.92801   -1597.4857    487.12184    243.19518    421.90169    37426.586 
  694600    297.69553   -1547.5989    488.20432    284.08937    760.83213    37426.586 
  694700    303.61284   -1506.2591    513.14128    377.07066    435.59759    37426.586 
  694800    306.18928   -1514.4017    500.72746    368.14162    330.19717    37426.586 
  694900    287.32945    -1523.314    457.69018     231.0786    154.03638    37426.586 
  695000    306.59843   -1500.0997    494.56936    378.13194   -117.40136    37426.586 
  695100    295.92308   -1507.0138    454.87074    283.34192   -803.02397    37426.586 
  695200     297.4558   -1512.8953    470.96602    300.47281    -1085.399    37426.586 
  695300     304.5633   -1515.4369    476.94135    335.98235    217.59966    37426.586 
  695400    293.56842   -1523.8953    488.26282    289.22602   -221.15498    37426.586 
  695500    302.04976   -1502.0837    485.74329    346.79403   -283.58116    37426.586 
  695600     301.5616   -1509.7455    460.65408    311.83989   -177.20707    37426.586 
  695700    292.80489   -1518.2464    474.99608    278.16244   -120.84259    37426.586 
  695800    292.97409   -1519.1531     486.8881    289.91134   -110.65866    37426.586 
  695900    291.60865   -1500.3688    464.76888    280.41431   -103.61809    37426.586 
  696000    292.86124   -1484.5039    472.53732    309.70054   -13.497542    37426.586 
  696100    307.08514   -1519.5399     496.9124    363.23129    105.66901    37426.586 
  696200    304.20183   -1496.9442    486.40529    362.30768    400.22747    37426.586 
  696300    296.07772   -1476.3575    509.31497    369.14038    109.84273    37426.586 
  696400    301.24675    -1474.292    512.05808    397.27648    626.57988    37426.586 
  696500    290.80755   -1504.4874    501.46772    309.37919   -188.65174    37426.586 
  696600    296.17529    -1478.036    489.02882    347.61605    404.78195    37426.586 
  696700    296.22233   -1470.8982    495.86808    361.80543    216.75272    37426.586 
  696800    310.93913   -1430.3625    519.38822    492.27735   -184.12562    37426.586 
  696900    298.46078   -1485.0925    497.31019    359.15524   -225.46296    37426.586 
  697000    303.81695   -1470.3156    474.23703    375.03102    209.27932    37426.586 
  697100    297.20689    -1452.364     506.4069     395.3217   -255.73683    37426.586 
  697200    292.99186   -1474.7022    500.42061    347.97494   -447.27971    37426.586 
  697300     300.3114   -1481.6469    481.82047    355.46279   -72.756447    37426.586 
  697400    296.83682   -1463.3724    501.85315    378.08942   -389.65575    37426.586 
  697500    301.09357   -1413.6402    491.13961    436.31859   -80.870125    37426.586 
  697600    302.41292   -1455.7082    502.51774     411.5829    254.51638    37426.586 
  697700    306.01824   -1471.2647    514.20894    423.98816    507.40589    37426.586 
  697800    293.95406    -1432.672     500.6806    394.60755    258.85331    37426.586 
  697900    297.58999   -1460.9304    501.19598    383.27327     606.1919    37426.586 
  698000    302.81004   -1481.9842    482.63317    367.21447    512.83292    37426.586 
  698100    301.06743   -1430.7142     513.4808    441.46777    -297.5545    37426.586 
  698200    313.96484   -1449.3345    505.68858    473.26059   -120.25375    37426.586 
  698300    284.93608   -1464.5759    480.44135    301.76669   -629.64943    37426.586 
  698400    306.74555   -1450.0639    491.22227    425.48462    -20.08024    37426.586 
  698500    296.92774   -1457.4705    495.02852    377.57702       497.67    37426.586 
  698600    306.33806   -1494.8048    479.73278    367.41521    222.32906    37426.586 
  698700    296.06022   -1481.3835    483.10951    337.82994   -227.84179    37426.586 
  698800    296.90597   -1493.3983    454.53132     301.0538    463.66946    37426.586 
  698900    302.82785   -1496.3073    475.67979    346.01832    347.27028    37426.586 
  699000    301.49069   -1477.3372    504.07258    387.34671    -39.75663    37426.586 
  699100    294.41372   -1465.1081    458.92992    322.49517    747.76292    37426.586 
  699200    297.44732   -1475.1577    481.91102    349.11708    183.17599    37426.586 
  699300    296.53374   -1501.7846    510.25562    346.71185    550.77568    37426.586 
  699400    294.37745   -1478.2999    499.12414    349.33395    589.28717    37426.586 
  699500    303.05988   -1484.3722    475.31984    358.64067    435.77992    37426.586 
  699600    296.57194   -1521.3683    482.52068    299.56564    370.05348    37426.586 
  699700    302.11819   -1461.9743    494.52203    395.99088   -11.922004    37426.586 
  699800    291.83579    -1437.234    476.25544    356.06072    -518.0229    37426.586 
  699900    290.38755   -1469.2976    494.15852    335.36441   -247.30155    37426.586 
  700000    303.33982   -1478.0821    497.17069     388.0449    486.56395    37426.586 
  700100    303.84948    -1454.869    483.03733    399.42476      775.635    37426.586 
  700200    309.40749   -1465.3218    507.09798    438.11559    447.25245    37426.586 
  700300    301.12082    -1435.776    477.81104    400.97721    226.70477    37426.586 
  700400     289.3802   -1473.4824    494.89809    327.37305   -540.42932    37426.586 
  700500    297.93991   -1461.6178    494.78896    377.75801   -424.45886    37426.586 
  700600    297.89608   -1464.1212     504.9187    385.18661   -284.15677    37426.586 
  700700    298.19738   -1456.6161    461.38657    350.51927     118.2622    37426.586 
  700800    302.69087   -1499.5503    510.08817    376.56554    370.66888    37426.586 
  700900      294.803    -1469.496    510.08682    371.02094   -108.93366    37426.586 
  701000    301.16727   -1485.8218    467.68985    341.01986    231.41102    37426.586 
  701100    304.88353    -1480.478    500.71756    396.16257     360.7949    37426.586 
  701200     296.8313   -1523.7829    504.90658    320.70744    330.86205    37426.586 
  701300    293.69337   -1479.2611    496.37749    342.53881    261.02499    37426.586 
  701400    297.18966   -1475.8826    473.04417    338.36261    621.33634    37426.586 
  701500    297.25689   -1425.7158    504.19666    419.98524    555.40541    37426.586 
  701600    302.38844   -1481.4149    476.49427    359.74219    427.92599    37426.586 
  701700     301.7113   -1444.9304     487.1472    403.82372     264.1448    37426.586 
  701800    299.48344   -1454.1541    468.06257    365.46113   -445.13484    37426.586 
  701900    294.98246   -1463.2633    480.99107    348.96782   -119.67635    37426.586 
  702000    300.12833   -1478.5209    496.87982    372.82198    438.31766    37426.586 
  702100    296.27086   -1476.7801    481.95631    342.23071    666.87807    37426.586 
  702200    300.53236   -1465.8277    482.26027    372.71903    36.641163    37426.586 
  702300    295.15486   -1468.3897    477.78837    341.41671    464.19099    37426.586 
  702400    302.93465    -1492.475    483.55854     358.2114    156.29389    37426.586 
  702500     294.0215   -1513.3239    493.57965    307.15906    348.94933    37426.586 
  702600    286.41763   -1500.0446    491.06432    283.60711    337.46853    37426.586 
  702700    295.63195   -1489.8186    471.91127    316.26378    464.88721    37426.586 
  702800    306.80905   -1507.5367    471.30379    348.37984    142.25119    37426.586 
  702900    302.63321   -1495.4799    483.41058    353.69812    339.71081    37426.586 
  703000    302.90685   -1473.2018    482.00994    375.81051    565.50859    37426.586 
  703100    293.36553   -1500.0191    453.14622       277.07   -154.33986    37426.586 
  703200    309.02618   -1459.2965    484.95624    420.27828    46.100643    37426.586 
  703300    314.82382   -1451.8624    466.22736    435.14803    173.38739    37426.586 
  703400    300.91944   -1446.0695    499.61302    411.57686   -98.645782    37426.586 
  703500    298.64484   -1444.3217    507.55375     411.0002    486.79877    37426.586 
  703600    304.38846   -1430.0047    508.57885    452.26292   -105.75682    37426.586 
  703700    294.28409   -1407.8018    502.43061    422.71718    9.9782482    37426.586 
  703800    308.92491   -1427.9973    493.39912    459.56336    657.28324    37426.586 
  703900    295.02527   -1476.6091    480.59429    335.41838    87.003581    37426.586 
  704000    298.24832   -1492.2088    464.87409    318.64396     130.5772    37426.586 
  704100    298.30508    -1499.043    476.87342    324.06532    -118.5736    37426.586 
  704200    290.33607   -1503.6581    476.11636    282.72936   -1166.1337    37426.586 
  704300    298.40921   -1470.4326    466.86467    343.13687   -1138.8849    37426.586 
  704400    292.57647   -1484.4252    464.98435    300.94112   -850.39334    37426.586 
  704500    310.58094   -1504.0961    465.66059    363.19966   -665.02616    37426.586 
  704600    295.42854   -1471.9975    474.51609     335.7718   -405.24127    37426.586 
  704700    307.45167   -1504.9413     457.1999    339.77152    63.283054    37426.586 
  704800     298.1762   -1507.8105    479.11186    316.95459    370.31755    37426.586 
  704900    305.47575   -1456.6608    466.88185    388.81669    340.91387    37426.586 
  705000     297.5414   -1460.2522    482.09552    364.63173    917.01742    37426.586 
  705100    297.20768   -1471.6763    494.66267    364.26867    1061.3689    37426.586 
  705200    298.09641   -1442.2461    486.13916    389.18623     829.7884    37426.586 
  705300    288.75448   -1444.7532    487.56359    345.94394    -25.68779    37426.586 
  705400     293.3097   -1475.2355    498.69986    347.15532   -409.87731    37426.586 
  705500     293.8662    -1463.879    488.11451    350.43792   -505.48548    37426.586 
  705600    303.75868   -1501.5144    457.02976    326.36197   -665.65759    37426.586 
  705700    306.69172   -1495.7211    469.97945     358.3417   -150.89898    37426.586 
  705800    297.41368    -1526.667    470.36143    285.90642   -494.13136    37426.586 
  705900    297.44191   -1514.3772    460.44201    288.40425    -378.6006    37426.586 
  706000    305.59362   -1505.3381    475.45188    349.24143   -359.29563    37426.586 
  706100     304.5394   -1453.2444    487.95402    409.07958   -116.65321    37426.586 
  706200    293.87594    -1468.979    503.80464      361.072   -197.93353    37426.586 
  706300    299.61313   -1468.6277     512.8692    396.37948   -8.3787701    37426.586 
  706400    300.69877   -1460.3457    477.57911    374.27079   -695.71858    37426.586 
  706500    294.48967   -1423.1705    510.82562    416.67119   -476.54935    37426.586 
  706600    299.61824   -1378.1857    489.95651    463.93185    53.178894    37426.586 
  706700    282.93834   -1409.8011    480.45244    347.53687   -318.47465    37426.586 
  706800    303.53124   -1461.9762    527.49446    435.33845    133.02185    37426.586 
  706900    290.40896   -1439.5109     493.0819    364.17104    143.25406    37426.586 
  707000    288.39654   -1459.7418    520.03043    361.80675    278.48957    37426.586 
  707100    304.97871   -1450.0671    491.68223     417.9677    802.70097    37426.586 
  707200     296.2989   -1434.7233    481.57373    384.03147    68.430347    37426.586 
  707300    293.36314   -1434.2419    512.60338    402.29364    572.01116    37426.586 
  707400    297.99388   -1457.4947    483.84179    371.17752    13.785745    37426.586 
  707500    308.47574   -1470.5412    479.54266    401.13592    680.21309    37426.586 
  707600    300.69881   -1461.7836    479.92279    375.17676    509.44597    37426.586 
  707700    309.93897   -1491.9648    485.68092    392.45411    159.39916    37426.586 
  707800    297.77855   -1489.4717    481.60166    335.98858   -502.08462    37426.586 
  707900    301.51723   -1476.9366    468.80581     352.6003   -143.85069    37426.586 
  708000    311.30906   -1448.6466    464.13104    420.40552    -742.3476    37426.586 
  708100    301.49106   -1463.4966    472.83649    369.95296   -269.25086    37426.586 
  708200    289.24972   -1488.6894     488.5168    305.19592   -221.21931    37426.586 
  708300    298.22359   -1462.7761    472.40939    355.50037   -6.9683807    37426.586 
  708400    292.98211   -1524.1496    470.23755     268.3005   -11.219851    37426.586 
  708500    303.29782   -1510.3936    508.98981    367.36298    201.02275    37426.586 
  708600    293.04838   -1505.3863    484.86887    301.99425     217.3884    37426.586 
  708700    295.52026   -1460.7007    503.17835     376.1448    -209.2261    37426.586 
  708800    300.25397   -1470.8149    503.57871     387.7939   -267.53409    37426.586 
  708900    290.19659   -1494.7451    482.03355    296.93006    114.98639    37426.586 
  709000    305.42731   -1516.9555    478.77164    340.19323   -179.91401    37426.586 
  709100    296.91283   -1507.3068    487.48404    320.12893   -390.18549    37426.586 
  709200    304.88592   -1547.4754    464.22608    292.68447   -625.76859    37426.586 
  709300    315.82634   -1483.4346    511.03516    452.90795     29.43755    37426.586 
  709400    305.38739   -1482.2151    525.56036    421.54223    438.19995    37426.586 
  709500    301.59397   -1467.5264    504.33261    397.88366    149.94846    37426.586 
  709600    283.29908   -1464.3732    494.03401    308.17439   -182.40122    37426.586 
  709700    295.59077   -1443.6507    507.83203    398.16666   -149.45046    37426.586 
  709800    308.46163    -1486.465    495.03741    400.64325     192.2797    37426.586 
  709900    299.82471   -1501.8328    494.28833    345.54837    106.58092    37426.586 
  710000    295.00612   -1510.8944    482.69351    303.14585    488.08459    37426.586 
  710100    299.26267   -1513.3229    496.61839    333.85192    137.97639    37426.586 
  710200    301.97423   -1499.6538    513.98599    377.12567     834.1632    37426.586 
  710300    299.72109   -1500.4481     489.1263    341.30345    263.37508    37426.586 
  710400     300.4537   -1505.0643    500.26759    351.13469     77.18504    37426.586 
  710500    298.17151   -1484.7418    512.94473      373.835   -73.863408    37426.586 
  710600    296.68252   -1514.7337    492.98983    317.16846    16.808263    37426.586 
  710700    309.40713   -1480.0788    504.47907    420.73802    387.92961    37426.586 
  710800    301.43061   -1492.3951    496.71866    364.66378       609.27    37426.586 
  710900      298.074   -1516.7187    527.36459    355.83783    461.29936    37426.586 
  711000     300.8754   -1484.2475     494.7395    368.32652   -260.50663    37426.586 
  711100    289.04876   -1494.5053    484.88022    294.83649   -817.88575    37426.586 
  711200    301.87012   -1489.3256    507.45308    380.45111   -431.26533    37426.586 
  711300    304.19058   -1448.7904    501.97086    425.97626   -145.24625    37426.586 
  711400    302.81512   -1453.9955    515.94168    428.53458   -44.490531    37426.586 
  711500     293.4806   -1446.3299    503.80505    381.93738    92.537008    37426.586 
  711600    302.13471   -1460.5533    506.16613    409.13057   -385.29238    37426.586 
  711700    297.04777   -1470.2704    508.59279    378.88312   -622.93725    37426.586 
  711800    301.62369   -1462.7069    510.84609     409.3507   -112.79344    37426.586 
  711900    309.76681   -1498.0312    488.28837    388.21817   -166.61623    37426.586 
  712000    299.93038   -1504.6785    500.39724    349.28852    71.231483    37426.586 
  712100    311.08668   -1492.2693    486.83687    398.48507    449.24431    37426.586 
  712200    292.72921   -1524.6347    495.05526    291.49179   -342.93129    37426.586 
  712300    300.29809   -1531.5196    502.42693    326.13647   -762.83574    37426.586 
  712400    290.67194   -1507.7561    476.91893    280.94971   -1649.4583    37426.586 
  712500    304.57034   -1523.6409    482.08208    332.95075   -809.77232    37426.586 
  712600    301.57243   -1550.8895    483.59914    293.68989   -551.73734    37426.586 
  712700    301.28831   -1554.7023    481.58837    286.58408    -186.1901    37426.586 
  712800    297.11937   -1539.5115    474.47435    275.84667    404.58578    37426.586 
  712900    303.86456    -1507.389    482.63284    346.56831    359.42658    37426.586 
  713000    298.61784   -1546.6551    503.39416    304.38538    164.83576    37426.586 
  713100    297.37864    -1550.298    506.59838    298.35423    432.46454    37426.586 
  713200     290.0831   -1495.8909     484.9593    298.19793    761.85372    37426.586 
  713300    292.42832   -1544.3897    501.67313    276.99672    99.342008    37426.586 
  713400    301.49077    -1525.014    521.85862    357.45635   -250.65956    37426.586 
  713500    291.34403   -1504.5896    486.79974    297.03013    -78.36425    37426.586 
  713600    304.48937   -1504.1776    535.73514    405.70174    60.920171    37426.586 
  713700    284.14935   -1517.8377    483.46848    247.98152   -440.57198    37426.586 
  713800    290.30353    -1466.141    527.63851     371.6218   -396.63273    37426.586 
  713900    298.91832   -1461.0896    490.70867    378.62147   -210.37296    37426.586 
  714000    308.29464   -1472.1463    518.68656    437.85742    221.92818    37426.586 
  714100    297.53335    -1486.373    524.79384    381.17294    12.759893    37426.586 
  714200    316.70767   -1451.7425    510.82628    488.36857    719.82664    37426.586 
  714300    312.11498   -1485.1233    514.13216      437.567    870.20953    37426.586 
  714400    299.40977   -1466.6562    532.77759    417.34162    332.05276    37426.586 
  714500    306.92178   -1466.7692    519.15688    437.50926   -265.43891    37426.586 
  714600    294.47642   -1469.5985    519.56791    378.92572   -93.502901    37426.586 
  714700    291.00184   -1448.3323    518.55046    383.49392   -608.99925    37426.586 
  714800    301.04799   -1445.9196    538.65896    451.35277   -853.70777    37426.586 
  714900     287.7205   -1459.5875    485.05799    323.93773   -429.93084    37426.586 
  715000    308.09914   -1475.8649    509.83088    424.40087   -397.72835    37426.586 
  715100    295.18088   -1484.5206    510.69556    358.31042   -112.33006    37426.586 
  715200    308.14413   -1503.2542    502.41981    389.80352    -295.9071    37426.586 
  715300    307.49483   -1510.4074    511.19694     388.4973   -203.68456    37426.586 
  715400    292.95216    -1505.711    519.73621    336.10256    166.95786    37426.586 
  715500    304.53193   -1553.4254    497.07238    317.98324    396.60128    37426.586 
  715600    299.28345   -1493.7232    523.49881    380.42579   -39.724029    37426.586 
  715700    302.02145   -1499.0986    473.37096    337.27897    -176.8783    37426.586 
  715800    307.40386    -1519.871    512.69385    380.12006     371.9351    37426.586 
  715900    302.74802   -1543.5268    487.97795    310.73679    155.79276    37426.586 
  716000    292.02771   -1519.7728    493.42059    291.55323    535.26055    37426.586 
  716100     306.3023   -1526.0081     532.8481     389.1659    364.84067    37426.586 
  716200    302.02804   -1526.1731    499.65859    336.52182    511.17495    37426.586 
  716300    303.64286   -1505.2716     481.9197    346.97207    250.81283    37426.586 
  716400    294.75461    -1496.359    531.99872    365.85153    846.26539    37426.586 
  716500    298.21833   -1473.8859    473.09243    345.04991   -42.941741    37426.586 
  716600    295.00012    -1482.686    504.18059    352.81436   -586.15326    37426.586 
  716700     299.0668   -1489.9516    490.02892    349.74973   -155.53986    37426.586 
  716800    306.72153   -1494.5122    513.40378    403.10938    162.63697    37426.586 
  716900     294.0552   -1521.0199    507.82125     313.8567    214.95042    37426.586 
  717000    297.38721   -1497.2132    505.93027    350.80959   -98.086134    37426.586 
  717100    293.25101   -1510.7527    502.35789    315.03131    352.24227    37426.586 
  717200     298.9803   -1522.3393    508.18412    335.12691    996.99219    37426.586 
  717300    300.35415   -1537.5152    499.78784    317.75477    151.61178    37426.586 
  717400     295.0195   -1505.4477    470.21457    296.17413    219.27331    37426.586 
  717500    307.86463   -1504.2607    506.34384    391.45972   -163.30083    37426.586 
  717600    300.83074   -1508.6377    482.43721     331.4325    571.17839    37426.586 
  717700     294.5598   -1526.4238    499.39197    302.30077    273.08951    37426.586 
  717800    290.75615   -1524.7457    487.00714    274.42831    296.93892    37426.586 
  717900    297.64633   -1548.7471    484.40868    278.92353   -51.456283    37426.586 
  718000    299.16266   -1516.3475    490.51535    324.27294   -168.55584    37426.586 
  718100     297.2645   -1536.5617    491.48288    296.45988    39.698881    37426.586 
  718200    301.30065   -1505.5653    492.73696    346.92535   -39.738575    37426.586 
  718300    297.12546   -1497.9128    482.92894    325.92736    147.44707    37426.586 
  718400     310.5452   -1490.7098     520.6012    431.36528    182.35829    37426.586 
  718500    302.28173   -1472.2885    487.29704    379.18979    821.38202    37426.586 
  718600    297.99398   -1487.7056     481.0091    338.13433    635.49003    37426.586 
  718700    300.19869   -1521.1462     516.5311    350.16551    850.63708    37426.586 
  718800    284.02958   -1508.7778    483.24778    256.28029    1028.1447    37426.586 
  718900    297.73082   -1520.8942    512.17014    334.91913    816.87538    37426.586 
  719000    308.36736   -1510.5252    482.70723    363.82742    297.21916    37426.586 
  719100    300.31447   -1473.4225    501.25091    383.13155    47.357605    37426.586 
  719200    286.42924   -1502.1532    484.53287    275.01955   -266.51806    37426.586 
  719300    296.44127    -1479.837    498.97944    356.96599   -316.31188    37426.586 
  719400     301.7148   -1423.0282    502.83927    441.43378   -540.00115    37426.586 
  719500    306.63625   -1451.6318    488.83949    421.04063   -520.98323    37426.586 
  719600    293.09504   -1454.9602     499.9471    367.70909   -804.51021    37426.586 
  719700    311.19219    -1454.494     469.4552    419.35489   -404.32132    37426.586 
  719800    292.54439   -1475.0508    509.80699    354.99332   -19.555665    37426.586 
  719900     295.3435   -1419.6372    527.73286    440.96507   -117.05404    37426.586 
  720000    308.95516   -1439.0509    494.92425    450.17141   -103.97131    37426.586 
  720100     297.9654   -1461.1777    513.52935    397.05356   -443.29744    37426.586 
  720200    296.28462   -1459.2529    502.78734    380.65103    55.656202    37426.586 
  720300    301.20202   -1470.7563    504.11096    392.66325   -679.03727    37426.586 
  720400    302.63079   -1496.7257    491.73758    360.76842   -15.575485    37426.586 
  720500    303.79716   -1469.1156    507.67905    409.58374   -184.56694    37426.586 
  720600    302.00842   -1457.5721    521.20188    426.57762   -475.57297    37426.586 
  720700    306.89567   -1464.8842     506.3425    426.46197   -228.64128    37426.586 
  720800    310.69506    -1438.286    494.47638    458.34056   -80.103216    37426.586 
  720900    307.46834   -1422.7504    493.08037    457.91812   -20.232861    37426.586 
  721000    300.65424   -1436.2567    498.48428    419.06402   -429.21208    37426.586 
  721100     305.9324   -1479.1892     499.8239    401.29123   -137.85888    37426.586 
  721200    310.48993   -1470.2801    502.91932    433.86369     185.8633    37426.586 
  721300    296.43838   -1454.6386     543.0845    426.25639     175.1447    37426.586 
  721400     304.2128   -1445.8157    485.60014    412.68051    902.29152    37426.586 
  721500    294.86994   -1468.2033    520.89665    383.42554     294.4402    37426.586 
  721600    301.03749   -1512.0172     529.2573    375.80618    406.11981    37426.586 
  721700     288.9594   -1439.8741    495.78761    359.97176    808.60385    37426.586 
  721800    298.04662   -1492.0271    509.60229    362.64364    273.67934    37426.586 
  721900    306.96736   -1459.2795    490.07145    416.11918    106.79465    37426.586 
  722000     301.2629   -1453.2807    479.43724    385.73987   -256.89874    37426.586 
  722100     299.0899   -1450.6022    498.55447      397.729    190.66282    37426.586 
  722200    306.83392    -1460.062    513.01831    437.68141    357.28092    37426.586 
  722300    300.29996   -1452.3861    514.60667    417.45818    684.24802    37426.586 
  722400    302.26466   -1446.9149    494.17639    411.36569    599.02602    37426.586 
  722500    294.48554   -1428.8853    526.00279    426.11498    331.63896    37426.586 
  722600    305.91496   -1533.2272    506.45759     353.8082   -84.072112    37426.586 
  722700     298.8271   -1493.3103    489.23705    344.51748   -19.994194    37426.586 
  722800    296.48632    -1493.528    494.92149    339.42037   -41.243236    37426.586 
  722900    298.92275   -1489.9807    515.30022    374.34186    289.80386    37426.586 
  723000    301.59731   -1497.1564    497.09128    361.02732    819.13964    37426.586 
  723100     295.2161   -1517.6432    491.43436    306.08557    706.61825    37426.586 
  723200    300.25287    -1498.743    498.44404    354.72616    465.08477    37426.586 
  723300    301.40161   -1515.0019    473.28604    318.49343    50.651142    37426.586 
  723400    300.25236   -1522.9334    502.89653    334.98589    73.738489    37426.586 
  723500    295.19053   -1522.8098    483.57051    292.93978   -468.79426    37426.586 
  723600    293.70781   -1508.6274    494.29521     311.1554    181.57383    37426.586 
  723700    298.68459   -1546.6421    494.38409    295.68954   -139.82604    37426.586 
  723800    298.17849   -1497.8518    498.39278    346.20455    175.33557    37426.586 
  723900     300.3361   -1456.3534     519.1542    418.20148   -255.94304    37426.586 
  724000     305.7844   -1469.5424    504.16828    414.61449    330.53395    37426.586 
  724100       293.47   -1436.8049    526.71804    414.32754      28.4206    37426.586 
  724200    291.09763   -1465.5749     507.8378     355.9709    18.356714    37426.586 
  724300    304.25732   -1483.7892    500.30591    389.61364   -181.89344    37426.586 
  724400    295.74287   -1472.7738    538.08334    399.98123   -41.715963    37426.586 
  724500     294.4387    -1450.966    489.99781    367.81791    274.40481    37426.586 
  724600    302.11497   -1476.2709    515.37325    402.53103    196.06473    37426.586 
  724700    306.33938    -1483.449     492.0282    391.07236    723.95686    37426.586 
  724800    293.67935   -1486.0006    484.51235    323.87089    680.75758    37426.586 
  724900     304.4342   -1454.7584    509.43344    428.57022   -490.90966    37426.586 
  725000    295.25167   -1455.8523    511.24907     387.8517   -411.00932    37426.586 
  725100    297.45891   -1453.5977    480.00937    368.82778   -467.58946    37426.586 
  725200    310.18873   -1512.9005     472.4621    359.42668     108.7049    37426.586 
  725300    299.02956   -1483.2648    519.81305     386.0526   -624.67673    37426.586 
  725400     299.7532   -1462.8475    497.24279    387.16538   -275.13568    37426.586 
  725500    292.13821   -1479.3353    478.44171    317.51056   -76.958415    37426.586 
  725600    293.20604   -1508.7092    505.18889    319.70281    245.24115    37426.586 
  725700    298.66595   -1481.1108    483.74129     350.4939    470.64423    37426.586 
  725800    297.59762   -1441.9144    520.22266    421.35035    1089.7144    37426.586 
  725900    305.01188   -1436.9669    496.44409    435.97945    544.26297    37426.586 
  726000    297.02773   -1475.0689    510.89178    376.29313    754.93748    37426.586 
  726100      307.709   -1454.4735    489.21589    423.41665    326.18615    37426.586 
  726200    302.49784   -1488.0675    485.91443    363.00344   -85.824216    37426.586 
  726300    304.50557   -1496.6638    495.80062    373.35419    169.31257    37426.586 
  726400    296.60916   -1509.4896    494.92613    324.01781   -315.13168    37426.586 
  726500    301.78315   -1523.6732    479.27574    317.53369    200.11876    37426.586 
  726600    295.36367   -1512.7972    508.35324    328.51649    157.33521    37426.586 
  726700    281.68889   -1476.6104    512.26572    306.90217    173.02165    37426.586 
  726800    308.64607   -1501.6751    505.56777    396.79583    543.36777    37426.586 
  726900    314.86882   -1494.5155    502.73354    429.20413    49.648447    37426.586 
  727000    303.22487   -1500.3754    482.48955    350.55179   -301.25723    37426.586 
  727100    299.64223   -1515.6995    505.57337    342.14322   -95.468007    37426.586 
  727200    290.41828   -1525.7862    488.47304    273.32893   -5.9196738    37426.586 
  727300    292.62911   -1500.7055    507.14824    327.06226   -172.98047    37426.586 
  727400    309.78048   -1516.1219    511.91607    393.81692   -53.759285    37426.586 
  727500     292.0095   -1503.3924     468.3956     282.8264   -5.6264016    37426.586 
  727600    309.17795   -1519.2198    495.34155    371.42534   -330.26425    37426.586 
  727700    305.32255    -1517.553    464.81703    325.16838   -1189.4696    37426.586 
  727800    305.86746   -1527.7866    479.37558    331.95241    -315.2399    37426.586 
  727900    297.99299   -1551.5684    498.88464     292.1426   -214.94182    37426.586 
  728000    297.28094   -1526.1601    507.82062    323.27353   -415.16744    37426.586 
  728100    295.10367   -1499.5292    486.92483    319.18266   -508.60662    37426.586 
  728200    300.73639   -1491.8019    498.89073    364.29603   -102.42964    37426.586 
  728300    298.51765   -1429.6503    500.98272     418.5266   -350.01007    37426.586 
  728400    287.55002   -1485.5049    510.24343    322.43641    364.70189    37426.586 
  728500    295.52316   -1460.0128    515.81073    389.47817    246.41028    37426.586 
  728600    299.75664   -1474.9157    520.82017    398.69011    -329.2441    37426.586 
  728700    304.02967   -1464.8288    513.44529    420.68612   -126.98939    37426.586 
  728800    301.57691   -1436.4851    499.14674    423.66208   -274.93823    37426.586 
  728900    287.48856   -1452.5627    485.60468    330.46244    -412.5424    37426.586 
  729000    296.71056   -1468.8572    519.15868    389.34033   -459.25316    37426.586 
  729100    307.97081   -1471.3675    504.21919    422.70742   -363.59634    37426.586 
  729200    304.63618   -1455.6289    500.44574    419.62359    490.21542    37426.586 
  729300    301.26144    -1460.159    513.07543    412.49316    -118.6307    37426.586 
  729400    297.83524   -1442.8427    518.26359    419.53533    768.53246    37426.586 
  729500    302.75021   -1489.9914    519.17377    395.47783    460.57238    37426.586 
  729600    293.47476   -1476.5944    512.76494    360.60646    713.62154    37426.586 
  729700    314.30016   -1476.4887    501.49494    443.42603    549.56295    37426.586 
  729800    288.41013    -1480.634    501.16735    322.11284    299.82063    37426.586 
  729900    304.81429   -1472.8818    498.24415    400.97289    66.505149    37426.586 
  730000    292.34029   -1475.4176     519.2397    363.13812   -642.04236    37426.586 
  730100    302.51821   -1510.8419    483.10074    337.50731   -408.03686    37426.586 
  730200    297.65081    -1474.849    496.74461    365.17778   -269.12611    37426.586 
  730300    297.92097    -1485.346    494.73134    353.88677   -545.30191    37426.586 
  730400      298.915   -1482.5984     504.5591    370.94807    50.673332    37426.586 
  730500    301.06892   -1496.1685    471.68917    334.22852    613.25319    37426.586 
  730600     301.1739   -1499.4336    516.92107    376.66918     273.0646    37426.586 
  730700    295.82662   -1476.1587    478.55203    337.44301    195.37359    37426.586 
  730800    304.33611    -1463.633     494.4452    404.26476    209.00627    37426.586 
  730900    301.27609    -1521.573    480.36463    318.43452    263.18626    37426.586 
  731000    303.67998   -1525.9426    474.25152     318.8004    110.58044    37426.586 
  731100    301.79528   -1476.7622    533.59658    418.82031    87.286452    37426.586 
  731200    298.03469   -1475.4979    500.24177    369.75843    530.08922    37426.586 
  731300    288.29826   -1431.9402    509.81968    378.95407    443.31886    37426.586 
  731400     306.0435   -1480.7134     502.8434    403.28793   -512.05363    37426.586 
  731500    299.61207   -1482.8582     493.9034    363.17844   -462.34527    37426.586 
  731600    303.72424   -1465.8091    477.74097    382.62306   -344.42546    37426.586 
  731700    302.78153     -1478.04    499.09192    387.48874   -485.76877    37426.586 
  731800    307.96548   -1477.5026    504.77022    417.09935   -180.73424    37426.586 
  731900     305.3521   -1464.6032    530.38713     443.8216   -143.60701    37426.586 
  732000    303.19636   -1479.2188    486.64287    375.73298   -251.48484    37426.586 
  732100    307.68231   -1488.1671    484.52335    384.91003   -566.47016    37426.586 
  732200    299.01805   -1492.0321    481.17598    338.59633   -348.39046    37426.586 
  732300     301.9277   -1487.2423    477.00072    352.34197   -517.99125    37426.586 
  732400    300.73018    -1499.335    480.44583    338.29004   -114.14244    37426.586 
  732500    293.78487   -1516.6798    485.23249    294.38808   -198.71218    37426.586 
  732600     309.6978   -1469.1684    493.41626    421.89747   -121.45312    37426.586 
  732700    304.38748   -1496.0892    510.56849    388.16364    -344.7702    37426.586 
  732800    309.16563   -1504.4597    500.87119    391.65944    495.02831    37426.586 
  732900     307.7039   -1531.5424     504.6381    361.74689     346.1138    37426.586 
  733000    301.74053   -1507.3015    493.90127    348.33858    305.96125    37426.586 
  733100    301.62137   -1521.1806    498.70936    338.72981    346.51289    37426.586 
  733200    305.31684   -1515.8296    492.02642    354.07537    162.94924    37426.586 
  733300    299.46157   -1478.4791    489.33279    362.30771   -519.85814    37426.586 
  733400    296.82265   -1465.4475    484.26995    358.36716   -693.44802    37426.586 
  733500    302.41703   -1493.7981    479.87006    350.86385   -260.39851    37426.586 
  733600    304.24906   -1485.3222    518.52845    406.26593    154.25506    37426.586 
  733700    310.75611   -1457.4845    514.77996    459.72113   -325.64416    37426.586 
  733800    309.89678   -1421.3822    527.64301    504.80841   -88.056959    37426.586 
  733900    294.90261   -1422.4693    515.20438    423.61476    -107.4307    37426.586 
  734000    301.10567   -1419.2268    541.66381     481.3108   -179.97674    37426.586 
  734100    300.57263   -1396.9155     511.7138    471.26647   -196.34553    37426.586 
  734200    302.47209   -1426.2838    495.06798    433.82447   -937.33942    37426.586 
  734300    299.77798   -1412.8899    499.47551    439.46753   -294.28559    37426.586 
  734400    306.11141    -1487.136    451.02106    345.34945   -1117.1913    37426.586 
  734500    287.81404   -1485.3783    534.69461    348.20565   -585.12086    37426.586 
  734600     304.8162   -1458.1987     485.9465    403.36704   -497.24256    37426.586 
  734700    310.96855   -1482.3089    489.81763    410.89314   -238.26731    37426.586 
  734800    313.35171   -1462.2301    487.17077    439.08015    630.93604    37426.586 
  734900    310.54935    -1477.823     486.5029    410.17249    132.67679    37426.586 
  735000    299.23411   -1454.0522    509.37994    405.75519   -189.39671    37426.586 
  735100    307.22458   -1465.4591    493.84044    414.86942   -226.80669    37426.586 
  735200    288.52537   -1472.9691    512.12101    341.25142   -426.54014    37426.586 
  735300     303.1597   -1466.2578    495.92507    397.81071    123.05352    37426.586 
  735400    290.51853   -1499.7142    526.93041    338.31077   -599.25207    37426.586 
  735500    292.90927   -1502.5957    519.62357    338.91173    17.961615    37426.586 
  735600    302.34929   -1483.2965    510.69727     391.8869   -6.4150572    37426.586 
  735700    300.27737    -1523.531     502.4276    334.03226    332.37371    37426.586 
  735800    300.25096   -1491.2018    514.64039    378.45506    577.28955    37426.586 
  735900    300.34255   -1525.4951    495.40763    325.34236    620.57905    37426.586 
  736000    307.59537   -1491.9635     501.3895    397.58745    660.79627    37426.586 
  736100    302.78396    -1426.277     498.2313    438.40203     621.2789    37426.586 
  736200    311.60509   -1478.5298    466.49702    394.22434    108.95188    37426.586 
  736300    295.64163   -1493.0592    487.29741    328.45307   -494.48529    37426.586 
  736400    297.03987   -1507.9135    486.49842    319.10995   -206.10499    37426.586 
  736500    300.89124   -1480.8453    485.61518    362.67595   -455.08561    37426.586 
  736600    300.89897   -1485.1682    503.45394    376.22666   -57.372927    37426.586 
  736700    308.54362   -1515.6792    515.55594    392.31756    109.33044    37426.586 
  736800    287.31542   -1496.5824    495.57976    295.63646   -97.104556    37426.586 
  736900     298.4736   -1466.8713    505.62565    385.74972   -233.58634    37426.586 
  737000    309.28951   -1465.1324    499.59238     430.2669    -485.5891    37426.586 
  737100     312.6659   -1468.5944    496.86981    439.31992   -222.94496    37426.586 
  737200    295.42662   -1439.0101    506.73918    400.97356   -279.91641    37426.586 
  737300    298.17236   -1515.6431    499.89481    329.88759    398.39028    37426.586 
  737400    307.71209   -1519.4363    501.02178    370.27364     508.6638    37426.586 
  737500    283.48069   -1544.5518    523.87373    258.65512     56.89792    37426.586 
  737600    300.28295    -1524.855    461.49633    291.80224    77.672793    37426.586 
  737700    297.24341   -1477.6683    505.02132    368.79661    508.06682    37426.586 
  737800    299.41067   -1492.5809    516.83988    375.48327    138.76315    37426.586 
  737900    312.28314   -1524.4651    498.57652     383.4285    370.91323    37426.586 
  738000    296.67481   -1504.3594    487.46103    321.97917   -137.95308    37426.586 
  738100    306.14329   -1485.6664    468.77565    364.71753   -118.05498    37426.586 
  738200    296.25485   -1506.6754    509.32486    339.63171   -157.19034    37426.586 
  738300    303.84847   -1489.9586    478.78431    360.07757   -109.50819    37426.586 
  738400    291.29644   -1506.8113    497.57681    305.37074   -526.05003    37426.586 
  738500    304.12189   -1457.9442    492.37159    406.91314   -333.37014    37426.586 
  738600     305.1762   -1461.9347    486.53169    401.84088   -262.86846    37426.586 
  738700    297.02386   -1487.5546    491.50494    344.40308   -404.07756    37426.586 
  738800     297.4527   -1502.8919    501.09427    340.59048    3.9545442    37426.586 
  738900    304.93109   -1472.5201    494.60917    398.22673     192.5837    37426.586 
  739000    300.61211   -1527.9854    500.99347    329.65444   -116.55466    37426.586 
  739100    310.94962   -1508.8542    476.03457    370.47929    121.47048    37426.586 
  739200    299.17739   -1477.3823    530.52494    403.31414    442.66922    37426.586 
  739300    315.31244   -1470.1142    470.21313    423.08702   -237.02204    37426.586 
  739400    309.58221   -1501.9879    465.49083    360.63087    276.76381    37426.586 
  739500    302.38601   -1506.5913    493.36982     351.4304    -845.1443    37426.586 
  739600    303.23863   -1455.1295    498.45689    411.82712    247.64331    37426.586 
  739700    295.98858   -1554.5399    470.79017    252.03085   -943.40325    37426.586 
  739800    307.56025    -1532.733       494.61     349.8799    101.10355    37426.586 
  739900    291.09356   -1508.2053    487.68034    293.16472   -241.42371    37426.586 
  740000    305.88474    -1543.418    479.66938     316.6928   -319.70524    37426.586 
  740100    292.06907   -1559.3713    489.12368    247.84446   -250.57485    37426.586 
  740200    305.95269   -1554.5101    490.18535    316.42338    362.03294    37426.586 
  740300    298.72485   -1563.3142    502.87006    287.68513    384.15608    37426.586 
  740400    297.03423   -1538.4684    509.72941    311.76058    68.433326    37426.586 
  740500    302.68137   -1503.1557    471.14557    333.97462    358.59844    37426.586 
  740600    297.83971   -1521.9359    481.69672    303.89543    137.69979    37426.586 
  740700    292.17119   -1541.8648    472.48826    249.17645   -143.52262    37426.586 
  740800    318.13598   -1530.3978    495.28598    400.61883    128.62241    37426.586 
  740900     308.7964   -1556.4506     494.5434    331.67434    550.25289    37426.586 
  741000    290.29036   -1567.5145    455.09427    197.64459    739.57565    37426.586 
  741100    304.08314   -1559.6952    517.53718    330.15289    790.19206    37426.586 
  741200    292.75454   -1570.9773    458.25972    208.46798    408.13552    37426.586 
  741300    298.52148   -1610.1628    470.59159    207.64027    429.23069    37426.586 
  741400    297.50114   -1567.2964    503.12852    278.43881    342.40443    37426.586 
  741500    302.98225   -1560.7675    469.63395    276.20909    241.29174    37426.586 
  741600    298.07259   -1529.4546    493.47714    309.20815   -210.71982    37426.586 
  741700    288.44358   -1531.5468    475.36836    245.55193   -179.12691    37426.586 
  741800    306.24638   -1518.9438     504.5751    367.70482   -235.41448    37426.586 
  741900    301.43928   -1543.5631    485.61128    302.42756   -97.304639    37426.586 
  742000    295.87029   -1486.7717    465.86787    314.34296    83.987399    37426.586 
  742100    305.45004   -1570.2917    513.82653    322.01451   -263.55895    37426.586 
  742200    296.50671   -1538.4316    485.73916    285.42643    110.66311    37426.586 
  742300    298.35247   -1526.0534     475.8528    296.24808    403.63381    37426.586 
  742400    294.88726   -1543.2673    502.36063    289.90376   -239.95999    37426.586 
  742500    304.92063    -1494.302    525.02329    406.81175   -606.46389    37426.586 
  742600    300.49962   -1503.0432     477.5449    330.64036   -545.00176    37426.586 
  742700    299.83484   -1512.9874    488.71259    328.86372   -1219.1759    37426.586 
  742800    297.55376   -1494.3042    493.26248    341.80249   -543.98819    37426.586 
  742900     295.6331   -1497.4883    495.64918    332.33726   -445.68673    37426.586 
  743000    304.85411   -1479.3258    495.11015    391.57467   -85.768156    37426.586 
  743100    314.08574   -1484.6391    503.88865    436.70166    693.26295    37426.586 
  743200    305.85372   -1475.6505    481.56794     386.2189      271.303    37426.586 
  743300     290.8421   -1457.2614      501.102    356.39538    421.40147    37426.586 
  743400     305.5846   -1494.6359    508.97712    393.42818    -237.3352    37426.586 
  743500    294.92058   -1484.6236    457.93399    304.27116     22.28319    37426.586 
  743600    297.74301   -1531.4532     502.7819      315.027   -291.65704    37426.586 
  743700     300.5578   -1494.2635    472.13489    334.27261   -1101.3255    37426.586 
  743800    299.17546   -1499.1157    484.88731    335.93442   -802.61601    37426.586 
  743900      305.846   -1519.0424     460.5335    321.75766   -489.27432    37426.586 
  744000    306.64031   -1531.3184    483.70303    336.23595   -179.14259    37426.586 
  744100    295.21725   -1531.2869     487.9823    288.99506    103.77807    37426.586 
  744200    294.64561   -1505.4266    502.08741    326.38069   -280.86241    37426.586 
  744300    301.24165   -1496.0822    487.08118    350.48642    197.90789    37426.586 
  744400    300.27729   -1518.4607    480.96283    317.63741   -268.25115    37426.586 
  744500     312.5509   -1508.8099    492.33153    394.04707     -199.949    37426.586 
  744600    303.47504   -1558.5148    472.53291    283.58473   -4.7369905    37426.586 
  744700    298.62834   -1567.5123     475.5903     255.7717    399.68311    37426.586 
  744800    301.48695   -1517.6537    486.79372    329.73449   -177.72838    37426.586 
  744900     315.5002   -1525.1848    483.37497    382.02569    446.53666    37426.586 
  745000    302.48335   -1518.9508    444.86226    291.00264    109.33711    37426.586 
  745100    315.95666   -1501.5405    493.39344    417.74836   -313.44177    37426.586 
  745200    301.87614   -1507.4782    490.40982    345.28244   -307.49495    37426.586 
  745300    300.98537   -1505.7439    479.47733    332.06427   -46.796128    37426.586 
  745400    299.91214   -1492.2017    499.82147    361.10716   -817.81077    37426.586 
  745500    291.99105   -1514.8935    466.18365    269.03008   -1186.5062    37426.586 
  745600    291.23081   -1490.2656    481.79363    305.83711   -1091.6047    37426.586 
  745700    299.26485   -1521.4441    489.92857    319.05068   -297.45374    37426.586 
  745800    297.31904   -1519.4434     465.7333    288.07485   -1067.0957    37426.586 
  745900    309.37407    -1502.472    482.11311    375.82972   -1085.3149    37426.586 
  746000    301.14037   -1457.5268    485.39874    386.90231   -871.38044    37426.586 
  746100    309.36553   -1447.3178    488.45114    437.28335   -739.73543    37426.586 
  746200    295.50936      -1427.6    497.73706    403.75494   -429.04203    37426.586 
  746300    282.87297   -1487.1053    479.73533    269.22055   -630.12903    37426.586 
  746400    296.30153   -1509.6199    507.86483    335.43784   -207.08543    37426.586 
  746500     305.3158   -1523.8716    511.26764    365.26985   -140.78218    37426.586 
  746600    302.71559   -1501.2977    457.95649    322.79801   -135.49629    37426.586 
  746700    293.73712   -1495.8086    495.48353    325.29476   -600.03236    37426.586 
  746800    299.31292   -1477.8263      476.248    349.20482   -239.39099    37426.586 
  746900    313.50599   -1458.4843    494.82275    451.17418    19.854742    37426.586 
  747000    289.05224   -1464.0734    476.55967    316.96358   -248.12227    37426.586 
  747100    298.49623   -1460.9818    487.51755    373.63324    185.59736    37426.586 
  747200    307.33986   -1467.4432    487.87955    407.44461   -759.27612    37426.586 
  747300     311.9439   -1448.1072    483.29325     442.9721    55.603228    37426.586 
  747400    292.10948   -1457.9041    486.62914    346.99948   -109.52621    37426.586 
  747500     297.6457   -1450.6469    496.00163    388.61383   -75.145245    37426.586 
  747600    293.06759   -1439.4957    491.84821    374.95081   -337.71989    37426.586 
  747700     299.8733   -1438.4294     522.1178    437.00057   -236.68236    37426.586 
  747800     301.0922   -1460.3527    485.94055    384.40085   -570.15383    37426.586 
  747900    295.89707   -1420.1594    449.99983    365.20806   -872.60282    37426.586 
  748000    301.77635   -1448.3729    490.28845    403.81609   -539.62198    37426.586 
  748100    296.23644   -1491.6314    487.17663    332.44437   -455.27764    37426.586 
  748200    289.38768   -1499.9351    462.95263    269.00864   -382.08441    37426.586 
  748300    290.88866      -1476.9    497.51916    333.38409   -8.4908525    37426.586 
  748400    314.16882   -1460.3684    476.28067    433.73929   -50.819658    37426.586 
  748500    298.89455   -1455.4197    486.68608    380.16147   -441.94263    37426.586 
  748600    301.91881   -1497.0898    490.91275    356.36638    229.88029    37426.586 
  748700    296.63711   -1519.0428    462.30021    281.96484   -31.394226    37426.586 
  748800      307.524   -1544.4979    469.90549    313.24692     235.2469    37426.586 
  748900    288.57682   -1541.0322    507.67399    268.97349   -452.03131    37426.586 
  749000    303.15878   -1525.0892    479.97514    323.02531   -198.26952    37426.586 
  749100    311.97736   -1521.5561    462.39748    348.77848   -91.153381    37426.586 
  749200    292.72231   -1510.3061    498.81459    309.54859   -811.30749    37426.586 
  749300    298.07225   -1514.3476    486.54381    317.38035   -258.48796    37426.586 
  749400    292.28631   -1543.5186    475.52285    251.07668   -227.59968    37426.586 
  749500    303.33869   -1531.2457     475.0396    312.74519    -24.76688    37426.586 
  749600    306.20892   -1541.4788    442.58018    283.00585    22.201944    37426.586 
  749700    298.82919   -1560.0754    478.16951    266.69429   -31.705781    37426.586 
  749800    306.78169   -1514.5593    465.95305    335.88306    49.352877    37426.586 
  749900    297.77979   -1503.2035    478.17669    318.83747    -487.2492    37426.586 
  750000    292.33093    -1507.859     480.9053    292.32009    -214.3802    37426.586 
  750100    307.14944   -1556.6536    487.98442    317.47975   -95.276229    37426.586 
  750200    289.18935   -1492.0746    477.95978    290.98122   -83.580237    37426.586 
  750300    297.25971   -1521.5455    496.01283    315.98448   -87.786207    37426.586 
  750400    288.45339   -1464.3275    480.87355    318.32071   -73.044492    37426.586 
  750500    298.79841   -1475.8289    472.17264    344.80492    423.85479    37426.586 
  750600    301.74597   -1516.6109    468.09317    313.24572    298.66685    37426.586 
  750700    300.33025   -1513.3731    506.88205    348.88331    243.03501    37426.586 
  750800    294.05472    -1496.909    475.74486    305.88906    293.96797    37426.586 
  750900    300.06286   -1486.3533    496.37212     364.1864    626.64077    37426.586 
  751000    291.55102   -1503.2553    459.24196    271.74079    365.79961    37426.586 
  751100    295.74915   -1494.8682    516.74549    356.57738      292.918    37426.586 
  751200    303.72476   -1490.7983    506.82774    386.72305    94.846862    37426.586 
  751300    293.66049   -1544.5191    466.05686    246.81185    222.60661    37426.586 
  751400    294.67627   -1541.2375     472.1554    260.77612   -15.115215    37426.586 
  751500    295.10121   -1477.4668    457.90988    312.21907   -72.178182    37426.586 
  751600    301.76452   -1479.6463    481.61316    363.81402    389.83075    37426.586 
  751700    289.61426    -1482.371    497.04232    321.68494   -39.998588    37426.586 
  751800     307.7048   -1490.9808    466.01506    363.68953    41.765584    37426.586 
  751900    299.39449   -1462.7887    474.63124    362.99381   -29.883825    37426.586 
  752000    298.91226   -1487.1768    509.19262    370.99083   -388.28076    37426.586 
  752100    297.50491   -1476.5633    489.12826    355.18871    52.547065    37426.586 
  752200    282.84401   -1460.6596    498.31932    314.11958   -577.08217    37426.586 
  752300    302.45633   -1485.0084    496.63777    376.59859   -586.02043    37426.586 
  752400    300.95353   -1479.6656    495.13738    373.65892   -574.06657    37426.586 
  752500    299.11055   -1470.6545    488.51827    367.73365   -431.99542    37426.586 
  752600    289.25832    -1464.307    480.62089    321.72119    319.12033    37426.586 
  752700    302.51465   -1532.4224    491.62482    324.43482   -87.529211    37426.586 
  752800    300.84762   -1523.2985     483.9688    318.37951    251.73438    37426.586 
  752900     299.6164   -1535.6347    514.76725    331.28534    180.50023    37426.586 
  753000    299.34945   -1575.6493    466.70357     242.0023    249.65864    37426.586 
  753100    300.37574   -1549.9016     484.2027    289.88073   -441.57795    37426.586 
  753200    298.30061   -1507.9463    495.61351    333.88186    -746.2696    37426.586 
  753300    299.73894     -1484.33     462.7252    331.10101   -598.57901    37426.586 
  753400    291.03063   -1544.6562    469.25376    238.00319   -1062.5441    37426.586 
  753500    294.40497   -1549.6425     497.7434    276.73471   -755.26964    37426.586 
  753600    304.97786   -1510.3175    519.16757    385.19878   -3.0434905    37426.586 
  753700    298.57709   -1546.1785    474.00555    275.28951   -94.626044    37426.586 
  753800    300.53937   -1468.9874    504.05194    391.38258    109.18024    37426.586 
  753900    298.72253   -1497.2811    484.93502    335.77266    230.32578    37426.586 
  754000    303.86426    -1529.178    464.51191    306.65702    474.64974    37426.586 
  754100    302.31815   -1533.9681    503.06248    333.44001   -2.5173006    37426.586 
  754200    308.45849    -1507.127    484.71042    369.63999    217.95125    37426.586 
  754300    299.54403   -1518.1979    488.67037    322.29862    244.12924    37426.586 
  754400    292.63812   -1488.0289    491.15313    323.78446    199.30912    37426.586 
  754500    296.99865   -1471.6057    507.04044    375.77369    306.62616    37426.586 
  754600    296.91147   -1469.0436    505.40508    376.30703    -738.1032    37426.586 
  754700    301.89651   -1495.7502      484.785    351.47759   -480.94075    37426.586 
  754800    296.43495   -1504.8117     476.5102    309.49352   -555.88864    37426.586 
  754900     298.1284    -1518.015    509.25122    336.67375   -472.42569    37426.586 
  755000    300.98169   -1526.6059    485.17424    316.88258   -470.47484    37426.586 
  755100    302.73444    -1507.375    469.94477    328.79412   -168.79929    37426.586 
  755200    297.74452   -1487.6241    486.22104    342.30201    -506.5153    37426.586 
  755300    309.94779   -1529.5573    476.57232    345.79277   -942.60029    37426.586 
  755400    297.34845   -1520.9135    476.27985    297.28397   -854.57568    37426.586 
  755500    298.88074   -1487.2933    487.58075    349.12015   -553.98813    37426.586 
  755600    301.25897   -1468.2461    498.70668    390.02612   -514.97025    37426.586 
  755700    303.21435   -1506.0036    519.72122    382.10774    -261.8453    37426.586 
  755800    297.43334   -1493.4264    480.26324    329.13762   -749.94048    37426.586 
  755900    289.56904   -1527.0031    466.67612    246.48254   -523.17004    37426.586 
  756000    298.28168   -1477.5807    487.08229    355.63086    584.49786    37426.586 
  756100    301.58679   -1482.3857    498.99333    377.65264    417.41973    37426.586 
  756200     294.2502   -1520.0808    507.28356    315.13816    198.10933    37426.586 
  756300    291.73275   -1492.7738     458.5953    282.39575    305.40038    37426.586 
  756400    297.81179   -1513.1095    474.41081    305.30992   -815.51945    37426.586 
  756500    310.29085   -1505.7885    473.00927    367.54678  -0.23670427    37426.586 
  756600    300.08369    -1486.076    477.93953    346.12512   -497.15957    37426.586 
  756700    303.43345   -1530.0095     492.3415    331.71089    -74.66867    37426.586 
  756800    281.22445   -1493.0059    477.25967    253.40465   -430.79085    37426.586 
  756900     291.7863   -1479.8712    496.36309    333.30781   -234.59277    37426.586 
  757000    305.47373   -1484.2436    481.87373    376.21674   -161.68374    37426.586 
  757100    302.27992   -1537.8711    488.21641    314.51843    705.54989    37426.586 
  757200    308.58238   -1512.5629    495.94369    375.99658    375.39995    37426.586 
  757300     305.6556   -1520.0915    470.76542    330.08121    270.11577    37426.586 
  757400    297.49237   -1509.7977    490.55239    323.32183    481.93508    37426.586 
  757500    301.30686   -1508.3356    512.26873    363.71486    234.36823    37426.586 
  757600    297.97322   -1488.5258    480.53849    336.74986    157.94797    37426.586 
  757700    295.22503   -1476.4538    503.46528    359.34624    526.63253    37426.586 
  757800    297.41679   -1535.4647    480.30335    287.06474    392.04194    37426.586 
  757900    303.54284   -1496.3769    498.28746    371.78318    336.55827    37426.586 
  758000    296.36673    -1515.969    496.72611    318.24429    238.61013    37426.586 
  758100    292.26228   -1493.7574    473.87371    299.08037    251.87951    37426.586 
  758200    299.46988   -1430.2843    512.42808    433.63531    798.28265    37426.586 
  758300     300.4042   -1444.2407    521.13287    432.60021    940.15388    37426.586 
  758400     292.4529   -1459.3176    491.46263    351.96929    1033.2608    37426.586 
  758500    293.79837   -1467.2178    481.87063    340.54912    62.511602    37426.586 
  758600    289.67381   -1483.0265    512.52617    336.78202     320.4818    37426.586 
  758700    305.74771   -1497.8752    478.14747    360.09533    612.13613    37426.586 
  758800    304.78528   -1504.5815    474.82787      345.726    378.76088    37426.586 
  758900    296.93488   -1478.1982    516.96767    378.82067    30.124568    37426.586 
  759000    294.95749   -1493.6925    503.22724    340.66208    347.44286    37426.586 
  759100    307.07034   -1497.9607    499.19528     387.0266    451.15084    37426.586 
  759200    303.93464    -1527.951    501.50432    345.19408    138.30929    37426.586 
  759300    301.27923   -1496.3341     500.7488    364.07175    19.647353    37426.586 
  759400    295.83028   -1465.3578    490.38283    360.09122    396.89197    37426.586 
  759500    296.55428   -1510.0924    501.07236     329.3135    390.13128    37426.586 
  759600    294.16341   -1515.1599    497.59472    309.97856    173.48123    37426.586 
  759700    297.46291   -1481.2174    492.36072    353.57751   -67.842604    37426.586 
  759800    301.55018   -1506.6192    499.15821     353.4188    466.50551    37426.586 
  759900    289.59479   -1473.5833    478.39502    311.73745    480.79151    37426.586 
  760000     290.9702   -1511.8638    491.15234    292.42151    317.49711    37426.586 
  760100    304.73039   -1475.7267    484.51214    384.01735    476.45191    37426.586 
  760200    298.06371   -1502.6045    484.51279    327.05382    243.66514    37426.586 
  760300    293.93694    -1502.523    517.23792    341.23663    538.46628    37426.586 
  760400    304.21349   -1488.8069    507.82011    391.91243    440.97801    37426.586 
  760500    313.30078    -1458.554    487.94991    443.30558    82.137622    37426.586 
  760600    299.90453   -1509.0822    492.35201    336.72291     152.8449    37426.586 
  760700    292.06513    -1465.001    509.16746    362.24076    302.08961    37426.586 
  760800    296.77412   -1471.7604     515.6197    383.18501    518.38165    37426.586 
  760900    297.90105   -1512.8453    500.74951    332.31574    218.46903    37426.586 
  761000     296.2519     -1484.59    504.72449    357.10343    878.38067    37426.586 
  761100     303.3442   -1483.3984    511.87023    397.44798    558.36788    37426.586 
  761200    308.56833   -1477.8701     507.1503     421.8325    692.58725    37426.586 
  761300    290.53829   -1468.6795    511.24566    353.74988    816.96109    37426.586 
  761400    295.42427   -1477.9484    520.68679    375.97227    617.93242    37426.586 
  761500    302.30483    -1463.525    509.15499     409.9155    607.19356    37426.586 
  761600    298.41929   -1486.8696    505.30797    365.18866    13.639861    37426.586 
  761700     299.4919   -1444.3885    508.48222    415.68462   -134.43864    37426.586 
  761800     296.7169   -1415.8698    501.44248    424.64013   -152.63809    37426.586 
  761900    298.38728   -1419.1193    501.08674    428.57321   -498.42591    37426.586 
  762000    299.99141   -1457.8657    511.34187    407.32139   -95.405696    37426.586 
  762100    302.99633   -1430.9494    530.81391    467.27073    170.51564    37426.586 
  762200    297.20243   -1449.3158    513.13966    405.08247    -181.9812    37426.586 
  762300    290.24615   -1442.0217    514.45922    382.30283    230.18208    37426.586 
  762400    311.64975   -1478.8734    497.23746    424.82266    76.036249    37426.586 
  762500    307.51189   -1453.8855    493.40632    427.30544    13.571219    37426.586 
  762600    304.46021   -1503.3374    508.58685    379.26204   -793.90859    37426.586 
  762700    303.02228   -1524.2305    495.73279    339.02558   -601.23322    37426.586 
  762800    290.65326    -1485.006    502.29362    328.99023   -656.19686    37426.586 
  762900    305.41173   -1497.2703    491.34722    372.38367   -674.24546    37426.586 
  763000    307.98783   -1540.7687    489.47913    338.64305    52.429778    37426.586 
  763100    292.46675   -1517.9668    497.76323    299.68323   -193.01394    37426.586 
  763200    301.27311   -1462.9123    484.60625    381.32333     79.56338    37426.586 
  763300    289.61496   -1522.2539    496.05804     280.8209   -244.74737    37426.586 
  763400     302.2644   -1526.1129    512.03249    350.02262    57.685461    37426.586 
  763500     295.8671   -1531.5982    474.39198    278.02615   -366.76823    37426.586 
  763600    310.00565   -1509.2773    489.39516    379.15674    187.81409    37426.586 
  763700    302.56536   -1514.1125    513.85676    365.20556   -574.57442    37426.586 
  763800    299.90001   -1538.4199     493.2749    308.28772   -404.55191    37426.586 
  763900    291.96128   -1517.8744    495.14165     294.8729   -287.01904    37426.586 
  764000    302.50341   -1470.6828    500.08123     394.5801   -425.84206    37426.586 
  764100    299.11365   -1530.2855    467.05945    286.65782   -28.256217    37426.586 
  764200    301.96462   -1512.3466    494.78976    345.19334    297.53561    37426.586 
  764300    307.17321   -1509.7926    490.78263    367.24627    85.620441    37426.586 
  764400    294.59156   -1493.9116    497.13277    332.69711    16.845843    37426.586 
  764500    310.55193   -1486.0622    473.23497    388.67696    40.249467    37426.586 
  764600    297.45036   -1486.9184    504.79034    360.24948    16.352953    37426.586 
  764700    303.41174   -1506.9407    493.67194    356.01217   -2.6916965    37426.586 
  764800    304.51379   -1506.1101    493.19195    361.33622   -223.65894    37426.586 
  764900    301.25445   -1540.0493    488.59802    308.09392   -95.566312    37426.586 
  765000    291.55822   -1503.5661    488.64651    300.86704    65.543989    37426.586 
  765100     295.2118   -1563.2056     480.1405    249.20992   -64.855737    37426.586 
  765200    307.36972   -1535.9141    484.71759    335.94653   -302.45476    37426.586 
  765300    300.73368   -1490.1839    486.01959     353.0307   -123.09984    37426.586 
  765400     294.2388   -1503.0453    496.02117    320.85987    304.01273    37426.586 
  765500     299.5549   -1508.1701    512.79566    356.50079    395.80932    37426.586 
  765600    299.95915   -1525.1615    477.88857    306.42665    589.94746    37426.586 
  765700    301.69334   -1544.4286    505.66101    322.75831   -254.95806    37426.586 
  765800    299.48985   -1558.6749    496.73205    289.63877    491.04397    37426.586 
  765900     307.3299   -1493.9645    502.08098    395.07989   0.40323018    37426.586 
  766000    297.60588   -1493.4861    506.92749    356.52076    -729.2312    37426.586 
  766100    289.65879   -1493.7201     483.8687    297.36314   -1104.9464    37426.586 
  766200    293.20393   -1520.4014    505.43302    308.24528   -646.54642    37426.586 
  766300    312.41982   -1514.4734    506.75132    402.21181   -602.60055    37426.586 
  766400    294.75959   -1463.4638    476.09112    342.86151   -542.93279    37426.586 
  766500     298.8405   -1467.4764    508.84882    390.02356   -505.26982    37426.586 
  766600    300.73077   -1466.1362    493.58705    384.63267    -17.63445    37426.586 
  766700    312.33809   -1517.2263    478.22143     370.5602   -63.070668    37426.586 
  766800    300.27447   -1509.3941    491.65781    337.38626    -633.0008    37426.586 
  766900    290.84967   -1495.0985    492.31058    309.80111   -290.25773    37426.586 
  767000    307.51813   -1482.6745     458.7681    363.90642    81.427627    37426.586 
  767100    312.97894   -1530.1618    487.02866    369.32407   -19.942414    37426.586 
  767200    309.43714   -1492.9641    476.02647    379.53559   -132.48501    37426.586 
  767300    296.11229   -1476.9015     497.3505    356.78785   -69.957813    37426.586 
  767400    299.57208   -1467.4416     498.5928    383.10399   -129.03517    37426.586 
  767500    300.85989   -1498.7177    490.92858    349.97544    91.415248    37426.586 
  767600    317.31812   -1481.1847    512.04975    462.90469    603.36979    37426.586 
  767700    309.71937   -1482.6317    476.39272    391.50793    109.49252    37426.586 
  767800    298.68142   -1485.0484    507.62098    370.50586    31.971836    37426.586 
  767900    298.69723   -1517.2012    480.13654    310.93991   -368.14889    37426.586 
  768000     293.7117   -1507.7121    498.16658    315.95966   -348.05329    37426.586 
  768100    297.45404   -1520.0366    507.14223    329.49973   -477.74882    37426.586 
  768200    293.54453   -1496.2216    487.57851    316.10759   -274.35023    37426.586 
  768300    297.87441   -1505.0078    497.96012    337.24357    180.60676    37426.586 
  768400    292.47217   -1454.0568    542.96281    408.81722    490.40124    37426.586 
  768500    295.49295   -1458.5876    493.64028    368.59651    77.376735    37426.586 
  768600    300.85687    -1487.682    505.18518    375.25414    685.51414    37426.586 
  768700    307.66954   -1508.9236    499.78585    379.35841    417.67152    37426.586 
  768800    292.10869   -1460.5825    505.59779    363.28617    539.98089    37426.586 
  768900    298.24792   -1501.8116    505.55583    349.72105    837.24281    37426.586 
  769000      303.903   -1481.2194    504.19889    394.47748    463.15216    37426.586 
  769100    297.24658   -1503.8693    517.45873    355.04731    510.12589    37426.586 
  769200     308.6294    -1532.854    481.57885    341.55278    627.57422    37426.586 
  769300    296.76655   -1523.5019    503.78014    319.56978    208.91284    37426.586 
  769400    290.72059   -1585.3307    488.88968     215.5654    543.18603    37426.586 
  769500    293.53712   -1530.7346    500.32425    294.30697    826.32896    37426.586 
  769600    298.85213   -1513.9268    472.04668    306.82353    348.70352    37426.586 
  769700    313.68228   -1512.5698    499.84752    402.90908    268.68424    37426.586 
  769800    310.93614   -1530.2344    504.76656    377.77034   -161.18985    37426.586 
  769900    288.67994   -1515.4342    501.87273    289.23565   -234.64636    37426.586 
  770000    307.03225   -1529.3139    514.31212    370.61834    143.47655    37426.586 
  770100    291.01509   -1517.1224    499.42512    295.63823   -420.41498    37426.586 
  770200    299.78178   -1503.6875    488.78994    338.00155   -661.98279    37426.586 
  770300    296.52305   -1494.1737     510.0086    354.02749   -230.17987    37426.586 
  770400    302.10057   -1488.8952    492.44431    366.91282   -311.45354    37426.586 
  770500    308.37782   -1527.3487    525.04509    389.38902    20.620128    37426.586 
  770600    310.08878   -1519.4452    490.55275    370.52158    -215.4251    37426.586 
  770700    302.80224    -1525.774    488.27021    329.02652    39.462576    37426.586 
  770800    300.91979   -1534.8428    507.26077    330.45284    467.47978    37426.586 
  770900    314.76138   -1508.8792    498.57947    410.20153    153.08814    37426.586 
  771000    298.11934   -1535.3353     473.4244    283.48576    182.61366    37426.586 
  771100    298.25512   -1513.2727    494.36296    327.09959    154.35384    37426.586 
  771200    299.57141   -1539.6395    490.69366    303.00385   -153.83318    37426.586 
  771300    311.64628   -1531.1327    480.79292    356.10319   -48.124285    37426.586 
  771400    298.29594   -1551.5485    501.88357    296.52867   -67.317643    37426.586 
  771500    293.72325   -1566.2884    481.41782    240.68669   -398.81736    37426.586 
  771600    284.53129   -1566.4779    469.64581    187.24237   -34.546245    37426.586 
  771700    303.21764   -1520.9606    459.46323    306.90758    1.5964039    37426.586 
  771800    288.89272   -1530.3922    481.48107    254.84618   -266.48493    37426.586 
  771900    299.85915   -1542.8364    491.97567    302.38752    187.89542    37426.586 
  772000    294.84779   -1559.7225    462.24767     233.1575   -161.53066    37426.586 
  772100    298.81304   -1532.4583     484.2947    300.36359   -55.900804    37426.586 
  772200    304.86711    -1501.119    487.17463    361.90461    444.86885    37426.586 
  772300    307.96876   -1512.1736    508.44379     386.1167     237.2639    37426.586 
  772400    297.43019   -1522.5721     498.5344    318.24877     931.6063    37426.586 
  772500    290.56978   -1512.7741    515.87084    314.42255    404.53859    37426.586 
  772600    301.96528   -1529.9301    489.93209     322.7551     498.6959    37426.586 
  772700    302.81351   -1525.5699     519.5717    360.58298    184.36775    37426.586 
  772800     296.3042   -1496.7069     503.2922    343.79025    95.795174    37426.586 
  772900    293.43848     -1521.31    508.09073    311.05284    98.624498    37426.586 
  773000     304.6067   -1559.3242    495.16552      310.515    320.15883    37426.586 
  773100    291.87704   -1543.2587    479.63778    253.60447    672.46431    37426.586 
  773200    307.30038   -1557.6186    502.50177    331.71328     755.9407    37426.586 
  773300    303.83404   -1541.5007    505.99948    335.68555    502.30069    37426.586 
  773400    308.04577   -1564.2047    493.02037    319.00979    202.10717    37426.586 
  773500    309.06977   -1567.5318    485.67787    312.96142   -370.54866    37426.586 
  773600    298.19076    -1563.319    481.74452     264.1444   -406.75948    37426.586 
  773700    291.12624   -1511.8922    490.28533    292.23021   -203.98003    37426.586 
  773800      290.816   -1528.2006    528.24132    312.47777   -128.93056    37426.586 
  773900    302.28918   -1594.6519    491.70186    261.26483    329.25113    37426.586 
  774000    296.00513   -1533.2031    483.94911    286.60125    103.87257    37426.586 
  774100    308.74661   -1546.5418    480.60262    327.41777   -358.52121    37426.586 
  774200    292.78559   -1542.9643    496.36288    274.72429    50.996458    37426.586 
  774300    310.73598   -1510.1555    495.48055    387.65989    -113.3375    37426.586 
  774400    298.50518   -1535.1571    458.27082    270.25158    7.8077421    37426.586 
  774500    274.45706   -1543.2492    503.76586    199.12669    22.283136    37426.586 
  774600    299.77803   -1518.3673    469.53236    304.04719    36.214082    37426.586 
  774700    302.89302   -1507.0781    470.32589    330.18774   -18.621309    37426.586 
  774800    296.70917   -1521.8233    492.20019    309.40943    327.40564    37426.586 
  774900    303.51124   -1515.8877    501.73951    355.58179    912.39746    37426.586 
  775000    295.03672   -1530.9367    481.23378    281.78195    282.50089    37426.586 
  775100    299.79253   -1507.6935    500.22831    345.48243    427.43576    37426.586 
  775200    292.59364   -1481.7985    495.40537    334.06629   -173.97888    37426.586 
  775300    293.01629   -1477.0452    501.40778    346.72936   -296.22756    37426.586 
  775400    296.14694   -1500.0305    485.07672     321.5415    157.97008    37426.586 
  775500    298.48483   -1533.5512    481.51998    295.01488   -152.10404    37426.586 
  775600    296.30019   -1523.9645    513.30797    326.53033   -511.33322    37426.586 
  775700    302.42194   -1514.8897    489.45755    339.38189   -544.77811    37426.586 
  775800    290.92775   -1529.9726    513.19155    296.16028   -929.33213    37426.586 
  775900    292.80203   -1521.1063    494.61582    294.90941   -747.04175    37426.586 
  776000      302.161   -1507.0696    502.34878    358.91563   -280.85867    37426.586 
  776100    301.01056     -1493.33    485.16223    350.27675   -106.43283    37426.586 
  776200    300.04226   -1490.8755    507.39842    370.59754   -577.72611    37426.586 
  776300    295.52609    -1492.082    497.63102    339.24246    8.0071733    37426.586 
  776400    298.43386   -1480.7634    461.23091    327.28358   -263.02009    37426.586 
  776500    300.92875   -1508.8333    517.54636     366.7884   -992.17992    37426.586 
  776600    306.15079   -1480.4519     498.3346    399.52482   -579.39759    37426.586 
  776700    310.03123   -1509.0732     501.1887    391.26977   -370.40945    37426.586 
  776800    299.62033   -1502.6404    490.99695    340.52703   -611.16072    37426.586 
  776900    296.02183   -1516.6731    492.13174     311.3893   -326.29563    37426.586 
  777000    303.07851   -1483.1837    496.20608    380.79945   -326.63423    37426.586 
  777100    300.40296   -1496.9461    474.15111    332.90744   -206.95515    37426.586 
  777200    305.82418   -1472.8162    504.99329    412.34522   -188.69066    37426.586 
  777300     302.3071   -1457.6358    482.25694    388.91685   -514.52736    37426.586 
  777400    293.78331   -1489.8869    493.16207    329.10352   -741.90719    37426.586 
  777500    300.54988   -1492.5959    508.30638    372.07602    -432.9033    37426.586 
  777600    303.55359   -1475.5277    503.12135    397.51469   -124.35498    37426.586 
  777700    297.86911   -1484.6609    527.89453      387.501    133.87375    37426.586 
  777800    295.64484   -1435.6101    514.71941    413.33867    134.77782    37426.586 
  777900    288.36544    -1471.136    495.46819    325.70993    115.50238    37426.586 
  778000    302.17534   -1512.9962     503.2709    353.97582    105.71105    37426.586 
  778100    310.53978   -1491.3044    507.25322    417.39824    47.354813    37426.586 
  778200    277.66538   -1492.8311    499.65574    259.91361   -66.114035    37426.586 
  778300    303.80413   -1516.3965    515.03916    369.69446   -38.507963    37426.586 
  778400    297.89128   -1483.1502    489.24538    350.46261    339.75868    37426.586 
  778500    300.23457     -1485.28    498.58124    368.24375    -176.1421    37426.586 
  778600      296.032   -1526.7817    475.75671    284.95155   -343.53297    37426.586 
  778700    311.58281    -1496.521    452.97405    362.60962     457.5516    37426.586 
  778800    307.07017   -1507.7976     482.7228    360.71643     645.7184    37426.586 
  778900    301.60239   -1495.7081    492.18685    357.59417    663.50041    37426.586 
  779000    298.50595   -1518.6917    493.42133    321.87103    243.24748    37426.586 
  779100    296.18721   -1511.6554    495.81738    320.83903    313.75017    37426.586 
  779200    305.39426   -1491.2364    493.77986    380.77137    138.28765    37426.586 
  779300    301.09284   -1493.3053    461.64822    327.15874    412.65557    37426.586 
  779400    306.35324   -1474.5676    511.50609     419.4943    741.14568    37426.586 
  779500    304.12299   -1485.3644    476.61211    363.73844    504.69027    37426.586 
  779600    294.54117   -1485.2035    467.38752    311.43259     154.3246    37426.586 
  779700    288.77644    -1541.055    498.73129    260.90892    486.35774    37426.586 
  779800    303.21727   -1496.1075    460.67209    332.96784    430.49285    37426.586 
  779900    302.71562   -1484.6141    470.70058     352.2259    458.77822    37426.586 
  780000    303.39387   -1474.4266    490.16283    384.93652    477.91412    37426.586 
  780100    300.76808    -1488.438     484.3202    353.23243     180.5198    37426.586 
  780200    293.18565   -1506.3362    484.30158    301.09652    -76.14366    37426.586 
  780300      296.767   -1458.7223    487.32763    367.89888   -396.21512    37426.586 
  780400     307.6997   -1475.5343    469.15859    382.25654   -1.9632293    37426.586 
  780500    296.16212   -1437.9998    519.90806    418.47199   -339.53384    37426.586 
  780600     305.5717   -1438.4473     520.6254    461.20685   -2.6063085    37426.586 
  780700    293.75335   -1463.8088    481.55767      343.442    240.35971    37426.586 
  780800    297.50791   -1460.2948    485.21864     367.5611   -16.667327    37426.586 
  780900     303.9212   -1467.3261    478.33502    382.58898    43.100755    37426.586 
  781000     308.9229   -1466.8057    490.21124    417.55806    41.855447    37426.586 
  781100    298.08225   -1477.0187    492.21645    360.42697   -109.09076    37426.586 
  781200    298.27963   -1481.8818    497.32217    361.56037    493.26212    37426.586 
  781300    297.12798   -1519.8021    498.62432    319.74484    639.14827    37426.586 
  781400    291.14202    -1503.788    472.52965    282.65004   -444.99854    37426.586 
  781500     309.7459   -1470.3935    472.74327    400.21644    399.92317    37426.586 
  781600    307.28028   -1495.2229    480.53678    372.05331   -131.13221    37426.586 
  781700    297.23539   -1479.8205    506.91659     368.5035    98.864261    37426.586 
  781800     301.2685   -1503.7879    472.54204    328.36278   -28.585248    37426.586 
  781900    302.21577   -1469.6666     450.2445    344.46145    31.881202    37426.586 
  782000     301.2755   -1489.4122    460.90971    331.13766   -358.13345    37426.586 
  782100    295.25472   -1414.0395    545.41782    463.84704   -106.25456    37426.586 
  782200    297.41612   -1469.3713    488.74123    361.59294   -343.90374    37426.586 
  782300    292.95028   -1487.3649    498.08712    332.79115    474.27138    37426.586 
  782400     294.7917   -1468.8232    476.62366    338.17959   -297.13645    37426.586 
  782500    296.58519   -1444.7084    514.92083    408.68554   -80.202573    37426.586 
  782600    298.29603   -1474.4522    515.08355     386.8253    454.19963    37426.586 
  782700      306.519   -1485.3804    487.03842    384.96187    567.65996    37426.586 
  782800    309.05462   -1481.1935     503.8121    417.36558    584.86754    37426.586 
  782900    291.88515   -1483.9873    472.02579    305.30058    339.77328    37426.586 
  783000    296.97252   -1547.5254    470.76141    263.45702    561.81266    37426.586 
  783100    293.82634   -1535.7865    498.83933    289.07538     717.8248    37426.586 
  783200    293.59393   -1511.3823    482.77706    296.36842   -82.847748    37426.586 
  783300    298.29403   -1492.5643    467.47897    321.09962    266.23692    37426.586 
  783400    308.52091     -1538.85    490.92768    344.41604    273.58872    37426.586 
  783500    298.80956   -1522.4744    464.47168     290.5088   -236.57826    37426.586 
  783600    302.58533   -1480.3599     501.8214    387.01287    401.62216    37426.586 
  783700    293.93142   -1490.7332     499.4825    335.24607   -184.87865    37426.586 
  783800    298.30099   -1518.8357     479.2042    306.58485   -332.11539    37426.586 
  783900    312.65938   -1458.6521      491.479    443.84199   -91.547459    37426.586 
  784000    309.64872   -1489.7888    471.43535    379.07467     -119.323    37426.586 
  784100     310.2813   -1491.1361    478.47112    387.61785     470.5688    37426.586 
  784200    299.98654   -1490.7231    465.34418    328.44431   -463.98755    37426.586 
  784300    299.07328   -1454.7332    497.95126    392.91981    -621.7919    37426.586 
  784400    298.64792   -1482.4646    465.04202    330.35943   -1017.5265    37426.586 
  784500    302.02832   -1429.5583    478.77671    412.25598   -635.27557    37426.586 
  784600    296.30125   -1454.5236    484.96585    367.63394   -809.36582    37426.586 
  784700    299.49778   -1420.9955    476.91995    407.54184   -468.11151    37426.586 
  784800    296.54315   -1457.1128    481.58192    362.75242   -554.53113    37426.586 
  784900    287.29967   -1456.7586    494.96581    334.77522    175.97617    37426.586 
  785000    289.97172   -1471.1039    488.05319    325.57616    -5.076175    37426.586 
  785100    307.99328   -1480.4439      486.343    395.85632   -108.19529    37426.586 
  785200    298.91868   -1532.7622    472.04344     288.2852   -581.60654    37426.586 
  785300    309.30712   -1492.0241    493.71448    397.57685    -488.5817    37426.586 
  785400    297.38661   -1493.5616    490.94221    339.47044   -726.57555    37426.586 
  785500    302.73258   -1478.4637    482.61376    370.36595    -465.9117    37426.586 
  785600    295.87499   -1483.9198    491.31504    342.66322    88.965732    37426.586 
  785700    295.43978    -1481.169    483.71257    335.84751    133.13221    37426.586 
  785800    293.20457   -1527.2222    467.33034    263.32471   -503.84016    37426.586 
  785900    294.57202   -1466.5254    476.87525    339.73758   -304.03295    37426.586 
  786000    297.00622   -1490.2111    493.70703    343.86911    306.42003    37426.586 
  786100    292.88204   -1473.8413    483.06909    330.98879    842.92205    37426.586 
  786200    302.25068   -1478.1119    488.09049    374.01975    955.81745    37426.586 
  786300    294.71049   -1528.4143    486.43591    288.03425    669.78713    37426.586 
  786400    300.45323   -1499.0464    468.68274    325.56568    723.48316    37426.586 
  786500    289.51671   -1476.3498    470.13352    300.35711    46.849035    37426.586 
  786600    304.50815   -1487.7561    496.94274    383.41565    141.39536    37426.586 
  786700    309.41915    -1495.463    458.76986    359.69891    179.49703    37426.586 
  786800    303.17121   -1464.2896    479.34824    383.25404    -288.3944    37426.586 
  786900    290.52353   -1465.3952    473.04115    318.76306   -166.56723    37426.586 
  787000      290.142   -1425.0531    489.77341    374.11559   -413.51546    37426.586 
  787100    301.03323   -1435.4105    514.00952    437.14583   -218.74402    37426.586 
  787200    302.56894   -1441.2793    512.41962    436.61775   -269.30769    37426.586 
  787300    298.25896   -1482.9918    485.54588    348.58084    -640.4595    37426.586 
  787400    305.54253   -1463.3865    491.95364    407.46422   -59.761487    37426.586 
  787500     305.0216   -1482.8836    471.96098    365.62354   -349.40828    37426.586 
  787600    299.29784   -1470.8521     460.9769    340.83994     416.9782    37426.586 
  787700    303.30449   -1449.3088    507.03053    426.51868   -193.45486    37426.586 
  787800    302.64872   -1472.5024    475.37628    368.71134   -35.500883    37426.586 
  787900    301.68374   -1456.0719    462.90616    368.31679    342.62523    37426.586 
  788000    294.76473   -1434.9764    500.88495    396.16595    99.256581    37426.586 
  788100    295.25252   -1480.0657    483.79397    336.18706    314.36013    37426.586 
  788200    293.82279   -1494.9641     481.5184    312.56084    279.21614    37426.586 
  788300    303.06065   -1465.8986     499.7606    401.55848    273.13657    37426.586 
  788400    305.99177   -1467.2062    456.40088    370.11912    74.202054    37426.586 
  788500    302.57079   -1489.4925     501.6195    377.61274    141.90566    37426.586 
  788600    295.15171   -1533.7076    475.61842    273.91474   -469.47844    37426.586 
  788700    288.11084   -1490.3503    486.99497    296.87346   -510.06675    37426.586 
  788800    305.94617    -1500.316     491.2381    371.64072   -66.250241    37426.586 
  788900    296.62319   -1482.0638    494.94302    351.52377   -19.926218    37426.586 
  789000    316.35041   -1486.9362    471.78863    412.52488    20.485602    37426.586 
  789100    292.24513    -1500.616    483.69621    301.96681   -280.27442    37426.586 
  789200    304.47092   -1503.8919    488.77021    358.93929    212.81889    37426.586 
  789300    300.61363   -1498.0039    487.05625    345.70557   -104.27298    37426.586 
  789400    299.03013   -1465.2932    478.30354    362.51733    166.74383    37426.586 
  789500    301.05165   -1474.8122    500.75644    384.57422    870.23248    37426.586 
  789600    293.34049   -1484.8304    464.67805    303.67756   -706.45489    37426.586 
  789700    299.45303   -1484.7341    483.51624    350.19762   -411.03434    37426.586 
  789800    302.43865   -1510.1135    494.22526    349.00116   -253.67492    37426.586 
  789900    300.38384   -1480.7373    466.08493     340.9638   -636.56343    37426.586 
  790000      297.634   -1459.6509    470.68318    354.23855   -491.14365    37426.586 
  790100    294.75053   -1447.0004    493.89354    377.08647   -698.20154    37426.586 
  790200    299.21279   -1480.6249    497.55767    367.26411    67.073738    37426.586 
  790300    307.57268   -1479.0478    495.21596    404.22721   -148.53003    37426.586 
  790400    296.36752   -1471.9441    470.88125    336.42792   -170.38947    37426.586 
  790500    301.28222   -1462.0196    487.83049    385.48138   -281.49626    37426.586 
  790600    296.04971   -1464.1302     504.2755    376.20177    -548.4547    37426.586 
  790700    294.49777   -1485.8383    494.24187    337.45627   -406.21588    37426.586 
  790800    307.58115    -1506.324    500.72582    382.49912    274.59799    37426.586 
  790900    301.31764    -1512.228    513.31998    360.92231    26.549597    37426.586 
  791000    290.20694   -1471.9113    477.73899    315.51608    60.492631    37426.586 
  791100    290.72108   -1490.0646     500.3558    322.29982   -562.79058    37426.586 
  791200    297.10678   -1502.0139    508.73909    347.55214   -211.09747    37426.586 
  791300    295.72184   -1494.4848    471.81978    311.91177   -276.34198    37426.586 
  791400    291.22731   -1459.8916    516.49449    370.89613   -585.91158    37426.586 
  791500    301.73603   -1432.2566    505.02427    434.48624   -381.13874    37426.586 
  791600    300.50592    -1501.122    494.23497     349.2801   -480.49797    37426.586 
  791700    297.10941   -1463.6441    463.62296    340.81773   -240.62462    37426.586 
  791800    304.56507   -1500.1382    474.39617    348.74377    107.35489    37426.586 
  791900    292.31902   -1475.3732     501.2139    345.06077   -698.26665    37426.586 
  792000    303.44867     -1493.39     471.1461    347.20374   -80.272268    37426.586 
  792100     304.3239   -1476.6779    467.86909    364.58868   -112.62192    37426.586 
  792200    310.13341   -1513.8211    471.08686    356.88121    -89.36908    37426.586 
  792300    305.76289   -1480.1817    458.02231    357.73213    42.943271    37426.586 
  792400     301.7065   -1491.6738    481.08309    350.99461    7.5392456    37426.586 
  792500      301.161   -1494.1598     501.0965     366.0601   -299.41959    37426.586 
  792600    304.86131   -1478.1908    491.91491    389.54683    564.41362    37426.586 
  792700    296.59525    -1475.724    473.44809    336.24252   -43.627216    37426.586 
  792800    301.30995   -1458.5496    470.91725    372.16329   -401.86201    37426.586 
  792900    311.93718   -1460.8249     459.1717    406.10261    145.83515    37426.586 
  793000    298.88987   -1451.8764    453.79819    350.79575    486.41133    37426.586 
  793100    290.53144    -1426.601    467.21852    351.77033    159.77672    37426.586 
  793200     301.9229   -1463.4404    507.18727    406.30876    166.20485    37426.586 
  793300    299.76087   -1489.7752    472.21855    335.24806    791.27049    37426.586 
  793400    297.23827   -1449.4415    479.43376    371.41266    1060.0659    37426.586 
  793500    298.49268   -1497.9005    501.90022    351.08123    332.18081    37426.586 
  793600    297.11544   -1448.7423    482.02723    374.15103    444.52154    37426.586 
  793700    297.85015   -1508.4014    479.86242    315.64281    439.42008    37426.586 
  793800    306.08822   -1485.6303     479.5205    375.24998      11.7977    37426.586 
  793900    292.43041   -1500.9754    488.55014     307.2975   -826.56248    37426.586 
  794000    296.66879   -1474.5378    488.98347    353.29604   -427.68434    37426.586 
  794100    304.71361   -1478.2064    484.07832    381.02812    67.303061    37426.586 
  794200    296.55401   -1474.3467    488.23939    352.22505     118.2588    37426.586 
  794300    313.66211   -1460.3199    501.98772     457.2081    347.74737    37426.586 
  794400    296.67855   -1409.9069    477.21595    406.20345   -30.882671    37426.586 
  794500    297.18238   -1446.7468    486.38687    380.80818   -412.56106    37426.586 
  794600    307.97078   -1442.3913    496.80412    444.26841   -746.28976    37426.586 
  794700       301.19   -1453.7105      469.731    375.27488   -254.58655    37426.586 
  794800    300.30848   -1442.8968    500.20255    412.58188   -20.468364    37426.586 
  794900    294.07777   -1490.2542    499.60792    336.51097    52.062894    37426.586 
  795000    314.40807   -1459.3387    476.28503    435.85308    74.387639    37426.586 
  795100    306.65188   -1421.2616    512.96021    475.60209    267.85957    37426.586 
  795200    303.19374   -1483.9003    479.40394    363.80071    616.77601    37426.586 
  795300    295.10876   -1490.6803    473.53241    314.66216   -204.96457    37426.586 
  795400    291.63138   -1551.6312    485.45817    249.94371    309.98801    37426.586 
  795500    307.76537   -1487.9318    486.00958    387.00645   -106.94193    37426.586 
  795600    294.12593   -1476.5402    467.81245    318.64681   -255.55123    37426.586 
  795700    310.35235   -1515.8054    470.32796    355.12603    302.84263    37426.586 
  795800    306.10762   -1451.3667     514.8972    444.97778    343.47972    37426.586 
  795900    296.26236   -1477.4764    499.89475    359.43453    237.14748    37426.586 
  796000     285.3091   -1508.1574    491.73638    271.16364    771.01949    37426.586 
  796100    294.58002   -1475.8865    477.56246    331.09981    777.13501    37426.586 
  796200     302.6762   -1475.4795    490.96518    381.44712    459.59947    37426.586 
  796300    297.90366   -1445.8852    507.36656     405.9046     289.1408    37426.586 
  796400    303.71344   -1429.8573    480.14726    420.93247    239.91017    37426.586 
  796500    309.16134   -1452.3329    502.20462    445.10028    79.360638    37426.586 
  796600    293.14988   -1457.0734    509.55832    375.45464     55.98659    37426.586 
  796700    287.81563    -1460.221    500.46997     339.1455    350.88816    37426.586 
  796800    287.36229   -1505.6207    474.23398    265.46387    77.580522    37426.586 
  796900    307.79154   -1483.5401    487.92388    393.43053    149.16376    37426.586 
  797000    291.48673   -1476.5524    480.12722    319.03882   -286.41894    37426.586 
  797100    302.46276   -1501.8828    531.14108    394.25654   -202.56935    37426.586 
  797200    298.45585   -1501.2633    447.63703    293.28897   -255.31949    37426.586 
  797300    313.77508   -1529.8706    456.86362    343.04319    -485.5722    37426.586 
  797400    299.09553   -1506.5819    485.50023    328.72045   -131.87272    37426.586 
  797500    308.92873   -1529.5343    458.19678    322.84128   -97.819973    37426.586 
  797600    305.39843   -1507.1117    476.80307    347.93813   -161.20706    37426.586 
  797700    302.93313   -1487.4358    501.97761    381.66281   -275.86873    37426.586 
  797800    297.38246   -1502.4675    492.16808    331.77166   -1.5330539    37426.586 
  797900     294.0858   -1502.5174    469.78363    294.45965   -225.71695    37426.586 
  798000    297.95261   -1513.8439    483.09949    313.89973   -316.87899    37426.586 
  798100    299.08496   -1514.6569    484.95579    320.05329    276.59482    37426.586 
  798200    296.27786   -1487.4354    458.48196    308.13262    761.41523    37426.586 
  798300    293.91825   -1475.7251    510.10222    360.81442    414.01492    37426.586 
  798400    299.85448   -1525.4829    473.51088     301.2552    591.67578    37426.586 
  798500    294.99555   -1525.5925    491.60484    297.31148    615.42436    37426.586 
  798600    299.44368    -1555.292    479.84117    275.92248    75.059352    37426.586 
  798700     312.9969   -1535.9307    516.59738    393.20492    206.01206    37426.586 
  798800    295.86627   -1512.2527    495.53886    318.51484    109.92052    37426.586 
  798900    298.47548   -1558.2722    484.88195    273.61367     445.9016    37426.586 
  799000    303.36365   -1552.4986    491.73422    308.29947   -453.45532    37426.586 
  799100    310.15222   -1514.0253    461.11004    346.78508    461.27584    37426.586 
  799200    303.77798   -1516.6863    464.18271    318.43014   -167.24911    37426.586 
  799300    303.47199   -1503.0133    479.42012    345.95964   -66.194624    37426.586 
  799400    311.85161   -1513.4438    485.19049    379.11625   -278.19878    37426.586 
  799500     296.1563   -1541.0272     472.0456    267.55598    460.63945    37426.586 
  799600    306.25354    -1530.154    473.55631    325.50806    880.91756    37426.586 
  799700    292.58899   -1526.5069    476.70053    270.63209    746.93277    37426.586 
  799800    301.47677    -1529.868    478.77299    309.45352    34.606863    37426.586 
  799900    301.67345   -1542.4014    502.40701    321.44171    203.29047    37426.586 
  800000    303.04313   -1516.7305    475.94287    326.82975   -221.88126    37426.586 
  800100    297.39333   -1531.4833    499.71344    310.35032   -577.48507    37426.586 
  800200    289.76908   -1548.2464    462.24796    221.71392   -320.56114    37426.586 
  800300      296.521   -1560.8819     483.4452    260.74666   -257.69394    37426.586 
  800400    288.74167   -1539.6472    456.05203    219.48054    508.71269    37426.586 
  800500    291.48699    -1540.848    515.78041    290.39755    653.16562    37426.586 
  800600    296.22083   -1498.8217    513.35221    351.35922    814.77525    37426.586 
  800700    293.93877   -1485.9291    478.95991    319.56076    1043.1414    37426.586 
  800800     300.7325   -1517.1517    489.14103    329.17898    729.75495    37426.586 
  800900     303.2844   -1488.9948    473.20371    352.91514    880.72439    37426.586 
  801000    307.61154    -1491.352    499.70145     396.5838    787.10595    37426.586 
  801100    297.77522   -1457.4344    489.52074       375.93    3.3984392    37426.586 
  801200    297.21341   -1454.0142    488.51312    375.80708    545.19518    37426.586 
  801300     308.5207   -1476.8526    492.14979    407.63458     304.7907    37426.586 
  801400    301.13485   -1431.3079    486.88539    414.58292    228.46982    37426.586 
  801500    309.07096    -1474.288    517.03328    437.56596    457.70677    37426.586 
  801600    302.87676   -1478.0551    479.71715    368.52864    69.891343    37426.586 
  801700    288.96129   -1487.4981    494.15115    310.71983    327.15639    37426.586 
  801800    295.33023   -1485.2989    496.18686     343.6975      207.615    37426.586 
  801900     302.2691   -1450.9218    503.07227     416.2747   -158.71806    37426.586 
  802000    293.82862   -1466.8062    498.51792    357.74452    -203.1125    37426.586 
  802100    295.35292    -1429.243    481.11634    384.78523   -224.13446    37426.586 
  802200    306.01144   -1427.9281    515.70947    468.79463    -58.09413    37426.586 
  802300    303.17628   -1415.7665    485.15448    437.60622    40.229848    37426.586 
  802400    301.68065   -1454.4548    499.77525    406.78908   -135.33159    37426.586 
  802500    301.51229   -1426.0409    492.48853    427.15643   -637.47767    37426.586 
  802600    296.30341   -1440.5588    478.87543    375.51802   -592.11654    37426.586 
  802700    306.26451   -1528.2746    501.51932    355.40007   -418.32946    37426.586 
  802800    295.14485   -1481.5918    503.01379    353.39494    193.72624    37426.586 
  802900    305.28012   -1510.9676      500.424    367.16918   -287.05478    37426.586 
  803000    295.29422   -1519.6119    461.40712    274.44216    403.70971    37426.586 
  803100    305.03665    -1487.703    493.92259    382.83364   -85.301518    37426.586 
  803200    300.28141   -1466.2053     468.7369    357.68548   -435.25767    37426.586 
  803300    307.84161   -1476.2727    498.70006    411.70001    534.51799    37426.586 
  803400    298.83776   -1467.0108    503.52392    385.15195    364.11024    37426.586 
  803500    289.74148   -1458.7146    538.62438    387.49758    368.15064    37426.586 
  803600     310.2301   -1486.8013    480.43863     393.6891    406.87532    37426.586 
  803700    303.35584   -1496.4815    475.03273    347.57987    1035.1204    37426.586 
  803800    308.96694   -1511.3625    523.23599    406.22471    229.89233    37426.586 
  803900     293.1187    -1462.267    493.31111    353.87312   -70.972614    37426.586 
  804000    287.93938   -1497.5135    495.82341    297.76485    166.03128    37426.586 
  804100    304.05484    -1464.645    536.86833     444.4065   -571.98653    37426.586 
  804200    291.82157   -1487.9621    487.77631    316.78925   -155.40968    37426.586 
  804300    306.05793   -1474.5612    497.64924    404.31103     13.48569    37426.586 
  804400    309.36286   -1476.2213    466.79765     386.7143   -367.89879    37426.586 
  804500    291.93283   -1468.4878    498.44306    347.43244   -68.095732    37426.586 
  804600    303.81508   -1470.9442    472.03275     372.1897   -195.01776    37426.586 
  804700    301.73376   -1493.7164    506.33631     374.3282    272.66671    37426.586 
  804800    302.57036   -1464.0123    465.60095    367.07248   -378.43878    37426.586 
  804900    296.52165   -1483.8247    485.88743    340.24909   -874.21287    37426.586 
  805000     286.6025   -1490.1691    530.82152    334.07412   -801.14286    37426.586 
  805100    292.87996   -1439.0963    472.60063    355.25591   -982.05472    37426.586 
  805200    307.46854   -1478.0997    498.98079     408.4702   -357.13583    37426.586 
  805300     295.7915   -1475.0339    484.64789    344.50521    -269.8998    37426.586 
  805400    307.88663   -1435.7973     464.1628    417.84139   -277.17501    37426.586 
  805500    298.08701   -1454.3035    476.54937    367.49659   -728.75317    37426.586 
  805600    310.51331   -1434.1668     496.3475    463.51066   -1053.8195    37426.586 
  805700    298.71127   -1438.9424     488.4249    397.55042   -425.86378    37426.586 
  805800    306.37608   -1468.6865    478.77406    392.74637   -121.12352    37426.586 
  805900    291.06542   -1464.5605    480.62073    329.62289    45.307829    37426.586 
  806000    293.70652   -1503.4594    456.15142    278.17377   -256.98837    37426.586 
  806100    300.99051   -1506.3478    513.83943    365.84568   -256.05339    37426.586 
  806200    295.50552   -1482.9013    464.96513    315.66441   -167.18574    37426.586 
  806300    303.91612   -1484.4927    493.62346    380.68789    -571.1719    37426.586 
  806400    292.87466    -1450.019     479.0456    350.75425   -526.77306    37426.586 
  806500     302.7237   -1492.7548    474.63865    348.05966    147.71603    37426.586 
  806600     306.5492   -1484.2548    478.53792    377.72318   -401.02722    37426.586 
  806700    295.73697   -1437.7896    496.14792    393.00347   -974.88183    37426.586 
  806800    312.17673   -1388.2447    477.04702    497.63912   -135.96474    37426.586 
  806900    308.56321   -1437.4898    469.57244    424.61181   -298.32804    37426.586 
  807000    288.32457    -1454.626    501.75552    348.32288    217.26743    37426.586 
  807100    299.24853   -1463.0359    462.10186    349.55856   -57.109678    37426.586 
  807200    305.54231   -1445.5992    480.71039    414.00722   -462.68298    37426.586 
  807300    304.77413    -1424.896    489.90413    440.43744    -105.4466    37426.586 
  807400    291.02395   -1456.1624    491.77474    348.98784    750.05247    37426.586 
  807500    293.66135   -1486.6042    492.09216     330.7659    272.85267    37426.586 
  807600    298.52646   -1496.4018    491.20537    342.03746    522.78558    37426.586 
  807700    302.43849   -1518.1341    497.78526    344.53983    470.17792    37426.586 
  807800    304.58398   -1524.5667    482.18545    332.18992    587.56854    37426.586 
  807900    296.53111   -1512.8219    507.53443    332.94154    205.95454    37426.586 
  808000     297.9274   -1467.8396    491.25278    367.94363   -71.692099    37426.586 
  808100    290.97766   -1476.7166    497.13309     333.5831    234.59636    37426.586 
  808200    298.67904   -1460.9129    486.23907    373.24865    76.926062    37426.586 
  808300    290.72926   -1489.4654    491.22119    313.80139    356.52175    37426.586 
  808400    298.25235   -1444.3578    490.12473    391.76384   -65.016375    37426.586 
  808500     306.1672   -1463.0451    495.28439    413.95542    71.072104    37426.586 
  808600    285.47667   -1521.8619     478.9739    245.45295   -321.71881    37426.586 
  808700    291.92141   -1507.6166    493.87441    303.68347   -111.18268    37426.586 
  808800    300.28818   -1484.7262    477.18865    347.64688    250.28564    37426.586 
  808900     292.5457   -1476.8137    540.77037    384.19978    401.82768    37426.586 
  809000    299.98381   -1463.7392    478.45532    368.52698    58.840659    37426.586 
  809100    294.80625   -1471.8719    462.41049    320.98339   -328.62728    37426.586 
  809200    305.25406   -1441.0085    533.67813    470.26483    -44.12941    37426.586 
  809300     264.0571   -1448.9972    525.22578    267.90413   -251.56431    37426.586 
  809400    294.05526   -1448.0658    483.53132    362.52121   -713.56863    37426.586 
  809500    294.56497   -1463.2016     472.8677    339.02196   -435.28034    37426.586 
  809600    291.50726   -1469.9101    493.36653     339.0131   -676.23519    37426.586 
  809700      306.452   -1514.9141    493.22714     361.3145    122.34269    37426.586 
  809800    303.16977   -1521.9333    480.61926    326.87492   -10.952221    37426.586 
  809900    301.15834   -1501.3633    481.72701    339.47517    103.88151    37426.586 
  810000    293.41508   -1525.1019    473.33898    272.40361    978.01609    37426.586 
  810100    297.34042   -1529.6906    495.06142    307.25219    853.19819    37426.586 
  810200    295.42952   -1484.6986    499.67809    348.23708   -145.90429    37426.586 
  810300    305.33095   -1491.3397    480.56125     367.1638    246.91806    37426.586 
  810400    307.24423   -1501.8452    472.79065    357.52214   -320.06863    37426.586 
  810500    299.52989   -1511.7131    479.37178    319.42101   -132.14282    37426.586 
  810600    308.83797   -1494.6082    483.53883    382.69985   -355.79577    37426.586 
  810700    295.90407   -1475.0381    512.63142    372.99253   -242.69403    37426.586 
  810800    294.42805   -1459.6074    486.22416    355.35479   -551.89712    37426.586 
  810900    301.11349   -1472.7184     519.5188    405.70943   -632.53004    37426.586 
  811000     302.2196   -1506.2004    500.90106    358.60151   -535.67752    37426.586 
  811100    309.85336   -1492.5993    473.60231    379.35459   -357.69919    37426.586 
  811200    296.12706   -1487.3433    494.71668    343.77894   -404.09694    37426.586 
  811300    299.43029   -1502.8623    485.97504    334.42556   -212.44366    37426.586 
  811400    298.27328    -1526.462    485.26316    304.89244   -177.81026    37426.586 
  811500    295.86167   -1534.1965    490.16847    291.17979   -127.78503    37426.586 
  811600    304.40576   -1520.9129    476.27578    329.12976    548.61355    37426.586 
  811700     305.6105   -1460.5118    482.32161    401.01359    494.71166    37426.586 
  811800    293.25469   -1490.8898    489.34579    321.89867    388.53704    37426.586 
  811900    292.34611   -1501.4975    499.75864    317.60347    406.21275    37426.586 
  812000    291.45741   -1481.9794    484.32832    317.68057    418.63662    37426.586 
  812100    302.63402   -1496.0243    490.58525    360.33203    298.87722    37426.586 
  812200    299.33704   -1470.6766    496.85942    377.07488    317.24229    37426.586 
  812300    297.50434   -1530.8347    459.20587     270.9923   -153.68213    37426.586 
  812400    300.14247   -1468.9037    524.17621    409.79942    -443.7224    37426.586 
  812500    299.49343   -1487.7077    469.67893    333.56902   -314.24894    37426.586 
  812600    288.93768   -1480.0583    518.83176    342.73379   -91.285721    37426.586 
  812700    293.11988   -1464.1761    511.05271    369.71093    117.47923    37426.586 
  812800    296.33853   -1463.9279     502.7758     376.2078    488.58556    37426.586 
  812900    304.58721   -1436.4746    493.95415    432.06529     161.1824    37426.586 
  813000    300.98739   -1443.8363    495.62774    410.13136   -321.22135    37426.586 
  813100    296.76339   -1455.6206    491.77942    375.43611   -204.03975    37426.586 
  813200     309.0635   -1464.4476     497.3955     427.7349   -262.98708    37426.586 
  813300    298.72187   -1499.8737    477.23836    325.48041   -200.68039    37426.586 
  813400    310.75411   -1474.6354    497.08003    424.86128   -373.03035    37426.586 
  813500     305.9327   -1457.3242    479.89189    403.22555   -232.25772    37426.586 
  813600     299.4158   -1466.1082    497.76185    382.90114    -501.1734    37426.586 
  813700    296.81084    -1483.956    495.27818    350.81363   -271.04679    37426.586 
  813800    312.16263   -1415.8335     485.2542    478.19388    111.45899    37426.586 
  813900    307.72784   -1466.0734     522.7695    445.45535    210.42142    37426.586 
  814000    309.13332   -1444.1793    498.03982    448.96261    452.85236    37426.586 
  814100    307.08723     -1480.52    495.74805    401.09622    17.321758    37426.586 
  814200    279.39415   -1502.2821    534.71328    293.32201    455.05249    37426.586 
  814300    294.40818   -1485.7618    467.05834    309.94489   -167.82465    37426.586 
  814400    305.41418    -1483.488    479.45497    374.28474   -472.14027    37426.586 
  814500     294.2368   -1447.3117    501.88608    382.44924   -866.55636    37426.586 
  814600    301.69918    -1476.449    506.70418    391.80742   -699.67261    37426.586 
  814700    301.03945   -1474.4794    489.08038    373.17593    11.977148    37426.586 
  814800    308.92887   -1482.2174    479.52835    391.49038   -249.04558    37426.586 
  814900    302.09692   -1468.7795    492.00668    386.57438   -301.65942    37426.586 
  815000    307.81716   -1448.4495    478.46425     419.1771   -236.40543    37426.586 
  815100    302.56843   -1447.0217    511.56019    430.01356    102.37954    37426.586 
  815200    308.44968   -1458.1478    480.60434    414.47343     280.5298    37426.586 
  815300    293.38767   -1467.5817    488.17757    344.63874   -252.35286    37426.586 
  815400    301.51917   -1452.0434    483.16969    391.86622   -307.40011    37426.586 
  815500    297.87551   -1403.4662    492.51472    433.34471   -28.432507    37426.586 
  815600    306.53834   -1434.8554    520.36178    468.89747   -259.72723    37426.586 
  815700    307.92086   -1416.3104    509.23545    482.55538   -221.92278    37426.586 
  815800    302.82196   -1438.7844    487.97926    415.81412   -295.91147    37426.586 
  815900    304.00244   -1460.8595    482.89183    393.97901    533.22119    37426.586 
  816000    310.64353   -1507.8868    496.69443    390.72522    188.92958    37426.586 
  816100    297.31104   -1478.3321    523.42119     386.8379    219.25995    37426.586 
  816200    304.13974   -1466.5494    503.86265    409.87962    80.313586    37426.586 
  816300    293.46912   -1437.5468    508.04961    394.91324   -397.62525    37426.586 
  816400    303.69312   -1443.3388    485.07689     412.2889   -53.835126    37426.586 
  816500    298.44844   -1466.6575    493.89641    374.12071    149.61529    37426.586 
  816600    290.19998   -1490.0091    479.12431    298.77217   -117.11206    37426.586 
  816700    303.74437   -1495.0722    509.33427    385.04417    277.43607    37426.586 
  816800    298.29716   -1505.2512    505.68624    346.63415   -25.135474    37426.586 
  816900    304.02921   -1492.5185    486.80872    366.35779   -546.17678    37426.586 
  817000    303.25652   -1483.1566    486.31458    371.73844   -397.59941    37426.586 
  817100    305.15862   -1506.7598    522.51377    392.91843   -621.39077    37426.586 
  817200     295.4039   -1504.0546    481.62636    310.71372   -805.36089    37426.586 
  817300    298.71679   -1497.9678    512.48136    362.60637   -666.47187    37426.586 
  817400    307.12457   -1517.3305    488.17963    356.88579   -310.02741    37426.586 
  817500    298.60549   -1510.3332    470.77425    308.03159    -43.17506    37426.586 
  817600    297.25956    -1523.548    495.13096    313.09939   -459.98553    37426.586 
  817700    303.29032   -1535.5486    459.23163    292.41603   -589.48234    37426.586 
  817800    300.54061   -1493.6771    481.11254    343.75914    85.673912    37426.586 
  817900    300.52039   -1491.0146    530.72547     395.9433    700.21751    37426.586 
  818000    299.92882   -1500.0472    463.30124    316.81672    307.59562    37426.586 
  818100    303.54101   -1490.4323    514.15982    393.59183   -311.69877    37426.586 
  818200    293.54272   -1483.3016    488.78008     330.2211    340.05087    37426.586 
  818300     293.9337   -1505.7345    492.80185    313.57435    283.82358    37426.586 
  818400    296.14537   -1480.6537    485.07973    340.91422   -105.58859    37426.586 
  818500    300.79397   -1478.3698    494.03116    373.12842    -54.74342    37426.586 
  818600    298.84495   -1460.9458    471.44903     359.1745   -171.54895    37426.586 
  818700    315.66552   -1448.0194    488.85999     465.4222   -142.85261    37426.586 
  818800    306.33641   -1522.9063    472.92473    332.49821    206.49289    37426.586 
  818900    303.12707   -1501.0227    487.71411    354.68767    655.70234    37426.586 
  819000    291.96639   -1448.9835    496.36088    365.00604   -160.48127    37426.586 
  819100     307.9998   -1488.5492    482.11521    383.55262    657.44109    37426.586 
  819200    286.75398   -1439.6225    459.45058    313.93342    81.076383    37426.586 
  819300    301.28923    -1454.534    504.99271    410.16087    553.81884    37426.586 
  819400    308.38627   -1483.2924    511.01631    419.45462    149.46235    37426.586 
  819500    294.08763   -1430.5502    494.08823    390.73976   -165.67837    37426.586 
  819600     295.9284   -1466.2053    503.20675    372.51042    -506.3674    37426.586 
  819700    309.71598   -1424.4122    499.63077    472.95019   -13.502534    37426.586 
  819800    297.29976   -1449.6154    501.66608    393.74853   -662.39308    37426.586 
  819900    306.13465   -1450.7112    484.54631    415.40441   -434.07821    37426.586 
  820000    304.61321   -1472.6087    490.16174    392.25616    69.867572    37426.586 
  820100    301.84436   -1533.3268    484.82248    313.70312   -166.24354    37426.586 
  820200    307.19118    -1492.803    481.25471    374.78902     215.3886    37426.586 
  820300    294.43347   -1532.1285    470.30215    266.93612   -118.99505    37426.586 
  820400    303.16134   -1506.3401    517.44967    379.26041    694.68554    37426.586 
  820500    297.09679   -1528.7126    477.56472    289.63399    189.96738    37426.586 
  820600    298.40973    -1534.731    476.56886      288.545   -12.933197    37426.586 
  820700    303.86434   -1486.8535    499.40413    383.87407    381.88734    37426.586 
  820800    301.04589   -1516.1602    498.32651    340.77025    124.78585    37426.586 
  820900    301.81291    -1549.561    462.95046     275.4549     483.3541    37426.586 
  821000    308.50813    -1552.853    486.10156    325.52916    428.59916    37426.586 
  821100    301.38845   -1550.8611    478.69628    287.98511    654.80691    37426.586 
  821200    287.80088   -1535.2081    503.50997    267.13183    489.80496    37426.586 
  821300    310.02096   -1525.0567    461.42169    335.47299    475.11826    37426.586 
  821400    308.15338   -1477.6957    489.43468    402.41864    46.249974    37426.586 
  821500    294.86534   -1467.8994    485.43461    348.24675   -39.849461    37426.586 
  821600     292.3802   -1502.5764    501.79037    318.71009   -329.57129    37426.586 
  821700    304.27814   -1466.7737    493.05604    399.47333   -247.42728    37426.586 
  821800    295.63363   -1528.7082    497.28146    302.75194   -852.54864    37426.586 
  821900    306.16383   -1522.3823    466.99188    326.31049   -249.08112    37426.586 
  822000    295.60836   -1535.5497     477.8668    276.38183   -490.01498    37426.586 
  822100    291.58413   -1565.4982    484.07835    234.48365    297.71227    37426.586 
  822200     306.3895   -1533.9872    488.33556    337.06774   -501.27175    37426.586 
  822300    296.46094    -1514.738    458.88085    282.05525   -10.802781    37426.586 
  822400    305.48838   -1502.9033    518.07065    393.82001    327.62611    37426.586 
  822500    299.14332   -1527.7498    479.53927    301.80729    178.81775    37426.586 
  822600    289.55523   -1554.3059     441.8156    194.25693   -176.59384    37426.586 
  822700    296.85717   -1541.7373    479.57224    277.53544   -42.165543    37426.586 
  822800    313.13285   -1535.5973    508.26164    385.81607    96.752757    37426.586 
  822900    300.42156    -1559.138    479.30494     275.9533     240.6771    37426.586 
  823000    301.88488   -1545.6673    485.51416    302.23717   -52.730904    37426.586 
  823100    298.23089   -1543.9259    481.30142    283.27558   -119.82796    37426.586 
  823200    300.73281   -1499.3567    485.83409    343.66851    8.3860883    37426.586 
  823300    296.82716     -1521.97    472.29395    289.88901   -56.026782    37426.586 
  823400    299.15864   -1480.4245    494.06382    363.72624   -580.73825    37426.586 
  823500    301.38127   -1499.2706    499.37139    360.21827   -39.554653    37426.586 
  823600    307.16943     -1513.78    484.83185    357.29103    475.58001    37426.586 
  823700    305.60538   -1522.5598    496.52268    353.14353   -427.00145    37426.586 
  823800    299.21644    -1487.926    468.78609    331.20791   -97.470673    37426.586 
  823900    299.42063   -1482.5326    487.12498    355.86162   -459.98268    37426.586 
  824000    302.47769   -1468.0474    496.84963    393.86787   -764.98515    37426.586 
  824100    300.92058   -1480.9242    475.69149    352.80573   -90.765771    37426.586 
  824200    295.41735   -1516.0082    486.70621    303.90069   -257.44125    37426.586 
  824300    291.03131   -1485.6487    505.05114    332.81113   -344.12306    37426.586 
  824400    296.11069   -1514.3773    472.56786    294.52225   -624.04001    37426.586 
  824500    297.88252   -1497.3156    494.79589    341.80814   -402.48408    37426.586 
  824600    295.33752   -1493.2006    477.27781    316.91959    4.4680747    37426.586 
  824700    304.48913   -1554.9774    500.78696    319.95267    -262.5021    37426.586 
  824800    309.12945   -1469.4742    475.89003    401.50047    155.19102    37426.586 
  824900    293.69783   -1476.8155    509.68153    358.30855    302.54982    37426.586 
  825000    303.01072   -1477.9877    513.47455    402.95794    283.88286    37426.586 
  825100    297.19732    -1501.627    485.40081    325.00943    296.62122    37426.586 
  825200    297.79184   -1498.3619    470.32701    315.88375    122.79027    37426.586 
  825300    299.26762   -1492.1083      480.348    338.81846    884.74423    37426.586 
  825400    296.93021   -1524.6912    488.06308    303.40202    338.76971    37426.586 
  825500    294.15516   -1527.7242    481.24386    281.02609    21.440443    37426.586 
  825600    302.37171   -1464.1269    504.00743    404.46793   -101.54675    37426.586 
  825700    300.93027   -1459.6642    516.03472    414.45268    -193.2999    37426.586 
  825800    289.92893   -1500.1766    498.47069    306.72781    -498.6751    37426.586 
  825900    292.48633   -1472.6236     501.5299    348.88143   -136.95786    37426.586 
  826000    306.38003   -1492.6564    450.01415    340.03438   -278.31398    37426.586 
  826100    302.53388   -1505.5169    505.67584    365.47816    69.203741    37426.586 
  826200    305.03016   -1515.5626    515.67891    376.70108    45.431745    37426.586 
  826300     290.0647    -1531.562    457.51621    235.00069    203.80754    37426.586 
  826400    293.59938   -1488.1754    477.99825    314.82115    40.780168    37426.586 
  826500    298.38235   -1468.8681    482.58302    360.29846    -115.5772    37426.586 
  826600    297.09882   -1489.6289    497.97691    349.13911   -419.75001    37426.586 
  826700    293.57535   -1460.7843    504.59785    368.70335    234.04644    37426.586 
  826800    299.23093   -1521.1451     473.4005    302.66854    76.605063    37426.586 
  826900    288.49626   -1473.3628    479.92475    308.53009    183.60857    37426.586 
  827000    311.39116   -1501.5599    506.05716    409.78886    77.258935    37426.586 
  827100    303.06328   -1439.8905    491.50846    419.32633   -118.40635    37426.586 
  827200    300.87023   -1429.4039    499.82415    428.23145   -161.53013    37426.586 
  827300    303.46048   -1466.9265    497.35868    399.93308   -26.060318    37426.586 
  827400    294.84743    -1479.072     476.6893    328.24797    498.39705    37426.586 
  827500    296.14671   -1478.6544    475.05582    332.89565   -21.493113    37426.586 
  827600    307.35842   -1442.6142    495.65358    440.13141    98.980963    37426.586 
  827700    289.71545   -1497.5276    493.32744    303.27015    219.52932    37426.586 
  827800     303.0459   -1454.5005    478.79753      391.927    332.97484    37426.586 
  827900    309.70632   -1474.7793    529.00743    451.91616    494.78736    37426.586 
  828000    292.87016   -1491.3089    496.98559    327.38401    20.025301    37426.586 
  828100    296.26582    -1517.046    479.21011    299.19588   -385.08534    37426.586 
  828200    302.64379   -1500.8774     492.5961    357.53393    302.39179    37426.586 
  828300    292.11626   -1494.2541    485.18478    309.23575    12.803864    37426.586 
  828400    292.99663   -1498.5174    492.99564    316.75633    38.729844    37426.586 
  828500    293.99442   -1497.2512    499.41814    328.94804    -126.0272    37426.586 
  828600    304.97155   -1490.5782    480.26288    366.00495   -94.396028    37426.586 
  828700    293.87698   -1468.1916    488.69329    346.75272    78.284226    37426.586 
  828800     309.2215   -1474.9415    474.75168    395.31024   -121.23527    37426.586 
  828900    296.46141   -1466.1042    488.75394    360.56418    174.89872    37426.586 
  829000    291.13002    -1486.469    511.02393    338.40913    42.299027    37426.586 
  829100    303.66098    -1476.927    468.42389    361.90263    103.94584    37426.586 
  829200     300.0462   -1489.0417    478.68764    343.73833      170.945    37426.586 
  829300    296.22271   -1487.1835    484.31725    333.97091   -350.72672    37426.586 
  829400    309.17803   -1480.8532    494.77494    409.22563   -178.24244    37426.586 
  829500    296.55785   -1507.6329    451.81291    282.52964    70.123002    37426.586 
  829600    301.71086   -1448.6444    506.25835    419.21893    759.62773    37426.586 
  829700     297.4716   -1531.2786    492.67541    303.87023    846.95037    37426.586 
  829800    295.60505   -1467.1706    493.82895    360.70813    302.40583    37426.586 
  829900    294.07988   -1476.9085     490.9969     341.2551    478.38931    37426.586 
  830000    284.56211   -1488.9359    468.20034    263.47803    263.15716    37426.586 
  830100    307.30182   -1486.5309     496.9437    397.24946   -254.17998    37426.586 
  830200    304.49212   -1476.7423    485.51728    382.93157   -380.31749    37426.586 
  830300    310.53513   -1459.2441    500.30047    442.48474    4.5962234    37426.586 
  830400    301.87591    -1512.723    472.57362    322.20043     4.014404    37426.586 
  830500    303.73813   -1483.7104    494.46037     381.5039   -93.350192    37426.586 
  830600    294.37704   -1508.4882    471.79833    291.81796    401.28525    37426.586 
  830700    289.56047   -1466.7401    503.45306    343.48389    407.91287    37426.586 
  830800     296.0096   -1558.0668    475.92747    253.73616   -158.42906    37426.586 
  830900    293.71833   -1560.1987    484.46926    249.80563   -72.849512    37426.586 
  831000    300.13229   -1517.2172    481.86627    319.13004   -107.44513    37426.586 
  831100    304.60139   -1511.7142    487.81293    350.74846    272.89147    37426.586 
  831200    301.46208   -1483.6486    485.78482    362.61842    187.09445    37426.586 
  831300    301.58485   -1531.0183    477.64845    307.66645    23.337959    37426.586 
  831400    300.41425   -1505.9256    483.90715    333.73491   -250.67331    37426.586 
  831500    301.41097   -1500.5335    485.59961     345.3177   -204.12637    37426.586 
  831600     306.8146   -1484.3568    471.95772    372.23874    296.46632    37426.586 
  831700    310.61947    -1538.938    477.59211    340.46311    683.64134    37426.586 
  831800    292.18168   -1548.4742    467.25638    237.38248    249.82423    37426.586 
  831900    295.36118   -1535.1331     490.6644    288.48054    737.14248    37426.586 
  832000     295.7613   -1514.2186    483.49919    304.03553     320.5875    37426.586 
  832100    299.94011   -1550.6597    473.60951    276.56343   -253.87374    37426.586 
  832200    307.75699   -1514.0893    477.77272    352.57426    380.10018    37426.586 
  832300    294.79396   -1497.4909    460.52208    293.42054   -294.14737    37426.586 
  832400    303.44802   -1502.8343    484.48047    351.09088   -260.11959    37426.586 
  832500    308.91044   -1500.1577    459.84333    353.78187     -218.864    37426.586 
  832600    294.82288   -1535.4438    501.10561     296.1817   -470.06637    37426.586 
  832700    303.62326   -1499.9886    482.07155    352.31846    199.39514    37426.586 
  832800    292.94459   -1507.3635    518.97008    333.64984    161.31148    37426.586 
  832900    304.31034   -1471.7906    488.67937    390.22505    318.83744    37426.586 
  833000    294.13915   -1545.4043    480.54137    262.57123   -68.704984    37426.586 
  833100    302.80922   -1531.7948    474.67272    309.43972   -468.89474    37426.586 
  833200    309.87413   -1492.5243    508.32596    414.24695    501.02747    37426.586 
  833300    304.41149   -1481.6868    474.65552    366.76145     206.5862    37426.586 
  833400    301.91351   -1516.8156    469.73072    315.43462   -51.213491    37426.586 
  833500     298.0185   -1473.0196    489.55309    361.47498   -30.366069    37426.586 
  833600    298.30166   -1465.8398    495.72696    376.10657    244.30536    37426.586 
  833700    292.91327   -1468.0623    484.72576    338.56539   -38.462781    37426.586 
  833800    294.95728    -1473.925    508.32707    365.52847   -112.84658    37426.586 
  833900    304.86742    -1498.867    496.75554    373.73883   -232.67529    37426.586 
  834000    301.87748   -1509.7917    502.67607     355.2413   -562.15706    37426.586 
  834100    307.71515    -1498.703    469.87972    359.87872    26.224902    37426.586 
  834200    302.73272   -1516.1475    468.47337    318.54238   -501.69926    37426.586 
  834300    304.64455   -1569.5076    474.58622    279.92314   -205.02149    37426.586 
  834400    298.38527    -1551.271    498.47169    293.79741    389.51809    37426.586 
  834500    301.75519   -1545.3995    508.17673    324.58222     533.3817    37426.586 
  834600    295.53833   -1512.6018    463.37896    284.52583    97.524531    37426.586 
  834700    292.95732   -1516.0629    491.39975    297.43752    200.17106    37426.586 
  834800    296.60218   -1516.0707    517.05282     339.5318   -15.031207    37426.586 
  834900    298.87491    -1464.688    496.02106    380.13958     267.8291    37426.586 
  835000    288.75941    -1536.505    485.31102    251.96173    -212.7677    37426.586 
  835100    295.20831   -1489.2506    494.18854    337.19727    50.710291    37426.586 
  835200    312.00674    -1523.825    510.19989    394.44457   -519.45862    37426.586 
  835300    288.98098    -1490.855    517.91897    331.21962   -347.58993    37426.586 
  835400    302.04185   -1478.5859    490.06408    374.57688   -515.10631    37426.586 
  835500    302.46771   -1540.5438    482.16523    306.64203   -129.20987    37426.586 
  835600    284.45378    -1527.564     493.6103    249.77094   -344.43793    37426.586 
  835700    296.91468   -1544.7146     493.1636    288.40901   -357.60854    37426.586 
  835800    294.23848   -1555.9277    494.07011    266.02492    248.25514    37426.586 
  835900    301.48824    -1566.653    503.25212    297.19937    559.76374    37426.586 
  836000    298.14128   -1544.1673    475.41764    276.74594   -35.864328    37426.586 
  836100     306.0841   -1501.0801    506.50668    386.76775     34.42162    37426.586 
  836200    307.83384    -1515.191    518.74234    392.78899    278.49071    37426.586 
  836300    297.29735   -1525.8724    471.67256    287.48722   -306.20659    37426.586 
  836400    291.67496   -1521.7539    502.91588     297.4754    -74.93553    37426.586 
  836500    307.43978   -1505.1925    479.46831    361.73501    667.89496    37426.586 
  836600    296.74573   -1519.8646    493.42997    312.76292    504.61438    37426.586 
  836700    309.70739   -1579.7597    490.53067    308.46377    353.31552    37426.586 
  836800    300.56702   -1529.6541    481.52781    308.31653   -86.685174    37426.586 
  836900    296.55069   -1507.5759    503.74576    334.48727    244.01553    37426.586 
  837000    293.80091   -1531.4683    475.70172    270.14121    -259.6774    37426.586 
  837100    306.02477   -1555.6626     491.2941    316.70486   -428.10294    37426.586 
  837200    301.69037   -1518.4672    500.63373    343.67897    -427.1624    37426.586 
  837300     289.4336   -1560.0209     495.9228    242.10025   -44.821475    37426.586 
  837400    309.14005   -1530.5113    485.59219    350.21332   -83.618545    37426.586 
  837500    286.26211   -1500.1704     498.4445     290.1597    132.06445    37426.586 
  837600    290.15734   -1547.2665    510.81519     273.0132   -75.655144    37426.586 
  837700    297.66561    -1498.154    482.52078    327.71577    157.45435    37426.586 
  837800    297.99645   -1520.6463     497.7749    321.97065     409.3308    37426.586 
  837900    294.78786   -1505.8307    479.55065    304.08172    384.95974    37426.586 
  838000    310.26772   -1496.3035      519.212    423.13006   -558.10382    37426.586 
  838100    296.16582   -1488.5701    488.55869    336.56909    108.28167    37426.586 
  838200    280.12747   -1517.5577    518.41531     265.0579   -256.26341    37426.586 
  838300    301.74249   -1520.2029    498.51301    340.05774    155.85496    37426.586 
  838400    301.59712   -1500.4231    462.68625    323.35476   -71.582299    37426.586 
  838500    298.95672   -1479.0073    513.41112    383.57951   -21.761651    37426.586 
  838600    307.02525   -1485.9801    478.30527    377.91363    108.50685    37426.586 
  838700    297.03715   -1520.8074    528.67813    348.38349    23.859696    37426.586 
  838800    296.94329   -1481.0982    525.51146    384.50238    145.63731    37426.586 
  838900    304.39606   -1479.1632    486.04021    380.60006    343.48602    37426.586 
  839000    303.05368   -1448.8848    521.46622    440.24643   -520.55657    37426.586 
  839100    297.10584   -1444.8902    516.50967    412.44221   -1071.9659    37426.586 
  839200    295.29318   -1449.9815    493.79679    376.45763   -669.08867    37426.586 
  839300    311.57943   -1480.0825    490.14025    416.19902    148.08471    37426.586 
  839400    307.00826   -1523.9868    522.38512    383.91013    45.360449    37426.586 
  839500    295.51724   -1471.2115    501.85993    364.30185   -512.03597    37426.586 
  839600    304.91564   -1521.5534    519.65452    374.16903   -495.91622    37426.586 
  839700    294.95362   -1497.8577    481.64566    314.89783    26.691372    37426.586 
  839800    309.32281   -1528.9787    505.21906    372.19768   -519.18757    37426.586 
  839900    303.48771   -1518.6912      500.201    351.13358    -377.6619    37426.586 
  840000    307.89997   -1468.0443    496.80683    418.29861   -141.47079    37426.586 
  840100    297.45338   -1468.3627     531.4535    405.48194    321.76482    37426.586 
  840200       298.44   -1475.5741    470.07061     341.3402   -296.91576    37426.586 
  840300    306.54605   -1477.0407    522.39006    428.77523    -921.6802    37426.586 
  840400    294.87671   -1469.1639    487.04767    348.64658   -502.19128    37426.586 
  840500    304.90689    -1469.814    512.67415    418.88861   -676.91064    37426.586 
  840600    307.44763   -1480.3273    485.02846    392.19587   -469.12816    37426.586 
  840700    313.35813   -1466.4658    530.88322    478.58593   -527.37697    37426.586 
  840800    294.40527    -1496.763    498.34424    330.21645   -508.86749    37426.586 
  840900    292.89499   -1500.8722    515.96651    336.91364   -532.74598    37426.586 
  841000    307.42046   -1494.6909     516.0114     408.6926   -397.48163    37426.586 
  841100    300.82502   -1525.7549    474.73438    306.58668   -304.72268    37426.586 
  841200     311.3601   -1498.9982    486.34613    392.49943   -346.57997    37426.586 
  841300    303.84958   -1491.6143    495.70895    375.35155   -259.78157    37426.586 
  841400    303.78633   -1515.6641    506.92701    362.23437     181.6776    37426.586 
  841500    298.53673   -1502.9265    498.94918    343.30291   -83.521013    37426.586 
  841600    300.74521   -1456.0377    511.01205    412.22142   -468.40283    37426.586 
  841700    290.65728   -1501.0246    511.40391    322.10007   -471.27633    37426.586 
  841800    294.44046   -1535.9422    484.20182    277.05363   -65.401853    37426.586 
  841900    288.30128   -1523.8885    528.58674     305.7865   -253.25989    37426.586 
  842000    300.34393   -1544.1337    512.80299    324.10538    577.91882    37426.586 
  842100    299.98779   -1541.0089    509.51548    322.33541    171.43551    37426.586 
  842200    293.15895   -1523.6053    509.66858    309.07386    97.269533    37426.586 
  842300    292.02915   -1535.4212    491.95957    274.45031    436.60635    37426.586 
  842400    293.92003   -1519.6716    495.16349    301.93725     275.2245    37426.586 
  842500    301.77235   -1519.0975    502.65097    345.43589    -121.6552    37426.586 
  842600     302.3899   -1515.4118    507.96135     357.2189    195.83787    37426.586 
  842700    296.49999   -1505.3716    518.45199     351.1689    551.94444    37426.586 
  842800    303.21768   -1500.4171     495.2469    363.23497    519.75081    37426.586 
  842900    294.61439   -1500.6054    488.88611    317.85972    632.48002    37426.586 
  843000    307.63886   -1563.3295    481.51651    306.54464    823.46648    37426.586 
  843100    297.47186   -1538.0136    486.02582    290.48677    318.64957    37426.586 
  843200    314.44769   -1496.8721     528.2895    450.50301    318.43723    37426.586 
  843300    292.14222   -1543.8684    494.50164    269.05549    23.265457    37426.586 
  843400    305.67904   -1555.2345    493.66504    317.94365    610.62886    37426.586 
  843500    296.62825   -1550.5412    496.38019    284.50636    255.37509    37426.586 
  843600    306.97034   -1542.9937    464.83553    307.18249    425.11859    37426.586 
  843700    309.79216   -1549.6335    479.48407    327.92599    1082.0575    37426.586 
  843800    284.66998   -1554.6263    519.30671    249.38079    332.43452    37426.586 
  843900    304.87516   -1548.9655    481.74971    308.66947    -173.3912    37426.586 
  844000    297.20063   -1537.3296    485.58414    289.50507   -386.24774    37426.586 
  844100    297.26612   -1512.6137    484.45462    313.38698    -890.7017    37426.586 
  844200    300.44656   -1531.6534     479.2733    303.51916   -1035.9043    37426.586 
  844300    302.43818   -1547.5163     479.2165    296.58744   -414.34075    37426.586 
  844400     313.5012   -1525.6738    480.00059    369.14091   -325.69732    37426.586 
  844500    298.73884   -1522.4053    507.83555    333.62263   -729.84434    37426.586 
  844600    304.46408   -1531.5963    482.13737     324.5711    -392.5469    37426.586 
  844700    303.55625   -1502.9808    487.05311     354.0054   -78.420172    37426.586 
  844800    296.90197   -1473.8824    497.77074    363.79098   -717.80434    37426.586 
  844900     302.4718   -1475.9115     482.3111    371.43864   -396.65448    37426.586 
  845000    292.57196   -1492.6608    492.93808    320.63884   -153.80926    37426.586 
  845100    295.20238   -1502.8918    488.47672    317.81743     161.1316    37426.586 
  845200    306.64774   -1519.4118    541.52821    406.00124    258.37259    37426.586 
  845300     290.6394   -1469.5455    490.47317    332.56769   -75.147558    37426.586 
  845400    297.24565   -1518.8955    472.24442    294.80258   -366.43951    37426.586 
  845500    296.41716   -1537.0395    501.84208    302.51729   -271.41123    37426.586 
  845600    303.44475   -1540.2063    494.12273    323.34633   -137.69696    37426.586 
  845700    307.57363   -1511.2576    468.16339    344.96912      415.159    37426.586 
  845800    304.46944   -1538.5047    472.33597    307.88554    394.21813    37426.586 
  845900    288.10524   -1523.9182    498.15739    274.44274    439.98796    37426.586 
  846000     303.4013   -1529.8338    493.41126    332.81123    893.18251    37426.586 
  846100     312.4748   -1496.3837     459.3541    373.15241      346.336    37426.586 
  846200    294.03544   -1481.7821    482.92922    328.11336   -47.589637    37426.586 
  846300    300.41894    -1502.076     515.1303    368.82884    288.77407    37426.586 
  846400    309.73619   -1538.4066    473.84601    333.26227    302.68467    37426.586 
  846500     300.7967   -1510.0606    482.85163    330.27044    421.18815    37426.586 
  846600    292.86029   -1491.3182    495.76256    326.10712    171.71025    37426.586 
  846700    306.04416   -1470.6704    488.36339    398.85386    290.23374    37426.586 
  846800    307.57451   -1529.4677    492.82692    351.42653    53.228935    37426.586 
  846900    294.12284   -1527.9104    482.41385    281.86401    212.07976    37426.586 
  847000    297.16218   -1505.0218    488.11292    324.16809    76.766817    37426.586 
  847100    309.17758   -1536.2632    490.55632    349.59495    73.927836    37426.586 
  847200    296.96211   -1511.7757    496.80964    325.20805   -145.13158    37426.586 
  847300     287.7048   -1501.6635    491.71327    288.44613   -68.564321    37426.586 
  847400    294.95234   -1500.7726    492.64502    322.97649    365.97638    37426.586 
  847500    302.38731   -1515.0232    505.56078    355.19535    416.33854    37426.586 
  847600    289.87011   -1521.1649    508.98237    295.98577    1154.0704    37426.586 
  847700    303.98212   -1502.4842    485.38353    354.75436    663.76023    37426.586 
  847800    299.48455   -1495.5124    476.57853    332.62383    430.38776    37426.586 
  847900    301.05442   -1513.4621    493.34112    338.52155    494.70961    37426.586 
  848000    300.55102   -1508.5421     487.0896    334.91816    351.36849    37426.586 
  848100    294.84907    -1518.924    496.78396    308.49799    576.40759    37426.586 
  848200     299.4357   -1522.8013    504.09989    332.63582    969.94383    37426.586 
  848300    287.08014   -1509.7539    512.66733    298.49074    733.91908    37426.586 
  848400    298.78433   -1549.0951    520.77266    320.07526    429.59833    37426.586 
  848500    300.84273   -1529.4882    468.03395     296.2329   -226.24968    37426.586 
  848600    293.97412   -1498.7995    505.54487    333.43478    8.2091706    37426.586 
  848700    302.93965   -1517.9894    472.59577    321.75675    -50.20321    37426.586 
  848800    295.11872   -1480.7807    484.46659    335.54088   -172.46037    37426.586 
  848900    302.98899   -1474.8209    515.80345    408.35567     58.12616    37426.586 
  849000    287.61156   -1487.1639    484.08199    294.89368   -134.29836    37426.586 
  849100    299.98946   -1463.2592    506.21848    396.79562    96.735191    37426.586 
  849200    303.21006   -1489.6069     482.3749    361.13878   -390.48859    37426.586 
  849300     294.0471   -1487.8368    481.41951    320.60154   -277.93275    37426.586 
  849400    312.58148   -1527.6067    489.58881    372.64559     93.87282    37426.586 
  849500    303.14455   -1519.8988    489.20799     337.3843    415.94072    37426.586 
  849600    305.65712   -1495.6147    499.02896    382.82845    479.24847    37426.586 
  849700    301.39423   -1510.5477    498.61616    348.24449    998.50589    37426.586 
  849800    304.73806   -1507.1509    491.33919    359.45482    192.60837    37426.586 
  849900    298.27744   -1463.9327    516.32271     398.5001    28.359237    37426.586 
  850000    296.07943   -1457.9434    514.27681    392.52406    89.976989    37426.586 
  850100    296.46078   -1481.5391    502.12511    358.49765    20.898155    37426.586 
  850200    292.62289   -1495.7053    488.05075     312.9368    143.55213    37426.586 
  850300    308.01539   -1496.7343    494.04337    387.36601   -773.33352    37426.586 
  850400     298.9149   -1486.2273     469.0168    331.77645   -29.754332    37426.586 
  850500    295.58749   -1504.6749    486.68231    315.97795     -148.046    37426.586 
  850600     304.3658   -1508.0541    502.78755    368.31994   -142.25461    37426.586 
  850700    289.32162   -1478.3474    492.77934    320.12488   -142.71419    37426.586 
  850800    307.87648   -1492.6859    525.91924    422.66338   -311.32518    37426.586 
  850900    301.27437   -1523.0506    506.51599    343.10053   -128.03062    37426.586 
  851000    292.53349   -1504.4009    488.30609    304.09319   -29.921126    37426.586 
  851100    296.21291    -1499.108    526.08878    363.77372   -209.80452    37426.586 
  851200    300.53646   -1514.1619    489.35898    331.50196   -447.57707    37426.586 
  851300     290.5033   -1457.3613    502.24995    355.91446   -87.585472    37426.586 
  851400    303.12707   -1476.1953    497.00004    388.80102    375.26747    37426.586 
  851500     306.9755   -1506.2665    473.14003    352.23752    14.744032    37426.586 
  851600    297.70996   -1517.2156    488.01593    314.34937   -34.371283    37426.586 
  851700    305.65922   -1494.0557    486.10945    371.47742   -273.98053    37426.586 
  851800    295.81485   -1531.0573    498.84264    302.78192    10.428744    37426.586 
  851900    303.87637   -1513.9242     494.7936    352.24719    252.88015    37426.586 
  852000    295.70343   -1459.6064    492.26786    367.15516     483.7867    37426.586 
  852100    298.30089    -1469.503    494.42487    371.13785   -47.602666    37426.586 
  852200     303.5173   -1456.9832    503.47525    416.24938    36.831033    37426.586 
  852300    298.80781     -1458.74    490.10201    379.86563   -381.86821    37426.586 
  852400    306.19695   -1430.2541     497.5771    449.17342    88.049041    37426.586 
  852500     302.3132   -1487.8852    498.87682    375.31486   -355.75877    37426.586 
  852600    295.07045   -1503.3617    474.20321    302.47864    88.859438    37426.586 
  852700    303.41468    -1480.775    522.16031    410.67945   -247.80817    37426.586 
  852800    302.51451   -1494.7956    491.59011    362.02629    117.30996    37426.586 
  852900    294.39007   -1469.7242    484.09743    342.93985   -324.34976    37426.586 
  853000    302.92174   -1507.0645    502.06847    362.07354   -140.21901    37426.586 
  853100      296.759   -1495.7497    470.82854    314.33631   -77.244447    37426.586 
  853200    301.16804   -1451.2035    477.41517    385.36685   -503.87279    37426.586 
  853300    294.61232   -1422.7885    486.21049    392.99159   -165.86264    37426.586 
  853400    304.83279   -1471.7367    507.76179    411.71911   -225.95197    37426.586 
  853500    295.03443   -1471.0914    473.21245    333.59566   -813.04624    37426.586 
  853600    309.85315   -1411.7403    465.17805    451.78843   -78.315978    37426.586 
  853700    301.21148   -1406.5154    492.13117    444.96701   -616.03222    37426.586 
  853800    298.27755   -1429.0498    506.05831    423.11913   -373.44865    37426.586 
  853900    296.96245    -1413.768    507.18005    433.58773   -110.72875    37426.586 
  854000    293.07796   -1406.9135    508.83142    424.56303    442.58695    37426.586 
  854100    309.95152   -1439.5538    512.93199    472.17282    365.05207    37426.586 
  854200    296.37893    -1433.799    500.24451    403.98777   -218.65875    37426.586 
  854300    294.68545   -1459.1069    489.38316    360.17593   -282.10619    37426.586 
  854400    306.47214   -1477.8653    480.15759    385.38461    268.60883    37426.586 
  854500     299.8932   -1443.0661    517.26756    427.60339    411.15626    37426.586 
  854600     293.8477   -1468.7581    493.04603    350.40683    356.85674    37426.586 
  854700    298.34045   -1463.3991     523.7046    406.69992    474.09457    37426.586 
  854800    304.10662    -1456.205    497.24161    413.45347    284.08814    37426.586 
  854900    288.99583   -1483.2579    495.85545    316.82029   -123.08178    37426.586 
  855000    319.02776   -1459.7375    490.08052    470.09824   -243.33505    37426.586 
  855100    305.84755   -1469.5163    498.74609    409.50343   -673.07657    37426.586 
  855200    305.76273   -1462.7785    497.01972    414.13202   -323.44852    37426.586 
  855300    295.05164    -1477.302    473.44081    327.69106   -789.31036    37426.586 
  855400    301.10089   -1494.4654    481.41871    345.80549   -299.23435    37426.586 
  855500    299.15808   -1459.7231    493.66385    384.02512   -127.17982    37426.586 
  855600    296.59468   -1467.8151      487.692     358.3928   -49.971771    37426.586 
  855700    299.46621   -1461.8851    508.84466    398.43449    291.04622    37426.586 
  855800    293.51346   -1504.3739    481.94702     302.1836    108.78201    37426.586 
  855900    301.89063   -1464.4339     476.0761     374.0585   -101.51649    37426.586 
  856000    293.73604   -1478.6316    481.67889    328.66234   -688.78141    37426.586 
  856100    310.32329   -1455.1342    472.52594    417.86411   -671.25683    37426.586 
  856200    297.07796   -1459.6741    461.79802    342.82085   -855.37457    37426.586 
  856300    299.03803    -1483.312    492.48361    358.71416   -1308.8967    37426.586 
  856400    299.94066    -1495.236    498.89649    357.27664   -692.58994    37426.586 
  856500    308.51597   -1465.9916    486.06648    412.39092   -303.37828    37426.586 
  856600    303.23122   -1472.1393    502.65791    398.98484   -387.75347    37426.586 
  856700    295.28156   -1462.6025    498.35283    368.34015    118.74591    37426.586 
  856800    301.57117   -1457.8278    495.69102    398.83775    -381.8888    37426.586 
  856900    287.74254   -1465.3618    478.51449     311.7193   -722.96457    37426.586 
  857000    299.64645   -1465.5278    508.57928    395.33981    63.151542    37426.586 
  857100    297.63022   -1477.3188    503.63098    369.50139   -415.95359    37426.586 
  857200    295.70787   -1444.2317    528.49695    418.77901   -421.73767    37426.586 
  857300    293.25776   -1473.1291    467.06435    317.39182    -485.6543    37426.586 
  857400    297.07118   -1453.0574    517.31614    404.92503   -915.92878    37426.586 
  857500     304.6673   -1446.1778    496.51187    425.28126     41.87817    37426.586 
  857600    305.60273   -1472.6785    470.43005    376.92027   -586.78816    37426.586 
  857700    297.21051   -1476.6449    506.81948    371.46967   -912.88356    37426.586 
  857800    290.01437   -1459.8469    493.03255    342.00496   -433.67392    37426.586 
  857900    289.51559   -1431.0647    490.36728     365.8709   -686.21113    37426.586 
  858000    297.39528    -1464.869    486.63976    363.89976    -316.1603    37426.586 
  858100    306.42848   -1480.4083     490.2147    392.70168   -469.00147    37426.586 
  858200    296.68753   -1497.2968    479.93543     321.5736   -146.81523    37426.586 
  858300    302.63695    -1505.609    482.60707    342.78241     76.27775    37426.586 
  858400    302.59994   -1477.8123    484.79085    372.59592    266.68632    37426.586 
  858500    300.82303   -1439.1187    487.65334    406.13289   -431.29697    37426.586 
  858600    298.32203   -1436.3175    483.50852    393.50235   -493.47178    37426.586 
  858700    301.65401    -1471.227    495.81795    385.93934    178.92982    37426.586 
  858800    289.44273   -1474.0198    479.74717    311.96686    72.305899    37426.586 
  858900    302.46535    -1490.484    500.76285    375.28871   -102.46574    37426.586 
  859000     297.1065    -1503.306    487.28425    324.80396   -93.738677    37426.586 
  859100    306.23335   -1524.2207    481.83178    339.62581     16.99058    37426.586 
  859200    296.65652   -1463.1859    506.35437    381.96342   -543.31179    37426.586 
  859300    296.84602    -1479.388    479.40176    339.66391   -1040.4448    37426.586 
  859400    305.00088   -1487.2044    469.16706    358.41528   -736.06145    37426.586 
  859500    296.78147   -1518.8344    472.81989     293.3444   -294.14114    37426.586 
  859600    304.14132   -1498.7527    471.79512     345.6159    -73.92951    37426.586 
  859700     307.5917   -1525.5996    483.29372    345.83903    132.67994    37426.586 
  859800    296.64308   -1519.5685    481.35809     300.5239    -211.7088    37426.586 
  859900    298.69278   -1497.6299    524.10902    374.46361   -75.326723    37426.586 
  860000    304.43546   -1509.3802    481.39748    345.91823    585.51024    37426.586 
  860100    293.55389   -1492.7706    467.28872    299.31108    257.82109    37426.586 
  860200    301.78421   -1446.6929    531.85262    447.09572   -52.273494    37426.586 
  860300    294.94595   -1458.2706    476.29352    349.09813   -48.997485    37426.586 
  860400    312.94181   -1502.4643    481.37194    391.19726    741.49091    37426.586 
  860500    296.93783   -1513.3822    491.10081    317.78318    392.28546    37426.586 
  860600    297.45983   -1542.3331    486.42923     286.5164    977.05499    37426.586 
  860700     305.8929   -1498.0484    480.18555    362.61539    459.47056    37426.586 
  860800     308.7349   -1487.8811    484.22969    389.65263    931.01858    37426.586 
  860900    294.13134   -1492.2017    472.79957    307.99688    618.33948    37426.586 
  861000    297.07943   -1473.7505    475.89732    342.85033    304.65709    37426.586 
  861100    303.95682   -1450.4739    490.70548    411.97239   -251.91334    37426.586 
  861200    295.11337   -1426.7649    521.12777     426.1937   -389.38171    37426.586 
  861300     288.6396   -1437.5516    478.93942    344.00288    207.02745    37426.586 
  861400    307.49825   -1433.7822    485.11187    439.05282   -151.37607    37426.586 
  861500    288.23734   -1476.4176    487.10259    311.48465    181.49454    37426.586 
  861600    301.41544   -1458.4053    475.30694    377.17334   -94.306702    37426.586 
  861700    299.11686   -1442.6383    492.80444    400.06445   -783.92796    37426.586 
  861800    304.62995   -1433.2543    492.48428    434.00862   -12.365581    37426.586 
  861900    303.00384   -1410.2797    495.55072    452.71105    205.41204    37426.586 
  862000    302.98431   -1433.4396    494.22271    428.13504    351.63529    37426.586 
  862100    293.41212   -1435.4798    483.46009    372.13342   -117.78415    37426.586 
  862200    293.42249    -1453.752    505.05994    375.50793   -486.38915    37426.586 
  862300    301.77769   -1483.1276    495.39824     374.1772   -707.62772    37426.586 
  862400    298.73731   -1495.5405    493.43707    346.08207   -430.28577    37426.586 
  862500    288.96368   -1448.3749    489.99747    345.70017   -1043.8778    37426.586 
  862600    302.99623   -1490.2986    468.29493    345.40209   -616.12171    37426.586 
  862700    288.15636   -1506.5633    482.63147    276.50237   -604.13353    37426.586 
  862800    295.99256   -1505.0327    505.36208    336.12797   -474.62697    37426.586 
  862900    297.12504   -1458.7979    487.32826    369.43969   -347.11433    37426.586 
  863000    302.23906   -1460.9786    470.30791    373.31797    -384.4238    37426.586 
  863100    305.13693   -1467.8688      471.266    380.46383   -262.12753    37426.586 
  863200    291.47999   -1469.2465    493.76596    339.95302    156.25694    37426.586 
  863300    299.87882   -1482.5142    490.04378    360.86666    426.46643    37426.586 
  863400    295.14879   -1506.5564    505.35389    330.78815    407.41837    37426.586 
  863500    308.03955   -1498.7103    487.89352    379.34921    705.56996    37426.586 
  863600    304.23129   -1518.3928    501.40909    355.99581     220.8345    37426.586 
  863700     297.6972   -1507.4449    515.12658    351.17319   -322.37542    37426.586 
  863800    295.07424   -1463.9264    470.04081    337.76867    56.724183    37426.586 
  863900    300.05299   -1453.8762    525.58341    425.83033   -338.81841    37426.586 
  864000    303.30345   -1486.4139    486.17081    368.54907   -264.74794    37426.586 
  864100    299.66413   -1476.4982    483.94043    359.81037    180.13191    37426.586 
  864200    291.94161   -1452.5938    487.37319    352.29623    209.16315    37426.586 
  864300    308.76195   -1479.9881    499.76594    413.20397   -174.51156    37426.586 
  864400    296.78772   -1483.1191     501.2085    357.47645    24.242967    37426.586 
  864500    302.71706   -1478.1289    482.37501    370.39202    76.137263    37426.586 
  864600    301.62393    -1457.431    490.60828    394.38987   -72.105189    37426.586 
  864700    305.18168   -1428.0196    506.34814    455.59706   -74.908546    37426.586 
  864800     308.0261   -1508.2531    481.40199    363.25413   -149.19813    37426.586 
  864900    291.50306   -1495.2524    511.89775    332.18299   -561.99201    37426.586 
  865000    300.13191   -1493.9103    507.70072     368.2697    284.23477    37426.586 
  865100    302.40825   -1451.2308    498.10656    411.62799     122.5641    37426.586 
  865200    318.33514   -1409.6299    502.42657    529.42609    597.81345    37426.586 
  865300    292.73285   -1419.2449    546.03281    447.87558 -0.039021417    37426.586 
  865400    299.13778   -1452.6355    478.18303    375.54031    162.15753    37426.586 
  865500     284.7383   -1431.7336    518.76324    372.03832    -158.8516    37426.586 
  865600     303.8472   -1428.5982    490.36989    433.01781     95.33185    37426.586 
  865700    304.49874   -1445.8729    497.72735    426.04094    246.56641    37426.586 
  865800    309.22598   -1459.6346    519.80515    455.69077    27.539084    37426.586 
  865900    292.65855   -1465.7267    493.45933    348.48494    534.50904    37426.586 
  866000    301.41311     -1451.41    491.03971    399.89095    183.36949    37426.586 
  866100    309.48802   -1521.6669    504.72545    379.76138    395.79584    37426.586 
  866200    300.61349   -1495.7505    496.38206    357.28414    495.92817    37426.586 
  866300    305.02467   -1461.5815    498.90446    413.88295    560.76397    37426.586 
  866400    303.14899    -1453.667    490.74883    405.17699    237.94196    37426.586 
  866500    293.94097   -1474.3635    484.45104    336.62739   -44.935354    37426.586 
  866600    305.64659   -1479.9178    481.73302    381.18186   -125.45586    37426.586 
  866700    294.27028   -1457.8462    525.03285    395.21264   -453.81856    37426.586 
  866800    292.63377   -1421.7699    480.82145    379.69205   -766.82725    37426.586 
  866900    294.70564   -1460.1342    497.50757    367.36411   -164.05334    37426.586 
  867000    303.64249   -1468.2072    536.73897    438.85406   -244.35861    37426.586 
  867100    300.24007   -1467.3848    482.67512    370.25767   -386.02975    37426.586 
  867200    308.82774   -1425.0693     506.8056    475.45932    -544.2477    37426.586 
  867300    301.74209   -1440.3161    497.19023    418.61998   -254.10997    37426.586 
  867400    294.88439   -1501.7968    487.21291    316.21353    55.183205    37426.586 
  867500    306.24451   -1499.0671    508.14689    391.14485   -382.86457    37426.586 
  867600    295.09362   -1489.3377    510.85202    353.25603   -132.96341    37426.586 
  867700    303.94042   -1468.6175    506.93245    409.98174   -365.62087    37426.586 
  867800    292.34949   -1483.4249    490.99462    326.92735   -560.08441    37426.586 
  867900    298.60414   -1527.5222     491.5589    311.62117    3.4178161    37426.586 
  868000     298.5581   -1498.7157    498.31427     346.9753    -41.96416    37426.586 
  868100     310.1992   -1479.0299     497.9388    418.82127   -51.513977    37426.586 
  868200    294.25089   -1477.2583    518.01617    368.69636    753.25247    37426.586 
  868300    304.08265   -1463.9582    498.76651    407.11698    215.04474    37426.586 
  868400     302.2561   -1499.3654    499.86572    364.56593    352.87745    37426.586 
  868500    301.36459   -1493.4156     515.1331    381.75978    646.28288    37426.586 
  868600    304.52793   -1451.9102      483.066    405.47405    396.44145    37426.586 
  868700     298.6008   -1481.6394    522.41346    388.34351    14.163338    37426.586 
  868800    298.72596   -1473.8717    513.53853    387.80108    361.38223    37426.586 
  868900    299.68424   -1517.9086    501.07141    335.62172    343.57682    37426.586 
  869000     299.6412    -1484.974    512.07008    379.36077   -265.99054    37426.586 
  869100    307.04352   -1493.5518    489.50866    381.62785   -256.44142    37426.586 
  869200    291.80302   -1488.4133    495.64902     324.1271    17.534133    37426.586 
  869300    295.98975   -1498.8831     519.8634    356.76613   -490.43181    37426.586 
  869400    300.12765   -1498.8419    507.35091    362.96901   -322.02819    37426.586 
  869500    301.23098   -1541.7048    483.02855    300.76299    197.99408    37426.586 
  869600    295.71477   -1501.6915     484.9952    317.84859    233.49288    37426.586 
  869700    298.34008   -1546.1273    517.52864    317.79413    400.41236    37426.586 
  869800    304.60492   -1507.1563    470.89443    338.40378    290.43427    37426.586 
  869900    294.98467   -1495.5241    479.69611    315.42204    184.38445    37426.586 
  870000    312.80423   -1486.0504    546.24478    471.86308     186.7459    37426.586 
  870100    301.48615   -1486.8161    495.20643    368.98115   -147.65735    37426.586 
  870200    293.43298   -1480.8781    521.44399     364.8132   -34.315902    37426.586 
  870300     294.8684   -1486.7641    491.48922    335.45042   -120.00674    37426.586 
  870400     308.0323   -1476.5641    487.39002    400.95921     685.4177    37426.586 
  870500    305.12849    -1508.628    492.32536    360.72587    750.12901    37426.586 
  870600    300.21863   -1544.5462    485.68382    296.00825    910.55494    37426.586 
  870700    289.07924   -1530.2554    501.32927      275.673    601.02952    37426.586 
  870800    303.15012   -1499.9893    513.03594    381.14683    423.91635    37426.586 
  870900    297.94411   -1438.9128     529.7266    435.41956     31.58445    37426.586 
  871000    289.32325    -1450.593    476.13787    331.24517   -287.52412    37426.586 
  871100    307.85638   -1464.5338     489.2009    414.00641    51.909767    37426.586 
  871200    294.41799   -1507.3014    498.17071    319.56198   -174.51151    37426.586 
  871300    301.54753   -1496.6425    521.02205    385.24742    127.56275    37426.586 
  871400    303.09214   -1483.2048    485.05054    369.68436   -338.38793    37426.586 
  871500    301.83713   -1482.0859    514.14271    394.23158   -300.55889    37426.586 
  871600    294.29648   -1497.5039    494.64756    325.28794   -439.78183    37426.586 
  871700    295.63189   -1523.2943    472.07459    282.95121   -259.21865    37426.586 
  871800      300.911   -1512.8171    497.94771    343.12583   -66.479404    37426.586 
  871900    306.51599   -1474.4227     505.3075    414.17502   -239.71707    37426.586 
  872000    296.50917   -1471.4326    493.73087    360.42825    644.45303    37426.586 
  872100    304.41432   -1508.0231    504.33427     370.1167   -24.730007    37426.586 
  872200    308.56505    -1507.995    483.36837    367.91088   -691.33978    37426.586 
  872300    307.20859    -1477.915    525.31935    433.82032    44.258234    37426.586 
  872400    302.93667   -1469.9608    513.98915    411.16533    415.52292    37426.586 
  872500    292.42923   -1498.2425    499.63282     321.1077    104.53434    37426.586 
  872600    287.56541   -1541.1113    496.82768    253.48369     -86.7606    37426.586 
  872700    280.85529   -1519.4737    490.58981    238.60095   -77.411865    37426.586 
  872800    308.49777   -1545.2944    495.35612    342.29562    222.44895    37426.586 
  872900    308.53429   -1532.9093    484.31548    343.80486    102.95446    37426.586 
  873000    305.49688   -1531.9195    493.05204    339.82359    199.26469    37426.586 
  873100    302.55325    -1519.058    484.76678    331.11537   -178.38327    37426.586 
  873200    298.32174    -1526.315     515.3038     335.2988   -383.78687    37426.586 
  873300    304.00007   -1477.3378    497.37718    391.97542   -94.083042    37426.586 
  873400    305.80639   -1490.5523    451.29652    340.83207    -137.2641    37426.586 
  873500    300.53251   -1519.6208    486.11749    322.78377   -90.669532    37426.586 
  873600    310.12575   -1504.6692    484.47644    379.38815    37.441552    37426.586 
  873700     301.6614   -1532.5648    498.40614    327.22303   -22.048553    37426.586 
  873800    299.58349   -1524.2315    516.21406    343.98684   -166.04715    37426.586 
  873900    284.52623   -1501.7003    502.65481    285.00613   -218.88141    37426.586 
  874000    301.33915   -1507.7503    480.29637    332.47356    33.475734    37426.586 
  874100    298.05751   -1511.7495     497.1469    330.51494   -626.80265    37426.586 
  874200      304.047   -1465.8726    499.73191    406.00714   -384.34554    37426.586 
  874300     294.5504   -1541.0405     469.6313    257.88095   -1078.9461    37426.586 
  874400    307.43563   -1478.8249    501.95661    410.57226   -798.66287    37426.586 
  874500    306.77988   -1523.3136    488.83233     349.9999    -805.3909    37426.586 
  874600    302.00106   -1512.7654    466.10482    316.25398   -431.95294    37426.586 
  874700    296.44204   -1515.7653    503.33978    325.40155   -675.10315    37426.586 
  874800    306.21616   -1574.9795    468.69751    275.65514    106.18714    37426.586 
  874900    309.05852   -1581.5267    505.50197    318.73981    550.23461    37426.586 
  875000    297.20744   -1579.2652    507.44453    269.46056    195.31951    37426.586 
  875100    310.24912   -1578.5716    484.44302    306.00907     245.0696    37426.586 
  875200    294.54586   -1553.1037    491.37188    267.53785   -262.71695    37426.586 
  875300    301.98997   -1552.7288    478.03358     288.1693   -277.37162    37426.586 
  875400    301.03325   -1577.9567    487.73262    268.32288    425.20316    37426.586 
  875500    298.39915   -1572.3455    509.90639    284.22024     544.4676    37426.586 
  875600    301.06656   -1537.8777    504.11826    324.93787    414.61773    37426.586 
  875700    302.32892   -1520.9158    477.26261    320.74103    277.80255    37426.586 
  875800    306.51972   -1547.2182    476.50962    312.59854    185.43099    37426.586 
  875900    297.22527    -1523.062    483.82472    302.12441   -43.221129    37426.586 
  876000    299.71745   -1539.4806    478.66669    291.79489   -345.46256    37426.586 
  876100    300.44873   -1527.4425    465.15722    293.62374    104.86733    37426.586 
  876200     298.2001   -1496.2324     465.5389    315.06753    207.32116    37426.586 
  876300    297.52532   -1536.8891    490.68662    296.51338   -423.76391    37426.586 
  876400    292.77714   -1545.2033    494.25194    270.33613   -248.20243    37426.586 
  876500     308.1798   -1524.7699    491.12213    357.15115    -210.1862    37426.586 
  876600    291.78996   -1511.1144    501.27822    306.99626    120.65021    37426.586 
  876700    297.49648   -1492.5027    484.28828    334.37127    -47.01842    37426.586 
  876800    301.70468    -1479.003    505.48595    388.06005   -738.50816    37426.586 
  876900    304.46041    -1498.796     476.2506    351.46809   -393.47579    37426.586 
  877000    291.57054   -1475.3704    495.41269    335.88448   -625.65653    37426.586 
  877100    295.95535    -1481.082     497.5766    352.12528   -804.73961    37426.586 
  877200    299.63299   -1463.0404     485.7699     374.9571    47.169471    37426.586 
  877300      295.349   -1475.6428    507.51936    364.77076    -312.8495    37426.586 
  877400    296.96086    -1502.835    496.39229    333.72568    100.43554    37426.586 
  877500    308.80021    -1525.946    495.38818      363.041    52.895485    37426.586 
  877600    296.00509    -1499.963    506.34303    342.23508     124.4413    37426.586 
  877700     293.5051   -1517.7092    476.77025    283.63386    547.67696    37426.586 
  877800    304.53769   -1485.5166    512.53645    401.38218    766.39857    37426.586 
  877900    296.07901    -1512.181    495.92594    319.93362    779.65725    37426.586 
  878000    291.33763   -1510.1019    517.59419    322.28341    569.87817    37426.586 
  878100    303.38365   -1452.7038    505.86514    422.31552    332.67887    37426.586 
  878200    297.20604     -1471.44    483.65721    353.49218    117.34042    37426.586 
  878300    301.11004   -1451.8807    500.98664    407.99943   -3.5022768    37426.586 
  878400    294.08578   -1497.9524    490.54262    319.78356    16.254102    37426.586 
  878500    290.11517    -1504.243    495.16532    300.19654    -366.9791    37426.586 
  878600    303.20444    -1489.031    513.03898    392.35331   -206.82495    37426.586 
  878700     297.9682   -1521.2118    491.63844    315.14119   -670.53471    37426.586 
  878800     302.7982   -1494.9809     498.1899      369.721    -501.2072    37426.586 
  878900    298.84054   -1508.2769    484.92949    325.30392   -377.02242    37426.586 
  879000    296.20144   -1457.2939    492.87213    372.31947   -128.45518    37426.586 
  879100    306.57119    -1503.754    483.78924    363.57455   -119.95749    37426.586 
  879200    302.88831   -1506.5755    509.35876    369.70199    159.79383    37426.586 
  879300    302.41277   -1491.6242    487.16952    360.31792    483.42198    37426.586 
  879400    291.99026   -1485.7176    497.56533    329.58411   -110.63244    37426.586 
  879500    295.34218   -1467.4789    483.56983    348.95439    127.40037    37426.586 
  879600    299.65503   -1502.4055      505.804    355.72555    159.08993    37426.586 
  879700    292.65918   -1488.7307    503.34594    335.37043    541.09336    37426.586 
  879800    306.77393   -1481.2011    506.24963    409.50282    430.55758    37426.586 
  879900    296.20375    -1495.804    500.50831    341.45597    233.62366    37426.586 
  880000     305.1868   -1482.8066    497.89375    392.37885   -126.90784    37426.586 
  880100    298.25897    -1450.498    509.00279    404.53153   -409.19392    37426.586 
  880200    300.14851   -1477.5908    505.42383    382.38714    75.886289    37426.586 
  880300    302.39169   -1511.5414    500.66125    353.79734   -74.516137    37426.586 
  880400    296.73107   -1471.4833    513.13306     380.7812    232.41456    37426.586 
  880500    306.73509   -1486.1105    496.23359    394.40218    75.722923    37426.586 
  880600    300.07926   -1528.6619    488.67796    314.25775     589.7334    37426.586 
  880700    316.12493   -1525.7672     466.6666    367.55424    109.95774    37426.586 
  880800    303.68616   -1527.0723    469.45524    312.90234   -571.80178    37426.586 
  880900    306.09225    -1518.506    498.03215    360.90412    -9.329855    37426.586 
  881000    308.85368   -1497.5204    490.86397    387.18365    299.37271    37426.586 
  881100    305.02638   -1497.0374    508.59195    388.12222    215.63886    37426.586 
  881200     301.0379   -1478.3805      531.448    411.63538    388.25004    37426.586 
  881300    300.14203   -1479.3871    481.94572    357.08347   -90.413721    37426.586 
  881400    305.56981   -1468.1794    510.96538    421.80622   -122.65929    37426.586 
  881500    310.08831   -1501.6149    476.97637    374.77335    89.777532    37426.586 
  881600    312.83604   -1462.9205    513.18698    462.07869   -481.57539    37426.586 
  881700    294.03547   -1518.7809    496.34697    304.53237   -134.75758    37426.586 
  881800    303.29592   -1539.3617    497.17983    326.57637    183.50243    37426.586 
  881900    297.84623    -1547.031    481.39101     278.5241    53.546972    37426.586 
  882000    292.74243   -1527.5723    487.54148     281.1001    543.41702    37426.586 
  882100    283.08877   -1525.1156    528.19373    280.64265    332.98228    37426.586 
  882200    296.23352   -1569.0948    464.63683      232.428    113.70537    37426.586 
  882300    316.56586   -1550.8522    457.16344    334.95603    249.63597    37426.586 
  882400    309.00516   -1557.3462    488.41395    325.59149   -33.198581    37426.586 
  882500    303.19689   -1517.0839    484.04112    335.26856    106.33659    37426.586 
  882600    302.32776    -1531.272     496.2498    329.36679   -354.01714    37426.586 
  882700    294.98422   -1527.0241    496.34196    300.56588    -510.8903    37426.586 
  882800    293.25239   -1512.7379     493.7978    304.49217   -375.21254    37426.586 
  882900    302.12398   -1506.7998    479.92757    336.59712   -887.73003    37426.586 
  883000     304.0425   -1527.3254    513.16084    357.96293   -354.53468    37426.586 
  883100    298.28196   -1524.8067    490.80406    312.12782   -177.00484    37426.586 
  883200    292.11756   -1549.1055    461.05178    230.25721   -62.687608    37426.586 
  883300    303.33343   -1518.4714    497.45637    347.91253    269.51516    37426.586 
  883400    299.51907   -1522.1863    487.11027    316.63748   -43.569652    37426.586 
  883500    298.03366   -1493.1316    498.73686    350.61524    395.84928    37426.586 
  883600    309.97665   -1511.0613     501.2641    389.11076    672.66918    37426.586 
  883700    293.86359   -1509.8185    517.12677    333.49894    98.001123    37426.586 
  883800    299.81533   -1496.7781    507.68111    363.95348    924.48059    37426.586 
  883900    296.04171   -1518.1641    531.11015    348.96647     193.9686    37426.586 
  884000    290.93206    -1511.417    498.94997    300.49371    287.87509    37426.586 
  884100    301.94103   -1484.8714    497.05012    374.82238     465.5893    37426.586 
  884200    305.08743   -1494.6092    502.41294      384.647    358.64468    37426.586 
  884300    301.89925    -1472.827    510.36059    399.98873    -55.49509    37426.586 
  884400    293.59966   -1449.8255    502.19469    377.36868   -318.76248    37426.586 
  884500    301.82587   -1451.3965     519.3636    430.09111   -53.558848    37426.586 
  884600    286.01224   -1467.0524    485.22851    308.93401    228.22342    37426.586 
  884700    303.28922   -1442.0126    538.65424    465.36961    399.86507    37426.586 
  884800    299.73716   -1463.1943    464.45021    353.95363    749.25955    37426.586 
  884900    303.20395    -1532.107    491.29705    327.53327    495.77455    37426.586 
  885000    297.83161   -1488.5182     501.4721    357.05196    616.94053    37426.586 
  885100    302.11702   -1521.2266    495.66184    337.87313    617.87948    37426.586 
  885200     301.5777   -1468.9464    490.42244    382.48004    182.29599    37426.586 
  885300    291.90132   -1514.2557    498.16534    301.24462   -88.573274    37426.586 
  885400    298.43148   -1514.8724    516.59876    348.53159   -75.274828    37426.586 
  885500    311.17272   -1549.6194    491.31085    345.99729   -259.51843    37426.586 
  885600    305.85528   -1494.0532    498.41166    384.66702   -231.24103    37426.586 
  885700    300.18629    -1530.748    468.32935      292.306    -597.2733    37426.586 
  885800    312.29821   -1548.1619      482.128    343.35118   -282.35491    37426.586 
  885900    299.57954   -1520.6186    496.25536    327.62319   -465.53386    37426.586 
  886000    297.67376    -1498.018    475.56343    320.93113   -322.80999    37426.586 
  886100    301.84095   -1549.9897     457.1974     269.3997    239.03337    37426.586 
  886200    298.03055   -1525.6978    490.13948    309.43756    275.75855    37426.586 
  886300    307.92378   -1521.3297    497.42059    365.73436    21.332368    37426.586 
  886400    293.18044   -1584.8624    465.07169    203.31693   -60.055727    37426.586 
  886500    303.43873   -1589.7434    509.58438    289.24372    483.99369    37426.586 
  886600    311.48432   -1543.1918    468.38242    330.90269    593.61907    37426.586 
  886700     304.0834   -1534.0662    523.57902     361.8249    302.27607    37426.586 
  886800    307.92395   -1537.4377    477.21073    329.41728   -133.69545    37426.586 
  886900    292.12696   -1509.4056    470.75154    279.69921   -832.01178    37426.586 
  887000    300.40137   -1521.3677    470.93732    305.26487   -746.18728    37426.586 
  887100    298.34468   -1498.5281    467.92247    315.80789   -44.481491    37426.586 
  887200    292.07909   -1494.6639    494.07343    317.54677   -326.89054    37426.586 
  887300    314.47278   -1507.3003    490.86698    402.76552    338.31185    37426.586 
  887400    301.73984   -1514.1113    486.97878    334.60325    141.56936    37426.586 
  887500    307.36636   -1475.8879    484.43768    395.67774     59.85858    37426.586 
  887600    298.51052   -1483.9915    462.94151    326.11194   -170.77808    37426.586 
  887700    307.55159   -1529.7569    474.61648    332.82344   -556.44858    37426.586 
  887800    307.60156   -1509.7592    494.77903    373.20915   -186.55968    37426.586 
  887900    304.42407   -1537.3003    494.00707     330.5563   -304.63817    37426.586 
  888000    299.88939   -1540.2366    487.60018    300.74832   -368.10988    37426.586 
  888100    316.23245    -1534.049    487.45574    380.54687   -116.55724    37426.586 
  888200    300.28027   -1504.3214    475.88406    326.71145   -507.28469    37426.586 
  888300    307.45076   -1528.9212    485.12304    343.71065   -764.94241    37426.586 
  888400    303.57165    -1536.744    484.17048    317.42909   -45.421092    37426.586 
  888500    299.09977   -1493.0092    504.74509    361.55713   -33.561312    37426.586 
  888600    308.74528   -1520.7038    483.35078    355.99784   -2.4090415    37426.586 
  888700    303.30727    -1497.871     500.3568    371.29527    243.75048    37426.586 
  888800    309.22608   -1514.9014     486.2929    366.91225    96.343724    37426.586 
  888900     297.1514   -1479.6208    488.79542    350.20293   -259.26647    37426.586 
  889000     291.9345   -1501.9518    480.61804    296.15097   -615.23376    37426.586 
  889100    308.35117   -1511.5788    480.72077    360.71422     268.1924    37426.586 
  889200    302.59166   -1488.5584    491.22903    368.25063    591.07229    37426.586 
  889300    292.46657   -1499.4436    490.31878    310.76119    379.00579    37426.586 
  889400    314.02785   -1515.0775    490.94082    393.05423    467.25728    37426.586 
  889500    309.48669   -1551.4091    474.81428    320.10201    221.43678    37426.586 
  889600    295.99557   -1472.5138    500.47995    363.77825    232.11344    37426.586 
  889700    305.15438   -1478.3801    500.64303    399.40832    149.01457    37426.586 
  889800    299.77282   -1486.0823    492.52759    359.30399    330.32127    37426.586 
  889900    305.01463   -1520.2935    476.75063    332.97182    371.80199    37426.586 
  890000    307.96478   -1512.6083    514.17378    391.39403   -64.015558    37426.586 
  890100    296.43656   -1511.7454    491.37791    317.43485    131.11954    37426.586 
  890200    299.75364    -1515.962    504.62519    341.43528    500.43389    37426.586 
  890300    306.05026   -1510.2157    503.63703    374.60975    301.16101    37426.586 
  890400    302.47856    -1560.826    474.31808    278.56161    595.94034    37426.586 
  890500    295.62122   -1535.6584     488.9495    287.41382    523.10682    37426.586 
  890600    298.53719   -1513.2681    493.16934    327.18359    805.86448    37426.586 
  890700    294.82557   -1480.7073    524.32103    374.14568    402.07451    37426.586 
  890800     299.3406   -1519.2517    497.64552    329.30192    161.40676    37426.586 
  890900    299.44765   -1509.0917    500.38083    342.68035    579.13535    37426.586 
  891000    288.03705    -1513.778    491.17353    277.29136    -125.2958    37426.586 
  891100    296.23425   -1494.8421    504.41056    346.45776    -530.6709    37426.586 
  891200    297.85667    -1476.697    480.17398    347.68816   -455.54033    37426.586 
  891300    302.74076   -1512.0762     491.0242    345.20076   -386.66857    37426.586 
  891400    293.79773   -1497.3848     481.2169     309.7255   -711.67306    37426.586 
  891500     299.4969   -1526.5469    485.26133    310.32793   -96.379877    37426.586 
  891600    293.37196   -1544.0956    485.95766    265.83397    -87.85095    37426.586 
  891700    299.05203   -1496.3524    471.47844    324.73185   -239.62256    37426.586 
  891800    299.83467   -1504.5453    488.32118    336.91367    176.24551    37426.586 
  891900    289.75427   -1519.8979    495.68973    283.43731   -385.00887    37426.586 
  892000    290.77134   -1490.6605    466.32007    287.89503   -828.65091    37426.586 
  892100    293.75097   -1501.8257    475.17722     299.0339   -453.08341    37426.586 
  892200    298.47923   -1525.9704    490.17087    311.22122   -979.18397    37426.586 
  892300    299.89877   -1519.6309    474.48891    308.28513   -610.52635    37426.586 
  892400    299.95588   -1472.1108    479.95437    361.52844    25.791029    37426.586 
  892500    280.83258   -1445.7413    494.65374    316.29482   -221.27519    37426.586 
  892600    310.82573   -1470.2675    491.34541    423.81779   -217.41698    37426.586 
  892700     295.7254   -1460.3809    484.45895    358.67099   -482.69884    37426.586 
  892800    295.85015   -1478.0397    493.91887    351.03508   -278.97909    37426.586 
  892900    302.24028   -1502.9716    479.74201    340.76457   -259.42085    37426.586 
  893000    302.11161   -1521.7235    491.08991    332.77991   -460.94916    37426.586 
  893100    302.55566   -1544.2771    482.16079     303.3012   -177.53467    37426.586 
  893200    293.93902   -1486.8517    496.57204     336.2514   -101.61492    37426.586 
  893300    292.53191   -1521.3141    502.93285    301.79964    106.48991    37426.586 
  893400    299.85055   -1485.5818    503.50253    371.13018   -141.34266    37426.586 
  893500     294.0458   -1495.1841    472.77835    304.60715    215.17694    37426.586 
  893600    298.44543   -1509.7662    483.72367    320.82566      277.997    37426.586 
  893700    297.65796   -1486.0672     488.7181    345.96536    209.73256    37426.586 
  893800    288.83591   -1523.8644    472.30355    251.94016   -128.10133    37426.586 
  893900    309.78875   -1499.5845    492.38859    390.86417    243.82163    37426.586 
  894000    311.58599   -1520.4727    503.27663    388.97479   -58.037718    37426.586 
  894100    296.93653   -1506.0854    510.23176    344.20501   -60.819636    37426.586 
  894200    297.64389   -1475.5512    523.87501    391.57478     120.9689    37426.586 
  894300    292.11105    -1468.175    486.80722    336.91381   -443.46376    37426.586 
  894400    306.90625    -1481.969    492.24485    395.32734    -93.79464    37426.586 
  894500    298.30203   -1472.1837    483.84836    357.88569   -396.24197    37426.586 
  894600    290.51969   -1509.7982    464.10833    265.40998   -482.43682    37426.586 
  894700    299.61556   -1485.1563    496.08013    363.07276    68.900133    37426.586 
  894800    295.01212   -1491.6453    493.81291    333.54148   -211.58098    37426.586 
  894900    306.35019   -1501.6727    495.92947    376.79874   -12.361712    37426.586 
  895000    297.10126   -1465.6095    489.87567    365.06817    774.99641    37426.586 
  895100    304.81643    -1500.548    501.87119    376.94342   -12.584159    37426.586 
  895200    304.72304   -1514.9438    477.24727    337.50222     371.3712    37426.586 
  895300    299.73883   -1487.3192    485.71857    351.10465   -73.996392    37426.586 
  895400    305.61919   -1485.7491    485.49234    378.98625    437.47711    37426.586 
  895500    297.67336   -1452.1588     480.9328    372.15793    619.41001    37426.586 
  895600      304.524    -1470.592    496.01244    399.72096    253.67261    37426.586 
  895700      302.181   -1492.0432    531.13611    402.81959    206.09844    37426.586 
  895800    294.53739   -1509.8256    484.47096     303.8768   -122.62773    37426.586 
  895900    306.20932   -1473.0118    480.52689    389.42135   -193.37294    37426.586 
  896000    298.30387    -1460.417    480.89671    366.70912   -712.26951    37426.586 
  896100    293.36475   -1490.5582    509.66962    343.05084     418.8569    37426.586 
  896200    293.94199   -1509.1899    479.33843    296.69298    121.14435    37426.586 
  896300    304.30102    -1538.347    477.29009    312.23734    508.21205    37426.586 
  896400    299.01936   -1515.0462    510.00085      344.413   -604.08483    37426.586 
  896500    294.29338   -1529.9083    474.83874    273.06072   -269.48083    37426.586 
  896600     301.0999   -1495.1287    495.94748    359.66653   -228.69138    37426.586 
  896700    294.16125   -1500.3933    492.22453    319.36522   -58.615438    37426.586 
  896800    298.04491   -1488.6045    503.07014    359.52635    325.01851    37426.586 
  896900    310.74129   -1504.8662    483.23637    380.72893    374.37476    37426.586 
  897000    301.74043   -1529.8703    495.80597    327.67411    407.68328    37426.586 
  897100    304.85722   -1512.9003     498.2484    361.15242    352.47114    37426.586 
  897200     302.8597   -1510.9769    502.18554    357.99823    573.43512    37426.586 
  897300    292.16253   -1523.8244    494.29654    288.98595    130.89686    37426.586 
  897400    297.01857   -1482.9988    527.41672    384.84685    446.93358    37426.586 
  897500    291.88159   -1502.7409    491.41423    305.91926    113.99598    37426.586 
  897600    292.54801   -1460.9814    490.29586    349.56799    242.50169    37426.586 
  897700    299.94125   -1536.5724    477.54025    294.58664   -571.11511    37426.586 
  897800    299.74545   -1494.7624    502.12168    360.09442   -1001.5096    37426.586 
  897900    294.94351   -1477.9357    495.78418    348.91275   -586.68297    37426.586 
  898000     298.4106   -1521.4865    497.62943    322.85396   -123.83894    37426.586 
  898100    300.85377   -1491.9126    495.87081    361.69512    131.06252    37426.586 
  898200    298.22527   -1457.9942    482.37195    370.25243    28.787911    37426.586 
  898300    302.57025   -1453.4619    503.75587    415.77733   -418.44283    37426.586 
  898400    305.35496   -1449.5676     522.5096    450.99252     25.94955    37426.586 
  898500    301.34089   -1523.3563     486.9691     323.5481    38.944821    37426.586 
  898600    303.34488   -1486.2524    500.98758    383.71435    800.97113    37426.586 
  898700    311.62697   -1519.7323    492.18805    378.81158    583.78424    37426.586 
  898800    295.71261   -1469.4038    481.59451    346.72588    148.70252    37426.586 
  898900    289.50905   -1488.6721    509.95047    327.81718    31.613697    37426.586 
  899000    301.66643   -1492.7853    513.23618    381.85535    534.76465    37426.586 
  899100    292.24323   -1485.3323    484.63018    318.17596    180.14916    37426.586 
  899200    289.21929   -1497.1134    504.26048    312.37823    11.532722    37426.586 
  899300    299.21887   -1463.5195    502.68595    389.52515   -203.40479    37426.586 
  899400     299.7371   -1486.6327    464.40757    330.47238   -37.430015    37426.586 
  899500    311.11894   -1459.2698    522.70765     467.5009   -170.28253    37426.586 
  899600    293.23678   -1447.4453    531.54913    407.46565    280.75045    37426.586 
  899700    295.06342   -1482.3918    481.59418    330.80774    39.908889    37426.586 
  899800     292.0387   -1494.0129    499.48026    323.42234   -451.09373    37426.586 
  899900    310.37363   -1510.0594    484.35473    374.99485   -45.417664    37426.586 
  900000     294.2746   -1483.4519     490.0814    334.67503    66.773421    37426.586 
  900100     306.8161   -1510.8089    492.91865    366.75436   -106.61811    37426.586 
  900200    306.66784   -1490.4217    498.13888    391.69276    641.02987    37426.586 
  900300    296.18827   -1499.1953    487.55583     325.0423    359.48104    37426.586 
  900400     307.9532   -1475.1858    524.36892    438.95943    879.42137    37426.586 
  900500    289.66242   -1505.6168    488.91992    290.53405    793.47111    37426.586 
  900600    302.75603   -1506.0564    499.56189    359.82717    1035.0674    37426.586 
  900700    308.60847   -1500.2556    476.51548    368.99338    917.57488    37426.586 
  900800    293.79018    -1513.824    476.66146    288.69675   -122.21757    37426.586 
  900900    293.70566   -1485.1243    498.16226    338.51593   -25.143023    37426.586 
  901000    294.78333   -1504.0948    486.21711    312.46374    7.9366141    37426.586 
  901100    295.13055   -1501.1578    498.18819     328.9388   -310.30968    37426.586 
  901200    301.36178   -1559.6831    498.95211    299.29855    55.182394    37426.586 
  901300    297.46407   -1520.8748     491.8391    313.40372    -89.25976    37426.586 
  901400    295.78742   -1530.6278    506.74562    310.99065   -242.78656    37426.586 
  901500    297.25731   -1530.8261    509.10837    319.78861   -343.05364    37426.586 
  901600    298.37892    -1519.761    493.69431    320.50134   -462.68152    37426.586 
  901700     298.4997   -1503.2581    487.25213    331.10718    168.64913    37426.586 
  901800    299.89462    -1540.523    495.11902    308.00435   -163.20134    37426.586 
  901900    292.20263   -1507.6696    497.25926    308.28446    436.53582    37426.586 
  902000    309.19379   -1511.3613    500.62786    384.64158    114.56248    37426.586 
  902100    298.25124   -1524.1149    493.65902    315.53599   -56.272933    37426.586 
  902200    312.43637   -1513.4172    494.27729    390.86866   -123.40309    37426.586 
  902300    303.16192   -1534.8589    484.89145    318.18601   -255.98692    37426.586 
  902400    298.94834   -1545.5073    491.17207    294.80263    94.697215    37426.586 
  902500    304.00148   -1536.0793    489.98574    325.84886   -245.34877    37426.586 
  902600    296.19787   -1510.5299    482.02384    308.21911    239.31738    37426.586 
  902700    294.63235   -1508.8688    512.15788    332.94912   -207.85679    37426.586 
  902800    289.15707   -1527.5219    479.41864    256.84707    163.11548    37426.586 
  902900     306.9507   -1504.5109    478.27666    359.01785    458.78696    37426.586 
  903000    299.96776   -1521.0773    468.57526    301.23639    364.09073    37426.586 
  903100     290.7222    -1530.551    504.38523    285.84796    224.19893    37426.586 
  903200    306.58891   -1544.2523    483.25478    322.62185    614.91477    37426.586 
  903300    292.17043    -1515.692    489.57059    292.42813    456.06652    37426.586 
  903400    304.78928   -1522.6461    492.53082     345.3824    545.56065    37426.586 
  903500    306.82254   -1529.5792    509.48356    364.57806    742.83139    37426.586 
  903600    305.23888   -1509.7822    522.40116    390.14571    602.69485    37426.586 
  903700    305.81234   -1501.1483    493.15961    372.12599    442.66144    37426.586 
  903800     309.6009   -1472.6903    502.15013    426.67207    426.11228    37426.586 
  903900    296.70835   -1499.7904    495.85347    335.09193    547.84202    37426.586 
  904000    290.08599   -1524.0315    511.18385    296.29489   -60.571663    37426.586 
  904100    299.93419   -1505.4699    482.43396    330.55095   -422.85819    37426.586 
  904200    292.03703    -1492.953     509.3766    334.37111   -418.44718    37426.586 
  904300     301.1732   -1482.2219    500.48885    377.44543   -41.192875    37426.586 
  904400    314.61959    -1497.128    508.31639    431.04976   -192.43532    37426.586 
  904500    299.61135   -1479.3945     496.3295    369.06498    334.70945    37426.586 
  904600    303.03734   -1483.1065    525.91488    410.39965    349.76127    37426.586 
  904700    296.23521   -1518.6206    513.77985    332.05289    1188.6919    37426.586 
  904800    289.82975    -1482.368    496.31991    321.93799     734.6024    37426.586 
  904900    301.99741   -1497.6989    517.85123    383.05045    736.87642    37426.586 
  905000    300.02005    -1526.714    498.02478    325.28516    124.17206    37426.586 
  905100    305.70391   -1501.0731    498.98089    377.53312    280.43536    37426.586 
  905200    305.96854   -1538.1086    498.13309     340.8441    469.43048    37426.586 
  905300    310.84773   -1531.4386    500.27614    371.67672    509.14954    37426.586 
  905400    299.32619   -1518.0417    505.42919    338.23053    421.76891    37426.586 
  905500    297.63906   -1484.9547    482.79883    341.07322    500.52092    37426.586 
  905600    311.42568   -1556.9478    481.34541    329.84502   -149.35421    37426.586 
  905700    297.99228   -1552.0995    528.86519    321.58892   -335.74595    37426.586 
  905800    306.42123     -1506.12    509.93975    386.68239   -14.649716    37426.586 
  905900    305.37904   -1514.2463    498.55498    362.46787   -77.467371    37426.586 
  906000    291.58558   -1493.4628    499.02472    321.47202    -667.4521    37426.586 
  906100    292.71627   -1486.3773    497.17173    331.80729   -94.947485    37426.586 
  906200    297.25746   -1476.0471    515.22244    380.68235   -258.19199    37426.586 
  906300    301.36974   -1472.1142    513.25309    401.20438    520.69502    37426.586 
  906400    300.19431   -1467.3547    509.73113    397.13722    386.24696    37426.586 
  906500    300.01259   -1481.3699    516.42129    388.99211    1108.7504    37426.586 
  906600    303.02225   -1492.0516    515.66342    391.13505    488.19688    37426.586 
  906700    304.38018   -1541.0648    524.83926    357.42591   -131.00118    37426.586 
  906800    306.51706   -1508.6141     481.2395    355.92046    577.04502    37426.586 
  906900    293.24291   -1518.8779    503.67347    308.18513   -222.76608    37426.586 
  907000    301.26234   -1490.2949    521.00495    390.29089   -55.895099    37426.586 
  907100    301.10177   -1513.0415    526.68474    372.49944    161.79172    37426.586 
  907200    308.53848    -1512.952    512.96484     392.4305    337.73991    37426.586 
  907300    295.34862   -1513.1484    516.99418    336.73823    233.14137    37426.586 
  907400    290.84577   -1490.1345    488.57677    311.01366    773.67749    37426.586 
  907500     300.0351   -1474.2052    531.60754    411.44462    646.36826    37426.586 
  907600    305.74099    -1516.837     527.9579    390.91364    445.62055    37426.586 
  907700    310.77404   -1505.8392     486.1762     382.8436    147.12399    37426.586 
  907800     294.8305   -1488.2904    517.05891    359.32278    296.72059    37426.586 
  907900    294.01403   -1518.3701    531.05727    339.55677    203.33864    37426.586 
  908000    292.15871   -1465.6817    501.91132    354.72618   -190.18741    37426.586 
  908100    303.45698   -1474.9762    502.01001     396.5189    -18.80204    37426.586 
  908200    298.90828   -1516.6625    480.08524     312.3798   -693.29248    37426.586 
  908300    302.28449   -1562.5311    498.43426    300.09686   -729.44869    37426.586 
  908400    288.91327   -1532.0073    498.62763    270.47038   -941.38955    37426.586 
  908500    301.65598   -1561.5327    481.75302     281.5776   -742.03489    37426.586 
  908600    298.55117   -1488.7851    488.65178    347.21217   -435.43266    37426.586 
  908700    306.11737   -1514.8768    531.40334     398.0178   -160.34098    37426.586 
  908800    303.42342   -1510.6918    498.52391    357.16578    502.36345    37426.586 
  908900    303.80654   -1528.7693    496.95984    339.25319    377.72336    37426.586 
  909000    311.05602   -1518.9678    505.74758    390.55896    266.97078    37426.586 
  909100    298.54405   -1534.4332    502.71645    315.59656    382.93957    37426.586 
  909200    310.82957   -1515.5586    501.68687     388.8855   -75.779297    37426.586 
  909300    295.96774   -1538.0158    489.01486    286.68563   -285.86065    37426.586 
  909400    294.23919   -1500.1402     509.7189    337.46442   -730.03684    37426.586 
  909500    287.77002   -1513.0051    508.95302    294.63865     -191.153    37426.586 
  909600    297.63354   -1503.5901    501.15859    340.77269   -160.44607    37426.586 
  909700    293.08405   -1428.9811    521.68071     415.3722   -925.31966    37426.586 
  909800    304.35085   -1495.3549    495.02496    373.18909   -253.81403    37426.586 
  909900     299.3369   -1456.2416    527.20775    421.85754   -199.72862    37426.586 
  910000    298.89991   -1466.1178    494.68391    377.48544   -157.40334    37426.586 
  910100    309.93546   -1511.6375    511.51343    398.59799    74.912628    37426.586 
  910200    296.56982     -1494.04     494.9311    339.29479    505.71914    37426.586 
  910300    297.33943   -1483.1642    521.70204    380.41468   -87.113017    37426.586 
  910400     306.8626   -1469.2301    503.80103    419.42543   -165.86975    37426.586 
  910500    312.92251   -1473.7309    511.08542    449.55703   -42.074998    37426.586 
  910600     300.6054   -1492.7596    493.51219     357.3687    150.67447    37426.586 
  910700    295.97321   -1499.2073    507.70574    344.20966    -267.4016    37426.586 
  910800    297.05323   -1434.8456    520.33082    426.07053    180.58371    37426.586 
  910900    300.98718   -1477.2175    539.55919    420.68069    32.884874    37426.586 
  911000    296.86712   -1508.0841    483.90067    315.56192   -28.625859    37426.586 
  911100    288.62794   -1519.2559    516.47762    299.78411    59.640359    37426.586 
  911200    304.25587   -1513.1368     506.2653    366.21898    792.04633    37426.586 
  911300    307.30033   -1537.1052    483.69802    333.42269    449.20844    37426.586 
  911400    290.72874   -1501.8714    503.33366    313.50542     189.9687    37426.586 
  911500    304.36303     -1511.14    504.25759    366.69163    125.69903    37426.586 
  911600    304.21238   -1517.9701    492.44374    347.36778    321.99506    37426.586 
  911700    288.50493   -1503.1732    471.25295    270.08709   -89.081207    37426.586 
  911800    300.56635   -1499.3643    506.31333    363.38885   -294.94768    37426.586 
  911900    294.50621   -1502.3199    485.69484    312.46568   -871.86535    37426.586 
  912000    310.99998    -1494.639    527.36432    436.25157   -256.50371    37426.586 
  912100    303.53311   -1491.5541    495.25733    373.53192    143.26255    37426.586 
  912200    306.01176   -1507.9344    494.50195    367.58222    514.58728    37426.586 
  912300    303.07925   -1503.0115    523.67293     388.4419    142.42125    37426.586 
  912400    301.99056   -1499.7799    503.88538    366.97272    259.36153    37426.586 
  912500    291.82521   -1478.0625    492.66776    331.59681    353.87179    37426.586 
  912600    312.61025    -1499.625    510.83041    421.99877    535.78323    37426.586 
  912700    299.57943   -1475.1517    511.82826    388.66246    594.82572    37426.586 
  912800    293.22503   -1466.9853    494.39648    350.72004    415.28985    37426.586 
  912900    298.89094   -1462.9449    495.31363    381.24749    456.98977    37426.586 
  913000    291.50708   -1510.4384    514.90008    320.01749    463.56457    37426.586 
  913100    297.28286   -1482.5134    482.95877    342.06698    290.67428    37426.586 
  913200    296.87884   -1445.8573    519.04194    412.98292   -125.45644    37426.586 
  913300    305.02641   -1485.1414    495.67521    387.10163   -229.60661    37426.586 
  913400    302.58592   -1455.9386    485.26079    394.87627    182.91872    37426.586 
  913500    294.54039    -1470.676    485.47992    344.04891   -423.32161    37426.586 
  913600    304.74214   -1443.8763    513.73024    445.13887   -90.763417    37426.586 
  913700     312.6485   -1451.7041    489.64266    448.90449   -762.46057    37426.586 
  913800    304.03007   -1467.3975    477.88476    382.55871   -690.29693    37426.586 
  913900    295.97869   -1441.7223    504.07413    398.08784   -795.35239    37426.586 
  914000    311.05323   -1484.3544    507.32696    426.73908   -99.181238    37426.586 
  914100    295.41433   -1499.7454    520.61831    354.06194   -328.34775    37426.586 
  914200    299.85661   -1474.9385    509.01782    387.31612   -368.17082    37426.586 
  914300    306.62848   -1476.2431    502.92061    410.47538   -346.55812    37426.586 
  914400    307.55503   -1533.4469    492.45888    346.99137   -125.74418    37426.586 
  914500    288.10603   -1516.5744     509.9883    293.62099   -244.54835    37426.586 
  914600     306.1208   -1470.5504    497.67711     408.6335   -311.30945    37426.586 
  914700    299.68433   -1498.6479    484.59372    338.40511   -180.08655    37426.586 
  914800    304.81951   -1503.4834    490.82064    362.97134   -107.33128    37426.586 
  914900    291.63246   -1534.7932    477.37822    258.70669   -211.80937    37426.586 
  915000    303.85079    -1523.138    501.93407     350.0584   -11.376622    37426.586 
  915100    301.43968   -1501.2484     517.2791    376.41179    287.05618    37426.586 
  915200    296.91634   -1510.6153    500.72413    330.07636    304.91166    37426.586 
  915300    297.05618   -1518.1351    502.87879    325.34226    223.88913    37426.586 
  915400    298.44734   -1543.8515    493.15236     296.1777    172.75899    37426.586 
  915500    288.86561   -1522.9251    500.21828    280.92817   -156.58994    37426.586 
  915600    303.39112   -1532.4861    498.33956    335.04133   -113.72934    37426.586 
  915700    311.66926   -1487.4109    503.68524    422.82105    60.406766    37426.586 
  915800    309.81175    -1518.674    505.04722    384.53704    207.69906    37426.586 
  915900    300.46678   -1531.4387    468.07201    292.62375   -600.68856    37426.586 
  916000    303.87118   -1508.6988    489.98363    352.63921   -764.30454    37426.586 
  916100    309.51238   -1480.2793    492.94954    409.48307   -337.27773    37426.586 
  916200    297.39222   -1493.0203    499.41263    348.50751   -477.19974    37426.586 
  916300    301.79301   -1490.6172    490.87076    362.22919   -198.94527    37426.586 
  916400    304.36391    -1501.396    508.79997      380.982   -363.60113    37426.586 
  916500    289.90641   -1478.0408    483.49129    313.78252    190.78824    37426.586 
  916600    293.09875   -1493.3045    508.06831    337.50277    141.41741    37426.586 
  916700    295.97979   -1505.1746    498.34639     328.9127     586.2225    37426.586 
  916800    296.41263   -1477.5593    499.32148    359.45645     302.8582    37426.586 
  916900    299.37292   -1492.4222    488.50519    347.13697   -355.24068    37426.586 
  917000    306.69921   -1524.6428    515.49196    374.96624   -251.01967    37426.586 
  917100    293.20948   -1505.4989     496.2783    314.01808   -153.43365    37426.586 
  917200    310.65021   -1481.1084    480.95104    401.79036   -354.60167    37426.586 
  917300    307.38846   -1486.7093    480.36631    380.88464   -447.89889    37426.586 
  917400    297.93986    -1444.328    479.09335    379.35195   -598.80313    37426.586 
  917500    287.68539   -1461.4743    507.72352    344.55794   -1078.2975    37426.586 
  917600    293.52379   -1483.7279    524.12056    365.04984   -916.70788    37426.586 
  917700    293.39383   -1477.8561    476.59584    322.81039   -313.38712    37426.586 
  917800    299.33558    -1494.814    497.44044    353.51183   -434.99174    37426.586 
  917900    306.55947   -1481.5872    493.37485    395.27408   -616.35966    37426.586 
  918000    298.46617   -1461.3333     499.3904     385.0189   -245.06471    37426.586 
  918100    292.58138   -1495.5993    489.58503    314.38982   -389.74479    37426.586 
  918200    303.05765   -1547.4805    509.68066    329.88308    81.007494    37426.586 
  918300    293.04134   -1575.0966    481.96064    229.34391   -201.31209    37426.586 
  918400    297.02099   -1540.2572     495.8063    295.98892   -226.97223    37426.586 
  918500    303.45357   -1560.0281    487.40828    296.84992   -3.6350724    37426.586 
  918600    302.79299   -1526.6573    500.94554    340.77675   -373.41165    37426.586 
  918700    301.97889   -1548.1646    473.60333    288.25323   -118.23384    37426.586 
  918800     304.6929   -1523.3198    483.11784    334.86077    -170.0263    37426.586 
  918900     290.6663   -1497.9545    508.19125    321.99819    355.63802    37426.586 
  919000    295.99233   -1509.3869    494.19186    320.60244    498.05515    37426.586 
  919100    305.51144   -1560.4341    517.57144    335.89412    269.95453    37426.586 
  919200    297.05601   -1505.8202    484.63593    319.41358    173.97044    37426.586 
  919300    292.48354   -1503.2797     494.3007    310.98356    186.25333    37426.586 
  919400     303.5301   -1505.0097    517.34012    382.14548    353.23192    37426.586 
  919500    302.63917   -1491.8097    494.38499    368.36966   -241.32134    37426.586 
  919600    294.88251   -1489.6825    485.34786    326.45433    66.643152    37426.586 
  919700    301.10757   -1523.8168    488.13876    323.20425    47.437166    37426.586 
  919800    282.30655   -1470.6872    491.74622    295.09336    9.1133038    37426.586 
  919900    299.94803   -1484.4739    508.42528    377.60079    619.46687    37426.586 
  920000    305.56007   -1522.8438    483.62701    339.75944   -136.24048    37426.586 
  920100    287.23051   -1503.0355    496.91004    290.13044   -87.763783    37426.586 
  920200    299.86016   -1498.5269    488.35232    343.07828     454.1824    37426.586 
  920300    293.82766   -1521.0234    509.57646    314.58152    130.91573    37426.586 
  920400    301.19997   -1554.5694    485.45708    290.18703      328.518    37426.586 
  920500    305.07279   -1523.8953    492.18554    345.06743    425.14408    37426.586 
  920600    299.37867   -1516.1587    504.71283    339.63408   -16.054973    37426.586 
  920700    303.49531   -1521.9544    458.38675    306.09046    134.95149    37426.586 
  920800    304.71954   -1502.0217    513.19596    386.35722   -447.25801    37426.586 
  920900    302.97912   -1499.0142    480.11612    348.43042   -440.72497    37426.586 
  921000    311.98733    -1511.041    463.82133    360.76244   -16.831257    37426.586 
  921100    304.30847   -1503.4154    487.27673    357.18911    304.23768    37426.586 
  921200    297.49023   -1492.2391    464.09217    314.41051    536.27182    37426.586 
  921300     294.8144   -1476.4285      515.602     369.6551   -248.61936    37426.586 
  921400    301.82467    -1478.259    494.15482    378.01436      334.072    37426.586 
  921500    294.75613   -1501.1359    517.63831    346.72104    -604.6737    37426.586 
  921600    298.78394   -1494.1041    498.22242    352.51421   -81.669374    37426.586 
  921700    298.27781   -1455.3793     471.8201    362.55256   -152.37814    37426.586 
  921800    288.81776   -1478.3733    520.95741    346.00321   -114.63776    37426.586 
  921900    311.93668   -1445.0047    486.80757    449.55638    24.257868    37426.586 
  922000    307.52648   -1441.1091     498.2736      445.015   -30.821513    37426.586 
  922100    299.31999   -1460.4016    478.47624     368.8897   -209.57823    37426.586 
  922200    298.20256   -1481.2364    475.65433    340.19011   -704.66172    37426.586 
  922300    303.14622   -1472.8782    492.93178    388.13626   -437.33688    37426.586 
  922400    309.12654   -1463.4516    492.28382    423.90368   -468.68687    37426.586 
  922500    299.08611   -1440.6094     516.0788    425.22898   -491.70522    37426.586 
  922600     287.6217   -1433.5957    491.82603    356.25167   -609.27931    37426.586 
  922700    301.46244   -1477.2328    468.64899    351.90001   -450.46344    37426.586 
  922800    297.94949   -1465.8144    498.92295     377.7386    -144.9277    37426.586 
  922900    298.78027   -1444.6191    503.95539    407.71562   -671.35554    37426.586 
  923000    309.11379   -1474.9804    469.09282    389.12645   -413.32871    37426.586 
  923100    305.44039   -1465.2496    506.35958     419.5461   -61.644856    37426.586 
  923200    303.43828    -1420.375    483.27924     432.3049   -555.48522    37426.586 
  923300    296.03642    -1444.724    506.54353    397.81603   -184.29429    37426.586 
  923400    293.82862   -1490.1128    447.78478    283.70481   -6.0360389    37426.586 
  923500    307.57755   -1491.3886    507.24239    403.93483   -553.74274    37426.586 
  923600    304.06109   -1452.0726    468.60242    388.74122    47.666405    37426.586 
  923700    293.68907   -1477.5987    484.96486    332.76924   -406.06039    37426.586 
  923800    308.31956   -1444.7953    480.20294    426.83727   -501.13193    37426.586 
  923900    296.35847   -1472.9877    469.99428    334.45646    177.94219    37426.586 
  924000    292.28552   -1467.6748    493.63438     345.0285    55.635417    37426.586 
  924100    305.48606    -1471.588    490.59889    397.65313    133.94376    37426.586 
  924200    296.59764   -1499.6693    477.82221    316.68221     396.6087    37426.586 
  924300    307.76525   -1529.2298    495.65105     355.3493   -181.90754    37426.586 
  924400    289.11359   -1538.0332    457.60535    224.32629   -605.71745    37426.586 
  924500    308.35426    -1536.415    447.72873    302.90002   -636.96225    37426.586 
  924600    297.73578   -1536.6162    504.45973    311.50913   -1060.5604    37426.586 
  924700    308.82589   -1533.8411    479.46655    339.34015   -474.64147    37426.586 
  924800    294.44342    -1541.286    479.56315    267.08456   -820.82349    37426.586 
  924900    298.67117   -1498.1853    476.53261    326.23428   -434.06524    37426.586 
  925000    301.92888     -1506.72    486.93134    342.80021   -568.11211    37426.586 
  925100    303.80828   -1492.9247    504.57597    382.72178   -158.96566    37426.586 
  925200    294.65073     -1529.24      499.097    299.60003    170.03477    37426.586 
  925300    298.35797   -1525.6345    509.81018    330.64921    77.752797    37426.586 
  925400    305.66636   -1517.0042    475.27637    337.72813     269.2113    37426.586 
  925500    303.07645   -1499.5621    502.96823    371.17393    321.40962    37426.586 
  925600    296.79824   -1501.7066     491.6229    329.35086    420.38163    37426.586 
  925700    308.56661   -1523.6907    519.94818    388.80205    290.15611    37426.586 
  925800    294.15884   -1524.6608    492.51518    295.37748   -91.426983    37426.586 
  925900    288.36046   -1518.7633     478.6742    261.26622    284.05938    37426.586 
  926000     296.6816   -1493.0445    504.60673    350.47038    374.62361    37426.586 
  926100    298.80188   -1489.5819    470.13919    329.03414    64.848376    37426.586 
  926200    301.77881   -1493.6951    492.61476    360.83123    291.86088    37426.586 
  926300    297.46089   -1507.2587    516.35715    351.52353   -135.01136    37426.586 
  926400    298.69973   -1498.3871    494.67626    344.30501   -291.08468    37426.586 
  926500      305.549    -1512.998    484.23408    350.16235    227.43059    37426.586 
  926600    305.23464   -1525.9694    499.69481    351.23299    -145.6763    37426.586 
  926700    295.87947   -1488.2813    527.85122    374.85815   -690.25279    37426.586 
  926800    296.38574   -1464.7338    513.95629    386.79547    32.881728    37426.586 
  926900    302.58578   -1486.8871    520.52955    399.19582   -584.70849    37426.586 
  927000    292.96329   -1475.4947    528.06373    374.69672     275.4944    37426.586 
  927100    287.48369   -1498.0265    486.81429    286.18632   -241.14922    37426.586 
  927200    300.99285   -1515.9495    483.49608    325.91123   -334.98518    37426.586 
  927300    299.73999   -1513.8604    480.89528    319.74538    876.37931    37426.586 
  927400    303.34072   -1498.7781    503.43646    373.61878    402.30458    37426.586 
  927500    297.03429   -1515.9803    494.34808    318.86765     363.2543    37426.586 
  927600    290.24585   -1539.5178    513.24648    283.59266    496.43776    37426.586 
  927700    295.55816   -1577.1485    498.60602    255.29568    209.19658    37426.586 
  927800    311.21571   -1563.3073    495.41234    336.60489   -90.857831    37426.586 
  927900    297.45245   -1569.2777    498.21969    271.32892   -201.37638    37426.586 
  928000    308.73064   -1554.2523    472.06809    311.10063   -111.79257    37426.586 
  928100    297.27439   -1550.1078    483.41831    274.89388   -233.20118    37426.586 
  928200      298.727   -1543.7092    468.30894    272.73867    275.52407    37426.586 
  928300    300.65764   -1504.7293    508.67624    360.79879    348.40127    37426.586 
  928400    305.36606   -1538.5016    475.63138    315.23042    857.45525    37426.586 
  928500    308.75396   -1588.2135      489.208    294.38455    597.26376    37426.586 
  928600    289.55357   -1572.4368    482.72652    217.02945    180.70172    37426.586 
  928700    297.24693   -1565.5229    484.03451    259.97105    486.88561    37426.586 
  928800    300.51795   -1562.6992    477.20635     270.7286    94.000805    37426.586 
  928900    298.46789   -1502.6132    492.78019    337.13662   -213.55494    37426.586 
  929000    308.52808   -1503.4367    512.23367     401.1677    -142.6199    37426.586 
  929100    295.28117   -1520.1098     488.0366     300.5149   -20.522074    37426.586 
  929200    313.51763   -1539.5633     482.5356    357.86053   -308.75521    37426.586 
  929300       296.34    -1534.039    476.77907     280.1066    66.355706    37426.586 
  929400    310.96675   -1572.5466    473.44758    304.27728     56.80999    37426.586 
  929500    304.14812   -1549.2186    490.09211    313.47769   -304.55442    37426.586 
  929600    297.01329   -1595.5094    480.14674    225.04244   -146.48493    37426.586 
  929700    304.90903   -1544.9393    490.80045    321.89921   -498.43161    37426.586 
  929800    296.72023    -1561.059    474.62114    252.64461   -401.06383    37426.586 
  929900    299.44529    -1546.097     500.9833    306.26683    44.511412    37426.586 
  930000      298.588   -1519.9529    483.30353    310.86228    130.64863    37426.586 
  930100    302.76773   -1538.2185    482.85294    311.00897     403.7279    37426.586 
  930200    302.16242   -1521.9561    474.47199    316.15875    -11.59536    37426.586 
  930300    310.11261   -1488.7308    489.81609    400.60686    389.19665    37426.586 
  930400    298.81825    -1509.488    483.81468    322.87743   -585.85536    37426.586 
  930500     301.0281   -1513.8805    482.26874    326.91196   -290.24808    37426.586 
  930600    309.89256   -1547.8421    490.89571    341.58214   -295.25696    37426.586 
  930700     304.1793     -1493.83    505.77648    384.69139   -105.34147    37426.586 
  930800    295.76597   -1530.0343    484.48953    289.23119   -67.882839    37426.586 
  930900    305.89999   -1492.9607    494.84738    382.39695   -110.01231    37426.586 
  931000    308.30849   -1510.0682    496.27813    377.58966    138.68206    37426.586 
  931100    292.31385   -1546.1041    483.83437    256.92699   -207.98928    37426.586 
  931200    293.27206   -1493.6129    509.41392    339.32211    283.16721    37426.586 
  931300    303.04475   -1466.1432    488.33726    389.81879   -77.172253    37426.586 
  931400    301.01551   -1519.6174    499.53664    338.38614   -170.90885    37426.586 
  931500     286.6237   -1515.2958    481.29122    259.51281   -334.72874    37426.586 
  931600    306.45619   -1507.0996    479.97516    355.89592   -404.83591    37426.586 
  931700    305.78985    -1483.035     506.3434    403.32161   -119.74805    37426.586 
  931800    306.69871   -1481.4288     490.6492    393.33528   -130.16093    37426.586 
  931900    306.18573   -1508.3563    481.37692    354.82048   -161.07889    37426.586 
  932000    297.23664   -1496.0539    472.44452    317.80358    38.695506    37426.586 
  932100    302.03628   -1491.7249    477.04219    348.39083   -241.01664    37426.586 
  932200    311.35015   -1499.0721    495.73169    401.76607    53.879907    37426.586 
  932300    298.56222   -1483.0994    510.08483    374.38076    815.65714    37426.586 
  932400    304.07419   -1518.0013    478.02167    332.29096    678.44938    37426.586 
  932500    298.32581    -1459.228    492.87069    379.97106    236.48355    37426.586 
  932600    304.95188   -1487.5419    504.08208    392.77173    1057.4564    37426.586 
  932700    289.63897   -1477.1864    501.36688    331.30565    367.14551    37426.586 
  932800    301.17187   -1456.4629    486.57534    389.28496    46.255986    37426.586 
  932900    301.78015   -1456.1839    523.74651    429.48025    -39.09318    37426.586 
  933000    298.37604   -1448.6918    476.72157    374.58489   -715.91644    37426.586 
  933100    291.06389   -1479.8857    499.40173    333.07177   -486.36869    37426.586 
  933200    308.28817   -1507.8455    475.37289    358.81545   -1.5534969    37426.586 
  933300    298.19069    -1491.361    480.61161    334.96924    140.26879    37426.586 
  933400    300.36202   -1491.4389    494.91724    358.99601    631.29609    37426.586 
  933500    296.05226   -1481.4792    505.98799    360.57675    792.12402    37426.586 
  933600    304.51645   -1497.8538    502.25791    378.67055     575.7752    37426.586 
  933700    299.65169   -1525.6593    486.15122    312.80389   -19.601814    37426.586 
  933800    306.22733    -1511.958    492.75325    362.78281   -337.28404    37426.586 
  933900    305.03403   -1481.6479    489.12731    384.08164    200.02384    37426.586 
  934000    301.56447   -1505.3456    522.78124       378.38   -184.86201    37426.586 
  934100    297.98948   -1507.2718    463.12984    300.66855    481.13837    37426.586 
  934200    291.04317   -1503.1225    471.97076    282.31051   -159.80301    37426.586 
  934300    294.17527   -1485.6484    497.90515    339.85404   -37.637143    37426.586 
  934400    316.47084   -1518.3575    480.91776    390.77616    509.44469    37426.586 
  934500    300.86232   -1529.0511    480.75132    309.47574   -284.18449    37426.586 
  934600    297.55177    -1508.197    488.42867    323.06691    124.26023    37426.586 
  934700    302.35853   -1502.4678    475.99605    338.05606    -31.21526    37426.586 
  934800     291.1503   -1506.4894     469.1312    276.58754    272.70032    37426.586 
  934900    295.18178   -1501.9389    482.71441    312.91501   -576.88467    37426.586 
  935000    302.14343   -1507.5209    504.00977    360.04601   -457.66374    37426.586 
  935100    299.48762   -1472.8411    465.04286     343.7734   -490.90534    37426.586 
  935200    284.44953    -1482.844    505.74263    306.60416   -673.08336    37426.586 
  935300    300.66407   -1437.6829    523.84736    443.04528   -345.24127    37426.586 
  935400    310.80141   -1475.8919    514.73319    441.47138   -855.27688    37426.586 
  935500    296.00591   -1525.5058     475.3026    285.65566   -310.69218    37426.586 
  935600     297.5105   -1520.2817    503.57669    325.94393    277.82378    37426.586 
  935700    296.42375   -1507.4499    450.66345    280.95801    253.24006    37426.586 
  935800    299.51012   -1496.4934    479.43368    334.61343    18.870934    37426.586 
  935900    298.80419   -1514.4458    469.22273    303.26429    301.98149    37426.586 
  936000    300.83013   -1519.4139    481.00162      319.218    812.54616    37426.586 
  936100    304.01537   -1523.2375    481.74154    330.50915    146.17199    37426.586 
  936200    298.24823   -1493.9417    486.14417    338.18077    467.99761    37426.586 
  936300    302.21376   -1539.3698    482.05084    306.55552     50.75751    37426.586 
  936400    301.71125   -1513.8406    485.68376    333.44986    485.69166    37426.586 
  936500    300.58774   -1534.7671    461.53096    283.30027   -3.2095238    37426.586 
  936600    302.96028   -1503.9601     490.1607    353.44414    201.46851    37426.586 
  936700    292.70986   -1514.8393    484.37687    290.52147    74.285818    37426.586 
  936800    295.62776   -1482.4094    488.16547     339.9083    294.72248    37426.586 
  936900    318.77584   -1504.8389     494.0135    427.79283    1017.9098    37426.586 
  937000    293.79344   -1570.9914    467.63136      222.514    57.139487    37426.586 
  937100    299.22571   -1468.4456    489.10875    371.05278    143.48935    37426.586 
  937200    302.34631   -1471.2456    488.59236    381.81946    110.95984    37426.586 
  937300    296.45792   -1464.3568    495.05827    368.60014   -503.75065    37426.586 
  937400    306.82132   -1482.7619     474.0385    375.94473   -4.3028198    37426.586 
  937500      297.929   -1487.6267    500.10827    357.01922   -8.1692987    37426.586 
  937600    295.30347   -1487.5776    468.59622    313.70732    60.479257    37426.586 
  937700    295.52354   -1521.2031    491.16398    303.64277   -598.29633    37426.586 
  937800    294.03885    -1507.735    488.12863    307.37521   -65.655096    37426.586 
  937900    306.40561    -1485.225    483.17557    380.74264    351.13668    37426.586 
  938000    304.69108   -1500.7016      484.857    359.20995   -26.649211    37426.586 
  938100    297.17249   -1540.2011    464.26443    265.18685    7.2752658    37426.586 
  938200    299.04137   -1499.2457    486.40351    336.71555     354.9855    37426.586 
  938300    304.19335   -1503.7402    486.21302    355.28114    276.74777    37426.586 
  938400    308.23646   -1483.6131    476.12758    383.56909     454.5666    37426.586 
  938500    298.94017   -1511.2334    474.74245    312.60999    521.98346    37426.586 
  938600     304.7271   -1502.8331    481.65417    354.03808      544.741    37426.586 
  938700    290.64436   -1506.3133    480.09528    285.44438    579.07026    37426.586 
  938800    303.87505   -1468.1176    499.97792    403.23216    981.73999    37426.586 
  938900    311.86033   -1458.2271     477.4544    426.63629    400.99819    37426.586 
  939000    306.34043   -1483.8762    488.51657     387.1383    67.793329    37426.586 
  939100    301.97269   -1475.9269    476.92862    363.78829    305.52442    37426.586 
  939200    303.97215   -1522.2441    483.95523    333.52118   -186.71831    37426.586 
  939300    300.30748   -1491.2498    470.44506    334.46683    -173.0986    37426.586 
  939400    295.62315   -1503.8995    483.13175    313.36363   -461.16061    37426.586 
  939500    298.95198    -1513.289    465.34993     301.2152    -533.5283    37426.586 
  939600    296.25671   -1440.8291    494.15423    390.31579    -911.6221    37426.586 
  939700    300.50057   -1449.3363    475.32447    382.13115   -831.17314    37426.586 
  939800    302.97455   -1478.6716    473.79147     362.4278   -606.11247    37426.586 
  939900    294.55164   -1450.9249    508.39703    386.76785   -117.60125    37426.586 
  940000     290.8617   -1478.6712    477.10476    311.07682    295.46799    37426.586 
  940100    293.85527   -1478.6884    481.10264    328.56735    431.35912    37426.586 
  940200    300.15674   -1485.3422    465.62917    334.87824   -116.73331    37426.586 
  940300    297.37883   -1480.7137    473.03092    334.37196    284.68375    37426.586 
  940400    302.31497   -1455.4564    470.20678    379.08164    756.34493    37426.586 
  940500    304.41743   -1452.1808    479.01023    400.64896    83.643702    37426.586 
  940600       314.07   -1431.4718    476.78242    462.69174   -190.97593    37426.586 
  940700    305.56104   -1454.0487    501.98378    426.91568    96.667176    37426.586 
  940800    297.47349   -1513.5126    461.89326     290.8626   -106.44871    37426.586 
  940900     296.4254   -1534.4379    494.33476    297.64883    291.80358    37426.586 
  941000    292.42747   -1529.1694    464.41204    254.95211    42.853787    37426.586 
  941100    302.44159   -1542.8827    490.23555    312.25555    101.57926    37426.586 
  941200    294.75462   -1516.2258    486.53318    300.51914    160.97874    37426.586 
  941300    308.97065   -1535.3577    467.32348    326.33373   -4.4901564    37426.586 
  941400    293.93569   -1565.3504    454.37134     215.5369   -81.101808    37426.586 
  941500    309.57094   -1532.9812    475.25844    339.35432   -70.872493    37426.586 
  941600    306.26535   -1531.4907    464.47314    315.14153   -12.474216    37426.586 
  941700    295.73822   -1523.3406    482.26927     293.5794   -178.36757    37426.586 
  941800     293.6338   -1519.4397    491.09338    296.80725   -368.54071    37426.586 
  941900    299.59161   -1494.9491    478.13166    335.22344    727.22471    37426.586 
  942000    299.35793   -1513.5918    477.10424    314.49877   -17.749857    37426.586 
  942100    297.50048   -1484.8126    462.91819    320.70927    299.14086    37426.586 
  942200     297.6014   -1472.9578     489.2319    359.33327   -90.282216    37426.586 
  942300     290.6163   -1543.1658    480.57847    248.94843   -32.728579    37426.586 
  942400     303.0743   -1557.3826     475.4854    285.86084    60.173394    37426.586 
  942500     296.5009    -1506.961    479.09565    310.22735    -76.66696    37426.586 
  942600    297.88857   -1537.3899    502.42375    309.38903   -412.86952    37426.586 
  942700    299.41983   -1526.9321    488.34246    312.67607    44.774983    37426.586 
  942800     305.3353    -1471.616    491.29349    397.63929   -92.144822    37426.586 
  942900    299.33769   -1477.2014    507.98726    381.68077     -410.762    37426.586 
  943000    296.46868    -1466.129    497.60799    369.42626   -706.96888    37426.586 
  943100    305.56585   -1520.8553    476.11719    334.26417   -375.22929    37426.586 
  943200    306.69742   -1505.0034    503.05432    382.15994   -325.44954    37426.586 
  943300    297.75377    -1490.222    477.08099    330.60576   -156.08393    37426.586 
  943400    302.47374    -1504.316    500.83877    361.57059   -550.95903    37426.586 
  943500    306.14023   -1482.9421    487.48474    386.13707   -287.10986    37426.586 
  943600    306.77246   -1478.8992     488.7041    394.25262    38.381959    37426.586 
  943700    298.41593   -1479.8545    485.00925    351.88985    36.255755    37426.586 
  943800    301.18915    -1464.734    501.59813    396.11458    559.40111    37426.586 
  943900    311.62475   -1479.0044    486.26207    413.60349    652.06576    37426.586 
  944000    306.14101   -1486.2475    469.80764    365.15813    196.84317    37426.586 
  944100     304.5626   -1494.6162    481.73231    361.59079   -358.34538    37426.586 
  944200    292.41044   -1471.6032    499.66136    347.69085    48.851435    37426.586 
  944300    300.27393    -1468.268    469.96561    356.81775   -467.13196    37426.586 
  944400    296.80443      -1455.6    496.46366    380.32612   -553.65873    37426.586 
  944500    287.61832   -1462.4375    494.72069    330.28926   -517.78211    37426.586 
  944600    295.06729   -1463.8743     493.7331    361.48164   -736.26469    37426.586 
  944700    302.00296   -1501.2941    478.15067    339.77978   -504.53982    37426.586 
  944800    293.74282   -1486.4671    470.62052    309.79898   -180.50777    37426.586 
  944900    304.59845   -1450.5041    502.63881    426.77119    172.25993    37426.586 
  945000    308.90351   -1474.5802    470.23528    389.72004    216.05117    37426.586 
  945100     286.5127   -1490.0906    469.68968    272.61552     439.9117    37426.586 
  945200    292.52457   -1493.2599    492.18336    319.07121    1000.5233    37426.586 
  945300    302.54288   -1514.5012    480.88006    331.73865    1020.2836    37426.586 
  945400     292.4627   -1497.2928    514.10314    336.67887    1034.1624    37426.586 
  945500    302.86634    -1491.386    476.45669    351.89026      603.504    37426.586 
  945600    294.23534   -1486.2543    488.78284    330.39687    807.91897    37426.586 
  945700    304.41709   -1485.4227    483.78889    372.18419    613.95303    37426.586 
  945800    305.56877   -1476.8489     510.1581    412.32467    608.90829    37426.586 
  945900    305.16211   -1500.0877    481.59439    358.68691    762.61076    37426.586 
  946000    303.11023   -1492.9605    497.14545    372.10523    112.37848    37426.586 
  946100    308.07098   -1484.7173     480.1563    385.74688    654.45248    37426.586 
  946200    305.70165   -1471.9964    501.09747    408.71623   -199.80385    37426.586 
  946300    308.70942   -1436.1983    507.97477    464.96553   -57.995797    37426.586 
  946400    296.20696   -1465.4152    468.28974     339.6407   -361.27192    37426.586 
  946500    306.41965   -1484.3562    486.80093    385.30015   -1141.7647    37426.586 
  946600    302.92643   -1496.7853    475.24036    345.54578   -942.74744    37426.586 
  946700    298.68398   -1507.3133    499.42503    340.05658   -1308.9319    37426.586 
  946800    285.15377   -1527.2556    465.89448    225.52256   -1016.3216    37426.586 
  946900    305.85412   -1521.5626    462.69116    321.43177   -523.26205    37426.586 
  947000    293.47201    -1501.774     497.1255    319.77495   -431.51296    37426.586 
  947100      300.365   -1542.0483     475.1674    288.65025    397.47412    37426.586 
  947200    316.20532   -1567.9969    469.86962    328.89038    587.14003    37426.586 
  947300    291.58373   -1535.6635    473.45049    253.68869    388.64219    37426.586 
  947400    288.39865   -1540.0443    466.65176    228.13512    340.68688    37426.586 
  947500    297.62466     -1509.97    488.14376    321.33791    617.94832    37426.586 
  947600    302.01422   -1490.4664    479.75552    352.26314    472.57929    37426.586 
  947700    292.75468    -1537.864    503.14653    286.46874    370.74282    37426.586 
  947800    300.78694   -1548.6241    478.16528    286.97656     854.4731    37426.586 
  947900    300.57709   -1554.3245    474.39936    276.56314    89.532162    37426.586 
  948000    295.02585   -1535.0702    482.17308    278.53868   -76.425458    37426.586 
  948100    297.79749   -1558.4305    474.19903    259.71269    52.550552    37426.586 
  948200    307.95187   -1547.5585    466.95688    309.16868   -224.21708    37426.586 
  948300    317.30615   -1531.5013    484.12335     384.6077    143.25153    37426.586 
  948400    291.48504   -1526.7524    480.05332    268.75725    153.54309    37426.586 
  948500    302.10134   -1565.5976    475.27516    273.04478   -53.924704    37426.586 
  948600    291.77814   -1530.0378    488.15386    274.89517   -56.741861    37426.586 
  948700    291.96999   -1488.3389    476.28958    305.59558   -292.67418    37426.586 
  948800    313.51055   -1468.8656    473.03272    419.02343   -414.66603    37426.586 
  948900    304.65867   -1534.2668    470.65821    311.29962   -483.74738    37426.586 
  949000    295.55973   -1505.9628    454.72921    282.61158   -181.49924    37426.586 
  949100    297.90614   -1518.7755    491.08019    316.73914    40.300262    37426.586 
  949200    306.88409   -1497.5021    461.55317    349.00256    334.08977    37426.586 
  949300    314.50832   -1505.7256    493.66383    407.29742    325.83996    37426.586 
  949400     290.4436    -1508.852    491.55737     293.4618    145.96003    37426.586 
  949500     292.7906   -1513.8688    481.35542    288.83495    254.92647    37426.586 
  949600    294.58498   -1570.2824    461.74305     220.9069    547.49888    37426.586 
  949700    298.32897   -1586.1049    466.21292    226.45065    510.12721    37426.586 
  949800    296.27881   -1525.4568    499.09991     310.7335    137.97726    37426.586 
  949900    303.86855   -1558.0677    491.13328    304.40805    48.101594    37426.586 
  950000     296.1886   -1522.8981    463.39394    277.17909    14.500572    37426.586 
  950100    295.69643   -1498.6248    480.91875    316.75604    526.26087    37426.586 
  950200     304.4285   -1517.9446     509.1247    365.04959    834.63615    37426.586 
  950300    308.83812   -1496.6471    494.69595    391.81876    902.65145    37426.586 
  950400    294.30404   -1445.8502    496.62658    378.95475   -42.355453    37426.586 
  950500    301.33579   -1458.4241    484.62783    386.11601     93.78752    37426.586 
  950600    294.93657   -1446.0782    488.67848    373.63321    325.55471    37426.586 
  950700    306.56882   -1469.1676    493.79434    408.15537    235.06214    37426.586 
  950800    304.19475   -1475.4472    498.32049    395.68795   -39.934399    37426.586 
  950900    297.85798   -1494.6721    466.77582    316.32083    76.929783    37426.586 
  951000    289.46504   -1473.3391      496.155    329.15614    141.48039    37426.586 
  951100    304.76982   -1484.5382    494.95097    385.82266    913.04894    37426.586 
  951200    307.55738     -1472.32    467.21145    382.88141    78.724741    37426.586 
  951300    302.68584   -1460.4846    501.92794    407.44835    410.94459    37426.586 
  951400    298.54846   -1511.2518    511.69892    347.78035    633.50226    37426.586 
  951500    304.72035   -1474.5106    472.07803    372.75406    553.42532    37426.586 
  951600    300.49021   -1475.3259    470.48616    351.25647    473.78829    37426.586 
  951700    298.63883   -1451.4843    491.45497    387.71167    316.36677    37426.586 
  951800    289.67338   -1545.5472    469.19153    230.92477    64.437371    37426.586 
  951900    288.36657   -1496.9202    494.26695    298.72967    857.88935    37426.586 
  952000    301.58982   -1463.3096    492.66236    390.41144    160.91611    37426.586 
  952100    311.99305   -1464.6951    474.15136    417.46415    242.47462    37426.586 
  952200    292.40763   -1524.2317    457.37564    252.76386    169.05576    37426.586 
  952300     295.5885   -1555.0974    463.64752    242.52515   -353.14218    37426.586 
  952400    305.01917   -1509.0965    473.89733    341.33602    300.87743    37426.586 
  952500    306.98006   -1502.4509    488.20298    371.13664    137.19514    37426.586 
  952600    295.77322   -1508.2094    489.02558    315.62482   -81.466906    37426.586 
  952700    294.72945   -1505.8323     467.7315    291.99742    44.631632    37426.586 
  952800    304.62864   -1494.9244    470.28292    350.13127   -63.063224    37426.586 
  952900    293.22627   -1505.5405    472.33958    290.11351   -575.70153    37426.586 
  953000    296.86447    -1506.638    440.96929    274.06468    16.095827    37426.586 
  953100    307.66663   -1481.8089    483.58908    390.26317    429.57603    37426.586 
  953200    305.21284   -1493.6942    480.54259     364.2576    510.52937    37426.586 
  953300    294.42128   -1512.3242    467.61865    284.00185    181.52519    37426.586 
  953400    293.22968   -1508.6884     471.8016      286.443    226.84463    37426.586 
  953500    292.94845   -1460.8419    500.20093    361.41964   -22.338528    37426.586 
  953600    310.07465   -1497.8543    484.73023    386.22625   -119.16006    37426.586 
  953700    297.35184   -1467.2793    487.49969    362.15333    187.69954    37426.586 
  953800     297.9229   -1472.3673     491.3152    363.45801   -92.431937    37426.586 
  953900    298.05835   -1451.6089    477.93182    371.44426    357.09484    37426.586 
  954000       301.22   -1462.7433    472.76684    369.41329   -269.74362    37426.586 
  954100    303.48479   -1489.7768    473.98147     353.8153    309.05248    37426.586 
  954200    292.28681   -1489.4637    481.14217    310.75312    393.65373    37426.586 
  954300    296.38018   -1489.5095    496.96594    345.00426     71.04549    37426.586 
  954400    303.85324   -1450.8031     521.7948    442.26511    13.740818    37426.586 
  954500    291.19371   -1403.7237    510.81359    421.23147    448.94567    37426.586 
  954600    301.68427   -1454.0747    487.91488    395.32512    848.03518    37426.586 
  954700    289.59909   -1449.3941    502.21776    359.76887    713.79738    37426.586 
  954800    296.54006    -1454.763    501.33229    384.83866    770.09117    37426.586 
  954900    293.72008   -1450.3867    487.34911    362.50534    761.25335    37426.586 
  955000    286.59601   -1455.1764    493.22096    331.43696     985.2538    37426.586 
  955100    304.78478   -1466.6472    492.22942    401.05964     855.3445    37426.586 
  955200    296.57157   -1435.4057    482.30852    385.31436    27.581993    37426.586 
  955300    297.41276   -1409.5658    484.17291    416.81501   -50.227083    37426.586 
  955400    295.39096    -1441.443    506.88614    398.52668    6.3801709    37426.586 
  955500    308.43869   -1472.7367    486.67952    405.91014    686.53789    37426.586 
  955600    296.10728   -1490.8067    472.48005    317.98965    643.59635    37426.586 
  955700    309.76742   -1499.5354    498.23341    396.66182    633.52469    37426.586 
  955800    293.05468    -1483.515    463.88807     302.9131    497.85537    37426.586 
  955900    299.54311   -1500.0494    514.21859    365.99119    25.042802    37426.586 
  956000    308.06257   -1482.2321    468.86424    376.90199    1.1525593    37426.586 
  956100     303.2082   -1504.1522     478.9044    343.11453    15.218977    37426.586 
  956200     287.0743   -1531.4187    487.76656    251.89879   -136.83464    37426.586 
  956300    303.45822   -1517.0962    478.08908    330.48355   -100.14822    37426.586 
  956400    304.62272   -1450.2895    479.42975    403.88623   0.29610869    37426.586 
  956500    295.67387    -1507.502    471.69275    298.55107    62.291891    37426.586 
  956600    307.72948   -1475.2494     482.4377    395.95492    189.08796    37426.586 
  956700    297.74412    -1519.689    473.98882    298.00305    663.72724    37426.586 
  956800    303.56546   -1491.0106    508.05813    387.02218    729.22036    37426.586 
  956900    300.25723   -1523.6826    447.76809    279.13033    430.14243    37426.586 
  957000    285.67025   -1529.8051     483.2541    242.66356    335.66641    37426.586 
  957100    303.19477   -1525.4244    482.54793    325.42533    186.85148    37426.586 
  957200    299.37595   -1501.1216    479.78134    329.72739    719.39006    37426.586 
  957300    294.81412   -1507.3128    465.83287    289.00036    176.91986    37426.586 
  957400    303.63558   -1473.7396     484.8024    381.35388    -404.1729    37426.586 
  957500    303.03136   -1449.9168    501.09715    418.74467    169.00684    37426.586 
  957600    296.41569    -1485.762    489.42025    341.36635    63.362285    37426.586 
  957700    307.91388   -1467.5117    482.09143    404.17855    194.05837    37426.586 
  957800    295.86707   -1466.8949    509.68163    378.01892   -7.3016972    37426.586 
  957900    297.26587   -1477.0371    473.90272    338.41056    -133.3606    37426.586 
  958000     302.6884   -1470.3128    494.75076    390.45451    231.45457    37426.586 
  958100      308.594   -1475.4941    506.23401    423.40809   -54.045119    37426.586 
  958200    297.36376   -1461.1805    471.07828    351.88445   -77.735327    37426.586 
  958300    302.74098   -1453.4783    490.81294     403.5885   -314.45011    37426.586 
  958400    306.81997   -1457.8472    485.43878    412.25366   -193.65432    37426.586 
  958500    304.97418   -1499.9915    499.89247    376.23315    448.24455    37426.586 
  958600    295.73937   -1477.9144    457.91218    314.65364   -10.647724    37426.586 
  958700    299.00696   -1495.2326    465.72238    319.89221   -6.7534898    37426.586 
  958800    299.29036   -1498.4399     489.6593    341.90078   -116.69688    37426.586 
  958900     304.5339   -1452.4337     476.9803    398.89176    53.217466    37426.586 
  959000    311.51753   -1488.6868    490.33708    407.51219   -357.45231    37426.586 
  959100    300.78525     -1527.62    484.52853    314.33625   -367.09132    37426.586 
  959200    302.42949   -1471.5626    496.25002    389.53553    171.97754    37426.586 
  959300    296.75273   -1455.0875    477.22535    361.36697   -189.22514    37426.586 
  959400    293.87663   -1457.0635    514.60771    383.79374    31.246481    37426.586 
  959500    303.44443   -1441.8784    474.55006    402.10011   -464.49777    37426.586 
  959600    309.93578   -1499.5655    485.74421    384.90227   -700.06205    37426.586 
  959700    292.75225   -1499.0057     497.0547    319.22423    165.67463    37426.586 
  959800    296.69839   -1478.6805    480.24903    340.55244    757.92067    37426.586 
  959900    310.31233   -1494.6008    484.34958    390.17167   -144.24171    37426.586 
  960000    301.82143   -1497.9793    471.16907    335.29375    840.59787    37426.586 
  960100    299.64636   -1537.2342    478.94649    294.00025    738.18712    37426.586 
  960200    306.81683    -1498.184    497.03541    383.49931    518.02997    37426.586 
  960300    303.45568   -1485.9305    465.62417    349.17296    186.40182    37426.586 
  960400    293.93356   -1441.0327    492.74239    378.21611   -786.70907    37426.586 
  960500    300.45776   -1474.1714    500.10962    381.88796   -75.525725    37426.586 
  960600    297.18288   -1478.1464    468.62616    331.65016    -562.3813    37426.586 
  960700    296.34595   -1432.4421    480.35818    385.30952   -634.31244    37426.586 
  960800    303.44967   -1448.2996    501.93937     423.0919   -352.54013    37426.586 
  960900     294.7535   -1448.6849    501.64832    383.17014   -253.19262    37426.586 
  961000    293.95279   -1498.9458    476.08986    303.73724    -681.6636    37426.586 
  961100    298.18487   -1475.5739    488.37502    358.49342   -660.72998    37426.586 
  961200    292.25984   -1508.3732    491.89805    302.47785   -223.73147    37426.586 
  961300    298.93848   -1498.4073    485.68622    336.37225    173.23261    37426.586 
  961400    299.74296   -1503.8385    468.57602    317.46139    18.228209    37426.586 
  961500    293.63741   -1503.6785    488.09886    309.59019    591.27413    37426.586 
  961600    295.52098   -1473.3285    501.09035     361.4322    99.719053    37426.586 
  961700    302.21389   -1481.6159    508.85392    391.11312    422.11291    37426.586 
  961800    298.24479   -1499.0832    474.63492    321.51451    89.855782    37426.586 
  961900    290.45589   -1482.1553    519.72888    348.38547   -186.91662    37426.586 
  962000    306.51978   -1446.6811    495.29499    431.92122     -933.903    37426.586 
  962100    305.69209   -1438.4969    494.99636    436.07149   -402.05836    37426.586 
  962200    298.10867   -1496.9063    495.32002    343.76213   -466.18721    37426.586 
  962300    300.51271   -1474.0147    500.83016    383.01325    62.271384    37426.586 
  962400    304.74159   -1412.4048    497.12952    460.00723   -669.98834    37426.586 
  962500    298.78181   -1377.5058    470.04048    440.92098   -670.51185    37426.586 
  962600    293.50614   -1439.3984    485.78518    370.96424   -613.82009    37426.586 
  962700    293.03461   -1471.7404    466.06918    316.77833    284.96909    37426.586 
  962800    299.39441    -1481.521    486.07746     355.7074   -565.80094    37426.586 
  962900    307.64568   -1455.3442    486.08768    419.13192    317.71247    37426.586 
  963000    294.38282   -1438.1176    497.74613     388.1624   -812.66763    37426.586 
  963100    300.80973   -1431.8078     500.3667    426.09713   -363.98678    37426.586 
  963200    294.37003   -1453.5809    499.29741    374.19272    445.59431    37426.586 
  963300     302.1214   -1438.7027    509.50588    434.26089   -159.65064    37426.586 
  963400    287.39701   -1436.3438    508.74377    369.40722    399.43591    37426.586 
  963500    306.21306   -1456.4875     518.2591    443.69474    286.82608    37426.586 
  963600    300.96787    -1466.599     481.1633    372.81614   -106.56832    37426.586 
  963700    308.69334   -1476.0018    482.77825    399.89297   -107.79876    37426.586 
  963800    308.22225   -1502.5013    482.92639    371.41564   -324.88869    37426.586 
  963900    300.10387   -1504.5099    477.41355    327.25634    358.08407    37426.586 
  964000    307.95117   -1510.9841    475.58853    354.37162    180.35685    37426.586 
  964100    291.31593   -1479.6983    502.02137    337.01628   -115.72774    37426.586 
  964200    300.81433   -1494.5133     475.9248    338.97049   -548.92511    37426.586 
  964300    298.12672   -1443.5201    490.54392    392.45375   -580.78084    37426.586 
  964400    307.35692   -1464.2826    488.25649    411.05924    43.514324    37426.586 
  964500    295.35797   -1485.7183    506.00395    353.22037    346.03486    37426.586 
  964600     300.0947   -1495.2407     485.8601    344.93071   -222.30822    37426.586 
  964700    298.83428   -1509.2971     502.6787    342.00472   -143.67386    37426.586 
  964800    295.27666   -1514.8577    492.55497    310.26503    127.38162    37426.586 
  964900    298.77846   -1467.8709    515.17182    395.67213   -393.35283    37426.586 
  965000    301.37694   -1474.8378    465.53603    350.79624   -400.83124    37426.586 
  965100    300.92082   -1481.8197    478.06771     354.2876   -148.65681    37426.586 
  965200    299.28188   -1479.5473    523.80458    394.90038   -376.43988    37426.586 
  965300    306.84031   -1457.4723    470.60934    397.89091     76.98263    37426.586 
  965400    306.23113   -1470.7668    523.91256    435.15041    422.55142    37426.586 
  965500    300.05363   -1507.5288    481.54574    328.14285    202.53171    37426.586 
  965600    298.16745   -1463.4354    480.64451    362.82282    35.538645    37426.586 
  965700    297.02785   -1465.3546    503.50535    378.62159   -174.51903    37426.586 
  965800    298.57341   -1472.5082    506.32315    381.26077    -90.19319    37426.586 
  965900    299.97619   -1477.0714    497.59298     374.2981    659.16025    37426.586 
  966000     303.7851   -1478.8947     486.5636    378.63481    267.59094    37426.586 
  966100    309.96365   -1441.1831    497.30365    454.96988    819.19714    37426.586 
  966200    293.33795   -1472.6977    501.90565    353.02638    149.51062    37426.586 
  966300     291.3016   -1446.2551    512.63262     381.0061    693.85135    37426.586 
  966400    298.88426   -1425.4086    491.09091    414.53095     295.5382    37426.586 
  966500    306.38476   -1426.0184    504.65337    461.33298    187.13865    37426.586 
  966600    297.31795   -1435.7394    491.60168    397.64228    403.57944    37426.586 
  966700     302.9068   -1456.4451    493.33222    403.88931    523.73981    37426.586 
  966800    304.77607   -1495.4152     481.4004    361.42328     582.3262    37426.586 
  966900    292.58393   -1484.6024    480.75245    316.56561    445.35348    37426.586 
  967000    308.22499   -1504.7127    479.78083    366.07106    253.02167    37426.586 
  967100    290.69566   -1523.7814    474.56176    262.67429   -284.80462    37426.586 
  967200    301.78184   -1508.2132     474.2493    327.96139   -528.23829    37426.586 
  967300    304.54668   -1457.4439     494.9203    411.87921   -340.78509    37426.586 
  967400    309.02696   -1436.9015    476.62781    434.34839    164.14192    37426.586 
  967500    294.25147   -1494.3605     495.1851    328.76572   -493.76995    37426.586 
  967600    295.65309   -1480.2695    511.78152    365.77861   -419.01917    37426.586 
  967700    303.32479    -1448.035    497.70325    418.55682    45.212694    37426.586 
  967800    311.68355    -1495.137    488.50882    399.98294   -197.19291    37426.586 
  967900    298.36761   -1456.6542    517.30724    407.17005   -258.27016    37426.586 
  968000    300.33056     -1475.88    479.42725    358.92303   -46.561258    37426.586 
  968100     295.6816   -1443.8422    479.62976    370.18279   -31.766478    37426.586 
  968200    291.18304   -1454.3637    493.37014     353.0999   -396.12279    37426.586 
  968300    305.32953   -1465.3797    513.23097    425.78712    123.70233    37426.586 
  968400    299.46399   -1451.4106     472.4223    372.47662   -181.10803    37426.586 
  968500    294.01752   -1466.8721    514.99227    375.00541   -522.70321    37426.586 
  968600    295.91041   -1446.5538    486.68042    375.55444    50.466844    37426.586 
  968700    302.42194   -1440.7477    511.73405    435.80033   -127.05228    37426.586 
  968800    304.88995    -1467.694    501.08567    409.34366   -168.52439    37426.586 
  968900    292.56289   -1488.9629    470.77989    302.13768   -420.90953    37426.586 
  969000    304.70067    -1469.479    525.39798    431.01683    12.548616    37426.586 
  969100    295.82207   -1494.5955    491.75783    332.19144    132.50019    37426.586 
  969200     301.2616   -1490.4318    504.89338    374.03901    362.60826    37426.586 
  969300    302.86563   -1459.8886    514.41396    421.34172     975.2367    37426.586 
  969400    306.57516   -1494.1733    518.11489    407.49892    143.78331    37426.586 
  969500    296.21018   -1490.7473    491.15386    337.18725    341.40001    37426.586 
  969600    294.36436   -1485.2516    513.07404    356.27303    568.22444    37426.586 
  969700     299.0249   -1473.5947    499.26218    375.15077   -244.90212    37426.586 
  969800    302.54027   -1497.4604    494.31077    362.19843    147.09477    37426.586 
  969900    297.78879   -1546.7847    507.01998    304.14015    126.09121    37426.586 
  970000    296.37706   -1464.9395    514.42005    387.01434    496.51353    37426.586 
  970100    303.40624     -1477.67    467.35104    358.93713    770.81245    37426.586 
  970200    306.69181   -1460.0173    445.32202    369.38843    211.99782    37426.586 
  970300    304.52429   -1471.3366    500.91613    403.88132   -552.08933    37426.586 
  970400    301.61572   -1437.4874    504.97275    428.66097   -140.74259    37426.586 
  970500    299.97391   -1449.7319    479.43353    383.46777   -239.68861    37426.586 
  970600    298.11066   -1435.3841    489.94707    399.92046   -19.280104    37426.586 
  970700    298.23059   -1468.3207    484.91663    362.49462     22.46605    37426.586 
  970800    310.79286   -1487.4434    497.07156    412.21967    27.934794    37426.586 
  970900    292.82945   -1476.3638    486.55026    331.71004    388.17104    37426.586 
  971000    293.04407   -1490.1331    497.59244    329.95158    535.49713    37426.586 
  971100    306.59927   -1424.1988    500.12571      459.593     761.6362    37426.586 
  971200    304.21962   -1494.2024    511.24311    389.96756    554.57802    37426.586 
  971300    302.06296   -1486.2759    490.78244    367.70053    572.01981    37426.586 
  971400    295.98093    -1478.502    502.31701    359.56109    204.71261    37426.586 
  971500    303.01225   -1439.7279    494.28297    422.03311   -377.79215    37426.586 
  971600    293.23473   -1411.6494    518.14366    429.84694   -257.51453    37426.586 
  971700     300.0363   -1456.0043    514.49497    412.53843   -393.52553    37426.586 
  971800    294.85642   -1476.5638    495.01853    349.12596   -756.68873    37426.586 
  971900    304.35131   -1480.3458    486.06171    379.23701   -930.63554    37426.586 
  972000     309.4407   -1470.8982    495.69613     421.2872   -534.84123    37426.586 
  972100     298.7936   -1507.9046    465.79483    306.32973   -374.44551    37426.586 
  972200    304.31526   -1502.1878    510.22067    381.39139    180.05822    37426.586 
  972300    300.95489   -1466.2721    497.84601    389.76715    110.75291    37426.586 
  972400    293.95232   -1455.5481    486.90958    357.95258    644.61527    37426.586 
  972500    310.31073   -1492.5822    520.91056     428.7441    627.41278    37426.586 
  972600    303.76736   -1498.1955    504.47119    377.16147    935.95944    37426.586 
  972700    307.20047     -1495.83    512.43089    402.98015    1647.0853    37426.586 
  972800    295.04833   -1506.6238    505.01435    329.92783    354.46377    37426.586 
  972900    299.25249   -1471.5412     481.6334    360.60266    192.99432    37426.586 
  973000    299.86975   -1461.5664    500.52937    392.25912    117.34807    37426.586 
  973100    306.95339   -1460.2919    530.46666    455.43894    145.22229    37426.586 
  973200    285.97981    -1456.093    459.73046    294.24906    60.549886    37426.586 
  973300    296.83784   -1458.0997    511.94094    393.45455     -262.971    37426.586 
  973400    296.57678    -1483.885    497.58203    352.13217   -363.09053    37426.586 
  973500    299.43297   -1489.4194    489.96956    351.87511    5.4449247    37426.586 
  973600    306.50752   -1472.2192    471.85748    382.89032    448.06356    37426.586 
  973700    293.71123   -1491.4814    482.63601    316.65768     97.79252    37426.586 
  973800    309.19915   -1515.6587    488.30424    368.04474   -66.872293    37426.586 
  973900    293.18561   -1489.3588    488.76283    322.53496    150.16234    37426.586 
  974000    295.96757   -1476.4476    488.97369    348.21192    62.839173    37426.586 
  974100    303.83733   -1501.3678    465.90132    335.73516    32.453919    37426.586 
  974200    297.40108   -1510.3289    505.24259    337.06883    808.52455    37426.586 
  974300    295.87164   -1529.8182      488.909    294.34367    317.80268    37426.586 
  974400     300.4192   -1511.4241    486.41647    330.76808    281.12246    37426.586 
  974500    295.85952   -1483.1692    502.24945     354.2784    168.38421    37426.586 
  974600    301.81779   -1467.2555     517.4635    412.29546    339.00986    37426.586 
  974700    295.72741    -1478.336     480.7221    336.98807   -12.193798    37426.586 
  974800     307.6397   -1476.7137    463.10058    374.74833   -506.10066    37426.586 
  974900    294.27876   -1490.8079    478.46946    315.72585   -765.18848    37426.586 
  975000    295.88702   -1467.3836    475.72345    343.66206   -165.88961    37426.586 
  975100    297.32643   -1437.3508    488.43712    392.90453    47.476556    37426.586 
  975200    295.76651   -1455.4787    502.39671     381.6964    466.84107    37426.586 
  975300    302.69942   -1421.8958    500.41209     444.5826   -115.34874    37426.586 
  975400     295.5548   -1456.1434     495.6506    373.33018   -532.98571    37426.586 
  975500    304.79675   -1453.2174    491.26023    413.57421   -634.08207    37426.586 
  975600    307.74218   -1436.3445    505.56807    458.04752   -1015.7415    37426.586 
  975700    308.53225   -1467.2279    486.61479    411.77642   -1251.6484    37426.586 
  975800    307.08549   -1483.3036    479.59717     382.1539   -653.21568    37426.586 
  975900    300.43335   -1465.2117    496.21147    386.83942   -840.02485    37426.586 
  976000    302.77711    -1469.908    475.14104    371.64989   -463.86757    37426.586 
  976100    307.87388   -1480.6238    520.70943    429.50394    85.446703    37426.586 
  976200    293.15227   -1441.9105    490.86418    371.93421   -256.09856    37426.586 
  976300    297.70708   -1448.5482    508.06191     403.0498    161.05265    37426.586 
  976400    291.94233   -1493.4866    479.86338    303.89688   -49.847267    37426.586 
  976500    304.91837   -1497.0277    509.72422    388.77674    162.13287    37426.586 
  976600    292.80776   -1485.5731    460.92675    296.77939    15.814622    37426.586 
  976700    310.13297   -1460.4974    498.77563    437.89166   -69.534955    37426.586 
  976800    301.41877   -1484.4447    520.61587    396.45792    323.12032    37426.586 
  976900    299.87691   -1487.6188    467.92231     333.6319    523.62372    37426.586 
  977000     297.6163   -1492.8943    475.37787    325.61003    -31.37151    37426.586 
  977100    297.29257   -1490.3176    486.34315    337.69103   -302.52552    37426.586 
  977200    304.42601   -1497.0104    486.60089    363.44872    378.26407    37426.586 
  977300    303.74702   -1498.6223    481.33332    353.50508   -80.138855    37426.586 
  977400    297.84338   -1462.4245    500.49874    382.22541   -662.31522    37426.586 
  977500    295.98156   -1512.0412    461.92414    285.63187   -531.38199    37426.586 
  977600    292.42193   -1538.6958    492.01057    272.99929    36.394659    37426.586 
  977700    295.80178    -1491.984    497.69541    340.64906    27.579204    37426.586 
  977800     297.7922    -1459.419    486.09735    370.59857    96.303631    37426.586 
  977900    294.43228   -1481.9516     496.5237    343.32923   -1.2834036    37426.586 
  978000    298.52673   -1477.4198    493.26257    363.07794     421.2367    37426.586 
  978100    300.43343   -1489.0624    505.42141    372.19901    240.68215    37426.586 
  978200    295.24164   -1493.1384    502.29559    341.56692    643.86043    37426.586 
  978300    295.39243   -1508.4746    505.21801    329.83361    189.52172    37426.586 
  978400    303.12966   -1499.7084    465.38569    333.68518    598.67861    37426.586 
  978500    300.83529   -1508.0521    479.75802    329.35947   -153.22588    37426.586 
  978600    301.69366   -1521.7436    484.69458    324.47825   -118.14079    37426.586 
  978700    306.19454   -1491.2557    501.71976    392.30356     -483.212    37426.586 
  978800    299.85535   -1518.1811    480.63174    315.68184   -43.689797    37426.586 
  978900     289.4075   -1506.0944    491.60758    291.59374   -495.70192    37426.586 
  979000    298.69596   -1562.0669    480.06084    265.99284   -170.09847    37426.586 
  979100    304.12823   -1486.3279    482.78614    368.97261   -625.28364    37426.586 
  979200    291.81902   -1524.9928    485.83106    277.80183   -790.47189    37426.586 
  979300    300.29133   -1530.4201    470.89211     295.6707   -687.52899    37426.586 
  979400    300.30372   -1510.1394    461.58674    306.70194   -566.02384    37426.586 
  979500    296.00077   -1546.6654    474.25296    263.42322   -3.9256093    37426.586 
  979600     301.3524   -1516.3905    483.69246    327.28915   -263.63243    37426.586 
  979700    302.07372   -1491.0043    482.42286     354.6611   -432.27921    37426.586 
  979800     306.0553   -1485.2878     481.1259    377.04927   -165.26932    37426.586 
  979900    312.72377   -1519.1531    499.04044    391.19297    55.065357    37426.586 
  980000    306.01583   -1554.4299    495.42674    322.02985   -498.62636    37426.586 
  980100    301.71171   -1562.7266    481.20887     280.0911   -721.59565    37426.586 
  980200    306.34625   -1513.1338    496.97268    366.36313   -198.69013    37426.586 
  980300    299.74663   -1520.4304    458.66152    290.97154    -691.8973    37426.586 
  980400     304.1676   -1490.7943    495.47993    377.37773   -968.22349    37426.586 
  980500    295.83281    -1489.248    463.14901    308.97866   -391.12816    37426.586 
  980600    299.69886   -1483.7543    497.37371    366.14433   -350.02418    37426.586 
  980700    300.96972    -1424.837    485.83508     419.2583   -396.75117    37426.586 
  980800     292.9144    -1445.662    497.58036    373.82531   -24.529913    37426.586 
  980900    314.82863   -1449.0498     506.6648    478.41976    516.22774    37426.586 
  981000    291.83596   -1465.2458    505.82846    357.62275    230.22996    37426.586 
  981100    308.16556   -1485.8064    504.64571    409.57402    468.25661    37426.586 
  981200    294.59481    -1514.852    494.06376     308.7024    623.01529    37426.586 
  981300    296.20664   -1501.7975      500.277    335.24425    97.847674    37426.586 
  981400    303.36972   -1467.1702    490.50198    392.42306    349.86334    37426.586 
  981500    298.04212   -1525.3946    507.57392    327.22741    112.70878    37426.586 
  981600    309.16151   -1511.1654    497.82346    381.88738    474.57868    37426.586 
  981700    308.98053    -1525.324    501.08222    370.17084    121.05024    37426.586 
  981800    300.08736   -1528.3304    495.60067    321.54847    225.67538    37426.586 
  981900    308.47338    -1532.531    489.02777    348.62061   -298.83326    37426.586 
  982000    300.23393   -1516.0318    505.30238    344.21027    11.555241    37426.586 
  982100    287.51459   -1515.3513    492.06119    274.24781   -211.52902    37426.586 
  982200     304.8421   -1489.9897    489.58912    375.33545    45.875528    37426.586 
  982300    293.72807   -1517.7903    446.39364    254.18236    632.85367    37426.586 
  982400    297.62677   -1497.8254     475.5574    320.90563   -170.36003    37426.586 
  982500    314.95431   -1502.1046    490.96233    410.22966    430.35746    37426.586 
  982600    296.63766   -1518.4136    486.21198     306.5083     82.50966    37426.586 
  982700    297.19186   -1482.8847    490.81062    349.13684   -24.140926    37426.586 
  982800    307.68144   -1463.9988    491.10508    415.65614    216.47891    37426.586 
  982900    307.73928   -1485.3647    492.74321    396.18937    203.64871    37426.586 
  983000    307.38505   -1511.3861    463.36794    339.19412   -392.98999    37426.586 
  983100    300.62647   -1512.0971    485.81273     330.4268   -427.97575    37426.586 
  983200    301.33409   -1496.7179    499.22299    362.40964   -11.132583    37426.586 
  983300    307.92203   -1502.1045    486.62223    374.15339   -182.55239    37426.586 
  983400    296.64771    -1483.009    487.25097    342.99716   -32.098987    37426.586 
  983500    288.90231   -1481.1291    509.87179    332.54339    64.548734    37426.586 
  983600    296.15605   -1463.1883    494.22476    367.57289    344.30223    37426.586 
  983700    310.52712   -1464.4737    495.96629    432.88488    240.67614    37426.586 
  983800     305.7276   -1511.2203    513.88186    382.39379   -166.38472    37426.586 
  983900    298.65393   -1467.1769    491.93653    372.56877    480.68735    37426.586 
  984000    298.79027   -1453.3214    499.47833    394.58138    503.20967    37426.586 
  984100    300.65399   -1495.4268    491.82914    353.23768    722.72747    37426.586 
  984200    301.36274   -1539.0139    494.76474    315.78477    786.31604    37426.586 
  984300    307.39333   -1542.2889    503.86129    348.82203    181.15675    37426.586 
  984400    296.67742   -1556.6724    480.35109    262.56801    408.88628    37426.586 
  984500    287.24328    -1564.624    486.78153    218.47108    905.11841    37426.586 
  984600    298.30298   -1531.2588    466.87278     281.8394    648.87386    37426.586 
  984700    296.75598   -1562.5563    497.26023    273.94771     120.7976    37426.586 
  984800    301.09531   -1560.7979    484.42069    282.44983    45.737991    37426.586 
  984900    295.27678   -1554.1253    465.55958    244.00256    264.73877    37426.586 
  985000    299.33611   -1518.0065    488.85982    321.74114    259.01016    37426.586 
  985100    306.87517   -1508.0929    468.45463     345.2729    183.91774    37426.586 
  985200    296.32301   -1499.4284    476.87761    314.73908   -94.897516    37426.586 
  985300    292.45354   -1518.7657    493.20909    294.27055    360.59902    37426.586 
  985400    294.46994   -1501.0775    507.67368    335.52324    1213.7852    37426.586 
  985500    296.31211   -1489.6158    492.58606     340.2109    545.09275    37426.586 
  985600    304.30702   -1474.1805    498.55039    397.69117    463.78221    37426.586 
  985700    305.85274   -1478.1808    454.22859    356.34482    279.74877    37426.586 
  985800    294.29589   -1449.5156    501.89659    380.52253   -297.50313    37426.586 
  985900    293.59944   -1450.0388    496.33163    371.29135    -623.0297    37426.586 
  986000     296.5269   -1491.2878    480.42774    327.34997   -357.65038    37426.586 
  986100    294.19886   -1463.6375    517.52737     381.5936   -226.93772    37426.586 
  986200    289.49346   -1481.1464     483.8275     309.1496    194.32889    37426.586 
  986300    299.87548   -1455.3439    492.30386    390.28194   -149.68908    37426.586 
  986400    300.73642   -1468.6162    502.33806    390.92919    18.340393    37426.586 
  986500     306.1903   -1419.5024    516.20299    478.52107   -75.515845    37426.586 
  986600    290.94211   -1477.5624    501.21626    336.66003   -609.60506    37426.586 
  986700      302.688   -1478.8759     496.7062    383.84499   -54.191424    37426.586 
  986800    306.93668   -1466.6281    514.63791     433.1986    457.78337    37426.586 
  986900    293.60434   -1447.7449    495.59485    372.87062    34.746932    37426.586 
  987000    298.17752   -1449.9085    509.73747    405.48816   -545.65689    37426.586 
  987100     295.3657   -1480.7183    508.34494    360.59623   -137.49426    37426.586 
  987200    298.54595   -1446.5942    504.72793    405.45556    63.852701    37426.586 
  987300     309.5429   -1478.6269    486.40423    404.72787   -43.407826    37426.586 
  987400    302.03999   -1453.1205    511.04171    421.01152   -468.64782    37426.586 
  987500    300.37081   -1453.6122    508.40982    410.35495   -27.756327    37426.586 
  987600    298.46006    -1494.041    486.39136    339.28462   -165.64896    37426.586 
  987700    304.49487   -1482.4844    500.25969    391.94427    347.26785    37426.586 
  987800    299.91919   -1480.1034    509.48152    382.89733    372.68877    37426.586 
  987900    295.05702   -1466.3659     522.9237    388.13431   -191.69459    37426.586 
  988000    297.67756    -1458.752     459.6903     344.3412   -238.99035    37426.586 
  988100    306.53656   -1491.8425     506.8997    398.44026    -348.5079    37426.586 
  988200    302.25873   -1477.3662    488.60844    375.31974    77.834111    37426.586 
  988300     297.7812   -1508.3091    480.04556    315.60709   -342.48766    37426.586 
  988400    290.60165   -1497.0491    515.31466    329.73526    192.86394    37426.586 
  988500    303.33702   -1447.5232    525.02414    446.44462    122.75529    37426.586 
  988600    294.90795   -1469.1204    506.36026    368.14368   -6.9880787    37426.586 
  988700    302.05605   -1479.1603    512.96896    396.97145   -412.23187    37426.586 
  988800    303.75875   -1462.9824    497.83352    405.69807    -584.9004    37426.586 
  988900     299.3752   -1421.8553    481.97192     411.1809   -462.27587    37426.586 
  989000    298.90628   -1426.5454    490.24168     412.6443    -283.2535    37426.586 
  989100    306.89173   -1454.9755    504.86283    434.87327    37.717038    37426.586 
  989200    296.51386   -1444.7414    503.18068    396.59048    46.201884    37426.586 
  989300    294.07161   -1459.0961    499.61485    367.64817   -225.84378    37426.586 
  989400    296.54082   -1463.8654    492.11236    366.51983   -492.29768    37426.586 
  989500    288.96748   -1453.1762    520.97583    371.89444    307.39525    37426.586 
  989600    291.98287   -1454.9075     529.2156    392.01114    437.84506    37426.586 
  989700    298.61836   -1465.2541    505.96915    388.36374    950.23478    37426.586 
  989800     304.4787   -1480.2809      488.664    382.47915    1053.0598    37426.586 
  989900    297.81292   -1458.9445    503.49874    388.56797     919.4136    37426.586 
  990000    306.29223   -1466.1059    499.72331     415.8978    62.136259    37426.586 
  990100    302.64292   -1480.4085    526.80556    412.20833    37.404411    37426.586 
  990200     297.1511    -1483.529    475.73919    333.23719   -406.38423    37426.586 
  990300    300.03056   -1476.3472    507.62785    385.30244   -532.47474    37426.586 
  990400    289.97242   -1504.8544    506.11859    309.89414   -97.767198    37426.586 
  990500    300.52067   -1481.3703    488.60032    363.46374    -247.0576    37426.586 
  990600    297.36549   -1489.9271    499.59805    351.66545    -219.9624    37426.586 
  990700    304.31484   -1488.2381    516.05803    401.17649   -854.39219    37426.586 
  990800    308.35723   -1516.5097    495.80831    370.89825    -808.6996    37426.586 
  990900    290.35886   -1504.6024    502.04769    307.81928    -290.9402    37426.586 
  991000     287.7142   -1494.1406    504.97596     309.2741   -877.75025    37426.586 
  991100    296.24771   -1490.0599    491.55951    338.44965   -1461.3553    37426.586 
  991200      290.636   -1521.1286    491.49617    281.99223   -1855.3025    37426.586 
  991300    288.85102   -1505.1751    473.60781    272.00185   -1556.5544    37426.586 
  991400    310.96519   -1508.8304    475.98336    370.52214   -1320.0016    37426.586 
  991500    297.60045   -1554.3305    514.57654    303.30091   -525.83116    37426.586 
  991600    298.88588   -1577.9658    494.57587    265.46601   -474.79995    37426.586 
  991700    297.16723   -1566.8608     490.2928    264.53181   -153.55653    37426.586 
  991800    302.66998   -1561.7901     462.3214    266.46471    301.30857    37426.586 
  991900    303.35092     -1574.47    501.79941    296.33591   -459.35167    37426.586 
  992000    307.00012   -1552.0159     498.6531     332.1123    -244.3229    37426.586 
  992100    298.99913   -1520.3944     487.8247    316.79736    -433.8389    37426.586 
  992200    301.88254   -1515.0485    486.82702    334.15826   -723.29455    37426.586 
  992300    298.32942    -1530.864       507.78    323.26064   -516.17761    37426.586 
  992400    289.67623   -1525.2654    509.67409    291.70198   -361.44542    37426.586 
  992500    304.88748   -1515.4937    483.80405    344.25117    20.331612    37426.586 
  992600      289.299   -1549.8997    489.03356     244.7248   -451.72337    37426.586 
  992700    294.22474   -1506.2284    499.05274    320.64489     333.8298    37426.586 
  992800    296.33222   -1553.8112    500.38295    283.90315    470.00895    37426.586 
  992900     309.7363   -1517.4539    483.31678    363.68617    157.03255    37426.586 
  993000    302.03765   -1527.9199    501.67707     336.8369   -2.1042047    37426.586 
  993100    288.40115   -1556.5241    485.46169    230.47647   -580.85694    37426.586 
  993200    307.70817   -1516.5893    487.90947    359.99064    172.30121    37426.586 
  993300    296.91846   -1575.3636    479.91984    244.53332   -93.571686    37426.586 
  993400    300.55263   -1574.6933    472.11873    253.80334   -358.45334    37426.586 
  993500    304.01015   -1550.9979    469.94909    290.93273    231.28108    37426.586 
  993600    294.15951   -1569.2675    485.00281    243.26139    523.37179    37426.586 
  993700    296.36897   -1572.0991     479.1361    244.53425    377.12983    37426.586 
  993800    304.90388   -1561.8831    517.24138    331.37315    104.27829    37426.586 
  993900    291.84593   -1539.6406    499.07768    276.52215   -444.24495    37426.586 
  994000    297.57709   -1552.7869    496.87255    287.03516   -498.78034    37426.586 
  994100    297.45592   -1551.1818    477.21355    268.43438   -747.72605    37426.586 
  994200    311.67738   -1561.4758     503.4338    348.54131   -246.90232    37426.586 
  994300    297.47601   -1556.1038    487.80066     274.1902   -415.61346    37426.586 
  994400    301.26761   -1549.4627    491.72816    301.87001   -610.00492    37426.586 
  994500    299.47167   -1525.4861     496.5568    322.57032   -323.70832    37426.586 
  994600    309.81134   -1493.4778    498.76166    403.44583   -160.90888    37426.586 
  994700     311.6361   -1495.9895    515.75163    426.15914     181.0749    37426.586 
  994800     288.7714   -1486.8412    522.46314    338.83177   -74.762446    37426.586 
  994900    296.85826   -1493.4925    524.63002    370.84298    417.84136    37426.586 
  995000    297.37066   -1543.9293    493.46933    291.55787    56.992747    37426.586 
  995100    291.91843   -1484.6827    501.39255    334.12206   -135.86855    37426.586 
  995200    300.56825   -1485.5578    499.06935    369.95996    -149.2669    37426.586 
  995300    309.24342   -1539.9448    506.42124    362.07542    121.90678    37426.586 
  995400    297.31355   -1517.8759     495.9189     319.8031   -84.572583    37426.586 
  995500    291.74739   -1521.8364    488.61553    283.41946    375.55519    37426.586 
  995600    298.23209   -1503.4332    502.19285    344.66508    3.1501746    37426.586 
  995700     302.1333    -1494.752    496.67559    365.43498   -292.63794    37426.586 
  995800    304.48496   -1522.7024    520.69244    372.11438   -696.82692    37426.586 
  995900    293.22837   -1511.8478    521.56613    333.04221   -278.80574    37426.586 
  996000    299.96954   -1481.7435    503.38576    375.38868    70.985675    37426.586 
  996100     298.2791   -1512.3115    487.26434    321.07048    191.84804    37426.586 
  996200    302.86695   -1487.0209    534.59479    414.39624    102.47185    37426.586 
  996300    304.04049   -1508.6813    481.16247    344.59963   -170.71911    37426.586 
  996400    257.81387   -1509.3959    519.85799    173.96224    13.539376    37426.586 
  996500    297.39172   -1543.6325    521.72454    320.20491    254.19732    37426.586 
  996600    291.96875   -1527.3378    517.58369    307.88525    48.464237    37426.586 
  996700    292.57839   -1535.0868     523.7941    309.09795    437.12853    37426.586 
  996800    312.78261   -1550.2143     500.5913    361.94817    888.64289    37426.586 
  996900    301.23807   -1540.1574    498.80744    318.12136    613.84897    37426.586 
  997000    304.96881   -1547.7245    498.18728    326.77069    293.29596    37426.586 
  997100     296.5672    -1552.152    499.49226    285.73212    63.601528    37426.586 
  997200    299.03904   -1532.6746    499.16209    316.03467    345.18482    37426.586 
  997300    293.51517   -1555.9929     469.5227    238.14801     432.7412    37426.586 
  997400     300.2282   -1546.8508    516.37092    324.43392    495.51351    37426.586 
  997500    290.18055    -1512.663    494.90562    291.81193    212.68584    37426.586 
  997600    294.77712   -1545.6547    509.46991    294.12858    1071.6718    37426.586 
  997700    308.17731   -1554.9896    493.33461    329.13265    1146.7446    37426.586 
  997800    296.86488   -1541.1975     519.1794    317.71717    675.79068    37426.586 
  997900    289.11063   -1535.5867    512.20334    281.35739    1195.2621    37426.586 
  998000    301.03114   -1505.2154    513.95591    367.27793    264.57702    37426.586 
  998100    301.83633   -1539.0196    527.27031    350.42191    -159.8107    37426.586 
  998200    296.55195   -1571.2447    474.26711    241.34547   -96.717271    37426.586 
  998300    290.50153   -1544.0774     497.0944    264.03486   -335.41599    37426.586 
  998400    302.68695   -1539.1301    511.56209      338.442     240.0992    37426.586 
  998500     298.7403    -1540.481    513.14753    320.86546   -144.16204    37426.586 
  998600     302.2373   -1520.0286    498.93394    342.88603    9.3051554    37426.586 
  998700    298.45453    -1543.046    479.45092    283.31425   -607.73501    37426.586 
  998800     297.8617   -1537.4145    497.52028    304.33965   -602.71631    37426.586 
  998900    309.20828   -1519.4089    488.13982    364.17126   -82.511114    37426.586 
  999000    294.54511   -1471.6412    494.41989    352.04499   -446.24868    37426.586 
  999100    319.40104   -1534.6491    504.47133    411.26199    -543.3939    37426.586 
  999200    294.11535   -1528.9656    506.19771    304.55898   -14.233539    37426.586 
  999300     297.6965   -1497.8604    505.37916    351.00715    150.82119    37426.586 
  999400    294.17977   -1520.6245    493.22992    300.22291   -215.87136    37426.586 
  999500    298.42501   -1511.3324    538.53493    373.97861    155.58544    37426.586 
  999600    297.33495   -1563.0299    484.20425    263.03111    72.294416    37426.586 
  999700    297.65184   -1572.4704    489.40965    260.22606   -287.07952    37426.586 
  999800    298.98981   -1499.7638    509.32517     358.8864   -403.94382    37426.586 
  999900    306.64533   -1529.2408    485.54985    340.18299     74.31986    37426.586 
 1000000    308.40599   -1528.7023    529.55289    392.67026    83.222645    37426.586 
 1000100    294.53629   -1523.2418    492.81097    298.79566   -374.45408    37426.586 
 1000200    302.59501   -1544.6088    495.77469     316.7609    -269.0453    37426.586 
 1000300    294.44286   -1529.3696    492.59831    292.03353    229.28459    37426.586 
 1000400    293.52483   -1529.1639     488.6842    284.18211   -293.02468    37426.586 
 1000500    296.89306   -1516.0065    512.33322    336.18914   -232.36543    37426.586 
 1000600    290.90211   -1485.6606    519.12101    346.28607   -523.35236    37426.586 
 1000700     296.0658   -1545.6402    496.59237    287.08123   0.47615051    37426.586 
 1000800    291.32083   -1480.4653    530.43745    364.68744    220.66306    37426.586 
 1000900    297.12978   -1502.8264    468.79283    306.89723   -432.28313    37426.586 
 1001000    303.74028   -1543.1627    494.91413    322.51508    28.802308    37426.586 
 1001100    309.21501   -1565.2243    502.74729    332.99378    87.519563    37426.586 
 1001200    306.41452   -1564.1157    475.31264     294.0292   -60.503531    37426.586 
 1001300     295.6651   -1478.9969    525.06516    380.38898    90.692424    37426.586 
 1001400    309.49218   -1491.8459    495.23765    400.11336   -680.18781    37426.586 
 1001500    295.20401   -1528.1041    464.70546    268.84128    193.05166    37426.586 
 1001600    300.13772   -1564.4393    511.51101    301.57715   -535.04168    37426.586 
 1001700    304.11849   -1531.9378    487.60897    328.14166   -262.22428    37426.586 
 1001800    297.38596   -1532.0412    490.58666    300.63235   -682.40193    37426.586 
 1001900    298.52518   -1517.0716    498.97886    329.13535   -412.97391    37426.586 
 1002000    296.38286   -1497.5007    491.65751    331.71675    102.12238    37426.586 
 1002100    296.53646   -1496.3772    511.18264     353.0586    245.10505    37426.586 
 1002200    286.42511   -1493.0358    518.19113    317.77647    217.04447    37426.586 
 1002300    297.43543   -1495.9813    484.04993    330.37884   -82.837984    37426.586 
 1002400    307.13595   -1526.8069    491.07309     350.3543   -375.20944    37426.586 
 1002500    290.04132   -1484.8447     524.0675    348.16373   -620.20093    37426.586 
 1002600    297.08197   -1509.8418    495.21712    326.09029     -968.486    37426.586 
 1002700    309.47078   -1484.3658    491.02122    403.28042   -204.67283    37426.586 
 1002800    305.70844   -1486.7316    522.11252    415.02676    298.40604    37426.586 
 1002900    298.86724   -1501.4435    514.46257    361.79089    109.99352    37426.586 
 1003000    298.64586   -1471.6433    505.60705    381.73654    354.46213    37426.586 
 1003100    303.02558   -1476.9561    492.12592    382.70799    379.37913    37426.586 
 1003200    302.09231   -1512.2605    499.21741    350.28329    344.91364    37426.586 
 1003300    289.81342   -1485.0311    491.72929     314.6106    173.88945    37426.586 
 1003400      294.829   -1476.9878    505.56508    359.12476    108.90079    37426.586 
 1003500    304.99518     -1474.03    519.27139    421.66832   -600.06601    37426.586 
 1003600    305.97223   -1477.0061    509.40902    413.23915   -971.81246    37426.586 
 1003700    298.15941   -1450.8801    503.86915     398.5665   -999.68287    37426.586 
 1003800    298.40017   -1450.8988    484.55238    380.31759   -692.15709    37426.586 
 1003900    293.28623   -1444.9469    501.38517    380.02331   -274.79038    37426.586 
 1004000     306.6444    -1508.089    508.03728      383.818   -47.122632    37426.586 
 1004100    301.05724    -1505.619    502.87046    355.90671    113.84243    37426.586 
 1004200    306.66128   -1517.7478    493.66376    359.86183    260.85027    37426.586 
 1004300    304.69452   -1515.1253    483.81278    343.75754    525.22357    37426.586 
 1004400    296.58666   -1507.3055    470.37063    301.54489   -232.91065    37426.586 
 1004500    306.48276   -1502.4893    520.08259    400.73362   -46.361522    37426.586 
 1004600    296.55514   -1539.1371    470.21332    269.41364   -246.30632    37426.586 
 1004700    303.99514   -1534.9037    513.73358    350.74363    386.55451    37426.586 
 1004800    299.27028   -1568.6153    499.62425    281.59969    285.87271    37426.586 
 1004900    304.85167   -1498.9907    505.97324    382.76177    651.18184    37426.586 
 1005000    301.22681   -1532.6185    471.28247    298.08445    456.48309    37426.586 
 1005100    305.82753   -1502.6397    516.46742    394.01097     531.6513    37426.586 
 1005200    285.26286   -1500.8267    472.50539    259.05469    145.35511    37426.586 
 1005300     303.4581   -1510.5479    522.40134    381.34363    323.38331    37426.586 
 1005400    302.63225   -1496.7312    482.84704    351.87894    453.87486    37426.586 
 1005500    302.63403   -1519.5778    482.42985    328.62314    486.07504    37426.586 
 1005600    300.84397   -1513.4566    515.42755    359.66364   -159.87694    37426.586 
 1005653    299.67575   -1506.2741    510.91177    357.05822   -352.67622    37426.586 
Loop time of 599.324 on 32 procs for 1000000 steps with 1515 atoms

Performance: 144.162 ns/day, 0.166 hours/ns, 1668.547 timesteps/s
100.0% CPU use with 32 MPI tasks x no OpenMP threads

MPI task timing breakdown:
Section |  min time  |  avg time  |  max time  |%varavg| %total
---------------------------------------------------------------
Pair    | 255.07     | 275.3      | 313.34     |  82.6 | 45.94
Bond    | 1.4492     | 1.5741     | 1.86       |   6.6 |  0.26
Neigh   | 38.81      | 38.895     | 38.97      |   1.0 |  6.49
Comm    | 232.86     | 270.93     | 291.35     |  83.4 | 45.21
Output  | 0.38513    | 0.40229    | 0.82045    |  11.8 |  0.07
Modify  | 9.0197     | 9.1326     | 9.313      |   2.5 |  1.52
Other   |            | 3.088      |            |       |  0.52

Nlocal:        47.3438 ave          72 max          16 min
Histogram: 2 1 3 2 3 6 5 4 3 3
Nghost:        2004.44 ave        2146 max        1872 min
Histogram: 3 5 5 3 0 0 4 7 4 1
Neighs:        5386.16 ave        9957 max        1745 min
Histogram: 3 4 2 7 4 5 1 2 1 3

Total # of neighbors = 172357
Ave neighs/atom = 113.76700
Ave special neighs/atom = 2.0303630
Neighbor list builds = 49745
Dangerous builds = 0

# Output the system volume
variable v equal vol
print 'The system volume is $v'
The system volume is 37426.5860013271

# Outputs
variable A equal xhi-xlo
variable B equal yhi-ylo
variable C equal zhi-zlo
variable D equal xy
variable E equal xz
variable F equal yz
print 'Lattice vectors'
Lattice vectors
print '$A 0 0'
33.4497906793875 0 0
print '$D $B 0'
0 33.4497906793875 0
print '$E $F $C'
0 0 33.4497906793875
Total wall time: 0:10:04
