LAMMPS (29 Sep 2021 - Update 1)
# Test LAMMPS input file for single DeFDe

# Initialize simulation

clear

units real
atom_style full
boundary p p p
dielectric 1
special_bonds dreiding

bond_style harmonic
angle_style harmonic
dihedral_style harmonic
improper_style umbrella
pair_style hybrid/overlay hbond/dreiding/lj 4 9.0 11.0 90 lj/cut 8.50000

# Read data file
read_data frag5.dat
Reading data file ...
  triclinic box = (0.0000000 0.0000000 0.0000000) to (15.000000 15.000000 15.000000) with tilt (0.0000000 0.0000000 0.0000000)
  2 by 4 by 4 MPI processor grid
  reading atoms ...
  1506 atoms
  scanning bonds ...
  3 = max bonds/atom
  scanning angles ...
  6 = max angles/atom
  scanning dihedrals ...
  3 = max dihedrals/atom
  reading bonds ...
  1005 bonds
  reading angles ...
  507 angles
  reading dihedrals ...
  3 dihedrals
Finding 1-2 1-3 1-4 neighbors ...
  special bond factors lj:    0        0        1       
  special bond factors coul:  0        0        1       
     4 = max # of 1-2 neighbors
     3 = max # of 1-3 neighbors
     5 = max # of special neighbors
  special bonds CPU = 0.002 seconds
  read_data CPU = 0.016 seconds

# Dreiding potential information

bond_coeff 1 350 1.42
bond_coeff 2 350 1.09
bond_coeff 3 350 0.98

angle_coeff 1 50 104.51
angle_coeff 2 50 109.471

dihedral_coeff 1 0.333333333333333 -1 3

improper_coeff 1 40 0

pair_coeff 1 1 lj/cut 0.0957 3.4046
pair_coeff 1 2 lj/cut 0.0953995283007206 3.64309650983885
pair_coeff 1 3 lj/cut 0.0381397430510485 3.29813538230316
pair_coeff 1 4 lj/cut 0.0030935416596516 3.29710294046152
pair_coeff 2 2 lj/cut 0.0951 3.8983
pair_coeff 2 3 lj/cut 0.0380199947396104 3.52917391183829
pair_coeff 2 4 lj/cut 0.00308382878902186 3.52806914614779
pair_coeff 3 3 lj/cut 0.0152 3.195
pair_coeff 3 4 lj/cut 0.0012328828005938 3.19399984345648
pair_coeff 4 4 lj/cut 1e-04 3.193
pair_coeff 1 1 hbond/dreiding/lj 4 j 9.50 2.75 4 9.0 11.0 90

neighbor 2 bin
neigh_modify every 2 one 10000

# Gemoetric relaxation
fix 1 all box/relax iso 1.0 vmax 0.001
minimize 1.0e-4 1.0e-6 10000 10000
WARNING: Using 'neigh_modify every 1 delay 0 check yes' setting during minimization (../min.cpp:188)
Neighbor list info ...
  update every 1 steps, delay 0 steps, check yes
  max neighbors/atom: 10000, page size: 100000
  master list distance cutoff = 13
  ghost atom cutoff = 13
  binsize = 6.5, bins = 3 3 3
  3 neighbor lists, perpetual/occasional/extra = 3 0 0
  (1) pair hbond/dreiding/lj, perpetual, skip from (3)
      attributes: full, newton on
      pair build: skip
      stencil: none
      bin: none
  (2) pair lj/cut, perpetual, half/full from (3)
      attributes: half, newton on
      pair build: halffull/newton
      stencil: none
      bin: none
  (3) neighbor class addition, perpetual
      attributes: full, newton on
      pair build: full/bin
      stencil: full/bin/3d
      bin: standard
Per MPI rank memory allocation (min/avg/max) = 11.85 | 12.17 | 12.44 Mbytes
Step Temp E_pair E_mol TotEng Press Volume 
       0            0 6.5235492e+17      199.904 6.5235492e+17 5.3014451e+19         3375 
    4913            0   -1008.1753    17.755561    -990.4197    94.869179    36638.639 
Loop time of 4.671 on 32 procs for 4913 steps with 1506 atoms

100.0% CPU use with 32 MPI tasks x no OpenMP threads

Minimization stats:
  Stopping criterion = energy tolerance
  Energy initial, next-to-last, final = 
    6.52354920801318e+17  -989.849356982408  -989.934579819719
  Force two-norm initial, final = 2.0263601e+20 102.69427
  Force max component initial, final = 1.0639117e+20 67.957539
  Final line search alpha, max atom move = 1.2492975e-05 0.00084899183
  Iterations, force evaluations = 4913 4921

MPI task timing breakdown:
Section |  min time  |  avg time  |  max time  |%varavg| %total
---------------------------------------------------------------
Pair    | 1.2889     | 2.5047     | 3.9425     |  40.1 | 53.62
Bond    | 0.0068327  | 0.0099784  | 0.013608   |   1.9 |  0.21
Neigh   | 0.08947    | 0.089908   | 0.090249   |   0.1 |  1.92
Comm    | 0.30582    | 1.7416     | 2.9559     |  48.1 | 37.29
Output  | 0          | 0          | 0          |   0.0 |  0.00
Modify  | 0          | 0          | 0          |   0.0 |  0.00
Other   |            | 0.3248     |            |       |  6.95

Nlocal:        47.0625 ave          68 max          27 min
Histogram: 4 1 3 3 2 11 2 2 2 2
Nghost:        1945.41 ave        1993 max        1905 min
Histogram: 2 3 4 2 7 4 4 3 2 1
Neighs:        4878.94 ave        8240 max        2482 min
Histogram: 4 2 3 4 11 3 0 3 1 1

Total # of neighbors = 156126
Ave neighs/atom = 103.66932
Ave special neighs/atom = 2.0079681
Neighbor list builds = 89
Dangerous builds = 0

# MD simulation
velocity all create 300.0 12345 rot yes dist gaussian
timestep 1.0
fix 2 all nvt temp 300.0 300.0 1

# Compute interaction energy
group WAT molecule <> 2 501
1500 atoms in group WAT
group MOL molecule 1
6 atoms in group MOL

compute w WAT group/group MOL pair yes
fix 3 all ave/time 10 5 100 c_w file outa

# Outputs
thermo 100 # Output thermodynamic data every nth step
#dump mf1 all xyz 10000 mol_*.xyz

# Run
run 1000000
Neighbor list info ...
  update every 2 steps, delay 10 steps, check yes
  max neighbors/atom: 10000, page size: 100000
  master list distance cutoff = 13
  ghost atom cutoff = 13
  binsize = 6.5, bins = 6 6 6
  4 neighbor lists, perpetual/occasional/extra = 3 1 0
  (1) pair hbond/dreiding/lj, perpetual, skip from (4)
      attributes: full, newton on
      pair build: skip
      stencil: none
      bin: none
  (2) pair lj/cut, perpetual, half/full from (4)
      attributes: half, newton on
      pair build: halffull/newton
      stencil: none
      bin: none
  (3) compute group/group, occasional, copy from (2)
      attributes: half, newton on
      pair build: copy
      stencil: none
      bin: none
  (4) neighbor class addition, perpetual
      attributes: full, newton on
      pair build: full/bin
      stencil: full/bin/3d
      bin: standard
Per MPI rank memory allocation (min/avg/max) = 10.69 | 10.71 | 10.91 Mbytes
Step Temp E_pair E_mol TotEng Press Volume 
    4913          300   -1008.1753    17.755561    355.41604     1774.004    36638.639 
    5000    297.50723   -1116.5785    232.03087    450.10525    1019.3068    36638.639 
    5100    295.86567   -1098.8889    164.76869    393.16842    1037.5472    36638.639 
    5200    303.07404   -1113.3353    159.46643    405.75739    590.24033    36638.639 
    5300    301.14816   -1113.2679     171.6109    409.32948    118.07721    36638.639 
    5400     290.7115   -1106.2095    183.26908    381.22597    8.1748795    36638.639 
    5500    299.75288   -1120.3211    166.52134    390.92734    67.292526    36638.639 
    5600    293.94587   -1102.1046    185.30873    401.88029    380.83273    36638.639 
    5700    297.54526   -1110.2605    164.33835    388.90135    765.97411    36638.639 
    5800    312.43974   -1139.7562    176.11725    438.00297    438.10756    36638.639 
    5900     311.3431   -1139.4396    174.12289    431.40556    672.86167    36638.639 
    6000    299.91182    -1105.163    171.29695     411.5741    249.08549    36638.639 
    6100     296.0516     -1042.53    191.03249     476.6252    154.44629    36638.639 
    6200    294.78824   -1111.6838    180.95459    391.72599   -39.556887    36638.639 
    6300    293.99587   -1059.7546    190.37041    449.51629    144.81892    36638.639 
    6400    294.50275    -1071.034    180.76815    430.90852   -266.07247    36638.639 
    6500    307.12849   -1075.2129    190.75476    493.35686    238.07986    36638.639 
    6600    306.56266   -1080.2991    197.68551      492.663    532.12381    36638.639 
    6700    301.83923   -1079.0866    193.02525    468.02537    309.79965    36638.639 
    6800    295.09007   -1102.2858    196.85301     418.3764   -13.681446    36638.639 
    6900    298.89275   -1099.6535    193.64048    434.85544   -203.43467    36638.639 
    7000    294.54098   -1089.3819    198.66045    430.62444    79.614074    36638.639 
    7100    298.06967   -1084.8719    197.89418    450.19837    122.33716    36638.639 
    7200    295.74082   -1110.7441    205.79618    421.78067    153.30144    36638.639 
    7300     292.8853   -1106.4991    202.26409     409.6833    509.52272    36638.639 
    7400     290.8489   -1150.8741    202.88619    356.79494    810.75038    36638.639 
    7500    294.36653   -1084.3472    196.65489    432.87106     360.8963    36638.639 
    7600    299.03122   -1083.6657    197.17486    454.99881    908.67704    36638.639 
    7700    294.13827   -1154.1972    200.44235    365.78451    201.56291    36638.639 
    7800    305.30641   -1144.4274    199.36004    424.57358    122.19063    36638.639 
    7900    302.57225    -1160.907    195.30925    391.77742    564.86196    36638.639 
    8000      286.969   -1190.5927    209.86402     306.6484    161.52765    36638.639 
    8100    298.98637    -1167.751    207.86123    381.39876     299.8152    36638.639 
    8200    296.50046   -1174.9981    210.98273    366.12104    700.42103    36638.639 
    8300    297.54051   -1193.5339    204.24028    345.50858     613.1691    36638.639 
    8400    300.13217   -1181.2152    211.36251    376.57599     160.2541    36638.639 
    8500    306.35194   -1154.7606    207.61328    427.18394    372.53959    36638.639 
    8600    307.50189   -1163.7758    193.54173    409.25605    217.24323    36638.639 
    8700    302.42951   -1162.2638    213.20882    407.67988    345.54023    36638.639 
    8800     297.7976   -1154.8223       214.11    395.24324    627.34011    36638.639 
    8900    293.33805   -1136.2618    208.27784    387.96552    442.86126    36638.639 
    9000     299.4782   -1153.0261    227.12771    417.59651     414.2313    36638.639 
    9100    297.96208   -1167.3063    218.50107    387.88814    250.31653    36638.639 
    9200    296.42108   -1171.5771    230.87549     389.0787    440.79292    36638.639 
    9300    299.53946   -1192.9442    213.08422    363.90973    608.81243    36638.639 
    9400    306.21997   -1163.2776    221.37663    431.83835    472.90371    36638.639 
    9500    298.35345    -1205.279    214.85321     348.0233    269.63866    36638.639 
    9600    303.26924     -1153.13    206.74362    414.11558    654.72402    36638.639 
    9700     288.5332   -1208.8024    237.34802    322.93995    391.96251    36638.639 
    9800    299.85152   -1129.4774    215.37643    431.06863    88.099004    36638.639 
    9900     302.1499   -1162.1037    251.49433    444.87106    191.51841    36638.639 
   10000    298.58151     -1152.09     226.5056    413.88787    316.02023    36638.639 
   10100    298.08251   -1138.8899    244.74978    443.09353    762.33999    36638.639 
   10200    302.18456   -1192.7267    224.16251    387.07177    432.44192    36638.639 
   10300    293.56795   -1199.4215    230.62588    348.18522    517.44662    36638.639 
   10400    306.06946   -1216.9378    216.91601    373.04232    439.79783    36638.639 
   10500    290.52982   -1170.9421    235.52088    367.93018    88.090227    36638.639 
   10600    301.53828   -1206.8443    242.29327     388.1856    89.118761    36638.639 
   10700    293.92859   -1213.7228    238.32263    343.19847     619.3943    36638.639 
   10800    301.67718   -1207.6545    243.85944    389.56472    450.37266    36638.639 
   10900    295.15958   -1237.6211    242.38268     328.8826    863.28478    36638.639 
   11000    309.95896   -1209.3145     240.3138    421.51207     619.9452    36638.639 
   11100    303.77414    -1189.219     248.1387    421.68665    692.74611    36638.639 
   11200    300.55386   -1170.7798    237.39665    414.93727     601.3041    36638.639 
   11300    300.53082    -1237.689    241.27518    351.80328    588.99733    36638.639 
   11400    302.20837    -1186.755    239.51628    408.50402    352.81355    36638.639 
   11500    293.84004   -1230.8647    245.67768     333.0144   -111.74306    36638.639 
   11600    303.49335    -1212.686    249.85932    398.68058    7.7381641    36638.639 
   11700     297.8534   -1215.0807    252.66019    373.78528   -351.65629    36638.639 
   11800    294.42436   -1202.8818    243.10172    361.04268   -247.29293    36638.639 
   11900    293.74739   -1180.0999    247.30551     384.9914    21.323331    36638.639 
   12000    297.46872   -1164.4678    262.29344    432.30575    119.53404    36638.639 
   12100    292.96429   -1147.4413    248.36979    415.20117     121.6726    36638.639 
   12200    298.01372   -1196.2734    268.79132    409.44293    592.08535    36638.639 
   12300    308.58341   -1237.8853     244.2216    390.67824    345.82731    36638.639 
   12400    289.76309   -1217.9375    238.97231    320.94658    264.35776    36638.639 
   12500     307.2579   -1226.1946    255.23288    407.43385    648.45443    36638.639 
   12600    301.37072   -1201.2627    256.66877    407.39097    568.61837    36638.639 
   12700    293.24109   -1187.1249    244.28816    372.67769    246.04092    36638.639 
   12800      297.148   -1176.2481    281.34968     438.1429    109.38563    36638.639 
   12900    293.07608   -1207.6376    249.43213     356.5687    369.95478    36638.639 
   13000    301.21386   -1174.0072    264.38941    441.66351    609.34904    36638.639 
   13100    287.08087   -1205.5167    266.67211    349.03433    -4.814393    36638.639 
   13200    297.56638   -1215.4236    262.49917    381.99377    203.44907    36638.639 
   13300    294.46518   -1191.7234    261.86124    391.14375    314.82417    36638.639 
   13400    297.72108   -1222.1883    268.51469    381.93863    250.59644    36638.639 
   13500    293.69114   -1180.2866    272.20195    409.44884    171.60881    36638.639 
   13600     294.8758    -1177.774    267.98818    413.06217    276.64613    36638.639 
   13700    286.95873   -1184.0342    278.21556    381.51241    493.67659    36638.639 
   13800    306.17795   -1223.1793    260.94376    411.31525    550.64352    36638.639 
   13900    308.39773   -1226.8709    261.99048    418.62856    544.36982    36638.639 
   14000    302.52261   -1205.2898     269.9154    421.77804    431.78961    36638.639 
   14100    298.67618   -1222.4226    273.26219    390.73651     231.6836    36638.639 
   14200    291.48071   -1230.0981     272.6367    350.15583    337.32176    36638.639 
   14300    305.04909   -1245.8437    277.87443    400.51734    341.84584    36638.639 
   14400    293.22172   -1266.1661    271.93857    321.20009    308.92296    36638.639 
   14500    296.01031   -1214.7216    268.91641    382.13237    474.49689    36638.639 
   14600    294.12771   -1179.8553    283.49001    423.12663    773.97348    36638.639 
   14700    299.65143   -1246.6148    268.99105     366.6483   -77.480849    36638.639 
   14800     296.9483   -1221.7141    272.00225    382.43363    355.96799    36638.639 
   14900    309.53875   -1209.5117    265.99525    445.11123    236.39732    36638.639 
   15000    290.54261   -1265.0485     267.6649    306.02514    123.27157    36638.639 
   15100    300.95109   -1264.3213    277.17112    362.95224    385.87093    36638.639 
   15200    308.35716   -1269.7183    280.16867    393.77727    501.67241    36638.639 
   15300    295.98211    -1283.701    273.93548    318.04548     162.2175    36638.639 
   15400    296.00199   -1228.2649    275.86415    375.49939    217.35785    36638.639 
   15500    297.08709   -1219.9669    274.58401    387.38524    291.60619    36638.639 
   15600    295.01094   -1178.0257    272.88934     418.3179   -21.992197    36638.639 
   15700    306.65738   -1184.9354    278.70768    469.47384    80.424856    36638.639 
   15800    300.47304   -1266.0753    275.35328    357.23586    323.28361    36638.639 
   15900    296.79036   -1257.6843    281.92244    355.67501   -154.64942    36638.639 
   16000    307.67815   -1214.6598    263.88141    429.50243    466.52867    36638.639 
   16100    292.17346    -1236.031    274.46274    349.15666    264.36034    36638.639 
   16200    302.07857   -1242.5468    305.33405    417.94772    421.69334    36638.639 
   16300     304.0445   -1227.2814    284.42312    421.12155    296.11246    36638.639 
   16400    304.62547     -1250.23    294.03909    410.39517    609.36341    36638.639 
   16500    287.47146   -1273.9299    283.51371    299.21497    485.01564    36638.639 
   16600    294.34254   -1220.1506    294.10762     394.4127    390.74669    36638.639 
   16700    295.39528   -1247.7496      299.159    376.58784    125.16981    36638.639 
   16800    289.29861    -1278.208     277.9795    297.59948    178.23223    36638.639 
   16900    292.79992   -1244.6594    302.39783    371.27373   -691.62212    36638.639 
   17000    303.90781    -1196.885    295.65941    462.14105    258.25612    36638.639 
   17100    301.92504   -1202.7831    300.35671    452.04529    499.23366    36638.639 
   17200    309.21447   -1242.3078    292.35966    437.22479    333.42037    36638.639 
   17300     299.7195   -1245.6102    297.71619    396.68335    239.84255    36638.639 
   17400      292.051   -1239.6975     302.1516    372.62964     536.9896    36638.639 
   17500    297.15801     -1227.48    293.47648    399.08273    597.02699    36638.639 
   17600    317.77718   -1255.5372    297.02979    467.07892    657.19683    36638.639 
   17700    306.04967   -1219.5884    304.88888    458.27569    587.82111    36638.639 
   17800    308.19988   -1219.2813    310.36377    473.70388    855.11055    36638.639 
   17900    309.00125    -1263.889     294.2572    416.58463    609.50576    36638.639 
   18000    299.56369   -1248.8332    300.48822    395.53335    14.252084    36638.639 
   18100    299.37524   -1253.6564    298.96407    388.34063    430.88277    36638.639 
   18200    308.10624   -1236.3583     308.0565    453.89952    817.48817    36638.639 
   18300    308.41123   -1226.2621    307.20261    464.51004    458.94103    36638.639 
   18400    305.75989   -1222.0146    296.00721    445.66788    206.22772    36638.639 
   18500    302.20808   -1222.8326    302.31374    435.22256    242.87236    36638.639 
   18600    298.29508   -1243.6428    306.42716    400.97159    112.83429    36638.639 
   18700     295.0265   -1235.0101    309.90388    398.41778   -140.64601    36638.639 
   18800    287.68987   -1220.3778    291.97286    362.20605   -362.93631    36638.639 
   18900      299.583   -1253.3529    329.37675    419.98887   -278.88641    36638.639 
   19000     295.4994   -1241.2547    301.27709    385.66792    98.018282    36638.639 
   19100    300.46261   -1229.9081    314.57352     432.5765    291.86322    36638.639 
   19200    304.37657    -1224.924    310.46438    451.00997    48.975205    36638.639 
   19300    298.87285   -1210.8347    297.35373    427.29818   -68.029792    36638.639 
   19400     297.9315   -1237.3325    319.63658    418.86028    -109.6359    36638.639 
   19500    300.86336   -1253.5548    320.89934    417.05343    30.090431    36638.639 
   19600    302.65787   -1277.2567    321.35446    401.85702    -80.87162    36638.639 
   19700    304.09509   -1250.8959    294.34647    407.65736    205.06006    36638.639 
   19800    291.12149   -1208.7728    330.51795    427.75085   -415.69032    36638.639 
   19900    299.99846   -1201.7133    306.72359    450.83918   -26.456434    36638.639 
   20000    292.41536   -1285.1944    310.25285    336.86854    242.11139    36638.639 
   20100    311.29262   -1294.0117    308.40842    410.89253    365.43741    36638.639 
   20200    295.92339   -1273.9725    306.88941    360.46451    732.71566    36638.639 
   20300    304.03569   -1232.6805    334.23484    465.49466    651.66911    36638.639 
   20400    311.89024   -1234.2576    295.98532    460.90447    334.16647    36638.639 
   20500    306.36142   -1205.4714    315.63211     484.5345    -82.99189    36638.639 
   20600     309.7128   -1221.2349    325.54237    493.71603      583.321    36638.639 
   20700     296.1759   -1245.7538    320.66829    403.59492    399.27831    36638.639 
   20800    285.33187   -1218.1933    320.18147    382.02093    383.42837    36638.639 
   20900    300.12788    -1237.645    316.42841    425.19278    421.08847    36638.639 
   21000    300.86807   -1205.3248    347.39365    491.79886    754.92681    36638.639 
   21100    304.99602   -1236.9224    337.33064    468.65669    1047.5659    36638.639 
   21200    297.27017   -1279.3014    341.21365    395.50171    342.74361    36638.639 
   21300    305.82771   -1254.6811    303.71751    421.01595   -37.606497    36638.639 
   21400    306.06231   -1225.3003    326.03749     473.7692    174.46936    36638.639 
   21500    298.94848   -1210.7653    329.88802    460.24117    580.47259    36638.639 
   21600     298.8915   -1221.1393    304.94556     424.6691    112.62266    36638.639 
   21700    302.82651   -1254.7931    321.81587    425.53855    29.540521    36638.639 
   21800    296.16735   -1249.4788     320.1008    399.26403    235.67984    36638.639 
   21900    300.53825   -1248.7287    311.22365     410.7454    244.77019    36638.639 
   22000    298.71254   -1276.7444    329.79337    393.10897   -162.45915    36638.639 
   22100    294.92496   -1252.6247     322.8937    393.33749   -16.750738    36638.639 
   22200    303.87493   -1244.3468    317.63227    436.50462    494.33714    36638.639 
   22300    302.55641   -1258.1663    324.29577    423.43363    255.14183    36638.639 
   22400    306.65056   -1241.3509    309.63365    443.95365    253.82404    36638.639 
   22500    295.98182   -1254.0373    322.22103    395.99344   -29.964509    36638.639 
   22600    310.12284   -1264.1885    320.31843    447.37793    290.05754    36638.639 
   22700    298.70278   -1285.6822    310.83294    365.16702    193.39967    36638.639 
   22800    307.21109   -1267.4777    330.27129    440.97909     252.0738    36638.639 
   22900    299.87647   -1286.2031    323.50196    382.58044     9.813618    36638.639 
   23000    309.28666   -1306.6006    306.36202    387.25825    998.93817    36638.639 
   23100    286.97855   -1278.5874    324.33028     333.1629    338.31905    36638.639 
   23200    302.82436   -1235.2755    335.94438    459.17506    681.71105    36638.639 
   23300    297.06957   -1217.1325    329.12215    444.67912     34.50172    36638.639 
   23400    302.69989   -1265.5725    324.13674    416.51197    476.38261    36638.639 
   23500    293.36899   -1290.3179     311.8755    337.64586    447.11442    36638.639 
   23600    299.80328   -1245.6701    336.39865    435.68178    980.78443    36638.639 
   23700    293.55739   -1240.0606    340.16577    417.03862    657.60722    36638.639 
   23800    291.51486   -1257.1393    322.77076    373.40188    212.34553    36638.639 
   23900     298.0421   -1266.6244    317.41225    387.84022   -62.141284    36638.639 
   24000    304.71609   -1274.6909    317.67669    409.97847    157.48661    36638.639 
   24100    292.17911   -1290.6385    319.59395    339.70573   -37.192547    36638.639 
   24200    302.02092   -1255.1887    336.21491      435.928    621.19167    36638.639 
   24300    292.37596   -1267.4358    348.32233    392.51992    203.04276    36638.639 
   24400    307.49555   -1232.4457    327.60975    474.62569    583.29343    36638.639 
   24500     295.9857   -1247.6107    332.64239    412.85876    342.07179    36638.639 
   24600    306.65865   -1274.7981    329.39886    430.30795    382.27137    36638.639 
   24700     304.1254   -1267.4043    331.75218    428.69067    177.93582    36638.639 
   24800    301.29961   -1250.5673    317.15439    418.25305    568.46775    36638.639 
   24900    299.85531   -1254.6987    346.37706      436.865    295.19303    36638.639 
   25000    290.18807   -1201.7889    345.13507    445.16446    592.72973    36638.639 
   25100     295.5004   -1252.4595    345.45328    418.64372    460.50422    36638.639 
   25200    302.64808    -1246.689     336.7346    447.76089    813.70548    36638.639 
   25300    294.27253   -1231.8975    333.10986    421.35395    379.25808    36638.639 
   25400     301.1363   -1246.5926     331.0861    435.42687    964.86553    36638.639 
   25500    303.61601   -1226.5281    331.61958    467.14905     669.5326    36638.639 
   25600    295.63701   -1255.0545    338.22827    409.43663     536.6326    36638.639 
   25700    301.61351   -1271.1494     333.1497    415.07444    729.59151    36638.639 
   25800    299.55077   -1258.7388    335.84107    420.92274      278.255    36638.639 
   25900    297.70925   -1220.2319     347.0645    462.39178    345.98178    36638.639 
   26000    297.86227   -1236.1393    327.60326    427.70961    340.88001    36638.639 
   26100    295.10661   -1240.0969    344.31652    428.10303    42.647029    36638.639 
   26200    299.40165   -1225.4158    313.93781    431.67353    181.00673    36638.639 
   26300    293.37696   -1255.8714    335.39001    395.64265    463.34448    36638.639 
   26400    294.62444   -1258.1186    344.10501    407.70671    302.20347    36638.639 
   26500    292.42901   -1301.7125    312.27544    322.43429   -134.94459    36638.639 
   26600    302.68606   -1291.8852    336.16516    402.16567    109.15773    36638.639 
   26700    295.75228    -1275.778    334.53786    385.53983   -348.50069    36638.639 
   26800    299.11182   -1273.6335    336.44916    404.66692   -167.64595    36638.639 
   26900    314.82033   -1233.8341    347.20522     525.6926   -231.15044    36638.639 
   27000    298.46903   -1247.3126    358.61997    450.27501    234.14932    36638.639 
   27100    302.94643   -1275.4741    324.86122    408.44087   -13.885176    36638.639 
   27200    292.22566   -1269.9937    338.32279    379.28821    262.02985    36638.639 
   27300    300.33419   -1312.6128    325.26957    359.99175   -528.37049    36638.639 
   27400    306.45295   -1299.3495    351.23861    426.67351   -257.36927    36638.639 
   27500    292.90666   -1282.4626    344.70981    376.26138   -576.51993    36638.639 
   27600    293.18868   -1268.8793    343.97834    390.37839   -221.73198    36638.639 
   27700    298.61861   -1281.1755    347.35666    405.81978    80.082788    36638.639 
   27800    302.23625      -1270.4    342.09858    427.56645   -91.175356    36638.639 
   27900    304.10415   -1267.5071    328.97092    425.71129    474.64061    36638.639 
   28000    299.70194   -1270.4704    349.12905    423.15721    285.41246    36638.639 
   28100    304.90092   -1269.1004    348.90187    447.62332    334.80684    36638.639 
   28200    305.65565   -1285.1009    356.76033     442.8671    540.91549    36638.639 
   28300    301.98069   -1275.7615    327.75415    406.71404    611.28453    36638.639 
   28400     298.5839   -1320.3712    334.41195    353.52376    836.84491    36638.639 
   28500    298.82618   -1326.2281     339.3469    353.68862    93.307294    36638.639 
   28600    296.54364   -1279.5476    344.19135    394.97385    105.33635    36638.639 
   28700    303.12595   -1294.8623    356.45447    421.45133    73.611437    36638.639 
   28800    298.78117   -1260.9974    345.85452    425.22502    661.61972    36638.639 
   28900    305.48656   -1283.9038    328.30991    414.85517    148.54825    36638.639 
   29000    284.95555   -1233.9057    340.97715      385.416    12.420278    36638.639 
   29100    299.42996   -1242.6204    338.29065    438.94877    462.81925    36638.639 
   29200    305.51569   -1274.4976    335.62464    431.70685    389.76922    36638.639 
   29300    301.07265   -1245.8379    342.09159     446.9015    376.98604    36638.639 
   29400    303.19503   -1284.7537    358.08283    433.49813    575.67278    36638.639 
   29500     308.2251   -1283.5666     356.6232    455.79114    622.42316    36638.639 
   29600    309.07541    -1287.445    357.11947     456.2236    904.83311    36638.639 
   29700    306.86103   -1314.8039    358.88261    420.69381    874.34157    36638.639 
   29800    295.12277   -1302.5465    349.66693    371.07631    1020.5779    36638.639 
   29900    305.21831   -1266.0409    336.91835    440.12312    857.34629    36638.639 
   30000    294.48955    -1310.527    340.05509    350.64331    953.84228    36638.639 
   30100    295.97677   -1346.2409    329.50479    311.05087    449.49064    36638.639 
   30200    298.26442   -1323.4873    347.24766    361.81011    154.81915    36638.639 
   30300    296.95131   -1278.2514    360.58601    414.49352    50.913665    36638.639 
   30400    298.58571   -1326.7984    350.90501    363.59762    85.591431    36638.639 
   30500    302.06275   -1261.1512    343.37669    437.31497   -399.44762    36638.639 
   30600    310.16675   -1302.7362    346.04546    434.75429   -482.77728    36638.639 
   30700    314.93209   -1276.0882     348.3524    485.08714    219.27095    36638.639 
   30800    298.47805   -1288.2763    345.15823    395.89003    224.50859    36638.639 
   30900    305.13897   -1313.2721    344.76056    400.37821    41.519537    36638.639 
   31000    293.71648   -1310.0324    343.95022    351.56493   -183.24851    36638.639 
   31100    298.26186   -1280.1814    348.26445    406.12129   -142.26897    36638.639 
   31200    288.23617   -1308.6174     338.1927    322.63711    571.28433    36638.639 
   31300      290.436   -1294.7792      349.456    357.60728    209.25821    36638.639 
   31400    299.17817   -1312.2854    325.50494    355.36849    374.69871    36638.639 
   31500    296.06013    -1322.487    337.17799    342.85198    120.64166    36638.639 
   31600    299.03318   -1325.6143    331.86936    347.75352   -212.96521    36638.639 
   31700    296.73536   -1338.0029    349.73919     342.9265    359.44761    36638.639 
   31800    305.35644   -1337.1863    343.92667    376.60575    324.09975    36638.639 
   31900    295.49513   -1307.5735    361.07164     379.1245    8.4268601    36638.639 
   32000    305.31939   -1326.3556    355.72934    399.07289    138.59007    36638.639 
   32100    296.16135   -1269.9332     385.6587    444.34057    284.17515    36638.639 
   32200    303.10534   -1279.1188    382.73248    463.38035    752.27372    36638.639 
   32300    304.06535   -1290.7048    377.20885    450.57743    393.32043    36638.639 
   32400    306.72864   -1309.9473    357.96016    424.03405    602.38413    36638.639 
   32500    311.24053   -1313.9008    340.83848    423.19973    68.925723    36638.639 
   32600    297.70259    -1333.333    337.04969      339.246   -48.885922    36638.639 
   32700    294.12813   -1361.0479    351.57675    310.02264   -103.46978    36638.639 
   32800    298.22307   -1329.5323    344.65319    352.98508    70.508872    36638.639 
   32900    310.35377   -1347.2083    341.95259    387.02826    747.87973    36638.639 
   33000    305.37722     -1337.94    344.51528    376.53389    535.36016    36638.639 
   33100    305.32565   -1333.4871    348.47173    384.71188    658.07494    36638.639 
   33200    308.23323   -1322.2471    363.82461    424.34848    566.89338    36638.639 
   33300    307.85515   -1354.3533    358.66046    385.38201    8.8129341    36638.639 
   33400    293.03354   -1319.8805    327.55295    322.25581   -67.275853    36638.639 
   33500    297.18201   -1322.8091    381.00692    391.39171     283.8706    36638.639 
   33600    311.28861   -1320.2386    355.33554     431.5747    461.59529    36638.639 
   33700    304.74202   -1309.1559    363.30327    421.25638    422.61255    36638.639 
   33800    297.06159   -1363.9106     333.8458    302.58889    367.16608    36638.639 
   33900    302.17286   -1371.7409    344.21012     328.0527   -148.98236    36638.639 
   34000    308.64977   -1343.2888    345.18235    386.53322    165.69915    36638.639 
   34100    305.49722   -1326.1802    360.13459    404.45133    182.81746    36638.639 
   34200    293.13512   -1305.4899    351.75699    361.30619    179.08934    36638.639 
   34300    297.17633   -1304.0743    366.20643    395.30056    139.38494    36638.639 
   34400    299.58851   -1322.7008    350.17491    371.46387    349.81412    36638.639 
   34500    294.16826   -1328.7439    349.79968    340.72961    76.472968    36638.639 
   34600     294.1845   -1319.2714    348.64531    349.12067   -99.358451    36638.639 
   34700    303.50673   -1334.5185    364.33277    391.38162    425.79435    36638.639 
   34800      293.117   -1343.3973    367.76573    339.32619    206.71368    36638.639 
   34900    293.47421   -1343.3413    376.70026    349.91923    304.10122    36638.639 
   35000    302.30357   -1352.6178     355.5882    359.14025    431.00464    36638.639 
   35100    296.60181   -1399.4991    366.33968     297.4316      541.843    36638.639 
   35200    298.56191   -1367.3646    369.03088    341.05056    654.97339    36638.639 
   35300    305.36792   -1391.4292    354.67503     333.1627    264.71703    36638.639 
   35400    298.01901   -1329.1247    355.03834    362.86245    258.27995    36638.639 
   35500    294.53276   -1361.3304    366.87136    326.84999    182.40191    36638.639 
   35600    298.93957   -1371.8664    364.64011    333.85223   -119.29592    36638.639 
   35700    310.93836    -1363.877    368.76212    399.79165    552.86113    36638.639 
   35800    305.50484   -1358.8348    352.38344    364.07979   -244.93629    36638.639 
   35900    298.85281   -1350.4265    357.49582    347.75868   -355.18141    36638.639 
   36000    285.26863   -1362.8364    349.49599    266.40867    -369.5291    36638.639 
   36100    297.45409   -1348.9752    380.37694    365.81626   -405.03666    36638.639 
   36200    304.84079   -1314.5162    373.54484    426.58073    107.06435    36638.639 
   36300    304.00356   -1353.5264    373.81534    384.08516    398.50839    36638.639 
   36400    293.18667   -1377.2707    381.50568    319.50529     1021.858    36638.639 
   36500    299.12981   -1383.4099    353.11011    311.63214    552.22981    36638.639 
   36600    296.77516    -1421.407    354.89027    264.85201    714.58609    36638.639 
   36700    295.89517   -1402.1129    356.46109    281.76918    264.70263    36638.639 
   36800    291.77279   -1385.3847    353.48688    277.02965    232.10378    36638.639 
   36900    291.13206    -1423.529    359.55875     242.0828    66.533079    36638.639 
   37000    305.56515   -1367.1516    361.58904    365.23906    448.76783    36638.639 
   37100    287.74028   -1373.3299    373.27569    290.78298   -64.549026    36638.639 
   37200    294.51677    -1362.879    371.24004     329.5983    -539.7347    36638.639 
   37300    299.58814   -1345.0577    349.07475     348.0051   -273.97215    36638.639 
   37400    303.16015    -1360.912     351.8862    350.98681    380.43998    36638.639 
   37500    303.90613   -1349.8308    367.38329    380.91157    742.62049    36638.639 
   37600     291.2073   -1382.8849    388.05093     311.5567    159.09253    36638.639 
   37700    302.64869   -1335.8884    372.31918    394.14881    447.20473    36638.639 
   37800    294.43479   -1401.9877    375.57125    294.45308    48.181622    36638.639 
   37900    293.75018   -1367.0417     392.6581    343.41475    79.110308    36638.639 
   38000    305.31139   -1365.3003    361.46675    365.82974   -24.200078    36638.639 
   38100    302.28825   -1339.8171    373.66891    389.95292    264.59532    36638.639 
   38200    301.12401   -1386.0125    362.21939    327.08511   -71.424272    36638.639 
   38300    302.63944   -1364.8136    372.26382    365.12679   -26.775541    36638.639 
   38400     290.8743   -1353.3585    364.67285    316.21108   -181.10961    36638.639 
   38500    297.59224   -1342.7721    375.08325    367.34539   -274.84686    36638.639 
   38600     300.1795   -1339.5331    387.67472     394.7826   -486.20531    36638.639 
   38700    300.83611   -1331.1089    375.69143    394.16917   -212.33886    36638.639 
   38800    290.31034   -1312.2634    379.83091    369.93423   -27.941788    36638.639 
   38900    303.84194   -1338.9805    368.23103    392.32169   -166.38616    36638.639 
   39000    303.41801    -1356.623    346.17598    350.72232    356.36976    36638.639 
   39100    295.40087   -1320.6806     364.6772    369.20008    496.37349    36638.639 
   39200    293.22439   -1333.2839    369.80682    351.96241    345.94402    36638.639 
   39300    301.53513   -1383.6925    347.20533    316.23538    379.67801    36638.639 
   39400    284.32664   -1343.0403    374.76361    307.24647    358.03289    36638.639 
   39500    297.39309   -1362.7561    362.77787    334.16256    849.31307    36638.639 
   39600    297.89146   -1375.0858    370.96211    332.25289    1172.7601    36638.639 
   39700    302.53023   -1340.2792    376.68204    393.58945    995.08825    36638.639 
   39800    298.90214   -1397.6511     377.2638    320.52325    635.21296    36638.639 
   39900    289.28715   -1373.2047    375.22938     299.8013    781.58855    36638.639 
   40000    294.63279   -1358.6619    392.87771    355.97363    519.64638    36638.639 
   40100    303.19758     -1364.16    361.92383    357.94429    248.31701    36638.639 
   40200    307.26643   -1349.6035    362.56587    391.39617    741.81454    36638.639 
   40300    297.39688   -1347.8434    365.36093     351.6754    706.84924    36638.639 
   40400    305.06613   -1322.0571     368.6535    415.15936    627.60471    36638.639 
   40500     291.9828   -1367.5212    351.93421    294.28264    675.25749    36638.639 
   40600    299.57475   -1372.1259    366.14888      337.951    411.05734    36638.639 
   40700    293.40462   -1370.8784     370.9438     316.3135    216.73088    36638.639 
   40800    295.85381   -1347.6352     367.7612     347.3614    109.02682    36638.639 
   40900    301.40792   -1348.2262    366.31708    370.24266   -339.97241    36638.639 
   41000    307.97801   -1363.3061    338.05411    356.37401    342.93905    36638.639 
   41100    294.77873   -1334.5727    375.63185    363.47168    308.28702    36638.639 
   41200    294.80022   -1322.2155    363.97878    364.27223   -140.91551    36638.639 
   41300     296.2052   -1338.5682    349.85015    340.09379    506.88592    36638.639 
   41400    315.23551   -1358.8207    390.34437    445.70776    -137.5435    36638.639 
   41500    298.05902   -1307.4125    395.78977    425.50557     164.9835    36638.639 
   41600    301.82125   -1330.7272    376.54025     399.8191   -39.847454    36638.639 
   41700    306.18321   -1285.9349    402.92529    490.56479    65.629527    36638.639 
   41800    300.47044   -1324.9535    400.60317    423.59581    322.99336    36638.639 
   41900    305.64139   -1338.4687    388.54311    421.21812    471.88595    36638.639 
   42000    309.71375   -1362.9831    381.23723    407.66689    712.48267    36638.639 
   42100    295.68893    -1366.137     360.8649    321.22364    594.38894    36638.639 
   42200    299.98058   -1343.7002    375.47549    377.52395    545.09308    36638.639 
   42300    303.30191   -1385.9616    391.77885    366.46575    637.43033    36638.639 
   42400    304.53682   -1357.1941    371.77785    380.77217    394.85157    36638.639 
   42500    292.81654   -1343.0233    389.60325    360.18982    193.06298    36638.639 
   42600    306.84796     -1377.66    384.73786    383.63439    128.12073    36638.639 
   42700    303.77825   -1377.1027    386.57836    372.26103   -55.047354    36638.639 
   42800    300.37672   -1295.4791    390.84302     442.8897   -275.09556    36638.639 
   42900    287.89595   -1276.3733    389.94901    405.11125    -362.1521    36638.639 
   43000    301.79884   -1266.8881    364.34002    451.35746    -246.7822    36638.639 
   43100    292.60009   -1266.6488    386.73443    432.72447   -408.43571    36638.639 
   43200    304.38359   -1269.3195    385.82477    482.00636   -220.13994    36638.639 
   43300    297.77783   -1311.7166    398.34255    422.49281   -166.11602    36638.639 
   43400    303.69158   -1323.8894    387.88105    426.38827    266.36993    36638.639 
   43500    300.66392   -1364.2528    388.27068    372.83201   -402.65669    36638.639 
   43600    305.47006   -1366.4988    400.65153    404.52781   -102.38947    36638.639 
   43700    294.04491   -1382.9472    399.05144    335.22473   -301.78158    36638.639 
   43800    299.74668   -1323.8544    415.46727    436.31215     293.6517    36638.639 
   43900    292.80214   -1298.4788    385.27205    400.33849   -243.74584    36638.639 
   44000    311.25603   -1313.4324    382.90464    465.80389   -72.402402    36638.639 
   44100     291.7376   -1321.7104    408.98287    396.04209   -7.8357746    36638.639 
   44200    297.17512   -1298.8216    390.10038    424.44174    73.164609    36638.639 
   44300    306.44465   -1326.8176     394.4898    442.41939    147.64085    36638.639 
   44400    306.75185   -1311.4832    391.95465    456.59684    421.20057    36638.639 
   44500    289.09039   -1339.8234    392.47279    349.54328    588.96623    36638.639 
   44600    307.40416   -1340.0411    375.48217    414.49279    197.15649    36638.639 
   44700    297.97819   -1367.1327    404.44259    374.07557    682.31969    36638.639 
   44800    295.75031   -1345.7852    366.80775    347.79364    553.28367    36638.639 
   44900    296.14975   -1356.9452    368.98699    340.60486    194.14336    36638.639 
   45000    293.01912   -1378.1002    371.29429    307.71276   -10.891139    36638.639 
   45100    297.48264   -1348.3505    378.86095    365.05296    384.00792    36638.639 
   45200    293.72056   -1336.7403    381.48975    362.41484   -419.32635    36638.639 
   45300    303.18348   -1327.0587    380.53555    413.59407   -513.54292    36638.639 
   45400    306.19446   -1381.9212    389.29745    381.00109    31.105787    36638.639 
   45500     303.3243   -1374.7957      366.687    352.64022   -48.070849    36638.639 
   45600    293.56989   -1376.4242    371.14773    311.71303    567.78705    36638.639 
   45700    307.35251   -1345.1622    397.70245    431.36022    378.25245    36638.639 
   45800    294.37492   -1327.0246    405.87746    399.45382    521.32464    36638.639 
   45900    307.24525   -1331.0888    378.28294    425.53296    987.26506    36638.639 
   46000    296.79776   -1359.5956      376.771    348.64549    469.09295    36638.639 
   46100    307.20265   -1392.8145    382.08455    367.41767    44.347304    36638.639 
   46200    302.65086   -1391.6725    373.23546    339.29074    560.50043    36638.639 
   46300    292.43352   -1333.2103    393.96437    372.64564    160.83803    36638.639 
   46400    292.79179    -1361.344    391.06995    343.22483    193.50805    36638.639 
   46500     303.5948    -1371.039    385.80366    376.72713    321.17413    36638.639 
   46600    304.17637   -1348.5831    381.83652    397.82485   -39.007342    36638.639 
   46700    301.02344   -1341.5688    398.14674    407.00498    171.78884    36638.639 
   46800    300.70724   -1364.3728    386.39679    371.03248     265.1548    36638.639 
   46900    301.54832   -1358.1404     390.3528    384.99409    964.02118    36638.639 
   47000    293.43652   -1385.3155    399.17539    330.25108    245.64791    36638.639 
   47100    295.63167   -1348.7453    392.51445    370.00799     25.18831    36638.639 
   47200    296.33841   -1338.9954    372.48875    362.90276    149.08338    36638.639 
   47300    296.94457   -1357.9806    394.43077    368.57892     817.0069    36638.639 
   47400    289.86193    -1429.742    360.38042    230.99358    736.71253    36638.639 
   47500    297.38571   -1386.5265    362.51298    310.09419    751.15733    36638.639 
   47600    292.82252   -1375.3014    382.58521    320.92051    278.01258    36638.639 
   47700    306.82239   -1333.4303    370.52183     413.5333    88.626377    36638.639 
   47800    302.57704   -1342.7763    364.67217    379.29252    325.79599    36638.639 
   47900    299.47201    -1380.891    363.77597     326.3521    750.19911    36638.639 
   48000    298.06919   -1370.9444    395.57388     361.8034    513.82677    36638.639 
   48100    303.69654   -1413.3615    395.49486     344.5522    830.90136    36638.639 
   48200    296.33756   -1388.4993    398.18314    339.08949    1093.1816    36638.639 
   48300    302.18763   -1399.4992    395.21654    351.36705    68.409382    36638.639 
   48400    299.51887   -1397.9163    370.99232     316.7534    217.93973    36638.639 
   48500    298.66856   -1422.1519    386.11127    303.82206     64.71389    36638.639 
   48600     293.7192   -1330.8877    407.04999    393.82159    -72.74346    36638.639 
   48700    312.66649   -1328.8303    397.74407    471.57284    58.238461    36638.639 
   48800    298.85394   -1325.1536    388.11198    403.65273   -553.66318    36638.639 
   48900    287.57499   -1313.9945    387.70779    363.80901     5.419243    36638.639 
   49000    290.85673   -1338.4913    402.01493    368.34153     482.5846    36638.639 
   49100    285.32319   -1322.4051    430.29965    387.88837   -64.583376    36638.639 
   49200    297.73943   -1352.0433    399.13393    382.78517    677.57422    36638.639 
   49300    294.15458   -1341.8843    388.92591    366.65411    559.74826    36638.639 
   49400    305.93329   -1335.2465    394.74977     431.9565    1368.2335    36638.639 
   49500    297.02459   -1348.5827    379.12615     363.0312     612.2376    36638.639 
   49600     296.5071   -1376.6306    376.72007    330.25562    382.92906    36638.639 
   49700     270.6711   -1362.5551    392.15114    243.85882    542.93866    36638.639 
   49800    303.34602   -1357.2399     402.0205    405.62702    443.73026    36638.639 
   49900    302.89911   -1323.0971    409.79839    445.54276    525.79243    36638.639 
   50000    273.48275   -1292.6444    415.08213    349.31395    156.98298    36638.639 
   50100    302.49805   -1325.0299    403.89261    435.90503    400.42823    36638.639 
   50200    309.55079    -1329.877    408.50313    467.30782      661.214    36638.639 
   50300    303.78525   -1334.0443    414.46995    443.24246    521.05012    36638.639 
   50400    301.17704   -1346.2447    399.49075    404.36213     265.7002    36638.639 
   50500    290.79621   -1340.6429    392.50268    356.40627    77.980558    36638.639 
   50600     297.6537   -1364.3169    411.62712    382.62012   -359.16678    36638.639 
   50700     285.1688   -1378.0306    384.69109    285.96168   -128.43566    36638.639 
   50800    301.96148    -1363.299    413.54768    404.88385    213.58099    36638.639 
   50900    296.62445   -1444.2733     374.5141    260.93343    123.28311    36638.639 
   51000    300.12058   -1388.6118    381.35498    339.11988    675.18412    36638.639 
   51100    300.69046   -1406.3693     417.5881    360.15207    371.05033    36638.639 
   51200    294.65053   -1414.0501    422.73388    330.52116    213.52962    36638.639 
   51300    302.90683   -1407.4388    395.53866    346.97594   -101.65964    36638.639 
   51400    298.74891   -1402.0096     382.7695    320.98312    22.016459    36638.639 
   51500    300.01183    -1465.738    391.77424    271.92508     197.4911    36638.639 
   51600     305.0146   -1430.0706    401.73028    339.99152    595.20359    36638.639 
   51700    308.87359   -1465.8264    381.53076     301.3481    160.56218    36638.639 
   51800     307.0857   -1412.7062    383.44089    348.35778    137.38935    36638.639 
   51900    301.24513   -1396.1644    392.48745    347.74455   -5.3899881    36638.639 
   52000    311.56382    -1422.103    414.81488    390.42431    196.64775    36638.639 
   52100    296.53219     -1403.41     406.3955    333.26423    214.37898    36638.639 
   52200    305.69253   -1397.5942    405.38478    379.16368   -430.52338    36638.639 
   52300    300.41609   -1366.9386    402.68969     383.4535   -5.5640683    36638.639 
   52400    297.27379   -1373.5805    426.49523    386.52039    64.793089    36638.639 
   52500    291.96905   -1401.3226    428.97709    337.46241   -47.557635    36638.639 
   52600    303.02673   -1385.6631    404.04438    377.79532   -179.11659    36638.639 
   52700    305.72105   -1387.6623    413.65179    397.49056   -169.25469    36638.639 
   52800    308.49693   -1356.8744    392.91644    419.99608   -32.568698    36638.639 
   52900     297.8764   -1365.8258    416.04283    386.52609    183.99343    36638.639 
   53000    300.89077   -1392.6255    395.18667    352.39307   -332.71706    36638.639 
   53100    286.64433    -1378.853    410.15975    317.22737    133.47528    36638.639 
   53200    304.17219   -1358.8867    410.28236    415.94839    266.80192    36638.639 
   53300     288.0575   -1386.9077    411.06556    316.41813    337.48313    36638.639 
   53400    301.83003   -1429.8349    405.23128    329.44188   -69.520162    36638.639 
   53500    307.15119   -1454.8413    397.15857    320.23407     157.3617    36638.639 
   53600    299.24432   -1402.2353    418.25267    358.46307    285.98184    36638.639 
   53700    296.33515   -1416.3065     405.3648    318.45313     323.3452    36638.639 
   53800    299.34485   -1422.7029    391.47614    311.66992    244.67848    36638.639 
   53900     292.2272    -1415.431    400.93083     296.4659   -9.4892879    36638.639 
   54000    298.45119   -1405.8393    405.06593    338.11418   -510.56861    36638.639 
   54100    314.29231   -1398.5362    384.65161    396.06814    202.21476    36638.639 
   54200    306.26959   -1404.8637    398.55203    367.65021    522.94225    36638.639 
   54300    301.31865   -1395.8997    413.94433    369.79596    464.93204    36638.639 
   54400    293.55084    -1435.195    432.58777    314.29679    205.83959    36638.639 
   54500    294.42417   -1403.8567    415.90633    332.87157     757.8322    36638.639 
   54600    294.63971   -1418.7365    438.77714    341.82944    750.23154    36638.639 
   54700    286.49257   -1416.6623    415.68628    284.26377    561.37904    36638.639 
   54800    299.54928   -1400.0215    417.79016    361.58244    289.07136    36638.639 
   54900    294.92955   -1451.7073    393.61791    264.99969    511.54461    36638.639 
   55000    301.26203   -1455.0464    408.38435    304.83534    -56.05384    36638.639 
   55100    297.67113   -1409.0806    428.77694    355.08449   -209.55668    36638.639 
   55200    308.90467   -1438.5848     407.3609    354.55931   -285.15285    36638.639 
   55300    299.57287   -1421.7565    390.38246    312.54547   -90.474108    36638.639 
   55400     303.4713   -1453.1966    381.94763    290.15947   -243.22731    36638.639 
   55500    297.42523   -1364.7449    401.85198    371.39207    145.89795    36638.639 
   55600    296.11965    -1362.501    389.00604    354.93304     72.22456    36638.639 
   55700    287.47057    -1369.261    414.77479    335.14097    60.480191    36638.639 
   55800    307.32705   -1383.0281    401.77358     397.4512   -96.767788    36638.639 
   55900    307.86707   -1386.3735    384.68179     379.4366    19.764605    36638.639 
   56000    290.92888   -1389.5782    394.05818    309.62153   -116.86663    36638.639 
   56100    298.98377   -1417.1407    375.86301    299.99915   -334.39128    36638.639 
   56200    309.14696    -1403.356     393.6226     377.1367   -408.45436    36638.639 
   56300    298.63316   -1365.0125    396.50107    371.19246   -300.81936    36638.639 
   56400    301.73419   -1402.6637     442.0968    393.04858   -726.19296    36638.639 
   56500    309.71488   -1354.1622    409.24515    444.50077   -50.149162    36638.639 
   56600    295.30184   -1403.3935     384.0381    305.40385   -213.07385    36638.639 
   56700    298.06791   -1380.7801    394.84832    351.23633    30.429494    36638.639 
   56800    301.58496   -1391.4667     404.3784    365.85782   -248.98408    36638.639 
   56900    315.18326   -1354.3723    424.15103    483.72838    544.30067    36638.639 
   57000    302.55873   -1377.6323    434.30677      413.989    469.76174    36638.639 
   57100     296.2387   -1374.0234    390.16876    345.10743     15.58629    36638.639 
   57200     308.7059   -1399.8504    400.67776    385.71886   -146.90656    36638.639 
   57300    291.37265    -1419.775     417.1003    304.45776   -240.05506    36638.639 
   57400    306.66117    -1414.641    417.44494    378.52244   -522.89125    36638.639 
   57500    302.21123   -1457.7862    408.53409    306.50349   -273.56055    36638.639 
   57600    302.26827   -1479.8973    406.57827    282.69241   -193.09571    36638.639 
   57700    288.59532   -1437.9131    423.63678    280.39661   -95.743191    36638.639 
   57800    305.92451   -1464.7769    405.37296    313.00988    77.598619    36638.639 
   57900    302.76539   -1424.6978    410.48322    344.02703    428.83527    36638.639 
   58000    308.36145   -1412.9823    418.00574    388.36969     190.0643    36638.639 
   58100    305.20661   -1388.6905    394.54322    375.04591    185.13447    36638.639 
   58200    299.41327   -1425.7515    422.14235    339.59442    -416.7101    36638.639 
   58300    293.36192   -1410.7164    401.07891    306.41901   -32.738197    36638.639 
   58400    306.30102   -1399.0749    422.17411    397.20207   -149.47453    36638.639 
   58500    298.69591   -1383.2502    408.56051    365.29572   -519.70028    36638.639 
   58600    301.58192    -1464.462    403.92052    292.39097    173.94932    36638.639 
   58700     294.7675    -1434.166    409.19499    297.39107    517.95076    36638.639 
   58800    294.52151   -1411.4439    413.77639    323.59109    162.36306    36638.639 
   58900    316.09058    -1420.496    403.62768    401.15163    473.01933    36638.639 
   59000    304.30153   -1427.9707     414.4743    351.63653    560.46773    36638.639 
   59100    307.13266   -1418.6353     420.4759    379.67437    91.181953    36638.639 
   59200    286.42866   -1421.2024    425.90372     289.6544   -216.70937    36638.639 
   59300    302.76923   -1453.1806    417.25669    322.33495     106.1883    36638.639 
   59400    295.32253   -1386.3401     415.1896    353.70157   -783.39844    36638.639 
   59500    297.03426   -1395.4799    415.87564    352.92681   -124.00126    36638.639 
   59600    298.90807   -1402.3008     385.3479    323.98427   -25.533416    36638.639 
   59700    293.10987   -1377.3301    424.10931    361.70498    293.25579    36638.639 
   59800     297.2751   -1395.9069    401.67356     339.3782    44.853467    36638.639 
   59900    308.58509   -1376.1132    417.29179      425.528    167.02877    36638.639 
   60000    295.44034   -1411.4642    429.47486    343.39127    322.62096    36638.639 
   60100    308.82929   -1378.9479      399.777    406.27404    968.00337    36638.639 
   60200    289.26436   -1415.4714    404.15397    286.35694    440.50294    36638.639 
   60300    302.13556   -1371.7083    422.72472    406.43252    239.36144    36638.639 
   60400    313.12421   -1365.9164    408.22842    447.02458     170.6394    36638.639 
   60500    297.85919   -1406.7067    419.67502    349.20011    38.346912    36638.639 
   60600    294.81513   -1407.6616    401.00268    315.91685    128.50088    36638.639 
   60700    310.64798    -1406.547     384.8396     371.8964   -412.36748    36638.639 
   60800    306.69302   -1435.6409    410.94914    351.16968    306.26598    36638.639 
   60900    302.77228   -1432.7541    406.86866    332.38709   -580.03644    36638.639 
   61000    300.32016   -1460.8716    433.72969     320.1301   -366.72264    36638.639 
   61100    300.79644   -1448.6547    377.88995    278.64389    293.38842    36638.639 
   61200    298.99922   -1403.9148    415.66346     353.0948   -38.862446    36638.639 
   61300     296.6778   -1383.3864    400.09688     347.6424     72.26763    36638.639 
   61400    304.54748   -1370.1498    421.63628    417.72276    127.12226    36638.639 
   61500    291.67536   -1430.2674    394.77285    272.99587    183.73516    36638.639 
   61600    297.25506   -1392.1392    397.24829     338.6307    508.12393    36638.639 
   61700    292.82965   -1371.8458    415.98282    357.80575    311.82499    36638.639 
   61800    307.47956    -1374.815    426.57986    431.15484    20.492412    36638.639 
   61900    288.16653    -1405.862    425.28612    312.17353   -165.54931    36638.639 
   62000     303.9334   -1405.9031    441.67833    399.25668   -728.01584    36638.639 
   62100    290.56279   -1359.6111    393.31102    337.19926   -374.65371    36638.639 
   62200    300.67404   -1437.2462    401.89316    313.50656    -24.91115    36638.639 
   62300    305.52188   -1438.8143    408.19348    339.98668    10.373374    36638.639 
   62400    301.05056   -1423.3114    409.83912    337.07646    71.481969    36638.639 
   62500    294.29448    -1423.074    409.94497    307.11109    81.589954    36638.639 
   62600    300.65036   -1440.7979     418.6552    326.61066    183.39266    36638.639 
   62700    298.51924    -1453.964    401.30847    286.53729     666.4635    36638.639 
   62800    291.93847   -1475.0155    405.71229    240.36753     630.3844    36638.639 
   62900    292.29527   -1457.5177    412.46733    266.22098    217.19961    36638.639 
   63000     291.8696   -1425.2598    404.93442    289.03645    225.40536    36638.639 
   63100     293.5191    -1431.763    398.25195    283.25061    480.98815    36638.639 
   63200    306.43891   -1426.5073    425.84827    374.06244    345.20149    36638.639 
   63300    295.73595   -1409.5876     410.6423    327.76142    797.47538    36638.639 
   63400    310.47524   -1396.2986    410.01698    406.54735    518.88625    36638.639 
   63500    292.96199   -1416.1378    414.73944    312.86397   -116.19537    36638.639 
   63600    298.27421   -1428.7162     405.2558    314.63322    54.968414    36638.639 
   63700    299.74809   -1373.3995    405.50876    376.81487    -672.0291    36638.639 
   63800    296.88342   -1401.2399    398.22834    328.84282   -193.20396    36638.639 
   63900    307.47726   -1388.1119    433.88349    425.15125    49.574976    36638.639 
   64000    300.03182   -1368.9214    431.27499    408.33207    367.36695    36638.639 
   64100    293.75553   -1398.8971     428.0789    347.00406    554.86935    36638.639 
   64200    297.49671   -1415.4613    399.34164    318.48603    -494.8718    36638.639 
   64300    302.59466   -1428.9471    406.51275     335.0413   -282.52013    36638.639 
   64400    293.21688   -1399.7054    417.62501    333.32552    -244.3277    36638.639 
   64500    294.09728     -1411.05    417.22169    325.52716   -454.31219    36638.639 
   64600    304.49995   -1411.3585    408.43608    363.10056   -176.06571    36638.639 
   64700    294.74157   -1401.7587    429.76243    350.24949   -322.52208    36638.639 
   64800    295.52575   -1367.4408    410.61969    368.94264   -489.07647    36638.639 
   64900    300.47566   -1361.5558    395.66523    382.07904   -222.11994    36638.639 
   65000    302.91148    -1392.678    419.85167     386.0707    285.26461    36638.639 
   65100    298.49546   -1364.8885     414.6355    388.83316   -452.48847    36638.639 
   65200    294.43917   -1448.0196    409.55985    282.42948   -611.72437    36638.639 
   65300    297.72161   -1434.4664    410.17058    311.31873   -255.21063    36638.639 
   65400    290.65836    -1422.184    385.33297    267.07696     256.6166    36638.639 
   65500    288.06004   -1431.2685    421.46235    282.46554   -354.66859    36638.639 
   65600    305.01187   -1382.9649    399.11385    384.46856   -361.82679    36638.639 
   65700    297.76939   -1417.3899    415.64132    334.08039   -23.359374    36638.639 
   65800     298.8155   -1410.0387    409.38869    339.87197   -485.44457    36638.639 
   65900    302.63055    -1433.166    412.18688    336.65754    43.697989    36638.639 
   66000    302.94204   -1388.1213    415.26652    386.17929    485.35679    36638.639 
   66100    296.19136   -1435.3594    423.76218    317.15255     89.12876    36638.639 
   66200    296.52234   -1395.9824    416.12602    350.37815   -76.887353    36638.639 
   66300    304.57393   -1409.9553    437.30675    393.70641   -37.991294    36638.639 
   66400    303.99576   -1428.5544    412.51812    347.72491    422.83691    36638.639 
   66500    296.34286   -1421.0273    427.65819    336.06031    759.43459    36638.639 
   66600    303.19193   -1420.2114    436.66395    376.60765    433.27446    36638.639 
   66700    300.59037   -1414.7505    447.26979     381.0035    648.99851    36638.639 
   66800     301.2263    -1450.084    398.71213    299.96514     540.2317    36638.639 
   66900      297.712   -1442.2467    405.57969    298.90446    568.20651    36638.639 
   67000    298.15621   -1452.1926     428.4621    313.83381    128.87771    36638.639 
   67100    304.11269   -1439.7398    425.33115    349.87711     322.4456    36638.639 
   67200    294.90466   -1443.5812    428.14781    307.54401    152.09212    36638.639 
   67300    305.45139   -1437.3885    413.44058    346.34336   -123.62788    36638.639 
   67400    289.41157   -1449.5537    428.89944    277.68051    232.05082    36638.639 
   67500    291.22652   -1443.9145     427.9287    290.49102    -232.0065    36638.639 
   67600    302.43641    -1407.346    430.41935     379.8391    306.19576    36638.639 
   67700     300.2668   -1406.4145    420.93701    361.55514    176.31631    36638.639 
   67800    300.08345   -1438.8003    423.07104    330.48079   -133.24793    36638.639 
   67900      293.706   -1420.6896    427.87943    324.78993   -130.61753    36638.639 
   68000    303.11539    -1455.281    392.94561    297.47641   -303.85408    36638.639 
   68100    297.65643   -1430.0285    426.27155    331.56525   -147.81656    36638.639 
   68200    307.06726   -1444.9623    427.91973    360.49771    -167.0074    36638.639 
   68300    293.22716   -1439.9459    406.06702    281.57309    44.793878    36638.639 
   68400    291.10512   -1458.8008    441.10062    288.23207    85.245165    36638.639 
   68500    289.18969   -1438.9127    428.89841    287.32514   -163.79914    36638.639 
   68600    307.34047   -1419.7482    428.39769    387.41544    577.52714    36638.639 
   68700    297.98464   -1404.8198    442.94492    374.91971    533.47084    36638.639 
   68800    297.99887   -1403.9131    433.69594    366.64129    355.51738    36638.639 
   68900    304.49564   -1404.5524    424.99653    386.44785    163.52426    36638.639 
   69000    303.16886   -1400.5904    440.80416    400.26534    290.68082    36638.639 
   69100     302.9229   -1448.5657    394.64747    305.02997    676.63993    36638.639 
   69200    302.83994   -1441.7424    436.34913     353.1828   -189.31692    36638.639 
   69300    295.58061   -1406.7984    439.58879    358.80024    208.86011    36638.639 
   69400    288.63428   -1483.5568    407.93137    219.22236    339.63121    36638.639 
   69500    292.80381   -1433.0474    437.80123    318.30661    400.89777    36638.639 
   69600     296.4701   -1475.0642    428.46767    283.40368    280.12672    36638.639 
   69700    301.81816   -1483.5713    396.45149    266.87239    597.50159    36638.639 
   69800     300.3337   -1432.8493    426.07337    340.55677     243.0462    36638.639 
   69900    294.74664   -1437.8442    427.09264    311.51698    142.08528    36638.639 
   70000    294.79037   -1446.7896    431.73598    307.41113    100.94696    36638.639 
   70100    294.62022   -1444.6274    415.95495    293.02898    209.46632    36638.639 
   70200     294.5689   -1442.4405    445.60426    324.63493    211.35454    36638.639 
   70300     294.2965   -1439.9605    450.05225    330.34088    138.16117    36638.639 
   70400    297.03623    -1435.141    451.45957    348.85844    242.13828    36638.639 
   70500    293.56325   -1367.3902    449.50916    399.07864    709.26645    36638.639 
   70600    291.25104   -1372.3399    453.06895    387.31593    256.28732    36638.639 
   70700    303.13257   -1413.9265    456.15884    402.12115    679.61909    36638.639 
   70800    297.21143   -1380.6196    454.11932    406.82564    545.14265    36638.639 
   70900    299.01114   -1396.1823    459.98138    405.19868    51.269349    36638.639 
   71000    299.82281   -1419.9047    413.72273    338.85889   -280.34926    36638.639 
   71100    288.24839   -1425.0458    441.06105    309.13191    437.49302    36638.639 
   71200    304.83676    -1397.543    444.05674    414.04778   -57.379404    36638.639 
   71300    303.58984   -1427.4584    412.18323    346.66506   -453.65194    36638.639 
   71400    301.51063   -1383.4267    435.32035    404.50625   -221.20871    36638.639 
   71500     304.6774   -1426.8606    447.87148    387.83005   -178.75875    36638.639 
   71600    306.89427   -1427.0846    439.69552    389.37515    651.60258    36638.639 
   71700    300.50244   -1379.3629    457.20301    425.92983    306.49978    36638.639 
   71800     299.3992   -1371.9626    435.02018    406.19805   -97.143437    36638.639 
   71900    308.62215   -1380.2278    432.40165    436.68954    38.383625    36638.639 
   72000    302.32297   -1383.2546    447.08214    420.08442   -220.86314    36638.639 
   72100     301.4833   -1369.8172    449.08999     431.7628    -432.1242    36638.639 
   72200    294.53467   -1367.9583     446.4627    399.82197   -630.66816    36638.639 
   72300    298.79461   -1402.2415    427.59946    365.78614    40.768037    36638.639 
   72400    293.98687    -1390.836    452.75417    380.77822   -385.66656    36638.639 
   72500    300.23908   -1387.3806    437.71131    397.23896   -1165.0558    36638.639 
   72600       297.58   -1407.0872    437.96695    365.85912   -395.01206    36638.639 
   72700    299.41903   -1430.7015    451.33983    363.86772     104.1408    36638.639 
   72800    310.76293   -1376.5852    443.98475    461.51909    -267.6826    36638.639 
   72900     298.8882     -1425.09    422.93887    338.69693   -494.24423    36638.639 
   73000    297.07786   -1380.7752    432.61102    384.56255    94.694685    36638.639 
   73100    301.29732   -1416.0455    422.05036    357.66053    703.91987    36638.639 
   73200    309.35008   -1401.8241    438.58768    424.54482    998.19193    36638.639 
   73300    302.88213   -1397.4378    447.71346    409.04095   -167.29375    36638.639 
   73400    298.12758   -1407.0726    429.77987    360.14317   -217.59602    36638.639 
   73500    287.52763   -1369.9056    455.46424    375.44187   -940.90104    36638.639 
   73600    296.17848   -1311.2619    444.85724    462.28725   -811.52468    36638.639 
   73700    288.35644   -1384.7881    440.89839    349.71163    -600.6643    36638.639 
   73800     315.2382     -1374.19    440.42349    480.42962   -542.07149    36638.639 
   73900    301.34884   -1348.4109    430.08535    433.56126   -175.04134    36638.639 
   74000    297.50411   -1324.0005    449.41165    460.05009   -62.747279    36638.639 
   74100    306.69668   -1355.4995    436.12118    456.49954   -325.66579    36638.639 
   74200    296.76373   -1364.0173    457.10417    424.40433   -190.99738    36638.639 
   74300    293.46666   -1394.5272    437.75476    359.75395   -180.18684    36638.639 
   74400    300.82789   -1419.0954    437.46129    367.91569   -97.273484    36638.639 
   74500    300.21938   -1404.3258    421.57156    364.06567   -34.278109    36638.639 
   74600    292.47358   -1475.8998    403.18863    239.36014   -334.34966    36638.639 
   74700    293.66345   -1524.6715    408.99088    201.72859   -212.72963    36638.639 
   74800    304.90227   -1506.9102     411.3176    272.23533   -65.754176    36638.639 
   74900    301.80887   -1457.6258    411.80536    308.13005   -175.31271    36638.639 
   75000    299.56738    -1475.475    432.12647     300.5464     48.65536    36638.639 
   75100    300.53252   -1437.8836    454.70575    365.04682    133.65743    36638.639 
   75200    297.93875   -1442.2959    444.64276    338.93561    52.485591    36638.639 
   75300    290.76247    -1476.608    449.38416     277.1712    249.18355    36638.639 
   75400    293.48773   -1420.0272    438.12006    334.71376    569.89457    36638.639 
   75500    297.13334   -1437.7573    427.21061    322.42888   -625.34067    36638.639 
   75600      308.723   -1458.5542    431.30005    357.71403    24.799173    36638.639 
   75700    294.15818   -1488.5393    434.21719    265.30656     359.5385    36638.639 
   75800    297.02327   -1465.3879    448.83319    315.92709    236.76422    36638.639 
   75900    295.97656   -1445.3805    415.53117    297.93676    221.84544    36638.639 
   76000    295.41291   -1447.2575    441.53904    319.53899    154.06062    36638.639 
   76100    298.35412   -1453.8557    428.43267    313.02913    175.32305    36638.639 
   76200     303.9525   -1457.7515    417.92246    323.73807   -111.06608    36638.639 
   76300    307.17125    -1448.808    454.04483     383.2437     3.471826    36638.639 
   76400    306.67007   -1441.3149    445.80544    380.24902   -198.81462    36638.639 
   76500    290.40774   -1464.4511    421.50562    259.85828    -22.21085    36638.639 
   76600    303.25195   -1429.0713    474.14603    405.49912    11.061805    36638.639 
   76700    287.07275    -1433.559    456.36162    310.64521   -14.694409    36638.639 
   76800    302.86758   -1410.4649    420.74751    368.98259    6.3573986    36638.639 
   76900    292.44013   -1395.1076    432.99385    349.80757    220.58921    36638.639 
   77000    300.82185    -1403.964    463.56563     409.1243    37.487702    36638.639 
   77100    299.04321   -1466.0564    438.56151    314.04863   -130.65013    36638.639 
   77200    301.78636   -1494.4307    414.98322    274.40214   -626.65201    36638.639 
   77300    294.60276   -1486.5407    436.88037    271.96273   -617.82794    36638.639 
   77400    302.43952   -1501.7668    434.16972    289.18268   -32.522422    36638.639 
   77500     300.4771   -1457.9997    452.26245    342.23883   -618.93196    36638.639 
   77600    302.33749    -1452.234    453.59295    357.68096   -139.59805    36638.639 
   77700    306.79262   -1427.6374    460.91752    409.58834    166.35146    36638.639 
   77800    297.75618   -1474.5806    427.24325    288.43239    161.01673    36638.639 
   77900    300.98996   -1498.1481    446.52173    298.65046    203.30276    36638.639 
   78000    298.84412   -1471.7601    430.69527    299.58544   -224.96567    36638.639 
   78100    303.51398   -1435.0109    425.52788     352.1169   -13.291659    36638.639 
   78200    301.88607    -1451.707    448.75191    351.34181    -133.7102    36638.639 
   78300    309.70052    -1501.676     450.6952    338.37261    688.17018    36638.639 
   78400    292.15157   -1500.7586    434.84911    244.71729    123.50726    36638.639 
   78500    290.79064   -1492.7579    424.63231    236.39583   -311.84601    36638.639 
   78600    304.83525   -1457.9964    427.61886    337.14977    480.96111    36638.639 
   78700    297.82096   -1441.8924    444.22366    338.39154    160.81888    36638.639 
   78800    308.08276   -1427.3293     433.9397    388.70636   -67.011103    36638.639 
   78900    300.15104   -1417.0092    438.49088    367.99503   -4.3237418    36638.639 
   79000    301.21038   -1403.4741    455.51533    403.30692   -94.668955    36638.639 
   79100    289.02274   -1415.3884    448.40656    329.60862    77.517063    36638.639 
   79200    290.57796   -1396.9184    474.83081     381.4797    479.82093    36638.639 
   79300    294.95123   -1397.8695    430.03549    355.35235    401.09597    36638.639 
   79400    303.29163   -1451.2897    436.39267    345.70539   -9.6648626    36638.639 
   79500    310.58643   -1445.0138    453.98271    402.29669   -178.66783    36638.639 
   79600    288.58132   -1477.1511    460.27118    277.73032   -174.86501    36638.639 
   79700    300.76563   -1428.4501    445.42556    366.24584    196.75338    36638.639 
   79800    295.08157   -1472.3668    434.91125     286.3155   -128.15499    36638.639 
   79900    298.54139   -1434.9603    428.40553    332.73749   -197.48907    36638.639 
   80000    311.27793   -1455.1006    402.22614    343.55539   -150.16807    36638.639 
   80100    300.00298   -1489.9369    386.18133    242.09355   -584.32434    36638.639 
   80200    296.15488   -1512.0201    448.78204    265.34797   -848.51987    36638.639 
   80300    307.75125   -1468.9955    412.51591    324.12923    -283.4794    36638.639 
   80400    303.17663    -1462.123    420.44406    318.40749   -710.83786    36638.639 
   80500    287.17739   -1483.2566    429.95129    235.00673   -56.002735    36638.639 
   80600    297.31578   -1450.1346    417.90681    301.56624    464.23649    36638.639 
   80700    298.20043   -1452.2427    438.53997    324.05997    115.91911    36638.639 
   80800    292.54585   -1500.3806    441.14822    253.16313    116.54058    36638.639 
   80900    287.85882   -1467.1296    449.82654    274.06585   -489.49259    36638.639 
   81000    303.70899    -1440.045    436.02951    358.45919    -60.99079    36638.639 
   81100    288.55093   -1420.8379    422.87849    296.51437    108.95847    36638.639 
   81200    272.04003   -1438.7895    443.09571     224.7102   -452.94886    36638.639 
   81300    255.69198   -1446.1414    492.77049    193.69381   -65.555388    36638.639 
   81400    309.54629   -1447.3046    436.98399    378.34093   -393.06849    36638.639 
   81500    311.18156   -1416.6469    446.29661    425.64729   -461.99005    36638.639 
   81600    304.35901   -1402.2094    452.51545     415.6968   -38.404345    36638.639 
   81700    289.48483   -1421.0062    449.55305     327.2103   -371.22514    36638.639 
   81800    306.63308   -1392.9305    433.26462    415.92662    86.383781    36638.639 
   81900    300.84733   -1439.5788    454.47803    364.53624    557.91961    36638.639 
   82000    303.84643   -1470.9713    444.45316    336.57316    519.82954    36638.639 
   82100    297.93117   -1461.9758     466.7045    341.28341    621.03553    36638.639 
   82200    298.41984   -1448.7661    433.59189    323.57279    458.83946    36638.639 
   82300    297.24846   -1470.3096    441.40007    304.58247     748.3517    36638.639 
   82400    301.12325   -1441.6904    447.83322    357.01759    726.45536    36638.639 
   82500    291.43756   -1445.6383    449.54165    311.32698     579.5093    36638.639 
   82600    297.32122   -1506.0026    434.85594    262.67177    28.732623    36638.639 
   82700    297.72671   -1502.1209    446.38362    279.90023     182.4346    36638.639 
   82800    298.72092   -1519.3043    423.34267    244.13599    213.43455    36638.639 
   82900    297.79787   -1512.0891    414.77947    238.64715    401.94775    36638.639 
   83000    296.85276   -1543.3819    446.39257    234.72753    169.31406    36638.639 
   83100    291.83664   -1477.7057    428.36012    259.86832   -235.37583    36638.639 
   83200    300.12817   -1519.9682    433.23675    259.67929    -369.1232    36638.639 
   83300    301.00354   -1497.4265    438.55184     291.4631   -111.76444    36638.639 
   83400    300.06122   -1467.4903    440.42794    319.04801   -437.27861    36638.639 
   83500    299.92373   -1475.1899     460.4485    330.75221   -342.27536    36638.639 
   83600    306.88176   -1477.6298    431.92799    331.00637   -284.68565    36638.639 
   83700    299.04669   -1526.9322    461.13482    275.76171    -50.73277    36638.639 
   83800      298.617   -1507.9967    442.29426    273.92894    63.671869    36638.639 
   83900    307.06293   -1467.2826    440.73987     350.9781    172.20457    36638.639 
   84000    294.53035   -1500.4696    443.06686    263.89547    59.564958    36638.639 
   84100    309.16036   -1520.7948    439.21205    305.34747    147.21636    36638.639 
   84200     298.0808    -1505.032    442.85384    275.04776    698.01418    36638.639 
   84300     306.7142   -1513.5275    448.67912    311.10808    968.72558    36638.639 
   84400    296.19492   -1488.2285    456.41432    296.95147    766.72631    36638.639 
   84500      298.925   -1493.6727    448.19335    295.53385    389.07526    36638.639 
   84600    295.08108    -1504.367    447.88233    267.28421    614.37549    36638.639 
   84700    308.22115   -1481.0322    443.23466    344.91924    450.38937    36638.639 
   84800    298.80049   -1468.3544    471.89598    343.99619   -119.14367    36638.639 
   84900    299.33254   -1484.0035      449.497     308.3349   -269.59367    36638.639 
   85000    295.17111    -1435.962    452.41571    340.62649    692.34572    36638.639 
   85100    294.37402   -1470.6137    481.28397    331.26721    368.58624    36638.639 
   85200    304.38747   -1460.2934    448.04353    353.26861   -115.32658    36638.639 
   85300    310.72086   -1471.5669    457.55844    379.92239    323.87904    36638.639 
   85400    294.30171   -1487.8637    447.69683     280.1057    -107.4377    36638.639 
   85500    298.41272   -1472.1509    460.26842    326.83251   -21.674073    36638.639 
   85600    297.39591   -1495.2621    444.80753    283.69893    194.40775    36638.639 
   85700    308.83508   -1471.8807    451.52315    365.11337    78.775143    36638.639 
   85800    301.53238   -1471.3854    455.66651    336.99128   -357.97818    36638.639 
   85900    302.66724   -1487.4314    427.01231     297.3822    -673.0232    36638.639 
   86000    304.73245   -1446.9625    460.47384    380.57742    -208.4314    36638.639 
   86100    312.35523   -1468.2921    477.49938    410.47006   -248.57366    36638.639 
   86200      295.655   -1434.6895       482.38    374.03403   -189.09388    36638.639 
   86300    306.68676   -1448.8864    469.99835    396.94525    440.67275    36638.639 
   86400    294.71077   -1482.3198    465.06181    304.84968    311.43805    36638.639 
   86500    291.96963   -1525.3929    441.65422    226.07187    252.20587    36638.639 
   86600    304.57719   -1540.4732    437.01311     262.9095   -354.67316    36638.639 
   86700    303.56341   -1523.6472    440.88567    279.06008   -29.642284    36638.639 
   86800     299.4394   -1512.8332     470.4596    300.94719    77.604804    36638.639 
   86900    292.11819   -1495.8142    458.84226    273.50507   -527.99385    36638.639 
   87000    306.44016   -1497.5685    450.46362     327.6222   -260.87269    36638.639 
   87100    294.00558   -1508.8432    461.85493    271.95579   -775.88921    36638.639 
   87200    294.92779   -1532.6638    434.91483    225.33221   -625.11697    36638.639 
   87300    299.42014   -1487.3519    439.51505    295.39757   -634.78639    36638.639 
   87400    298.82857   -1537.0716    466.70701    270.21599    356.01838    36638.639 
   87500    299.14846   -1514.8818    459.83023    286.96401    431.23653    36638.639 
   87600    295.24332   -1479.5892     463.5748    308.48226    122.04528    36638.639 
   87700    299.10018   -1481.6656    451.45512    311.58854    644.59777    36638.639 
   87800     292.7585   -1524.2804    435.08675    224.15586    105.40845    36638.639 
   87900    295.30549   -1496.4338    433.17604    261.51784    135.17541    36638.639 
   88000    293.64174   -1548.6471    452.63887    221.30362   -235.13663    36638.639 
   88100    299.85032   -1478.1378    437.84451    304.87094    303.92519    36638.639 
   88200    294.66746   -1518.4404    459.02742    262.50038    113.57151    36638.639 
   88300    294.19853   -1510.4233    462.29123    271.67756    798.90001    36638.639 
   88400    302.12167   -1496.3634    433.91449    292.90489    401.94791    36638.639 
   88500     298.3695   -1500.9225    418.45246    256.05112   -240.06097    36638.639 
   88600    302.97659   -1474.4989    457.00783    341.69803   -692.08151    36638.639 
   88700    295.81051   -1473.4302    428.30211    281.91311   -126.86929    36638.639 
   88800    303.83058   -1438.9939    482.03417    406.06044   -51.238626    36638.639 
   88900    304.92454   -1501.9233    467.84123    333.84572    456.49707    36638.639 
   89000    305.92323   -1495.7939    477.71713    354.33123     909.8618    36638.639 
   89100     293.6782   -1473.2096    451.27721    295.54301    773.91181    36638.639 
   89200    300.14797   -1473.3753    435.91424    309.03849    1095.4877    36638.639 
   89300    307.94423   -1475.1369    486.46306    392.80063    897.16592    36638.639 
   89400    305.28112   -1464.3896    469.77238    374.91023   -6.0356653    36638.639 
   89500    307.02171   -1473.5245    447.07993    350.89136    79.753173    36638.639 
   89600    296.77354    -1476.037     445.1436    300.46806   -159.01219    36638.639 
   89700    298.56641   -1471.5852    463.80955    331.62881   -420.64749    36638.639 
   89800    308.43793   -1513.2701    449.33357    319.75279   -960.42058    36638.639 
   89900     302.3523   -1457.3704    455.85598    354.87397     -112.363    36638.639 
   90000     306.8487   -1460.2066    466.06643    382.41971   -142.22192    36638.639 
   90100     299.1697   -1471.3702    456.57387    327.31452   -50.424008    36638.639 
   90200    287.12244    -1465.044    452.20796    275.22943   -156.75255    36638.639 
   90300    309.81572   -1453.3781    463.60811     400.1002    338.65734    36638.639 
   90400    301.95564   -1448.3996     459.9749    366.18427    202.69872    36638.639 
   90500    302.59208   -1444.6513    464.81146    377.62432    165.69149    36638.639 
   90600    301.99374   -1478.0332    476.01151    352.75818   -122.13617    36638.639 
   90700    304.37827   -1470.5647    441.85311    336.76553   -7.6906303    36638.639 
   90800    298.99079   -1481.6612    466.71989    326.36696   -302.99807    36638.639 
   90900    301.16407    -1478.684    440.89921    313.27312   -1051.4737    36638.639 
   91000    296.52275    -1500.663    442.27104    271.84445   -573.98245    36638.639 
   91100    302.27891   -1438.4994    447.48488    365.04472   -545.11287    36638.639 
   91200    302.77791   -1484.0391    456.02995    330.28864   -850.71784    36638.639 
   91300    308.73886   -1480.1737    471.27067    376.13627   -479.74018    36638.639 
   91400    306.96092   -1470.6936    460.04004    366.40968   -430.54502    36638.639 
   91500    288.36601   -1521.2724    437.17757    209.54945    529.08694    36638.639 
   91600    295.32149   -1439.4438    451.90664    337.31027    298.89245    36638.639 
   91700     293.7021   -1448.9794    467.78392    336.38708    565.40705    36638.639 
   91800    304.71917   -1495.2538    453.75861    325.51132    519.17019    36638.639 
   91900    307.57555   -1485.4234    460.72709    355.12428    721.42169    36638.639 
   92000    284.86797   -1503.9891    492.03493    265.99746    1069.0885    36638.639 
   92100    308.15546   -1496.4046    466.38662    352.40411     1082.276    36638.639 
   92200    306.70332   -1498.5053    473.48774    350.89011    997.30168    36638.639 
   92300     287.8835   -1484.1365    468.48306    275.82628    445.60211    36638.639 
   92400    301.17145   -1491.9976    461.91832    321.01173    518.06723    36638.639 
   92500    310.95552    -1499.045    443.55091    339.48938    554.64847    36638.639 
   92600    296.83332   -1507.0505    452.82309    277.40221    747.66489    36638.639 
   92700      295.173   -1505.3641    464.16154    282.97865    1230.0583    36638.639 
   92800    298.90201   -1464.1101    476.96561    353.76553    766.28103    36638.639 
   92900    296.15352   -1470.2957    462.27408    320.55835    921.26139    36638.639 
   93000    297.22591   -1484.3237    455.90266    304.96979    134.30085    36638.639 
   93100    299.13089   -1473.7112     463.5948    331.82047    644.27124    36638.639 
   93200    295.23668   -1476.0504    472.50856    320.92514    144.16845    36638.639 
   93300    311.52451   -1466.7964     459.4358    390.17551    416.69107    36638.639 
   93400    294.09909   -1477.1258    455.06019    297.29796   -177.18111    36638.639 
   93500    301.32815   -1464.5608    475.72124    362.95436   -360.01476    36638.639 
   93600    292.05569   -1446.6592    480.19975     343.7372    191.77432    36638.639 
   93700    301.15411   -1476.4429    484.28479    358.85513    486.62262    36638.639 
   93800    293.95113   -1445.3833    462.29923    335.61574    304.27546    36638.639 
   93900    298.08339   -1450.0746    479.77276    366.93572    431.92779    36638.639 
   94000     304.5096   -1455.2921    442.47665    353.25092    903.18534    36638.639 
   94100    306.98601   -1413.0636    455.75634    419.86853    440.75893    36638.639 
   94200    301.21265     -1429.02    496.88469    419.14046    67.625019    36638.639 
   94300    290.27151   -1463.9214    445.62828    283.89943   -191.50104    36638.639 
   94400    298.65824   -1444.1207    469.70226      365.398   -369.38186    36638.639 
   94500    297.49183   -1449.3164    466.08286    351.35023   -584.98702    36638.639 
   94600    290.06627   -1458.9152    463.08095     305.4376   -977.49043    36638.639 
   94700    315.08549   -1472.4317    485.26899    426.34836   -1195.2195    36638.639 
   94800    296.40247   -1497.4183    433.08444     265.3629   -87.805069    36638.639 
   94900    298.25698   -1527.0998    483.14057    294.05711    337.91026    36638.639 
   95000    304.55938   -1567.2857    474.16201      273.166    647.84585    36638.639 
   95100    296.22082   -1523.9028    489.81253    294.79157    741.63782    36638.639 
   95200    305.30632   -1493.8877    463.77217    339.52499    820.67802    36638.639 
   95300     296.4384   -1525.0006    474.01734    278.87467    454.99407    36638.639 
   95400    285.11044    -1539.816     457.7296    196.95306    -221.7396    36638.639 
   95500    307.00363   -1527.5673      465.954    315.64157     144.9413    36638.639 
   95600    294.75271   -1512.9612    463.44711    272.78167   -667.09209    36638.639 
   95700     303.0487   -1505.4276    437.80845     291.8934   -293.29769    36638.639 
   95800    306.68541   -1477.7815    466.14271     364.1885   -611.94175    36638.639 
   95900    306.22441   -1499.3875    477.54001    351.91174   -290.16598    36638.639 
   96000    299.22917   -1525.2298    466.31036    283.45823    331.28749    36638.639 
   96100    295.68165   -1543.5718    460.87922    243.77049    -387.9652    36638.639 
   96200    309.92558   -1526.6581    467.87301    331.57801    312.76554    36638.639 
   96300    304.13352   -1511.2134    462.48247    315.64821    298.23355    36638.639 
   96400    302.38128   -1512.8884    463.35201    306.98205    609.05081    36638.639 
   96500    295.95577   -1543.3993    472.85264    257.14623    7.0512673    36638.639 
   96600    310.69125   -1551.5466    446.20869    288.46003    143.36947    36638.639 
   96700    293.70781    -1529.961     441.7567    229.40391    101.35762    36638.639 
   96800     300.6614    -1526.621    447.05924    269.24111    23.277109    36638.639 
   96900     305.0664   -1506.8849    472.86578    334.54513   -559.11419    36638.639 
   97000    290.20862   -1522.7593    462.55613    241.70731   -864.46828    36638.639 
   97100    307.17301    -1498.074    456.48771    336.42845   -301.72697    36638.639 
   97200    312.41963    -1483.259    474.61641    392.90907   -176.63381    36638.639 
   97300    301.10637   -1492.2475    463.04196    321.59357    170.37918    36638.639 
   97400    300.02867   -1513.6436    473.99688    306.31766   -126.71935    36638.639 
   97500    304.45765   -1503.4988    485.03777    347.37228    656.29275    36638.639 
   97600    295.66593   -1521.9663     448.7017    253.12797    265.05569    36638.639 
   97700    301.86633   -1520.5216    451.27039    284.95707    33.536108    36638.639 
   97800    305.05984   -1485.7616    459.70097     342.4742   -103.75732    36638.639 
   97900    305.26009   -1537.5325    448.04349    279.94412    127.59029    36638.639 
   98000    295.44745   -1549.0647    441.27732    217.62505    490.93366    36638.639 
   98100    290.77496   -1542.0561    477.12582    239.52083    554.66477    36638.639 
   98200    298.64371   -1496.3879    476.87015    320.23353    478.09663    36638.639 
   98300    302.97737   -1524.0372    467.29057    302.44594    484.96536    36638.639 
   98400    301.54641   -1519.4348    462.95938    296.29768    330.71315    36638.639 
   98500    298.52088   -1500.0025     465.3032    304.50088    829.05981    36638.639 
   98600    299.62273   -1515.3602    459.28695    288.07006    194.94994    36638.639 
   98700    294.36767   -1497.7771     482.7675    305.55884   -662.47977    36638.639 
   98800    300.30926   -1514.5424    478.40867    311.08941    153.76134    36638.639 
   98900    309.29846   -1537.1943    456.39469    306.75011   -186.34192    36638.639 
   99000    309.66782   -1470.7175    436.50888    354.99809     237.5414    36638.639 
   99100     293.2924   -1502.6777    470.48164    283.54862    219.86449    36638.639 
   99200    298.10131   -1511.2825    481.64731    307.68281   -19.076026    36638.639 
   99300    298.12391   -1506.2195    478.85283    310.05269   -608.28411    36638.639 
   99400    298.00762   -1486.0313    454.57753    305.44394   -555.86453    36638.639 
   99500    316.89052   -1487.4186    427.18709    361.37707   -690.52073    36638.639 
   99600    298.46154   -1510.4927    448.19442    276.63577     113.4671    36638.639 
   99700     295.0859   -1552.0203     477.5687    249.33891    148.44633    36638.639 
   99800    289.39061   -1577.7859    463.48616    183.94107    640.03014    36638.639 
   99900    315.95961   -1537.3137    448.53377    328.65249    903.95357    36638.639 
  100000    294.89311   -1519.4483    451.97478    255.45214    216.80368    36638.639 
  100100    310.33524   -1529.1978    481.31423    344.31733    150.41512    36638.639 
  100200    300.80007    -1529.441    477.75295    297.73693   -166.49676    36638.639 
  100300    307.97179   -1502.7433    456.28147    335.13627     553.2702    36638.639 
  100400    313.06995   -1552.4443    465.66342    317.68824    336.68228    36638.639 
  100500    302.72095   -1546.2644    461.57562     273.3535    164.02036    36638.639 
  100600    304.25412    -1563.246    446.75902    248.43323    489.30659    36638.639 
  100700    289.49627    -1507.921      436.566    227.35968   -219.83274    36638.639 
  100800    305.80657   -1490.4787    456.74922    338.15525   -414.83526    36638.639 
  100900    302.72955   -1505.9085    464.34609    316.51837    105.77441    36638.639 
  101000    290.35151    -1519.415    490.03912    273.17556   -310.66023    36638.639 
  101100    306.02537   -1512.2773    465.20881    325.79781    252.73731    36638.639 
  101200    306.30769   -1467.7316    497.47809    403.87925    201.28967    36638.639 
  101300    294.14634   -1476.5295      485.672    328.71796    247.29688    36638.639 
  101400    303.22862   -1480.7447    468.54563    348.12061     55.85273    36638.639 
  101500    310.49187   -1463.4125    482.32914    411.82013    393.38153    36638.639 
  101600    297.85129   -1472.0306    485.29113     349.4569     131.6169    36638.639 
  101700    303.95629   -1480.6643    454.78705    337.70683    312.42981    36638.639 
  101800      295.748   -1497.3596    463.21374    292.61492   -4.1692765    36638.639 
  101900    301.02343   -1523.5918    462.22435    289.05952    254.94238    36638.639 
  102000    307.74738    -1522.882    480.27206    337.98149    501.34915    36638.639 
  102100    294.75802   -1474.1247    470.16223    318.35709    221.24423    36638.639 
  102200    304.95105   -1493.7802    459.41492    333.68144   -245.21243    36638.639 
  102300    305.59528   -1486.7346    452.04088    336.24315     44.02007    36638.639 
  102400    291.58341   -1526.4774    454.45269    236.05317   -180.26445    36638.639 
  102500    288.56922   -1448.5466    476.91078    322.92012    207.56644    36638.639 
  102600    304.64483   -1497.9105      449.626    318.38849   -494.73405    36638.639 
  102700    289.74668   -1472.2107    469.80172    297.42913    170.89843    36638.639 
  102800    303.68289   -1458.5009    479.55276    383.40944    239.85356    36638.639 
  102900    296.97261   -1460.3119    473.32578    345.26836     417.3219    36638.639 
  103000    288.32602   -1479.5496    447.26084    261.17614   -14.628365    36638.639 
  103100    306.00723   -1459.5727     493.7016    406.91377   -518.62328    36638.639 
  103200    294.38617    -1440.953     454.3932    334.09162   -526.52362    36638.639 
  103300     298.5361   -1462.6332    458.67393    335.30928    120.09923    36638.639 
  103400    302.42074   -1492.1171    458.67155    323.24994   -216.91155    36638.639 
  103500    302.81864   -1488.1241     492.1662    362.52254   -221.55123    36638.639 
  103600    300.34331   -1482.5246     452.7908    317.64205   -395.20651    36638.639 
  103700    297.97596   -1489.7554    446.25909     293.2593   -428.37619    36638.639 
  103800    293.98673   -1467.1675     498.2753    349.96728   -375.63645    36638.639 
  103900    302.05633    -1503.577    448.41325    299.89695   -124.40898    36638.639 
  104000    296.12226   -1498.7672    449.01902    278.69159    141.06341    36638.639 
  104100    304.60949   -1471.7216    432.48601    327.27883    319.83882    36638.639 
  104200    304.97227   -1508.4138    459.13257    318.86066    508.19694    36638.639 
  104300    293.24583   -1492.6525    454.23484    277.11804    550.96546    36638.639 
  104400    298.11967   -1495.8127    443.77293    285.36055   -369.67906    36638.639 
  104500    302.38836   -1480.5659    463.13903    339.12338   -94.366751    36638.639 
  104600    287.79982   -1454.5898    484.99821    321.51263   -439.04874    36638.639 
  104700    303.27745    -1498.644    463.26659     325.1614   -356.78201    36638.639 
  104800    301.88393   -1514.5456    432.58315    272.32483   -316.39908    36638.639 
  104900    301.91869    -1479.889    426.60377    301.15794   -201.80052    36638.639 
  105000    292.60982   -1498.3029    445.96458    260.34423   -119.07309    36638.639 
  105100    298.21867   -1482.8553    447.28044    302.26964   -71.742579    36638.639 
  105200    302.55258   -1483.4933     455.8398    329.63341   -37.114133    36638.639 
  105300     295.1404   -1440.3327    448.18066    331.88294   -205.91809    36638.639 
  105400    304.63218   -1452.9843    432.90526    346.53718   -454.85162    36638.639 
  105500    302.74085    -1448.536    458.38847    367.98397   -835.92904    36638.639 
  105600    304.64385   -1465.6365    453.28242    354.31451   -248.04073    36638.639 
  105700    300.65371   -1440.1928    467.62332    376.19889    105.75873    36638.639 
  105800     296.3884   -1469.1422    492.75696    353.24844   -470.81924    36638.639 
  105900    285.55496   -1479.7529    464.61443    265.89516   -255.71085    36638.639 
  106000    303.93986   -1494.3737    455.05407    324.19085   -80.995958    36638.639 
  106100    307.11692    -1480.821    434.33589    331.27801   -442.99749    36638.639 
  106200    287.84576   -1473.3501    476.89387    294.85409   -310.40647    36638.639 
  106300    297.27088    -1476.748    448.34297    305.18758    9.4766535    36638.639 
  106400    293.24415   -1464.3632    440.21916    291.38417   -101.34921    36638.639 
  106500    290.18529   -1483.6065    428.78732    246.98658   -37.160569    36638.639 
  106600    292.80061   -1489.9219    454.97317    278.58974   -341.88168    36638.639 
  106700    299.70698   -1506.2089    448.56191    286.87423     133.2587    36638.639 
  106800    295.83504   -1510.7006    459.90675    276.35733   -171.98423    36638.639 
  106900    301.57864   -1479.3777    471.67365     345.2137    46.889206    36638.639 
  107000    294.63132   -1492.9035    486.64851    315.49623    180.83902    36638.639 
  107100    292.83077   -1530.3257    461.51951    244.86755   -132.80825    36638.639 
  107200    308.03205   -1501.0763    468.13865    348.93081    658.60335    36638.639 
  107300    299.68076   -1509.9861    458.19504    292.61253    409.37505    36638.639 
  107400    305.99411   -1506.2362    478.76441     345.2542    911.57012    36638.639 
  107500     303.2662   -1520.3471    463.38704    303.52826     701.2445    36638.639 
  107600    310.57263    -1510.239    451.76297    334.78977    455.18251    36638.639 
  107700    299.90953   -1509.1992    465.57408    301.80478   -318.77511    36638.639 
  107800    297.52197   -1498.9068     437.3613    273.17347    430.72936    36638.639 
  107900    309.72954   -1482.6209    478.05698    384.91967    208.51895    36638.639 
  108000    282.64623   -1497.0468    442.59967    213.53756    307.72884    36638.639 
  108100    300.62639   -1505.4048    456.27744    299.51847   -229.16611    36638.639 
  108200    302.36781    -1487.977    450.46367    318.94463    -438.0256    36638.639 
  108300    304.19666   -1484.2317    459.80123    340.23195    229.19778    36638.639 
  108400    296.03099   -1480.3496    468.67965    316.36028   -58.096382    36638.639 
  108500    312.07063   -1516.9107    444.47895    327.55432   -76.958397    36638.639 
  108600    296.81911   -1494.0495    454.36211    291.87846    161.46089    36638.639 
  108700    307.75628   -1525.1314     480.9775    336.47748    163.82497    36638.639 
  108800    293.44724   -1502.5192    446.79696    260.71702   -104.40825    36638.639 
  108900    301.04561   -1501.9343    431.26371    279.85583   -478.76778    36638.639 
  109000    305.18128   -1528.4265    463.11554    303.76865     249.8545    36638.639 
  109100    293.83395   -1519.8998    423.93421    222.20851   -239.40903    36638.639 
  109200    288.41151   -1493.4054    466.34796    266.79097   -338.18504    36638.639 
  109300    299.03213   -1486.7917    450.04778     304.7499   -260.38043    36638.639 
  109400    305.91895   -1519.3147    456.00293    309.07714    618.97095    36638.639 
  109500    300.03275   -1528.4866    429.83253    247.32861     133.7965    36638.639 
  109600    307.07734   -1518.0973    468.77912    328.26731    352.94283    36638.639 
  109700    293.31776   -1490.7016    451.33478    276.49161    429.43381    36638.639 
  109800    294.16595   -1518.1837    464.86704    266.34685    112.27477    36638.639 
  109900    289.28184   -1490.9444    455.34915     262.1576   -21.321029    36638.639 
  110000    300.45333   -1532.8353    476.29539    291.32948    136.23757    36638.639 
  110100    293.04564   -1550.6546    441.31871    205.30183    162.58415    36638.639 
  110200    301.88282   -1541.1631    463.66879    276.78797    132.70767    36638.639 
  110300    296.09732   -1492.3497    459.24259    295.22069    291.73632    36638.639 
  110400     294.7523   -1489.3219    471.38209    304.35419    355.04598    36638.639 
  110500    299.47933    -1508.379    452.94165    288.06257    434.15583    36638.639 
  110600    305.09538   -1550.1476    441.87409    260.42077    136.96991    36638.639 
  110700    303.45562   -1508.8588    444.11161    296.59086   -75.607215    36638.639 
  110800    307.17947   -1466.5042    450.71406    362.25355   -192.46795    36638.639 
  110900    288.47006   -1494.7795    427.21122    226.54283   -272.88263    36638.639 
  111000     309.9219   -1523.1223    450.09247    317.31679   -443.44096    36638.639 
  111100    296.78033   -1491.0514    436.47164    276.81209   -980.83771    36638.639 
  111200    282.95932   -1480.7087    488.04409     276.7246   -643.86023    36638.639 
  111300    309.31845   -1499.9298    449.94453    337.65413   -448.58333    36638.639 
  111400    290.65722   -1483.1565    441.88035    262.64676   -645.03465    36638.639 
  111500    292.00931   -1494.4707    454.28651    269.80442   -324.58253    36638.639 
  111600     309.5828   -1494.8572    453.01263    346.98075    145.54867    36638.639 
  111700    290.25167   -1469.6145    460.84892      293.338    248.65571    36638.639 
  111800    299.83781   -1508.7244    462.76691    299.15068    183.11513    36638.639 
  111900    303.69281     -1471.19    461.53083    352.74291    428.77727    36638.639 
  112000    307.70465   -1468.0026    453.33261    365.72971   -333.16577    36638.639 
  112100     311.3167   -1453.1494     456.3214     399.7758   -54.768403    36638.639 
  112200    305.32706   -1442.8595    454.77245    381.64649    335.04395    36638.639 
  112300    298.94077   -1458.3136    486.21794    368.98821   -220.02346    36638.639 
  112400    297.44879   -1461.1321    473.97402    347.23268    30.892897    36638.639 
  112500    298.10746   -1479.4911    442.19383     300.0483   -224.12594    36638.639 
  112600    292.81642   -1464.1194    460.45993    309.94983   -660.90595    36638.639 
  112700    308.87999   -1490.5783    454.95311    350.04719    39.788997    36638.639 
  112800     296.5781   -1467.9527    463.22773    325.75968   -261.67377    36638.639 
  112900    293.40322   -1480.2688    475.45115    311.42413   -358.89707    36638.639 
  113000    307.38637   -1528.2828    470.30757    320.99667    383.37423    36638.639 
  113100    292.71907   -1536.8882    456.04254    232.32694   -64.145702    36638.639 
  113200    301.32643   -1481.4279    417.53223    287.89054   -539.09372    36638.639 
  113300    301.90836   -1512.6104    479.97829    321.76474   -636.24437    36638.639 
  113400    304.40535    -1462.471    476.37845    379.50609   -415.97774    36638.639 
  113500      293.349   -1455.6322    457.85982    318.22614     -158.124    36638.639 
  113600    303.54041   -1478.6836    497.77154    380.80641    -272.4366    36638.639 
  113700     287.5099   -1491.4004    422.74055    221.14381   -539.66653    36638.639 
  113800    294.32052    -1502.953    451.47283    268.87676   -16.912909    36638.639 
  113900    299.67339   -1525.0323    481.28696    300.62516     73.00458    36638.639 
  114000    294.90865   -1479.7831    456.76139    299.97364   -63.696006    36638.639 
  114100    309.93223   -1486.0564    443.11085    347.44733    146.43756    36638.639 
  114200    294.82741    -1527.639    452.90078    247.89266   -851.04765    36638.639 
  114300    297.78688   -1514.8358    443.96894    265.04052    87.063672    36638.639 
  114400    297.67928   -1544.3378    449.88967    240.97657    283.42521    36638.639 
  114500    296.89358   -1529.3268    460.12738    262.70054    615.65034    36638.639 
  114600    304.96904   -1532.0337    462.00189    298.09559     553.5118    36638.639 
  114700    298.58573   -1501.8142    474.46148    312.13838    438.85103    36638.639 
  114800    298.39553   -1522.7648    441.81849     257.6916    677.53456    36638.639 
  114900    295.64305   -1523.7393    446.08401    248.63464     888.6546    36638.639 
  115000    297.77349   -1495.7865    475.99021    316.05109    374.12058    36638.639 
  115100    300.32863     -1509.47    458.75503    296.59502    260.50859    36638.639 
  115200    296.01318   -1521.4992    470.69053    277.14169   -64.744732    36638.639 
  115300    292.58598    -1498.671    447.59957    261.50411    385.86349    36638.639 
  115400    306.85791   -1490.5004    466.92945    353.03017   -12.747049    36638.639 
  115500    293.32779   -1489.5106    457.38184    283.77464   -350.32878    36638.639 
  115600    287.74048   -1520.9194      464.402    234.32062    222.53688    36638.639 
  115700    304.03539   -1554.5598    459.08278    268.46193    377.15465    36638.639 
  115800     301.7302   -1539.9264    474.39283    288.06406    -19.04748    36638.639 
  115900    294.23015   -1500.0314    473.19547     293.1156   -69.285606    36638.639 
  116000    295.74368   -1492.5671    442.00202    276.17628   -515.07105    36638.639 
  116100    297.25682   -1511.1788    455.16147    277.51217    -868.6719    36638.639 
  116200    300.53213   -1508.7796    438.21769    277.66104   -85.681352    36638.639 
  116300    295.62993   -1534.3149    434.31847    226.23466    224.28115    36638.639 
  116400    299.64124   -1513.6345    436.91268    267.50446   -199.16842    36638.639 
  116500    295.00435   -1514.9696    445.19959    253.65462     -288.275    36638.639 
  116600    298.41133   -1486.6792    458.91066    310.94029    106.59852    36638.639 
  116700    298.43136   -1458.0347    480.17899    360.94289    418.74308    36638.639 
  116800    298.09832    -1423.479    468.36439    382.18996    105.78206    36638.639 
  116900    305.38832   -1495.4388    463.49674    338.06632   -73.467614    36638.639 
  117000    292.69248   -1506.5577    451.90274    258.39836   -416.51213    36638.639 
  117100    308.01065   -1460.8035    447.89704    368.86596   -180.83011    36638.639 
  117200    298.59272   -1461.1545     472.3175    350.68549   -251.29898    36638.639 
  117300    310.89946   -1428.8963     469.7877    435.62339   -237.46845    36638.639 
  117400     299.9015   -1437.7162    451.40958    359.08727     121.5804    36638.639 
  117500    302.60456   -1431.8876    473.40453    399.03703    298.83271    36638.639 
  117600    309.55203   -1454.9385    484.27154    418.02035    710.90348    36638.639 
  117700    303.93027   -1450.9902    490.80013    403.27738    199.79864    36638.639 
  117800    311.14319   -1481.1755    460.98766    375.63763    418.61813    36638.639 
  117900    309.66663   -1457.9041    459.51194    390.80919   -147.91403    36638.639 
  118000    299.28455   -1485.4826     449.1931    306.33669   -168.61772    36638.639 
  118100    299.99246   -1492.1942    456.59346    310.20116    25.295756    36638.639 
  118200    308.91215   -1465.5473     470.0999    390.36935   -241.81175    36638.639 
  118300    297.66131    -1486.017    479.74887    329.07602   -642.95104    36638.639 
  118400    312.48347   -1459.3908    464.95927    407.40654    711.92867    36638.639 
  118500    305.57384   -1475.4598    473.28313    368.66403    444.77587    36638.639 
  118600    293.67999   -1471.2563    501.45158    347.67875    200.09625    36638.639 
  118700    303.42241   -1450.1343    460.84152    371.89627    570.26813    36638.639 
  118800    306.59799   -1474.2954    459.88959    361.02924   -34.074128    36638.639 
  118900    299.61625   -1498.6066    477.50349    323.01104     218.5013    36638.639 
  119000    303.00803   -1474.3355    476.25459    361.24925   -152.15941    36638.639 
  119100    294.51708   -1443.8371      473.002    350.40366   -603.29487    36638.639 
  119200    305.74424   -1440.2642    457.21677    388.55763   -214.32352    36638.639 
  119300    297.62043   -1481.2574     456.5254    310.42869   -414.88974    36638.639 
  119400    308.99414   -1498.0317    473.36859    361.52144    102.23679    36638.639 
  119500    300.23063   -1475.1583    481.66956    353.38159    442.53267    36638.639 
  119600    304.74691   -1505.0826    472.34244     334.3908   -106.42463    36638.639 
  119700    300.09909   -1471.9587    442.43672    316.75826   -314.85085    36638.639 
  119800    300.76735   -1460.0516    444.37651    333.60308   -549.70412    36638.639 
  119900    294.61319   -1514.7543    463.32787    270.24342   -602.87049    36638.639 
  120000     299.1562   -1498.5335    467.53689    311.05376   -502.92469    36638.639 
  120100     292.2449    -1531.424    463.09361    242.71503   -370.56784    36638.639 
  120200     300.5302   -1496.1337    485.38482    337.46538   -352.67343    36638.639 
  120300    301.38103   -1505.0053     470.9483    317.97415    -744.3938    36638.639 
  120400    308.76919     -1495.81    467.41894    356.78433   -319.01094    36638.639 
  120500    298.76928    -1479.402    442.58777     303.5003   -145.25533    36638.639 
  120600    308.52797   -1506.9955    461.90982    339.00756    41.337023    36638.639 
  120700    292.80952   -1483.6178    488.36793    318.32854    103.25981    36638.639 
  120800    298.75053   -1517.5865    449.52075    272.16473   -962.33952    36638.639 
  120900    306.15386    -1462.098     450.2617    361.60636   -651.95949    36638.639 
  121000    297.30498   -1499.4817    459.88027    294.14413   -711.23597    36638.639 
  121100    306.29153   -1473.4834    458.33462    358.91154   -486.68299    36638.639 
  121200    293.05374   -1459.3257    487.94852    343.29682   -434.95672    36638.639 
  121300    296.68524   -1524.9567    450.86314    256.87183    245.24925    36638.639 
  121400    303.36584   -1528.1571    456.73816    289.51638    68.763239    36638.639 
  121500    299.09619    -1500.194    470.10531    311.69245    497.08397    36638.639 
  121600    295.77068   -1482.0442    474.00458    318.82287   -261.70779    36638.639 
  121700    314.90539    -1475.251    463.83635    401.28842    63.374548    36638.639 
  121800    294.81097   -1473.1073    474.16131     323.6111   -377.57985    36638.639 
  121900    302.72084   -1499.4481    438.02086    296.61455   -112.53468    36638.639 
  122000    305.90605    -1504.781    474.04875    341.59871     1054.061    36638.639 
  122100    281.93027   -1510.8123    463.78299    217.74354   -7.2957593    36638.639 
  122200    303.61013   -1554.2506      456.979    264.75963    489.08707    36638.639 
  122300    297.58667   -1514.0728    458.74868    279.68511   -222.95727    36638.639 
  122400    303.32802   -1558.8867    480.25878     282.1377   -171.07042    36638.639 
  122500    302.51202   -1545.0366    482.06277    294.13117    59.554901    36638.639 
  122600    296.18472   -1524.1004    441.18215    245.80165    78.568112    36638.639 
  122700     303.8585   -1520.8824    456.99347    299.25651   -223.25607    36638.639 
  122800    299.97646   -1530.5206    460.44964    275.65919   -236.13594    36638.639 
  122900    308.30476   -1517.6067    467.71968    333.20486   -219.22487    36638.639 
  123000     286.1339   -1517.8902    461.44457     227.1851   -676.78953    36638.639 
  123100    296.99104   -1502.8939    488.24408    317.68737   -199.70849    36638.639 
  123200    304.96458   -1484.8136    466.98639    350.28029   -220.33844    36638.639 
  123300    313.39382     -1526.97    468.71871    347.67072    -12.55735    36638.639 
  123400    293.90113   -1504.2351    451.14656    265.38691    48.656491    36638.639 
  123500    294.33947   -1508.6193    485.33507    297.15768    30.051561    36638.639 
  123600    302.98442   -1502.5342    472.05318    328.74319   -329.64348    36638.639 
  123700    296.20906   -1537.9177    467.62953    258.54094   -669.29568    36638.639 
  123800    291.64974   -1527.9635    450.88873     231.3007   -296.05042    36638.639 
  123900     296.4548   -1567.3626     488.2238     250.7927    127.66958    36638.639 
  124000    306.76128   -1559.3964    471.91607    288.68728    99.970778    36638.639 
  124100    309.86466   -1558.1882    468.60856    300.51011   -180.53746    36638.639 
  124200    296.43575   -1526.6494    438.12513    241.32184    -579.8839    36638.639 
  124300    301.35797   -1527.2149    491.25027    315.96315    -17.08665    36638.639 
  124400     300.1821   -1588.0077    490.01256    248.65746   -83.956856    36638.639 
  124500    299.29907   -1552.2527    455.31729    245.75587    435.45812    36638.639 
  124600    307.43142   -1567.0115    471.25041    283.41292    -2.547785    36638.639 
  124700    287.24748   -1578.8338    472.15747    181.95006    15.167488    36638.639 
  124800    301.27504   -1578.5416    472.58235     245.5965   -72.812641    36638.639 
  124900    289.45827   -1561.1365    476.59656    214.00433   -640.24179    36638.639 
  125000    298.98903   -1604.0149    456.91375    194.19925   -627.88256    36638.639 
  125100    298.47173   -1601.8314    469.40465    206.55292   -148.21147    36638.639 
  125200    306.68443   -1573.5947    475.23454    277.46267   -338.79829    36638.639 
  125300    296.95238   -1542.8157    465.50978    254.85782    100.48015    36638.639 
  125400    308.13325   -1550.0102    479.14737    311.45966   -278.26097    36638.639 
  125500    299.38893   -1565.4457    478.14514     255.7939    256.74949    36638.639 
  125600    300.28032   -1531.8029    481.31128    296.60169    44.816062    36638.639 
  125700    284.90665   -1616.9301    483.92405    145.11916   -230.27705    36638.639 
  125800    290.40393   -1528.7176    489.14957    263.21858   -446.75276    36638.639 
  125900    303.14501   -1544.0351    485.10999    301.01954    398.95403    36638.639 
  126000     302.9267   -1560.0214    498.34458    297.28841    395.82953    36638.639 
  126100     297.1373    -1545.321    492.02679    279.69913   -330.67061    36638.639 
  126200    301.44005   -1533.3056    471.37918    290.36955    213.06262    36638.639 
  126300    293.37307   -1542.9868    480.84836    253.96808    -123.9783    36638.639 
  126400    308.31611   -1515.8997    485.18682    352.42994   -339.30777    36638.639 
  126500    299.24778   -1538.6727    488.83737    292.62585   -148.82913    36638.639 
  126600    292.89813   -1526.1421    470.07763    257.91141   -463.91908    36638.639 
  126700    301.83735   -1475.5777    473.86676     352.3674   -458.94555    36638.639 
  126800    305.74703   -1500.6367    489.69513    360.67601   -701.90166    36638.639 
  126900    298.75097   -1527.7242    461.83663    274.34489   -549.18684    36638.639 
  127000    305.22342   -1477.9933    486.69103    377.96637   -254.54946    36638.639 
  127100    301.98978   -1530.5164    469.68417    293.92987   -493.79255    36638.639 
  127200     313.9504   -1523.3817    472.26397    357.30118   -332.56587    36638.639 
  127300    303.45301   -1501.7118    467.03463    326.64913   -492.49419    36638.639 
  127400    296.67075   -1490.7508    470.13472    310.28423    -355.2671    36638.639 
  127500    296.94466   -1523.2896    476.01873    284.85827    106.65219    36638.639 
  127600    309.79777   -1525.9931    463.34403    327.14056   -239.25034    36638.639 
  127700    307.74234   -1535.6379       481.39    326.32089    338.53221    36638.639 
  127800    295.27389   -1503.6261    486.80919    307.81693    -499.4643    36638.639 
  127900    303.48873   -1480.8972    454.92736    335.51677   -260.57508    36638.639 
  128000    307.22235   -1552.6497    487.42631    313.01272   -258.39454    36638.639 
  128100    305.93273   -1544.4037    470.65548    298.70249   -130.28369    36638.639 
  128200    300.96751   -1529.0862    474.63089    295.72076     305.0102    36638.639 
  128300    292.18763    -1568.694    467.55163    209.64617    524.69959    36638.639 
  128400     304.5135   -1532.1359    497.71167    331.65956    286.59267    36638.639 
  128500    301.78364   -1516.6958    482.43196     319.5735    219.67157    36638.639 
  128600    297.32849   -1499.9827    477.86477    311.73312    387.73277    36638.639 
  128700    299.29708   -1500.4637    455.05355    297.27226    59.678942    36638.639 
  128800    300.81855   -1516.4156    465.85933    298.95152    59.730596    36638.639 
  128900    290.55438   -1564.9852    476.06103    214.53737    453.50197    36638.639 
  129000    304.85877   -1587.8688    447.97938    227.74332    359.73904    36638.639 
  129100    301.57024   -1537.6671    470.22436    285.43727   -267.04058    36638.639 
  129200    308.10604    -1556.312    462.49112    288.37953   -577.55172    36638.639 
  129300    283.64705   -1546.4236    475.96441     202.0153    -297.6245    36638.639 
  129400    292.71495   -1524.3168    480.33497    269.17234   -474.48049    36638.639 
  129500    299.46284   -1531.1382    464.38379    276.67161   -486.95565    36638.639 
  129600    316.34782   -1527.6006    462.66289    354.23634   -635.65967    36638.639 
  129700    311.79094   -1514.9538    470.76656    354.54405   -44.165589    36638.639 
  129800    311.87517   -1559.2504    494.54211    334.40089   -86.307056    36638.639 
  129900    296.94554   -1522.1466    451.42891    261.41534   -194.58399    36638.639 
  130000    300.29137   -1530.3984    483.19671    299.94118   -283.99011    36638.639 
  130100    291.44235   -1531.0075    460.20551    236.64305   -715.18417    36638.639 
  130200    309.65022    -1521.398    483.75606    351.48578   -247.83708    36638.639 
  130300    293.58959   -1529.0985    483.81169    271.79106   -79.178123    36638.639 
  130400    303.91443   -1507.2889    466.08996     322.1974    -76.48719    36638.639 
  130500    309.24069     -1512.01    447.61613    322.89666   -179.02234    36638.639 
  130600    297.68445   -1553.4392    466.37345    248.38217   -399.93054    36638.639 
  130700    288.05485   -1543.9478    470.42643    218.72703   -25.618583    36638.639 
  130800    299.90733   -1531.2828    498.13437    312.27162     76.27044    36638.639 
  130900    304.14642   -1535.1397    450.60931    279.90668   -49.173853    36638.639 
  131000    311.53319   -1532.6465    471.56384    336.49232    -176.9228    36638.639 
  131100    291.29217   -1541.8833    461.25041    226.13845   -469.36756    36638.639 
  131200    305.72497    -1542.299    480.32816    309.54782    17.016131    36638.639 
  131300    302.44127   -1577.2712    467.52006    247.03642    179.59485    36638.639 
  131400    308.65924    -1582.498    471.86026    274.04437    682.75822    36638.639 
  131500    301.82743   -1533.4828      471.548    292.09901    509.67929    36638.639 
  131600     297.0188   -1548.1835    456.80107    241.07936    168.23484    36638.639 
  131700    297.03909   -1523.2142    485.75453    295.09306    109.27451    36638.639 
  131800    296.67627   -1500.9316    462.90816    292.90166    331.48511    36638.639 
  131900    292.95335   -1490.3822    469.90297    293.74443   -318.89794    36638.639 
  132000    308.06452   -1513.3542    489.72645    358.38637    363.41894    36638.639 
  132100     298.5306   -1493.7909    500.04822    345.50114   -25.709906    36638.639 
  132200    306.95947   -1488.0409    480.65051    369.66636    45.971094    36638.639 
  132300    295.36274   -1492.4948    459.78316     292.3208    678.61253    36638.639 
  132400    297.34619   -1494.0243    500.87895    340.78507    828.95328    36638.639 
  132500     304.3013   -1536.4783    478.96153    307.61513     161.1685    36638.639 
  132600    308.01541   -1511.4328    473.71385     344.0749    129.97765    36638.639 
  132700    302.96564   -1493.1533    457.67751    323.66415    263.20527    36638.639 
  132800    295.04251   -1530.7177    504.18012    297.05832   -32.812018    36638.639 
  132900    295.53919   -1513.8655    487.04288    299.00136    36.873354    36638.639 
  133000    294.26885   -1514.7752    458.26972    263.61966   -280.64069    36638.639 
  133100    308.50115   -1509.2884    463.38066    338.06511   -665.11788    36638.639 
  133200    300.31609   -1547.2724    452.18977    252.17108   -321.76802    36638.639 
  133300    305.81709   -1555.5761    459.83807    276.19389     41.05598    36638.639 
  133400    290.03989   -1536.9345    458.21257    222.43157    130.81099    36638.639 
  133500    291.04988   -1519.7608     473.0829    259.00651   -167.21916    36638.639 
  133600     296.6392   -1539.1609    475.20962    266.80745   -115.12193    36638.639 
  133700    309.96307    -1543.183    465.70546    313.05371    185.70198    36638.639 
  133800    290.93559   -1527.9574    478.84155    256.05581    401.34503    36638.639 
  133900    291.16347   -1520.5624    493.20961    278.84118    88.458295    36638.639 
  134000    311.01335   -1499.5675    458.34847    354.02387    439.45273    36638.639 
  134100     300.8499   -1541.4833    455.03841    263.20365   -559.19107    36638.639 
  134200    301.51362   -1480.4585    482.15335    354.32091   -597.74751    36638.639 
  134300    298.63595   -1471.4229    462.66067    330.95423   -675.38731    36638.639 
  134400     303.2989   -1512.1076    471.60332    320.13076   -565.91604    36638.639 
  134500      298.687   -1527.8986    453.00569    265.05249   -521.73031    36638.639 
  134600    309.76388   -1471.9533    459.80127    377.48557   -422.13332    36638.639 
  134700    299.25043   -1497.7838    480.04725    324.73657    122.61077    36638.639 
  134800    296.13052   -1507.6769    457.64776    278.44766    113.46085    36638.639 
  134900    294.62461   -1530.6364    492.34646    283.43115    751.34885    36638.639 
  135000    300.04579    -1548.594    473.37654    270.82365     411.9875    36638.639 
  135100    306.41646   -1554.3484    491.29735    311.56973    815.41278    36638.639 
  135200    293.38564   -1528.7381    456.27287    243.69765   -26.671675    36638.639 
  135300     307.6541   -1511.1511    479.21085    348.23272   -111.60271    36638.639 
  135400    303.33348   -1536.8636    448.33704    272.26354   -275.60957    36638.639 
  135500     291.4758   -1510.5176    449.06809    246.14562   -533.78625    36638.639 
  135600    291.09227   -1488.7614    469.51129    286.62447   -6.3013645    36638.639 
  135700    302.36972   -1515.4894    479.71712    320.69425   -101.39457    36638.639 
  135800    310.27239   -1539.3871    471.17658    323.70842    130.39608    36638.639 
  135900    304.84933    -1513.551    469.18732    323.22673   -55.095806    36638.639 
  136000    304.78242   -1503.4981    477.12435     340.9165   -78.135958    36638.639 
  136100    296.74829   -1510.4154    490.19364    311.02641   -408.78617    36638.639 
  136200    290.42748   -1567.8887    465.69605    200.69966   -115.65435    36638.639 
  136300    305.17492   -1544.3714    435.62918    260.30884   -196.59223    36638.639 
  136400    311.26986   -1525.3768    469.50293    340.51985    65.821498    36638.639 
  136500    309.52367   -1532.9081    484.13871     339.7907   -334.55398    36638.639 
  136600    298.64208   -1535.2968    444.16545    248.61257    45.376639    36638.639 
  136700     295.5802   -1491.5799    461.92489    296.35301    79.296905    36638.639 
  136800    302.53338   -1497.6495    479.45494    339.00622   -394.75157    36638.639 
  136900    297.76847   -1504.5801    482.54881    313.79348   -279.24431    36638.639 
  137000    297.99549    -1527.185    462.39221    272.05043    91.463173    36638.639 
  137100    310.18351   -1522.7767    465.82866    334.57212    570.92991    36638.639 
  137200    291.63982   -1540.5849    467.98247    235.72852    513.20564    36638.639 
  137300    310.89653   -1509.3895     468.4165    353.74586    965.07366    36638.639 
  137400     292.2809   -1577.8206    475.73756    209.12388     827.5445    36638.639 
  137500    298.00123   -1524.9943    465.98843    277.86311   -44.153955    36638.639 
  137600    291.28769   -1526.2403    482.40093    262.91194     63.68865    36638.639 
  137700    297.31491   -1540.3752    445.95095    239.36588   -327.23919    36638.639 
  137800    297.91151    -1513.367    482.34445    305.44392   -23.665901    36638.639 
  137900    304.81548   -1554.2777    469.57588     282.7368   -243.11882    36638.639 
  138000    299.92312    -1522.143    454.53754    277.88536    207.92175    36638.639 
  138100    291.35199    -1502.014    457.15509    262.18081    272.58952    36638.639 
  138200    292.39318   -1542.7586     460.7604    229.71246    63.381809    36638.639 
  138300    296.88049   -1526.0179    480.03606    285.85945   -176.65769    36638.639 
  138400    297.93646   -1535.1569     474.6111    276.03264    28.785581    36638.639 
  138500    293.32437   -1497.4209    500.98883    319.45594    169.94397    36638.639 
  138600    298.67848   -1500.5079    477.51613    316.91545    335.52496    36638.639 
  138700     298.7682   -1506.3363    477.44753    311.42096    669.20627    36638.639 
  138800     297.6825   -1479.5926    486.20005    342.04664   -225.75174    36638.639 
  138900    298.88671   -1503.5121    452.96083    290.29014   -430.53891    36638.639 
  139000    303.83786   -1488.4981     452.9347    327.48943   -894.60279    36638.639 
  139100    299.73795   -1468.9273    488.81756    364.55039   -558.00198    36638.639 
  139200    306.87325    -1535.231    479.03713    320.47608   -353.34443    36638.639 
  139300      292.994   -1502.4434    490.25871    302.22131   -319.54448    36638.639 
  139400    301.73795   -1494.4894    464.84605    323.98902    9.2685542    36638.639 
  139500    312.11221   -1517.8981    482.05778    364.33225    19.889894    36638.639 
  139600    313.25768   -1519.2308    480.47206    366.55252    75.097041    36638.639 
  139700     303.8399    -1488.885    475.75999    349.93694     -376.259    36638.639 
  139800    293.69373   -1537.0123    483.46522    263.99796   -53.455514    36638.639 
  139900    288.52312   -1497.7831    457.70543    254.27137   -201.20577    36638.639 
  140000    301.57378   -1509.0579    491.92274    335.76073     30.11299    36638.639 
  140100    296.69517   -1533.5437    471.15455    268.62072    72.872468    36638.639 
  140200    305.40342   -1517.2576    465.00528    317.82384    75.702563    36638.639 
  140300    291.52837   -1506.8182    489.48408    290.49684    638.42925    36638.639 
  140400    308.43598    -1518.985     468.9207    333.61632    1095.2978    36638.639 
  140500       299.63   -1518.4358    471.03201    296.77209    350.56868    36638.639 
  140600     304.3229   -1540.7493     466.2327    290.71218    261.36423    36638.639 
  140700    292.62368   -1524.1234    465.44441    254.06568   -522.29971    36638.639 
  140800    306.56332   -1525.6791    476.70307    326.30354   -183.47079    36638.639 
  140900    295.76621   -1507.9277    468.70412    287.61886    584.21509    36638.639 
  141000    306.92602    -1548.409    484.60067    313.09832    108.48019    36638.639 
  141100    303.86881   -1518.7344    489.93701    334.39426   -106.99588    36638.639 
  141200    293.72695    -1529.929    481.34725    269.11238   -267.17423    36638.639 
  141300    300.85081   -1523.5827    463.82433    289.89424    189.11757    36638.639 
  141400    287.94334    -1533.166    487.73205    246.31418   -168.81221    36638.639 
  141500    293.17429   -1529.0785    470.03715     256.1734   -313.85555    36638.639 
  141600    310.87992    -1492.876    491.94903    393.71741    -933.1995    36638.639 
  141700    305.10779   -1525.6216    487.54422    330.67251   -848.69288    36638.639 
  141800    292.92599   -1516.0214     435.4031    233.48254   -561.64178    36638.639 
  141900    308.85847   -1489.9365    482.30981    377.94923   -32.157317    36638.639 
  142000    303.09927   -1569.4121    471.01755    261.34489    137.64504    36638.639 
  142100    304.77185   -1503.7208    464.88228    328.40434   -267.92743    36638.639 
  142200    291.70676   -1472.0882    478.80675    315.34983    49.310944    36638.639 
  142300    300.56556   -1502.1425    471.15868    317.38909   -150.08391    36638.639 
  142400    296.43209   -1524.3595    479.98113    285.45131   -86.944611    36638.639 
  142500    296.71715   -1476.2145    459.73093     314.6249   -567.52967    36638.639 
  142600    292.06048   -1503.7941    462.81542    269.23937   -984.98948    36638.639 
  142700    304.71731   -1529.1682    481.14003    318.96993   -634.30691    36638.639 
  142800    313.41645   -1540.4234    461.31752    326.91767   -270.92664    36638.639 
  142900    310.40517   -1496.6004    438.59261    334.50677   -337.25015    36638.639 
  143000    291.48797   -1547.6247    467.91336    227.93836   -297.86447    36638.639 
  143100    302.70654    -1513.146    471.43087     316.2625    294.36065    36638.639 
  143200    300.54133   -1489.2578    474.46274    333.46915    198.27188    36638.639 
  143300     303.8264   -1504.4715    474.51505    333.04496   -52.281732    36638.639 
  143400    295.30929   -1478.8764    490.02784     335.9441     44.72434    36638.639 
  143500    301.51845   -1483.9256    472.69461    341.41669    107.60132    36638.639 
  143600    293.41154    -1453.799    488.10824    350.58843    347.03348    36638.639 
  143700    303.67738   -1531.0372     465.1295     296.4252   -203.80636    36638.639 
  143800    296.45356   -1535.0902    479.86396    274.69969    -124.5781    36638.639 
  143900    294.45207   -1513.4235    476.30768    283.83128    188.36834    36638.639 
  144000    297.45671   -1506.9067    474.28661    301.80614    -774.2312    36638.639 
  144100    303.16724    -1490.776    493.23952    362.50793   -776.18445    36638.639 
  144200    304.40463   -1488.6634    471.24324    348.17534    -647.8341    36638.639 
  144300    298.48065    -1474.377     461.0236    325.66634   -605.96502    36638.639 
  144400    303.53513    -1464.717    488.01449    384.99228     -437.485    36638.639 
  144500    306.13076   -1458.7373    490.06413    404.66589    78.941614    36638.639 
  144600    305.14021   -1475.7286    459.00216    352.16891   -145.00589    36638.639 
  144700    304.84713   -1490.3997    495.70454    372.88536    435.93025    36638.639 
  144800    297.22426    -1479.407    480.74144    334.71792    697.64056    36638.639 
  144900    304.70387     -1504.82    496.03929    358.15718    547.96873    36638.639 
  145000    297.73901   -1498.2575    487.28271    324.71786   -293.67274    36638.639 
  145100    303.16088   -1511.7196     446.5358    294.83203   -200.20714    36638.639 
  145200    293.73304   -1513.3771    459.59638     263.9407   -996.74014    36638.639 
  145300    301.26009   -1514.0284    458.56773    296.02793   -199.97256    36638.639 
  145400     305.9335   -1503.4701    461.54934    330.53339   -274.80343    36638.639 
  145500     295.8955   -1504.3926    467.25933    290.28924   -529.01004    36638.639 
  145600    290.21591   -1497.2015    479.91511     284.6568   -814.72693    36638.639 
  145700    297.43714   -1512.2921    476.75493    298.80122   -703.38812    36638.639 
  145800    292.49022   -1524.6504     461.6243    249.11985   -320.22376    36638.639 
  145900    295.52175   -1534.5067    476.97876    268.21782   -338.31649    36638.639 
  146000    304.46102   -1545.6308    470.14813    290.36575   -625.27434    36638.639 
  146100     298.4581   -1555.9722    472.49357    255.43993   -271.12129    36638.639 
  146200     291.8481    -1559.487    453.14918    202.92756    -652.0206    36638.639 
  146300    306.18321   -1558.6125    462.75555    277.71742   -484.66738    36638.639 
  146400    307.25478   -1570.2353    484.04291     292.1891    189.22447    36638.639 
  146500     305.3398   -1585.7298    494.39938    278.46032    372.83885    36638.639 
  146600    293.24103   -1588.8691    462.98366    189.62878    327.37055    36638.639 
  146700    303.46464   -1604.7086    444.34226    201.01223    159.06687    36638.639 
  146800    304.40975   -1546.2303    471.77388    291.16204   -270.74251    36638.639 
  146900    293.55972   -1537.4729    477.42345    256.89443   -530.00574    36638.639 
  147000    300.98532   -1532.6515    451.30369    268.90817   -401.22056    36638.639 
  147100    309.12149     -1539.39    462.48429    309.85018    67.524707    36638.639 
  147200    293.76373   -1544.9464    486.38008     259.2928    393.69943    36638.639 
  147300    296.01565   -1574.9067     478.9007    231.95549     512.3001    36638.639 
  147400    307.69585   -1529.6324    462.58235    313.31016    969.12894    36638.639 
  147500    291.98284   -1530.3386    463.17028     242.7015    343.00832    36638.639 
  147600    303.00627   -1529.4308    471.60729    301.49868    1065.1954    36638.639 
  147700     297.4819   -1593.6384    471.80382    212.70463    790.16926    36638.639 
  147800    294.55813    -1591.569    457.05504    186.90895     970.0674    36638.639 
  147900    301.96948   -1604.1906    445.45287     195.9333    681.18029    36638.639 
  148000    298.85334   -1581.4643    453.79416    213.02155    204.02894    36638.639 
  148100    305.88188   -1534.3719    446.20405    284.05476    610.45632    36638.639 
  148200    299.16534   -1505.4347    458.66037    295.31701   -72.047404    36638.639 
  148300    292.17871   -1525.0078    468.01875     253.7595    -37.88732    36638.639 
  148400    304.35125   -1523.0873    457.93525    300.20395    371.57236    36638.639 
  148500    309.23763   -1495.3124    465.86891    357.83335   -199.60424    36638.639 
  148600    289.56536   -1460.1528    471.78144    310.65332    200.55669    36638.639 
  148700    298.27033   -1513.3486    483.26615    307.99378    117.33127    36638.639 
  148800    305.44234   -1439.0788    466.84743     398.0194    -148.1031    36638.639 
  148900    308.19557   -1480.2214    465.28589    367.66654   -578.13906    36638.639 
  149000     299.2371   -1494.8153    463.67899    311.27693    -402.4395    36638.639 
  149100    297.35409   -1499.4361    475.18878    309.71856   -208.67176    36638.639 
  149200    305.44395   -1446.8443    491.43184    414.84549    399.82754    36638.639 
  149300    290.26392   -1503.2023    472.54564    271.50185    860.53846    36638.639 
  149400    299.68121   -1443.9599    466.59915    367.04484    960.50775    36638.639 
  149500    298.21503   -1464.4629    474.76519    348.13047    1005.2217    36638.639 
  149600    303.56255   -1506.8495    465.34285    320.31108    648.25335    36638.639 
  149700    285.80369    -1478.915    476.26564    279.50005    335.92139    36638.639 
  149800    309.90733   -1473.8492    479.82149    396.25348  -0.84329833    36638.639 
  149900    290.12361   -1438.4418    486.18851    349.27583    425.42994    36638.639 
  150000    294.77966   -1482.0265    468.80882    309.19894    45.187432    36638.639 
  150100    301.21557   -1478.9257    482.72676    355.09001    -158.9747    36638.639 
  150200    297.12977   -1467.9284    491.33732    356.36845    486.22306    36638.639 
  150300    295.20041   -1454.7657    487.68308    357.22154    -309.5833    36638.639 
  150400    306.98765   -1505.7615    461.38814    332.80987   -172.45706    36638.639 
  150500    306.59991    -1463.046    451.32207    363.71979   -698.38836    36638.639 
  150600    291.52231    -1466.353    477.76463    319.21544   -418.15234    36638.639 
  150700    305.54633   -1450.5347    472.94218    393.12469   -888.88118    36638.639 
  150800    308.94914     -1515.34    446.00154    316.64418   -668.52135    36638.639 
  150900    294.51355   -1508.3197    453.87927    266.78247   -884.41933    36638.639 
  151000    298.47387   -1482.0062    477.09217    334.07534   -457.28378    36638.639 
  151100    301.31578   -1495.8239    466.02728    321.94191   -320.80047    36638.639 
  151200    300.87621   -1484.0879    445.66265    311.34126    330.20453    36638.639 
  151300    315.75825    -1516.053     462.6428    363.11895    742.92727    36638.639 
  151400    296.67437   -1454.0567    486.53945    363.39929    1173.6283    36638.639 
  151500    304.27614   -1465.9491    465.18881    364.25877    587.62748    36638.639 
  151600    296.41665   -1444.8297    470.20919    355.13985    492.74654    36638.639 
  151700    300.11904   -1482.0113    458.69286    323.05139     503.4467    36638.639 
  151800    293.08777   -1468.6159    456.76532     302.9761    21.577595    36638.639 
  151900    300.68861   -1463.2211    457.66547    343.36935    131.96677    36638.639 
  152000    301.42049   -1479.9567    460.90493    333.15643    247.74547    36638.639 
  152100    294.11299   -1489.0746    478.69517    309.04652    401.65337    36638.639 
  152200    291.47411   -1469.0249    468.60387    307.16653    1124.6187    36638.639 
  152300    303.53101   -1479.6272    485.99738    368.04647    715.06473    36638.639 
  152400    309.68817   -1443.8492     452.5386    397.98739   -91.282905    36638.639 
  152500    308.67252   -1516.6671    437.07724    305.15186     62.63889    36638.639 
  152600    304.60621   -1497.7729    436.25002    304.97685   -157.51524    36638.639 
  152700    287.93684   -1502.0718      462.356    252.00316   -592.36896    36638.639 
  152800    307.15431   -1527.7544    461.36356    311.53998   -568.92561    36638.639 
  152900    300.16239   -1472.0275    481.60305    356.13981   -638.24275    36638.639 
  153000    297.26203   -1509.2686    433.11288    257.39714   -580.06271    36638.639 
  153100    310.99921   -1504.2449    455.60078    346.53534   -420.02998    36638.639 
  153200    293.15273   -1530.9255       468.93    253.12262   -553.12809    36638.639 
  153300    294.03302   -1542.6329    445.88589    222.32012   -389.68964    36638.639 
  153400    294.51576   -1532.5365    472.81128    261.50758    135.65426    36638.639 
  153500    294.94396   -1497.5277    455.14102    280.76704   -100.44624    36638.639 
  153600    302.91347   -1507.8142    464.84099    315.93268    88.382757    36638.639 
  153700    296.96864   -1505.9427    439.01328    265.30724   -227.11818    36638.639 
  153800    292.81481   -1518.2668    471.03476    266.37006   -372.07845    36638.639 
  153900    305.13987   -1534.3657    442.16595    276.69405   -291.98763    36638.639 
  154000    292.13276   -1517.5281    449.51631    242.53054   -598.81038    36638.639 
  154100    297.21309   -1500.4381    467.14326     300.0385   -1011.0919    36638.639 
  154200    290.19964   -1497.7038    460.44389    264.61028   -154.32144    36638.639 
  154300    292.29637   -1479.1597    444.89488    277.01156    232.11506    36638.639 
  154400    307.88137   -1510.1079    489.31067     360.3953   -324.28739    36638.639 
  154500    315.72873   -1532.1167    448.88432    333.16437    92.210267    36638.639 
  154600    294.63957   -1507.6945    448.75974    262.85343    227.31396    36638.639 
  154700    296.66814   -1504.5739    469.29724    295.61192   -158.10809    36638.639 
  154800    302.10596   -1494.0469    450.90623    312.14269    355.11159    36638.639 
  154900    302.27821   -1533.7193    432.30713     254.6439    140.64115    36638.639 
  155000    296.94354   -1502.1586    474.07803    304.04348    15.232473    36638.639 
  155100    299.18401   -1485.7477    455.24657    311.67401    320.10594    36638.639 
  155200    302.38834   -1504.0658    459.32244    311.80677   -416.07211    36638.639 
  155300    292.01408   -1495.3927    476.96362    291.58088    26.301987    36638.639 
  155400    296.62964   -1484.4366    479.41767    325.69703   -145.99972    36638.639 
  155500    309.09784   -1501.8187    439.92695      324.758    165.72942    36638.639 
  155600    294.08252   -1482.8431    438.13471    274.58081   -270.68123    36638.639 
  155700    305.87862   -1500.8414    471.94785    343.31441   -500.53218    36638.639 
  155800    294.39529   -1484.8289     457.9486    293.81205   -1009.6078    36638.639 
  155900    301.73514    -1479.669    448.89595    322.84675    -284.4323    36638.639 
  156000    287.81578   -1450.8486    462.16835    302.49559   -385.83953    36638.639 
  156100    305.43576   -1470.4959    446.86772    346.59301   -252.92085    36638.639 
  156200    301.24243    -1444.907    459.29628    365.79874    218.23559    36638.639 
  156300    312.24657   -1471.2373    471.58369    401.12163    299.92049    36638.639 
  156400    303.99063   -1498.2803    477.78708    343.24497   -168.95544    36638.639 
  156500    289.14209   -1451.0682    487.03727    333.09496    170.11617    36638.639 
  156600    301.36257   -1441.0861    482.58541    393.44771    305.86107    36638.639 
  156700    297.98691   -1470.3884    464.14571    330.56215   -477.57493    36638.639 
  156800    302.12711   -1436.3546    472.71803    391.74164   -97.084508    36638.639 
  156900    308.83391   -1425.8739    471.07017    430.66196   -52.699692    36638.639 
  157000    307.83295   -1442.8873    445.37942    383.46736   -493.56083    36638.639 
  157100    297.16836   -1435.2631    439.34514     337.2147   -480.90269    36638.639 
  157200    305.94612   -1424.7143     468.2297    416.02619   -312.72674    36638.639 
  157300    295.94172   -1423.5787    445.99356    350.04469   -742.55063    36638.639 
  157400    306.70659   -1385.9922    463.16638    453.09645   -170.62233    36638.639 
  157500    307.57744   -1442.8904    467.77942    404.71811    198.67217    36638.639 
  157600    298.44454   -1424.0999    473.28224    388.04015    409.45011    36638.639 
  157700    304.47308   -1450.0256    453.98586    369.86275    161.87272    36638.639 
  157800    299.79397   -1440.1748    462.99618    367.73287    105.98224    36638.639 
  157900    290.31878   -1457.4715    452.23966    297.17283   -309.30855    36638.639 
  158000    292.39987   -1433.2332    465.29071     343.7982   -111.48377    36638.639 
  158100    290.82168   -1474.8832    457.05527    286.83275    371.28365    36638.639 
  158200    302.98009   -1480.1912    449.59555     328.6091    564.58931    36638.639 
  158300    284.54606   -1445.5142    498.23383    329.22719    351.67993    36638.639 
  158400    298.45491   -1498.2629    450.30662    290.94805    389.87403    36638.639 
  158500    297.86524   -1497.9619     452.2793    290.57634   -64.850587    36638.639 
  158600    301.65281    -1490.158    468.18614    331.27861   -313.44065    36638.639 
  158700    298.09274   -1478.2178     465.9205     324.9822   -702.67627    36638.639 
  158800     293.5813   -1489.6553    448.23614    275.62155    -868.1997    36638.639 
  158900    311.50432   -1500.7769    471.10551    367.77409    96.127449    36638.639 
  159000    300.02525   -1500.6872    457.15442    302.41625    182.16199    36638.639 
  159100    299.72944   -1518.9329    456.01363    281.70268    162.44572    36638.639 
  159200    305.87508   -1488.8063    473.49986    356.88559    430.29783    36638.639 
  159300    294.06785   -1492.5329    463.97125    290.66175    179.86814    36638.639 
  159400    307.02442   -1474.0121    464.18504    367.52102   -201.52451    36638.639 
  159500    298.21704   -1493.9957    454.53865    298.38016   -670.39732    36638.639 
  159600    301.38561   -1467.2964    455.67395    340.42932   -893.58915    36638.639 
  159700    291.57197   -1482.2018    469.55639    295.38125   -1544.3903    36638.639 
  159800    296.08388     -1478.15    476.45862    326.57615   -1212.8638    36638.639 
  159900    295.77251   -1490.9627    469.13304    305.04108   -1124.0133    36638.639 
  160000    298.62913   -1518.2399    447.37078    268.81669   -1073.5113    36638.639 
  160100    309.26189   -1542.6431    447.61351     292.3561   -1015.6495    36638.639 
  160200     298.0207   -1539.8794    467.79949    264.87639   -334.83668    36638.639 
  160300    306.81944   -1495.6306    465.51462    346.31257   -399.41512    36638.639 
  160400    291.55653   -1552.2053    460.98599    216.73807   -579.81798    36638.639 
  160500    302.11875   -1506.5206    434.00887    282.82898   -915.39224    36638.639 
  160600    293.31559   -1500.5286    486.90596    302.22607   -1176.2205    36638.639 
  160700    293.19018   -1496.6823    461.92822    280.53201   -514.47415    36638.639 
  160800    302.57476   -1469.6428     438.6654    326.40906   -440.05881    36638.639 
  160900    303.64377   -1472.8856    502.00978    391.30633   -589.00762    36638.639 
  161000    301.17966   -1508.8976    459.51774    301.74798   -117.04556    36638.639 
  161100    298.39419   -1465.6599     472.8373    345.80931   -333.44843    36638.639 
  161200    299.39151   -1536.9476    460.46716    266.62551   -419.13937    36638.639 
  161300     310.8743   -1477.0927     477.0195    394.54598    49.910758    36638.639 
  161400    291.20369   -1493.2901    477.05345    290.13781   -97.626545    36638.639 
  161500    298.49974   -1518.4812    468.42362    289.04785   -622.01792    36638.639 
  161600    303.26335   -1484.2761    459.27267    335.47207   -182.71173    36638.639 
  161700    299.64843   -1497.9118    476.28527    322.63204   -679.88609    36638.639 
  161800    305.33071   -1479.7283    477.89124    367.91287   -472.44448    36638.639 
  161900    309.23813   -1481.0274    460.84848    367.10023    24.938357    36638.639 
  162000    295.63013   -1485.0625    475.21927    316.38877   -414.69987    36638.639 
  162100    296.96455   -1488.3417     469.5678    313.44446   -875.34642    36638.639 
  162200    290.80852   -1477.6425    487.84902    314.80823    -568.1408    36638.639 
  162300    301.50581   -1458.9695    476.83428    370.45574   -142.22701    36638.639 
  162400    303.59842   -1492.9819    493.29679    362.29352   -95.831033    36638.639 
  162500    292.68721    -1478.533    458.70888    293.20555    117.94093    36638.639 
  162600    292.43264   -1517.0042    470.57691    265.46037    186.28928    36638.639 
  162700     305.0485     -1511.12     476.2888    333.65268    179.19076    36638.639 
  162800    293.52168   -1503.8765    467.04215    279.93892   -656.50161    36638.639 
  162900    305.99479   -1483.4721    454.01139    343.26834   -347.83121    36638.639 
  163000    296.31848   -1506.0889    487.80473    311.03578   -294.71374    36638.639 
  163100    289.16261   -1488.9008    472.55155    280.86865   -865.44687    36638.639 
  163200    295.76346   -1467.5318     477.7638    337.06218    71.235021    36638.639 
  163300    299.48257   -1452.7761    483.81825    374.55663    133.73936    36638.639 
  163400    300.14643   -1464.9677    468.83394    350.35885    414.68376    36638.639 
  163500    286.38355   -1491.9905    456.01402    248.77423    57.075701    36638.639 
  163600    304.17639   -1505.3802    503.85348    363.04478    273.03654    36638.639 
  163700    299.61285   -1466.1382    465.27278    343.23347    206.01789    36638.639 
  163800    301.68724    -1464.394    486.81597    375.82685    193.66851    36638.639 
  163900    288.18559    -1468.353    521.53347    346.01538     364.7217    36638.639 
  164000    296.54883   -1524.0696    462.40226    268.68602    323.96723    36638.639 
  164100    293.58597   -1539.4026    462.26965     239.9287    14.833609    36638.639 
  164200    306.94046    -1497.286    459.04611    338.73155    286.88657    36638.639 
  164300    302.81915   -1544.7333    488.73945    302.48891    520.15015    36638.639 
  164400    302.59951   -1508.6573    477.25296     326.0931    366.74315    36638.639 
  164500    295.99255   -1497.4973    464.62536    294.98595   -305.47444    36638.639 
  164600    295.84556   -1521.6741     454.7373    260.26166    398.16782    36638.639 
  164700    308.70876   -1513.0372    484.24447    356.11151   -488.56366    36638.639 
  164800    296.90607   -1491.4529    481.57272    322.07582      -317.72    36638.639 
  164900    297.45433   -1525.0502    471.95878    281.32411   -362.83254    36638.639 
  165000    304.54241   -1467.4755    504.97182    403.70985   -98.034779    36638.639 
  165100    294.79487   -1466.6202    477.75191     333.6166   -377.30897    36638.639 
  165200    294.70345   -1457.0458    478.71254    343.74152   -368.65142    36638.639 
  165300    302.53627   -1469.2353    485.57739    373.55587   -384.99287    36638.639 
  165400     302.6312   -1510.0616    461.91501    309.49306   -476.56177    36638.639 
  165500    302.52937   -1518.2202    454.06158     293.0242   -410.94578    36638.639 
  165600    306.86997   -1473.4202    472.33146     375.5665    191.65157    36638.639 
  165700    289.11719   -1480.5784    479.07303    295.50875    192.69024    36638.639 
  165800    291.47183   -1472.4495    492.99622    328.12406    34.963345    36638.639 
  165900    296.27023   -1445.6706    472.66129    356.09422    175.37622    36638.639 
  166000    298.30706   -1513.9885    461.40337    285.65588   -211.72899    36638.639 
  166100    302.33777   -1517.6154    482.57891    321.28672   -255.80696    36638.639 
  166200    298.62949   -1524.1477    467.39321    282.93295      5.20733    36638.639 
  166300    304.06862   -1485.1766    455.40599    334.31742   -256.27777    36638.639 
  166400    307.86346   -1461.8351    501.91395    421.19099   -785.99012    36638.639 
  166500    297.81514    -1454.936    471.70267    352.80083   -1110.8983    36638.639 
  166600    301.07526   -1482.1611    491.77103     360.2694   -550.01557    36638.639 
  166700    295.90206   -1543.6935    466.96217    250.72056   -749.69718    36638.639 
  166800    293.53623   -1499.3747    473.56986    291.03362   -134.98217    36638.639 
  166900    297.05238    -1481.227    466.41281     317.7982   -346.22682    36638.639 
  167000    301.44834   -1494.2587    452.70293    310.77744   -40.951619    36638.639 
  167100    293.66385   -1504.1361    479.38243    292.65731   -588.31928    36638.639 
  167200    299.84393    -1514.721    464.24792    294.66246   -316.98436    36638.639 
  167300    299.48144   -1516.5417    470.31434      297.282   -323.81039    36638.639 
  167400      292.211   -1545.1583    456.12203    221.85711   -841.54687    36638.639 
  167500    298.01554   -1540.2651    451.43512    248.10327    562.58216    36638.639 
  167600    302.51888   -1524.1315    472.57015    305.57441    275.32953    36638.639 
  167700    312.68676   -1517.6629    453.46266    338.54981    108.59417    36638.639 
  167800    309.71663   -1482.6572    451.45525     358.2237   -14.173092    36638.639 
  167900    303.18895   -1487.8864    482.70722    354.96253   -46.294732    36638.639 
  168000    294.58111   -1492.4467    482.45795    311.53721   -137.37803    36638.639 
  168100    306.49113   -1562.2521     472.7843    285.48792    48.357387    36638.639 
  168200    300.14556   -1500.8553    447.41828    293.05177   -418.54809    36638.639 
  168300     301.2938   -1533.1896    458.20285    276.65314   -532.86388    36638.639 
  168400    290.43916   -1516.1043    471.95305    258.79348   -70.762763    36638.639 
  168500    299.98904   -1512.2693    476.18138    309.69863    147.52906    36638.639 
  168600    294.93765   -1484.6626     478.8246    317.28743   -347.16584    36638.639 
  168700    295.21461   -1456.6588    498.64882    366.35797    111.99498    36638.639 
  168800    295.97141   -1480.7932    474.65443    321.62421    185.59323    36638.639 
  168900    300.48571   -1496.7445     473.0235    324.29371    171.11171    36638.639 
  169000    289.39825    -1478.501    474.06318    293.83728   -498.39729    36638.639 
  169100    294.11689   -1488.9165    451.43609    281.96296   -135.67776    36638.639 
  169200    299.14379   -1482.0981     442.6179    302.51444   -327.35926    36638.639 
  169300    299.55729   -1480.3141    465.03361    328.56918   -959.08689    36638.639 
  169400    304.52868   -1467.2491    461.26636    360.16917   -615.92548    36638.639 
  169500    295.80136   -1528.8249    474.98306     273.1583   -987.98167    36638.639 
  169600     299.0546   -1473.4289    447.21061    315.37622   -540.17193    36638.639 
  169700    307.70747   -1487.2384    480.21407    373.38803    293.34767    36638.639 
  169800    301.14821   -1564.6539    470.73187    257.06474    92.073692    36638.639 
  169900    296.53082   -1530.8208    460.03629    259.48812    131.44824    36638.639 
  170000    299.21509   -1478.6992    457.88035    321.49564    8.8150757    36638.639 
  170100     294.6196   -1509.9121    451.31136    263.09784    533.39128    36638.639 
  170200    305.28535   -1545.8237    449.60859     273.3313    302.39133    36638.639 
  170300     307.3521   -1556.5598    455.25426    277.51263    425.61051    36638.639 
  170400    309.86384   -1540.7021    446.51353    295.89757    504.27783    36638.639 
  170500    298.63896   -1526.8081    466.66496    279.58685   -108.62834    36638.639 
  170600    308.57085   -1488.1913    470.45932     366.5536   -478.02919    36638.639 
  170700    294.66073   -1491.8909    473.63987    303.63207   -756.97459    36638.639 
  170800    295.87185   -1505.3228    456.71239    278.70602   -626.67658    36638.639 
  170900      300.347    -1522.138    477.30613    302.56058   -783.79189    36638.639 
  171000    297.42014   -1551.9696    455.98178    238.27432   -248.73593    36638.639 
  171100    299.09165   -1553.1916    473.10452    261.67372   -212.77822    36638.639 
  171200    292.83207   -1545.8593    470.07368     237.8939    272.43322    36638.639 
  171300    306.59699   -1476.3896    484.06475    383.10575    863.75002    36638.639 
  171400    306.14158   -1547.3597    437.43327    263.46115   -165.88537    36638.639 
  171500    302.23516    -1499.079    482.47303    339.25693    591.70185    36638.639 
  171600    295.88666   -1495.7531    491.30367    322.93334    12.597925    36638.639 
  171700    301.27156   -1522.7293    461.98106    290.79183    6.2529572    36638.639 
  171800    294.79177   -1518.8658    472.66935    276.27457    276.51104    36638.639 
  171900    301.29046   -1499.0547    475.68312    328.25334    424.73918    36638.639 
  172000    303.99805   -1547.3498    468.57184    284.99344    762.23069    36638.639 
  172100    297.08519   -1539.6891    452.87252    245.94297     599.8472    36638.639 
  172200    302.56226   -1511.7644    476.62724     322.1932    252.35356    36638.639 
  172300    306.70175   -1530.8825    473.23717    318.25521     141.1614    36638.639 
  172400    291.63178    -1518.896     459.4953    248.89422    440.40776    36638.639 
  172500    301.26906   -1512.2728    461.05553     300.3116    301.70438    36638.639 
  172600    308.32788   -1487.3895    475.51807    371.32415   -80.552876    36638.639 
  172700    302.53471   -1482.2316    501.33376    376.30894    270.37869    36638.639 
  172800    299.81077      -1528.2    483.86133     300.6481    814.85523    36638.639 
  172900    292.53673   -1520.5203    472.51248    264.34681   -338.27342    36638.639 
  173000    297.25658   -1488.2049    482.82916    328.15273    596.08296    36638.639 
  173100    304.84677   -1537.4677    467.56782    297.67901    53.577886    36638.639 
  173200    303.93355   -1541.9242    465.09264    286.65051    652.24136    36638.639 
  173300    297.03765   -1543.5926    443.48217     232.4359    680.67017    36638.639 
  173400    305.07553   -1524.4373    473.67836    317.84628    412.39648    36638.639 
  173500    300.32579   -1499.9185    477.53235    324.91115    371.84942    36638.639 
  173600    299.34871   -1523.1158    462.80489    282.60304     473.0511    36638.639 
  173700    293.85781   -1553.4696    451.79475    216.60633    302.27977    36638.639 
  173800    290.69974    -1528.442    492.44571    268.11737   -210.52221    36638.639 
  173900    303.91384   -1567.6085    459.32356    255.10877   -511.55889    36638.639 
  174000    288.68217   -1528.4531    477.07802     243.6875    209.15991    36638.639 
  174100     304.1465   -1550.0907    460.08337    274.43014    202.92358    36638.639 
  174200    308.79779   -1476.2761    495.89318    404.92078    344.18959    36638.639 
  174300     289.9732   -1504.0712     497.0848    293.86788    343.28211    36638.639 
  174400    297.01599   -1496.7828     462.5869    298.25323   -144.09448    36638.639 
  174500    302.49363   -1490.4719    471.32517    337.87569    168.11663    36638.639 
  174600    302.10336   -1476.7685    480.69022    359.19335    180.64573    36638.639 
  174700    297.25151   -1514.6334    478.58681    297.45911    435.84414    36638.639 
  174800    306.32844   -1497.3704    473.63658    350.49204    319.41204    36638.639 
  174900    314.61948   -1517.4102    471.10822    365.11853   -335.40472    36638.639 
  175000    306.44553   -1537.2496    475.83486    313.33636   -795.75474    36638.639 
  175100    290.55932   -1489.8336    461.84193    275.49207   -359.93643    36638.639 
  175200    306.91547    -1509.367    448.14427    315.63664   -277.51912    36638.639 
  175300    298.91394   -1528.4896    489.41145    301.88537   -394.34521    36638.639 
  175400    297.51585   -1503.2873    454.43199    285.83625   -127.89728    36638.639 
  175500    302.16505    -1524.183    511.52275    342.88817   -23.945643    36638.639 
  175600    294.76307   -1513.7024    455.80098    264.44087   -116.49494    36638.639 
  175700    307.16262   -1525.1156    490.52876    343.38125    -314.2092    36638.639 
  175800    288.66781    -1521.353    465.75969    239.40483   -602.06001    36638.639 
  175900     292.8756   -1501.6329    452.61191     264.8538   -624.54519    36638.639 
  176000    296.59928   -1482.7581    479.51701    327.33864    395.68754    36638.639 
  176100    298.52968   -1513.1862    465.65796    291.71145     336.3472    36638.639 
  176200     296.2074   -1532.1116    469.94807    266.65817    -65.08653    36638.639 
  176300    300.92763    -1552.939     473.0783    270.13649   -303.53613    36638.639 
  176400    301.91516   -1540.3782    450.12297     264.1721   -556.71643    36638.639 
  176500    299.40137   -1522.6996    465.17733    285.62791   -777.41975    36638.639 
  176600    294.97141    -1530.149    489.33289    282.46083   -95.169573    36638.639 
  176700    300.33322   -1539.2853    472.15915    280.20445    16.469393    36638.639 
  176800     300.4615   -1521.9474    476.96593    302.92465   -134.48106    36638.639 
  176900     300.6447   -1549.8171     470.4404    269.35119    434.68188    36638.639 
  177000    302.30429   -1512.6599    476.86491    320.37806     367.4707    36638.639 
  177100    304.29423   -1555.0988    475.47334     285.4747    235.59771    36638.639 
  177200    303.70921   -1529.5811    473.48158    306.37617    291.05914    36638.639 
  177300    283.72342   -1527.1805    450.52544    196.16197   -560.59677    36638.639 
  177400     288.0529   -1517.7607    474.63987    249.11881   -790.34929    36638.639 
  177500    306.70497   -1522.7222    468.30673    321.49958   -497.26186    36638.639 
  177600    293.57293   -1553.7057    453.91476    217.21223   -648.87665    36638.639 
  177700    307.24735   -1575.5761    455.96676    258.73884     185.5797    36638.639 
  177800    300.60779   -1544.0674    479.82891    284.32385    482.98993    36638.639 
  177900    296.91795   -1496.0688    507.23823     343.1787    636.70928    36638.639 
  178000    307.30966    -1497.031    479.93292    361.52963    400.30787    36638.639 
  178100    306.56696   -1500.5166    470.25432    345.03362    311.11851    36638.639 
  178200     303.1373   -1535.0467     456.9944    281.85772    29.145712    36638.639 
  178300    300.79228    -1533.318    492.54252    308.61458   -28.349017    36638.639 
  178400    298.61413    -1517.942    472.04348       293.72     100.5363    36638.639 
  178500    315.61673   -1531.5559    459.69366    344.03197    392.52349    36638.639 
  178600    301.37887   -1526.7149    470.61376    295.92035    347.64236    36638.639 
  178700    310.81278   -1531.5156    468.16461    330.99219    120.02155    36638.639 
  178800    286.76279   -1515.4077    469.51902    240.56329    -69.66518    36638.639 
  178900    299.16475   -1526.0223    476.83449    292.90086    147.70209    36638.639 
  179000    304.97017   -1522.3702    481.99981    327.76213    715.00042    36638.639 
  179100    305.26417   -1514.7346     469.3474    324.06425    465.46279    36638.639 
  179200    307.36711   -1515.4908    460.75165     324.1463    533.17675    36638.639 
  179300     303.3917   -1545.3034    444.42068     260.1686    895.85102    36638.639 
  179400    306.08484   -1533.7259    483.68136    323.08854      491.591    36638.639 
  179500    304.68221   -1561.6499    445.02461    250.21535    -19.71368    36638.639 
  179600    298.98882   -1539.9916    471.65795    272.96581    540.81121    36638.639 
  179700    289.78286   -1546.6075    473.54449    226.93737    266.62447    36638.639 
  179800    288.56155   -1550.1756    462.24747    206.59342    -231.3879    36638.639 
  179900    304.12617   -1535.0628    479.45115    308.73456   -120.77129    36638.639 
  180000    293.60172   -1557.3052    439.94542    199.77248    56.501833    36638.639 
  180100     301.5411   -1547.8273    472.42569    277.34773    137.06621    36638.639 
  180200    303.43705   -1525.2145     466.9269    302.96714   -82.121566    36638.639 
  180300    280.31844   -1569.9907     471.5944    159.14565   -166.96712    36638.639 
  180400    291.70925   -1544.2793    482.58123    246.94441   -280.86281    36638.639 
  180500    301.22826   -1498.7423      463.196    315.79956   -107.61732    36638.639 
  180600    310.17725   -1474.0564    468.30883    385.74456   -142.97269    36638.639 
  180700    305.71554   -1472.4285    461.86593    360.91381   -763.72641    36638.639 
  180800    295.24853   -1466.7417    496.89838    354.67677   -1162.4649    36638.639 
  180900    284.38057    -1453.028    449.85514    272.59224   -1028.5368    36638.639 
  181000    293.34704   -1467.0225    470.77069     319.7379   -767.38227    36638.639 
  181100    302.36579   -1519.5061    450.03963    286.98243   -401.40119    36638.639 
  181200    298.51979    -1516.029     469.4555    292.62185   -556.77373    36638.639 
  181300    297.40567   -1499.4236    437.73864     272.5123   -325.57586    36638.639 
  181400      303.705   -1555.8942    466.84294    273.40548   -599.50663    36638.639 
  181500    305.07741   -1510.5108    481.16332    339.26608    -115.4721    36638.639 
  181600    301.48284   -1525.4418    460.79817    287.84433    630.15509    36638.639 
  181700    299.93605   -1495.4747    468.82711    318.90122   -128.31956    36638.639 
  181800    308.63194   -1499.3502    490.50454    375.71396    318.94595    36638.639 
  181900    308.21312   -1482.9112    471.49324    371.26282    52.685495    36638.639 
  182000    301.95818   -1490.6454    471.63638    335.61138   -386.45674    36638.639 
  182100    295.99976   -1509.0656    480.78792    299.61249   -679.42209    36638.639 
  182200     287.6321   -1519.9509    474.67957    245.08058   -609.96314    36638.639 
  182300    301.60307   -1543.5291    493.29707    302.79529   -527.91691    36638.639 
  182400    295.36882   -1524.3653      489.862    290.55642   -333.47691    36638.639 
  182500    302.50838   -1527.8197    455.34821    284.61715    -765.7994    36638.639 
  182600    294.62479   -1527.4494    474.93238    269.20486   -512.63704    36638.639 
  182700    297.13701   -1567.2451    459.88495    225.63192   -535.76113    36638.639 
  182800    285.87665   -1522.6717    462.34263     222.1476   -443.60432    36638.639 
  182900     306.2774   -1523.4252    463.88699    314.45865   -696.79676    36638.639 
  183000    295.54635   -1532.1914    476.59206    270.25682   -273.68874    36638.639 
  183100    302.23304   -1533.1839    465.65547    288.32497   -1138.4721    36638.639 
  183200     297.0604   -1540.4318     465.9384    258.15497   -499.81789    36638.639 
  183300    299.28776   -1527.4089    486.82608    302.05774   -159.99579    36638.639 
  183400    290.80073   -1546.3192     460.8496     219.0971   -33.397144    36638.639 
  183500    303.82884    -1549.232    462.89735    276.67773   -55.173333    36638.639 
  183600    295.01318   -1556.3902    464.52312     231.5972    29.492788    36638.639 
  183700    294.20943   -1545.7676    454.95708    229.04802   -276.09916    36638.639 
  183800    307.61475   -1549.8986    483.86621    313.96402    406.58759    36638.639 
  183900    314.81606   -1508.1912    493.84739    397.95851    451.43325    36638.639 
  184000    304.36676    -1523.159    446.28858    288.55516    263.82468    36638.639 
  184100    313.04421   -1536.1972    463.71965    331.87602   -159.60616    36638.639 
  184200    302.18751   -1547.6239    453.03374    261.05898   -395.50153    36638.639 
  184300    305.89634   -1535.5726    479.28115    315.99598    81.066173    36638.639 
  184400    283.63832   -1562.6965    487.40609    197.14487    536.47397    36638.639 
  184500    311.61436   -1536.0175    494.86529    356.78691    68.800762    36638.639 
  184600    295.50289   -1532.0892    437.68972    231.26166    5.9448581    36638.639 
  184700    298.80284   -1494.4873    452.33276    298.31061    156.00206    36638.639 
  184800    304.33807   -1499.0036    472.13073    338.42397    425.88145    36638.639 
  184900    300.24412   -1509.5157    462.15066    299.56588    242.43619    36638.639 
  185000    303.35241   -1477.9288    462.79057    345.73682    58.588144    36638.639 
  185100    293.04882   -1507.2542    483.60653     291.0042    270.51532    36638.639 
  185200    310.27774   -1484.0352    489.39044    397.29819    101.24779    36638.639 
  185300    310.89726   -1495.3545    497.60898    396.97659    313.62335    36638.639 
  185400    295.48601    -1494.014    435.50303    267.07444   -201.72639    36638.639 
  185500    303.76059   -1466.7561    484.03762    379.98772   -170.71194    36638.639 
  185600    299.67889   -1438.9666    466.37465    371.80326   -570.56884    36638.639 
  185700    306.55166     -1444.58    488.13721    418.78443    115.62241    36638.639 
  185800    297.13869   -1447.8671    494.43313    379.56557   -391.16255    36638.639 
  185900    303.85706   -1441.6345    487.46465    408.96909    101.00501    36638.639 
  186000    305.48037    -1449.595    456.26528    377.09157    -186.2063    36638.639 
  186100    304.74585   -1434.8016    469.98487    402.30945   -302.89207    36638.639 
  186200    291.61386   -1445.2032    481.40242    344.41369   -86.991719    36638.639 
  186300     303.9077   -1454.4838    486.12005    395.00236   -538.22149    36638.639 
  186400     297.9462    -1469.185    468.21329    335.65044   -394.09485    36638.639 
  186500    296.12551    -1441.662    489.67853    376.47088    162.94179    36638.639 
  186600    289.73345   -1508.0042    484.45967    276.23426    411.82514    36638.639 
  186700    302.65266   -1487.1979    475.64864    346.18661    579.60511    36638.639 
  186800    299.83038    -1489.409     463.3328    318.99859    551.90309    36638.639 
  186900    300.32718   -1507.9749    467.83488     307.1635    541.97861    36638.639 
  187000    309.39771   -1466.1422    471.48819    393.34095    754.72253    36638.639 
  187100     303.3475   -1491.3797    473.31635    342.78971   -154.24884    36638.639 
  187200    301.02496   -1517.7168    473.38383    306.10086      289.399    36638.639 
  187300    300.58499   -1529.0618    470.98119    290.37948   -4.7194728    36638.639 
  187400    295.87074   -1493.4714    467.61021    301.45018    113.79858    36638.639 
  187500    295.40824   -1533.7971     478.3619    269.80135    237.29682    36638.639 
  187600    304.04108     -1488.52     468.6843    344.12879    347.28713    36638.639 
  187700    298.85792   -1506.8824    488.89237    322.72216    256.15615    36638.639 
  187800    299.19829     -1534.42    457.81717    265.63636    204.47567    36638.639 
  187900    292.97474   -1542.1422    480.80173    252.97905    271.77171    36638.639 
  188000    289.45737   -1511.6325    466.77409    253.68186   -558.27704    36638.639 
  188100    293.93432   -1470.0341    477.20727    325.79755   -237.67105    36638.639 
  188200    309.27777   -1454.9698    486.55049    419.03762   -134.12277    36638.639 
  188300    290.46768   -1483.4102    495.85949    315.52192    -321.2233    36638.639 
  188400    301.54408   -1512.2293    476.00322    316.53663   -146.11365    36638.639 
  188500    297.20621   -1482.0765    489.93989    341.16586   -200.47225    36638.639 
  188600    304.86416   -1502.6715    492.75383     357.7393   -306.23921    36638.639 
  188700    298.35452   -1465.9973    485.05103    357.50762   -516.73002    36638.639 
  188800    302.39499   -1466.7116    472.98008    362.84848   -374.68319    36638.639 
  188900    292.01398   -1512.4063    487.17526    284.77849   -581.30311    36638.639 
  189000    302.63433   -1463.3288    464.09334     358.4182   -948.58166    36638.639 
  189100    314.60728   -1444.1026    478.64675    445.90987   -586.11863    36638.639 
  189200    298.92916   -1497.8306     466.2582    309.45943   -84.016887    36638.639 
  189300    311.70804   -1493.5623    488.61928    393.41635    144.40033    36638.639 
  189400    287.82737   -1504.2055     462.9728    249.99519    314.33462    36638.639 
  189500    293.90325   -1512.7808    493.95198    299.65616    41.228895    36638.639 
  189600    301.35336   -1501.9013    471.74539    321.75113    1.7644191    36638.639 
  189700    299.75986   -1499.7757    475.71442    320.69721   -278.90773    36638.639 
  189800    306.93521   -1486.9057    474.73458    364.77682    86.798699    36638.639 
  189900    292.23911   -1484.1173    466.86899     293.7711   -791.23506    36638.639 
  190000    299.70392   -1547.9259    471.49598    268.07761   -1174.5074    36638.639 
  190100    301.11635    -1574.925     441.3021    217.22091   -1165.2712    36638.639 
  190200    304.58299   -1563.1278     438.1343    241.40206   -915.18826    36638.639 
  190300    306.87812   -1552.2519     460.1557    284.59567   -740.60317    36638.639 
  190400    298.89872   -1552.1321    454.83272    243.59592   -192.55835    36638.639 
  190500    303.81092   -1556.8909    426.12931    232.17035   -6.4826325    36638.639 
  190600    292.57953   -1534.6567    475.05785    252.94773    148.91053    36638.639 
  190700    300.61065   -1566.8657    462.86998    244.57953    41.725644    36638.639 
  190800    304.02025   -1564.3771    475.68457    275.17847    339.08874    36638.639 
  190900    296.77055   -1575.5598    473.97202    229.76025   -395.51917    36638.639 
  191000     297.3336   -1543.3843    448.48716    238.97678   -315.27382    36638.639 
  191100    295.74964   -1521.2466    467.83117    273.35263    -50.93731    36638.639 
  191200    297.60372   -1543.4915    470.67301    262.26728   -99.659266    36638.639 
  191300    310.89182   -1554.5438     465.0476    305.20148    598.95799    36638.639 
  191400    301.27745   -1555.6809    457.33442    253.22009    427.10975    36638.639 
  191500     298.2631   -1535.2476    470.84065     273.6369    31.765244    36638.639 
  191600    299.18437   -1499.5345    481.62422    324.26649    422.65739    36638.639 
  191700    305.96909   -1500.9254    473.06446    344.75286    933.28008    36638.639 
  191800    306.32988   -1496.2051    463.91234    341.93954    428.78024    36638.639 
  191900    295.52297    -1538.754    478.93134    265.92864    393.48668    36638.639 
  192000    295.13975   -1540.8967    456.03472    239.17008   -504.98546    36638.639 
  192100      298.903   -1569.0944    468.84897    240.66904   -215.16453    36638.639 
  192200    298.94924   -1576.1883    465.56164    230.49527    273.52065    36638.639 
  192300    285.31337    -1511.891     490.2977    258.35642    298.72624    36638.639 
  192400     298.2942   -1557.1559    451.12645    232.15383    152.71936    36638.639 
  192500    298.88814    -1541.866    494.62764    293.60942   -45.201795    36638.639 
  192600    308.30445   -1519.2997    436.95076    300.74157    296.60162    36638.639 
  192700    298.33178   -1545.7377    460.01056    252.62473    290.47037    36638.639 
  192800    295.87603   -1536.6814     464.9791    255.63279    43.894388    36638.639 
  192900    294.12884   -1544.3751    469.48466    244.60656    180.59195    36638.639 
  193000    308.55467   -1553.0261    478.46994    309.65682   -367.54093    36638.639 
  193100    297.19547   -1522.1231     462.2137    273.34487   -108.12074    36638.639 
  193200     309.5158   -1565.3756    472.38681    295.53594    6.8714241    36638.639 
  193300     302.2494   -1586.8258    465.11468    234.21566    101.04906    36638.639 
  193400    300.65777   -1518.2132    468.07077     298.6441    296.88803    36638.639 
  193500    293.88453   -1529.6668    462.17171     250.9059    -404.0619    36638.639 
  193600    306.58611   -1524.8745    448.91167    299.41896   -29.080906    36638.639 
  193700    295.11635   -1499.9509     483.4664    307.44265    -26.76658    36638.639 
  193800    304.86815   -1499.5812    462.82072    330.91437    487.36768    36638.639 
  193900    316.96924   -1534.0581    465.60455    353.50818    313.65658    36638.639 
  194000    303.50777   -1533.6975    457.54416    285.41867    47.041756    36638.639 
  194100    304.20284   -1534.2618    477.38598    307.81432    716.07877    36638.639 
  194200    304.58655     -1496.47    449.65335    319.59493    477.77201    36638.639 
  194300    301.19121   -1493.8746    484.92707    342.23208      620.802    36638.639 
  194400    302.11116   -1537.2617    463.90534    281.95028   -209.00023    36638.639 
  194500    292.69564   -1516.4341    479.33942    275.97283   -322.89901    36638.639 
  194600    306.47717   -1501.0124    475.28674    349.16741   -521.46397    36638.639 
  194700    299.32662   -1447.0253    494.19872     389.9883   -233.60814    36638.639 
  194800    305.88741   -1452.9054      445.517    364.85898    223.85726    36638.639 
  194900    305.77357   -1458.4479    477.39774    390.68651   -290.32836    36638.639 
  195000    303.17008   -1502.6936    462.02436    319.38786   -520.79913    36638.639 
  195100    301.71759   -1480.9565    459.25541    331.83996   -99.605368    36638.639 
  195200     308.2618   -1517.3839    475.97539    341.49067    486.50882    36638.639 
  195300     298.7066   -1467.3506    487.53381    360.21655   -286.95632    36638.639 
  195400    295.99843   -1500.5583    460.70822    288.03413   -498.78006    36638.639 
  195500    304.62282   -1517.0743    474.24219    323.74215   -374.63673    36638.639 
  195600    297.06548   -1483.7701    457.92083    306.82185   -96.287341    36638.639 
  195700    296.29834   -1561.2155    462.12261    230.13673   -65.781422    36638.639 
  195800    291.80322   -1573.0447    458.18561    194.20487    608.09384    36638.639 
  195900    294.76764   -1530.7608    459.08136    250.68332   -87.770926    36638.639 
  196000    301.23536   -1519.8064    473.51339    305.08472    54.567592    36638.639 
  196100    298.60633   -1510.9304    472.53341    301.18655   -12.727893    36638.639 
  196200    307.01235   -1500.1251    459.03525    336.20416    231.40055    36638.639 
  196300    302.57072   -1507.6098    474.12301    323.88152    347.97266    36638.639 
  196400     303.2088   -1482.7212    486.18926    363.69887    100.66946    36638.639 
  196500     306.4573   -1463.8761    470.64997    381.57783   -89.036953    36638.639 
  196600    303.00691    -1467.411    489.29706     381.2112    -162.5442    36638.639 
  196700    294.28501   -1509.7452    466.65473    277.10715    74.702416    36638.639 
  196800    296.21637   -1508.6738    470.04605    290.23416    380.19282    36638.639 
  196900    308.49516   -1517.2382    486.49046    353.19826    115.01694    36638.639 
  197000    309.37303    -1506.916    494.07148    375.03973    396.92731    36638.639 
  197100    293.16316   -1487.6742    479.12447    306.61511    351.42602    36638.639 
  197200    299.24788   -1531.1189     466.8928    278.23556     346.0834    36638.639 
  197300    298.91333   -1526.3491    467.88315    282.49481    444.67387    36638.639 
  197400    296.19893   -1537.9382    448.55929    239.40476   -323.44594    36638.639 
  197500    296.43306   -1576.3611    470.10529    223.57817    -521.7313    36638.639 
  197600    307.29675   -1552.4256    464.65541    290.79961   -427.63533    36638.639 
  197700    291.45229   -1544.8736    470.27925    232.89533     313.2147    36638.639 
  197800    307.02907   -1560.6786     473.6321    290.32245    80.593256    36638.639 
  197900    298.39963   -1550.3541    438.13005    226.43227    89.605165    36638.639 
  198000    299.78704   -1538.5926     487.8222    294.10994    387.57095    36638.639 
  198100     304.6495   -1514.6985    490.08115    342.07654    835.35919    36638.639 
  198200    283.55024    -1530.734    466.68511    207.99126    231.52969    36638.639 
  198300    296.85983   -1505.0108    477.07795    303.81574   -745.76481    36638.639 
  198400     295.0801   -1487.2416    480.88246    317.40533   -712.11667    36638.639 
  198500    295.53275   -1526.0042    433.10479    232.89565   -383.64681    36638.639 
  198600    301.63372   -1465.1669    470.14428    358.14211   -973.31546    36638.639 
  198700    307.37058   -1490.5534    476.30726    364.65484    -907.1049    36638.639 
  198800    300.80601   -1442.8898    481.65204    388.21385   -522.60392    36638.639 
  198900    300.73116   -1453.7009    478.66932    374.08422   -1094.7904    36638.639 
  199000    307.84649   -1501.4435    470.83969    350.43223   -1088.3931    36638.639 
  199100    292.29017   -1498.1274    471.75291    284.87406   -217.04895    36638.639 
  199200    300.03276   -1480.2044    461.56926    327.34753   -100.84869    36638.639 
  199300    306.17107   -1518.8852    465.60369    320.23844    152.67071    36638.639 
  199400    301.55725   -1522.6014    463.25685    293.47721   -427.03265    36638.639 
  199500    296.62046   -1552.4679    464.35519    242.56197   -158.77087    36638.639 
  199600    297.30155   -1505.1919    452.61047    281.14874   -779.73643    36638.639 
  199700    289.80174   -1494.7861    492.20339    297.50245   -213.75296    36638.639 
  199800     294.5978   -1513.3655    452.92619    261.16148   -102.46944    36638.639 
  199900    298.97645   -1507.3856    485.59583    319.45418    187.10814    36638.639 
  200000    314.62501   -1509.1485    492.41567    394.71239    247.91312    36638.639 
  200100    309.83388   -1498.6235    462.58424     353.9124    79.060274    36638.639 
  200200     297.2995   -1511.8668    470.40825    292.26244    1.3552284    36638.639 
  200300     305.9141    -1488.885    461.72246    345.20453    91.131106    36638.639 
  200400    305.31669   -1477.9821    475.95614    367.66112     366.9056    36638.639 
  200500    298.50939   -1472.9793    478.35134    344.52067     80.47892    36638.639 
  200600    301.48824   -1514.4481     439.9689    278.03297    336.44725    36638.639 
  200700    299.08855   -1508.7744    473.63003    306.60254    152.97218    36638.639 
  200800     301.0518   -1479.2275     464.8576    336.18429   -245.77893    36638.639 
  200900    294.84256   -1483.9524    491.16316    329.90956   -432.91609    36638.639 
  201000    298.99541   -1513.0247    465.99156    294.29585    278.82705    36638.639 
  201100    295.55153   -1524.0788    469.91376     271.7143    72.212156    36638.639 
  201200     309.3169   -1469.8856    465.48846    383.23532    9.5638792    36638.639 
  201300    303.88013   -1493.9212    482.13186    351.45317    118.98269    36638.639 
  201400    296.19927   -1525.5938     440.1929    243.38428    255.98535    36638.639 
  201500    293.80331   -1537.4175    456.49915    237.11833     365.9173    36638.639 
  201600    303.81614   -1505.2652    494.71881      352.409    783.77722    36638.639 
  201700     300.9939   -1494.6468    468.02712    323.67483    278.62422    36638.639 
  201800     294.3283   -1486.3958    480.61092    314.60691    511.54741    36638.639 
  201900    302.67407   -1490.8847    486.67344    353.62069    676.72349    36638.639 
  202000    293.32038    -1499.553    457.49325     273.8104    523.39418    36638.639 
  202100    303.34713    -1486.566    491.24317     365.5285    270.16954    36638.639 
  202200    291.91463   -1486.7662    481.18855    303.98617    231.97773    36638.639 
  202300    292.31708   -1511.7179    460.22654     259.8779   -47.875278    36638.639 
  202400    301.00122   -1474.0089    473.81681     350.1353    611.69115    36638.639 
  202500     300.4891   -1495.4755    487.89684    340.45125    69.855079    36638.639 
  202600    307.17563   -1527.3229    448.93173    299.63526    356.65733    36638.639 
  202700    296.47533   -1467.7284    478.44112     340.7364    254.36415    36638.639 
  202800    299.81535   -1500.5466    484.85421    329.31493    203.26018    36638.639 
  202900    300.10909   -1442.3704    479.96804    383.92275   -308.76445    36638.639 
  203000    313.17797   -1470.7712    481.83698    416.01945   -86.063749    36638.639 
  203100    293.67373   -1462.6252    473.93124    328.76137      120.325    36638.639 
  203200    307.14394   -1486.7081     503.0135    394.18966    481.31888    36638.639 
  203300    289.46455    -1548.259    486.91765    237.23115    812.46579    36638.639 
  203400    301.86465   -1562.4841    471.31373    263.03043    565.16038    36638.639 
  203500    305.54404   -1497.1953     453.5936    327.10521    720.24033    36638.639 
  203600    303.96971   -1528.2427    508.15384    343.55549    1051.6678    36638.639 
  203700    311.84476    -1507.824    457.74751     348.8962    636.56057    36638.639 
  203800    306.66584    -1495.526    488.20599    368.41944    590.66752    36638.639 
  203900    306.22756   -1563.9879    463.90127     273.6867   -163.47806    36638.639 
  204000    297.01044   -1513.0971    456.89522    276.22231   -448.53437    36638.639 
  204100    300.40391   -1530.7036    464.80232     281.7465   -712.38238    36638.639 
  204200    300.53917   -1531.8258    466.38858    282.81724     229.0797    36638.639 
  204300    311.04373   -1554.7118    469.25216    309.91956    739.81393    36638.639 
  204400    297.44826   -1558.3129    481.12196    257.19744    1201.3035    36638.639 
  204500    294.56656   -1549.1134    455.21879    227.56604    397.12605    36638.639 
  204600    298.05448   -1539.8907    485.46843    282.68566    144.20003    36638.639 
  204700    294.27245   -1542.2589    470.12877    248.01113     585.9828    36638.639 
  204800    289.07839    -1558.283    473.34423    211.90132    772.33077    36638.639 
  204900    296.28968   -1513.0806    462.36512    278.47534    407.50102    36638.639 
  205000     298.8905   -1476.6068    490.67624    354.92783   -103.79747    36638.639 
  205100    302.29107   -1483.8693    490.45097    362.69538   -80.648475    36638.639 
  205200     301.2322   -1542.4811    442.15494     251.0374    39.551952    36638.639 
  205300    297.38478   -1498.6566     470.1175     305.5644    420.06361    36638.639 
  205400    294.71513   -1515.2977    458.86345    265.69298    60.021132    36638.639 
  205500     298.9871    -1543.143    473.89184    272.04059    423.29832    36638.639 
  205600    301.35776   -1521.0378    449.71543    280.60445    191.49187    36638.639 
  205700    305.29066   -1543.6803    476.03855    301.92854   -465.82588    36638.639 
  205800    298.19904   -1528.2351    447.65174    257.17304   -316.14089    36638.639 
  205900      302.786   -1538.5184    458.86308    278.67875    -297.6041    36638.639 
  206000     305.0721   -1524.1636     482.7153    327.14143    322.10357    36638.639 
  206100    306.82418   -1513.9165    478.59964    341.13301   -111.24691    36638.639 
  206200    299.50793    -1537.088    478.67102    285.21133    146.06999    36638.639 
  206300    304.03095   -1495.2915    476.55346    345.18099   -30.520451    36638.639 
  206400    299.94352   -1483.5241     469.3598    331.41808   -72.897698    36638.639 
  206500    305.50573   -1506.5077    476.25221    340.27959    86.347675    36638.639 
  206600    301.98512   -1482.9033    452.66211    324.50001   -228.53625    36638.639 
  206700    303.59886   -1517.6792     462.7044    307.00585   -350.31587    36638.639 
  206800    295.94186   -1521.9013    484.33453    290.06361    -45.27969    36638.639 
  206900    306.61002   -1540.3505    462.08678    297.22534    345.12885    36638.639 
  207000     306.8819   -1551.8387    457.57549    282.44561    251.77053    36638.639 
  207100    299.14387   -1523.6963    461.06118    279.35993   -100.88162    36638.639 
  207200    300.30025   -1530.1496    452.14496    269.17801   -641.80048    36638.639 
  207300    303.06783   -1508.4696    467.64432    318.77308   -207.16479    36638.639 
  207400    301.08713    -1518.269    455.69933    288.14307    250.61645    36638.639 
  207500    303.50597   -1533.8786    466.46484    294.15024    314.10191    36638.639 
  207600    293.74218   -1489.8437    481.67195    309.59067    151.91003    36638.639 
  207700    306.09721   -1483.6496    474.63358    364.17253    -29.17021    36638.639 
  207800    308.49466   -1516.0238    461.30411    329.22414    232.77355    36638.639 
  207900    298.74763   -1492.5738    474.89654    322.54023     298.0384    36638.639 
  208000    305.30517   -1504.2467    472.64391     338.0326     15.99315    36638.639 
  208100    302.50162   -1478.5342    485.29798    363.82213   -54.524664    36638.639 
  208200    299.98438   -1494.2665    450.94344    302.44263   -647.34666    36638.639 
  208300    295.53675   -1493.8121    462.72049    294.72145   -152.59081    36638.639 
  208400    312.07533   -1497.2172    434.40618    337.19605   -3.9917771    36638.639 
  208500    293.30802   -1479.6807     479.1853    315.31934   -280.57445    36638.639 
  208600     299.0749   -1458.5391    496.52905    379.67553    46.787969    36638.639 
  208700    295.46364   -1450.4066    484.27453    359.35304   -138.36329    36638.639 
  208800    293.59498   -1477.2629    468.31607    308.15519    468.79988    36638.639 
  208900    307.43814   -1491.9388    463.21225    350.47752   -390.50377    36638.639 
  209000    311.46265   -1463.7619    469.21733    402.71395    38.454684    36638.639 
  209100    296.36974    -1460.911    489.86041    358.49941   -33.337125    36638.639 
  209200    307.81526   -1509.2531    489.84211    361.48496    9.7035152    36638.639 
  209300    302.56531   -1495.3959    462.46588    324.41399    58.124016    36638.639 
  209400    297.10832   -1517.0837    475.77645    291.55608     534.9925    36638.639 
  209500    291.70502   -1498.5967    471.59849    281.62523    650.03328    36638.639 
  209600    295.19251   -1509.6757    478.48177    293.07485    721.66419    36638.639 
  209700    290.96809   -1487.6021    494.67898    312.39437    558.73282    36638.639 
  209800    284.36981   -1483.3544    475.52878     267.8912    448.47439    36638.639 
  209900    292.59479   -1477.4118    480.91824    316.12155    204.85498    36638.639 
  210000      303.398   -1474.8885    471.89386    358.08491    198.38149    36638.639 
  210100    291.07319   -1507.8898    477.47138    275.37057   -244.18173    36638.639 
  210200    307.45553    -1526.354    475.44765    328.37581   -461.92475    36638.639 
  210300    313.81723   -1531.0326    478.28392    355.07277    145.90699    36638.639 
  210400    293.41023   -1490.1695    490.14644    316.25019     302.3721    36638.639 
  210500    293.45186   -1495.2654    476.27776    297.47236   -178.27236    36638.639 
  210600    289.55077    -1486.666    470.72026    283.01349   -267.90078    36638.639 
  210700    293.16033   -1531.8711    463.15223    246.43328   -373.07199    36638.639 
  210800    299.10163    -1499.936     473.0293    314.89886   -183.85142    36638.639 
  210900    312.68084   -1515.5123    458.83966     346.0508    30.532474    36638.639 
  211000    301.16609   -1514.3911    498.38181    335.05766     7.752358    36638.639 
  211100    298.98966    -1535.274    474.39283    280.42205    247.54915    36638.639 
  211200    295.05106   -1530.7634    469.80641    262.67721   -352.32108    36638.639 
  211300    296.13326   -1510.0494    492.68801    311.12769   -245.76164    36638.639 
  211400    300.35382   -1540.0746    475.48294    282.83136   -422.10034    36638.639 
  211500    305.32532   -1540.5516    460.51378    289.68792   -549.48582    36638.639 
  211600    299.63136   -1494.7781    482.67454    332.07843   -33.920538    36638.639 
  211700    298.26632   -1534.4686    453.39034       256.98   -218.23531    36638.639 
  211800    305.72077   -1523.1429    481.83315    330.19006    207.27535    36638.639 
  211900    303.73858   -1526.0562    499.75277      336.304   -357.22891    36638.639 
  212000    289.49146   -1494.3214     461.9826    266.35439   -312.56715    36638.639 
  212100    306.28074   -1503.2748    484.48462     355.2217   -225.32248    36638.639 
  212200    305.20102   -1555.4196    472.30176    286.05029    103.51183    36638.639 
  212300    305.05879   -1510.1336    455.06725    313.46375    409.50792    36638.639 
  212400    296.62458   -1527.9689    477.31067    280.03498    185.03579    36638.639 
  212500    297.78316   -1531.6959    465.73992    269.93479    281.11963    36638.639 
  212600    300.79453   -1512.1259    467.63061    304.90476    513.00396    36638.639 
  212700     300.3475    -1507.787     468.4396    308.04723    624.89071    36638.639 
  212800     296.2131    -1530.414    481.18716    279.62046   -41.061346    36638.639 
  212900    290.79479   -1534.7447    488.44279    258.23811   -193.63079    36638.639 
  213000    297.39988   -1530.8864    476.34526     279.6301   -256.03261    36638.639 
  213100    289.60187   -1528.2689    433.18754    204.10707   -466.82947    36638.639 
  213200     310.8415   -1537.2917    459.58295    316.76328   -279.60844    36638.639 
  213300    304.50009   -1498.1113    455.61315    323.52553   -579.46144    36638.639 
  213400    289.67419   -1514.4702    481.48272    266.52544   -248.64041    36638.639 
  213500    288.30139   -1526.0632    485.97355     253.2647   -105.73272    36638.639 
  213600    305.18045   -1530.9091    439.95475    278.12149    1.3567988    36638.639 
  213700    282.59469   -1511.1824    474.43365    231.00469    179.96357    36638.639 
  213800    300.68661   -1502.7402    475.53103    321.70676    521.95219    36638.639 
  213900    299.27195   -1496.0017    464.83907    311.40696    793.08892    36638.639 
  214000    310.31063    -1500.165    496.81816    388.74363    1144.4537    36638.639 
  214100    295.72029   -1451.8582    501.64302    376.42124    533.87019    36638.639 
  214200    308.00785   -1482.9393    472.02534    370.84594    359.21127    36638.639 
  214300    293.76719   -1494.5321    481.75344    305.09589   -111.33999    36638.639 
  214400    294.50917   -1463.3487    468.18354      326.038    -294.7873    36638.639 
  214500    289.31141   -1505.9584    451.76697    243.69405      16.2214    36638.639 
  214600    303.85945   -1479.2494    489.70278    373.60303    423.29782    36638.639 
  214700      301.516   -1531.7274    463.36363    284.27297     532.0099    36638.639 
  214800    300.23643   -1527.6236    474.13658    293.40937    747.37374    36638.639 
  214900    294.79992   -1535.2197    466.68511    253.97294    605.75157    36638.639 
  215000    302.37161   -1539.0888    484.92783    302.31416    1011.1157    36638.639 
  215100    306.29658   -1559.3538    474.50246    289.23157    1005.4368    36638.639 
  215200    304.09249   -1577.9263    446.15081    232.41965    931.45708    36638.639 
  215300    302.22641   -1567.4539     465.8009    254.17068    288.40258    36638.639 
  215400    302.06541   -1566.2638    464.33155    253.16916    322.71412    36638.639 
  215500    305.34367   -1563.3821     472.9419    279.36787    675.73219    36638.639 
  215600    302.88914   -1562.5081    468.54153    264.83017    498.82275    36638.639 
  215700    303.82646   -1568.9392    482.07298    276.13549    183.17102    36638.639 
  215800    299.31671   -1576.4049    457.57605     223.9416    -287.0844    36638.639 
  215900    312.53831   -1592.2842    427.89312    237.69295    168.76145    36638.639 
  216000    296.95553   -1581.8802    465.34829      215.646    100.37081    36638.639 
  216100    311.43135   -1538.1602    459.53986    318.49778     491.0156    36638.639 
  216200    302.66059   -1566.3397    464.34058    255.77233    534.79953    36638.639 
  216300    309.33971   -1538.9331    479.72172    328.52335   -41.472328    36638.639 
  216400    303.05021   -1549.8113     477.7142    287.42228   -382.52067    36638.639 
  216500    304.34088   -1523.7846    486.27733    327.80221   -25.342424    36638.639 
  216600    301.02611   -1527.7338    461.57874     284.2839   -350.89661    36638.639 
  216700    300.08168   -1559.6479    454.00471    240.55899   -621.73903    36638.639 
  216800    299.91273    -1520.976    487.42506    311.89333   -119.74931    36638.639 
  216900    306.68831    -1551.921    454.12136    278.04066   -924.35828    36638.639 
  217000    302.92031     -1545.93    454.81715    267.82372   -673.79671    36638.639 
  217100     292.8197   -1475.5355    491.10275    329.19131    -860.9924    36638.639 
  217200    302.48809   -1475.8401    464.89345    346.05094   -499.81378    36638.639 
  217300    304.63116   -1544.6048    489.76682    311.77371   0.19234543    36638.639 
  217400    293.62141   -1500.3869     492.7826     309.6163   -439.20056    36638.639 
  217500    284.58109   -1566.9281    458.40707    168.14362   -815.93285    36638.639 
  217600    296.43639   -1536.6211    495.14447     288.3723   -574.92236    36638.639 
  217700      298.239   -1538.3344    459.04346    258.64474   -373.69358    36638.639 
  217800    289.83245    -1542.388    485.76347    243.59839   -1305.8347    36638.639 
  217900    303.50234   -1488.9074    463.10939    335.74963   -411.69202    36638.639 
  218000    297.08455   -1559.4292    483.84901    257.17646   -368.16869    36638.639 
  218100    299.64913    -1532.659    484.14676    295.74949    64.697303    36638.639 
  218200     291.5064   -1546.3623    484.22437     245.5945   -5.4389302    36638.639 
  218300    305.64189   -1522.7749    456.72364    305.09472    183.56831    36638.639 
  218400    297.06436   -1469.4813    485.96884    349.15365    448.35799    36638.639 
  218500    288.53487   -1477.2736     475.9851    293.11329   -25.174283    36638.639 
  218600    312.51037   -1502.8939    471.53713    370.60195    244.98813    36638.639 
  218700    304.69526   -1491.4552    477.93056     353.3746   -112.33304    36638.639 
  218800    293.72946   -1481.3435    472.56911    308.93091   -516.75028    36638.639 
  218900    297.98113   -1521.3299    474.90008    290.34906   -715.29078    36638.639 
  219000    305.54612   -1497.9779    453.33118    326.06957   -1155.8823    36638.639 
  219100    293.46766   -1509.6015    468.00143    274.93082   -871.74707    36638.639 
  219200    304.32374   -1483.6492    494.64373    376.22707   -1347.9913    36638.639 
  219300    305.53144   -1481.7043    456.56432    345.51042   -1095.4034    36638.639 
  219400    299.77298   -1456.9997    485.88498    373.70252   -866.33399    36638.639 
  219500    304.73985   -1479.3042    491.06179     378.8569   -680.48815    36638.639 
  219600    304.86307   -1474.0849    467.12393    360.69113   -295.59237    36638.639 
  219700    303.74078   -1473.5244    456.02049    345.11337   -286.97329    36638.639 
  219800    302.48463   -1479.7792    451.77291    328.97582   -270.43997    36638.639 
  219900    309.25356   -1499.6189    477.83433    365.56371   -345.74622    36638.639 
  220000    297.61722   -1494.1752    465.67529     306.6464   -595.46446    36638.639 
  220100    303.33808   -1473.0848     454.5634    342.28934   -185.88977    36638.639 
  220200    290.98807   -1532.6482    476.49858    249.25748   -261.72826    36638.639 
  220300    300.29758    -1520.386     482.8395    309.62424    279.16007    36638.639 
  220400    298.25039   -1522.3578    443.78794    259.41692    416.65915    36638.639 
  220500    299.41184   -1474.5561    491.42649    360.06758   -325.48544    36638.639 
  220600    300.06865   -1500.6841     483.7297    329.18932    201.77211    36638.639 
  220700    285.94284   -1509.9946    482.87708    255.65613   -574.75902    36638.639 
  220800    301.03159   -1491.3418       482.83    341.95182   -538.12464    36638.639 
  220900    292.75336   -1575.0497    451.47437    189.75113    -138.1365    36638.639 
  221000    293.83111   -1508.7096    490.06877    299.52059    446.61023    36638.639 
  221100    300.46103   -1551.0638    494.82443    291.66463    366.74476    36638.639 
  221200    304.16209   -1531.0525    461.65474    295.10964    -39.32016    36638.639 
  221300    304.81332   -1459.4447    489.69932    397.68348   -42.013484    36638.639 
  221400    302.65007   -1451.6079    513.11378    419.23018    397.16808    36638.639 
  221500    297.56056   -1486.8427    474.57117    322.62058    119.51107    36638.639 
  221600    309.27565   -1473.6441    482.44471    396.24801    586.76955    36638.639 
  221700    304.61452   -1499.2693     474.6391    341.90677    284.90139    36638.639 
  221800    301.67593   -1493.2268    468.30316    328.43057    451.15773    36638.639 
  221900    297.04963   -1507.4514    485.62767     310.7763   -53.643182    36638.639 
  222000    295.88887   -1519.1916    469.56228     277.7634   -576.92876    36638.639 
  222100    294.01945   -1537.1701     463.5863    245.42246   -990.23867    36638.639 
  222200     292.9647   -1566.2086    486.20061    234.26656   -1044.9553    36638.639 
  222300    293.58107   -1568.6128    470.22086    218.64774      -481.74    36638.639 
  222400    297.19937   -1560.4851      484.622    257.40872   -319.20344    36638.639 
  222500    300.05883   -1573.9215    468.48058    240.65869   -47.029517    36638.639 
  222600     292.4531   -1550.2296    476.89831    238.64816     -405.192    36638.639 
  222700    308.36089   -1599.1883    476.40225    260.55765    147.32549    36638.639 
  222800    303.92742   -1565.1597    454.77097    253.06589    93.099185    36638.639 
  222900    292.83379    -1582.253    474.77693    206.21117   -553.82689    36638.639 
  223000    305.15568   -1579.7623    437.14139    226.34384   -93.501707    36638.639 
  223100    305.55783   -1567.6986    491.26932     294.3395   -93.869344    36638.639 
  223200    293.42289   -1551.7742    473.93522    238.49104   -394.47703    36638.639 
  223300    308.95859   -1586.3016    448.59012    248.31353    18.385309    36638.639 
  223400    297.12476   -1563.4757    489.71328    259.17461   -81.044937    36638.639 
  223500    288.53822   -1534.7943    476.52557    236.14812    490.94743    36638.639 
  223600    307.65199   -1539.6063     451.9444    292.50161    224.16771    36638.639 
  223700    304.07177   -1556.6828    479.07914    286.49852    957.49522    36638.639 
  223800    296.79795   -1532.5407    501.91439    300.84466    359.54955    36638.639 
  223900    291.53029   -1569.8824    458.20107    196.15834    210.72322    36638.639 
  224000    299.09398   -1552.8032    483.61618    272.58424    617.51839    36638.639 
  224100    294.07022   -1535.8192    481.82021    265.23507    731.36976    36638.639 
  224200    298.42282   -1477.7136    472.40503    333.45174    640.25529    36638.639 
  224300    296.03813   -1487.4922    498.95413    339.52427    209.78649    36638.639 
  224400    293.60064    -1538.236    491.13738     270.0288    171.10402    36638.639 
  224500    292.82445   -1518.5713    517.64425    312.71831    214.36879    36638.639 
  224600    302.57211   -1513.8841    479.46677    322.95723    56.593526    36638.639 
  224700    291.65944   -1549.4091    475.18939    234.19931    484.22685    36638.639 
  224800    297.10181   -1547.1897    463.06991    248.71436    752.40077    36638.639 
  224900    299.58598    -1550.001    496.72204    290.69947    824.15931    36638.639 
  225000    291.69483    -1541.299    475.25155    242.53029    572.13798    36638.639 
  225100    290.75912   -1543.7099    479.90708    240.57725    814.44192    36638.639 
  225200    299.41063   -1506.3421    474.87305    311.72273    390.82581    36638.639 
  225300     296.0287   -1498.4823    483.84142     313.3791    366.54546    36638.639 
  225400    296.25802   -1440.3459    487.71774    376.42061    451.61565    36638.639 
  225500    303.35936    -1521.599    472.30785    311.61513   -664.02061    36638.639 
  225600    299.27624   -1498.6627    485.30839    329.23459   -359.78251    36638.639 
  225700    299.77746    -1555.801    471.50064      260.537   -307.05872    36638.639 
  225800    304.64502   -1525.4162    469.22598    310.48357   -136.29868    36638.639 
  225900    291.08354   -1532.3449    474.57282    248.06335   -257.78905    36638.639 
  226000    296.65793   -1545.6071    482.55877    267.79444   -144.70701    36638.639 
  226100    293.17384   -1503.6517    492.62618    304.18725   -215.54531    36638.639 
  226200    304.06421   -1475.0797    484.40304    373.39161     -288.949    36638.639 
  226300    298.32276   -1483.6668    485.61523    340.25992   -394.13865    36638.639 
  226400    307.04094   -1481.2356    470.38534      366.572    10.810977    36638.639 
  226500    302.98564   -1482.6663    486.51592    363.07928     248.6212    36638.639 
  226600    305.54091   -1482.1017    454.47024    343.06152    39.635053    36638.639 
  226700    297.81077   -1479.6149    481.36595    337.76567    42.836756    36638.639 
  226800    300.30287   -1443.9941    475.79916    378.99953   -129.94234    36638.639 
  226900    304.73722   -1482.2575    488.07268    372.90261     -66.8339    36638.639 
  227000    306.53795     -1511.02    473.76842    337.91423    42.191142    36638.639 
  227100    302.58436   -1477.9211    478.61856    358.12693   -41.073727    36638.639 
  227200     296.4375   -1456.3286    467.15082    340.67613   -566.80934    36638.639 
  227300    300.60768   -1488.7495    473.05286    332.86519    -553.8828    36638.639 
  227400    301.28151   -1498.8075    494.20171    346.97903    834.81029    36638.639 
  227500    310.76371   -1475.7513    520.77405    439.14576    720.55569    36638.639 
  227600     307.3028   -1509.5397     508.7439    377.80114     958.2391    36638.639 
  227700    308.10077   -1522.9295    491.25247    350.49969   -216.07592    36638.639 
  227800    305.35115   -1539.6329    481.02742    311.23616    27.805581    36638.639 
  227900    303.51352    -1522.792    477.02637    315.83212    114.88005    36638.639 
  228000    294.71513   -1497.6297    499.07447    323.57196    536.71432    36638.639 
  228100    305.72299   -1500.3617    482.59369    353.74169    261.35651    36638.639 
  228200    302.69875   -1480.4219     486.7336     364.2544   -153.67321    36638.639 
  228300    294.31987   -1458.2931    496.25488    358.31583   -548.75468    36638.639 
  228400    301.40258   -1523.3403    475.94159     304.7292    24.552011    36638.639 
  228500    301.33198   -1493.5147    500.39893    358.69538   -132.17339    36638.639 
  228600     305.7652   -1449.6546    491.51861    413.56311    184.26161    36638.639 
  228700    298.40415   -1452.7616    477.65969    363.57467    65.200507    36638.639 
  228800    296.90602   -1449.4061    488.33839    370.88813    397.12642    36638.639 
  228900    298.16777   -1506.5203    501.66214    332.75801    50.695982    36638.639 
  229000      299.919    -1490.361    516.91581    372.02718    451.83831    36638.639 
  229100    283.69044   -1510.2851    488.76052    251.14452   -166.49088    36638.639 
  229200    302.26255    -1503.643     503.0264    355.36925     139.5481    36638.639 
  229300    292.99724   -1502.5844    491.81384       303.65    8.0718646    36638.639 
  229400    293.70757   -1513.6605    493.13439    297.08103    413.86964    36638.639 
  229500    288.72961    -1510.639    478.04855    262.68498    508.56708    36638.639 
  229600    294.11497   -1536.4995    461.87048    244.80582   -649.05681    36638.639 
  229700    297.59923   -1508.3953    489.07032    315.74066    227.82147    36638.639 
  229800    301.72016   -1569.9333    462.28712    245.90644   -184.04544    36638.639 
  229900     292.3014   -1552.1501    496.33806    255.48683    87.072372    36638.639 
  230000    292.31862    -1536.187    483.73398     258.9231    377.45504    36638.639 
  230100    295.90567   -1537.4828    438.91016     228.8954    196.90189    36638.639 
  230200     319.2536   -1502.3411    496.36153    426.23013     313.4651    36638.639 
  230300    289.01478   -1567.3385    458.93143    188.14766    17.538148    36638.639 
  230400    303.03549   -1545.3131    466.73484    280.87501    410.81847    36638.639 
  230500     301.0975   -1541.3993    468.54764    277.90761    342.78585    36638.639 
  230600    294.73021   -1493.3033    520.10283    348.99433    234.43694    36638.639 
  230700    308.17623   -1503.7644    488.88907    367.63998    166.84675    36638.639 
  230800    292.53127   -1534.8711    474.09639    251.55544    4.3194611    36638.639 
  230900    300.91334   -1534.8307    469.51954    284.62189   -11.768588    36638.639 
  231000    304.65415    -1559.743    477.71156    284.68341    113.27264    36638.639 
  231100    292.50481   -1504.3344     476.0475    283.92453    515.64159    36638.639 
  231200    301.31673   -1555.0035    455.50781      252.247    279.21207    36638.639 
  231300    308.27342   -1550.3319    459.58686    292.20624      64.5206    36638.639 
  231400    300.09015   -1510.5149    463.83175    299.55702    81.696883    36638.639 
  231500    312.79125   -1490.2437    498.22273    411.19781   -143.51301    36638.639 
  231600    300.09708   -1546.3045    477.88452     277.8513    75.569226    36638.639 
  231700    303.36657   -1509.8198    469.07426    320.19305    7.4003403    36638.639 
  231800    305.26575   -1517.0773    493.11331    345.49456    95.121799    36638.639 
  231900     300.1894   -1472.0036    478.22721    352.90897    496.42577    36638.639 
  232000    297.28769   -1479.9632    495.00581    348.71066    623.29638    36638.639 
  232100    298.52329    -1505.614     509.7106    343.30765    736.89508    36638.639 
  232200    292.04759   -1521.3504    499.30358    288.11347    -60.46216    36638.639 
  232300    294.13072   -1509.0691    496.32087    306.75719   -223.95971    36638.639 
  232400     295.3895   -1483.9771    478.90546    320.08085    93.371919    36638.639 
  232500    301.83337   -1493.7696    522.46643    382.75731    -5.390896    36638.639 
  232600    303.58415   -1505.0557    498.28484    355.14377   -38.790421    36638.639 
  232700    320.91086   -1542.6532    473.52193    370.51311   -207.42698    36638.639 
  232800    299.52505   -1509.4414    495.57801    329.84171   -631.47558    36638.639 
  232900    298.96156   -1528.5214    458.07895    270.73478     37.58807    36638.639 
  233000    307.94872   -1538.4063    474.45212    317.54044     189.0866    36638.639 
  233100     301.7073   -1528.6767    500.30727     325.1255   -216.91958    36638.639 
  233200    309.76347   -1537.9714     480.8591     332.5235   -35.646433    36638.639 
  233300    293.41454   -1506.5138    505.59524    315.37406    303.65456    36638.639 
  233400    292.09893   -1498.6346    481.27781    293.03382   -268.66165    36638.639 
  233500    311.89521   -1523.2049    472.01095    348.00509    -297.0068    36638.639 
  233600    295.56121   -1524.6619    471.65685    272.91772   -67.050468    36638.639 
  233700    309.18262   -1557.4763    490.13668     319.6905    496.80752    36638.639 
  233800    302.45669   -1550.0801    483.60486    290.38152     455.5433    36638.639 
  233900    302.69391   -1535.7371    504.87251    327.05636   -54.510879    36638.639 
  234000     291.7167    -1558.725    464.90336    214.85424    423.66167    36638.639 
  234100    303.65744   -1564.4486    468.06485     265.8597    643.67645    36638.639 
  234200    301.43265   -1544.2785    463.18281     271.1671    103.33055    36638.639 
  234300     300.7826   -1495.0493    482.71546    337.01273    234.74656    36638.639 
  234400    294.05165   -1471.1105    502.00528    350.04555    8.9252972    36638.639 
  234500    303.96346   -1488.7953    495.26222    370.08318   -414.46754    36638.639 
  234600    301.45205   -1503.7378    479.48395    328.09594   -338.00671    36638.639 
  234700    305.37942   -1528.6189    490.64034    331.98985    395.46499    36638.639 
  234800    291.90365   -1508.3135    518.27077     319.4718     415.6457    36638.639 
  234900    286.03126   -1491.7133     488.1498     279.6068    323.38083    36638.639 
  235000    301.14168   -1480.0893    512.32917    383.19729    398.36379    36638.639 
  235100    297.02648   -1537.0246    463.89602     259.3676    646.30488    36638.639 
  235200    305.09135   -1523.7426    495.72352     340.6571    289.97114    36638.639 
  235300    307.02126   -1565.2471    476.97213    289.05898    338.38986    36638.639 
  235400    290.69386    -1565.007    487.54372    226.62399    413.57964    36638.639 
  235500    293.54231   -1521.6147    485.59859    280.84969   -360.75242    36638.639 
  235600    291.81183   -1543.4979    492.37995    257.98463   -525.42184    36638.639 
  235700    302.69041    -1553.114     466.9847    271.77594   -398.35992    36638.639 
  235800    298.09117    -1483.293    492.68106    346.66057    141.69354    36638.639 
  235900    294.90773   -1579.5065    459.29457    202.77924   -283.75092    36638.639 
  236000    298.96448   -1553.9141    496.06915    283.34536   -919.90633    36638.639 
  236100    292.39954   -1526.5737    470.75042    255.91583   -440.39806    36638.639 
  236200    305.45178   -1532.1669    480.73618    318.86235    -668.7927    36638.639 
  236300    296.06145   -1530.4268    498.18375    295.92384    27.977633    36638.639 
  236400    308.82035     -1513.99    481.82345     353.2383   -222.16109    36638.639 
  236500    297.90902     -1511.72    482.36928    307.10467   -357.27464    36638.639 
  236600    294.97453   -1498.1867    509.09951    334.20368   -481.40681    36638.639 
  236700    302.97334   -1473.3279    476.22654    362.07313   -439.05134    36638.639 
  236800     303.5158   -1502.4519    481.66842    340.82451   -647.78168    36638.639 
  236900    293.39095   -1512.0031    489.81135      293.995    -405.8326    36638.639 
  237000    306.51807   -1543.6272    497.61782    329.06722   -185.75058    36638.639 
  237100    295.40556   -1508.7109    471.52034    288.03397   -82.541654    36638.639 
  237200    306.99331   -1496.1552    507.18232    388.23569    150.96634    36638.639 
  237300    292.01514   -1527.5389    499.07925    281.55503    1.7971308    36638.639 
  237400    296.05594   -1531.0276     505.3696    302.48423   -14.352631    36638.639 
  237500     310.8554   -1547.1841    469.19727    316.54754    362.00812    36638.639 
  237600    298.98323   -1510.0034    498.73533     330.0063     10.00055    36638.639 
  237700    303.25309   -1525.3239    497.81104    332.91661   -273.88955    36638.639 
  237800    308.18404   -1526.8581    505.79379    361.48605   -249.12737    36638.639 
  237900    296.75924   -1503.2955    486.72552    314.72729   -439.81473    36638.639 
  238000    305.38794   -1521.4537    480.04916    328.60219    -220.1498    36638.639 
  238100    290.55495    -1473.625    486.22447    316.06354   -420.27864    36638.639 
  238200    301.18478   -1489.3427    514.00786    375.81599   -460.13498    36638.639 
  238300     300.9203   -1533.1427    463.46475     280.2864   -298.16583    36638.639 
  238400    305.08771   -1499.3271    488.22406    357.55676   -388.27143    36638.639 
  238500    297.73408   -1519.0736    477.84929    294.44626   -584.00003    36638.639 
  238600    300.01326   -1528.2545    477.84147    295.48225   -404.92017    36638.639 
  238700    296.36851   -1521.5251    481.10858    289.12789   -587.08937    36638.639 
  238800    299.05518   -1568.2551    489.91817    263.26025   -338.04983    36638.639 
  238900    288.02564   -1516.2099    489.32751     265.2349   -255.58703    36638.639 
  239000    301.79035   -1546.0336    482.65061    290.48444    -119.5222    36638.639 
  239100    300.39288   -1524.7857    476.86556    299.67811    102.83567    36638.639 
  239200    299.64712   -1510.5768    477.57798    311.25389    -160.3571    36638.639 
  239300    294.76376   -1550.7173    487.73142    259.35946   -511.08306    36638.639 
  239400    296.86167   -1520.2051    496.34649    307.89819    454.67214    36638.639 
  239500    287.57539   -1550.7169    479.87277    219.25328    591.97103    36638.639 
  239600    293.90702     -1524.48    456.39545    250.41733    20.680754    36638.639 
  239700    295.79415   -1507.2057    497.86097    317.62305   -397.46168    36638.639 
  239800    294.66605   -1512.4197    482.14205    291.62934     28.16484    36638.639 
  239900    295.76661   -1504.0418    487.74677    310.54924    366.82733    36638.639 
  240000    291.52785   -1456.5185    484.76187      336.072    -174.6084    36638.639 
  240100    296.72333   -1490.8077    475.86849    316.19704   -158.32188    36638.639 
  240200    312.20603    -1425.189    481.83505    457.23945      -389.74    36638.639 
  240300    302.88738   -1463.8152    505.49255    400.46625   -392.89893    36638.639 
  240400    307.90358   -1486.2134    490.69161    385.77033     361.9561    36638.639 
  240500    296.93073   -1500.1016    476.92669    308.89172    64.902668    36638.639 
  240600    305.93438   -1496.2189    522.97028    399.20951    1146.9431    36638.639 
  240700    294.92407    -1503.469    479.64566    299.24119    205.75635    36638.639 
  240800    299.98732   -1517.0721    501.95756    330.66428    366.42389    36638.639 
  240900    294.58193   -1538.3498    477.10945    260.28926     104.3542    36638.639 
  241000    309.60372   -1530.9421    499.61186    357.58892    385.25401    36638.639 
  241100    294.78503   -1480.8983     497.1397    338.68217    836.57351    36638.639 
  241200    303.02215   -1490.9542    485.43641    353.87566    343.17743    36638.639 
  241300    308.35255   -1528.3977    493.14977    348.05834    455.38764    36638.639 
  241400    293.95742   -1534.9065    464.22448    248.04597    317.37851    36638.639 
  241500    304.22727   -1564.6394    471.25513    271.41547   -146.94413    36638.639 
  241600     305.1793   -1575.9532    488.11977    281.23724    275.83861    36638.639 
  241700    303.93705   -1588.4824    453.43558    228.45099    527.71305    36638.639 
  241800    309.33684   -1530.2814    477.09293    334.53344   -217.46647    36638.639 
  241900    298.58624   -1527.8965    462.07901    273.67595   -215.62363    36638.639 
  242000    296.30037   -1544.4736    472.91869    257.68382   -151.93534    36638.639 
  242100    303.41094   -1546.5354    471.06655    285.66874   -280.23589    36638.639 
  242200    307.49755   -1522.5342    462.96336    319.89984    101.53928    36638.639 
  242300     300.2748   -1566.3671    470.40521    251.10667   -230.39006    36638.639 
  242400    306.95392    -1551.054    459.94104    285.91883    87.305394    36638.639 
  242500    318.68457   -1566.2822    462.64549    326.02021    23.687146    36638.639 
  242600    300.10666   -1548.8871    449.94463    247.37173    370.33975    36638.639 
  242700    299.00301   -1556.4619    473.36147    258.26266    94.743092    36638.639 
  242800    293.19768   -1562.2697    496.00578    249.05584    -412.2787    36638.639 
  242900    294.63665   -1527.8709    471.06833    264.97259   -107.92198    36638.639 
  243000    294.41156   -1547.1341    449.75273    223.38399   -5.9772365    36638.639 
  243100    305.91128   -1544.3149    485.88032    313.91982   -851.01447    36638.639 
  243200    295.05635    -1574.919    466.70531    215.44422   -623.44126    36638.639 
  243300    312.51803   -1575.1242    458.55651    285.42542   -673.75486    36638.639 
  243400    306.27481   -1572.5384     477.9164     279.3633   -891.85667    36638.639 
  243500    305.91803   -1590.4783    463.69048    245.59693   -386.54215    36638.639 
  243600    322.95994   -1526.8854    478.85048    400.80182   -662.55476    36638.639 
  243700    302.79483   -1499.5077    471.11799    329.98392    88.962625    36638.639 
  243800    296.94827   -1543.5511    484.90156    273.49578    392.83614    36638.639 
  243900    305.16993   -1548.2257    506.35475    327.15768    428.72029    36638.639 
  244000    292.73358   -1520.6624    489.81331    282.38862   -170.42125    36638.639 
  244100    307.44717   -1513.1013    467.37377    333.51713   -120.31569    36638.639 
  244200    299.94115   -1539.4217    486.24918    292.39924   -186.45272    36638.639 
  244300    299.08855   -1510.8424    489.75479    320.65928   -410.42516    36638.639 
  244400    309.63449   -1546.9696    466.55173    308.63936    122.32159    36638.639 
  244500    304.27893   -1536.2102    484.63117    313.45249    478.21479    36638.639 
  244600    311.75912   -1548.3819    479.12044    329.32708    169.53996    36638.639 
  244700    300.00227   -1535.9338    476.21081    286.12293     517.5065    36638.639 
  244800    300.29681   -1532.7739    467.11791    281.51131    452.99414    36638.639 
  244900    305.98942   -1529.5677    485.83237    328.96971    311.00305    36638.639 
  245000    303.98986   -1502.1727    474.06945    335.63148    169.76672    36638.639 
  245100    294.17615   -1518.4486    492.57508    293.83571   -340.10562    36638.639 
  245200    288.06204   -1537.2109    487.36972    242.43947   -834.73725    36638.639 
  245300    302.86271    -1515.715    447.80255    290.76577   -504.45948    36638.639 
  245400     292.9085   -1514.0361    489.41816    289.40449   -709.52366    36638.639 
  245500    298.93655    -1500.273    444.46683    285.25879   -345.07704    36638.639 
  245600    299.41188   -1531.0242    470.24788    282.42106    85.970549    36638.639 
  245700    301.56881   -1537.9279    485.88518     300.8309    569.54134    36638.639 
  245800    301.50133   -1500.8353    484.10969    335.84527   -223.71539    36638.639 
  245900    300.87868   -1512.6013    476.32778    313.50403   -289.68209    36638.639 
  246000    302.91433   -1519.1878    484.69911     324.4211   -172.35014    36638.639 
  246100    305.64554   -1475.6779    468.87551    364.35996   -568.43977    36638.639 
  246200     302.6319   -1517.6662    449.70842    289.68496   -1003.8411    36638.639 
  246300    309.21084   -1490.5449    467.71289    364.32469   -1178.3454    36638.639 
  246400    292.07207   -1492.9942    485.48368    302.75961   -784.81425    36638.639 
  246500    295.68098    -1485.047    456.37605     297.7892   -569.54907    36638.639 
  246600    302.03801   -1504.1456    487.09278     337.9257    -364.1816    36638.639 
  246700    297.16302   -1561.9392    480.29471    251.46427   -250.30017    36638.639 
  246800    293.26123   -1530.3177    480.96869    266.25586   -437.99487    36638.639 
  246900    302.04369    -1535.302    486.62337    306.32532    -170.4064    36638.639 
  247000     302.7263   -1533.9967    478.93607    303.00565   -29.119162    36638.639 
  247100    296.56642   -1547.8478    479.46565    262.05009   -231.26172    36638.639 
  247200    311.79974   -1555.0493    483.46317    327.18467    358.11875    36638.639 
  247300    299.33426   -1480.4715    463.94686    326.32452    298.07972    36638.639 
  247400    306.83051   -1508.9325     482.1581    349.70382    134.52603    36638.639 
  247500    295.97199   -1566.4204    467.14495    228.49017    105.91909    36638.639 
  247600    292.66084   -1516.5383    477.37391    273.74698   -104.38788    36638.639 
  247700    302.35561   -1520.5873    449.55164    285.36763   -568.56645    36638.639 
  247800    300.17866   -1538.8632    487.90732    295.68138   -230.26404    36638.639 
  247900    308.60847   -1537.2554    442.27263    289.47159   -352.08441    36638.639 
  248000     303.9779    -1491.397    493.02816    365.31218     191.5286    36638.639 
  248100    291.59998   -1499.4742    452.69958    261.37761   -144.03658    36638.639 
  248200    307.20595   -1485.8882    466.24879    358.52305    172.90195    36638.639 
  248300    295.21807   -1499.7672     484.6643    309.28057    400.05813    36638.639 
  248400    300.37433   -1505.6134     477.9872    319.88885    270.46105    36638.639 
  248500    301.37754   -1483.4515    477.95309    346.51713    322.07155    36638.639 
  248600     302.2041   -1497.0474    487.31948    345.99566    227.86532    36638.639 
  248700    333.06428   -1491.8353    444.03837    446.36913   -325.10749    36638.639 
  248800    291.26141   -1523.9502    477.92625    260.60945   -608.40357    36638.639 
  248900    293.66552   -1471.5605    469.47231     315.3303    -284.2237    36638.639 
  249000    296.04947   -1492.9817    470.15979     305.2913    11.899266    36638.639 
  249100    295.14196    -1540.527    476.68041    260.19535   -261.55922    36638.639 
  249200    310.23902   -1533.1439    479.75146    338.37676   -155.60017    36638.639 
  249300    289.48619   -1498.1557    479.52186    280.03566   -427.95419    36638.639 
  249400    308.07525   -1503.6536    481.72696    360.13564    202.68363    36638.639 
  249500    310.23761   -1474.1496    487.95912    405.57245    496.12007    36638.639 
  249600     303.3592   -1443.6903     509.7665    426.98172    56.676082    36638.639 
  249700    298.78299   -1515.8061    460.92269    285.49263    -722.4595    36638.639 
  249800    305.92128   -1455.3289    475.26208    392.33251   -105.41303    36638.639 
  249900    296.86052   -1472.2665    517.35262    376.83774   -226.99621    36638.639 
  250000    294.10026   -1507.3596    456.37784    268.38702    570.41168    36638.639 
  250100    296.96272   -1531.9121    484.20998    284.50803    504.28591    36638.639 
  250200    294.60026   -1521.8013    495.83943    295.65001    515.82129    36638.639 
  250300    300.91374   -1555.1933    459.44765    254.18917    178.96125    36638.639 
  250400    300.31491    -1508.978    508.29902    346.56949   -372.94028    36638.639 
  250500    305.33838   -1505.5763    449.12014    313.32823   -26.370022    36638.639 
  250600    291.85374   -1527.1116    471.55894    253.73802    145.70271    36638.639 
  250700    306.36525   -1545.4686    482.18733    311.10972   -47.064249    36638.639 
  250800    308.68658    -1463.734    469.14394    390.21469   -609.31506    36638.639 
  250900    305.72174   -1496.0982    497.71583    373.12176   -588.46619    36638.639 
  251000    302.31801   -1516.4536    489.55636    329.33742   -503.97385    36638.639 
  251100    304.43011   -1491.7013    479.62447    353.63288   -720.40204    36638.639 
  251200    291.38894   -1474.5279    477.53016     310.2077   -814.62846    36638.639 
  251300    300.38264    -1493.744    465.51736    319.32562    -444.3099    36638.639 
  251400    290.62996   -1520.7439    489.99892    273.05566   -356.20134    36638.639 
  251500     312.4982   -1507.3931    482.39722    376.90831    97.639893    36638.639 
  251600    289.05526   -1494.0201    497.65939    300.37562    -201.3922    36638.639 
  251700    298.63588   -1507.3095    469.67263    302.07927   -365.96742    36638.639 
  251800    313.00235   -1489.1762    485.46574    400.45532   -194.88487    36638.639 
  251900    298.23485   -1515.8411    473.39264    295.46861    363.02735    36638.639 
  252000    299.37617   -1502.4833    490.12175    330.67561    369.27277    36638.639 
  252100    297.13954   -1460.3234    491.04111    363.72106    100.75282    36638.639 
  252200    307.52237   -1450.0172    473.39012     402.9549   -27.946434    36638.639 
  252300    303.15977   -1464.1361    524.48488    420.35965    688.89704    36638.639 
  252400    296.56595   -1488.5306    494.39672     336.2963    658.68826    36638.639 
  252500    302.43592   -1491.9021    500.84427    365.70571    263.37067    36638.639 
  252600     306.3738   -1488.2438    490.93198     377.1175    137.88961    36638.639 
  252700     305.2342   -1479.0135    465.49593    355.79939    536.30391    36638.639 
  252800    303.22704   -1465.8246    466.03436    360.52239    575.57656    36638.639 
  252900    293.39496    -1462.319    505.86646     359.7522    221.58447    36638.639 
  253000     291.7447   -1489.5558    493.12592    312.37155   -66.832117    36638.639 
  253100    300.34503   -1463.5471    485.77578    369.61229   -555.27891    36638.639 
  253200    309.11336    -1504.871    450.10534    331.95367   -506.84068    36638.639 
  253300    291.08191   -1506.8597    471.69576    270.66415   -290.21151    36638.639 
  253400    291.35872   -1467.2364    499.93142    339.76497    427.06901    36638.639 
  253500      298.183   -1459.0936     479.2015    357.79237    790.89723    36638.639 
  253600    301.99058   -1514.5167    486.99125    327.24023    652.94717    36638.639 
  253700    295.78582    -1515.812    477.94401    289.06237    1078.3811    36638.639 
  253800     307.6987   -1496.4376    473.00602    356.94147    670.66483    36638.639 
  253900      300.433   -1531.8073    499.77726    315.74816    452.27477    36638.639 
  254000    292.55169   -1527.2962    468.38677    253.51227    214.07802    36638.639 
  254100    299.77637   -1565.3824    475.32204    254.77212   -256.53479    36638.639 
  254200    301.60394   -1566.7404    464.24974    250.54056    70.749017    36638.639 
  254300    311.96384   -1501.7877    468.86781    366.58703    206.65179    36638.639 
  254400    307.24392   -1522.3463    495.55789    351.54447    351.58436    36638.639 
  254500    310.16612   -1567.2469    459.33732     283.5326   -334.56844    36638.639 
  254600    296.51806   -1574.3415    482.40944    238.28326   -272.47568    36638.639 
  254700    295.23859   -1546.6583    471.07995    248.89717   -121.87226    36638.639 
  254800    300.54936   -1539.9048    483.95319    292.34865    224.97397    36638.639 
  254900    305.48954   -1574.2022    475.87559    272.13586    431.77387    36638.639 
  255000    302.08446   -1572.3427    471.51766    254.36185    72.533208    36638.639 
  255100    294.77387   -1477.4781    500.89343    345.80602   -150.99672    36638.639 
  255200    308.68952   -1448.2247    488.28605    424.87931    381.12298    36638.639 
  255300    286.96947   -1492.3128     497.9203    292.98671     391.3072    36638.639 
  255400    307.80048   -1523.8723      481.859    338.81628    191.15685    36638.639 
  255500    303.87793   -1531.9546    478.75019     310.0282   -408.26173    36638.639 
  255600    304.47041   -1491.8099     496.7548    370.83546   -934.38429    36638.639 
  255700    305.92506   -1540.2575    466.38931    298.54809   -1006.4674    36638.639 
  255800    296.96899   -1507.6838    463.99371    288.54819   -836.61641    36638.639 
  255900    299.12276   -1504.8153     496.3482    333.43317   -887.90307    36638.639 
  256000    300.20189   -1552.9037    448.78797    242.62571   -454.12644    36638.639 
  256100      300.197   -1502.2498    506.72216    351.19189    -517.7697    36638.639 
  256200    293.96844   -1482.0641    459.21298    295.92626   -270.35391    36638.639 
  256300     301.3827   -1517.0017    504.18883    339.22578   -397.28866    36638.639 
  256400    311.36789   -1543.4455    489.59725    342.98516   -502.43816    36638.639 
  256500    311.14419   -1510.7978    481.03756    366.06962   -13.664189    36638.639 
  256600     297.6806    -1494.367    493.23623    334.29988   -141.38741    36638.639 
  256700    295.80569   -1445.1092    468.16908    350.07944    687.89532    36638.639 
  256800    292.14514   -1530.0794    490.81506    271.33359    449.49762    36638.639 
  256900    304.47701   -1482.5955    488.18492    371.50961    869.55596    36638.639 
  257000     299.5316   -1533.8791     469.5365    279.39185    678.19403    36638.639 
  257100    313.35208   -1530.3383    465.19712     340.5936    1005.0747    36638.639 
  257200    310.34157   -1568.0786    461.01275    285.16343    1155.3756    36638.639 
  257300     304.4213   -1536.5371    476.13407    305.26719    547.63013    36638.639 
  257400    305.50716   -1568.5411    484.65634    286.65668    580.07167    36638.639 
  257500    301.19899    -1602.522    462.77064    211.46318    17.591565    36638.639 
  257600    311.72665   -1576.1062    506.76638    329.10306   -777.06727    36638.639 
  257700    306.62318   -1580.8994    472.98301    267.63169   -125.33404    36638.639 
  257800    297.34294   -1586.9776    482.30538    229.24357    386.82039    36638.639 
  257900    298.25954   -1595.3556    486.94855    229.62075    545.37787    36638.639 
  258000    310.92468   -1542.4339    464.46912    316.88038    420.51899    36638.639 
  258100    291.79779   -1568.6466    469.81816    210.21124   -175.84782    36638.639 
  258200    304.88222   -1550.8102    480.67939    297.60719    481.42072    36638.639 
  258300    305.73088   -1543.3353    490.61132    318.82119    368.37918    36638.639 
  258400    300.93347   -1562.9852      452.741     239.7792   -544.97501    36638.639 
  258500    298.23763   -1594.2211    470.78748    214.49591   -661.42741    36638.639 
  258600    306.52197   -1571.1266     480.5705    284.53796    -919.1189    36638.639 
  258700    294.21401   -1583.1013    485.74271    222.52052   -552.75277    36638.639 
  258800    291.44664   -1616.9256    483.79313    174.33189   -241.22717    36638.639 
  258900    300.78252   -1568.1097    492.62817    273.86466    -259.6629    36638.639 
  259000    294.17615   -1569.0244    475.72155    226.40635    20.536421    36638.639 
  259100    300.57694   -1582.0579     505.7624    272.12841   -296.53105    36638.639 
  259200    299.00279   -1605.8795    484.65737    220.13996    -30.30118    36638.639 
  259300    301.96451   -1572.1284    469.34614    251.86648    254.46367    36638.639 
  259400    295.15999   -1556.1317    487.14059    255.13177    320.38062    36638.639 
  259500    297.74349   -1610.7611    499.75927    224.71091    598.01246    36638.639 
  259600    296.82425   -1614.0133    513.50658     231.0822    395.95387    36638.639 
  259700    308.79754   -1592.7187     488.7851      281.369    87.278579    36638.639 
  259800     300.5064   -1552.7014    473.30448     268.7106   -52.628221    36638.639 
  259900    299.86857   -1574.2354    487.07822    258.08897    119.62803    36638.639 
  260000    307.88949   -1602.1144    492.30849    271.42306    158.68286    36638.639 
  260100    316.44432   -1566.3154    476.10892    329.40042    220.77274    36638.639 
  260200    312.16539   -1603.3428    462.51385    259.58218   -145.33241    36638.639 
  260300    303.04724   -1638.0705    481.29814    202.73364    371.63682    36638.639 
  260400    297.17291    -1592.997     476.7622     216.9183    732.30883    36638.639 
  260500    307.38944   -1599.6423    504.69613    284.03943    227.09906    36638.639 
  260600    298.33971   -1595.1558    478.47868    221.71038  -0.34014163    36638.639 
  260700    294.62767   -1564.7153    512.44118    269.46066   -280.89356    36638.639 
  260800    288.41211   -1600.0038    473.02887    166.87615   -175.67405    36638.639 
  260900    294.11025   -1614.1394    493.34691    198.62108    199.02607    36638.639 
  261000    303.02312   -1595.5125    494.28453     258.1698    153.97312    36638.639 
  261100    306.91724   -1570.6393    484.99456    291.22253    929.59537    36638.639 
  261200    299.21066   -1541.1096    499.75924    300.94431    74.437508    36638.639 
  261300    303.62459   -1539.4959    518.64642    341.24657   -80.819588    36638.639 
  261400    301.44803   -1538.8418    496.05499    309.54497   -613.79731    36638.639 
  261500    307.53037   -1555.1757    495.45248    319.89463   -434.11435    36638.639 
  261600    306.59099   -1549.4953    502.29588    328.20424    -63.06386    36638.639 
  261700    296.20854   -1578.0861    489.98459    240.72534   -562.23768    36638.639 
  261800    310.32991   -1567.3576    483.81598     308.6353   -20.961555    36638.639 
  261900    294.21901   -1566.9143    495.92604    248.91325    -583.3911    36638.639 
  262000    292.69689   -1555.5847    487.14374    244.63215   -672.09267    36638.639 
  262100    307.91095   -1548.5374    462.64183    295.42963   -601.87046    36638.639 
  262200    302.86036   -1547.1057    478.69046     290.2524   -584.00429    36638.639 
  262300    309.78023   -1561.9745    480.88615     308.6227    -650.9977    36638.639 
  262400    304.43105   -1547.2883    484.75004    303.17565    137.24954    36638.639 
  262500    295.44756   -1559.3484    492.92328    258.98776   -78.491049    36638.639 
  262600    298.18832   -1568.4345    508.83681    278.11063    532.42067    36638.639 
  262700    303.57202   -1558.2614    477.95191    281.55075    99.713663    36638.639 
  262800    308.72392   -1552.4879    489.63728    322.12166    49.361936    36638.639 
  262900    292.26403   -1583.1321    484.53404    212.53324   -138.25037    36638.639 
  263000    300.65404   -1597.0059    498.19451     249.9584   -556.49765    36638.639 
  263100    310.09299   -1566.5228    510.07447     334.6658   -94.914645    36638.639 
  263200    291.65768   -1594.6855    492.75206    206.47764    109.72795    36638.639 
  263300    305.11415   -1568.7655    493.07217    293.08512     531.7548    36638.639 
  263400    291.72526   -1591.8705    473.35324    190.19706    497.71942    36638.639 
  263500    299.25389   -1592.8775    501.65965    251.27077    536.41158    36638.639 
  263600    297.19249   -1589.9139    492.52187    235.84891    531.51828    36638.639 
  263700    287.16655   -1566.0632     494.7049    216.90505    646.29896    36638.639 
  263800    298.14348   -1575.2457    486.16797    248.42937    -230.0862    36638.639 
  263900    310.30968   -1604.5949    474.49824    261.98949    134.68309    36638.639 
  264000    299.16589    -1581.185    513.48287    274.39166   -666.76113    36638.639 
  264100    299.49025   -1546.6716     490.3916    287.26896   -212.96059    36638.639 
  264200    300.40932   -1547.1887    500.77646    301.25979   -244.11586    36638.639 
  264300    301.30249   -1605.6202     504.1396    250.19831   -117.24145    36638.639 
  264400    304.29911   -1573.7635    493.46226    284.82081     262.0168    36638.639 
  264500    292.01983   -1597.1091    491.42504    204.35172    268.33379    36638.639 
  264600    303.74474    -1601.574    521.83038    282.89141    296.47152    36638.639 
  264700    302.97794   -1581.4907    476.36944     254.0739    425.45396    36638.639 
  264800     291.0528   -1571.2264    499.22111     233.6922    14.404376    36638.639 
  264900    302.53395   -1569.3249    519.90426    307.78269   -272.64558    36638.639 
  265000    295.36285    -1607.516    479.70286     197.2198   -395.11971    36638.639 
  265100    303.99139   -1580.0323    484.46821    268.17753   -698.34273    36638.639 
  265200    293.97672   -1567.6069    479.20746    230.41517   -130.00599    36638.639 
  265300     296.4675   -1533.2659    499.86826    296.59091    102.00587    36638.639 
  265400    301.18126   -1541.1838    480.28138    290.23254    116.81031    36638.639 
  265500    299.44235   -1548.6946    497.39083    292.03024    -206.4547    36638.639 
  265600     293.1897    -1553.112      503.602    265.77393    107.21461    36638.639 
  265700    287.58512   -1560.9251    501.92834    231.14438   -601.80271    36638.639 
  265800    295.61569   -1554.2209    516.32977     288.2761   -499.07182    36638.639 
  265900    307.19705   -1542.2274    488.61069    324.50588   -364.82122    36638.639 
  266000    292.31528   -1579.9376     497.6765    229.10006   -308.36406    36638.639 
  266100    296.76438   -1563.0691    524.72369    292.97491      168.803    36638.639 
  266200    293.19524   -1568.0343    507.90783     255.1823   -74.850957    36638.639 
  266300    310.68082   -1578.4374    477.14938    292.46318    -155.3765    36638.639 
  266400    297.37566   -1589.9155    498.20276    242.34984     -146.385    36638.639 
  266500    298.72771   -1631.2861    496.87908    205.72103   -371.93702    36638.639 
  266600    290.94242   -1574.6357     502.1954    232.76202    219.22526    36638.639 
  266700     300.9903   -1613.1664    481.98554    219.09746    122.59124    36638.639 
  266800     297.3936   -1629.6572    529.72877    234.21471    168.71622    36638.639 
  266900    296.96541   -1622.9858    510.27073    219.50715   -98.778671    36638.639 
  267000     298.8353   -1653.5962    462.90116    149.91573   -117.83872    36638.639 
  267100    295.25025   -1598.7001    513.49594    239.32364   -40.822151    36638.639 
  267200    299.72592   -1590.6163     524.0285    278.01835    -434.9846    36638.639 
  267300    310.21299   -1567.9583    486.67472    310.36881   -234.40159    36638.639 
  267400    297.32115    -1577.666    491.72587    247.87798   -689.68284    36638.639 
  267500     296.8896   -1552.0556    504.38416    284.21073   -405.15549    36638.639 
  267600    289.53916   -1569.3873    481.12275     210.6426   -739.23954    36638.639 
  267700    301.50642   -1589.0131    491.01335    254.59395   -89.248001    36638.639 
  267800    308.80787   -1625.8704    483.31009    242.78854    250.72937    36638.639 
  267900    299.28133   -1665.0563    467.45959    145.01499   -44.824081    36638.639 
  268000    301.82009   -1665.4529     479.2991    167.84708   -595.67235    36638.639 
  268100    304.53959   -1631.1077    489.22528    224.31848    17.083547    36638.639 
  268200    311.19586   -1608.6604    481.37638    268.77768    650.01769    36638.639 
  268300    303.78797   -1642.7427    515.38444    235.47079    249.17228    36638.639 
  268400    299.42811   -1630.9747    515.16281    227.45829    393.95492    36638.639 
  268500    293.52217   -1629.3464    507.45437    194.88337    796.65487    36638.639 
  268600    296.37263   -1605.4187    514.90415    239.04842    349.10981    36638.639 
  268700    297.12755   -1620.8919    477.98757    190.04529    252.91081    36638.639 
  268800    304.34135   -1615.4261    497.55537    247.44085   -88.135337    36638.639 
  268900    298.80902   -1598.0635    465.41302    207.84239   -468.01908    36638.639 
  269000    307.25825   -1584.2426    520.86251    315.01699   -13.632834    36638.639 
  269100    295.19567   -1610.5195    522.95995    236.72342   -124.17455    36638.639 
  269200    293.80832   -1602.2659     496.1249    211.91815   -161.16984    36638.639 
  269300    297.61903    -1617.362    500.55072    218.34317     321.5884    36638.639 
  269400    291.89391   -1633.2046    541.03347    217.29971    686.59439    36638.639 
  269500     298.3407   -1627.7551    514.66867    225.30554    1204.5935    36638.639 
  269600    295.94845   -1665.0702     467.5807     130.1705     379.9247    36638.639 
  269700    308.27695   -1654.1928     515.2802    244.05455    71.207911    36638.639 
  269800    299.45844   -1612.5358    476.68325    207.55363    73.115435    36638.639 
  269900     302.6984   -1548.7145    530.87112    340.09771   -475.03644    36638.639 
  270000    298.72346   -1579.6949    505.30485    265.71896   -419.26083    36638.639 
  270100    297.39565   -1561.5435    512.40662    285.01543   -525.95133    36638.639 
  270200    298.41561   -1615.5631    498.17221    221.33708   -728.42442    36638.639 
  270300    309.11747   -1578.4087    482.80278    291.13181   -891.47371    36638.639 
  270400    301.10595   -1640.1462    471.40443    182.05534    633.76143    36638.639 
  270500    297.47234   -1605.5111    503.03166    232.01692    1118.9674    36638.639 
  270600    297.16323    -1582.383    478.25775    228.98435    677.49304    36638.639 
  270700    294.86165   -1558.6308    489.46601    253.61973    703.49766    36638.639 
  270800     305.5641   -1612.8389    497.96335    255.92137    322.94533    36638.639 
  270900    305.20346   -1583.5205    523.71096    309.36957    669.62597    36638.639 
  271000    299.77192   -1600.8596     469.4049    213.35786    274.98821    36638.639 
  271100    319.51906   -1620.1754    497.41878    310.64399    938.86819    36638.639 
  271200    289.74053   -1620.8717    500.62704    179.56588    40.747692    36638.639 
  271300    307.60073   -1598.5982    507.78587    289.12118     475.5392    36638.639 
  271400    297.87934   -1636.2901    456.80517    156.83733    389.63316    36638.639 
  271500    304.83119   -1587.6441    505.57996    285.44487    437.76854    36638.639 
  271600    303.41251   -1607.4394    482.83229    236.53759    307.76582    36638.639 
  271700    309.33115   -1619.5871    497.60242    265.71171     146.4128    36638.639 
  271800    308.97742   -1580.4873    467.26695    272.88916     462.5267    36638.639 
  271900    293.71513   -1582.9967    501.40652    236.05092   -30.674949    36638.639 
  272000    294.40242   -1572.1711    484.70623    233.25944      25.4837    36638.639 
  272100    309.87614   -1598.3899    494.24708    285.99842   -750.55067    36638.639 
  272200    301.68323   -1606.2391    493.78431    240.93214   -598.45351    36638.639 
  272300     298.4514   -1609.3991     459.7906    189.28003   -324.62349    36638.639 
  272400    309.14285    -1619.137    470.79818    238.51287    177.23801    36638.639 
  272500    295.81087   -1611.4019    502.25001    217.89094   -1.7113778    36638.639 
  272600    305.03079   -1627.0022    498.97303     240.3753    1019.1787    36638.639 
  272700    303.92255   -1611.8915    475.17786    226.71915    291.62546    36638.639 
  272800     292.4237   -1581.1921    498.60942    229.26491    13.339242    36638.639 
  272900    305.96872   -1587.7406    487.43883    272.31037   -40.209872    36638.639 
  273000    295.08159   -1563.2398    484.79809    245.32944     -209.154    36638.639 
  273100    301.59178   -1528.7763    514.50941    338.70973    146.04402    36638.639 
  273200    312.10568    -1540.221    467.14285    327.06508   -159.72272    36638.639 
  273300    297.56912   -1538.6262    500.42028    296.72457   -74.294053    36638.639 
  273400    313.07377   -1561.0551    488.39937    331.83055   -387.19525    36638.639 
  273500    300.66073   -1572.3116    527.36507    303.85337   -376.68573    36638.639 
  273600    293.60268   -1564.2554    483.23708    236.11829   -55.915694    36638.639 
  273700    298.22194   -1529.7354    503.15092    311.27465   -167.00459    36638.639 
  273800    298.72726   -1522.2868    500.32922     318.1685   -489.18393    36638.639 
  273900    298.52821   -1535.3309    511.74851    315.65072   -734.29917    36638.639 
  274000    296.34968   -1558.8101    503.17542     273.8253   -496.87933    36638.639 
  274100    295.12903   -1563.2255    515.57585    276.33439    104.75414    36638.639 
  274200    307.50131   -1555.8271     510.9823    334.64274   -485.56713    36638.639 
  274300     296.7312    -1522.875    480.56313    288.85963   -27.409954    36638.639 
  274400     296.1744   -1570.0453    490.36499     248.9934    -90.39197    36638.639 
  274500    312.14877   -1566.5451    487.48867    321.28011    44.388144    36638.639 
  274600    297.05885   -1590.1726    506.60323    249.07204   -39.084472    36638.639 
  274700    304.56465   -1597.8547     507.0355     275.4941   -37.104641    36638.639 
  274800    310.93579    -1600.261    477.54366    272.17769    283.90624    36638.639 
  274900    301.02125   -1541.0658    494.03901    303.39043    325.10998    36638.639 
  275000    292.35564   -1593.8198    480.06427    197.78672     197.8794    36638.639 
  275100    304.28101   -1570.3286    482.81862    277.53086    322.38507    36638.639 
  275200    295.51042   -1572.8239     496.4847    249.35575    461.09477    36638.639 
  275300    305.88984   -1546.7422    482.15904    307.67508    463.57249    36638.639 
  275400    289.26453   -1549.1553    508.35626    256.87604   -118.96784    36638.639 
  275500    302.45183   -1565.5922    517.11592    308.35868   -298.55062    36638.639 
  275600     293.1688   -1610.5579    481.98167    186.61386    457.61448    36638.639 
  275700    296.50767   -1607.8829    481.33696     203.6228    672.47074    36638.639 
  275800    306.00729   -1612.8052    494.84242    254.82241    78.727011    36638.639 
  275900    295.11474   -1614.7096    483.97848    193.18877    43.460888    36638.639 
  276000    303.77403   -1595.3117    491.06055    258.51532    33.717201    36638.639 
  276100    295.68476   -1586.9246    487.54174    227.09418   -850.09776    36638.639 
  276200    292.95988   -1525.3818    503.83069    292.70181   -752.49877    36638.639 
  276300     313.8017   -1557.2897    476.90467    327.36678   -504.08634    36638.639 
  276400    290.07611   -1585.2233    494.59545     210.6882   -257.33891    36638.639 
  276500    304.61428   -1615.7263    479.68706    230.49666   -777.41686    36638.639 
  276600     296.9178   -1546.7077    505.47808    290.77899   -879.52837    36638.639 
  276700    299.42732   -1518.0603    511.66075     336.8671    -94.18674    36638.639 
  276800    297.51145   -1568.4559    492.94935    259.16527   -430.26327    36638.639 
  276900    286.36567   -1556.4978     480.8078    208.98055      311.982    36638.639 
  277000    287.03771   -1581.4756    473.76674    179.97648    46.431548    36638.639 
  277100    290.36658   -1595.6411    477.90928    184.88727     -393.183    36638.639 
  277200    312.91963   -1574.8286    479.78717    308.75333    289.59753    36638.639 
  277300    293.97303   -1532.8029    500.58999    286.58515   -487.33362    36638.639 
  277400    294.57857   -1529.0564    464.04445    256.50255   -655.90676    36638.639 
  277500    297.22124   -1556.9093    478.13393    254.59447   -213.50482    36638.639 
  277600    304.78959   -1543.0874    479.28183    303.51689   -63.972828    36638.639 
  277700    298.87772   -1545.6767    470.17091     265.2953   -367.48935    36638.639 
  277800    290.94217   -1543.4788    495.46551    257.18791    16.833165    36638.639 
  277900    296.25406   -1518.5877    494.88553    305.32891   -694.26002    36638.639 
  278000     292.3619   -1586.3268    487.81182    213.05534   -84.954218    36638.639 
  278100    302.17435   -1614.5055    472.65207    213.73672   -314.88675    36638.639 
  278200    302.73596   -1576.0998    468.23862    250.24836    309.73394    36638.639 
  278300    294.58792   -1595.3121    482.04835    208.29271   -171.64363    36638.639 
  278400     292.1522   -1586.4197    474.84716    199.05702    156.51622    36638.639 
  278500    299.57391   -1550.7021    500.73194    293.95405   -135.63152    36638.639 
  278600    303.31293   -1583.6088    453.60974    230.69886   -80.830144    36638.639 
  278700    303.61352   -1595.4765    502.13344    268.70338    313.60581    36638.639 
  278800     300.1623   -1570.1273     481.6118     258.0483    127.04963    36638.639 
  278900    300.85469   -1565.9267    470.27281    254.01605     87.68096    36638.639 
  279000     309.4182   -1574.5943    493.88694    307.37953   -513.55439    36638.639 
  279100     293.8646   -1567.7665    473.85471    224.39975   -655.23641    36638.639 
  279200    300.01337   -1543.0583    483.50537    286.34274   -341.17604    36638.639 
  279300    298.50057   -1494.5109    508.50094    353.09917    172.88718    36638.639 
  279400    298.32032   -1564.9264    490.97794    264.35208     49.74692    36638.639 
  279500    302.27591   -1501.1773    493.73484    348.60331   -141.32589    36638.639 
  279600    297.16697   -1533.6542     519.4333    318.90556    8.2175987    36638.639 
  279700    296.27057   -1534.4843    474.21856    268.83935   -196.41724    36638.639 
  279800    294.90392   -1545.6597    511.77439    289.08875   -123.11848    36638.639 
  279900    295.17405   -1534.3387    497.10164    286.94889   -163.70362    36638.639 
  280000     306.9837   -1514.8192     499.0253    361.37151   -157.32565    36638.639 
  280100    295.23062   -1542.5601    499.33277    281.21236   -417.25459    36638.639 
  280200    297.75765   -1562.6605    486.59991    259.71575   -175.94581    36638.639 
  280300    303.42863   -1570.9348    499.33766     289.6199    142.81237    36638.639 
  280400     300.2637    -1545.386    475.53142    277.16419   -265.82454    36638.639 
  280500    297.54404   -1539.4071    476.12701     271.5379   -627.38998    36638.639 
  280600    302.74151    -1545.341    519.53111    332.32459    71.246039    36638.639 
  280700    302.03369   -1575.2079    478.47641    258.22763    395.79215    36638.639 
  280800    305.69467   -1525.5414    531.19996    377.04128    11.995631    36638.639 
  280900    298.05646   -1530.7121    478.05321    284.45787   -67.148424    36638.639 
  281000    302.00159   -1512.5251    490.86218    333.15218    427.96347    36638.639 
  281100    299.27145   -1517.6718    478.76099    303.65662    795.21901    36638.639 
  281200    308.51906   -1506.1324     481.6264    359.54725   -145.20297    36638.639 
  281300    309.98381   -1490.7924    498.70424    398.53616   -265.92183    36638.639 
  281400    294.39963   -1499.7763    478.65656    299.59211     -334.345    36638.639 
  281500    304.12801   -1510.1592    481.86413    336.05944   -320.08009    36638.639 
  281600    298.12915   -1562.0383    485.00892    260.41347   -278.41226    36638.639 
  281700     302.5136   -1558.8155    481.32916    279.62568    49.284817    36638.639 
  281800    306.52463   -1512.3213    487.20005    349.98475   -270.23877    36638.639 
  281900    306.23933   -1509.6984    467.96211    332.08985    73.546674    36638.639 
  282000    310.11384   -1520.4377    490.36503    361.13495    248.45808    36638.639 
  282100    291.76787   -1534.5335     481.4666    255.83848    123.82403    36638.639 
  282200     297.1827   -1494.8095    513.72658    352.11403    -132.2114    36638.639 
  282300    302.41363   -1540.5455    464.69831    280.81639   -277.40276    36638.639 
  282400    303.46158   -1550.0629    487.40604    298.70799    404.10785    36638.639 
  282500    298.45648   -1567.6864    481.91144    253.13631    50.380691    36638.639 
  282600    307.74677   -1580.0225    467.60328    268.16949    276.11018    36638.639 
  282700    298.74853   -1588.6253    491.39303    242.98925    15.925051    36638.639 
  282800    292.66587   -1558.8956    487.66232    241.70065    494.26425    36638.639 
  282900    293.33695   -1588.5486    496.02496    223.42085    148.93571    36638.639 
  283000    299.17613   -1583.5069    499.78703    258.41984    315.83301    36638.639 
  283100    305.84143   -1564.6629    481.21829    288.59649    714.55452    36638.639 
  283200     299.3055   -1566.1771     473.4453    249.98831    254.20163    36638.639 
  283300    303.92878   -1536.5366    482.04656    308.97068    763.56042    36638.639 
  283400    295.68023   -1562.5321    470.65947    234.58406    455.63075    36638.639 
  283500     295.8902   -1556.8891    470.97952    241.48911    53.147036    36638.639 
  283600    308.88706   -1566.3329    467.15064    286.52193    579.68575    36638.639 
  283700    294.26063    -1534.595    476.64984     262.1431      96.4928    36638.639 
  283800    316.93595   -1509.1513    475.98745    388.64861   -219.39752    36638.639 
  283900    306.10135   -1537.4481    475.34895    311.10796   -597.01347    36638.639 
  284000    308.70393   -1547.8928     472.4431    309.43296   -707.68957    36638.639 
  284100    302.40146   -1552.9946    477.46857    281.08297   -801.00708    36638.639 
  284200    294.92612   -1492.0115    454.32636     285.3886   -785.31814    36638.639 
  284300    298.71658   -1518.8262    485.00388    306.25581   -924.14733    36638.639 
  284400     295.1569   -1524.5174    471.70074    271.29239   -50.229313    36638.639 
  284500    300.17924   -1508.2983    498.89105    337.23257   -69.229177    36638.639 
  284600    308.02122    -1495.784     478.1708    364.20672   -56.143105    36638.639 
  284700    295.16717   -1508.6397    479.63385    295.14926    370.31611    36638.639 
  284800    298.06893   -1540.8111     494.9059    291.26754   -58.895555    36638.639 
  284900    297.41912   -1516.2213    486.75643    304.79276    34.222348    36638.639 
  285000    298.45134    -1505.739    467.25284    300.40209   -722.93632    36638.639 
  285100    300.29686   -1506.1682    497.74032    338.73954   -504.20433    36638.639 
  285200    302.89733   -1490.7949    490.82027     358.8589   -595.23765    36638.639 
  285300    309.21808   -1502.9892     503.5704    387.77031   -751.35952    36638.639 
  285400    296.52688   -1547.3418    497.47268    280.38583   -133.30593    36638.639 
  285500    306.28478   -1544.6847    482.62917    311.97446   -26.928968    36638.639 
  285600    315.56137   -1536.4126    484.78529    364.01862    34.834707    36638.639 
  285700    292.98297   -1545.0353    477.81105    247.13223   -66.325912    36638.639 
  285800    300.44469   -1541.8576    491.45467    297.42773     42.11939    36638.639 
  285900    304.75742    -1500.589    472.14657    338.73567   -6.8051026    36638.639 
  286000    307.08923   -1485.8534    500.38897     392.1744     296.2957    36638.639 
  286100    286.42092   -1520.4756     502.2384    266.68116    415.24497    36638.639 
  286200    303.70581   -1492.0328    465.38762    335.81522    -192.9199    36638.639 
  286300    293.36226   -1556.0579    473.38312    233.38325     218.2478    36638.639 
  286400    305.69438   -1525.7694    485.04559    330.65761    214.27984    36638.639 
  286500    294.43889   -1535.5987     499.6224    284.91159    302.19004    36638.639 
  286600    299.14626   -1542.9977    482.61171    281.61975    -875.1309    36638.639 
  286700    299.10097   -1561.8023     459.1638    239.16411    201.29822    36638.639 
  286800     280.8469   -1527.7314    493.77115    225.95236   -71.688521    36638.639 
  286900    301.87669   -1525.7564    485.34484    313.84327    244.11453    36638.639 
  287000    293.63634   -1552.5626    489.09362    253.81861    545.90217    36638.639 
  287100    296.79034   -1565.7051    479.13412    244.86579    509.52657    36638.639 
  287200    306.37154   -1606.3349    477.13419    245.21847    699.16898    36638.639 
  287300    295.90214   -1656.6827      459.768    130.53753    819.09006    36638.639 
  287400     287.4152   -1593.6655    477.20308    172.91641     532.9953    36638.639 
  287500    305.52163   -1555.8755    488.74121    303.47214    127.17283    36638.639 
  287600      291.402   -1555.0584    476.04593    228.25166   -383.96221    36638.639 
  287700    294.96789   -1544.5377    480.30762    259.03101   -532.62792    36638.639 
  287800    291.68824   -1568.0988    480.80145    221.25087   -304.39371    36638.639 
  287900    296.41127   -1546.7957    512.64361    295.58424    305.27142    36638.639 
  288000    303.32174   -1551.9053    476.54008     285.3722     377.4458    36638.639 
  288100    293.10555   -1533.4644    491.13347     272.5755    656.46501    36638.639 
  288200    293.61803    -1553.128    506.68683     270.7643    384.20766    36638.639 
  288300     312.6237   -1566.7815    485.06483    320.75047    826.28783    36638.639 
  288400     306.0568   -1499.8081     499.4106    372.60975     817.4848    36638.639 
  288500    290.67948   -1551.1762    481.34334    234.18992    550.37558    36638.639 
  288600     285.7638   -1570.8774    472.35607    183.44912    428.37116    36638.639 
  288700    307.74583   -1554.0415    483.92034    310.46325    1070.8675    36638.639 
  288800    295.26079   -1577.3879    489.39419    236.58133    636.73543    36638.639 
  288900    314.70575   -1506.4376    487.87553    393.24543      845.927    36638.639 
  289000    292.51656   -1542.1394    485.29074    255.41544    596.83947    36638.639 
  289100    290.33891    -1548.691    489.86359    243.66752     250.9279    36638.639 
  289200    304.75962   -1516.7739    501.46611    351.88017    269.76126    36638.639 
  289300    292.21702   -1501.5544    479.22181    288.58778    -347.5777    36638.639 
  289400    289.45701   -1490.2398     468.3354    276.63429   -491.28685    36638.639 
  289500    306.33909   -1520.1456    490.50511    344.63309   -298.67055    36638.639 
  289600    290.01871    -1483.732    488.00021    305.32665   -177.55086    36638.639 
  289700    293.63973   -1523.1164    500.80223    294.98861   -35.328463    36638.639 
  289800    300.08034   -1557.8525    488.45964    276.80325    279.74361    36638.639 
  289900    296.81124   -1537.2587    504.21421    298.48609    -303.5826    36638.639 
  290000      299.843   -1547.9359    459.84951    257.04509   -331.65152    36638.639 
  290100    308.44034   -1485.2534     488.5606     387.0073   -698.40227    36638.639 
  290200    312.82001   -1483.6254    469.52231    389.24474   -162.83166    36638.639 
  290300    313.94809   -1497.6652    523.88045    434.62375   -301.75905    36638.639 
  290400    291.54883   -1547.3716    480.02055    240.57172    247.34238    36638.639 
  290500    298.74885    -1559.999    471.28631    251.51029     697.0431    36638.639 
  290600    304.16833   -1526.4547    504.91146    342.99213    548.48707    36638.639 
  290700    293.95468   -1541.8012    499.82655    276.74106     536.7897    36638.639 
  290800    306.64184   -1517.3934    468.71771    326.95616    220.76013    36638.639 
  290900    294.29966   -1534.6384    498.48326    284.10823   -105.38157    36638.639 
  291000      304.483   -1524.2314    495.94218    337.65785   -278.98413    36638.639 
  291100    304.76339   -1505.8968    494.47555    355.78367   -395.67854    36638.639 
  291200    300.02187   -1510.4833    479.46056    314.91111   -565.61242    36638.639 
  291300    302.22919   -1559.0765    487.14596    283.90555   -816.44613    36638.639 
  291400    296.00942   -1540.8491    472.19271    259.27717   -737.76756    36638.639 
  291500     302.8624   -1573.3093    476.45593     261.8235   -605.88351    36638.639 
  291600    304.46841   -1558.6735    494.31142    301.51945    53.463323    36638.639 
  291700    297.76127   -1569.3818    488.66479    255.07552   -347.48063    36638.639 
  291800    299.20825   -1579.8703    471.90708    234.32062   -330.90062    36638.639 
  291900    305.32224   -1565.9821     482.4058    286.13565     415.0504    36638.639 
  292000    302.83899   -1565.7166    462.43153    255.28673   -258.74381    36638.639 
  292100    293.35089   -1568.9799    461.80962    208.83677   -190.61041    36638.639 
  292200     305.5522   -1526.1872     488.1103     332.6667   -195.66923    36638.639 
  292300    291.95261   -1540.4168    480.95954    250.27699   -156.92692    36638.639 
  292400    301.33416   -1547.6549    490.43674     294.6028    43.116091    36638.639 
  292500    301.06803   -1526.6322    497.34875    321.34363   -35.436867    36638.639 
  292600    300.39327    -1565.863    457.30699    239.04397   -66.246451    36638.639 
  292700     303.2973   -1545.3879    478.10167    293.34161    -104.7759    36638.639 
  292800     302.3313   -1507.2844    489.72048    338.73026   -596.05344    36638.639 
  292900    302.94468   -1540.7182    489.28976    307.61752   -93.699831    36638.639 
  293000    288.71964   -1522.7266    492.34408    264.84816    247.05732    36638.639 
  293100    296.59878   -1524.2449    504.49998    310.83256    193.02216    36638.639 
  293200    304.02258   -1509.5752    483.20891    337.51524    109.01015    36638.639 
  293300    312.05757   -1543.0506    461.67779    318.55461   -156.19359    36638.639 
  293400    285.01008   -1566.7886    489.09365    200.89422   -537.89505    36638.639 
  293500    291.74149   -1536.0433    467.61599     240.3597   -861.15053    36638.639 
  293600     307.2621   -1552.4571    462.43815    288.39547   -625.69401    36638.639 
  293700    301.38321   -1576.6198    479.97947    255.40064   -321.99279    36638.639 
  293800    305.76209   -1572.0712    451.97413     251.5881    115.42209    36638.639 
  293900    306.14175   -1575.5584    470.78473    268.61475    348.15246    36638.639 
  294000    293.68395   -1562.8477    511.10447      265.758     40.45293    36638.639 
  294100    307.65652   -1614.2786    458.29828    224.20347    312.59589    36638.639 
  294200    307.38748   -1609.3492    465.53312    235.16075    138.99867    36638.639 
  294300    310.58251   -1567.9186    443.56588    268.95743     334.0115    36638.639 
  294400    296.62678   -1601.5633    436.87843    166.01815   -41.730747    36638.639 
  294500    302.37359   -1572.8756    503.14537    286.75378   -74.251541    36638.639 
  294600    287.72479   -1594.7017    474.65568    170.72166   -25.306943    36638.639 
  294700     313.3763    -1594.144    469.20958      280.909    638.90857    36638.639 
  294800    295.88024    -1608.101    455.99617    175.24912   -88.882282    36638.639 
  294900    292.83281   -1599.7505    476.92496    190.85732    596.32542    36638.639 
  295000    299.79694   -1635.1924    443.23878    152.97121    201.27897    36638.639 
  295100    313.01448    -1598.846    467.19517    272.56941     296.1846    36638.639 
  295200    292.39758   -1636.3337    451.27853    126.67522   -156.24528    36638.639 
  295300    296.98992   -1567.8404    493.86696    258.35877    91.587609    36638.639 
  295400      293.276   -1521.4654    456.13627    250.34195    254.05692    36638.639 
  295500    294.95598   -1535.7218    478.25337    265.73918   -332.24963    36638.639 
  295600    295.39698   -1562.8096     471.5201    233.89655    326.74909    36638.639 
  295700    292.19713   -1587.8222    456.13954    179.14848    208.72615    36638.639 
  295800    296.67611   -1587.1829     462.9564     206.6979    -276.9352    36638.639 
  295900    298.53272   -1590.5518    466.32838    215.02986   -273.81426    36638.639 
  296000    303.69423   -1546.4615    461.75093    277.69787   -419.41137    36638.639 
  296100    297.36955   -1545.6881    484.82915    273.17628   -369.81027    36638.639 
  296200    293.55601    -1546.976    501.43772    271.38894   -807.84555    36638.639 
  296300    309.29327   -1550.7428    499.10299     335.8866    12.083663    36638.639 
  296400    295.97062   -1567.0378    482.74318    243.46483   -678.77048    36638.639 
  296500    297.16595   -1544.1269    466.84239    255.83738   -838.28211    36638.639 
  296600    307.49465   -1544.8863    471.43016    306.00151   -169.51348    36638.639 
  296700    297.37264   -1571.2132    496.26112    259.09698    77.812618    36638.639 
  296800    292.19229   -1569.2186    483.98559    225.57645    139.19359    36638.639 
  296900    299.92641   -1536.6696    507.21909     316.0551    376.02178    36638.639 
  297000    297.98777   -1551.5727    471.24337    256.47929   -353.65172    36638.639 
  297100    298.94936   -1554.4903    479.61603    266.24813   -388.88417    36638.639 
  297200    301.34176   -1572.9738    499.25939     278.1406   -646.53032    36638.639 
  297300    296.21578   -1569.2231    478.08181    237.71793   -7.5260939    36638.639 
  297400    307.55786      -1580.2    484.34342    283.88462     534.4148    36638.639 
  297500    297.91411   -1548.5418    496.74022    284.67666    488.68478    36638.639 
  297600    294.20919   -1559.7894    496.83679    256.90484    772.91762    36638.639 
  297700    295.26549   -1605.0445    489.92137    209.47303      270.082    36638.639 
  297800    296.27776   -1555.3354    494.40491    268.20681    669.55443    36638.639 
  297900    298.86468   -1515.1767    497.50983    323.07571    490.27585    36638.639 
  298000    303.47191   -1572.4964    492.38185    281.29665     67.18317    36638.639 
  298100     289.9858   -1568.6448    497.70902    229.97507    153.21109    36638.639 
  298200    303.05031   -1589.0529    484.71713    255.18402     421.1949    36638.639 
  298300    298.87953    -1569.647     464.8709    236.03304    525.09457    36638.639 
  298400    302.95784   -1548.3295    500.56068    311.33612   -12.926036    36638.639 
  298500    308.29816   -1577.2966    485.87633    291.64205    333.56641    36638.639 
  298600    298.15112    -1567.692    473.56879    243.41819   -86.620669    36638.639 
  298700    303.82544   -1581.1782    508.43661    290.25554    361.82872    36638.639 
  298800    304.15963   -1554.2429    491.21882    301.47226    754.57624    36638.639 
  298900    294.63742   -1547.7646    506.95528    280.96928    705.61068    36638.639 
  299000    309.96062   -1551.1847    486.74229    326.07781    723.60149    36638.639 
  299100    303.81325   -1582.7593    490.43477    270.61793    63.580337    36638.639 
  299200    294.34119    -1592.596    501.21462    229.06827    491.43488    36638.639 
  299300    296.09903    -1552.392     494.2328    270.17626    -480.1197    36638.639 
  299400    305.21322     -1558.05     495.4452    306.61811   -180.24316    36638.639 
  299500    312.22307   -1559.6147    504.67526    345.73043   -225.36902    36638.639 
  299600    296.97469   -1554.7093    509.17263    286.72711   -702.36271    36638.639 
  299700    289.40245   -1534.0055    520.38241    284.67078   -543.07726    36638.639 
  299800    299.00566    -1536.152    476.91937     282.1424   -494.59964    36638.639 
  299900    300.14692   -1547.3966    507.16693    306.26522    442.70209    36638.639 
  300000    298.71794     -1613.38    473.22397    199.92824   -73.780404    36638.639 
  300100    291.74244   -1566.2748    517.28416    259.80074    490.45589    36638.639 
  300200    302.42086    -1545.321    482.10524     293.4803   -82.839056    36638.639 
  300300    304.76463   -1580.4171    494.21356    281.00684    326.89475    36638.639 
  300400    301.26474   -1557.8977    502.49144    296.10328    116.63851    36638.639 
  300500    292.49739   -1584.5231    462.03695    189.69195   -46.981002    36638.639 
  300600    301.84954   -1594.1068    484.05512    244.08132    -43.16404    36638.639 
  300700    306.93797   -1578.2038    506.10812    304.86468    11.157789    36638.639 
  300800     312.5054   -1588.1212    480.23783    294.05306    196.58739    36638.639 
  300900    303.23999   -1564.6614    484.84492    280.55419   -258.00376    36638.639 
  301000    299.07383   -1583.0402     507.0273    265.66797   -275.63419    36638.639 
  301100    296.44028   -1555.5928    503.50899    277.78259    265.95307    36638.639 
  301200    310.05958   -1618.5483    478.74026    251.15621   -145.91459    36638.639 
  301300    311.67189   -1632.4249    477.74549    243.51783    186.26406    36638.639 
  301400    305.33475   -1611.3035    500.48943    258.95398    309.40519    36638.639 
  301500    297.10919   -1579.0653    475.12598    228.92785    41.461367    36638.639 
  301600    306.77019   -1548.5772    492.08851     319.7189    129.31397    36638.639 
  301700    292.00362    -1586.379    504.96946    228.55344    19.145576    36638.639 
  301800     300.9472   -1578.3523    478.96486    250.69752    198.81747    36638.639 
  301900    295.32944    -1557.895    483.91138    250.89938    74.291218    36638.639 
  302000    293.14847   -1590.1356    475.33555    200.29889    137.03556    36638.639 
  302100    288.00274   -1590.4568    473.71859    175.27638    57.268784    36638.639 
  302200    308.71616   -1626.3125    460.83405    219.45896    200.06623    36638.639 
  302300      303.879   -1594.7818    470.51826    238.97384    44.406256    36638.639 
  302400    298.97758   -1623.0155    486.69754    204.93111    461.86929    36638.639 
  302500    302.05146    -1575.467    482.20565    261.77752    693.02764    36638.639 
  302600    307.10541   -1571.0107    493.18296    299.88371    574.79997    36638.639 
  302700    291.86995   -1615.8621    474.17528    167.67657    496.55127    36638.639 
  302800    312.05539   -1584.6977    487.40966    302.62957    92.243992    36638.639 
  302900    303.68924   -1552.9102    461.35972    270.83568    436.01313    36638.639 
  303000    303.82173   -1574.5236    471.09379    259.55063   -86.446776    36638.639 
  303100    297.40645   -1565.3516     472.7279    241.57703   -436.66648    36638.639 
  303200    302.45029     -1551.25    462.94873    268.52678   -302.02823    36638.639 
  303300    299.36722   -1569.5322    504.61749    278.08228   -199.29977    36638.639 
  303400    306.45542   -1589.6688    488.62698     273.7537   -639.16654    36638.639 
  303500    297.18977    -1589.172    440.88388    184.94066   -1217.9165    36638.639 
  303600      290.624    -1582.003    467.78822    189.55911   -1180.7553    36638.639 
  303700     311.9996   -1555.1629    483.69091    328.19539   -1203.4706    36638.639 
  303800    310.69769   -1586.8108    483.66186    290.67786   -935.46859    36638.639 
  303900    298.25213   -1566.2479    481.86271    253.60943   -700.98372    36638.639 
  304000    300.83785   -1561.3383    463.08092    251.33705   -28.634684    36638.639 
  304100    305.31987    -1581.518    493.14298    281.32625    148.01093    36638.639 
  304200    299.68681   -1554.5568    490.53592     280.4098    378.65135    36638.639 
  304300    305.72136   -1553.8227    508.80034     326.4801    795.26752    36638.639 
  304400    297.25615    -1598.364    467.78032    202.94283    333.91101    36638.639 
  304500    293.30367   -1576.0321    498.24578    238.00884    640.88053    36638.639 
  304600     298.1922   -1592.0308    473.94321    219.63816    638.68868    36638.639 
  304700    308.73662   -1623.9533    473.70731    234.78328    808.87493    36638.639 
  304800    294.44421   -1558.3505    502.16502    264.72636    648.74795    36638.639 
  304900    301.99373   -1576.0749     478.4661    257.17104    227.15731    36638.639 
  305000    309.67935    -1579.407    492.85264    302.70412    590.90151    36638.639 
  305100    305.61037   -1600.0805    486.56814    257.49215    244.76473    36638.639 
  305200    300.79293   -1570.0805    466.38165    245.69403    516.22607    36638.639 
  305300     304.2664   -1573.3003    480.03897    271.71396    574.33949    36638.639 
  305400    306.78341   -1588.1959    479.43285    267.50386    597.73723    36638.639 
  305500    304.69469    -1576.332     478.2007    268.76537    401.73928    36638.639 
  305600    299.98328   -1567.3388    466.20378    244.62567    528.59124    36638.639 
  305700    293.78253   -1572.8997    514.73533    259.77905    975.45661    36638.639 
  305800    293.74966   -1620.4729    470.82966    168.15273    755.40058    36638.639 
  305900    304.35972    -1593.864    488.12491    259.65485      997.135    36638.639 
  306000    304.88084   -1558.0587    505.41944    315.09252    223.42729    36638.639 
  306100    298.71016   -1578.7235    492.78266    254.10853   -1.8407864    36638.639 
  306200    304.18527   -1577.8986    484.07857    270.79129    171.17843    36638.639 
  306300    302.91704   -1594.3741    469.34025    233.88808    137.87975    36638.639 
  306400    306.28031   -1606.9481    479.85669     246.9185    796.09668    36638.639 
  306500    295.48652   -1596.4343    474.97836    204.13184     401.7613    36638.639 
  306600    297.55629   -1569.0173    486.86325    252.71897    314.97738    36638.639 
  306700    301.59504   -1544.0325    515.21082     324.1696    710.60516    36638.639 
  306800    291.05908   -1549.6774     457.7819    213.83027    305.57541    36638.639 
  306900    296.59253   -1553.2147    474.23065    251.56541    731.74529    36638.639 
  307000    299.98709   -1591.1375    483.75556    238.39583    502.51523    36638.639 
  307100    296.31051   -1596.4112    481.13155    214.00464    22.255991    36638.639 
  307200    309.65625   -1599.8725    485.08218    274.36446    552.41185    36638.639 
  307300    284.81786   -1588.2209    497.46988    186.97587    395.12095    36638.639 
  307400    296.35298   -1592.5958    472.44125     209.3202   -156.35003    36638.639 
  307500    302.82343   -1582.8102    478.22006    253.91179    382.65677    36638.639 
  307600    292.93187   -1532.7657    466.79155    248.15313    23.524823    36638.639 
  307700     296.3124   -1573.8525    485.41666    240.85689   -57.994046    36638.639 
  307800    292.55347    -1527.959    489.19573    273.66644    9.2262349    36638.639 
  307900    294.96002    -1533.814    487.53294    276.94474   -407.52206    36638.639 
  308000    309.55044   -1524.9949    512.36639     376.0516    463.48497    36638.639 
  308100    300.81848   -1530.7288    510.33874    329.11749    417.15003    36638.639 
  308200     294.6399   -1564.8559    495.64471    252.57846    466.71512    36638.639 
  308300    290.26771    -1555.732    477.78344    224.22692     193.6954    36638.639 
  308400    293.97198   -1573.5374    495.52202    240.77797    -70.49734    36638.639 
  308500      296.327   -1559.4603    471.06273    240.96062    240.47537    36638.639 
  308600    293.99297   -1553.6643    486.83838    252.06157    251.73419    36638.639 
  308700    290.34769   -1584.8738    479.58186    197.24243   -278.73968    36638.639 
  308800    300.35616   -1570.6569    453.41279    230.18938   -218.18845    36638.639 
  308900    295.18051    -1519.653    485.95904    290.52101    371.24812    36638.639 
  309000    307.04501   -1526.6424    459.36219    310.16025    402.20333    36638.639 
  309100    303.46134   -1582.4277    499.05522     277.9912    429.68878    36638.639 
  309200    287.07071   -1536.7428    466.54624    217.63686    323.86755    36638.639 
  309300    306.81612   -1549.4501     490.0298    316.99335    128.40569    36638.639 
  309400    305.94172    -1529.606    475.53827    318.42331   -433.83886    36638.639 
  309500    306.19704   -1498.6895    492.13124    367.07817    284.56486    36638.639 
  309600    297.62913   -1497.4765     497.3911    335.11432    128.62603    36638.639 
  309700    309.33426   -1502.9906    487.31125    372.03098    165.93878    36638.639 
  309800    298.36525   -1524.9746    488.13119    301.65861    6.3087702    36638.639 
  309900    293.11731    -1536.647     490.8784    269.19062    219.20285    36638.639 
  310000    304.16666    -1517.641    483.50308    330.38998    346.43849    36638.639 
  310100    293.46465   -1545.8672    485.11853    255.76873   -427.50565    36638.639 
  310200    299.25146   -1541.6887    480.16673    280.95577   -305.87957    36638.639 
  310300    299.77474   -1535.3133    464.75685    274.26875   -618.29579    36638.639 
  310400    293.77741    -1556.524    477.63935    239.03581   -271.97848    36638.639 
  310500    298.78575   -1538.2819    494.52262    296.62914   -489.22665    36638.639 
  310600    301.92679   -1567.3704     459.0679      246.177   -403.88702    36638.639 
  310700    304.60815   -1553.2499    491.93827    305.19681    -850.8475    36638.639 
  310800    294.95546   -1529.4152    454.81992    248.61008   -625.07021    36638.639 
  310900    303.03161   -1552.8457    466.10485    272.69509   -91.388051    36638.639 
  311000    295.45008    -1527.927    481.96404    279.46129    211.23432    36638.639 
  311100    295.39422   -1539.9635    469.94307    255.15323    200.90681    36638.639 
  311200    302.17661   -1531.6112    494.19562    318.18468    318.66278    36638.639 
  311300    307.50157   -1532.3275    488.70537    335.86654    683.43934    36638.639 
  311400    304.45803   -1544.8725    481.80514    302.76768   -588.50182    36638.639 
  311500    298.92404   -1509.5351    481.38151    312.85527   -145.97999    36638.639 
  311600    302.26677   -1488.5895    486.70336    354.11861   -556.36577    36638.639 
  311700    291.98753   -1479.8798    454.52659    284.53768   -431.06659    36638.639 
  311800    303.02643   -1473.5219    506.97305    392.86381     45.73599    36638.639 
  311900    306.95708   -1491.0131    455.30541    341.33837    -642.0964    36638.639 
  312000    298.52271   -1512.3022    493.19962    320.10582    66.071055    36638.639 
  312100    308.11143   -1513.5421    455.31774     324.0002    933.54658    36638.639 
  312200    304.72642   -1554.7525    493.22514    305.51166    556.89198    36638.639 
  312300    302.15115   -1521.1173    460.26751    294.63622   -89.772963    36638.639 
  312400    301.02617   -1570.8874    489.78397    269.33578     13.39521    36638.639 
  312500    300.61741   -1517.2158    447.04222     278.4319    448.30053    36638.639 
  312600    298.51148   -1571.3796    469.57372    237.35214    -182.7849    36638.639 
  312700    293.10078   -1520.6013    475.31494    269.59865   -615.51966    36638.639 
  312800    302.75101   -1503.0388    459.13679    314.27509   -542.11306    36638.639 
  312900    294.23903   -1500.6646    474.50366    293.83042    54.829762    36638.639 
  313000    295.50546   -1518.2598    487.51808    294.93096   -218.07057    36638.639 
  313100    316.55874   -1539.7037    486.24483    366.66135    541.61117    36638.639 
  313200    295.92152   -1531.7121    472.31983    268.14693    404.30364    36638.639 
  313300    293.22914   -1505.3245    467.31717    277.45349    260.36785    36638.639 
  313400    307.04145   -1490.5403    501.65845    388.54267    392.80403    36638.639 
  313500    300.93913   -1463.7148    477.69865    364.03265   -109.30453    36638.639 
  313600     303.7363   -1488.4729     505.3645    379.48886    528.87348    36638.639 
  313700    293.43558   -1530.7258    488.10465     273.7658     413.2094    36638.639 
  313800    302.19553   -1552.0524    473.05344    276.68616    431.06102    36638.639 
  313900    296.97023   -1541.0889    490.82212    281.97702    310.17027    36638.639 
  314000    306.92754   -1557.8448    482.54702    301.61573    50.272041    36638.639 
  314100    299.28592   -1553.6254    506.16218    295.16906    103.96044    36638.639 
  314200    309.23909   -1511.4985    509.31342    385.09829    306.19049    36638.639 
  314300     307.3923   -1538.8357    481.62758    321.79038   -49.692321    36638.639 
  314400     292.6063   -1552.6892    463.62063    223.59819   -709.50979    36638.639 
  314500    307.84116   -1493.2062     487.3564    375.16235   -323.18563    36638.639 
  314600    316.54203    -1504.142    492.24513    408.14833    4.8124214    36638.639 
  314700    307.26827   -1521.1743    490.89204    348.15984   -313.73183    36638.639 
  314800    310.08538   -1507.0271    508.03386    392.08673   -709.39454    36638.639 
  314900     302.6046   -1538.4874    486.29906    305.33193   -85.161459    36638.639 
  315000     294.8274   -1547.1902    487.44146    262.88213   -6.6610785    36638.639 
  315100    298.10931   -1549.2473    493.22132    281.32786   -57.878351    36638.639 
  315200    296.64916   -1508.8686    500.98727    322.92219   -89.813629    36638.639 
  315300    304.47914   -1568.7529    480.43182    277.60864    542.39841    36638.639 
  315400    313.01975   -1564.6179    484.94314    324.56915    514.76316    36638.639 
  315500     294.2882   -1532.0633    486.11732    274.26598    506.55442    36638.639 
  315600    300.09031   -1520.5957    471.60263    297.24786   -216.03614    36638.639 
  315700    304.04716   -1528.3405    505.30995    340.96122   -289.12873    36638.639 
  315800    290.44815   -1510.7797    473.35697    265.56224    263.65978    36638.639 
  315900    302.60435   -1574.5876    496.01526    278.94681   -120.16996    36638.639 
  316000    300.01413   -1576.0488    491.54592    261.39623   -375.62634    36638.639 
  316100    294.60056   -1557.8124     497.3825     261.1833   -15.315267    36638.639 
  316200    299.76963   -1526.3789    496.70378    315.12709   -498.32959    36638.639 
  316300    312.34017   -1520.6796    489.24738    369.76293   -395.57886    36638.639 
  316400    299.28267   -1562.9668    489.31753    268.96844   -153.79257    36638.639 
  316500    298.99845   -1538.9107    500.65557    303.08757   -231.29897    36638.639 
  316600    311.69272   -1555.2046      475.117    318.20306    287.25598    36638.639 
  316700    295.96826   -1535.4254    488.64676    280.97024    52.917039    36638.639 
  316800    293.12178   -1534.0973    512.93685    293.81877   -220.89111    36638.639 
  316900    284.90867   -1563.1321    462.20665    177.20875   -383.38489    36638.639 
  317000    291.54434   -1567.8483    474.59089    214.64516   -870.03286    36638.639 
  317100     309.0531   -1554.5436    433.76637    265.67173    -260.9734    36638.639 
  317200     317.7724   -1564.3102    497.93302    359.18768    -238.5117    36638.639 
  317300    297.83268   -1526.1063    472.05736    282.06391   -289.06782    36638.639 
  317400    301.30309   -1538.2138    521.49371    334.96149    78.210478    36638.639 
  317500    306.45975   -1512.3085      499.215    361.72147    305.54676    36638.639 
  317600    300.90366   -1494.0476    497.97646    353.81855   -501.38364    36638.639 
  317700    289.99429   -1542.1752    507.01427    265.78797   -516.84919    36638.639 
  317800     300.3318   -1546.4508    486.09202    286.96545   -523.87627    36638.639 
  317900    309.12575   -1572.1063    496.39341    311.06204    489.12106    36638.639 
  318000    297.02141   -1581.6433    485.54637    236.37653    406.99409    36638.639 
  318100    294.95294   -1561.5943    477.58293     239.1826   -214.74645    36638.639 
  318200    293.52073   -1557.8677    491.35022    250.25148   -391.57987    36638.639 
  318300    292.17706   -1538.7777     495.4166    267.37997   -24.314566    36638.639 
  318400    297.81123   -1529.8806    484.20838    290.34445    227.77464    36638.639 
  318500    294.86579   -1512.8619     485.9732    295.91436    -57.09081    36638.639 
  318600    299.56871    -1516.298    499.26663    326.86955    564.28444    36638.639 
  318700    309.47289    -1494.699    491.06019    384.69346    413.40661    36638.639 
  318800    300.22032   -1515.8044    490.93639    321.95618    182.23094    36638.639 
  318900    293.64878   -1525.0071    497.43661    289.77286    142.81461    36638.639 
  319000    294.96453   -1522.7813    487.57365    288.03835   -368.37004    36638.639 
  319100    297.49685   -1544.5158      495.526    285.61652   -743.60204    36638.639 
  319200    292.08636   -1508.0345    493.57011    295.86976   -286.81902    36638.639 
  319300    309.25907    -1522.447    501.58685    366.51285   -8.4846561    36638.639 
  319400    294.16568   -1554.0219    494.16908    259.80946     457.1105    36638.639 
  319500    304.03635   -1546.9229    493.37746    310.39785    133.54132    36638.639 
  319600    300.42563   -1566.2615     458.0849    239.56854    123.13936    36638.639 
  319700    305.73491   -1530.9559    502.88244    343.48973    359.64467    36638.639 
  319800    298.95852   -1519.3796    495.23255    317.01647    157.16625    36638.639 
  319900    295.62106    -1565.298    473.10723    234.00055    233.90346    36638.639 
  320000    299.05996   -1611.2632    482.66826    213.02367    367.32259    36638.639 
  320100    302.12458    -1595.273     461.4014    221.49524    667.26753    36638.639 
  320200    299.26852   -1567.4873    510.20381    285.27069    436.67852    36638.639 
  320300    302.92178   -1529.1062    456.64547    286.48241     21.67683    36638.639 
  320400    303.48047   -1572.7353    481.76722    270.48146    443.83299    36638.639 
  320500    303.48234   -1596.0007    456.68167    222.13888    -36.53337    36638.639 
  320600    297.54664   -1580.2366    458.03689    212.62992    118.49958    36638.639 
  320700    292.17914   -1601.3957    458.31599    167.67073   -165.34299    36638.639 
  320800    299.31622   -1522.8278    475.74068    295.68104     103.0106    36638.639 
  320900    285.86958   -1568.5814    476.97202    190.83565    465.74152    36638.639 
  321000    296.65616   -1607.3785    456.70292    180.15926    158.42789    36638.639 
  321100    299.02244   -1615.4071    464.42875     190.4719    908.99894    36638.639 
  321200    300.32078   -1655.2063    446.31189    138.38039    350.93219    36638.639 
  321300    303.74775   -1609.0684    472.92109    226.50131   -214.21247    36638.639 
  321400    307.23161   -1612.1019    453.73353    219.90922    69.519242    36638.639 
  321500    307.19063   -1579.1315     474.4214    273.38371    445.69475    36638.639 
  321600    296.29335   -1597.4314    474.92367    206.69954    275.78291    36638.639 
  321700    303.81087   -1584.4495    507.86213    286.34436    446.43301    36638.639 
  321800    294.99152   -1599.5037    426.65308    150.51644     286.8107    36638.639 
  321900    303.76446   -1605.7645    460.97052    217.92956    416.47963    36638.639 
  322000    310.41682   -1567.0395    482.35591    307.88321   -79.726919    36638.639 
  322100    300.92015   -1530.3457    469.97937    289.59733   -483.29967    36638.639 
  322200     289.4197   -1515.1033    472.75724    256.02517    243.21722    36638.639 
  322300     306.5488   -1504.2486    484.33378    355.29959    436.16824    36638.639 
  322400    296.62886   -1520.4675    489.77958    300.02443    77.177574    36638.639 
  322500    297.44437   -1532.2384    469.45913    271.59161    314.88391    36638.639 
  322600    299.17899   -1540.9482    493.57264    294.77703    138.37588    36638.639 
  322700    308.58251   -1541.2115    458.56739    301.69376    70.730738    36638.639 
  322800    298.47667    -1556.596    462.42724    244.83314  -0.88222066    36638.639 
  322900    301.45921   -1513.2155    479.75575    318.92216   0.24730303    36638.639 
  323000    292.89656   -1547.1395     453.5948    220.42414    -20.75342    36638.639 
  323100    299.61893   -1508.2956     477.5489    313.37952    184.53453    36638.639 
  323200    296.87839   -1553.6464    457.73781    235.92317    111.22306    36638.639 
  323300    300.53768   -1532.0188    462.55596    278.78495    284.87116    36638.639 
  323400    298.89236    -1538.989    461.04523    262.92293    552.29947    36638.639 
  323500    310.16545   -1529.0199    456.28687    318.70616     846.1121    36638.639 
  323600    293.39895   -1522.0605    475.47038     269.6325    785.45656    36638.639 
  323700    302.96834   -1504.7605    472.43263     326.8242     577.2474    36638.639 
  323800    295.40195   -1494.0499    468.25674    299.41518    152.85847    36638.639 
  323900    299.13099   -1508.5733    443.71354    277.07752    107.95252    36638.639 
  324000    310.56964   -1556.3252    441.23594    278.16312   -352.86872    36638.639 
  324100    292.21506   -1490.3893    440.88254    261.40478   -445.36247    36638.639 
  324200    310.41217   -1544.4393    464.75635    312.86299   -114.46883    36638.639 
  324300    305.28997   -1529.2069     483.2018    323.56203    247.13901    36638.639 
  324400     304.0095   -1507.9467    449.82649    305.70269    126.08128    36638.639 
  324500    305.82567   -1543.3632    458.48561    287.09281    297.99911    36638.639 
  324600    312.00399    -1566.787    462.15908    295.05914    23.043506    36638.639 
  324700      300.531   -1523.7385    460.35948    284.83884   -98.221658    36638.639 
  324800    305.04219    -1513.077    473.61095    328.98952   -491.97314    36638.639 
  324900    297.86333   -1525.2955    445.44593    256.40083   -627.21257    36638.639 
  325000    313.27354   -1491.3173    463.44949    377.51459    -626.3788    36638.639 
  325100    298.57811   -1510.1092    468.08571    297.43342   -523.39902    36638.639 
  325200    308.22213   -1529.3808    470.69747    324.03786    438.53928    36638.639 
  325300    288.48579   -1523.8021    441.46206    211.84156   -170.72294    36638.639 
  325400     302.6718   -1507.9245    469.53636    319.43363    89.025433    36638.639 
  325500    304.95467   -1495.0811    488.52616    361.50806    -441.2358    36638.639 
  325600    311.74373   -1481.4514    443.53741    360.60556    3.9339911    36638.639 
  325700    315.63822   -1500.3638    498.90315    414.53004   -19.318582    36638.639 
  325800    298.19827   -1517.9998       446.25    266.00311    -30.44557    36638.639 
  325900    297.39528   -1488.0839    469.66213     315.7289    327.25604    36638.639 
  326000    297.56717   -1503.0539    452.62524    284.49311   -23.545456    36638.639 
  326100    311.77798   -1531.3962    473.86561    341.14261    442.20962    36638.639 
  326200     294.8796   -1510.8786    470.61162    282.59802    75.810543    36638.639 
  326300    300.60148   -1454.5941    490.46711    384.40702    103.28069    36638.639 
  326400    304.71458   -1519.3659    463.77782     311.3978   -164.24628    36638.639 
  326500    300.28519   -1515.4174    475.05591    306.75365   -67.485155    36638.639 
  326600    302.87277    -1477.744     499.2164    380.19579   -322.90152    36638.639 
  326700    297.02619   -1510.2889    461.46335    283.66928   -46.619637    36638.639 
  326800    303.59671   -1539.8785    499.58614    321.67865    444.84541    36638.639 
  326900    301.44598   -1535.2443     441.8447    258.92299    261.34911    36638.639 
  327000    301.05646   -1542.5319    454.46766    262.51095    681.83299    36638.639 
  327100    298.40507   -1525.7132    489.84987    302.81732    462.88845    36638.639 
  327200    297.28461   -1553.3099     459.3342    239.67849    476.86784    36638.639 
  327300    297.20803   -1499.3992    475.07785    308.98926    195.78649    36638.639 
  327400    292.71777   -1504.4982    488.11864    296.78722    82.527444    36638.639 
  327500    306.33154   -1496.6643    496.00796    373.58347    -315.4175    36638.639 
  327600    308.74456   -1488.0758    476.81836    373.80743   -165.52646    36638.639 
  327700    301.26779   -1483.7408    472.21771    340.00006   -466.90779    36638.639 
  327800    293.37949   -1496.7738    466.34972    285.71128   -369.42901    36638.639 
  327900    304.67589   -1506.2511    490.01589    350.57718    358.05398    36638.639 
  328000    288.15639   -1518.7623    433.21575     207.1574   -197.48934    36638.639 
  328100    292.13748   -1518.5616    467.72442    259.72641     449.9995    36638.639 
  328200    303.21434   -1548.1995    446.35118    258.40737   -363.12006    36638.639 
  328300    303.14098   -1472.2031    455.11155    342.83501    115.16539    36638.639 
  328400    290.88687   -1488.3811    475.34505    291.91713   -143.84755    36638.639 
  328500    302.56261   -1501.8922    457.08228    312.52206   -121.28536    36638.639 
  328600    298.13255   -1532.3225    462.17146    267.30708    560.58941    36638.639 
  328700    301.69366    -1508.845     444.8502    289.43892    342.35065    36638.639 
  328800    300.71874   -1502.8504    460.73563    306.94527    126.14053    36638.639 
  328900    302.02227   -1496.3421     473.6613    332.22705    52.462993    36638.639 
  329000    294.83509   -1471.3198    436.66498    288.01052   -357.28038    36638.639 
  329100    306.20687   -1470.7591    469.73143    372.65285   -146.06394    36638.639 
  329200    303.18873   -1486.5421    432.47741     306.0761    381.44213    36638.639 
  329300    303.44856   -1476.8484     484.3722    368.83018   -29.734511    36638.639 
  329400    312.23815   -1478.3824    487.56145     409.9166   -87.905249    36638.639 
  329500    298.91934   -1512.5123    453.09543    281.57095    351.85474    36638.639 
  329600    303.17269   -1521.5228    479.57867    318.12469   -178.84743    36638.639 
  329700    301.69921   -1497.1184    483.11615    339.45639    59.189394    36638.639 
  329800    304.29715   -1511.9142    470.02099     323.2201    296.08293    36638.639 
  329900    303.28227   -1514.8811    472.31761    317.99689    694.96304    36638.639 
  330000    291.77532   -1513.9593    445.13317    240.11266     347.0101    36638.639 
  330100    307.74462   -1550.1906    516.54305    346.93151    432.69109    36638.639 
  330200    296.00223   -1507.8223    465.83834    285.91733    242.94894    36638.639 
  330300    311.54213    -1485.523    488.12004    400.21219    470.05754    36638.639 
  330400    296.97958   -1489.5725    485.56578    328.27903   -130.98944    36638.639 
  330500    307.70039   -1522.9309     447.5071    304.95685   -152.42558    36638.639 
  330600    293.49992   -1484.9169    462.30715    294.06592   -78.865921    36638.639 
  330700    300.17761   -1483.0835    483.53529    347.08429   -237.41903    36638.639 
  330800    295.71149   -1501.5996    472.25296    297.25039    103.18601    36638.639 
  330900    309.48747   -1470.6317    467.84528    385.61124    80.682312    36638.639 
  331000    303.29703   -1503.6263    458.32706    315.32743    646.02925    36638.639 
  331100    294.19858   -1505.6202     470.3319    284.52157    42.143512    36638.639 
  331200    293.93863    -1516.721    477.23177    279.15452    740.16479    36638.639 
  331300    301.83368   -1465.0488     470.3769    359.38995    412.97909    36638.639 
  331400    305.82937   -1487.8139    491.82273    375.99577    754.29204    36638.639 
  331500    300.03236    -1475.228    501.24517    371.99804    832.87998    36638.639 
  331600    288.30002   -1524.3503    468.48059    237.47851    511.54126    36638.639 
  331700    308.15438   -1532.6172    467.65921    317.45926    509.96603    36638.639 
  331800    306.23621     -1539.14    469.93007    304.60221     483.9168    36638.639 
  331900    300.44693   -1497.3461    450.02425    300.51891    13.537076    36638.639 
  332000    299.82145   -1502.3471    481.09727    323.78495    72.657163    36638.639 
  332100     308.8816   -1476.3479     474.6783    384.01002    11.614581    36638.639 
  332200    298.59895   -1536.2228    455.68535    259.01304    59.717759    36638.639 
  332300    294.02854   -1493.2647    455.03662    280.81899   -369.35335    36638.639 
  332400    307.62417    -1488.192    496.74372    388.59044   -288.46199    36638.639 
  332500    299.94402   -1470.0516    464.35465    339.88762    236.19585    36638.639 
  332600    301.51095   -1493.4756    485.42627     344.5647    319.75073    36638.639 
  332700    308.25452   -1509.7044    452.43363     325.5957    368.29382    36638.639 
  332800    300.32165   -1505.5279    484.39124    326.14205   -28.119534    36638.639 
  332900    289.39574   -1549.1368    483.63683    232.76378   -237.03093    36638.639 
  333000    308.90153   -1505.0653    474.82062    355.52433    104.60139    36638.639 
  333100    296.44018   -1486.7784    472.17619    315.26375   -118.51313    36638.639 
  333200    304.88023   -1531.5216    475.18775    311.39516     402.8119    36638.639 
  333300    310.96853   -1512.6906    465.59139    347.94271    286.31477    36638.639 
  333400    298.41947   -1503.4921    493.97583    329.22906    759.21011    36638.639 
  333500    294.86948   -1515.9426    475.92822    282.80522    279.95023    36638.639 
  333600    287.98761   -1487.7908    504.94729    309.10323    321.54412    36638.639 
  333700    302.12023   -1528.2403    476.43324    303.54029   -28.839438    36638.639 
  333800    305.27985   -1531.4981    460.49214    298.51584    -153.8503    36638.639 
  333900    316.59395   -1508.8688    490.02018    401.42951   -169.63543    36638.639 
  334000    298.05483   -1503.7755    469.29301    302.62699   -423.41245    36638.639 
  334100    290.62293   -1447.1266    510.26317    366.90566    64.305222    36638.639 
  334200    305.01223   -1491.3445    493.83224    370.80889      372.097    36638.639 
  334300    296.82342   -1539.1951    449.33962    241.72971    609.23955    36638.639 
  334400    299.25592   -1525.2574     507.6555    324.89584    108.54157    36638.639 
  334500    286.20908    -1497.138    449.10897    235.93904    -104.0685    36638.639 
  334600    311.94633   -1466.6381    486.85506    419.64539    409.40302    36638.639 
  334700    302.48219   -1457.0867    522.58889    422.47332    358.88167    36638.639 
  334800    293.75601   -1484.4797    446.69671    280.04146    299.86305    36638.639 
  334900    302.33486   -1480.9746    499.08718    374.42279    561.33661    36638.639 
  335000    290.32573   -1486.2371    512.71174    328.91048   -53.126299    36638.639 
  335100    304.02931   -1432.2706    486.53684    418.17796   -55.564055    36638.639 
  335200    308.71717   -1462.0031    471.48169    394.42057   -45.429786    36638.639 
  335300    296.46198   -1521.4019    462.95031    271.51221    687.20844    36638.639 
  335400    310.84324   -1505.8173    477.98634    366.64878    954.55838    36638.639 
  335500    301.67267   -1550.1757    486.80981    289.97369    924.58149    36638.639 
  335600    295.46642   -1538.6189    470.69384    257.57253     565.8874    36638.639 
  335700     299.0637   -1549.5165    476.00447    268.12333    450.00982    36638.639 
  335800    290.86452   -1504.8377      467.048    267.06314    400.74826    36638.639 
  335900    302.55567    -1516.503    509.13997    349.93771   -288.71349    36638.639 
  336000    303.12513   -1517.4462    461.78819    304.19748   -264.64332    36638.639 
  336100    301.82973    -1510.912    486.85506    329.98717   -257.79684    36638.639 
  336200    304.00556   -1548.0366    444.46043      260.229   -424.35717    36638.639 
  336300    307.83735   -1516.2412    461.05673    325.81051   -284.91708    36638.639 
  336400    307.77057    -1522.309    459.15891     317.5453   -735.39821    36638.639 
  336500    321.38192   -1507.2452     471.5487    406.06104   -237.64695    36638.639 
  336600    316.69101   -1526.8137    482.85535    376.75521   -97.677608    36638.639 
  336700    295.03847   -1488.8065    507.20934    341.98058   -295.44287    36638.639 
  336800    296.50867   -1497.2031    457.16814     290.1382   -122.71433    36638.639 
  336900    289.86061   -1525.3483     489.0696    264.07058   -189.70784    36638.639 
  337000    310.89109   -1518.5107    474.86514    351.04884    661.68204    36638.639 
  337100    297.07201   -1511.5615     486.6433    307.78219    560.21794    36638.639 
  337200    301.75018   -1563.3003    469.10222    259.48917     330.8101    36638.639 
  337300    293.59824   -1540.8499    482.52247    258.78927    771.72272    36638.639 
  337400    294.84981    -1521.408    478.13899    279.46235    622.06363    36638.639 
  337500    293.32569   -1534.6455    488.95862    270.20714    691.64873    36638.639 
  337600    295.68306   -1573.8938    447.23204    199.80767     392.2432    36638.639 
  337700    300.85344   -1547.7793    438.87436    240.75941    411.71194    36638.639 
  337800    308.04923   -1573.8354    466.59489      274.705   -122.30896    36638.639 
  337900    304.60052   -1574.5438    479.01113    270.94154    826.06109    36638.639 
  338000    305.03271   -1535.6074    457.50822    290.31388     914.7309    36638.639 
  338100    305.17127   -1523.2812    470.14578    315.89928    649.61123    36638.639 
  338200    293.80926   -1532.3617     484.0884    269.79004     98.79151    36638.639 
  338300    293.72701   -1511.2712    505.72128    312.14444   -465.80295    36638.639 
  338400      305.691   -1521.4382    476.03204    325.96007    231.76644    36638.639 
  338500    291.01119   -1506.6762    473.71859    272.55326     129.0044    36638.639 
  338600     299.7566   -1518.2089     489.9093    316.44423   -31.289918    36638.639 
  338700    304.65774   -1499.3987    471.15898    338.49119    281.03433    36638.639 
  338800    294.95734   -1527.7018    487.81552    283.32754    714.94379    36638.639 
  338900    306.93915   -1545.2312     465.7241    297.45851    790.79367    36638.639 
  339000    309.62537   -1544.5365    464.62482    309.10463    211.91201    36638.639 
  339100    302.30529   -1526.1291    478.23671    308.28515    139.90317    36638.639 
  339200    306.14536   -1524.7692    469.03854    317.67387   -3.2379898    36638.639 
  339300    292.27474   -1474.0975    494.01767    331.09946    -134.7001    36638.639 
  339400    304.40618   -1561.9518    471.03377    274.68433   -69.181024    36638.639 
  339500    292.52218   -1532.8556     461.4529    240.88668    122.89805    36638.639 
  339600    307.35481   -1490.4006    477.11505    365.54471    400.60121    36638.639 
  339700    287.96789   -1506.6079    484.52369    269.77409    67.993292    36638.639 
  339800    306.84593   -1518.8773    473.61108    331.28111     580.9425    36638.639 
  339900    295.52558   -1521.6933    474.08948    278.15909    428.52905    36638.639 
  340000    299.38332    -1516.747    463.43647    289.75867    636.43377    36638.639 
  340100    295.66178   -1514.1088    487.29285    299.55801    479.94761    36638.639 
  340200    302.31519   -1520.2217    472.46038    308.46068    236.73449    36638.639 
  340300    316.21991   -1563.2483     459.2583    314.61012    334.32228    36638.639 
  340400    299.88441   -1575.4434    470.66898    240.54276    434.73434    36638.639 
  340500    311.63716   -1563.2599    443.45146    278.23295    256.94829    36638.639 
  340600    294.86209   -1495.6163    468.53277     295.7029    9.9258798    36638.639 
  340700    309.08803   -1522.2053    451.07996     315.4804   -176.87981    36638.639 
  340800    301.43675   -1538.7657    472.12309    285.63858    193.98613    36638.639 
  340900    309.55376    -1515.739    476.22604    349.18203    92.629344    36638.639 
  341000    290.24794   -1490.2763    488.70757     300.5181    81.068918    36638.639 
  341100    288.68697    -1550.716    455.38876    199.75691   -59.678265    36638.639 
  341200    298.62637   -1540.2022     461.5551    261.02641   -333.89196    36638.639 
  341300    307.91149   -1509.2818    450.63598    322.68181   -277.08076    36638.639 
  341400    286.49931   -1503.6827     486.8132    268.40052   -150.67313    36638.639 
  341500    303.00538   -1497.6134    467.14873    328.85357    -189.3154    36638.639 
  341600    309.31841   -1531.2997    457.66364    314.00315   -173.93602    36638.639 
  341700    293.68588   -1525.2659    471.70197    263.94589   -421.61348    36638.639 
  341800    303.81481   -1523.3239    471.04869    310.67423   -788.68295    36638.639 
  341900    305.06809   -1571.9988    457.80777    254.38074   -621.74038    36638.639 
  342000    297.42826   -1532.6887    459.41908    261.02901   -630.97878    36638.639 
  342100    300.66473   -1544.1866    467.13266    271.76383      86.8949    36638.639 
  342200    292.39216   -1548.0294    467.46642    231.14308    678.48631    36638.639 
  342300    299.82801   -1559.4364    451.53937    237.16719     453.9083    36638.639 
  342400     306.3206   -1558.1377    485.37047    301.42346    407.44713    36638.639 
  342500    290.20779   -1526.5649    472.58101    247.92278   -200.15858    36638.639 
  342600    293.40365   -1499.0201    459.60758    276.83116    391.06488    36638.639 
  342700     295.5372   -1488.4966    486.96429    324.28273    446.22139    36638.639 
  342800    300.43519   -1524.9858    499.28427    322.08655    705.69073    36638.639 
  342900    304.59775   -1539.9234    476.85728    303.39567    1278.0968    36638.639 
  343000    296.66509   -1559.0957    488.59553    260.37478    1299.8874    36638.639 
  343100    293.09162   -1573.4234      450.104    191.52451    1180.9493    36638.639 
  343200    299.06595   -1531.9337    468.78676    278.49851     1637.384    36638.639 
  343300    298.52509   -1523.7905    465.60896    281.03762    1215.5637    36638.639 
  343400    304.87474   -1521.0983    459.18567    305.79182    1207.0953    36638.639 
  343500    295.16771   -1532.5159    473.84239    265.48398    1098.4543    36638.639 
  343600    311.28508   -1536.9827    469.35022    328.82945    771.96193    36638.639 
  343700    307.32828   -1528.1487    481.94616    332.50874    683.01632    36638.639 
  343800    298.13493   -1542.8705    447.09074    241.68908   -45.280436    36638.639 
  343900    295.34767   -1517.0348    461.67903     269.6091   -28.716466    36638.639 
  344000    293.42543   -1508.4082    462.83394    270.76721   -99.442876    36638.639 
  344100    308.05442   -1520.0647    455.59075    317.49482   -324.80256    36638.639 
  344200    297.03449   -1508.1367    475.66423     300.0597   -406.86923    36638.639 
  344300    282.55559   -1537.8199    435.59966     165.3578   -238.99836    36638.639 
  344400    299.10602    -1476.733    457.03909    322.13138   -42.726429    36638.639 
  344500    306.95809    -1545.637    465.31357    296.72719   -799.10051    36638.639 
  344600    300.55934   -1560.0955      458.929    247.17848   -782.15196    36638.639 
  344700    294.66186   -1505.7386    453.78878    269.93842   -301.53175    36638.639 
  344800    295.69078   -1497.5622    481.53647    310.47829   -141.49967    36638.639 
  344900    303.38674   -1510.6505    470.72841    321.10703    486.52988    36638.639 
  345000    305.04011   -1496.9678    486.62729    358.10578    165.95681    36638.639 
  345100    300.16974   -1518.0504    465.44662    293.99345    205.48987    36638.639 
  345200    293.98919   -1481.2015    474.01652    311.68556   -17.774254    36638.639 
  345300    305.95356     -1465.81     456.6309      363.365   -259.06099    36638.639 
  345400     300.1506   -1515.3918    444.51684    275.63634   -605.46901    36638.639 
  345500    306.53165   -1541.0138    451.23018    285.35389   -419.84643    36638.639 
  345600    300.96321   -1523.1449    442.47411    269.48606    74.625292    36638.639 
  345700    302.34362   -1521.6372    488.90434    323.61666   -226.33027    36638.639 
  345800    305.81064   -1553.9664    450.70046    268.63699   -50.984625    36638.639 
  345900    296.11271   -1562.8116    450.16839    215.75365    131.41187    36638.639 
  346000    291.40656   -1567.7523    474.98944    214.52167    87.850448    36638.639 
  346100    296.77315   -1540.0601    451.32225    242.62189    327.19503    36638.639 
  346200    306.15847   -1528.1194    459.03341    304.37742    628.76523    36638.639 
  346300    291.80617   -1530.4565    469.96125    248.58201   -135.35427    36638.639 
  346400    302.27349   -1499.6017    486.58403    343.01725   -314.92333    36638.639 
  346500      291.222   -1513.4697    421.07462    214.06151   -352.83044    36638.639 
  346600    291.01539   -1519.2662    480.43454    266.69806   -170.31591    36638.639 
  346700    295.43725    -1515.205    468.65495    278.81662    243.55079    36638.639 
  346800    297.67054   -1503.2539    475.22809    307.35972    208.76638    36638.639 
  346900    302.25664   -1486.4468    456.32502    325.83751    387.41719    36638.639 
  347000    296.17741   -1468.4276     460.6994    320.95897     561.9282    36638.639 
  347100    309.28191   -1548.9246    453.47869    292.02961    742.56723    36638.639 
  347200    297.84522    -1508.427    470.28011    298.02228    358.87476    36638.639 
  347300    304.78658   -1509.9099    453.68362     311.0826     166.6395    36638.639 
  347400    311.41719   -1494.3628    479.22717    381.91897    70.843314    36638.639 
  347500    302.37485   -1520.8051    490.84853    326.53301   -184.63718    36638.639 
  347600    291.83076   -1525.2756     443.4194    227.33137   -298.67092    36638.639 
  347700    291.88786   -1478.6284    440.19805    271.01338   -117.86043    36638.639 
  347800    298.04322   -1467.4289    479.07614     348.7046   -696.55978    36638.639 
  347900    303.95007   -1464.7001    478.34149    377.19757   -324.86836    36638.639 
  348000    299.03961   -1460.0072    466.74271    348.26282   -385.13869    36638.639 
  348100    296.54601   -1487.0234    464.12121    307.43852   -172.96558    36638.639 
  348200    293.24207   -1491.4844    465.93519    289.96962    293.08711    36638.639 
  348300    301.79348   -1506.6813    440.98385    288.18402    942.88738    36638.639 
  348400    309.99327    -1540.026    473.87406    324.51483     521.0952    36638.639 
  348500    305.38171   -1476.6954    466.53015     359.8135    388.72297    36638.639 
  348600    299.67506    -1483.202    486.76646    347.94244     55.45065    36638.639 
  348700    293.47401   -1491.5775    442.67812    267.65994   -442.92107    36638.639 
  348800    293.62811   -1449.9513     481.5664    348.86581   -56.569325    36638.639 
  348900    306.71255   -1470.9845    473.89172    378.85621   -448.48276    36638.639 
  349000    308.41009   -1470.2195    468.17797    381.52285    -610.6343    36638.639 
  349100    296.25274   -1424.1439    500.99936    405.88051   -138.14421    36638.639 
  349200    297.55249   -1466.3899    463.72632     332.1924    31.202403    36638.639 
  349300    297.99963    -1461.727    459.33402    334.46891    678.00116    36638.639 
  349400    299.14585   -1476.4194    475.74992    341.33441   -410.68945    36638.639 
  349500    297.18177   -1482.6367    446.49492    297.05106   -383.47915    36638.639 
  349600    302.14275   -1442.0797    449.94085    363.30949   -224.17766    36638.639 
  349700     305.4164   -1503.4613    472.86813    339.54116    585.68432    36638.639 
  349800     293.5852   -1527.3513    469.93017    259.63707     463.0719    36638.639 
  349900    295.61654   -1510.2651    459.63876    275.54471   -43.187579    36638.639 
  350000    295.91457   -1460.8265    486.97505    353.65652    217.35864    36638.639 
  350100    302.06972    -1482.609    475.11893    347.63072   -380.51678    36638.639 
  350200    303.19462   -1480.3897    474.62594    354.40339      509.966    36638.639 
  350300    298.58568    -1505.028    487.09349    321.55645    330.88828    36638.639 
  350400    301.91883   -1489.9168    463.92942    328.45643     698.1322    36638.639 
  350500    294.53245   -1494.1152    464.02663    291.21913    432.91559    36638.639 
  350600    303.78436   -1485.3391    474.70358    352.17727    774.93624    36638.639 
  350700    299.42168   -1513.1979    452.25024    282.29366    730.75492    36638.639 
  350800    313.53927   -1448.9012    479.77548    437.44879    804.34497    36638.639 
  350900    297.60894   -1518.0901    468.63063     285.6497   -549.42511    36638.639 
  351000    307.09345   -1497.5197    470.50581    350.64388   -326.96592    36638.639 
  351100    301.17731    -1530.209    461.62004    282.52833    163.44375    36638.639 
  351200    301.30663   -1499.2554    487.99793    340.44002    246.80936    36638.639 
  351300    302.26587   -1486.8841    449.37321    318.48977   -82.346967    36638.639 
  351400    301.31671    -1499.299    486.56449    339.00815   -191.02282    36638.639 
  351500    308.70941   -1533.0134    456.71859    308.61236    -82.69822    36638.639 
  351600    295.54694   -1506.7239    472.86967    292.00451   -103.78019    36638.639 
  351700    295.51222   -1539.0561    477.55382    264.20074   -283.81622    36638.639 
  351800    290.34361   -1551.3635    466.39089    217.54336    30.704621    36638.639 
  351900    301.30589   -1577.7734     471.0145    244.93525   -161.10455    36638.639 
  352000    305.85924   -1543.1591    470.14388     299.1058    266.77212    36638.639 
  352100    291.38112   -1566.1233    451.79381    192.84096   -114.17157    36638.639 
  352200    301.06447   -1562.3106    478.68878    266.98929    -771.9773    36638.639 
  352300    301.86226   -1559.1291    454.80543    249.86637   0.90668482    36638.639 
  352400    299.01852    -1548.738    483.98681    276.68153   -546.25399    36638.639 
  352500    291.54279   -1489.2062    490.46792    309.15734   -908.27233    36638.639 
  352600    303.41116   -1460.4665    478.51261    379.18468   -538.86266    36638.639 
  352700    308.05344   -1513.4681    489.94285    358.43918    62.842206    36638.639 
  352800    302.67893   -1527.1714    449.82471      280.507    733.19835    36638.639 
  352900    300.55136   -1531.9798    470.92668    287.25608    362.33245    36638.639 
  353000    294.47028   -1497.9246     475.7205    298.82465     793.5213    36638.639 
  353100     302.6098    -1556.482    479.85494     280.9166    787.56007    36638.639 
  353200    297.23176   -1530.8585    455.02516    257.58369    517.00915    36638.639 
  353300    294.60255   -1554.9507    443.09446     209.7659    427.88497    36638.639 
  353400    300.38971   -1558.8041    501.22049    290.00045   -306.80622    36638.639 
  353500    296.81489   -1522.5522      481.339    290.33369     9.071159    36638.639 
  353600    298.18316   -1560.6705    470.14509    247.15972   -310.39354    36638.639 
  353700    296.88733   -1538.2204     472.8537    266.50523    -853.8074    36638.639 
  353800    301.33161   -1568.1805    460.45228    244.08129   -202.27445    36638.639 
  353900    296.18447   -1562.5865    479.22697    245.35927    -193.6142    36638.639 
  354000    305.56246   -1566.3962     469.0466    273.44006    89.631828    36638.639 
  354100    301.28752   -1569.1715    450.19489    232.63505   -634.60586    36638.639 
  354200    294.23378    -1570.877    482.70612    231.79693   -901.39642    36638.639 
  354300    304.94593    -1566.367    469.22287     270.8796   -556.27969    36638.639 
  354400    302.29883   -1509.6737    477.71218    324.18707   -160.39521    36638.639 
  354500    303.02491    -1536.912    462.12095    284.61482    505.93151    36638.639 
  354600    300.54578   -1551.8419      466.596    263.03831    377.74231    36638.639 
  354700    303.91196   -1541.7371    467.53427     289.1824    460.05632    36638.639 
  354800    296.65704   -1554.5429    453.95238    230.24825    92.954252    36638.639 
  354900    304.77004   -1534.9295    441.04387    273.34907    64.214048    36638.639 
  355000     295.5733   -1544.4446    463.01778    244.55024    -471.1024    36638.639 
  355100    299.98938   -1555.1512     477.6248     268.2617    96.070164    36638.639 
  355200    295.30643    -1513.145    464.85722    276.49208   -91.562101    36638.639 
  355300    303.63522   -1547.4972    479.83429    294.48083   -121.27377    36638.639 
  355400     307.5975    -1520.379    465.28409    324.82417    447.88642    36638.639 
  355500     300.1336   -1537.1305    462.26062     271.5652    396.55102    36638.639 
  355600    309.49433   -1535.1136    468.63243    321.94725    574.85454    36638.639 
  355700    303.29731   -1516.8702    458.56902    302.32665   -88.262345    36638.639 
  355800    289.49031   -1560.1441    480.37858    218.92257    575.91002    36638.639 
  355900    294.43929   -1535.5349    495.53553    280.89038    731.53887    36638.639 
  356000    305.45141   -1530.6734    460.08198    299.69999    495.51106    36638.639 
  356100    294.92972   -1485.5527    470.56974    308.10691    131.10492    36638.639 
  356200    309.53944   -1496.2995    462.97805    355.30933   -785.49622    36638.639 
  356300    296.45009   -1475.9387    471.43239    325.40408   -395.51467    36638.639 
  356400    291.72501   -1457.6132    462.82204    313.92204   -304.13577    36638.639 
  356500    303.65052   -1484.7882     479.0024    356.42664   -171.39664    36638.639 
  356600    293.76806   -1408.2435    488.36404    397.99908    397.93109    36638.639 
  356700    300.43042   -1445.0511    479.72818    382.44372    218.98072    36638.639 
  356800    288.95969   -1484.1196     450.9296     263.1176   -45.046877    36638.639 
  356900    296.79495   -1439.3995    511.08801    403.14603   -267.66156    36638.639 
  357000    311.74404   -1424.4054    495.81072    469.92621    234.97386    36638.639 
  357100    304.32111   -1465.9091    483.24029    382.55198   -24.213405    36638.639 
  357200    302.79854    -1536.267    458.93643    281.05971    -471.2215    36638.639 
  357300    303.05508    -1533.845    504.14509     329.8413    8.8714766    36638.639 
  357400    292.13968   -1492.8223    482.32849     300.0796    113.59308    36638.639 
  357500     298.4183   -1457.4178    486.97802    368.30027   -464.79651    36638.639 
  357600    294.06599   -1466.5496    485.58961    338.25503   -673.47563    36638.639 
  357700    298.38962   -1460.9879    490.49614     368.1196   -546.41637    36638.639 
  357800     294.9965   -1468.4716    475.85487    330.77269    27.030783    36638.639 
  357900    291.41001    -1492.253    487.62196    302.66895    188.61527    36638.639 
  358000    304.96869   -1472.0344    496.86772    392.95918    484.59959    36638.639 
  358100    308.75228    -1486.235    461.72243    360.58692    504.17196    36638.639 
  358200    307.53806   -1519.9572    506.42293    366.11816    795.20028    36638.639 
  358300    299.18701   -1514.7287    464.39686    291.85667    839.72033    36638.639 
  358400    297.39893   -1502.3697    475.22989    307.02727    970.58736    36638.639 
  358500    297.06039   -1507.7967    473.98965    298.84128    589.44798    36638.639 
  358600    290.86882    -1457.333    486.12699    333.66617    22.047054    36638.639 
  358700    291.10816   -1505.3499    494.31813    294.91414    1.7132517    36638.639 
  358800    301.24205   -1525.3445    467.94041    294.00361   -626.33006    36638.639 
  358900    292.44709   -1525.3179    464.48471    251.11928   -608.54407    36638.639 
  359000    310.89219   -1516.1854    483.19822    361.71219   -530.92115    36638.639 
  359100    298.21614   -1508.8881    487.82478    316.76982   -596.36169    36638.639 
  359200     301.9181   -1468.6404    468.64043     354.4406   -431.16278    36638.639 
  359300    293.36701   -1472.9393    456.19162    299.33169   -211.15801    36638.639 
  359400    307.55007   -1482.4169    474.52235    371.81173    -151.8515    36638.639 
  359500    314.16953   -1470.1692    475.52026    414.75305    -357.5353    36638.639 
  359600    287.71545   -1488.7707    476.32519    278.28026   -445.47243    36638.639 
  359700     294.2487   -1504.0284    477.00211    293.00838    292.36664    36638.639 
  359800    303.55677   -1476.3592    487.05753    372.49014    53.374272    36638.639 
  359900    294.61062   -1488.5875    475.17166    308.24253    238.07212    36638.639 
  360000    296.77358   -1493.3059    479.53557    317.59135    192.49998    36638.639 
  360100    306.64874   -1527.3924    464.78071    313.05106    276.86129    36638.639 
  360200    303.64509   -1527.1031    467.28584    302.37081   -123.87256    36638.639 
  360300    296.77015   -1539.4506    465.16666     257.0623    628.99104    36638.639 
  360400    292.84768   -1509.2027    484.79626    289.34313    467.29667    36638.639 
  360500    298.79191   -1501.4448    465.97566    304.94697   -40.787362    36638.639 
  360600    308.99338   -1536.2717    475.75859    325.66802   -367.88003    36638.639 
  360700     299.7246   -1534.6729    460.71045    270.63777   -253.84856    36638.639 
  360800    305.46114   -1521.2929    481.30568    330.34783   -110.77245    36638.639 
  360900    296.69651   -1470.5299    479.89923     340.3852   -16.439093    36638.639 
  361000    292.63628   -1553.0023    482.55801    242.35693   -225.71493    36638.639 
  361100    294.92582    -1492.196    498.51037     329.3867    167.86141    36638.639 
  361200    306.11354   -1531.9828    477.34519    318.62419    148.73328    36638.639 
  361300    302.77215   -1492.8405    474.81741     340.2488   -232.16126    36638.639 
  361400    318.36939   -1500.2609    469.50798    397.49009   -291.57076    36638.639 
  361500    300.13824   -1506.4071     462.1882    302.23703   -443.07875    36638.639 
  361600    294.83949    -1510.492    475.64062     287.8337    -518.3477    36638.639 
  361700    292.95662   -1516.2784    470.50968    268.46962   -607.93356    36638.639 
  361800    297.47321   -1500.3738    466.89256    301.01902   -886.45392    36638.639 
  361900    296.00873   -1477.5712    481.06573    331.42495   -395.21288    36638.639 
  362000    291.24006   -1491.8578    506.02894    320.70874    351.17794    36638.639 
  362100    305.62453   -1499.5024    511.63737    383.20307    207.48742    36638.639 
  362200    299.19425   -1506.9404     487.3012    322.58186   -148.78959    36638.639 
  362300    302.55357   -1504.6985    484.15571    336.74853   -578.98469    36638.639 
  362400    296.50127   -1441.9198    481.63546    369.85564   -262.12446    36638.639 
  362500     303.5773    -1449.659    512.95749    425.18246   -385.13643    36638.639 
  362600    300.01557   -1492.4972    466.32138    319.72977   -162.64029    36638.639 
  362700    298.46297   -1521.6829    481.03207    298.28961   -190.88098    36638.639 
  362800    307.58172   -1490.4215     474.6665     364.0932   -895.89139    36638.639 
  362900    296.82829   -1497.6461    483.13447    317.09547   -727.25599    36638.639 
  363000    305.76316   -1485.3961     479.4339    365.72775   -184.06581    36638.639 
  363100    302.67924   -1481.8934    505.72516    381.68686    1060.4609    36638.639 
  363200    295.17928   -1531.2685    478.52166    271.46258   -21.356214    36638.639 
  363300    302.35986    -1521.889    487.06163    321.59497    16.468345    36638.639 
  363400    295.40533   -1507.3926    464.78378     282.6147    413.70867    36638.639 
  363500    295.29934    -1443.725    523.64381    404.66679   -77.928223    36638.639 
  363600    299.33322   -1471.9712    474.87293    345.74621   -165.13873    36638.639 
  363700    302.79633   -1522.0909    455.02493    291.31443   -316.14154    36638.639 
  363800    290.35359   -1536.1479    468.85704    235.26991   -219.88793    36638.639 
  363900     294.9291   -1494.3508    470.25441    298.99066    511.45175    36638.639 
  364000    290.60697   -1487.9138    484.34489    300.12859    306.52545    36638.639 
  364100    299.03302    -1501.927    478.80744    318.37821    1064.7412    36638.639 
  364200    306.83444   -1530.0074      468.062    314.55043    290.49296    36638.639 
  364300      308.544   -1514.6389    476.59318    346.11937    234.57575    36638.639 
  364400    315.27236   -1502.7295    465.32381    376.94372    -212.7711    36638.639 
  364500     295.3898   -1542.0962     481.4763    264.53392   -584.07876    36638.639 
  364600    296.90248   -1512.8683    472.25016    291.32174   -583.73609    36638.639 
  364700     298.5777   -1441.3732    484.13502    382.21698    -144.2058    36638.639 
  364800    297.17518   -1507.3417     493.3451    319.16665     35.43948    36638.639 
  364900    302.55788   -1467.5159    493.64878    383.44356   -70.747267    36638.639 
  365000    287.58075   -1484.9144    487.24329    292.45043   -154.87507    36638.639 
  365100    302.96849   -1477.7074    489.25498     370.7003    27.483189    36638.639 
  365200    297.09639   -1501.2332    481.35434    312.93096    -94.51376    36638.639 
  365300    309.16088   -1526.1437    456.52027    317.30913   -107.28094    36638.639 
  365400    302.54782   -1454.2284    488.19339    391.23052    90.661642    36638.639 
  365500    299.10134   -1494.2837     475.5311    323.05164   -29.780223    36638.639 
  365600    307.40489    -1475.255     483.6227    387.42266    144.00586    36638.639 
  365700    290.29306   -1535.5233     490.3097    257.07565    239.87428    36638.639 
  365800    289.72161   -1546.2433    486.63236    240.11469   -72.854779    36638.639 
  365900    298.94278   -1533.2714    455.16399     262.9855   -31.295503    36638.639 
  366000    307.97205   -1511.0717     487.5499    358.07745   -488.84492    36638.639 
  366100     300.3737    -1465.882    512.02618    393.65636   -694.68168    36638.639 
  366200    285.70858   -1455.5349     471.2755    297.46335   -665.26663    36638.639 
  366300    301.70123   -1479.4482     476.2009    350.22035   -1047.0543    36638.639 
  366400    298.03935   -1488.6414    468.51206    316.91063     -473.431    36638.639 
  366500    304.76385   -1513.0489    465.02822    319.18627    140.26061    36638.639 
  366600    299.80319   -1481.7284    477.24478    340.46924   -292.25415    36638.639 
  366700    310.68901   -1482.4825    472.94364    384.24907   -245.81394    36638.639 
  366800     304.4655   -1509.0825    493.04571    349.83177    -235.1949    36638.639 
  366900    301.52213   -1497.0494    501.12111    356.73596    112.74601    36638.639 
  367000    306.13646   -1527.2132    476.44575    322.59719   -667.99059    36638.639 
  367100     290.4478   -1496.3121    488.54661     295.2179   -932.53395    36638.639 
  367200    292.48161   -1482.8758     486.2993    315.53086   -944.94503    36638.639 
  367300    294.26797    -1497.616    473.48076    295.98596   -766.50454    36638.639 
  367400    301.47381   -1539.7628    458.07876    270.76338   -658.62866    36638.639 
  367500    302.10413   -1542.3594    458.59035    271.50609   -538.00297    36638.639 
  367600    296.88317   -1488.1937    491.39812    335.05769   -781.86511    36638.639 
  367700    305.16754   -1479.0526    475.61513     365.5805   -1137.9414    36638.639 
  367800    302.29636   -1537.6562    451.69285    270.17416   -1041.2002    36638.639 
  367900    294.25174   -1549.8774    470.82241    240.99335   -1178.4603    36638.639 
  368000    295.25932   -1556.7068    475.98443    243.84613   -1036.9199    36638.639 
  368100    292.97091   -1514.7904    453.94032    253.45235    -999.1317    36638.639 
  368200    309.14718    -1569.064    459.99708    277.80414   -874.50737    36638.639 
  368300     303.0864   -1537.0574    474.46245    297.08675    -985.0687    36638.639 
  368400    304.15571   -1502.3004    459.64594    321.82426   -770.55823    36638.639 
  368500    300.03912   -1510.4761    463.85308    299.38824   -827.33963    36638.639 
  368600    305.57859   -1568.9662     453.6766    255.57241   -552.04584    36638.639 
  368700    305.11467   -1557.3661      453.925    265.33965   -128.32851    36638.639 
  368800     299.8591   -1555.3162    475.51722    265.40462   -500.41616    36638.639 
  368900    291.27857   -1556.2954    483.90585    234.32078    640.95937    36638.639 
  369000     298.1661   -1536.6663    471.98165    272.92396    334.09144    36638.639 
  369100    304.97075   -1548.6425    469.60251    289.09514   -72.591366    36638.639 
  369200    296.58704   -1538.6147    482.75537    274.66547   -401.73724    36638.639 
  369300    304.75705   -1515.6171    491.16346     342.7228    268.48347    36638.639 
  369400    290.36916   -1520.8121    463.44216    245.26076    181.64035    36638.639 
  369500    288.17408   -1518.0436    490.34543    265.08506    221.79475    36638.639 
  369600    284.20285   -1499.5332    492.14406    267.57873    184.89083    36638.639 
  369700    286.67609     -1491.56    487.90544    282.40848    263.25996    36638.639 
  369800     300.8835   -1505.1738    491.84872    336.47416     357.4579    36638.639 
  369900     299.3751   -1513.5663    474.69746    304.16351    356.71231    36638.639 
  370000    306.12659   -1529.7548    451.82004     295.3856    600.40433    36638.639 
  370100    308.23204   -1528.4156    514.89183    369.24184    464.83942    36638.639 
  370200    299.97229   -1538.9451    470.57387    277.34019    77.364189    36638.639 
  370300    293.46522   -1497.7764    479.28121    298.02478    -332.4273    36638.639 
  370400    300.03406   -1514.5361    483.86128    315.31372   -34.123646    36638.639 
  370500    299.31771   -1494.9735    463.22696    311.02831    257.70536    36638.639 
  370600    295.00459   -1509.6753    466.10665    279.85708   -73.136875    36638.639 
  370700    305.94929   -1533.2578    476.74102    316.00816   -76.285966    36638.639 
  370800    303.11763   -1570.9675    473.33577    262.19009    540.69256    36638.639 
  370900    297.84848   -1555.9948    445.15929    225.34827    110.75939    36638.639 
  371000    303.61648   -1522.1014     493.8122    333.77045    350.36151    36638.639 
  371100      305.484   -1563.2785    447.53806    254.69718    364.14398    36638.639 
  371200    306.70999   -1544.5804    461.23834    292.59548    -344.1687    36638.639 
  371300    284.05428   -1582.7652     452.6439    144.18006   -170.37915    36638.639 
  371400    296.88484   -1577.7675    473.46189    227.55518    44.333049    36638.639 
  371500     299.0714   -1575.7242    485.66784    251.61361     71.15957    36638.639 
  371600    306.90113   -1565.3108    463.61075    275.09493    167.05192    36638.639 
  371700    295.45867    -1554.902    459.88087    230.44169   -424.12647    36638.639 
  371800    306.52215   -1547.0264    470.13515    298.20369    39.173656    36638.639 
  371900    289.42218    -1573.523    469.75775    194.61715    7.6307681    36638.639 
  372000    300.15391   -1521.3155    461.05022    286.26086   -415.97128    36638.639 
  372100    297.36135   -1531.0525    475.07686    278.02281   -898.59069    36638.639 
  372200      301.831   -1512.8445    475.50836    316.71363   -335.17115    36638.639 
  372300    296.68477   -1525.2459    462.11808    267.83542   -804.21628    36638.639 
  372400    306.33587   -1494.8069    478.21301    357.66535    159.20886    36638.639 
  372500     308.9958   -1490.5058    477.38656    373.07273    372.66498    36638.639 
  372600    299.41208     -1472.16    491.24636    362.28467     657.0258    36638.639 
  372700    297.44849   -1485.5048    510.41409    359.29869    646.00437    36638.639 
  372800    300.15362   -1515.7923    472.41192    303.14448    500.52361    36638.639 
  372900    302.42441   -1503.4033    485.60278    338.91142    939.98811    36638.639 
  373000    298.67483   -1516.4554    510.55582    333.99129    820.29452    36638.639 
  373100    298.07178   -1472.7033    478.32609    342.80829    807.50145    36638.639 
  373200     313.4948   -1461.0075    492.22576    437.59331    85.467204    36638.639 
  373300    292.55091   -1455.6529    481.37174    338.13707   -211.61296    36638.639 
  373400    311.44044   -1493.4771    479.97825    383.66004   -516.14621    36638.639 
  373500    309.27285   -1513.1299    487.57463    361.87958   -618.34974    36638.639 
  373600    301.87141   -1477.1988     485.0196    362.05192   -546.74085    36638.639 
  373700    309.26184    -1532.542    454.33937    309.18283   -347.64226    36638.639 
  373800    291.65182   -1477.9046     472.6717    303.15194   -100.63138    36638.639 
  373900    308.18046    -1469.906    487.68345    400.31166   -189.14508    36638.639 
  374000    299.17751   -1476.5873    496.68852    362.24717    120.54908    36638.639 
  374100    296.77636   -1507.7149    497.83745    321.49666    169.49031    36638.639 
  374200    307.15266   -1460.3676    518.51615    436.07195   -173.57106    36638.639 
  374300    302.07475   -1511.9174    493.94423    337.17014    240.72085    36638.639 
  374400    297.23709   -1522.6633    450.74146    261.51915    57.961527    36638.639 
  374500    309.67645    -1548.176     494.7797    335.84919    1103.3034    36638.639 
  374600    296.79977   -1531.3455      492.112    292.24565   -245.58655    36638.639 
  374700    292.10878   -1521.8002    475.76705    264.40165    54.158679    36638.639 
  374800    305.94123   -1507.2101    473.59892    338.87769   -190.09489    36638.639 
  374900    300.77154   -1482.4939    488.07235    354.87539   -8.9263682    36638.639 
  375000    306.01055     -1471.86    442.85976    343.79952    78.975255    36638.639 
  375100    297.52366   -1498.2887    503.94275    340.38058    564.56391    36638.639 
  375200    297.65834   -1562.5014    492.26748     265.0969   -59.106913    36638.639 
  375300    296.22578   -1520.5077    460.61214    269.00863    171.62092    36638.639 
  375400    308.83469   -1480.1434    479.54223    384.86801   -327.07998    36638.639 
  375500    303.28778    -1505.617    485.00204    339.97018   -710.98259    36638.639 
  375600    296.56568   -1485.5806    485.93429     330.7826   -465.98521    36638.639 
  375700    296.48099   -1501.5813     487.0802    315.54797   -777.03619    36638.639 
  375800    305.83078   -1458.2003    503.83971    417.63272   -275.35928    36638.639 
  375900    295.63279   -1491.2302    475.02878    310.04244   -484.64974    36638.639 
  376000    296.49527   -1487.0394    487.89155    330.96522   -915.63717    36638.639 
  376100    295.11065   -1451.4361    456.05248    328.51793   -709.15931    36638.639 
  376200    301.58687   -1523.5742    470.71878    300.09924    -263.3611    36638.639 
  376300    294.63897   -1492.7131    483.10427    312.17666   -181.48832    36638.639 
  376400    301.54606   -1476.4057     496.7989    373.16472    37.128005    36638.639 
  376500    300.04249   -1520.2539    457.52939    283.30181   -347.10729    36638.639 
  376600    305.62305   -1533.8628     474.0404      311.239   -521.40708    36638.639 
  376700    307.21276    -1530.915    456.28837    303.56637   -122.80032    36638.639 
  376800     304.4151   -1537.0271    477.88059    306.49593    32.247873    36638.639 
  376900    302.48282   -1478.6804    474.41836    352.71189   -841.41416    36638.639 
  377000    288.75865   -1507.4625    488.67269    276.61589   -598.53692    36638.639 
  377100    282.51167   -1509.5381    461.97248    219.81541   -405.04034    36638.639 
  377200    294.00392   -1535.8264       490.59    273.70028    -526.4748    36638.639 
  377300    298.68892   -1580.4769    467.84811    227.32528   -115.15362    36638.639 
  377400    319.64169   -1529.4765    481.29456    385.76872    -437.6904    36638.639 
  377500    302.53915   -1511.7216     455.2407    300.74577    -890.8209    36638.639 
  377600    304.52362   -1538.1845     478.7925    306.73726   -636.40448    36638.639 
  377700    292.76213   -1532.3507    472.15602    253.17116   -324.63138    36638.639 
  377800    293.06692   -1518.7248    488.33463    284.34291   -367.26083    36638.639 
  377900    306.57807   -1542.5005    480.21047    313.05572   -481.88296    36638.639 
  378000    293.00754   -1609.4167    463.18879    168.23875    -198.8331    36638.639 
  378100     298.2077   -1574.6097     474.4176    237.60315   -603.18308    36638.639 
  378200    300.36035    -1544.128    469.41391    272.73819   -859.60629    36638.639 
  378300    287.48695   -1525.9765    513.44948    277.17366   -5.4969032    36638.639 
  378400    304.14595   -1522.8156    476.58234    318.20174    466.84524    36638.639 
  378500    301.03805    -1536.612     484.1377    298.01825    943.06654    36638.639 
  378600    305.16263   -1525.8328    474.06973    317.23288    1200.5697    36638.639 
  378700    293.35052   -1530.3592    500.50637    286.15257    346.59489    36638.639 
  378800    295.22993   -1492.9202     494.6562    326.17268   -33.744869    36638.639 
  378900    294.26387   -1512.4497    500.26599    307.91908     50.12161    36638.639 
  379000    301.17998   -1545.7636    486.90048    292.26615   -4.4308006    36638.639 
  379100    302.98465   -1550.7331     471.5336    280.02573    21.129886    36638.639 
  379200    292.43141   -1519.6636    476.19069    268.40927    230.40599    36638.639 
  379300    299.02879   -1505.2545    476.72301    312.94727    131.53473    36638.639 
  379400    295.71352    -1521.248    481.34533    286.70341    89.960497    36638.639 
  379500    307.21446   -1512.1475    507.68884    373.74201    254.69888    36638.639 
  379600    293.75162   -1517.3595    487.69792    288.14322    63.572012    36638.639 
  379700    303.51958   -1531.9935    487.49779    317.12931   -130.56414    36638.639 
  379800    298.09576   -1519.7816     473.4363    290.94775   -200.83158    36638.639 
  379900    301.66582    -1556.803    474.65304    271.15883    203.64435    36638.639 
  380000    293.91422   -1562.9715    488.87365    244.43635   -139.18921    36638.639 
  380100      302.229   -1514.1999    494.23289    335.86832    120.25377    36638.639 
  380200    295.36846   -1524.8352    461.52303    261.74594    170.98248    36638.639 
  380300    294.44239   -1502.2383    477.90407    296.56943   -165.15786    36638.639 
  380400    305.36679   -1516.5359    483.48688    336.86283    459.80735    36638.639 
  380500    299.13625   -1476.3387    470.39139    336.01349   -50.933131    36638.639 
  380600    300.55304   -1515.5741    503.40357    336.14619   -384.86073    36638.639 
  380700    308.33714   -1506.1312    461.46674    338.57266   -603.75004    36638.639 
  380800    305.22003   -1496.1823    496.82777    369.89889    -497.1887    36638.639 
  380900    305.89511   -1478.8464    489.25353    382.68897   -370.50355    36638.639 
  381000     299.5303   -1455.9654    492.96901    380.73221   -777.93948    36638.639 
  381100    291.64959   -1498.5356    460.31487    270.15407   -692.44568    36638.639 
  381200    305.02543   -1548.2943     487.6383    307.72442   -115.95476    36638.639 
  381300    288.50031   -1542.0667    474.58041    226.76047    30.805185    36638.639 
  381400    300.99489   -1550.1512    470.63038    270.77808     616.7053    36638.639 
  381500    307.08978   -1527.7715    502.86541     352.7352    325.28355    36638.639 
  381600    292.59069   -1537.7389     494.4432    269.30105    162.73786    36638.639 
  381700    295.91574   -1551.8501    485.03569    260.69889    35.726424    36638.639 
  381800    304.32846   -1489.6548    482.88315    358.48201   -391.90576    36638.639 
  381900    301.74159   -1484.3227    483.97901    353.30507    -484.3723    36638.639 
  382000     308.9437   -1491.2244    490.78315    385.51699   -274.92924    36638.639 
  382100    299.59176   -1507.8144    482.96265    319.15254   -403.26924    36638.639 
  382200    300.58274   -1524.2133    468.85201    293.08873    99.013028    36638.639 
  382300    306.64374   -1575.0814    480.36237    280.92134   -164.90174    36638.639 
  382400    306.70349   -1508.0826    496.09445    363.92023    21.564584    36638.639 
  382500    302.12317   -1556.3123    474.45751    273.50571    473.07175    36638.639 
  382600    287.69061   -1518.9508    503.47966    275.14322    253.77886    36638.639 
  382700    310.28191   -1559.8366    490.22812    322.35313   -38.115752    36638.639 
  382800    303.07108    -1548.249    494.31242    305.67641   -192.59021    36638.639 
  382900    304.87373    -1566.477    484.17219    285.39506   -279.30482    36638.639 
  383000    299.53987   -1522.6379    479.85139    300.98505   -305.12678    36638.639 
  383100    292.11428   -1510.8301    477.98675    277.61611   -872.43727    36638.639 
  383200    298.32658   -1506.7266    449.24679    280.84879   -671.14598    36638.639 
  383300    297.84588   -1523.9946    459.73835     271.9159   -1167.5857    36638.639 
  383400    291.90623   -1542.7288    472.98234    239.77963   -569.52534    36638.639 
  383500    294.46154   -1511.3137     465.6649    275.34073    -614.7835    36638.639 
  383600    298.03564   -1547.1506    458.76107    248.63389   -167.80783    36638.639 
  383700     294.5085   -1589.6036    478.10126    209.69781   -372.65218    36638.639 
  383800    305.95331   -1520.3195    456.55736    308.78082   -218.33241    36638.639 
  383900     293.7299   -1537.5146    451.87269    232.06546   -431.85521    36638.639 
  384000    293.63405   -1545.7935    460.01726    231.50111   -500.40683    36638.639 
  384100    306.19723   -1551.3762    486.11648    308.37748    -108.8645    36638.639 
  384200    295.54404   -1508.8584    459.98848    276.97581   -891.73509    36638.639 
  384300    290.47376   -1507.8593    460.59127    255.83189   -581.14503    36638.639 
  384400    306.76268   -1523.9435    481.90856    334.13897     314.7385    36638.639 
  384500    308.09555   -1516.7357     472.0157    337.43337    233.68615    36638.639 
  384600     295.3888    -1485.213    469.10988    309.04616    23.900022    36638.639 
  384700    305.31187   -1527.1682    465.20895     307.7062   -380.89742    36638.639 
  384800    290.68524   -1530.0999    460.01565    233.96431   -189.30902    36638.639 
  384900    301.70061   -1503.1847    474.23728    324.51745   -794.26324    36638.639 
  385000     297.3604   -1560.5283     450.8988    224.36466   -461.76044    36638.639 
  385100    311.24128   -1525.2594     457.7241    328.73017    -679.5101    36638.639 
  385200    307.46106   -1545.7055    484.08488    317.68637   -474.74297    36638.639 
  385300    293.51707   -1514.3638    460.15109    262.53981   -272.07611    36638.639 
  385400    303.72922   -1532.7559    475.20785     305.0174    75.012224    36638.639 
  385500    302.40574   -1538.2422    466.59135    284.97739    27.378214    36638.639 
  385600    298.33527   -1531.4367    452.76415    259.69507   -587.56076    36638.639 
  385700    298.78309   -1522.0612    455.56166    273.87705   -131.67233    36638.639 
  385800    290.96458   -1509.1674    456.82802    252.96241    539.11724    36638.639 
  385900    299.19121   -1507.9937    480.66252    314.87624   -153.77118    36638.639 
  386000    311.19112   -1546.0712    466.26836    316.23765   -154.36742    36638.639 
  386100     301.7906   -1557.7303    466.76972    262.90805    122.86314    36638.639 
  386200    301.50141   -1532.0284    441.06313      261.606    75.579385    36638.639 
  386300     295.6799   -1555.9244    487.34141    257.87225    528.37655    36638.639 
  386400    301.61526    -1543.748    464.90613    274.24017    531.22859    36638.639 
  386500     298.8899   -1529.6931    483.71229    294.87486    711.28157    36638.639 
  386600    290.86263   -1510.7764    472.22612    266.29416    672.17866    36638.639 
  386700    304.89853   -1514.7244    487.56496    340.65166    379.34288    36638.639 
  386800    300.88798   -1506.9319    478.85802    321.74538    237.11331    36638.639 
  386900    302.30185    -1499.029    463.38021    320.51329   -725.37885    36638.639 
  387000    301.94015   -1507.5767    484.41147    331.37426   -752.74073    36638.639 
  387100    301.64568   -1513.1162    457.50116    297.60338   -737.84621    36638.639 
  387200    299.30739   -1504.4817    472.94397    311.19081    -485.2687    36638.639 
  387300     303.8718   -1565.9849    453.76456    250.98472   -23.759595    36638.639 
  387400     295.2274   -1497.7229    475.10558    301.80802   -334.39783    36638.639 
  387500     298.3463   -1500.8534    467.28852    304.85218    136.68633    36638.639 
  387600     305.0979   -1516.8461    467.95307    319.81246    461.03231    36638.639 
  387700    295.82127   -1524.8161    481.57294    283.84624    504.07611    36638.639 
  387800    302.23804   -1541.2036    490.01931     304.6916   -267.22373    36638.639 
  387900    304.51471   -1556.5133    473.27455    282.85054     159.7142    36638.639 
  388000    296.19704   -1561.3433    447.04765    214.47957   -338.94953    36638.639 
  388100    303.96792   -1501.9524    468.53649    330.22036   -182.50159    36638.639 
  388200    297.22053   -1499.6846     426.8273    260.50937   -47.637825    36638.639 
  388300    293.62689    -1505.207    482.40128    294.43945    691.49675    36638.639 
  388400    299.80353   -1502.9276    471.42705    313.45375    963.01205    36638.639 
  388500    299.92751   -1522.6528    471.44974    294.30749    274.86681    36638.639 
  388600     293.5185   -1527.2561    469.44707    258.94992     438.1698    36638.639 
  388700    310.70367   -1503.5626     473.8164    364.10752    953.28761    36638.639 
  388800    288.05981    -1490.711    484.91972    286.47931     63.61797    36638.639 
  388900    298.29922   -1505.2962     453.0607    285.97035   -148.15888    36638.639 
  389000     291.4055    -1531.589    468.66262    244.35346    336.12977    36638.639 
  389100     298.2399   -1489.7249    445.87475    294.08961    408.78175    36638.639 
  389200    310.45526   -1517.0087    450.16401     325.8946    282.13128    36638.639 
  389300    308.49501   -1519.5672    453.34117    317.71939    372.64406    36638.639 
  389400    294.88203   -1510.2011    451.26629    263.94109     696.4303    36638.639 
  389500    299.60418   -1525.0126    452.92525    271.97269    235.42326    36638.639 
  389600    306.66623   -1516.6592    467.49531    326.57735    445.73338    36638.639 
  389700     297.7736    -1489.518    475.96642    322.29621    577.00998    36638.639 
  389800    307.89384    -1457.274    476.66129    400.63571   -226.68453    36638.639 
  389900    295.47749   -1415.1629    496.89266    407.27692   -85.327431    36638.639 
  390000    297.26225    -1504.948     455.8935    284.49931   -244.84697    36638.639 
  390100    303.26409   -1471.9789    472.84545    361.34546    61.522386    36638.639 
  390200    304.80696   -1466.9102    446.35877    346.84884   -432.89143    36638.639 
  390300    294.50816   -1447.8548    473.04644    346.39036   -192.58854    36638.639 
  390400    309.28032   -1484.3932    468.20318    371.27829   -549.67476    36638.639 
  390500    303.10471   -1477.3511    451.31746    333.73021    102.14271    36638.639 
  390600    297.25262    -1500.031    455.44172    288.92139    513.73375    36638.639 
  390700    303.60181   -1459.4126    458.90682    361.48807     795.7414    36638.639 
  390800    304.09531   -1489.6749    481.06093     355.5938    414.25681    36638.639 
  390900     296.7366   -1507.8875    468.95918    292.26746    13.893714    36638.639 
  391000    304.65077    -1504.124    485.27951    347.85518     401.7132    36638.639 
  391100    300.12388   -1455.5232    510.87588    401.74411    576.48805    36638.639 
  391200    296.84585   -1470.2924    479.05539     340.4488    175.53659    36638.639 
  391300    295.85694   -1489.5696    475.97358    313.65341   -169.92228    36638.639 
  391400    298.83387   -1479.9633    471.65094    332.29198    -246.0781    36638.639 
  391500    303.67166   -1508.7313    471.45783    325.03378    225.09944    36638.639 
  391600    304.73705   -1487.7203    469.09242    348.45881    55.564153    36638.639 
  391700    298.70761    -1481.202    485.09143    343.92736     108.3791    36638.639 
  391800    297.53816   -1487.8096    480.45798    327.43997   -548.56064    36638.639 
  391900    294.78448   -1518.8624    470.02891    273.60479    118.78085    36638.639 
  392000    297.54967   -1517.3809    473.33426    290.79663   -80.404317    36638.639 
  392100    293.99143   -1491.9206    463.47832    290.43827    -342.2774    36638.639 
  392200    301.75438    -1544.779    474.63011    283.55724   -417.53492    36638.639 
  392300    305.93523   -1458.8123    477.78997    391.43955   -415.35042    36638.639 
  392400    310.15487   -1510.2292     464.7694    345.93193   -473.11999    36638.639 
  392500     312.9199   -1483.7952    477.77461    397.77529   -815.77245    36638.639 
  392600    294.92656   -1501.6008    465.31294    286.78787    86.385783    36638.639 
  392700    298.14204    -1462.089    456.51156    331.92325    423.88753    36638.639 
  392800    305.38024   -1493.8778    479.54651    355.64081    464.17336    36638.639 
  392900    291.94431   -1501.5519    447.23208    255.37711   -52.946237    36638.639 
  393000    295.91544   -1482.1609    486.07886    331.42988    187.31155    36638.639 
  393100    308.74693   -1486.2493    489.64875    388.47499    315.35129    36638.639 
  393200    306.00332   -1492.4943    474.67604    354.94906    368.86044    36638.639 
  393300     301.3959   -1507.0895     493.1085    338.11686    411.27514    36638.639 
  393400    303.09539   -1535.1261    471.34433    295.94022    208.04594    36638.639 
  393500    304.58687   -1539.4579    458.00026    284.95539   -176.58356    36638.639 
  393600    307.32253    -1551.133    478.74641    306.29893    173.41363    36638.639 
  393700    291.75087   -1501.5608     453.2473    260.51563   -452.38846    36638.639 
  393800    307.79714   -1513.8595    474.19704    341.15221   -38.016845    36638.639 
  393900    305.23336   -1486.8179    456.10298    338.59832    253.41092    36638.639 
  394000    301.76912   -1474.1567    471.89724    351.51279    110.80329    36638.639 
  394100    303.07046   -1435.2556    486.16488    410.51951    64.422237    36638.639 
  394200    304.04709   -1439.6597    467.68017    392.01189    126.34561    36638.639 
  394300    300.35249   -1480.5765    481.77548    348.61606    13.940436    36638.639 
  394400    291.56996   -1490.4061    449.16074    266.77222   -258.01243    36638.639 
  394500    300.61501   -1515.8151    470.25386    303.03353   -256.60666    36638.639 
  394600    299.55222   -1516.1757    458.98045    286.63165    718.55392    36638.639 
  394700    288.20675   -1500.0866    469.05218    261.89537    132.30565    36638.639 
  394800    297.06602   -1522.5414    429.27718     239.4093    81.574132    36638.639 
  394900    299.29494   -1544.0716    476.68352    275.28471    257.49574    36638.639 
  395000    297.45089   -1521.6785    443.23567    255.95725    248.31663    36638.639 
  395100     308.3165    -1527.007     473.0834    329.22098    504.54704    36638.639 
  395200     295.5444   -1559.1119    468.79633    235.53188    684.51996    36638.639 
  395300    298.98895   -1561.0169    471.15063    251.43373      12.9307    36638.639 
  395400    307.48214   -1554.1974    454.01435    279.21851    168.67703    36638.639 
  395500    295.68057   -1549.2036    465.48006    242.73471    302.52471    36638.639 
  395600    302.88144   -1524.2793    470.66394    305.14681    111.23748    36638.639 
  395700    295.15426   -1472.5305    472.56802     324.1347   -136.69555    36638.639 
  395800    306.22646   -1480.7557    483.70877    376.72148   -77.914701    36638.639 
  395900    296.30672   -1476.0126    469.91335    323.16801   -414.91508    36638.639 
  396000    313.39988   -1501.2969    481.38299    386.03531   -100.52899    36638.639 
  396100    304.14868    -1499.298    460.51062    325.65988    155.50692    36638.639 
  396200    295.65855   -1469.4212     465.9257    322.86397   -191.14342    36638.639 
  396300    300.16236    -1469.265    472.50727    349.80642   -820.14736    36638.639 
  396400    293.96158   -1471.6811    470.59883     317.6644    -97.90308    36638.639 
  396500    296.77609   -1431.0627    488.98968    389.29991    205.35332    36638.639 
  396600    298.41795   -1448.0274    466.65854    357.36959   -180.82158    36638.639 
  396700    300.93451    -1446.234    491.90401     395.6981   -474.67227    36638.639 
  396800     299.6555   -1419.3515    465.85453    390.79332   -317.21385    36638.639 
  396900    297.36633   -1424.7439    486.52658     395.8035    122.35058    36638.639 
  397000    304.74035   -1450.6033    487.55345    404.05168   -71.992193    36638.639 
  397100     296.4464    -1508.888    465.74788    286.75369   -322.28494    36638.639 
  397200    314.79927   -1514.5132    472.06805    369.78189   -789.52649    36638.639 
  397300    304.32107   -1464.6561    481.64791    382.21235   -1140.8308    36638.639 
  397400    288.58003    -1450.588    468.54083     312.5572   -892.58549    36638.639 
  397500    293.95135   -1420.7612    483.40736     381.3469    -316.2049    36638.639 
  397600    305.02983   -1446.5526    486.36582    408.21339   -138.43934    36638.639 
  397700     289.3983   -1523.6211    458.55586    233.21004   -209.86765    36638.639 
  397800    291.03532   -1510.6041    485.88301      280.898   -195.11737    36638.639 
  397900    304.40669   -1512.8616    486.88089    339.62394   -103.91329    36638.639 
  398000     296.9628   -1537.7409    456.29641    250.76599   -307.36111    36638.639 
  398100    303.81171   -1565.4502     446.4469    243.93219   -30.255174    36638.639 
  398200    293.82392   -1561.4431    453.95778    210.64382   -568.20868    36638.639 
  398300    308.94847   -1544.9585     447.0696    288.09077    -556.8743    36638.639 
  398400    301.91614   -1511.0941    490.84684    334.18446    76.545887    36638.639 
  398500    293.61615   -1564.7477    456.62215    209.07145     371.3149    36638.639 
  398600    288.78423   -1602.8395    454.40534    147.08634    67.602148    36638.639 
  398700    297.20035    -1559.921    468.01563    241.37082   -521.11961    36638.639 
  398800    308.72664   -1541.8045    456.95386     300.1339   -59.834379    36638.639 
  398900     288.9243   -1539.8952    470.19662    226.45022     90.70092    36638.639 
  399000    300.48454   -1495.1568    488.02619    340.87879    174.86749    36638.639 
  399100    298.85118   -1505.6426    466.27972    301.31909    410.33678    36638.639 
  399200    296.80882    -1566.742    475.47139    240.24913     417.8545    36638.639 
  399300    297.23706   -1521.0202    486.24809    298.66875   -432.21479    36638.639 
  399400    297.24658   -1501.2667    459.02104    291.23791   -104.99643    36638.639 
  399500    303.56264   -1503.7837    475.52717    333.56165   -36.278384    36638.639 
  399600    297.13224   -1513.7734    484.37605    303.57321   -569.45043    36638.639 
  399700    303.75112   -1503.3358    464.74649    324.07441   -347.12341    36638.639 
  399800    298.33035   -1547.1018    470.18131    261.42498   -384.75435    36638.639 
  399900    293.63088   -1522.8941    462.55215    256.92113   -103.38129    36638.639 
  400000    301.07521   -1549.8465    463.42588    264.23868    164.89533    36638.639 
  400100    300.76265   -1529.4527     477.3127    297.11706    324.61087    36638.639 
  400200     315.9891   -1504.6738    469.39272    382.28365    644.51602    36638.639 
  400300    301.85416   -1517.1813     459.0148    295.98723   -24.614972    36638.639 
  400400    298.37013   -1506.6733    473.87715    305.72777   -141.34627    36638.639 
  400500    295.97543   -1505.6361    451.23332    273.37827    20.047836    36638.639 
  400600    297.07696   -1511.8625    460.86862    281.72872   -261.68817    36638.639 
  400700     314.5677   -1487.4711    458.75825    382.47534   -571.39044    36638.639 
  400800    299.72654   -1491.9838    454.95168    307.57681   -535.98058    36638.639 
  400900    295.69136   -1519.1707    466.29275    273.62871   -369.56101    36638.639 
  401000    293.32736   -1490.5481    490.78878    316.14218   -271.16655    36638.639 
  401100    301.50638   -1534.1709    471.11864    289.54126   -288.01091    36638.639 
  401200    300.21245   -1505.7123    482.18656    323.26309   -709.53165    36638.639 
  401300    306.88922   -1476.9495    467.52413    367.31626   -302.13393    36638.639 
  401400    302.74895   -1427.1604     479.7919    410.79939    110.09387    36638.639 
  401500    294.56097   -1461.2545    489.84521    350.02634    125.48898    36638.639 
  401600    299.63704   -1508.4899    469.00768    304.72524    166.68521    36638.639 
  401700    299.41671   -1454.6605    490.04722    378.60579     154.8087    36638.639 
  401800    307.19041   -1473.9228    457.06104    361.23102    257.69448    36638.639 
  401900    299.49013   -1495.9673      452.651    300.23209     152.9036    36638.639 
  402000    303.85323   -1528.0693    476.88691     311.9394   -82.642657    36638.639 
  402100     295.4217   -1513.5673    497.80971    309.53932    104.44497    36638.639 
  402200    302.78683   -1523.3959    466.61186    301.55372    346.36642    36638.639 
  402300    305.57493   -1482.5562    462.08436    350.37377   -466.10414    36638.639 
  402400    310.05938    -1468.012     488.5253    411.47661   -308.63989    36638.639 
  402500    304.44178   -1482.2081    457.44701    341.00102   -570.82803    36638.639 
  402600    297.11828    -1492.597    457.01578    297.32679    225.39068    36638.639 
  402700    303.67268   -1513.0344     492.4841    341.76152     144.6257    36638.639 
  402800    303.36359   -1574.1233    474.58629    261.38826   -9.7410321    36638.639 
  402900    301.12251   -1515.8358    465.84758    300.88327     360.9745    36638.639 
  403000     291.3109   -1541.3491    477.71632     243.2226    -257.6597    36638.639 
  403100    300.63583    -1532.133    470.89602    287.45116    471.97173    36638.639 
  403200    290.53607   -1569.3001    457.10654    191.18587   -2.7013182    36638.639 
  403300    301.94855   -1546.4489    476.50694    284.63524   -116.01316    36638.639 
  403400    292.24934    -1535.305    470.70924    246.46957    11.785725    36638.639 
  403500    296.47116   -1539.6308    465.08233    255.45643    13.288878    36638.639 
  403600    304.79219   -1588.4589    468.86705    247.74216    25.836733    36638.639 
  403700    288.05945   -1546.1249    457.57426    203.71836    328.18776    36638.639 
  403800    294.35716   -1552.9262    479.82092    247.41602    269.26462    36638.639 
  403900    288.74945   -1539.1905    475.23371    231.40764   -338.01603    36638.639 
  404000    296.01083   -1518.2817    469.25668    278.91487   -89.041565    36638.639 
  404100    299.51339   -1514.0587    468.59295      298.187    105.76226    36638.639 
  404200    309.41402    -1532.727    453.42483    308.76597      186.983    36638.639 
  404300    301.43135   -1562.2637    455.48996    245.48318    377.16878    36638.639 
  404400    290.00709   -1549.1415    475.81872    227.68361    658.62977    36638.639 
  404500    289.57747   -1498.5615    474.38946    274.90699    819.13844    36638.639 
  404600    307.41791   -1497.0229    480.37228     362.4628    154.20853    36638.639 
  404700    305.86668   -1501.8238    484.20226    354.53284    626.40203    36638.639 
  404800    289.78871   -1524.8789    468.19752    243.34534    377.91229    36638.639 
  404900    292.68324   -1509.0013    479.81627    283.82684   -187.33747    36638.639 
  405000    294.91063    -1495.177    479.83196     307.6592    11.859063    36638.639 
  405100    297.98059   -1492.6689     479.7696    323.87712    182.20776    36638.639 
  405200    299.88325   -1498.6344    488.04137    334.71895    33.502352    36638.639 
  405300    300.34725   -1496.5235    433.46136    284.33138    407.87549    36638.639 
  405400    298.55586   -1511.4219     493.3128    321.24812   -222.68373    36638.639 
  405500    310.22571    -1508.505     486.6176    369.82208   -262.74558    36638.639 
  405600    302.69642   -1488.8496    478.93351    348.01612   -383.56221    36638.639 
  405700    300.22227   -1519.4754    464.72629    292.08377    196.48826    36638.639 
  405800    291.52592   -1506.4519     491.7704    293.13854   -119.82665    36638.639 
  405900    297.10885   -1454.2345    503.05412    381.68534   -28.969679    36638.639 
  406000    297.15965   -1447.1145    494.80358    380.78268   -134.08712    36638.639 
  406100    299.79435   -1468.7379    483.76095    359.93619   -302.36913    36638.639 
  406200    298.84506   -1471.9366    501.76183    370.47972   -226.91179    36638.639 
  406300    304.66281   -1485.5468    462.22642    343.43328    201.77022    36638.639 
  406400    293.47634   -1472.7496    485.67667    329.49685    119.70789    36638.639 
  406500    296.78785   -1495.7285    490.40451    326.10166    259.38802    36638.639 
  406600    307.12784   -1486.3646    478.22242     369.6699    102.23808    36638.639 
  406700    298.61641   -1459.3619    500.35932    380.62619    327.12545    36638.639 
  406800    305.78443   -1490.3627    479.34145    360.76419     292.9842    36638.639 
  406900    295.13362   -1486.0886    484.97477    322.89077    282.09297    36638.639 
  407000     302.5392   -1527.8112    468.44006    297.85579    104.45095    36638.639 
  407100     296.9167   -1529.9119    469.87524    271.96706    217.61661    36638.639 
  407200    297.99442   -1521.9822     524.2669    339.12312    362.44116    36638.639 
  407300    296.37185    -1570.162    449.70775    209.10521    514.43665    36638.639 
  407400     301.4252   -1519.3483    492.59551    325.47653    177.33711    36638.639 
  407500    296.93287   -1592.2753    480.58792    220.38889    250.33287    36638.639 
  407600    308.26905   -1547.1769    472.57935    308.33417   -55.846246    36638.639 
  407700    292.83373   -1538.3319    498.47367     273.8288    703.93136    36638.639 
  407800    302.12233   -1584.5867     458.9231    229.69318    291.44316    36638.639 
  407900    304.84064   -1574.1639    461.57015    254.95772   -88.818092    36638.639 
  408000     296.4146   -1551.4249    474.08162    252.40788     246.5589    36638.639 
  408100    293.56634   -1538.1109    510.98778    289.85044   -277.84224    36638.639 
  408200    302.00414   -1522.5486     453.6044    285.88237    190.80065    36638.639 
  408300    306.16969    -1511.556    488.41721    350.37496    600.36185    36638.639 
  408400    295.56907   -1551.4964    501.66043    276.12206    65.669617    36638.639 
  408500    294.89341   -1514.8165    492.86091    300.97138    66.701404    36638.639 
  408600    308.57155   -1541.7216    475.22142    317.78852     6.407255    36638.639 
  408700    306.56155   -1538.9353    500.10012    336.43647     509.1788    36638.639 
  408800    297.79063   -1509.1062    487.91774    314.73578    511.98117    36638.639 
  408900    295.37029   -1509.8224    483.86655    299.11052    175.18023    36638.639 
  409000    302.96937   -1525.4839    485.21277     318.8856    444.25017    36638.639 
  409100    294.20059   -1498.1046    468.49398    290.20826    369.69021    36638.639 
  409200    296.32406   -1505.3602    478.30407    302.28887    397.89718    36638.639 
  409300    299.14532   -1517.4523     494.9604    319.50969    113.49802    36638.639 
  409400    301.37495   -1516.1759    497.37542    333.20345    107.23157    36638.639 
  409500    290.03248   -1543.2943    453.00346    210.82939   -284.61962    36638.639 
  409600     312.1533   -1539.3826    521.38868    382.36295     59.24114    36638.639 
  409700    295.65818   -1509.9995     499.8126    316.17092    86.952957    36638.639 
  409800    300.73658   -1486.6101     500.5538     363.0838    66.685092    36638.639 
  409900    296.95516   -1521.3542    461.63401    272.45605   -73.664678    36638.639 
  410000     297.0107    -1545.777    482.58819    269.23653    27.155835    36638.639 
  410100     295.2788   -1559.7577    486.77603    251.67419   -261.62499    36638.639 
  410200    297.84069   -1531.1378     493.4413    298.45226    321.16355    36638.639 
  410300    305.71444   -1507.5365    502.61889    366.55376    47.211254    36638.639 
  410400    290.89488   -1517.4311    464.27723    251.83526   -195.10289    36638.639 
  410500    288.31255   -1540.1846    494.98132    248.20118   -741.21917    36638.639 
  410600    291.36046   -1559.3667    471.96757    219.67863   -253.89501    36638.639 
  410700    295.88283   -1537.9794    497.50062    286.88681    517.72298    36638.639 
  410800    297.36856   -1537.5082    494.90808    291.43069    89.503664    36638.639 
  410900    307.52566   -1543.4902    500.08805    336.19457    188.49557    36638.639 
  411000      298.534   -1532.1935      473.721    280.78655    654.78787    36638.639 
  411100    306.32343   -1521.6032    513.55999    366.16017    877.05603    36638.639 
  411200    286.68574   -1517.4755    476.85884    245.48968    632.44997    36638.639 
  411300    305.23206   -1529.2479    489.00398    329.06344    6.9607315    36638.639 
  411400    307.89748   -1520.6696    470.18604    330.78125    185.49515    36638.639 
  411500    303.86663   -1537.1382    487.90971    313.95337    485.34458    36638.639 
  411600    292.82854   -1548.9157    508.10366    272.85166    469.27192    36638.639 
  411700    289.08989   -1528.6706     479.6183    247.83937     91.56976    36638.639 
  411800    304.06714    -1544.584    448.21103    267.70841   -620.02688    36638.639 
  411900    300.74191   -1572.3558    472.96134    249.76953   -939.69225    36638.639 
  412000     293.2709    -1600.873    469.14748    183.92272    62.477289    36638.639 
  412100    301.31099   -1542.5688    466.09968    275.24789   -318.97817    36638.639 
  412200    295.79134   -1564.7432    489.23244    251.44441   -450.82755    36638.639 
  412300    314.47057   -1527.1901    485.07417    368.63653   -32.988917    36638.639 
  412400    308.99784   -1552.6453    484.43775    317.99358    549.08856    36638.639 
  412500    299.35702   -1519.5463    477.67211    301.07701     345.2893    36638.639 
  412600     296.8388   -1524.4785    494.65637    301.83212    55.641807    36638.639 
  412700    298.38984   -1525.3485    465.51987     278.7838     304.4449    36638.639 
  412800    304.11447   -1472.1378    520.54372    412.69963    375.49054    36638.639 
  412900    294.36143   -1535.0869    510.24406    295.69758    694.73803    36638.639 
  413000    298.84447   -1499.8831     464.3125    305.08126    425.38966    36638.639 
  413100    306.12405    -1504.039    507.39226    376.66221    117.68183    36638.639 
  413200    301.16596   -1501.5352    465.68799    315.21912   -118.95695    36638.639 
  413300    294.04037   -1545.0038    484.44995    258.54625    374.97012    36638.639 
  413400    305.07794   -1579.7909    460.38852    249.21362   -45.968979    36638.639 
  413500    307.61222   -1562.1994    480.69799    298.48362    690.18695    36638.639 
  413600    298.09821   -1569.0163    461.30531     229.5931     339.2021    36638.639 
  413700    302.86319   -1571.7183    468.07199      255.034     181.5482    36638.639 
  413800    297.73729   -1574.2865    464.80442    226.20285   -250.14479    36638.639 
  413900    292.35715   -1581.7198    476.52497    206.35412    290.40525    36638.639 
  414000    299.45786   -1588.8685    455.81875    210.35388   -33.825376    36638.639 
  414100    307.70147   -1536.7951    475.87193    319.46225   -323.51526    36638.639 
  414200    294.90965   -1570.2858    484.09873    236.81274   -332.60713    36638.639 
  414300    290.14956   -1564.7953    463.93647    200.78665   -477.26143    36638.639 
  414400    300.99716   -1583.9433    489.63065    255.99644   -501.08427    36638.639 
  414500    295.45847   -1550.5314    458.69811    233.62859   -504.95191    36638.639 
  414600    301.93766   -1577.6289    473.30663    250.20608   -772.83592    36638.639 
  414700    293.77303   -1593.8224    451.82363    175.90207   -962.80135    36638.639 
  414800    314.88776   -1589.2033    494.76783    318.18853   -790.09422    36638.639 
  414900    293.72264   -1568.8188    459.56458    208.42058    327.18844    36638.639 
  415000    306.44942   -1531.4224    519.16902    362.51519   -106.52257    36638.639 
  415100    293.01222   -1508.4807    472.35278    278.35977    -258.2417    36638.639 
  415200    302.04807   -1548.0305    504.83116    311.82425    47.627662    36638.639 
  415300    298.93862   -1519.7239    462.55089    283.90124    384.37128    36638.639 
  415400    303.26966   -1528.9438    496.25933    327.81939    829.64711    36638.639 
  415500    299.94223   -1508.5963    482.43192    319.41221    637.14247    36638.639 
  415600    303.54948   -1487.4374    482.16249    356.48427    508.11139    36638.639 
  415700    303.12922   -1545.0118    485.55703    300.41901    686.40849    36638.639 
  415800    307.33918   -1582.2605    493.11483    289.61453    636.62656    36638.639 
  415900    300.30569   -1522.3382    479.74895    304.61785    521.14119    36638.639 
  416000    295.23517   -1498.0244    477.33035    303.76606    801.78471    36638.639 
  416100    300.49243   -1487.5574    514.67203    375.15947    25.669598    36638.639 
  416200    303.69452   -1519.2277    486.39226    329.57436    310.81142    36638.639 
  416300    299.53682   -1543.5075    457.38068    257.63101   -516.24995    36638.639 
  416400    312.78191   -1549.1768    499.34272    353.34282   -7.6630262    36638.639 
  416500    301.68456   -1541.9098    488.91192    300.39499   -344.13384    36638.639 
  416600    288.51225    -1506.723    477.32314    264.90047    -561.5069    36638.639 
  416700    300.19442   -1544.0119    478.83338    281.52942   -532.97235    36638.639 
  416800    304.42268   -1523.1583    489.56183    332.07994   -1059.8571    36638.639 
  416900    292.67489   -1533.6412    474.13771    253.47088   -1219.1142    36638.639 
  417000    297.91479   -1540.3396    468.37212     264.5138   -1403.8906    36638.639 
  417100    295.04609   -1502.8391    486.52071    307.29348   -1058.8704    36638.639 
  417200    296.86015   -1509.0848    488.45597    311.12121   -428.52827    36638.639 
  417300    304.04487    -1520.299      493.449    337.13156    -268.4321    36638.639 
  417400    300.65007   -1558.4057    495.83714    286.18341   -251.76943    36638.639 
  417500    299.84755   -1522.3151    475.15469    297.99146   -166.52648    36638.639 
  417600    292.14275   -1570.4484    488.52225    228.66107   -236.39435    36638.639 
  417700    302.20599   -1561.5812    478.43985    272.59071     175.6914    36638.639 
  417800    304.54875    -1559.609    488.78741    295.42037    275.80991    36638.639 
  417900    291.44564   -1540.8376    500.58809    267.21029    -164.7301    36638.639 
  418000    308.00376   -1514.4901    490.08371    357.33522    342.16006    36638.639 
  418100    288.56919    -1466.849    507.23766    334.94443    346.52045    36638.639 
  418200    297.11639   -1521.7766    482.42303    293.54596    374.96419    36638.639 
  418300     308.9441   -1510.3126    483.50444    359.15186    433.41486    36638.639 
  418400     306.3511   -1538.5889    508.06718     343.8058    544.83494    36638.639 
  418500     292.6412   -1535.7918    487.69427    264.72579    13.083313    36638.639 
  418600    305.37297   -1555.0206    466.47847    281.39738   -61.652312    36638.639 
  418700    296.17075   -1504.8038    513.07063    336.92408   -453.14601    36638.639 
  418800    298.02424   -1496.7844    497.14523    337.33304    43.235424    36638.639 
  418900    290.82307   -1524.5755    504.18143     284.2729    410.34479    36638.639 
  419000    301.97034   -1528.0957    489.14346    315.72269    495.30332    36638.639 
  419100    298.84929    -1577.225    478.10483    241.55331    874.93073    36638.639 
  419200    292.31841   -1523.8915    516.36856     303.8523    430.13174    36638.639 
  419300    304.46909   -1564.0794    483.34601    285.15119   -166.91174    36638.639 
  419400    298.25282   -1552.5466    504.32289    289.77401   -199.44067    36638.639 
  419500    293.50473   -1571.4698    481.27424    226.50157   -159.20748    36638.639 
  419600    293.86484   -1555.4506    484.31917    247.18124   -159.67638    36638.639 
  419700     296.4813   -1561.0548    483.85137    252.84695    411.52422    36638.639 
  419800     290.1402   -1571.6804    485.47264    215.39578   -75.190549    36638.639 
  419900    297.60075   -1575.1315    485.48744    245.42841   -36.571456    36638.639 
  420000    302.92023   -1547.2692    473.70747    285.37454    229.09218    36638.639 
  420100     292.2146   -1520.5184    498.44714    288.83824     177.8072    36638.639 
  420200    308.85205   -1554.1149    521.10002     352.5322    835.74436    36638.639 
  420300    298.42527   -1528.0822    479.82758    290.51669     288.4715    36638.639 
  420400    292.02562   -1556.9358    496.28244    249.40833   -127.83979    36638.639 
  420500    305.34987   -1520.4742    485.30043    334.66212    29.205935    36638.639 
  420600    304.40979    -1548.549     485.3574    302.42703   -341.18104    36638.639 
  420700    294.75147   -1573.1649    478.20144    227.32677   -278.13372    36638.639 
  420800    304.34266   -1587.1123    496.29772    274.50291   -89.952763    36638.639 
  420900    296.19881   -1572.4993     483.9401    240.22399    24.078977    36638.639 
  421000    294.37512   -1549.2107    487.63297    259.02413    255.76026    36638.639 
  421100    300.23299   -1522.1349    495.54391    320.28999    286.40693    36638.639 
  421200     300.8457   -1546.8409    494.12593    296.91462    331.15622    36638.639 
  421300    297.06228   -1536.7337    474.43056    270.35368   -133.68922    36638.639 
  421400    308.49475   -1548.0592    457.90165    293.78668   -335.85122    36638.639 
  421500    296.61277   -1516.3312     467.1085     281.4175   -274.14913    36638.639 
  421600    295.87061   -1527.6369    460.78759    260.46156   -744.48327    36638.639 
  421700    302.18206   -1493.2488    497.74926    360.12516   -423.71087    36638.639 
  421800    300.94897   -1511.7797    446.98126    285.29454   -192.46851    36638.639 
  421900    293.33886   -1558.7201     503.2411    260.47406   -49.522993    36638.639 
  422000     292.5394   -1570.1635    451.20395    193.40703   -209.43834    36638.639 
  422100    295.67787   -1534.4998     482.0507    273.99707     387.5316    36638.639 
  422200    297.39814   -1574.6248     467.8151    227.35376    343.12545    36638.639 
  422300    285.32028   -1511.8168    479.00757    247.17155    186.61871    36638.639 
  422400    311.24186   -1545.4385    488.67592     339.5055    430.07396    36638.639 
  422500    293.21231   -1534.0339    478.42823    259.77965    389.69058    36638.639 
  422600    296.69507   -1559.8415    483.80563    254.97355    -92.06016    36638.639 
  422700    303.94045   -1542.7062    485.72112    306.52797   -151.95176    36638.639 
  422800    302.67212   -1521.4739    479.13239    315.48168   -469.90591    36638.639 
  422900     293.0547   -1546.4394    483.46605     251.7049   -34.617672    36638.639 
  423000    288.40198   -1507.1981    443.01408    229.62159    42.337686    36638.639 
  423100    301.92996    -1532.704    471.78444    293.57418   -555.22408    36638.639 
  423200      292.852   -1535.1249    484.36708    263.01117   -168.27539    36638.639 
  423300    297.53582   -1563.7931    476.39204     247.3801    50.162838    36638.639 
  423400    304.49594   -1501.5883    474.66328    339.08003    118.25478    36638.639 
  423500    296.80399   -1516.2914    475.04694    290.25357   -136.30755    36638.639 
  423600    295.26579   -1504.9549    498.11631    317.75896    28.378651    36638.639 
  423700    306.75402   -1494.4318    495.20431    376.90758   -43.780117    36638.639 
  423800    295.34286   -1518.7072    472.39857    278.63462   -77.900874    36638.639 
  423900    307.34917   -1489.0686     481.9798    371.71621    44.599029    36638.639 
  424000    301.77953   -1501.4705    503.98003    356.32846   -471.23242    36638.639 
  424100    298.96636   -1542.8936    453.84578    252.15087   -711.64751    36638.639 
  424200    306.51479   -1550.7304     463.0421    287.37357   -638.66086    36638.639 
  424300     296.9585   -1542.1526    485.06064    275.09929    -321.7935    36638.639 
  424400    303.27817   -1535.1167    527.73618    353.16145   -402.97709    36638.639 
  424500    307.82553   -1582.3724     470.5565    269.12604   -224.34827    36638.639 
  424600    305.77037   -1581.8701    482.79648    272.64869    214.84541    36638.639 
  424700    297.15236   -1556.5128    459.56254    236.11065   -170.58049    36638.639 
  424800    288.93301   -1562.4484    479.65394    213.39342   -184.02296    36638.639 
  424900    307.47678   -1558.0148    464.13588    285.49853    241.74788    36638.639 
  425000    311.84294   -1594.3384    475.20545    279.83166    273.58598    36638.639 
  425100    299.23308   -1607.4293    477.57687    212.54277     483.1334    36638.639 
  425200    301.29731   -1565.8299    487.95284    273.77858    616.93831    36638.639 
  425300    290.22049   -1569.5186    480.61718    213.06227    114.56672    36638.639 
  425400    296.52091   -1569.0668    486.56385    247.72513    345.80177    36638.639 
  425500    304.58242   -1559.7931    485.23403    291.83401    -5.147724    36638.639 
  425600    303.23623    -1533.074    488.54869    315.82859    395.88381    36638.639 
  425700    297.81254   -1551.3313    470.71713    255.40837   -343.62515    36638.639 
  425800    293.40191   -1576.5707    483.69275    223.35792   -593.17129    36638.639 
  425900    301.21282   -1554.3062    480.61133    277.58169   -69.994495    36638.639 
  426000    296.46507   -1543.9434    510.66737    296.70156    46.317718    36638.639 
  426100    294.40001   -1579.3516    484.28609    225.64804   -167.44405    36638.639 
  426200    307.26695    -1568.417    521.51639    331.53552    120.00117    36638.639 
  426300    297.41594   -1546.1245    452.85345    240.97228    106.69783    36638.639 
  426400    294.21527    -1558.544    479.92126    241.26197    247.63402    36638.639 
  426500    284.45415   -1543.0852    515.41403    248.42401    -75.03712    36638.639 
  426600    309.64946   -1577.0333    488.20675    300.29779    185.35517    36638.639 
  426700    303.61026   -1566.7276    500.22641     295.5306   -243.56779    36638.639 
  426800    313.39493   -1593.9316    481.72116    293.71651    109.21806    36638.639 
  426900    295.08574   -1589.7424    490.28864    224.33605   -755.19188    36638.639 
  427000    301.98476   -1585.0329    472.40229    242.10896   -568.52489    36638.639 
  427100    295.72601   -1549.7984    495.03777    271.90148   -846.39905    36638.639 
  427200    302.59851   -1554.7742    475.87016    278.58895   -508.80779    36638.639 
  427300    296.04072   -1567.1281    496.06045    257.00629   -479.51409    36638.639 
  427400    299.19983    -1547.935      489.267    283.57814   -631.98617    36638.639 
  427500      302.993   -1538.0696    492.62911    313.82219    361.78336    36638.639 
  427600    298.21942   -1542.2357    531.04566    326.65782    468.15797    36638.639 
  427700    298.19286   -1542.5697    473.38836    268.54739    469.18733    36638.639 
  427800    311.02173    -1532.804    478.79005    341.26654   -279.07901    36638.639 
  427900    294.04992   -1558.6857    488.06091    248.51813   -632.73491    36638.639 
  428000    292.41826    -1545.157     496.3484    263.01456   -559.28636    36638.639 
  428100    308.98955    -1516.321    498.77202    368.61496   -590.35423    36638.639 
  428200     305.9488   -1501.4718    480.14921    351.20019   -857.66581    36638.639 
  428300    306.20326   -1520.0718    494.26127    347.85379   -762.87331    36638.639 
  428400    299.50249    -1570.206    478.96569    252.36353    -902.6274    36638.639 
  428500    303.15685   -1557.7794    469.16774    271.38603   -212.47234    36638.639 
  428600    296.40609   -1563.0896    484.53407     251.1575   -285.85379    36638.639 
  428700    300.94032   -1562.9722    479.24468    266.32661   -271.92916    36638.639 
  428800    303.45049   -1573.6869    486.72834    274.35647   -680.70165    36638.639 
  428900    288.12821    -1544.839    482.40312    230.14163   -812.63686    36638.639 
  429000    299.81773   -1567.9322    479.93948    257.02531   -473.98563    36638.639 
  429100    303.26876   -1598.6381    497.91736    259.77907   -173.31243    36638.639 
  429200    302.06157   -1525.6979     491.8017    321.18801   -40.868329    36638.639 
  429300    294.27589   -1522.6278    497.15663    294.68549   -655.94675    36638.639 
  429400    303.77008   -1512.9301    506.16382    355.98249   -829.44381    36638.639 
  429500      295.232   -1519.0707    494.47284    299.84803   -311.50599    36638.639 
  429600    298.55364   -1496.5345    495.69855    338.51124   -350.10792    36638.639 
  429700     304.4203   -1502.6755    518.23193    381.22214   -331.22362    36638.639 
  429800     295.9409   -1523.1999    497.37059    301.79681    485.30957    36638.639 
  429900    295.73732   -1515.4808    489.41844    300.65045    825.41829    36638.639 
  430000     304.8084   -1531.9166    507.11081    342.60095     1113.711    36638.639 
  430100    304.10262   -1536.7643     486.4911     313.9674    991.23842    36638.639 
  430200     300.9971   -1511.7886    513.31867    351.83893     -47.1147    36638.639 
  430300    304.08804   -1528.4001    479.92345    315.69852   -288.59078    36638.639 
  430400    292.27579    -1543.121    482.93643    250.99946    94.670098    36638.639 
  430500    306.24936   -1520.1564    482.06123    335.77591   -797.26447    36638.639 
  430600    295.05986   -1541.8315    491.25637    273.09852    -514.8186    36638.639 
  430700    299.26455   -1501.3746     504.5568    345.71866    325.26257    36638.639 
  430800    296.60583   -1543.9761    500.73175    287.36477    469.99278    36638.639 
  430900    309.35895   -1565.7189    494.86556    316.96773      83.3915    36638.639 
  431000    303.34736   -1510.1855    481.80864    332.47554   -75.735116    36638.639 
  431100    299.00966   -1518.8081     489.9221    312.50696   -63.067929    36638.639 
  431200     287.8413   -1530.1837    483.33957    244.44623     86.99318    36638.639 
  431300    294.94805   -1542.7359    481.67675    262.11293    172.97501    36638.639 
  431400    297.10336   -1574.5904    524.17083    282.42151    713.97794    36638.639 
  431500    294.80686   -1573.0678     483.7373     233.2082    556.25795    36638.639 
  431600    310.09187   -1551.4403    488.07456    327.74336    464.87556    36638.639 
  431700    301.32398   -1550.6141    493.15266    294.31385   -180.05425    36638.639 
  431800    294.97535   -1578.6698    490.31256    234.93726    296.82129    36638.639 
  431900    304.26884   -1562.5928    510.77909    313.17255    680.81768    36638.639 
  432000    290.45223     -1548.89    477.88383    231.99714    366.50195    36638.639 
  432100    306.62822   -1535.6278    506.95628    346.89914    610.73638    36638.639 
  432200    308.78126   -1523.6658    495.40913    356.97288     972.0907    36638.639 
  432300    298.33117   -1548.5599    516.70719    306.49647    1020.3274    36638.639 
  432400    302.02447   -1518.0332      510.724     347.6086    1065.3296    36638.639 
  432500    298.66389   -1527.5208    484.11214    296.43312   -40.870585    36638.639 
  432600    294.22295   -1482.6935    491.76426    328.98995   -593.46038    36638.639 
  432700    297.28961   -1484.4222    494.50412    343.75852   -1117.0608    36638.639 
  432800    305.12661   -1494.0283    475.41658     350.2226   -625.31908    36638.639 
  432900    295.39007   -1494.9356     536.9009    367.12034   -354.42174    36638.639 
  433000    298.11231   -1537.3388    478.77516    278.80373    -756.8166    36638.639 
  433100    300.85654   -1498.0524    506.78339    358.40924   -65.039226    36638.639 
  433200    309.86627   -1526.9214    489.92141    353.09706   -3.9485316    36638.639 
  433300    313.20497   -1534.2038     495.6708     366.5418    -763.0066    36638.639 
  433400    302.47086    -1495.893    499.22932    360.25667   -849.92177    36638.639 
  433500    290.97017   -1512.7455    502.81107    295.39243   -753.51236    36638.639 
  433600    303.58804   -1520.5118    522.18123     363.6015      324.458    36638.639 
  433700    287.00687   -1515.7804    487.28159     259.0482   -576.39995    36638.639 
  433800    293.69275   -1546.0774    512.27661    283.73989   -834.06045    36638.639 
  433900    295.67763   -1526.5493    509.92433    309.82006    -69.43678    36638.639 
  434000    292.06756   -1524.8796    488.14557    273.51585   -415.67187    36638.639 
  434100     296.0489   -1521.1395    477.53874    284.50987   -1219.3034    36638.639 
  434200     295.0854   -1527.3461    464.33831    260.78043   -325.69207    36638.639 
  434300    295.14804   -1504.2159    486.39333    306.24671    305.19756    36638.639 
  434400    299.83648   -1529.4699     487.3621     302.9944    446.76145    36638.639 
  434500    305.11986   -1515.6548    492.93285     346.0821    1023.9947    36638.639 
  434600    304.27974   -1559.1509    492.16851    298.05277    998.03604    36638.639 
  434700    307.02859   -1535.8669    510.01771    351.51764    1289.1289    36638.639 
  434800    303.53048   -1537.4759    487.39943    311.59745    612.51583    36638.639 
  434900    302.67501   -1558.1892     511.2536    310.90049   -107.30536    36638.639 
  435000    310.40051   -1538.9352    502.24916    355.80764   -33.047923    36638.639 
  435100    299.29986   -1540.1491    488.75941    291.30514   -550.98766    36638.639 
  435200    300.56393   -1559.1642    492.15714    281.35858    158.00561    36638.639 
  435300    305.25461   -1542.2215    475.69164    302.87865    650.32857    36638.639 
  435400    291.06231   -1547.2391    497.03996    255.54104    141.27105    36638.639 
  435500      305.225   -1579.4173    482.08121    271.93958    227.59233    36638.639 
  435600    315.73936   -1559.9458    501.48878    357.98736    477.72295    36638.639 
  435700    303.31357   -1565.8253     494.6434    289.51893    426.70086    36638.639 
  435800    300.82344   -1541.3155    482.46186    290.67614    134.90618    36638.639 
  435900    296.91123   -1553.5596    488.88385    267.30339     205.4382    36638.639 
  436000    294.16392   -1555.4533    496.72117    260.92228    798.46473    36638.639 
  436100    289.59931   -1579.7927     476.6845     196.0688    809.00284    36638.639 
  436200    298.96003   -1572.5827    476.56514    245.15274    507.07175    36638.639 
  436300    298.74582   -1542.7479    510.13358    307.59508   -393.28116    36638.639 
  436400    293.82359   -1572.1913    506.55487     252.4912   -618.23711    36638.639 
  436500    307.49925   -1566.4759     490.3493    303.35166   -53.737507    36638.639 
  436600    299.49347   -1550.9646    472.30913    264.90788   -634.22948    36638.639 
  436700    293.68509   -1539.4809    505.30939    283.33484   -464.18762    36638.639 
  436800    302.33686     -1548.67     492.5833    300.23247   -108.92203    36638.639 
  436900    300.93669   -1526.9559    500.92796    324.00991   -331.67443    36638.639 
  437000    297.96263   -1558.0872    502.50597     281.1146   -101.97283    36638.639 
  437100    309.14287   -1502.9751    495.25782    379.13449   -314.35083    36638.639 
  437200    293.07558    -1532.575     506.3203    288.51729   -327.69803    36638.639 
  437300    301.90942   -1542.1523    489.40629    301.65565   -167.84694    36638.639 
  437400    298.55096   -1537.2132    519.73559    321.85758    533.78244    36638.639 
  437500    298.39593   -1561.2321    477.33408    254.74173    486.46918    36638.639 
  437600     300.5357    -1566.108    482.82259    264.95351    135.37777    36638.639 
  437700    298.25618   -1526.1438    511.59001    323.45895    79.210198    36638.639 
  437800    297.74004   -1532.7714    490.63453    293.56044    399.92661    36638.639 
  437900    308.29079   -1566.4687    496.48812     313.0486    466.93835    36638.639 
  438000    300.97324   -1574.5163    487.32224    263.00773     214.5407    36638.639 
  438100     297.9847   -1557.1568    469.61045    249.24854    82.584713    36638.639 
  438200    303.10663   -1530.1487    488.74181     318.3655   -321.01863    36638.639 
  438300    291.88131   -1576.3474    482.44043    215.50736    196.87359    36638.639 
  438400    302.45432   -1582.6121    505.93926    280.17328   -94.063899    36638.639 
  438500    304.08368   -1558.8188    480.33478    285.67156    73.619251    36638.639 
  438600    306.50275    -1570.335    508.27522    312.94809   -203.54784    36638.639 
  438700     301.4781   -1519.6438    480.84113    313.66405   -350.53127    36638.639 
  438800    300.11845   -1519.7712    510.68979     337.2857   -303.72069    36638.639 
  438900    294.02074   -1532.0875    497.97632    284.90082   -202.85653    36638.639 
  439000    295.71918   -1494.5682    485.35218    317.41551    -725.1264    36638.639 
  439100    298.01318   -1506.3599    469.30517    299.86785   -368.41989    36638.639 
  439200    297.20677   -1550.4197    502.43926    285.32454   -212.59805    36638.639 
  439300    301.61355    -1555.855    470.98967    268.20893     9.430175    36638.639 
  439400    298.77666   -1550.8309    487.37652    276.89334   -471.84897    36638.639 
  439500    294.77995   -1538.1648    486.57342    270.82661   -656.98373    36638.639 
  439600    304.09721   -1517.8438    491.13079    337.50335    -203.3671    36638.639 
  439700    294.59128    -1566.383    478.52597    233.71452   -212.55015    36638.639 
  439800    307.64728   -1526.7515    478.32441    331.71524   -558.08887    36638.639 
  439900    292.36014   -1554.5785    478.43019    235.41409   -305.49976    36638.639 
  440000    305.24111   -1533.1041    495.18395    331.42785   -390.50617    36638.639 
  440100    306.45892   -1532.5289    474.39635    316.67871   -215.30473    36638.639 
  440200    313.50928   -1501.9816    480.68209    385.14047    -70.25398    36638.639 
  440300    307.14558   -1560.7059    507.66884    324.85457    89.294628    36638.639 
  440400    299.55772   -1546.1458    471.69077    269.39661   -484.65014    36638.639 
  440500    305.93012   -1540.2619    504.35111    336.52816   -221.18816    36638.639 
  440600    294.67799   -1565.6206     482.8874    239.22735   -27.240894    36638.639 
  440700    305.69123   -1544.0939    476.48517    303.75856    144.63248    36638.639 
  440800     291.1164   -1561.9527    487.35031    231.38049   -383.16574    36638.639 
  440900    303.04303   -1547.3247    474.17356    286.33603    286.01533    36638.639 
  441000    291.93453   -1549.1641    505.09572    265.58471    85.838904    36638.639 
  441100    297.99692   -1539.0014    509.13615    306.98448    223.43581    36638.639 
  441200    308.07138   -1555.9729    470.66637    296.73838    105.05381    36638.639 
  441300    290.91665   -1552.0075    494.09588    247.17511    318.14123    36638.639 
  441400     308.5196   -1567.8212    482.35863    298.59308    108.50682    36638.639 
  441500    292.84165   -1563.0237     489.3043     240.0031    134.38658    36638.639 
  441600     288.9425   -1548.9599     496.3464    243.61697    417.97664    36638.639 
  441700    303.97587   -1540.4966    496.80276    319.97817     831.4717    36638.639 
  441800    290.43988   -1517.1703    509.26011    295.03774    745.70047    36638.639 
  441900    297.38527   -1486.4463    491.79489    339.45435    627.11952    36638.639 
  442000    300.17772   -1501.6956    479.96029    324.89765    247.82364    36638.639 
  442100    293.94309   -1481.4224    509.91853    347.15989    416.12896    36638.639 
  442200    297.96865   -1515.7938     491.6704    312.59948    516.72471    36638.639 
  442300    295.61569   -1573.0663    498.16988    251.27081    897.82366    36638.639 
  442400    303.49045   -1520.0738    477.99469    319.41517    556.22607    36638.639 
  442500    296.93803   -1519.4653    496.08404    308.71815    643.41687    36638.639 
  442600    299.86389   -1531.8143    470.67976    284.09057    396.34703    36638.639 
  442700    302.53655    -1534.884    485.93074    308.26174    442.29763    36638.639 
  442800     301.6048   -1547.3927    508.67209    314.31443     291.2215    36638.639 
  442900    297.13487    -1503.785    482.70629    311.90374    162.53142    36638.639 
  443000    301.19791    -1525.633    497.29222    322.86888    421.71746    36638.639 
  443100    298.87174   -1557.2734    467.29194    250.79275   -423.08452    36638.639 
  443200    302.11798   -1527.2345      495.457    323.55972   -300.20637    36638.639 
  443300    300.75463    -1577.328    465.08177    236.97483    502.47497    36638.639 
  443400    299.71905   -1543.3609    475.30878    276.52321   -4.4470136    36638.639 
  443500    296.98143   -1508.5561    492.69821    316.43618   -18.360218    36638.639 
  443600     298.7918   -1523.8856     485.7142    302.24423    503.57312    36638.639 
  443700    302.65811   -1527.6838    503.93774    334.01431    442.11617    36638.639 
  443800    294.62676   -1513.4492    493.09681    301.37831    525.88287    36638.639 
  443900    296.58099    -1566.848    485.54915    249.19886    284.69874    36638.639 
  444000    302.13154   -1523.2791     484.1629    316.28193    811.07582    36638.639 
  444100    310.09182   -1568.2762    485.81135    308.64396    1.0834398    36638.639 
  444200    308.90752   -1549.7503     480.1545    316.20011    98.665837    36638.639 
  444300    292.62899   -1559.1667    478.19273    231.79455   -564.49064    36638.639 
  444400    304.08994   -1556.0943    472.24974     280.3391     94.69646    36638.639 
  444500    312.76931   -1557.2837    464.22303    310.05969     106.9589    36638.639 
  444600    297.12087   -1559.1449    475.71499    249.48973   -160.03837    36638.639 
  444700    297.25504   -1509.2391    489.90598    314.18839    211.70469    36638.639 
  444800    298.72909   -1569.2922    486.11671    256.95879   -99.344408    36638.639 
  444900    303.02902   -1524.0458    509.42333    344.80181   -385.29126    36638.639 
  445000    297.86361   -1485.5456    478.34159    329.04765   -266.02018    36638.639 
  445100    299.08637   -1572.6602    465.02899    234.10585    214.29144    36638.639 
  445200    305.51709   -1536.7612    513.98271    347.80758    311.64722    36638.639 
  445300    287.80173   -1534.1202    464.22112    221.21382    291.98425    36638.639 
  445400    310.47456   -1532.4178    472.94335    333.35144    280.78911    36638.639 
  445500    306.88992   -1542.4457    479.18329    313.48234    446.91473    36638.639 
  445600    292.40183    -1529.257    471.59026    254.08266    376.00449    36638.639 
  445700    301.02702   -1546.3006    469.13137    273.27388      633.065    36638.639 
  445800    294.10283   -1541.0943     508.7264    287.01239   -208.22542    36638.639 
  445900    296.74183   -1533.3779    484.95306    282.79435    508.30507    36638.639 
  446000     300.7484   -1544.4639    502.76308     307.4923    1318.9777    36638.639 
  446100    302.01039   -1549.9217    511.30818    316.24107    742.63392    36638.639 
  446200    301.28572   -1530.8344    503.10549    323.87474    331.17689    36638.639 
  446300    299.12246   -1540.9514     481.7637    282.71131    260.77401    36638.639 
  446400    293.51655   -1533.8803    476.97885    259.84879    306.86293    36638.639 
  446500     298.2482   -1530.2138    475.25294    283.01605   -512.59178    36638.639 
  446600    315.76696   -1548.8488    500.44677    368.16616    221.11587    36638.639 
  446700    302.25651   -1569.0302    464.67249      251.601   -317.87784    36638.639 
  446800    305.84882   -1555.9333    466.21716    282.35806    116.82278    36638.639 
  446900    299.10645   -1509.3154    494.46665    326.97844    213.23139    36638.639 
  447000    300.64228   -1505.7631     518.1321    361.08608    250.38592    36638.639 
  447100     300.9378   -1524.3881     489.2371    314.89185   -349.74769    36638.639 
  447200    294.90221   -1549.2054    499.94473    273.70577     359.2498    36638.639 
  447300     296.2685   -1592.2104    462.52098    199.40631    343.81709    36638.639 
  447400     296.3791   -1578.1299    476.47518    227.93722     157.2073    36638.639 
  447500    301.72496   -1517.1026    478.81436    315.28589    613.78418    36638.639 
  447600    300.12699    -1561.396    460.31023    245.31969    131.01675    36638.639 
  447700    306.08263   -1544.9043    503.88593    332.10481    -598.2611    36638.639 
  447800    304.47482   -1554.8326    488.38029    299.45804   -426.87024    36638.639 
  447900    300.81845   -1573.9975    482.69194    258.20184   -187.21176    36638.639 
  448000    297.48073    -1569.792    510.31148    275.05344   -262.73406    36638.639 
  448100    304.74226   -1562.7648    456.54972    260.89498   -98.139055    36638.639 
  448200    299.57932    -1551.095    512.48542    305.33893    724.46712    36638.639 
  448300    308.05695   -1518.8669    492.05311    355.16645    511.07299    36638.639 
  448400    290.61647   -1516.9106    515.33638     302.1659    400.17092    36638.639 
  448500    305.93794   -1540.5205    489.86968    321.82321    404.07485    36638.639 
  448600     291.4372   -1540.6457    495.52371    262.29999     549.3902    36638.639 
  448700    300.26956   -1544.3273    494.75197    297.46967    344.33968    36638.639 
  448800    294.76425   -1562.1342     472.2574    232.47078   -452.91423    36638.639 
  448900    299.41555   -1547.6653    462.52131    258.06982      34.7164    36638.639 
  449000    300.09616   -1556.0447    494.24057    284.46295   -573.49298    36638.639 
  449100    296.21492   -1558.2105    493.94924    264.59414     67.19072    36638.639 
  449200    296.24219   -1573.6332    485.01602    240.36064    325.08423    36638.639 
  449300    294.50375   -1562.9889    483.97308    242.16307    92.353097    36638.639 
  449400    302.28812   -1541.5506    473.51245    288.06239    54.685822    36638.639 
  449500    297.64483   -1552.4295     479.9823     262.8229    119.81252    36638.639 
  449600    299.86727   -1527.3702    462.60513    280.47523    528.75156    36638.639 
  449700     307.8464   -1550.0909    481.80383    312.74853    750.58863    36638.639 
  449800    294.52248   -1511.8589    499.53938    308.94337    363.86288    36638.639 
  449900    298.81014   -1477.6096    469.59749    332.48579    824.74093    36638.639 
  450000    304.13734   -1536.9232    473.98393    301.45701    1284.2982    36638.639 
  450100    305.42598   -1529.4745    491.39509    332.09788    1136.0504    36638.639 
  450200    301.91712   -1512.4249    476.57269    318.58396    90.386798    36638.639 
  450300    300.59236   -1513.3899    474.49611    309.59936   -166.25033    36638.639 
  450400    299.34564   -1565.0585    505.41141    283.25311    189.32997    36638.639 
  450500    289.09393   -1567.1561    510.68677    240.44051    291.51706    36638.639 
  450600    304.92184   -1511.8388     470.0482    326.12511   -95.727628    36638.639 
  450700    322.04089   -1525.7147    485.21857    404.21766    237.97746    36638.639 
  450800    289.46111   -1523.8513    466.42299    241.12877   -142.32681    36638.639 
  450900    309.55546   -1524.9519    506.36733    370.11811    442.50404    36638.639 
  451000    292.99087   -1495.7472    462.90176    281.54653    739.45645    36638.639 
  451100    292.57753   -1505.6684    486.98816     293.8574    45.201913    36638.639 
  451200     300.7062   -1510.3901    463.16074    301.77448   -360.94941    36638.639 
  451300    308.19237   -1495.2439    501.58021    388.92395    157.43267    36638.639 
  451400     301.4619   -1465.8201    497.34523    383.91914   -303.59064    36638.639 
  451500     305.3245   -1479.5963    494.17284     384.2986   -135.04593    36638.639 
  451600      304.924   -1485.6734    507.12891    389.38091   -452.07035    36638.639 
  451700    301.17289   -1510.6287    475.62467    316.09346    265.46039    36638.639 
  451800    301.95969    -1527.813    498.54052    325.35462    330.64648    36638.639 
  451900    306.22359   -1547.1732    491.40137    317.98373    294.30353    36638.639 
  452000    301.96876   -1543.2404    479.83806    291.26545    210.94957    36638.639 
  452100    293.54265   -1539.9856    479.94231    256.82404    387.10358    36638.639 
  452200    301.86332   -1511.4475    504.41775     347.1651    561.06633    36638.639 
  452300    302.92515   -1503.2205     453.0452    308.78305    417.54318    36638.639 
  452400    300.88506   -1509.3123    490.44223    330.93617    28.134162    36638.639 
  452500    293.12556   -1503.3595    503.86995    315.50657   -111.98892    36638.639 
  452600    297.57207   -1509.3568    499.57697    325.16387    530.19616    36638.639 
  452700    296.90183   -1530.1738    479.84107    281.60423   -70.526972    36638.639 
  452800    295.33694   -1510.5808    507.55058    321.88652    246.60271    36638.639 
  452900    303.50078   -1493.4977    540.23952    408.28249   -135.36103    36638.639 
  453000    308.01282   -1526.0184    483.27749    339.04126    355.91269    36638.639 
  453100    312.80369   -1528.7685    526.21413    400.72028    85.931883    36638.639 
  453200    309.41591   -1568.9137    491.98251     311.1454    322.25344    36638.639 
  453300    290.13465   -1540.7907    490.74301    251.53095    161.71028    36638.639 
  453400    291.88978   -1520.5938    499.30132    288.15989   -325.95466    36638.639 
  453500    290.99774   -1521.1464    499.85534    284.15946   -561.15918    36638.639 
  453600    306.81217   -1551.5733    479.03158    303.85422   -354.70765    36638.639 
  453700    298.64937    -1528.299    491.79408    303.27171   -145.54029    36638.639 
  453800    295.76859   -1542.8413    498.83465    282.84645   -567.61482    36638.639 
  453900    293.36206   -1578.9356     492.7499    229.87145   -72.017841    36638.639 
  454000    292.94714   -1534.0408    479.58721    259.74221   -97.300223    36638.639 
  454100    311.94278   -1525.0433    492.22784    366.59699   -20.681339    36638.639 
  454200    311.93192   -1540.3237    502.27379    361.31383    203.68114    36638.639 
  454300    297.22964   -1537.7688    477.47163    273.11046    269.63451    36638.639 
  454400    286.10458   -1558.1078    501.72381    227.11522    57.978936    36638.639 
  454500    302.61883   -1552.0567    477.84195    283.36942    111.65207    36638.639 
  454600    303.79667   -1567.6995    478.82689    273.99544   -138.14274    36638.639 
  454700    311.63185   -1601.1344    511.24293    308.12611    397.41059    36638.639 
  454800    301.13027   -1587.4935    492.41924      255.832    140.53252    36638.639 
  454900    300.62896   -1543.8602    503.70607    308.50324    515.17623    36638.639 
  455000    309.91397   -1526.9886    512.91221    376.23457    42.857605    36638.639 
  455100    304.55389   -1538.6541    490.86625    318.47716   -688.58136    36638.639 
  455200    307.01353   -1549.6482    491.81366    319.46468   -486.08218    36638.639 
  455300    299.21852   -1515.1603     461.4234    288.59301   -600.23923    36638.639 
  455400    298.57739   -1522.7468    499.62767    316.33462   -660.77954    36638.639 
  455500    306.49144   -1537.4244     530.7407    368.27345   -139.93692    36638.639 
  455600    294.42723   -1533.1051    496.05111    283.78167    253.72066    36638.639 
  455700    295.05756   -1519.9537    513.02438    316.73404    53.694397    36638.639 
  455800    303.56153   -1555.9515    503.90309    309.76479   -225.43231    36638.639 
  455900    303.53979   -1507.4101    498.22777    352.53331    136.33544    36638.639 
  456000    300.03139   -1534.1371    494.09621    305.93571   -587.37482    36638.639 
  456100    296.52221   -1512.5739    503.34045    321.00052   -312.28895    36638.639 
  456200    288.74461   -1509.9933    492.62591    277.97533   -145.76264    36638.639 
  456300    300.24597   -1571.7469    494.15965    269.35188   -266.18665    36638.639 
  456400    311.61492    -1565.942    483.60706    315.60667    594.02983    36638.639 
  456500    299.50447   -1525.9054    495.84189    313.54924     638.9257    36638.639 
  456600    301.39984   -1565.2418    496.92201    283.79576    752.35797    36638.639 
  456700    299.11712   -1577.9919    492.48345    256.36663    482.63221    36638.639 
  456800    291.77068   -1569.1565    463.24728    203.00875   -15.862914    36638.639 
  456900    306.18459   -1558.6214    509.52091    324.48001    287.77412    36638.639 
  457000    293.76761    -1537.653    483.12818    263.35173     129.9059    36638.639 
  457100    314.40443    -1539.837    481.79051    352.40919    249.74582    36638.639 
  457200    297.22898   -1558.3511     489.6825    264.73599    425.02005    36638.639 
  457300    300.82775   -1531.8008    508.64308    326.39141    421.63624    36638.639 
  457400    303.77447    -1565.721    518.49133    315.53875    436.67542    36638.639 
  457500    293.07517   -1568.3887    480.71428     227.0957    662.05217    36638.639 
  457600     300.6527   -1559.1241    488.77653     278.4162   -76.062249    36638.639 
  457700    296.80125   -1526.7937    501.56004    306.25213    -207.9069    36638.639 
  457800    303.26007   -1568.8972    481.24642    272.81007    -362.5333    36638.639 
  457900      311.163   -1533.5665     504.3719    366.71972    488.05808    36638.639 
  458000    302.23126   -1528.8353    488.30731    315.31751   -368.59967    36638.639 
  458100    304.62781   -1550.5586    491.49687    307.53496   -223.51368    36638.639 
  458200    297.47135   -1594.0607    500.08121     240.5124   -217.62983    36638.639 
  458300    294.00409   -1605.8667    450.82996    163.90064   -77.117232    36638.639 
  458400     295.0975    -1544.954    502.47113    281.35969   -332.94835    36638.639 
  458500    299.63657   -1537.8327    511.92561    318.29824    146.88017    36638.639 
  458600    293.58223   -1528.8467    468.80966    257.00778   -263.81406    36638.639 
  458700    310.42244   -1554.1759    478.17122    316.58734   -386.47369    36638.639 
  458800     304.0376   -1576.8742    467.51527    254.58991    197.65759    36638.639 
  458900    304.47742   -1531.9675    474.08765    308.04212   -247.26558    36638.639 
  459000     298.0945   -1544.7186    491.06147    283.63027   -715.45237    36638.639 
  459100    299.36839   -1528.8503    483.07426    297.22621   -959.10549    36638.639 
  459200    305.48071    -1504.116    469.90247    336.20927   -303.93704    36638.639 
  459300    298.41174   -1506.6175    500.33354    332.42665   -823.44656    36638.639 
  459400    308.42774   -1537.8721    457.02447    302.79599   -259.72681    36638.639 
  459500    308.66031   -1521.7832    493.83911    356.74278   -94.515904    36638.639 
  459600    290.83248   -1519.4398     479.9901    265.25946   -395.89302    36638.639 
  459700    297.41585   -1504.0593    511.80518    341.98879   -449.19271    36638.639 
  459800     307.2209   -1547.4333    479.54574    310.34205    -169.9752    36638.639 
  459900    298.77429    -1544.433    469.49536    265.39944   -363.40636    36638.639 
  460000    303.53355   -1534.4466     477.0855    304.32652    130.63689    36638.639 
  460100    300.07874   -1521.1641    493.63098     318.6559   -245.87479    36638.639 
  460200    305.05461   -1538.6826    498.95191    328.78057    256.49264    36638.639 
  460300    302.70513   -1532.8915    488.77306    313.85278     21.67372    36638.639 
  460400    302.84531   -1513.7705    503.40449    348.23416   -285.94118    36638.639 
  460500    311.90063   -1500.1422    483.57221    382.65338   -360.77751    36638.639 
  460600    304.95795   -1510.7789    499.67803    356.97684   -371.92311    36638.639 
  460700    294.88267    -1525.144      458.363    256.09782   -177.48957    36638.639 
  460800    310.02859   -1508.0023    508.04564    390.86856    295.00582    36638.639 
  460900    306.17251   -1541.1312      474.621    307.01618   -393.60829    36638.639 
  461000    297.49191   -1524.9638     481.6745    291.29489   -236.52676    36638.639 
  461100    303.24823    -1507.258    466.22482    319.37449   -913.48356    36638.639 
  461200     309.3747   -1514.5602    498.45836    371.78986    -17.49222    36638.639 
  461300    308.13761   -1518.5183    506.65729    370.48104   -455.29524    36638.639 
  461400    306.68585   -1514.5521    482.72899    344.00609   -74.382521    36638.639 
  461500    315.28994   -1500.0687     486.0082    400.36775    113.97742    36638.639 
  461600    306.73274   -1511.8053    483.81098    348.04528    -544.6429    36638.639 
  461700    309.70846   -1482.9611    495.83717    402.26515    122.61763    36638.639 
  461800    310.39926   -1478.0672    497.82119    412.24207    666.23438    36638.639 
  461900    292.64499   -1515.2037    471.79011    269.42676  -0.64685373    36638.639 
  462000     297.1792   -1511.6051    488.27335    309.84959     136.7621    36638.639 
  462100    297.14447   -1520.0697    485.57205    298.52783    307.57487    36638.639 
  462200    302.49153   -1536.9214    498.33216    318.42382    433.35766    36638.639 
  462300     294.0591   -1525.6429    464.03257    257.57378    200.02903    36638.639 
  462400    296.99791   -1554.3887    480.85409    258.83335   -521.89861    36638.639 
  462500    305.90391   -1523.6905    473.40573    322.03656    320.35398    36638.639 
  462600    299.16294   -1563.6099    492.54267    271.01333    125.21148    36638.639 
  462700    297.68314    -1561.388    476.27666    250.33065   -630.20251    36638.639 
  462800    294.23487   -1554.6128    473.80557     239.1654   -211.74327    36638.639 
  462900    304.00588   -1567.8988     482.8335    278.74131   -823.14724    36638.639 
  463000    295.62382    -1570.182    463.99134    220.01304   -500.37485    36638.639 
  463100    308.32881   -1565.2488    478.34644    296.29741   -117.08713    36638.639 
  463200    297.37769    -1564.652    470.40082     239.8205    41.153448    36638.639 
  463300    296.64952   -1516.5073    518.41463    332.71243    222.31535    36638.639 
  463400    298.01175   -1498.9029    478.32453    316.33785    396.48117    36638.639 
  463500    306.01456   -1499.5714    484.13132     357.3777   -530.71803    36638.639 
  463600     305.2431   -1546.7865    477.02549    299.59588   -551.25932    36638.639 
  463700    303.17477   -1535.2478      463.515    288.34532   -170.02707    36638.639 
  463800    296.41683   -1535.9718    487.36342    281.15281    -346.4036    36638.639 
  463900    309.20606   -1533.1771    475.99372    329.95185    82.461928    36638.639 
  464000    297.10534   -1524.4903    477.53103    285.89063   -434.08515    36638.639 
  464100    303.42331   -1573.2269    498.13415     286.1004   -379.83723    36638.639 
  464200    288.82914   -1529.5388    455.27086      221.454    -459.1659    36638.639 
  464300    303.64917    -1518.842    522.71357    366.07787    253.86906    36638.639 
  464400    294.36966   -1534.6417    470.21389    256.14956   -264.02583    36638.639 
  464500    308.14564   -1496.0732    501.00383    387.30866    397.98634    36638.639 
  464600    299.77774   -1518.4164    485.56255    311.98479    -173.9361    36638.639 
  464700    296.59384   -1488.7504    470.91698    312.72189    134.29146    36638.639 
  464800    303.83438   -1547.9002    469.88851    285.02554    156.36604    36638.639 
  464900    306.62142   -1531.7133     472.6579    316.48481    402.44959    36638.639 
  465000     296.5868   -1525.6896    459.49387    264.32797   -124.39974    36638.639 
  465100    293.36624   -1492.9047    501.31452    324.48576    59.042828    36638.639 
  465200    298.91344   -1524.7465     461.1901    277.40487   -160.19143    36638.639 
  465300    299.31083   -1509.7694    504.67563     337.6503   -434.28361    36638.639 
  465400    294.97764   -1533.1076    476.93556    267.13283    191.20815    36638.639 
  465500    300.19292   -1547.2787    465.11392    264.53647    -69.16358    36638.639 
  465600    302.34713    -1541.662    462.95944    277.66262    196.37785    36638.639 
  465700    299.18438   -1487.1058    485.29621    340.36714   -64.133431    36638.639 
  465800    300.24607   -1505.0035    482.88969    324.82587    225.58813    36638.639 
  465900     295.2889   -1564.4731    487.11341    247.34148     77.99485    36638.639 
  466000    296.47019   -1498.3103    453.36687    285.05715    134.31887    36638.639 
  466100    305.39887   -1472.7233    497.41723    394.74964    357.67141    36638.639 
  466200    301.72045   -1482.4818    475.13291    346.20492    346.66877    36638.639 
  466300     304.5299   -1500.8951    467.33409    332.59638      519.298    36638.639 
  466400    297.69611   -1526.9188    501.10162    309.68304   -62.035457    36638.639 
  466500    299.23469    -1527.233    472.43077     287.6002   -137.06443    36638.639 
  466600    302.37856        -1498    482.70016    341.20641    230.40769    36638.639 
  466700    298.70126   -1491.9168    479.69943    327.79203   -589.83967    36638.639 
  466800    303.25022   -1506.7688    466.13174     319.7796   -485.73644    36638.639 
  466900    287.42724   -1548.3328    461.96099    203.06099   -536.81538    36638.639 
  467000    298.35847   -1508.2007     485.1741    315.44501   -359.62555    36638.639 
  467100    304.05207   -1486.9565    484.94849     362.0058   -526.54052    36638.639 
  467200    294.30071   -1502.0719    482.88547    301.08163   -763.99845    36638.639 
  467300    305.09049   -1537.8705    477.45882    308.26065    -414.2123    36638.639 
  467400    298.31931   -1514.3399    456.79648    280.75255    -831.8721    36638.639 
  467500    309.05759   -1509.1232     474.8034    352.14936   -181.35506    36638.639 
  467600    287.61009   -1523.3903     486.9374    253.80016   -184.29957    36638.639 
  467700    306.02728    -1525.641    487.64055    334.87435    211.65763    36638.639 
  467800    296.13198   -1500.3442    481.99395    310.13309    501.14508    36638.639 
  467900    297.61116   -1549.9871    483.73498    268.86696   -243.42683    36638.639 
  468000     295.0075   -1526.1397    475.63779    272.93688    48.908206    36638.639 
  468100    299.67843   -1563.4787    468.85417    249.76855   -529.40958    36638.639 
  468200    298.74939   -1562.0945    476.53871    254.66951    319.91611    36638.639 
  468300    305.93937   -1566.7122    465.13928    270.90754    -214.7661    36638.639 
  468400    296.91257   -1514.0759    484.83912    302.74837       225.71    36638.639 
  468500     299.0157   -1567.3574    495.03197    269.09465   -49.585579    36638.639 
  468600    303.79634   -1514.3614    475.17966    323.68487    247.33267    36638.639 
  468700    293.57003   -1527.0748    488.95469    278.87005   -349.28141    36638.639 
  468800     305.5979   -1543.5806    454.18442    281.55246   -1184.1137    36638.639 
  468900    296.68468   -1526.5991    480.71678    285.08048   -474.68168    36638.639 
  469000    311.71461   -1550.2036    457.05498    305.24025    -197.9284    36638.639 
  469100     304.1124   -1560.0699    493.78003    297.99459    62.289699    36638.639 
  469200    296.64092     -1570.21    483.81957    244.37614   -442.87294    36638.639 
  469300    302.77085   -1584.1203    457.17189     231.3177    223.64734    36638.639 
  469400      305.496   -1571.2841    489.27626    288.48362    142.56374    36638.639 
  469500    295.75901   -1596.9076      473.122    203.02457    545.50818    36638.639 
  469600    294.93664   -1548.8836    460.90844    235.14568    726.63153    36638.639 
  469700    307.57129   -1549.9221    467.50673    297.38604   -193.81135    36638.639 
  469800    311.72184   -1491.7394    490.15151     396.8334     -881.196    36638.639 
  469900    308.39606   -1547.1789    477.16535    313.48789   -613.41643    36638.639 
  470000    305.70388   -1570.6819    464.23787    264.97999   -169.94319    36638.639 
  470100    287.64379   -1547.6543    492.25865    235.00862   -207.74141    36638.639 
  470200    293.04827    -1534.099    470.28759    250.83805   -296.15292    36638.639 
  470300    293.49442   -1540.9325    500.29034    276.00873    30.596575    36638.639 
  470400    303.99146     -1522.71    493.86793    334.89977    74.923524    36638.639 
  470500    310.73951   -1540.2666     471.4806    325.22852   -398.53549    36638.639 
  470600    290.25221     -1487.54    495.26141     309.8274   -513.31679    36638.639 
  470700    304.03683   -1495.0107    479.07695    348.01175   -540.68805    36638.639 
  470800    296.36669   -1506.7305    510.39122    333.19696    -817.6824    36638.639 
  470900    312.19095   -1486.6639    463.78974    377.65161      129.469    36638.639 
  471000     297.4861   -1509.5712    485.98653    310.97338    95.027986    36638.639 
  471100     293.7114   -1524.8664    501.16387     293.9218   -204.46765    36638.639 
  471200    306.14554   -1558.3332    495.04723    310.11933   -62.627622    36638.639 
  471300    303.49989   -1543.5252    471.80892    289.82037   -248.75013    36638.639 
  471400    304.04802   -1547.0996    477.87395    294.77003    372.90684    36638.639 
  471500    300.40781    -1532.883    499.41132    314.19349    451.33686    36638.639 
  471600    291.49257   -1566.8244    495.32876    236.17475    52.326974    36638.639 
  471700    297.09697   -1547.2759    452.53067    238.06718     704.9682    36638.639 
  471800    297.62815   -1542.4655    478.76317    271.49298    381.71727    36638.639 
  471900    303.75613   -1474.5863    480.35028    368.45018    111.71375    36638.639 
  472000    308.98529    -1510.635    496.05211    371.56195   -503.64751    36638.639 
  472100    299.72156   -1561.3854    488.45159    271.65283   -1122.3442    36638.639 
  472200    298.30735    -1480.543    491.01396    348.71323    -644.8926    36638.639 
  472300    303.16845   -1531.3738    477.03287    305.70878   -104.54443    36638.639 
  472400    296.00096    -1521.547    486.39504    292.74359   -176.09323    36638.639 
  472500    305.08188     -1518.36    475.72408    325.99768   -74.609565    36638.639 
  472600    298.49399   -1559.5421    498.81884    278.35628    467.01751    36638.639 
  472700    294.41594   -1526.6669    472.49872    266.61686    488.90647    36638.639 
  472800    304.70015   -1496.9283    503.24222    373.23511   -191.22432    36638.639 
  472900    309.36096   -1568.4356    466.04924    285.44375    298.52414    36638.639 
  473000    302.11628   -1567.5329    447.05481    234.85152   -114.75987    36638.639 
  473100    308.98027   -1534.5894    464.85133    316.38418   -421.67922    36638.639 
  473200    294.92727   -1526.8377    476.20974    272.45087    263.53337    36638.639 
  473300    307.10217   -1551.3387    482.20521    308.56343   -58.325917    36638.639 
  473400     293.9893   -1542.6037    462.97491    239.24222    192.72373    36638.639 
  473500    306.99433    -1532.475    463.12796    307.86613    277.04067    36638.639 
  473600    293.73612   -1524.6662    490.04789    283.11687    728.25996    36638.639 
  473700    303.82221   -1546.9303    468.38971    284.44205    30.214522    36638.639 
  473800    300.63985   -1525.2319    465.72716    289.20144     639.7219    36638.639 
  473900    299.42168   -1538.4893    494.55093    299.30292    236.26617    36638.639 
  474000    314.15408   -1513.8508    506.70706    402.18886   -171.93722    36638.639 
  474100    299.44265   -1527.8217     466.1575    281.67125    7.2764548    36638.639 
  474200    293.32745   -1508.1454    448.46537    256.22178   -161.96347    36638.639 
  474300    308.41917   -1532.7548    491.34696    342.19731   -226.57168    36638.639 
  474400    303.98789   -1554.3897    464.41308    273.74927    416.04666    36638.639 
  474500    296.36464   -1567.7725    465.43176    227.18633    68.346756    36638.639 
  474600    309.79992   -1544.9598    461.28866     306.1282    387.14626    36638.639 
  474700    309.71035   -1563.1963    516.76731    342.96855    659.77586    36638.639 
  474800    296.29724   -1537.0045    496.29333    288.51358    455.62178    36638.639 
  474900    298.50405   -1539.5265    486.42384    286.02209    609.16742    36638.639 
  475000    298.29259   -1538.4184    474.54606    274.30376     522.0507    36638.639 
  475100    296.18766   -1527.5668    495.81295    296.97925    530.88353    36638.639 
  475200    304.73934   -1565.3938    467.56278    269.26598   -34.852249    36638.639 
  475300     304.4866   -1502.2753    497.52707      361.215    392.10661    36638.639 
  475400    292.94456   -1535.2591     494.6337    273.55879     497.8781    36638.639 
  475500    303.95075   -1542.4186    498.98506    320.12575    444.79856    36638.639 
  475600      302.228   -1583.5664    484.59809    256.86254   -54.010296    36638.639 
  475700    284.32102   -1517.3227    497.75462    255.92989   -293.32253    36638.639 
  475800    295.68618    -1544.261      497.432    279.65444   -95.042402    36638.639 
  475900    300.47548   -1540.4289    472.63845    280.17833    300.62252    36638.639 
  476000    305.74025   -1575.0498    462.65904    259.19647   -481.23098    36638.639 
  476100    308.72888   -1516.9232    503.20269    371.27405   -19.098536    36638.639 
  476200     302.5482   -1539.7956    480.38865    297.86037   -527.84737    36638.639 
  476300    301.95211   -1540.4773    480.17879     294.2946   -117.60379    36638.639 
  476400    299.64516   -1558.3845    490.75217    276.61154   -83.144789    36638.639 
  476500    312.76136   -1540.7021    475.41367    337.79631   -244.94195    36638.639 
  476600    299.95464   -1522.5579    472.49841    295.57277   -130.54051    36638.639 
  476700    298.10134   -1509.8237     475.4711    302.96552   -686.13119    36638.639 
  476800    305.59627   -1503.0951    477.10607    344.95225   -417.91701    36638.639 
  476900    312.45396   -1525.0479    491.73489    368.39264   -216.43541    36638.639 
  477000    310.85543   -1551.3069    477.42251    320.65007   -155.55466    36638.639 
  477100    300.60711   -1588.6439    477.69545     237.6109    348.16564    36638.639 
  477200    301.99901   -1550.2852    498.53123    303.04954    478.88659    36638.639 
  477300    302.91852   -1566.0035    465.42478    258.34983    275.32612    36638.639 
  477400    307.83727    -1587.094    475.02757    268.92822     342.6264    36638.639 
  477500    311.00822   -1572.8854    489.02426    311.35876    127.44379    36638.639 
  477600    308.24721   -1601.8369    466.42776    247.42459    537.51035    36638.639 
  477700    298.84219   -1585.9427    456.27377    210.97277     522.1404    36638.639 
  477800    287.59574   -1622.3657    477.49722    145.32031    117.76852    36638.639 
  477900    299.56567   -1576.4977    488.84071    256.23031   -174.00895    36638.639 
  478000    298.36296   -1552.1943    482.91847    269.21598   -994.12552    36638.639 
  478100    290.23207   -1570.3671    481.63225    213.28076   -440.12485    36638.639 
  478200    308.65019   -1556.0952    473.73341    302.27967     142.2079    36638.639 
  478300    291.96478   -1542.5222    488.66125    255.92781    123.73316    36638.639 
  478400    310.13476   -1552.6397     492.4602    331.12196    35.022815    36638.639 
  478500    305.83069   -1580.1074    474.20591    266.09137    -97.14683    36638.639 
  478600    299.82166   -1574.4102    493.17678    263.80227    59.887192    36638.639 
  478700    290.03559    -1574.079    486.31607    213.37132   -115.69052    36638.639 
  478800    308.49272   -1557.7908    478.74677    304.89105    147.50866    36638.639 
  478900    315.08311   -1570.6113    472.85809    315.74712    168.13443    36638.639 
  479000    296.31441   -1525.3839    466.11902     270.0369   -546.13815    36638.639 
  479100    298.08269    -1546.712    508.33672    298.85917   -304.93177    36638.639 
  479200    297.58529   -1567.5492    468.69675    236.15058   -438.87198    36638.639 
  479300    301.86449     -1560.21    505.49367    299.48378   -214.02405    36638.639 
  479400     304.8296   -1576.7696    459.68163    250.41394     -298.866    36638.639 
  479500    297.43629   -1577.3183    489.67292    246.68925   -304.08852    36638.639 
  479600    312.30485   -1566.4265    494.02747    328.63776    395.03136    36638.639 
  479700    302.23311   -1576.8443    483.58841     262.5979    56.191292    36638.639 
  479800    302.02252    -1557.659    492.63409    289.88403   -172.79436    36638.639 
  479900    302.42245   -1566.5679      476.214    266.34927    45.016322    36638.639 
  480000    302.41094   -1556.7677    478.86923    278.75307    559.54631    36638.639 
  480100    300.40547   -1588.2945    503.11128     262.4715     211.2632    36638.639 
  480200    296.73737   -1581.9113    446.14086    195.42872    190.55258    36638.639 
  480300    306.84273   -1590.0145    502.31477    288.83327    227.77641    36638.639 
  480400    303.27842   -1552.9138    477.67902    285.30837   -267.10741    36638.639 
  480500    306.35548   -1604.7254    477.37832    247.00007    218.84945    36638.639 
  480600    299.45396    -1580.681    476.28324    238.98833    182.18198    36638.639 
  480700    309.93849   -1586.1764    476.60785    280.85237   -34.909661    36638.639 
  480800    294.05485   -1559.0891    458.24735    218.32339   -251.01739    36638.639 
  480900    292.06675   -1564.9384    475.29143    220.59922    -389.2558    36638.639 
  481000    302.20401   -1572.1059    504.86842    288.48576   -187.06761    36638.639 
  481100    292.58405   -1556.6915    482.11177    237.98722    504.05673    36638.639 
  481200    310.55338   -1538.5082    483.19243    337.86372    346.07628    36638.639 
  481300    293.00569   -1528.9708    459.62726    245.11493    42.690158    36638.639 
  481400     299.1855   -1628.0112    495.97539    210.14597    443.06031    36638.639 
  481500    289.13813   -1637.7323     498.2722    157.64802    921.84409    36638.639 
  481600    293.68318    -1642.657    506.43023    181.27093    335.51604    36638.639 
  481700    299.63662   -1601.7204    490.03166    232.51683    564.70293    36638.639 
  481800    299.14114   -1613.0955    464.96646    193.85376     324.0444    36638.639 
  481900    295.17835   -1596.7696    494.87505    222.31074   -21.539832    36638.639 
  482000    301.46308   -1588.5873    461.91369    225.72563    -435.3979    36638.639 
  482100    302.95685   -1619.6789    457.94009    197.36169   -362.34367    36638.639 
  482200    308.30644    -1608.834    484.83068     259.0961   -274.31804    36638.639 
  482300    290.40374    -1631.068    498.79832    170.51607    60.492887    36638.639 
  482400    296.74265   -1649.1401    463.58319    145.66595   -245.98442    36638.639 
  482500    299.09976   -1604.2373    461.50021     199.0601   -426.52148    36638.639 
  482600    301.47602   -1594.4155    457.13934    215.18116   -6.9926663    36638.639 
  482700    298.26526   -1570.2089    472.50364    240.34816    641.69314    36638.639 
  482800    298.36451   -1597.3509    486.74352    227.89141    356.67927    36638.639 
  482900    299.52948    -1567.214    473.32142    249.83235    376.72046    36638.639 
  483000    292.75378   -1583.3921    489.07913    219.01541   -163.22491    36638.639 
  483100    304.00371   -1591.6397    485.73188    257.88902    182.22753    36638.639 
  483200    294.48484   -1610.9282    485.82363    195.98952   -372.32156    36638.639 
  483300     296.8872   -1608.8065    480.67244    203.73734    104.94492    36638.639 
  483400     306.9667   -1584.9076    473.58429     265.7659     30.92261    36638.639 
  483500    300.45428   -1527.8816    488.97297    308.96504   -53.844667    36638.639 
  483600    312.77527   -1565.6625    493.87767    331.36233   -166.95659    36638.639 
  483700    302.95835   -1580.6033    487.88054    266.38452    207.08407    36638.639 
  483800    295.37387    -1522.445    476.23623     278.8736    190.88422    36638.639 
  483900    288.85143   -1538.8118    479.00375     236.0139    59.298904    36638.639 
  484000    290.05193   -1569.1054    483.45381    215.55589   -331.93273    36638.639 
  484100    310.18739   -1554.4168    487.03663    324.15742   -142.65699    36638.639 
  484200    306.82897   -1564.4916    495.76863    307.74836    236.97689    36638.639 
  484300    294.89876   -1533.9519    486.60857    275.60765   -154.27535    36638.639 
  484400    297.55711   -1540.4093    479.64254    274.10995   -296.67346    36638.639 
  484500    302.43436   -1560.0244    482.40844    279.14066   -615.59311    36638.639 
  484600    301.47297   -1583.1325    466.06799    235.37919   -818.83876    36638.639 
  484700    298.56601   -1618.8026    485.15411    205.75418   -734.22351    36638.639 
  484800    291.59104    -1615.326    464.28143    157.06756    -362.5629    36638.639 
  484900    304.02606   -1592.8181    485.72839    256.80741    303.72671    36638.639 
  485000    285.91596   -1592.6648    484.19666    174.18497    49.132167    36638.639 
  485100    304.49867    -1636.883    486.59416    215.72845   -15.636179    36638.639 
  485200    298.46308   -1590.6455    462.06215    210.35759    310.83958    36638.639 
  485300    295.65785    -1588.278    504.70835    242.78668     180.9723    36638.639 
  485400    286.69484   -1619.2282    473.60057    140.51958     616.8757    36638.639 
  485500    302.25976   -1614.8991    482.61764    223.69188    38.328608    36638.639 
  485600    296.90896   -1608.6828     491.1702    214.45636    208.94521    36638.639 
  485700    304.49528     -1610.32    477.75358    233.43566    523.76226    36638.639 
  485800    293.26011   -1620.7302    462.78436    157.65394    441.64584    36638.639 
  485900    300.58395   -1628.2711    476.12016    196.30445    746.49302    36638.639 
  486000    306.64024   -1643.4966     501.6958    233.82387    618.02569    36638.639 
  486100    306.58374   -1621.4788    465.22094    219.11327    7.0063087    36638.639 
  486200    292.55285   -1620.0318    469.91447     162.3096    -119.1662    36638.639 
  486300    305.38029   -1578.9486    483.68392    274.70765    553.21335    36638.639 
  486400    303.99796     -1591.85    462.66293    234.58395    233.87043    36638.639 
  486500    300.52318   -1610.6758    494.88078    232.38777    152.45319    36638.639 
  486600     291.8125   -1607.0916    472.08427    174.09833   -85.428912    36638.639 
  486700     308.3102   -1593.7559    493.13638    282.49677   -84.411628    36638.639 
  486800    300.58925   -1557.0538    471.81888    263.24423   -470.51693    36638.639 
  486900    288.39557   -1584.0585    472.18662    181.90495   -1076.3439    36638.639 
  487000     305.3554   -1579.5222    508.67159    299.01015   -79.858161    36638.639 
  487100    291.79934   -1543.4984    502.63488    268.18311   -506.74754    36638.639 
  487200    288.08548   -1576.6136    505.77346    221.54567   -454.84473    36638.639 
  487300    299.08658    -1540.472    513.53867    314.80466    -351.7996    36638.639 
  487400    300.18664   -1547.1759    495.26326     294.7604   -599.37725    36638.639 
  487500    300.91151   -1603.0323    464.19328    211.08584   -670.59304    36638.639 
  487600    305.01955   -1588.0449    437.36665    217.67584   -709.94502    36638.639 
  487700    304.41064   -1610.6316    461.67609    216.66688   -689.21711    36638.639 
  487800    310.40708   -1573.8751    477.92974    296.57774   -200.17051    36638.639 
  487900    297.05459   -1563.7085    495.52961    264.44333   -622.62298    36638.639 
  488000    306.25638   -1565.0794     469.3257    278.14895   -565.85428    36638.639 
  488100    303.90412   -1535.2583    509.98847    338.08029   -232.12123    36638.639 
  488200    294.98297   -1593.6846    478.36377    208.00788   -397.39522    36638.639 
  488300    301.02842   -1573.3778    490.68701    267.75854     51.45518    36638.639 
  488400    306.24901   -1580.1993    497.49804    291.16834   -571.93896    36638.639 
  488500    308.54381    -1631.564    487.64316    240.24347   -428.02538    36638.639 
  488600     298.6453   -1614.1818    485.28855    210.86517   -710.35349    36638.639 
  488700    315.84181   -1588.2698    479.96861    308.60282   -1024.0931    36638.639 
  488800    294.27724   -1546.6836    489.44735    262.92649   -841.97386    36638.639 
  488900    302.02704    -1588.888    484.27851    250.31979   -701.44932    36638.639 
  489000    298.63995   -1580.8874    496.50499    255.35203   -328.58707    36638.639 
  489100    303.52445   -1564.2444    496.65727    294.05968   -55.211313    36638.639 
  489200     302.6517   -1556.3451    493.77274    295.15928    4.5742201    36638.639 
  489300    301.53377   -1559.1753    518.32462    311.86571   -359.32782    36638.639 
  489400    306.18668     -1605.26    480.63338    248.96329   -103.25794    36638.639 
  489500    287.18261   -1614.7498    483.20512    156.79066    268.69233    36638.639 
  489600    293.96154   -1617.7127     481.5353    182.56913    147.65919    36638.639 
  489700    308.58396   -1618.2733    503.96826    270.03943   -164.36085    36638.639 
  489800    301.79186   -1646.4893     476.4057    183.79067    492.71498    36638.639 
  489900    298.47895   -1614.0844     498.0232    222.95091   -275.39286    36638.639 
  490000    295.14814   -1592.8347    487.21073    218.44574   -126.60155    36638.639 
  490100    308.09684   -1569.8479    483.60371      295.915   -51.927109    36638.639 
  490200    302.75035    -1550.724     482.0857    289.53588    165.05694    36638.639 
  490300     303.1785   -1595.9728     480.8352    244.95732     86.00061    36638.639 
  490400    298.72775    -1575.992    468.48297    232.61925    -358.0494    36638.639 
  490500    298.66723    -1570.384    495.91229    265.38513    -448.1443    36638.639 
  490600    298.82708   -1532.3559    482.87186     291.0898    63.123039    36638.639 
  490700    293.62535   -1556.5798    466.17314    226.83163    17.481275    36638.639 
  490800    301.80755   -1572.8196    483.46311    264.58816    435.55996    36638.639 
  490900    294.36324   -1590.9392    486.17755    215.78689   -122.43039    36638.639 
  491000    294.18587   -1578.0964    471.35551    213.01198   -111.69235    36638.639 
  491100     305.8945   -1571.3406    474.37328    275.31182   -564.01207    36638.639 
  491200    306.55229   -1523.7366     458.2796    309.77316     -778.616    36638.639 
  491300    303.26129   -1561.8891    491.62377    290.20095   -288.12677    36638.639 
  491400    298.74387   -1558.8089    483.28774    264.67944   0.92499572    36638.639 
  491500    296.59913   -1567.2978    479.75523     243.0364    7.1836793    36638.639 
  491600    304.80455   -1518.5015    486.99424    335.88222   -248.65593    36638.639 
  491700    301.57268   -1527.7279    501.08791    326.25099     -444.233    36638.639 
  491800    293.79177   -1552.8735    495.38708    260.49846    -197.9112    36638.639 
  491900     302.4867   -1512.1408    507.79033    352.64091   -777.89363    36638.639 
  492000    301.97072   -1504.3704    487.22279    337.52906   -680.44896    36638.639 
  492100    290.86509   -1525.7687    462.71377    241.80047   -667.00736    36638.639 
  492200    307.56235    -1558.266    495.30829    316.80366   -696.01695    36638.639 
  492300    305.40936   -1574.5036    490.99211    286.59128   -30.788735    36638.639 
  492400    295.07274   -1568.5335    470.93862    226.13658    183.79822    36638.639 
  492500    301.56386   -1505.6192     494.3719    341.60414    315.42105    36638.639 
  492600    294.62929   -1506.4425    503.99801    319.29758   -256.31848    36638.639 
  492700    300.65057   -1531.0154    497.59738    315.33621   -351.47107    36638.639 
  492800    292.81767   -1557.7316    481.24572     237.1291   -322.66527    36638.639 
  492900    300.32919   -1531.2489    484.47548    300.53913   -36.816767    36638.639 
  493000    293.05369   -1539.0234     503.9169    279.56727    353.21097    36638.639 
  493100    295.90328   -1511.1807    495.72717    312.00381   -77.253633    36638.639 
  493200     288.9974   -1509.6929    496.88923    283.67309     368.1367    36638.639 
  493300    304.49124   -1568.1878    505.22732    303.02351    585.91448    36638.639 
  493400    303.66201   -1546.0629    480.35752    296.55855   -9.3086768    36638.639 
  493500    292.28598   -1508.0563    487.72227    290.89572   -291.01635    36638.639 
  493600    293.25507   -1538.6016    498.55445    275.53001    331.11922    36638.639 
  493700    305.71304   -1564.5344    488.38239    295.31311    168.05325    36638.639 
  493800    293.80361   -1541.2778    481.82226    258.58244    445.49076    36638.639 
  493900    300.92386   -1556.2601     497.5806    291.30076    337.57591    36638.639 
  494000     294.6092    -1524.777    494.32111     291.1961    183.92328    36638.639 
  494100    293.72172    -1528.007    490.74945    280.41309    -181.7232    36638.639 
  494200    303.46581    -1523.073    512.08571    350.39647    138.32136    36638.639 
  494300    287.10536   -1527.6157    473.67393    234.04708   -828.29683    36638.639 
  494400    288.85349   -1527.1082    481.92159    250.64451    -855.0688    36638.639 
  494500    297.46968   -1540.2718    491.04652     285.2591   -528.11787    36638.639 
  494600    301.46431   -1515.2283    464.65389    301.83037   -396.04561    36638.639 
  494700    302.08952   -1521.0661    498.61928    332.76279    109.79277    36638.639 
  494800    296.32507   -1554.7425    468.58516     243.1922   -257.89548    36638.639 
  494900    290.85672   -1556.9533    508.31454    256.17918   -30.396705    36638.639 
  495000    304.21426   -1568.8063    519.76867    315.70379   -24.659349    36638.639 
  495100    298.50658   -1559.3174    474.77793    254.59662   -206.03332    36638.639 
  495200    304.33302   -1498.9729    498.64839    364.94972    388.77733    36638.639 
  495300      295.683   -1523.1733    497.72266     301.0185    184.70237    36638.639 
  495400    301.46903   -1534.2429    481.52462    299.70769   -77.543614    36638.639 
  495500    305.61173   -1557.3917    479.47193    293.09083    -736.5292    36638.639 
  495600    286.38576   -1566.5208    480.93241    199.17222   -792.02926    36638.639 
  495700    298.15738   -1616.3614      479.934    201.14213   -107.31448    36638.639 
  495800    305.15204   -1615.3807    481.85578    235.42349    300.02311    36638.639 
  495900    299.26143   -1593.9787    475.57221    224.11597    398.88892    36638.639 
  496000    306.19996   -1548.6317    502.16956    327.18731    418.31457    36638.639 
  496100    309.81581    -1569.772    467.02246    287.12109    253.85442    36638.639 
  496200    302.85057   -1612.1735    476.48618    222.93639    501.26818    36638.639 
  496300     302.3098   -1562.8543    480.59659    273.94009    201.73925    36638.639 
  496400    299.39808   -1500.5845    479.19439    321.74534    255.18033    36638.639 
  496500    291.13317   -1534.6788    500.25449    271.63375    9.7096313    36638.639 
  496600    301.71044   -1525.3492     484.2993    312.45909    3.5856656    36638.639 
  496700    312.48612   -1549.6804    460.46585    312.63535    472.86925    36638.639 
  496800    299.66178   -1597.0667    466.79722    214.04901    874.54879    36638.639 
  496900    295.81611   -1534.8472    499.23253    291.45168    1180.3169    36638.639 
  497000    292.17773   -1574.8295    479.09171    215.00629    416.04462    36638.639 
  497100    294.16347   -1525.6802    497.21517    291.18738    340.89715    36638.639 
  497200    285.00948   -1536.0423    463.44354    205.98771    400.26196    36638.639 
  497300    291.84671   -1548.0335    466.67428    227.89987    265.09238    36638.639 
  497400     306.7674   -1502.6913    474.10621    347.60999    230.95451    36638.639 
  497500    307.54166   -1507.1013    498.40086    370.96806    619.97253    36638.639 
  497600    308.28074   -1538.5041    475.85981    320.33986    300.16335    36638.639 
  497700    292.59141   -1514.8046    496.74349    294.53879    166.08643    36638.639 
  497800    299.95646   -1541.6696    470.65836    274.62915    667.05552    36638.639 
  497900    308.64359    -1482.264    484.32814    386.67602   -214.47833    36638.639 
  498000    304.02979   -1477.2505    480.84949     367.5128   -75.206986    36638.639 
  498100    300.57014   -1484.3427      481.301    345.35178    624.87097    36638.639 
  498200    309.10115   -1531.7549    480.66129    335.57095   -3.3486886    36638.639 
  498300    296.87801   -1495.8788    476.60938    312.56071    687.25362    36638.639 
  498400     291.7971   -1533.1943    485.76564    261.60789    190.17896    36638.639 
  498500    293.61645   -1521.0063    478.24359    274.43572    334.79807    36638.639 
  498600    295.36546   -1521.5235    486.33703    289.85816    -110.7723    36638.639 
  498700    305.60057   -1512.4062    483.06492    341.61927   -90.459273    36638.639 
  498800     301.4878   -1505.8216    491.42544    338.11399   -284.06805    36638.639 
  498900    298.72126    -1536.908    475.24442    278.43559    77.256777    36638.639 
  499000    313.55695   -1507.6086    476.90995    375.95521   -383.95679    36638.639 
  499100    303.03969   -1541.9301    470.02461    287.56669    14.720366    36638.639 
  499200    295.05297   -1511.6727    490.39308    302.36319   -302.64843    36638.639 
  499300    293.90694   -1543.4409    445.50087    220.56147   -236.10825    36638.639 
  499400    313.25723   -1506.7387    486.55013    385.12072    69.516269    36638.639 
  499500    298.48032   -1504.1091    515.52943    350.43858    306.28875    36638.639 
  499600    298.47721   -1514.2254    481.81363     306.5926   -400.48849    36638.639 
  499700    298.80498   -1500.8798    467.14185    306.73677   -361.33753    36638.639 
  499800    308.40858   -1521.6193    492.69572    354.63406   -324.90507    36638.639 
  499900    290.81169   -1513.1072    477.25099    268.75968   -289.48125    36638.639 
  500000     305.4261    -1528.734    462.37415    303.81803   -713.71099    36638.639 
  500100    291.45431   -1528.9428    487.74802    266.30401   -517.62747    36638.639 
  500200     310.9736    -1538.159    469.83881    326.74447    708.91575    36638.639 
  500300    297.58607   -1502.8507    498.03125    330.18707    748.39425    36638.639 
  500400    306.77211   -1556.3249    475.97406    295.86541    39.684154    36638.639 
  500500    305.97919   -1550.9831    469.97276    291.64881    1.7720391    36638.639 
  500600    299.37032   -1534.3564    467.44791    276.10243   -56.853364    36638.639 
  500700    295.98152   -1507.3417    484.02429    304.49092     -184.689    36638.639 
  500800    304.39392   -1533.6035     487.9702    319.91406    334.10348    36638.639 
  500900    294.58172   -1527.8303    472.46645     266.1648    315.86015    36638.639 
  501000     295.9431   -1535.7055    468.25157    260.18205    638.81883    36638.639 
  501100    297.01917   -1525.0452    481.54916    288.96733    20.940348    36638.639 
  501200    307.58694   -1527.3773    506.85001    359.34436   -42.344656    36638.639 
  501300    291.84336   -1483.3266    481.33613    307.25365    -76.17262    36638.639 
  501400    299.84942   -1526.4892    479.89327    298.56431   -182.35821    36638.639 
  501500    307.81546   -1513.7819    470.19607    337.31095    58.047813    36638.639 
  501600    293.14544   -1488.0891    511.90949    338.90572   -176.02297    36638.639 
  501700    296.16567   -1511.5591    465.81974    282.89515    81.697468    36638.639 
  501800    292.75088   -1497.3912    506.12364    322.04774    228.62254    36638.639 
  501900    295.74764   -1494.4417    497.02965    329.34711    473.31842    36638.639 
  502000    311.71469   -1530.7513    462.68448    330.32247    155.65266    36638.639 
  502100    295.52215   -1531.7858    502.19588    296.15767   -287.21597    36638.639 
  502200    300.04635   -1552.5936    466.76824    260.21829    313.77579    36638.639 
  502300    302.88508   -1533.6116    511.95378    337.12076    168.30348    36638.639 
  502400    297.22005    -1541.348     456.3552    248.37171    469.49946    36638.639 
  502500    303.37309   -1546.0103    489.32656    304.28409    167.67813    36638.639 
  502600    305.09023   -1576.9614    490.61883    282.32853  -0.41142573    36638.639 
  502700    310.21606    -1580.346    443.97162    255.29179   -865.27163    36638.639 
  502800    302.92512   -1523.3801    481.90343    317.48154    176.73225    36638.639 
  502900    300.90871   -1551.6364    490.74632    289.02226   -40.081525    36638.639 
  503000    300.23639   -1568.5475    473.17505    251.52377   -233.33038    36638.639 
  503100    292.57977   -1565.5657    467.89263    214.87465     358.5988    36638.639 
  503200    303.21577   -1550.2744    455.12656    265.11425     510.9613    36638.639 
  503300    299.22114   -1551.8164    479.78198    270.30727    487.23027    36638.639 
  503400    309.46914   -1537.2708    482.42637    333.47097   -208.12992    36638.639 
  503500    317.26602   -1542.1077    470.97177    352.15724    412.43992    36638.639 
  503600    300.49997   -1543.4073    475.06897    279.74031   -184.98597    36638.639 
  503700    303.17107   -1585.8269    476.79506    251.02973    4.8582491    36638.639 
  503800     290.7975   -1575.3654    453.65244    182.83932    72.565435    36638.639 
  503900    294.53071   -1541.5883    515.49599    295.20748    431.14187    36638.639 
  504000    298.20472   -1542.9802    487.88764    282.68935   -62.971466    36638.639 
  504100      298.016   -1560.5501    469.30752    245.69265    94.531399    36638.639 
  504200    303.91059   -1555.2674    468.08989    276.20164     386.4764    36638.639 
  504300    289.99655   -1577.3232    466.63289    190.26874   -476.06743    36638.639 
  504400    303.71764   -1563.5865    474.60312    273.53012    -285.7107    36638.639 
  504500    302.28526   -1542.7742    470.76564    284.07907   -284.75498    36638.639 
  504600    308.66682   -1520.9692    455.16331    318.91024   -154.27935    36638.639 
  504700    293.83065   -1516.6388    491.59181    293.11227    345.60726    36638.639 
  504800    300.54875   -1506.4314    494.88281    336.74891     277.2911    36638.639 
  504900    301.21995   -1517.4905    485.05638    318.87444    319.60362    36638.639 
  505000    302.23091   -1497.0767    485.65611    344.42327    655.77785    36638.639 
  505100    300.73691   -1519.3286    505.27896    335.09198    445.97631    36638.639 
  505200    298.69362   -1477.0341     475.0585    337.99956    80.422523    36638.639 
  505300    294.08601   -1475.0269    490.01787    334.29585    161.88161    36638.639 
  505400    296.18488   -1496.0727    500.86929    333.51722   -216.33999    36638.639 
  505500    299.96221   -1516.5102    468.86946     298.0255    -321.8612    36638.639 
  505600    289.44708   -1532.5761    490.88824    256.80624   -410.48536    36638.639 
  505700    297.99849   -1506.1252    513.84866    344.58016    57.935751    36638.639 
  505800    295.25252   -1496.6982    472.99452    300.83428   -288.08935    36638.639 
  505900    305.22874   -1488.5299    513.81889    394.58151    193.95658    36638.639 
  506000    299.57148   -1519.3618    509.37051    333.92207    523.11415    36638.639 
  506100    307.01548   -1582.7278    471.13659    265.71677     166.0495    36638.639 
  506200    308.83964   -1539.6273    482.43508    328.29926    156.45135    36638.639 
  506300    308.40486   -1544.0888     498.8668     338.3189    281.87675    36638.639 
  506400    302.91136   -1524.2078    486.69384    321.38242    235.13469    36638.639 
  506500    307.55073   -1510.6853    493.14746    362.17135    714.88308    36638.639 
  506600    304.98842   -1522.0488    487.80688    333.97241    111.30093    36638.639 
  506700    292.95199   -1471.5924    506.55612    349.18125   -102.24974    36638.639 
  506800    306.95405   -1501.6216    473.84955    349.26037   -74.333818    36638.639 
  506900    304.49616   -1507.2961    481.52225    340.23224   -559.19479    36638.639 
  507000    302.26549   -1494.9691    501.45341    362.48332   -454.06388    36638.639 
  507100    292.88167   -1455.6122    508.73976    367.02968   -142.77714    36638.639 
  507200    294.87539   -1467.2777    507.57479    363.14324   -432.87924    36638.639 
  507300    307.46878   -1496.4624    476.82972    359.70889   -63.678315    36638.639 
  507400    298.85702   -1453.9154    515.33414    402.12697   -396.07878    36638.639 
  507500    295.05405   -1502.0748    492.62231     314.1951   -884.92911    36638.639 
  507600    298.48239   -1490.5263    491.37133    339.87258    -645.8202    36638.639 
  507700    300.81356   -1497.9625    497.68041    349.20334   -399.59395    36638.639 
  507800    294.27643   -1522.9459    473.97893    271.19211   -617.56408    36638.639 
  507900    298.28433   -1516.3902     506.1634    327.91225   -830.70364    36638.639 
  508000    303.23726   -1510.8817    476.90357    326.38038   -287.35942    36638.639 
  508100    302.14035   -1512.4554    502.96798    345.95018    23.025572    36638.639 
  508200    293.35671   -1530.7782    486.20889    271.46384    321.03688    36638.639 
  508300    290.21838   -1604.6027     493.2723     190.6238      272.999    36638.639 
  508400    318.27344   -1566.9303    489.75438    350.63665    387.14624    36638.639 
  508500    295.61057   -1517.9413    474.42867    282.63163    -248.0249    36638.639 
  508600    306.42325   -1541.9483    497.71078     330.4137    16.255781    36638.639 
  508700    300.71449   -1560.8288    462.93255    251.14475   -248.59206    36638.639 
  508800    305.93797    -1554.076    501.07633    319.47451    104.34152    36638.639 
  508900    289.42051   -1548.9165    479.15303    228.61139    182.14023    36638.639 
  509000    284.56003   -1536.5415    500.63713     240.6658    127.45557    36638.639 
  509100    295.06957    -1539.372    475.65666    260.00194    182.97995    36638.639 
  509200     295.7361   -1523.7774    478.78481    281.71482    74.914687    36638.639 
  509300    292.24633   -1537.2253    462.97323    236.79979   -619.07969    36638.639 
  509400    302.10028   -1577.9547    462.95635    240.25943   -734.55865    36638.639 
  509500    294.49491   -1529.6326    459.41515    250.92177    -727.8179    36638.639 
  509600      297.458   -1554.6723    478.36855    258.12823   -484.35425    36638.639 
  509700     297.2685    -1544.067    473.13768     262.6526   -627.05905    36638.639 
  509800    304.47465   -1505.9781    503.72811    363.65955   -225.77771    36638.639 
  509900    290.38325    -1513.541    486.67549    275.82835    227.56195    36638.639 
  510000    285.37047   -1509.5574    480.80083    251.44935     292.9298    36638.639 
  510100    297.44292   -1559.8756    475.43312    249.92188    27.507689    36638.639 
  510200     307.3492   -1562.2714    480.49239    297.02615   -165.51496    36638.639 
  510300    292.42527   -1577.8573    460.58751    194.58485     416.2768    36638.639 
  510400    304.64061   -1522.7141     488.5296    332.46961    744.20907    36638.639 
  510500    297.16392   -1532.5287    499.68624    300.27029    217.74684    36638.639 
  510600    303.97043   -1524.3636    489.88423    329.16815    142.85408    36638.639 
  510700    301.25227   -1521.2377    498.98839    329.20423    306.36486    36638.639 
  510800    299.07778   -1494.5317    499.68948    346.85633    374.99886    36638.639 
  510900    296.65638   -1534.2858     488.7694    285.31948    111.11567    36638.639 
  511000      297.318   -1511.9755     464.3137     286.1421    75.625391    36638.639 
  511100    295.77547   -1476.0327    473.54736    324.39866    -122.3192    36638.639 
  511200      304.319   -1497.8463    504.72706      372.092   -188.29411    36638.639 
  511300    295.75833    -1532.979    475.87881    269.70688   -156.26208    36638.639 
  511400    307.46198   -1512.5983    484.36371     351.0765   -43.654428    36638.639 
  511500    304.78031   -1511.8192    464.74325    320.20484     158.3035    36638.639 
  511600    295.06188   -1504.7463    497.13909    316.07555    536.53489    36638.639 
  511700    303.86166   -1512.7777    498.02161    348.40353    729.18867    36638.639 
  511800    299.49106   -1514.0943    481.48224    310.94048    821.20239    36638.639 
  511900    297.74088    -1532.839    505.31075    308.17282    893.68165    36638.639 
  512000    300.91364   -1546.7106    451.71866    254.94246     835.8573    36638.639 
  512100    303.18467   -1525.5667    508.68902    343.24484    829.24362    36638.639 
  512200    295.28248   -1552.2345    472.71097    245.14888    525.30636    36638.639 
  512300    294.00747   -1530.1638    472.66183    261.45061    298.55991    36638.639 
  512400    296.06985   -1506.8392    477.83115    299.19651    1.1430478    36638.639 
  512500    307.79356   -1524.6923    457.81447    313.92074    142.11288    36638.639 
  512600    295.63411   -1542.5805    492.53191    276.20122   -148.96211    36638.639 
  512700    300.21101   -1536.6413    476.11469    286.25571    114.47671    36638.639 
  512800    297.49167   -1544.5261    491.11128    281.16826   -60.789525    36638.639 
  512900    286.72894   -1536.1511    483.70698    233.85609    33.645993    36638.639 
  513000    298.53372   -1557.4248    491.13356     272.9666    80.009343    36638.639 
  513100    300.36829   -1552.0092    487.40984    282.88853   -277.73735    36638.639 
  513200    295.49377   -1567.0484    484.85272    243.42463   -392.41677    36638.639 
  513300    300.47997   -1550.1389    487.63459    285.48462     112.3299    36638.639 
  513400    304.12338   -1549.8243     497.3499     311.8593    398.67738    36638.639 
  513500     294.9987   -1509.1809    470.16741     284.3858     312.9622    36638.639 
  513600     307.0311   -1483.4005    504.61918    398.59676   -460.64368    36638.639 
  513700    299.81418   -1506.7153    463.76425    302.05106   -437.47914    36638.639 
  513800    295.33715   -1545.6628    459.45769    238.71249   -608.59519    36638.639 
  513900    295.86387   -1523.7115    470.44649    274.01559   -334.14166    36638.639 
  514000    305.36008   -1513.0425    509.09026    365.92943    423.54587    36638.639 
  514100    306.10385   -1528.1868    498.64332    343.67482     384.3924    36638.639 
  514200    292.37799   -1569.7139    466.07013    207.99876    367.26403    36638.639 
  514300    309.29372   -1550.0788    485.55021    322.99982    200.64347    36638.639 
  514400    301.31963   -1506.1869    483.67024    329.23909    451.62326    36638.639 
  514500    306.54341    -1554.609    494.64738    315.22861    392.61236    36638.639 
  514600    300.27905    -1542.025    470.39691    275.45955    -113.6434    36638.639 
  514700    309.82796   -1493.2292    508.05433    404.75029   -660.59084    36638.639 
  514800    303.86963   -1531.7019    482.66359    314.15705    -16.14872    36638.639 
  514900    297.94585     -1514.69    467.65307    289.58362    216.84269    36638.639 
  515000    292.11306   -1515.6258    483.94158    278.76975    169.85453    36638.639 
  515100    300.15223   -1502.3445    491.66363    335.83776    134.79019    36638.639 
  515200    299.55161   -1517.0096    472.10491     298.9195    558.22903    36638.639 
  515300    296.51587   -1529.4945    459.94556    260.65659   -130.78344    36638.639 
  515400    295.50253   -1490.7321    491.33908    326.26651    177.48392    36638.639 
  515500    302.07529   -1461.1541    493.71007    387.70176   -612.09184    36638.639 
  515600    295.22439   -1504.2894    471.87709    291.99945   -980.33513    36638.639 
  515700    299.28715    -1539.671    475.83231    278.79916   -942.64798    36638.639 
  515800    296.58551   -1526.5768    478.14371     282.0848   -544.95555    36638.639 
  515900    300.42732   -1532.9559    466.66775    281.46456   -834.21491    36638.639 
  516000    295.94283   -1518.0656    483.12125    292.69047   -427.40464    36638.639 
  516100    298.04452   -1495.3122    474.88622    316.63722   -869.55345    36638.639 
  516200    297.94537   -1529.9286    478.41308    285.10289   -592.68752    36638.639 
  516300    303.01082   -1512.7909     464.4041     310.9558   -242.92902    36638.639 
  516400    305.19161   -1502.8881    486.42876    352.66659    8.5641405    36638.639 
  516500    286.84673   -1507.8645    466.98906    245.95318   -539.64252    36638.639 
  516600    298.03049   -1488.8055    478.12809    326.32285   -413.67404    36638.639 
  516700    302.82787   -1544.8082    474.82669    288.54041   -557.53153    36638.639 
  516800    303.95014   -1501.9163    464.58916    326.22938   -105.17376    36638.639 
  516900    308.68242   -1515.3585    503.73501    373.16258   -186.37258    36638.639 
  517000    293.44899   -1493.1107    476.55026    299.88665   -328.50897    36638.639 
  517100    305.30768   -1441.0907    486.33165    414.88752   -286.86565    36638.639 
  517200    302.74842   -1460.5061    481.84477    379.50417   -561.05742    36638.639 
  517300    285.44171   -1459.9834    480.08503    300.62711   -655.59119    36638.639 
  517400     305.1544     -1519.49    491.43973    340.90872    31.455774    36638.639 
  517500    297.63395   -1540.6464    462.53324    257.10825    82.358394    36638.639 
  517600    289.98864   -1522.2434    485.16623    263.84639  -0.24774311    36638.639 
  517700    305.44772   -1504.4327    492.55387    358.39605    312.03306    36638.639 
  517800    302.98247   -1494.0372    485.99311    351.17134    778.81726    36638.639 
  517900    298.03703   -1497.9871     477.0201    316.06257     448.1217    36638.639 
  518000    299.42803    -1500.057     486.5103    329.72316    180.02626    36638.639 
  518100    306.43073   -1500.7447    485.52919    359.46924   -29.453765    36638.639 
  518200    311.51473   -1483.1498    472.24665    386.58901   -471.98369    36638.639 
  518300    299.40779   -1493.6371    489.98401    339.52591   -604.53547    36638.639 
  518400     295.3946   -1493.1542    461.16832    293.18948   -372.66555    36638.639 
  518500    298.84851   -1498.2553    482.51981    324.93455   -231.23427    36638.639 
  518600    296.87791     -1533.82    500.31989    298.32953   0.25915699    36638.639 
  518700    301.20416    -1524.755    489.46827    315.95099   -119.88259    36638.639 
  518800    303.53675    -1501.741    464.22162    324.18268   -239.17947    36638.639 
  518900    311.72844   -1468.3311    463.86371    393.98355   -22.129115    36638.639 
  519000    303.96834    -1474.167    487.35417    376.82532   -152.05211    36638.639 
  519100    299.83413   -1501.7131    491.88128    335.25982    1211.8654    36638.639 
  519200    300.75173   -1484.5948    488.55791    353.17117    761.18007    36638.639 
  519300    285.75641   -1528.9104     486.6619    239.68883   -113.19505    36638.639 
  519400    295.77804   -1512.1864    474.18412    288.89328   -32.916282    36638.639 
  519500    296.52853   -1479.8676     481.5124    331.90708    -539.1272    36638.639 
  519600    299.56014   -1467.1475    480.81733    357.53235    296.89199    36638.639 
  519700    305.53777   -1471.9493    511.49882    410.22835   -302.13175    36638.639 
  519800    299.77479   -1512.1692    454.94465    287.60089    147.98512    36638.639 
  519900    296.06404   -1501.6049    528.26053    354.83425     89.84633    36638.639 
  520000    301.70352   -1529.8035    468.80077     292.4752   -25.846947    36638.639 
  520100    306.96335   -1487.3903    508.99469    398.67854    78.269437    36638.639 
  520200    286.93872   -1491.6078     481.8418    277.47533    123.23673    36638.639 
  520300     293.1589   -1496.2885    474.81272    293.66998    491.70972    36638.639 
  520400    292.56229   -1518.7578    468.14601    261.85744    306.63239    36638.639 
  520500    296.97916    -1504.128    474.89413    303.05005   -180.17495    36638.639 
  520600    296.68514   -1517.3957     471.7048      285.274     237.5913    36638.639 
  520700    301.88918   -1546.1908    482.15929    290.27932    89.679783    36638.639 
  520800     303.4678   -1550.4187    475.68848    286.66245    195.25582    36638.639 
  520900    302.41474   -1498.4847    472.98583    331.16971    405.21627    36638.639 
  521000    300.17062   -1515.4797    486.67444    317.79592   -173.85039    36638.639 
  521100    286.05064   -1517.4005    460.07243    225.92912    473.06853    36638.639 
  521200    313.43093   -1494.3094    521.84087    433.61991    187.30196    36638.639 
  521300    299.87429   -1528.0684    465.67796    282.88138    172.66544    36638.639 
  521400    307.16955   -1519.7102     465.3417    323.63062   -343.20677    36638.639 
  521500    310.90984   -1544.3183     483.4458    333.90604   -46.789956    36638.639 
  521600    299.29981   -1555.7911    490.80764    277.71119   -270.12645    36638.639 
  521700    296.59378   -1545.2588    472.88426    258.18046   -104.76804    36638.639 
  521800    299.63549     -1514.98    493.70745    322.92793     15.45445    36638.639 
  521900      295.609   -1543.0029    456.37034    239.50464    213.57629    36638.639 
  522000    306.51068   -1539.7723    472.44164    307.71273    371.57195    36638.639 
  522100    308.54626   -1551.0984    483.57716    316.65406    303.51294    36638.639 
  522200     297.7557   -1523.1026    490.40702    303.07194    36.612811    36638.639 
  522300    293.48693   -1526.1431    495.41467    285.88895   -102.38244    36638.639 
  522400     291.4165     -1542.01    445.23012    210.54924    21.513912    36638.639 
  522500    298.82511   -1537.2679    504.81366    308.11077    49.095122    36638.639 
  522600    302.98437   -1502.4098     468.1821    324.99623    472.08025    36638.639 
  522700    290.45659   -1535.9044    501.77694    268.89538    455.10888    36638.639 
  522800    303.76218    -1562.163    465.64035    266.19061    671.37808    36638.639 
  522900    306.35268   -1567.7927    478.57398    285.11592    549.72513    36638.639 
  523000    304.57366   -1555.8767    473.93173    284.40879     350.2177    36638.639 
  523100     304.1942   -1575.1838    440.77577    230.24338    141.47207    36638.639 
  523200    304.39953   -1561.1341    474.46106    278.89951    247.05461    36638.639 
  523300    303.23664   -1573.0557    472.59724    259.89723    596.94753    36638.639 
  523400    303.33121   -1571.5412    486.72562    275.96436    478.00628    36638.639 
  523500     306.6635   -1573.5666    494.53007    296.69241    601.79006    36638.639 
  523600    298.93254   -1562.4316    471.58638    250.20179    240.41952    36638.639 
  523700    293.95556   -1578.3757    485.24661    225.59056   -108.13469    36638.639 
  523800    306.56759   -1558.4026    470.79484    287.69095   -357.41018    36638.639 
  523900    299.58092   -1610.4046    468.30775    201.85887    44.731683    36638.639 
  524000    298.25511   -1621.9711    470.13038    186.16719    234.78767    36638.639 
  524100    293.46676   -1573.7288     473.3722     216.1703   -69.497031    36638.639 
  524200    301.07676   -1597.4173    467.44806    220.69693    283.28048    36638.639 
  524300    300.19769   -1575.6844    457.54931    228.58745    80.565204    36638.639 
  524400    298.19799   -1578.6204    481.48737    240.61866   -23.040453    36638.639 
  524500    292.97404   -1566.5587    483.18974    230.94749    294.87525    36638.639 
  524600    285.91609   -1557.5679    491.79369     216.8794   -46.398707    36638.639 
  524700    301.71785   -1547.6052    487.91418    293.85118   -181.14562    36638.639 
  524800    304.13668   -1519.7828    507.40241    352.01294    246.29971    36638.639 
  524900    303.08784   -1512.5685    501.32614    348.44577    672.23529    36638.639 
  525000    304.96512   -1569.5715    474.09393    272.63228     384.1918    36638.639 
  525100    298.53914   -1551.5202    454.42332    242.18524     344.2379    36638.639 
  525200    312.06445    -1523.244    497.42272    374.13699    54.696224    36638.639 
  525300    296.63514   -1519.7359    493.17938     304.1841   -315.20079    36638.639 
  525400    297.16504   -1561.1724    473.74864    245.69396   -112.72171    36638.639 
  525500    298.17687   -1501.0466     480.8958    317.50618   -9.0497108    36638.639 
  525600    283.09951   -1512.3344    502.71855     260.4023   -347.00937    36638.639 
  525700    297.48602   -1549.7604     463.7177    248.51503   -522.67634    36638.639 
  525800    298.37005   -1569.8605    476.90194    245.56501   -680.91911    36638.639 
  525900    303.48019    -1562.589    482.83559     281.6949   -235.65963    36638.639 
  526000    300.47074   -1530.5193    482.93607    300.36425   -547.25019    36638.639 
  526100    293.23706    -1503.116    480.53323    292.91366   -303.31552    36638.639 
  526200     301.9429    -1528.702    475.27497     301.1248    -107.5377    36638.639 
  526300    316.17611   -1534.1815    482.00178    366.22399    170.84344    36638.639 
  526400    305.17566   -1575.5322    467.07335    260.59554    199.64316    36638.639 
  526500    302.33344   -1552.7981      486.808    290.31375    561.95148    36638.639 
  526600    295.34468   -1527.9651    500.84842    297.83475   -47.107598    36638.639 
  526700    312.12265   -1528.0028    485.65947    357.87599    311.44618    36638.639 
  526800    303.85906   -1531.4983    458.69719    290.34687    502.10314    36638.639 
  526900    296.36179   -1537.0813    471.96246    264.39543   -132.37752    36638.639 
  527000     297.1398   -1474.9955    499.81008    357.81911    205.12766    36638.639 
  527100    307.67699    -1489.967    483.04731    373.35594   -291.84893    36638.639 
  527200    307.59777   -1486.9714    487.50751    380.45637    99.660781    36638.639 
  527300    302.92334   -1503.8351    478.67361    333.78867   -92.323919    36638.639 
  527400    314.83948   -1491.8161    507.61427    428.20563   -137.54513    36638.639 
  527500    288.33847   -1548.8081    467.65699    212.36963   -642.93305    36638.639 
  527600    302.57212   -1580.8627    492.16874    268.68064   -42.614788    36638.639 
  527700    302.83537   -1537.4879    478.04035    299.10803    666.33929    36638.639 
  527800     301.7559   -1554.2029     510.7539    310.26388     688.3603    36638.639 
  527900    303.88903   -1544.9282    493.22377    311.57794    930.95663    36638.639 
  528000     298.1188   -1538.5518    495.05948    293.90414    525.92774    36638.639 
  528100    292.32418   -1531.6475    501.83033     281.5839    568.77847    36638.639 
  528200    299.80005   -1549.2741    473.32318    268.98782    247.39311    36638.639 
  528300    303.37656   -1536.5856    468.71767    293.11542   -34.707046    36638.639 
  528400    301.01506   -1506.0286    478.63033    322.99114    131.48341    36638.639 
  528500     304.8933   -1522.3054    495.06239    340.54469    332.55308    36638.639 
  528600     303.8392   -1553.4659    507.18692    316.77981   -100.99353    36638.639 
  528700    309.38423   -1537.0768    499.85496    350.71266    372.68136    36638.639 
  528800    304.59158   -1552.6074    457.72336     271.5501   -570.65422    36638.639 
  528900    308.41885   -1532.7972    485.54011    336.34661    -483.4846    36638.639 
  529000    302.68221   -1522.4758    477.09866    312.49129   -354.93626    36638.639 
  529100      290.424   -1551.6951    494.54692    245.72845   -535.80398    36638.639 
  529200    307.40021   -1535.8192      479.063    322.27779   -400.56108    36638.639 
  529300    299.55774   -1504.8158    473.27264    312.30859   -728.63066    36638.639 
  529400    307.06051   -1494.2859    481.68583    364.90996   -403.62871    36638.639 
  529500    311.22878   -1527.5923     457.9715    326.58858    220.08277    36638.639 
  529600    307.78902   -1524.8132    481.83057    337.79555   -332.53242    36638.639 
  529700    286.76049   -1482.6917    493.41337    297.16339   -623.79608    36638.639 
  529800    288.89115   -1473.7649    491.51664    313.75186    224.46089    36638.639 
  529900     299.0661   -1473.8986     483.4419    351.18948    -336.1276    36638.639 
  530000    300.01963   -1499.4122    499.34557    345.85722   -528.37103    36638.639 
  530100    300.78898   -1492.9697    464.33548    320.74101    203.03388    36638.639 
  530200    296.71643   -1508.0283    474.44065    297.51765   -355.46276    36638.639 
  530300    298.82508   -1515.9514    475.22985    299.84336    317.03717    36638.639 
  530400    296.08166   -1521.9389    475.15277    281.47144    43.639104    36638.639 
  530500    301.33735   -1512.8397     480.9121    319.90768    184.85053    36638.639 
  530600    299.85056   -1459.9731    481.31387     366.5061    185.64537    36638.639 
  530700    292.21106   -1439.9779    497.48598    368.40169   -14.835772    36638.639 
  530800    295.17834    -1477.012    505.21536    352.40852   -408.59168    36638.639 
  530900    300.80817   -1488.6347    485.83291    346.65948   -75.418256    36638.639 
  531000    315.18003   -1497.8553    504.68371    420.76353    50.512252    36638.639 
  531100    300.46099   -1506.4436    512.98296    354.44311    494.57408    36638.639 
  531200    311.17469    -1521.695    483.15394    357.42564   -110.89124    36638.639 
  531300     305.1173   -1499.9111    486.14657    355.02799   -66.017009    36638.639 
  531400    291.06684   -1496.6908    502.63762    311.70737   -134.80047    36638.639 
  531500    296.30501   -1474.6856     464.8267     319.4007   -1219.4145    36638.639 
  531600    298.99831   -1499.4929    505.37143    347.22058   -1167.8932    36638.639 
  531700    306.56584   -1514.7251    488.79354    349.35932   -239.80785    36638.639 
  531800    308.89644   -1545.6387    492.97423    333.08181   -420.21801    36638.639 
  531900    299.57833   -1534.5468    483.51242    292.90968   -245.60662    36638.639 
  532000    304.19898   -1517.4773    494.08456     341.2801    579.28988    36638.639 
  532100    297.74175   -1547.3151    478.78254     267.1724   -178.53023    36638.639 
  532200     291.5577   -1548.7434    475.93403    235.15319    205.25039    36638.639 
  532300    297.45786   -1495.5827    481.89461    320.74334    222.95946    36638.639 
  532400    297.64456   -1481.0496    505.81389    360.03323   -213.42664    36638.639 
  532500    309.43885   -1538.4378    462.89523    312.63695   -82.831367    36638.639 
  532600    308.80846   -1500.8345    490.07516    374.59219   -462.09675    36638.639 
  532700    301.51304    -1500.905    472.20465    323.92304   -361.14176    36638.639 
  532800    295.90454   -1531.4651    463.29172    259.28965   -305.64564    36638.639 
  532900    295.56038   -1519.8178    483.12005    289.22133   -219.26152    36638.639 
  533000    299.47014     -1534.49    474.44667    283.41543    37.979532    36638.639 
  533100    283.12448   -1538.6849     455.2929    186.73811    190.06834    36638.639 
  533200    298.03998   -1542.6074    495.30477    289.74022   -118.74249    36638.639 
  533300    300.39161   -1580.0516    468.87388    236.41485    445.91085    36638.639 
  533400     301.8357   -1567.4639    486.60552    273.21247    692.60593    36638.639 
  533500    300.23771   -1575.3929    483.36899    254.87822    263.03327    36638.639 
  533600    303.73964   -1547.3943    486.78217    302.00007   -202.71289    36638.639 
  533700    304.65755   -1529.5566    486.53019    323.70367   -384.89169    36638.639 
  533800    304.25672   -1536.0913    478.67183    307.51246   -734.37198    36638.639 
  533900    292.23285   -1573.0907    432.49155    170.39228   -1289.7767    36638.639 
  534000     302.6647   -1555.5596    485.58082    287.81115   -992.09589    36638.639 
  534100    298.57521   -1556.2816    487.59033    270.75267   -425.39582    36638.639 
  534200    294.66041   -1549.5685    486.29764    258.61083   -746.66556    36638.639 
  534300    300.39977   -1549.2012    462.33834    260.76631   -293.53693    36638.639 
  534400    289.79567   -1512.2223    489.45169     277.2873    -418.4942    36638.639 
  534500    286.95226   -1557.9435    471.57218    200.93074   -522.75014    36638.639 
  534600    301.46034   -1556.3303    470.86831    266.92495   -518.31338    36638.639 
  534700    299.17927   -1513.9156    466.14711    294.38542    -617.9632    36638.639 
  534800    300.99502   -1470.4888    485.99122     365.8019   -182.53237    36638.639 
  534900    300.85153   -1518.5648    482.86285    313.95388    9.9334737    36638.639 
  535000     300.4245    -1491.452    473.99932    330.28742   -321.79328    36638.639 
  535100    306.02786   -1521.0055    510.48367    362.35557    4.3128694    36638.639 
  535200    298.29431   -1493.5587    475.64013    320.26522    -378.7956    36638.639 
  535300    300.64257   -1540.4818    453.28401    261.52059   -525.22751    36638.639 
  535400    295.05086   -1508.0799    503.66754    319.22092   -453.91833    36638.639 
  535500    292.61707    -1504.923    475.25513    283.04713    543.53833    36638.639 
  535600    308.43384   -1498.5147    474.97751     360.1338     389.1245    36638.639 
  535700    307.06209   -1513.0277    489.78151    354.27098     307.6914    36638.639 
  535800     303.2241   -1506.1997    486.24004    340.33979    154.15473    36638.639 
  535900    292.04891   -1501.5848    463.85904    272.44047    283.81663    36638.639 
  536000     309.4424   -1505.3717    506.98217    389.80593    42.638518    36638.639 
  536100    297.87003   -1545.7362     467.9204    258.46462    363.78654    36638.639 
  536200    303.97296   -1464.7075    476.12228    375.07367    276.50429    36638.639 
  536300    301.29985   -1507.0038    478.83346    323.49663   -98.420738    36638.639 
  536400    290.45474   -1513.0229     495.2988    285.29049   -267.06346    36638.639 
  536500    296.37179   -1462.2845    495.93993    363.21459    246.34438    36638.639 
  536600    301.18748    -1449.911    508.43753    409.68946   -838.89879    36638.639 
  536700    295.80903    -1441.074    471.70817    357.66868   -6.5406611    36638.639 
  536800    298.20055   -1446.7961    489.00156     379.9687    271.55554    36638.639 
  536900    295.57888   -1467.7642    496.43792    354.67574     180.8777    36638.639 
  537000    300.87756   -1489.5067    490.15239    350.41824    804.25681    36638.639 
  537100    306.03667   -1427.5446    493.55152    438.92392    388.57123    36638.639 
  537200    305.81443   -1461.1661    493.28328    404.03713    853.63196    36638.639 
  537300    294.64439   -1553.5547    471.94205    240.19723   -125.77325    36638.639 
  537400    302.55272    -1507.481    481.14785    330.95437    248.60514    36638.639 
  537500     312.8623   -1519.6024    505.30728    389.24239    147.93192    36638.639 
  537600    291.41788   -1506.5691    479.45087    280.21709   -269.91556    36638.639 
  537700    288.57677   -1458.9347    482.23625     317.8913   -728.44372    36638.639 
  537800    292.20944   -1466.9322    472.49586    316.44998   -190.72771    36638.639 
  537900     300.3843   -1517.4278    471.83745    301.96936    213.93288    36638.639 
  538000    299.01116   -1541.4441    478.06609    278.02171    450.53053    36638.639 
  538100    289.38227   -1520.5096    500.51291    278.20666    81.787791    36638.639 
  538200    305.48235   -1484.1804    482.62504    368.87485     285.2882    36638.639 
  538300    309.97194   -1536.3033     499.1285     353.3962    162.86501    36638.639 
  538400    305.52461   -1487.3285    467.86109    351.15236    409.20521    36638.639 
  538500    306.97719   -1532.6958    481.22637    325.66686   -229.66568    36638.639 
  538600    299.96095   -1482.1053    445.40591    308.96113   -484.96917    36638.639 
  538700     299.0633   -1526.4595    496.50632    311.68041   -784.43052    36638.639 
  538800    304.72747   -1512.7276    478.21863    332.53474   -657.80948    36638.639 
  538900    306.85511   -1520.1905    474.70244    331.10049   -631.07129    36638.639 
  539000    303.35293   -1502.1315    495.63338    354.37923   -164.64351    36638.639 
  539100    302.99626   -1526.0342    449.36845    282.61163   -412.25354    36638.639 
  539200    303.93459   -1534.1547    481.76332    311.09538   -707.53048    36638.639 
  539300    302.05453   -1511.6394    499.66791    343.08111   -266.96716    36638.639 
  539400    306.78172   -1474.4215    489.25405    391.09187   -363.86804    36638.639 
  539500    303.14085    -1516.515    470.26903    313.67997   -856.42371    36638.639 
  539600    294.54347   -1527.8714    475.19993    268.68563    -369.1293    36638.639 
  539700    308.50177   -1503.0309    479.81333    360.75807    54.545458    36638.639 
  539800    302.09839    -1478.747     477.4004    353.90272     552.7997    36638.639 
  539900    304.01228   -1482.2667    529.27598     410.8446    111.33989    36638.639 
  540000    292.04102   -1501.3867    453.90402    262.64815    -424.2051    36638.639 
  540100    307.60467   -1502.5517    470.22266    347.62213   -71.604775    36638.639 
  540200    295.58663   -1507.8907    485.60689    303.75306    -549.0558    36638.639 
  540300    299.65307   -1503.2842    491.72664    332.72185    536.63392    36638.639 
  540400    304.83206   -1518.4607    478.96742    328.01967    209.34641    36638.639 
  540500    298.95811   -1524.3568    495.93094    312.73581   -170.15248    36638.639 
  540600    289.72401   -1525.5576    481.40989    255.58874   -222.38355    36638.639 
  540700     298.5812   -1514.0807    484.17333     309.5634    71.849133    36638.639 
  540800    307.70152   -1554.0879    494.40221    320.69992    -65.90006    36638.639 
  540900    304.61321   -1515.2365    488.18577    339.48044   -646.85165    36638.639 
  541000    305.27338   -1499.7159    485.45717    355.23403   -312.66555    36638.639 
  541100     300.3747   -1502.5735    470.74347    315.68663   -676.80097    36638.639 
  541200     297.5664   -1498.9143    486.71953    322.72349   -426.58481    36638.639 
  541300    290.07888   -1533.0232    463.74926    232.05447   -1252.2964    36638.639 
  541400    309.99997      -1468.5     496.2764     418.4732   -780.62477    36638.639 
  541500    295.49906    -1502.214    471.15654    294.58651   -455.82316    36638.639 
  541600    309.35453   -1508.4076    467.42432    346.81802   -231.18125    36638.639 
  541700     303.2724   -1490.5921    477.28405    347.20806   -52.438644    36638.639 
  541800     297.8256   -1536.7663    460.58427    259.89913   -596.45456    36638.639 
  541900    295.76545   -1541.9598    477.48261    262.36187    -643.6863    36638.639 
  542000    299.82307   -1542.5179    479.25348    281.77759    286.89444    36638.639 
  542100    288.05899   -1528.6493    492.66338    256.28104    46.193794    36638.639 
  542200    300.23619   -1559.4637    475.35911    262.79073    404.81215    36638.639 
  542300    295.77147   -1556.3421    486.20255    256.72647    233.19052    36638.639 
  542400    293.25459   -1506.7245    480.38595    289.23643   -184.75214    36638.639 
  542500    303.49028   -1538.2273    501.75084    325.01704    182.21476    36638.639 
  542600    284.14842   -1546.3201    458.66516    187.06868   -50.684343    36638.639 
  542700    301.78564   -1551.5178    477.57813    279.90667   -46.435865    36638.639 
  542800    305.08291   -1515.7923    470.51721    323.36319    5.2582229    36638.639 
  542900    299.60893   -1519.8955    489.00707     313.1929     91.80914    36638.639 
  543000    297.23085   -1508.3677    481.92717    306.97242   -220.48931    36638.639 
  543100    301.20165   -1538.4837    455.68687    268.42965   -539.73848    36638.639 
  543200    294.15734   -1558.4181    463.52805    224.73487   -677.73571    36638.639 
  543300    297.20162   -1601.1318    458.20558    190.35567   -394.32259    36638.639 
  543400     307.1453   -1558.2688    467.18341    286.80499   -194.67525    36638.639 
  543500    295.36079   -1547.0365    468.83622    246.82343   -833.84629    36638.639 
  543600     293.8307   -1556.3384    481.92522    243.74635   -464.76972    36638.639 
  543700    286.56812   -1578.7597    465.96598      172.785   -165.50999    36638.639 
  543800    298.54979   -1549.6433    459.16435      248.851   -83.306181    36638.639 
  543900    301.83826   -1534.4789     475.3211    294.92459   -297.81655    36638.639 
  544000    310.66316   -1530.0315    454.67304    318.31347    577.76947    36638.639 
  544100    288.90901   -1502.2517    465.52661    259.35515    177.49789    36638.639 
  544200    294.62287   -1537.9696    492.81899    276.56271    37.862431    36638.639 
  544300    296.31318   -1503.6212    481.28289    306.95788     -153.327    36638.639 
  544400    288.80912   -1481.4888    470.78609    284.92939   -298.94026    36638.639 
  544500    309.32129   -1478.9901    493.37993    402.04194   -156.86615    36638.639 
  544600    289.46394   -1532.4732     461.3839    227.48039   -110.63361    36638.639 
  544700    309.82159    -1534.107    482.88804    338.67762     200.7145    36638.639 
  544800    301.47223   -1539.2953    469.09808    282.24314    435.56178    36638.639 
  544900    289.53877   -1542.8262    450.57104    206.65025    221.06887    36638.639 
  545000     304.1884   -1558.8877    462.30708    268.04479    152.59321    36638.639 
  545100    300.92305   -1472.6039    478.08861    355.46138    -368.5091    36638.639 
  545200    301.24334   -1508.1258    476.03392    319.32163    156.77885    36638.639 
  545300    296.35326   -1447.7533    475.36514    357.08789   -7.0091661    36638.639 
  545400    293.06618   -1522.1278    470.58025    263.18223    250.89985    36638.639 
  545500    298.09829   -1536.1424      448.527    249.68903    8.9273797    36638.639 
  545600    303.22047    -1483.312     492.2379    369.20908    500.83239    36638.639 
  545700    296.43506   -1466.9895     472.2004    335.05388    85.558609    36638.639 
  545800    296.71467   -1509.8132    475.73503    297.01917   -25.879731    36638.639 
  545900    305.03435   -1501.3376    469.62274     336.7056    636.42515    36638.639 
  546000    311.29292    -1507.462    468.52408    357.55919    941.09629    36638.639 
  546100    292.13759   -1507.8379    462.44575    265.17187     91.13611    36638.639 
  546200     304.3645   -1512.0155    482.61753    336.01746    20.860287    36638.639 
  546300    289.68217   -1515.5305    475.42187     259.4401    143.47702    36638.639 
  546400    290.49033    -1510.388    461.22854    254.01473    283.26121    36638.639 
  546500    295.73821   -1511.0751    447.98493    263.62664   -98.403493    36638.639 
  546600    295.12569    -1503.598    480.20889     300.5799   0.87766821    36638.639 
  546700    305.07641   -1493.7387    484.40837    359.27881    140.71188    36638.639 
  546800    307.56852   -1470.7363     480.5095    389.56225    282.49797    36638.639 
  546900    297.85387   -1464.5881    489.53138    361.15127   -231.45276    36638.639 
  547000    300.50395   -1445.7328    484.16941    386.53313   -167.37052    36638.639 
  547100     293.7604   -1458.8432    503.91065    362.91157   -656.31538    36638.639 
  547200    305.71814   -1526.2782    452.80363    298.01341   -827.02737    36638.639 
  547300    309.58026   -1510.8146    486.43817    364.43744   -95.444692    36638.639 
  547400    305.39567   -1540.9476    485.13922    314.23299   -87.664027    36638.639 
  547500    299.85032   -1525.0268    454.67528     274.8127   -85.458726    36638.639 
  547600    293.56144   -1534.2974    467.58082    250.23502   -426.45269    36638.639 
  547700    297.56806   -1530.5203    480.13378    284.53926    145.41589    36638.639 
  547800    292.10675   -1543.3477    450.30356    217.38154   -220.97552    36638.639 
  547900    303.58612   -1537.6134    479.50771    303.81779    189.00336    36638.639 
  548000    295.11244   -1557.3958    465.85431    232.36804    362.21377    36638.639 
  548100    294.56627    -1577.279    456.02903    200.20937   -216.44873    36638.639 
  548200    290.06307   -1526.8226     457.2723    231.70715   -247.82353    36638.639 
  548300    304.88755   -1542.1534    469.20349    294.81196    -256.5386    36638.639 
  548400    292.21332   -1529.1279    458.94101     240.7169   -191.15019    36638.639 
  548500    307.33826   -1558.0658    454.14551     274.8357   -476.16644    36638.639 
  548600    301.75353   -1533.2795    462.86996    283.29271    90.350532    36638.639 
  548700    295.78097   -1534.2763    481.22033    273.85266   -571.85501    36638.639 
  548800    300.64711   -1534.8376    469.40574    283.30689    98.591654    36638.639 
  548900     305.0214    -1502.846    480.59681     346.1131    85.093902    36638.639 
  549000    302.97994   -1519.1736     478.6676    318.69817    272.49875    36638.639 
  549100    287.60089   -1494.2553    472.33369    268.29021   -510.47474    36638.639 
  549200    302.19941   -1510.9583    487.70082    332.44505   -130.93479    36638.639 
  549300    293.93747   -1515.8203    476.42384    279.24203   -612.57215    36638.639 
  549400    291.28271    -1559.975    492.57208    239.32595    432.62359    36638.639 
  549500    306.80213   -1534.2232    483.08782    325.21549    635.90976    36638.639 
  549600    311.31415    -1582.802    449.68291    263.47332    386.66076    36638.639 
  549700    315.48778   -1556.0292    478.23878     337.5253    1024.0555    36638.639 
  549800    294.04253   -1540.9459    479.14688    257.31082    855.97303    36638.639 
  549900    303.58201   -1558.8734    503.28307    306.31473    667.96599    36638.639 
  550000    295.59088   -1548.2643    465.75434    243.54592     186.5194    36638.639 
  550100    293.47091   -1580.4663    447.08615    183.16537   -114.80449    36638.639 
  550200    310.87813   -1559.1691    484.06239    319.52964    141.32819    36638.639 
  550300    293.66401   -1575.2178     474.2317    216.42558   -1.0510543    36638.639 
  550400    306.80149   -1544.0325    466.14862     298.4642    154.96001    36638.639 
  550500    294.72163   -1519.3167    484.43377    287.27344   -22.486636    36638.639 
  550600    302.05109   -1517.3481    501.57023    339.25931    422.75086    36638.639 
  550700    300.77263   -1497.1066    480.41411    332.60938    430.99778    36638.639 
  550800    300.27058   -1519.9338    485.75263    312.86847    321.86379    36638.639 
  550900    297.25332   -1497.6231    489.80798    325.69874    642.24756    36638.639 
  551000    301.03602   -1513.2162    471.33323    308.60046    543.50682    36638.639 
  551100    294.17951   -1516.8626    486.10184    288.96355    509.73412    36638.639 
  551200    305.64717   -1547.9189    482.04407    305.29481    566.46904    36638.639 
  551300    294.79541   -1548.5958    480.43982    254.33137    533.77575    36638.639 
  551400    305.46171   -1556.4187    488.07668     301.9956    626.19192    36638.639 
  551500    307.53248   -1509.6725    532.54487    402.49972    425.41922    36638.639 
  551600    292.93612   -1540.7839     463.7396    237.10209    479.91168    36638.639 
  551700    296.63056   -1549.0255    495.00315    276.69769    661.44353    36638.639 
  551800    297.00902   -1558.5631    458.85391    232.70868    596.36758    36638.639 
  551900    294.72528   -1553.1464    457.91951     226.9458    648.13075    36638.639 
  552000    310.89833   -1514.6028     470.4667     350.5908    502.37186    36638.639 
  552100    302.19495   -1543.9084    487.98794    299.76212    625.08052    36638.639 
  552200    314.64713   -1549.6527    471.22195    333.11381    51.237832    36638.639 
  552300    304.71724   -1546.4527    481.48149    302.02666    33.684978    36638.639 
  552400     305.9388   -1524.7895    476.49372     324.1821    151.85012    36638.639 
  552500    302.77133   -1519.4016    460.54717    299.41379    -427.6669    36638.639 
  552600    293.19262   -1574.7791     472.0589     212.5768   -432.60662    36638.639 
  552700    309.81846    -1531.026    457.71996    316.57648   -211.48767    36638.639 
  552800     303.1109   -1477.7313    506.43587    388.49621   -196.30836    36638.639 
  552900    293.93673   -1528.7917    469.05419    258.89766   -711.52334    36638.639 
  553000    305.47666   -1525.9228    457.68736    302.16922   -328.56259    36638.639 
  553100    303.50342   -1491.5623    454.36493     324.3551   -569.10547    36638.639 
  553200     289.1879   -1466.4766    489.32283    320.17753   -302.38742    36638.639 
  553300    297.98866    -1460.329    494.18438    370.66805   -525.03051    36638.639 
  553400    312.73305    -1470.542    479.13011    411.54579   -25.291523    36638.639 
  553500    302.26387   -1506.8451    480.84081    329.98741    54.348733    36638.639 
  553600    307.83296   -1535.5321    445.79447    291.23772    168.41746    36638.639 
  553700    298.94315   -1492.4205    477.32589    325.99994    178.01697    36638.639 
  553800    302.71682    -1519.664    502.74757    341.10729    62.947813    36638.639 
  553900     298.6292   -1529.6761    471.14036    281.15047    227.16226    36638.639 
  554000    295.64368   -1549.3332    448.78838      225.748      119.744    36638.639 
  554100    299.91882   -1551.0084    483.43128    277.89438   -441.30827    36638.639 
  554200    305.24331   -1551.6283    474.87282    292.60237   -472.43669    36638.639 
  554300    301.52952   -1559.4301    429.29137    222.55864   -431.69379    36638.639 
  554400    302.11571   -1529.7348    477.96422     303.5565   -393.70478    36638.639 
  554500    302.45552   -1545.8655    449.31329    260.29934   -179.84045    36638.639 
  554600    308.39931   -1528.3797     446.2799    301.41618   -302.09629    36638.639 
  554700    301.59324   -1532.7411    465.54718    285.78927    79.601436    36638.639 
  554800    299.41021   -1535.1217    478.47629    286.54447   -573.51226    36638.639 
  554900    293.08431   -1532.4513    457.87941    240.23926   -226.67634    36638.639 
  555000    297.28915   -1541.8883    458.70504    250.49133     310.6906    36638.639 
  555100     294.3213   -1524.9381    497.81416    293.23651   -275.56145    36638.639 
  555200    300.17424   -1483.5334    442.74049    305.82446    311.00531    36638.639 
  555300    298.58164   -1500.6722    447.68123    286.48183    119.52561    36638.639 
  555400    300.51316   -1511.8316     478.4782    314.78446    86.452382    36638.639 
  555500    299.26541   -1535.0578    454.46893    261.95142    179.62525    36638.639 
  555600     309.6055   -1530.8499     478.0069    336.08422     -269.037    36638.639 
  555700     305.5558   -1524.6179    458.91345    305.05521   -191.45801    36638.639 
  555800    309.51136   -1489.0346     484.7613    384.23152     79.15916    36638.639 
  555900     298.1554   -1478.7218    459.49516    318.33404    165.11217    36638.639 
  556000    298.00641   -1507.8094    487.49613    316.57901    122.60371    36638.639 
  556100     299.5943   -1521.0265    480.40524    303.39449    -667.4499    36638.639 
  556200    299.54719   -1558.7984     471.9889    256.99487    519.74009    36638.639 
  556300    301.18265   -1558.8297    466.55361    258.86511    212.60827    36638.639 
  556400    286.01532   -1487.1323    498.95392    294.92044    237.67841    36638.639 
  556500    297.16384   -1489.9439    454.78595    297.95441    161.14113    36638.639 
  556600    306.44888   -1459.4267     476.1861    391.52556    127.07887    36638.639 
  556700    286.44687    -1508.979    478.36212    254.41784    285.21928    36638.639 
  556800    306.36534   -1545.8494    460.79661    289.33863    407.82872    36638.639 
  556900    303.92126   -1503.6633    479.82466    339.58832    399.05361    36638.639 
  557000    307.20236   -1504.6861    481.07915    354.53941    92.587832    36638.639 
  557100    297.91875   -1507.1434    480.64953    310.00508    107.15043    36638.639 
  557200    295.47685   -1484.2028    503.68028     345.0218    -414.5515    36638.639 
  557300    289.67725   -1479.0706    489.49137    309.94745    -392.4955    36638.639 
  557400    297.80108   -1528.1914    473.31771    281.09743    8.6055822    36638.639 
  557500    302.89474   -1560.6274    469.80379    267.99824    821.95615    36638.639 
  557600    302.80781   -1559.9591    465.05527    263.52806    676.89315    36638.639 
  557700    294.90404   -1582.5471    462.43535    202.86287    1101.5484    36638.639 
  557800    305.79663   -1565.3694    478.06269    284.53344    331.08244    36638.639 
  557900    296.93498   -1556.1526    480.05798    255.99103   -349.26519    36638.639 
  558000    305.81322   -1578.8259    484.09151    277.18015    623.30721    36638.639 
  558100    297.31589   -1589.7804    442.76836    186.78244   -107.45243    36638.639 
  558200    295.01408   -1533.4535    444.41532    234.43016    522.47205    36638.639 
  558300    298.40413   -1523.9053    445.10211    259.87334    652.90731    36638.639 
  558400    305.32106   -1577.5054    444.19577    236.39697   -133.89376    36638.639 
  558500    287.95201   -1605.9265    482.55999    168.42053    622.40769    36638.639 
  558600    309.15623   -1554.3423    463.05412    295.62349     716.4103    36638.639 
  558700    305.81967   -1531.6461     456.8937    297.19108    557.12757    36638.639 
  558800    294.58097   -1539.9862    453.44798    234.98713    50.498276    36638.639 
  558900    290.51957   -1545.7904    476.35277    233.86774   -400.44139    36638.639 
  559000    303.34115   -1552.0799    488.79668    297.54129    10.870045    36638.639 
  559100    295.13244   -1536.4367    502.95713    290.51967    51.395251    36638.639 
  559200    302.94409   -1549.1632    469.37646    279.25652    82.504366    36638.639 
  559300    292.35788   -1487.8194    493.26746     317.0003    170.56607    36638.639 
  559400      305.146   -1563.9691    470.63193    275.58416    -457.0409    36638.639 
  559500    295.41096   -1537.0434     458.4088    246.61413   -54.584242    36638.639 
  559600    301.24169   -1573.1208    487.81803    266.10332   -448.81181    36638.639 
  559700    306.58282   -1566.5728    482.27514    291.06938   -252.50716    36638.639 
  559800    303.15373   -1566.4098    451.40316    244.97711   -376.63001    36638.639 
  559900    295.92914   -1549.4808    457.93212    236.02466   -612.29792    36638.639 
  560000     296.3187    -1547.625     463.4277    245.12368   -614.70044    36638.639 
  560100    302.87302   -1537.0829    479.69747    301.33904   -620.27531    36638.639 
  560200    303.32087   -1512.7351    473.35352    321.35199   -277.50075    36638.639 
  560300    294.19811   -1539.1791    496.46346    277.09215   -650.73887    36638.639 
  560400    306.34876   -1565.7031    457.23723    265.85117    -638.3387    36638.639 
  560500    297.65046   -1559.8817    459.15298    234.56667   -497.52981    36638.639 
  560600    291.75815   -1513.7181    479.08094    274.22461   -480.76349    36638.639 
  560700    305.52981   -1503.3765    477.30919    344.57587    -41.56426    36638.639 
  560800    298.95129   -1478.8252    461.51575     323.8217    8.8244024    36638.639 
  560900    309.18532   -1494.9248    492.18218    384.29953    138.86114    36638.639 
  561000    297.87885   -1504.5552    488.94478    320.70958    305.84309    36638.639 
  561100    310.98951   -1536.5754     473.4418    332.00243    67.208305    36638.639 
  561200    291.11534   -1452.5068    495.54792    349.01922    294.30021    36638.639 
  561300    297.43851   -1501.3622    483.38711    316.36956    417.23826    36638.639 
  561400    303.89681   -1476.8515    483.20481    369.67058    696.97806    36638.639 
  561500     288.9434   -1531.9835    481.00659     245.2576   -313.47142    36638.639 
  561600    310.90656   -1478.2043    487.49354    404.05311   -508.46455    36638.639 
  561700     296.4234   -1506.5042    519.05286    342.33937    587.31336    36638.639 
  561800    295.11498    -1522.872      456.776    257.82499   -132.37109    36638.639 
  561900    298.21961   -1500.0287    503.91843    341.73843    11.804886    36638.639 
  562000    304.56471   -1500.3846    488.06597    353.99493   -263.51729    36638.639 
  562100    289.66418   -1496.2321    465.72133    268.95729   -114.95203    36638.639 
  562200    295.58028   -1530.9814     504.9487    299.97565   -371.79193    36638.639 
  562300    301.63027   -1565.1399    478.03897    266.04837    313.08163    36638.639 
  562400    306.73425   -1570.8833    459.66244    264.82554    355.28645    36638.639 
  562500    302.50368   -1535.1973    496.81524     318.6855   -250.34257    36638.639 
  562600      303.356   -1484.3028    498.17726    374.76562   -253.82894    36638.639 
  562700    290.97182   -1513.9006    487.14861    278.58229   -378.78615    36638.639 
  562800    297.71193   -1541.2874    494.85173     289.1355   -777.21371    36638.639 
  562900    307.01526    -1542.856    474.36436    308.81544   -588.04284    36638.639 
  563000    302.64649   -1512.9668    489.85339    334.59482    -514.1172    36638.639 
  563100      307.842   -1549.9851     508.0613    339.09203   -550.30033    36638.639 
  563200    294.71909   -1577.6641    476.23198     220.7128     -192.939    36638.639 
  563300    302.13247   -1578.3572    490.09312    267.13814   -82.417161    36638.639 
  563400    295.73297   -1558.0832    486.37794    254.98803   -540.09816    36638.639 
  563500    295.58612   -1530.1838    476.91094    272.76169   -473.98265    36638.639 
  563600    291.83295   -1536.0837    495.02891    268.14259   -642.17259    36638.639 
  563700    299.34369   -1550.2815    486.59728    279.20724    169.24235    36638.639 
  563800    299.39395    -1504.108    511.74012      350.749    314.46046    36638.639 
  563900    299.36138   -1505.2943    494.61829     332.2948    202.18325    36638.639 
  564000    316.46232   -1488.0694    516.73666    448.35495   -68.744159    36638.639 
  564100    283.76268   -1478.2714    460.75004    255.47185    -207.2974    36638.639 
  564200    292.57148   -1536.9063    486.27919     261.8834   -272.14175    36638.639 
  564300    306.04583   -1561.5738     492.0779    303.46216    530.37947    36638.639 
  564400    299.46767   -1557.1767    480.45098    266.72186    232.27883    36638.639 
  564500     298.9807    -1566.342    493.44018    268.36128   -195.63881    36638.639 
  564600    293.53557   -1585.3132    464.69401    196.21631   -403.00689    36638.639 
  564700    304.17771   -1556.9358    480.45984    288.10147   -51.635329    36638.639 
  564800      306.975   -1593.4272    459.80724    243.50647   -791.84197    36638.639 
  564900    306.03368    -1555.669    488.02774     305.2623    22.744979    36638.639 
  565000    302.14723   -1586.1474    468.87925    238.20038    203.94142    36638.639 
  565100    295.44161   -1562.0654    477.17644    240.49728    169.16362    36638.639 
  565200    293.06352   -1563.9127    495.93375    246.73887    530.46061    36638.639 
  565300    292.94561   -1559.3568    468.56486    223.39698    564.44531    36638.639 
  565400    291.28509   -1555.0241    498.88266    250.59817    184.15007    36638.639 
  565500    301.73568   -1550.1473    455.22595    258.70086    226.16594    36638.639 
  565600    306.47566   -1547.7359    484.91052    312.06089    525.71861    36638.639 
  565700    304.16409   -1526.0274    502.52651    341.01543    580.10465    36638.639 
  565800    293.09798    -1535.898    449.44811    228.42256    453.43598    36638.639 
  565900    303.56448    -1555.558    461.47065    267.73908    329.19656    36638.639 
  566000    286.41181   -1555.9122    454.35541    183.32071   -50.969855    36638.639 
  566100    289.79415   -1514.2298    509.30271    295.12399   -233.51762    36638.639 
  566200    288.47519   -1532.4702    465.63436    227.29822   -492.02195    36638.639 
  566300    309.44298   -1514.0605    456.90121    331.03881    195.88123    36638.639 
  566400    293.10279   -1479.4836    494.48278    329.89324   -19.783344    36638.639 
  566500    310.78627   -1553.2647    465.17678    306.13632    9.2472528    36638.639 
  566600    312.11473   -1532.8136    456.82172    324.19197   -373.64637    36638.639 
  566700    309.19353   -1506.6938    445.46449    325.84968   -564.88022    36638.639 
  566800    292.62222   -1510.4182    482.09469    284.41462   -910.09102    36638.639 
  566900    302.54817   -1541.7573    465.43955    280.94933   -642.38196    36638.639 
  567000    305.80181   -1523.0577    472.88697    321.69265   -138.42711    36638.639 
  567100    300.04081   -1523.2951    479.79567    302.51936   -410.38976    36638.639 
  567200    310.10588   -1500.3511    476.54326    367.36412    70.281083    36638.639 
  567300    296.28832   -1534.6295    486.26411    280.81929    4.1999046    36638.639 
  567400    302.38683   -1526.0268     453.9765    284.49306   -248.27901    36638.639 
  567500    298.53673   -1519.0127    480.24465    300.50325   -157.64777    36638.639 
  567600    296.37351    -1506.972    517.52737    340.12226     21.85479    36638.639 
  567700    296.16388   -1491.1821     486.7075    324.15185   -1.9699261    36638.639 
  567800    305.03965   -1496.4821     492.2281    364.19019    383.37427    36638.639 
  567900     296.0377   -1499.0114    487.31512    316.36412    317.73167    36638.639 
  568000    310.49452   -1511.8717    488.38271    369.42643    205.02838    36638.639 
  568100     298.4596    -1524.103     479.2867    294.10899   -15.526968    36638.639 
  568200    307.59258   -1511.9867    478.77272    346.68302    285.19863    36638.639 
  568300    308.65873   -1523.2608    479.21143    340.63047   -326.20008    36638.639 
  568400    303.91205   -1514.3715    505.84981    354.86395   -480.41694    36638.639 
  568500    305.36383   -1541.7038    492.29906    320.49379   -823.01973    36638.639 
  568600     297.3933   -1538.2643    480.72239    276.59986   -136.58863    36638.639 
  568700    290.37443   -1537.3742    479.63079    244.91089    175.40107    36638.639 
  568800    293.77499   -1537.9035    493.75029    273.75639    656.60329    36638.639 
  568900    300.60441   -1521.3484    498.82261    326.02147    709.06753    36638.639 
  569000    298.06134   -1538.2372    486.74241    285.64393   -169.77569    36638.639 
  569100    287.32026   -1524.6195    501.36581    265.69923   -340.13772    36638.639 
  569200    302.28307   -1538.1432    468.81865    286.75329   -90.087014    36638.639 
  569300    297.07089   -1524.3813     474.1074     282.4215   -514.66032    36638.639 
  569400    299.65317    -1489.613    515.80144    370.46825   -247.32251    36638.639 
  569500    295.07813   -1524.0629    479.77831    279.47106   -706.65038    36638.639 
  569600    293.86497   -1513.4789    479.06703    283.90138   -516.27464    36638.639 
  569700    305.24063   -1503.6729    480.23356    345.90651   -191.96452    36638.639 
  569800    290.47925   -1512.1692     477.7636    268.71893   -516.36861    36638.639 
  569900    303.61666   -1482.5298     516.5906    396.12128   -592.79629    36638.639 
  570000    299.75329   -1486.2265    500.79806     359.3005   -572.47784    36638.639 
  570100    304.06593   -1504.3623    479.22846    338.94213   -129.53931    36638.639 
  570200    303.58856   -1491.0457    488.10484    358.99364   -319.46966    36638.639 
  570300    299.46175   -1511.7942    496.66897    328.29586    79.587881    36638.639 
  570400    305.39684    -1521.702    502.52708    350.87173    -198.8576    36638.639 
  570500    298.94317   -1517.8455     510.8697    334.11889     105.5077    36638.639 
  570600    297.54859   -1532.6929    508.67186     310.8174   -364.73499    36638.639 
  570700    309.31653   -1540.4823    472.59874    319.74726   -633.62734    36638.639 
  570800    302.12458   -1565.6499    456.77691    246.49385     -198.641    36638.639 
  570900    304.84634   -1584.4371    477.28869    260.42853     48.04915    36638.639 
  571000    300.36965   -1549.4927    496.05638    294.05775    232.17659    36638.639 
  571100    300.90053   -1538.6638    511.51033    322.72215   -296.75699    36638.639 
  571200    302.61214   -1560.6365    455.46774    252.38539   -657.94861    36638.639 
  571300    298.33921   -1565.9013    482.27042    254.75436   -778.94335    36638.639 
  571400     308.6549   -1548.6159    483.06323    319.11003   -522.56609    36638.639 
  571500    308.84452   -1550.7338    490.26611    325.04568    2.7622813    36638.639 
  571600    293.67048   -1578.8885    479.29211    217.84436    6.9755805    36638.639 
  571700    296.52773   -1590.6532    460.41378     200.0193   -26.945263    36638.639 
  571800     284.2138   -1565.5379    467.47101    176.95009    609.56123    36638.639 
  571900     306.5864   -1591.1588    486.09976    270.32407    1089.7604    36638.639 
  572000     290.4365   -1572.3928    479.39966    209.93965    491.86248    36638.639 
  572100    300.03229   -1568.9326     492.3249    269.37288    760.72437    36638.639 
  572200    295.30024   -1553.5077    460.28982    231.53422     382.2418    36638.639 
  572300    302.65975   -1565.2569    456.02005    248.53081    2.5591021    36638.639 
  572400     305.5034   -1574.3935    502.42162    298.55277    482.61117    36638.639 
  572500    291.42312   -1561.5886    473.86189    219.63211    204.19762    36638.639 
  572600    307.67414   -1590.7391    494.73684    284.26059    145.59432    36638.639 
  572700    292.94386   -1562.2776    483.52785    235.43129   -171.21902    36638.639 
  572800    308.73071   -1526.2438    501.00834     359.7673    222.92635    36638.639 
  572900    296.92604   -1514.1131    496.72019    314.65268    58.957822    36638.639 
  573000    305.47753   -1557.2189    488.85984    302.04948    11.119102    36638.639 
  573100    295.87902   -1596.5222    486.78878    217.61514   -268.38817    36638.639 
  573200    289.31831   -1582.8522    500.03476    215.09898    46.580205    36638.639 
  573300    296.84971   -1624.2988    444.99795    152.40231    260.80949    36638.639 
  573400    302.50015   -1587.7124    467.53546    236.87476   -465.00331    36638.639 
  573500    302.42396   -1534.9485     482.7055     304.4669   -534.52731    36638.639 
  573600    297.09396   -1617.3251    476.40539     191.8792     105.6683    36638.639 
  573700    299.42571   -1620.9728    441.96859    164.25523    402.89473    36638.639 
  573800    295.30099   -1626.6161    475.21614     173.3555    638.86802    36638.639 
  573900    303.96756   -1607.9352    490.17842    245.87795    152.12294    36638.639 
  574000    301.31994    -1608.786    480.99438    223.96549   -222.48359    36638.639 
  574100    288.10144   -1630.2742    483.53554    145.71871   -351.67317    36638.639 
  574200    304.20868   -1586.9628    492.31007    270.06369   -685.96427    36638.639 
  574300    309.27996    -1580.893    486.50144    293.07524    -307.7222    36638.639 
  574400    308.14091   -1554.9422    488.39072     315.8053   -439.18575    36638.639 
  574500    303.28759   -1541.3131    473.84931    293.12046    15.771944    36638.639 
  574600    294.47864   -1617.8673    477.19903    180.39801   -95.800593    36638.639 
  574700    295.04321   -1553.7955    459.81328    229.61677    151.04576    36638.639 
  574800    291.00537   -1566.8187    503.34049    242.00656    397.72335    36638.639 
  574900    302.66978   -1579.3156    481.46365    259.96076    342.37654    36638.639 
  575000    293.85618   -1571.5331    495.63368    242.37442   -328.57795    36638.639 
  575100    301.59385   -1578.8912     495.9644    270.05918   -84.439099    36638.639 
  575200    304.94972   -1583.0507    456.86661    241.85663   -313.16429    36638.639 
  575300    292.25476   -1597.8279    515.22401    228.48574    81.795178    36638.639 
  575400    296.14393   -1583.7112    475.12701    219.95279   -231.36684    36638.639 
  575500    304.18801   -1631.1649    473.67768    207.13649   -357.43364    36638.639 
  575600    307.16443   -1615.3323    461.33878    223.98273   -130.88045    36638.639 
  575700    291.90634    -1589.269     456.8459    177.10349    -321.8662    36638.639 
  575800     300.7733   -1671.4571    459.24652     137.0943   -361.83472    36638.639 
  575900    305.40265    -1613.609    497.90375     254.3674   -19.120195    36638.639 
  576000    300.46627    -1640.631    445.60451    152.90098   -108.62922    36638.639 
  576100     298.9778   -1598.3625    489.56019    232.44769     358.7141    36638.639 
  576200    301.77124   -1608.5519    467.41721    212.64702    855.10081    36638.639 
  576300    308.11071   -1638.2033    475.43367    219.45174    806.72638    36638.639 
  576400    309.68082   -1641.5363    494.80119    242.52994    851.67923    36638.639 
  576500    290.11142   -1631.1871    478.32588    148.61314    318.74075    36638.639 
  576600    302.33093    -1618.206    477.71013    215.79667    317.50572    36638.639 
  576700    299.60624    -1582.914     484.9814     246.1367   -308.74196    36638.639 
  576800    305.20653   -1551.5875    491.96689    309.57223    282.80915    36638.639 
  576900    290.50676   -1542.4342    504.09082    264.90451    107.19703    36638.639 
  577000    304.63415   -1565.8294    495.04496    295.84063    59.091312    36638.639 
  577100    288.99089   -1515.3133    495.29393    276.42816    167.31497    36638.639 
  577200    309.32008   -1519.9703    502.12017    369.79657    419.11931    36638.639 
  577300    302.86906   -1557.5537    473.41834    274.57137     908.2757    36638.639 
  577400    293.28142   -1539.8094    487.70123    263.58717    1042.6835    36638.639 
  577500    301.72497   -1552.2678    490.11688    291.42327    436.77582    36638.639 
  577600    312.67798   -1543.0209    522.77643    382.46624    807.93579    36638.639 
  577700    294.17312   -1562.7096    472.55618     229.5423    441.46557    36638.639 
  577800    305.83112   -1617.5577    498.83249    253.26959    699.76905    36638.639 
  577900    295.68019   -1575.6721    486.21384    236.99827    437.34922    36638.639 
  578000    292.37293   -1558.0751    472.01702    225.56169   -89.639252    36638.639 
  578100    291.73129   -1614.4406    476.69459    170.99533   -256.73309    36638.639 
  578200    297.40412    -1612.342     478.4482    200.29649   -572.00066    36638.639 
  578300    298.86561   -1580.5221    476.40636      236.631    59.227162    36638.639 
  578400    300.64778   -1599.1932    470.52874    220.07733   -225.50672    36638.639 
  578500    304.01787   -1550.6372    499.85753    313.08077   -523.77115    36638.639 
  578600    307.24992    -1567.938    465.51004    275.93174   -978.53367    36638.639 
  578700    298.19079   -1573.4449     461.4292    225.70373   -738.07769    36638.639 
  578800    284.53952   -1581.9945    473.94341    168.42704   -393.69407    36638.639 
  578900    288.89781   -1568.0283    484.74208    212.74378   -371.10291    36638.639 
  579000    283.17492   -1537.7143    478.29844     210.9405    234.06957    36638.639 
  579100    303.66103    -1555.885    461.85113    268.22569    655.04028    36638.639 
  579200     301.3806   -1567.3743    493.51761    278.17259    827.88032    36638.639 
  579300    297.08017    -1569.297    466.69517    230.13523     1054.006    36638.639 
  579400    302.90983   -1610.6556    484.39737    232.63136    449.30125    36638.639 
  579500    308.94477   -1576.3133    450.27997    259.92971   -24.816306    36638.639 
  579600     294.9924   -1558.4804    477.40658    242.29719   -193.41756    36638.639 
  579700    302.76344   -1559.0971    505.76955    304.90536    110.52149    36638.639 
  579800    295.37464   -1575.6374    477.17862      226.627    130.32496    36638.639 
  579900    301.78905   -1606.8059    456.16475    203.22047   -6.3666851    36638.639 
  580000    308.10404   -1574.3296    486.07056    293.93241   -573.09527    36638.639 
  580100    297.38903   -1563.3209    436.64487    207.44661   -408.11021    36638.639 
  580200      290.819   -1542.6253    469.38384     231.4072   -458.32066    36638.639 
  580300    292.96739   -1567.3178    451.31436    198.28318   -82.591219    36638.639 
  580400     299.2241    -1547.637    492.34467    287.06259   -144.04068    36638.639 
  580500    301.13708   -1540.4851     466.2267    276.67843   -199.32812    36638.639 
  580600    312.46911   -1526.4148    484.06967    359.42847    559.69046    36638.639 
  580700    301.70768   -1591.4199    486.67816    248.75487   -784.57848    36638.639 
  580800    299.02825   -1532.3518    479.90836     289.0329    390.25604    36638.639 
  580900    304.43498   -1529.9996    476.91318    312.64521    3.4136203    36638.639 
  581000    302.44283   -1589.4531    476.18821    243.52965    345.08968    36638.639 
  581100    295.08072   -1610.0235    471.37078    185.11453    579.07281    36638.639 
  581200    310.37775   -1591.4744      470.459    271.37622    591.96006    36638.639 
  581300     296.5426   -1563.1639    469.63516    236.79668    509.04426    36638.639 
  581400    299.44832    -1588.458    458.45072    213.35355    569.75123    36638.639 
  581500    293.65866   -1584.0989    490.31694    223.60577    33.318955    36638.639 
  581600     305.3081   -1563.0135    469.59656    276.23159   -328.33053    36638.639 
  581700    299.84699   -1565.4943    442.79706    222.45206   -46.187628    36638.639 
  581800    287.71316   -1548.7407    461.16017    203.13499    91.279224    36638.639 
  581900    296.76379   -1502.3462    506.83858    335.81011    41.848616    36638.639 
  582000     296.5093   -1541.6691    492.17432     280.6812    508.86221    36638.639 
  582100    303.42015    -1544.077    466.13573    283.23769    48.099008    36638.639 
  582200    299.47591   -1539.5553    489.27563    293.20492    38.328953    36638.639 
  582300    299.12365   -1595.7202    456.23707    202.42121   -9.5253337    36638.639 
  582400    304.31091   -1544.3449    478.13708    298.96716   -582.00856    36638.639 
  582500    302.87618    -1555.451     466.5803    269.86797    80.353209    36638.639 
  582600    302.31943   -1556.0512    469.30423    269.49403    2.4420642    36638.639 
  582700    293.20841   -1568.1919    488.93877    236.11472     152.6654    36638.639 
  582800    302.16328   -1538.3307    499.73819    316.94797    140.93996    36638.639 
  582900    303.22872   -1547.2197    491.93266    305.03314    908.67921    36638.639 
  583000    293.19646   -1597.5217    473.86193    191.65443    374.31978    36638.639 
  583100    297.64421   -1578.1199     487.8942    245.04165   -67.751665    36638.639 
  583200    302.18784   -1579.1016    469.81297    246.36205   -62.397365    36638.639 
  583300    297.19394   -1577.4815    497.56125    253.32716   -532.98905    36638.639 
  583400    287.46254   -1526.8048    489.37492    252.16134   -1090.6306    36638.639 
  583500    318.51591   -1540.8346    480.23359    368.29937   -468.48261    36638.639 
  583600    298.32283    -1537.557    502.06717    302.82188   -597.96171    36638.639 
  583700    303.76973   -1576.2728    482.02102    268.49545    321.57697    36638.639 
  583800    290.14794    -1612.834    469.39875      158.203    734.33784    36638.639 
  583900    299.05276    -1602.515    478.50694    217.57826    123.77616    36638.639 
  584000     291.5508   -1615.0171    476.05157    168.96604   -101.37278    36638.639 
  584100    302.29167   -1606.0665    490.94297    240.99297    533.12167    36638.639 
  584200     302.6701   -1609.1891    494.52476    243.14983    535.97487    36638.639 
  584300    282.65651   -1609.8675    462.60645    120.76974    451.42001    36638.639 
  584400    295.06749   -1578.6618    470.56575    215.61187    636.90925    36638.639 
  584500    302.74313   -1615.8258    514.13266    256.44866    969.45885    36638.639 
  584600    292.29965   -1589.5744    453.60339    175.32006    -73.91679    36638.639 
  584700    300.01381   -1586.1677    462.47008    222.20004    53.898322    36638.639 
  584800    305.05778   -1551.2271    534.79541    352.09387    338.27795    36638.639 
  584900    305.58969   -1590.8476    466.20168    246.26581    368.77592    36638.639 
  585000    298.66795   -1595.9882    484.75698    228.62877   -375.79794    36638.639 
  585100    306.28786   -1565.7558    462.60916    270.89714    451.35027    36638.639 
  585200     301.2843   -1590.6551    498.80811    259.75027    255.01592    36638.639 
  585300    297.20701   -1567.7975    465.50614    231.01475    388.56261    36638.639 
  585400    303.93145   -1550.2819    497.06283    310.25366   -327.91911    36638.639 
  585500    304.32913   -1551.5973    487.59204    301.25148    193.08455    36638.639 
  585600    290.69188   -1560.6952     488.8364    232.21959   -136.57047    36638.639 
  585700    290.26483   -1542.0865    475.58364     235.6598   -249.60471    36638.639 
  585800    302.82192   -1551.6465    467.46525    274.31391   -256.24026    36638.639 
  585900      296.818   -1558.3172    474.46676    247.71047    -197.9355    36638.639 
  586000    300.44614   -1562.7879    459.31291    244.36219    678.64048    36638.639 
  586100    314.10043    -1541.368    478.29502    346.01896    593.40893    36638.639 
  586200    306.66483   -1559.1619    479.66916    296.24228    300.51569    36638.639 
  586300    301.45353   -1535.1423    471.78802    289.00218    -181.2096    36638.639 
  586400    301.56635   -1536.8416    468.61241    284.63337    218.38855    36638.639 
  586500    296.60428   -1552.7786    489.90882    267.73237   -443.77228    36638.639 
  586600    308.69691   -1588.9079    480.28751    276.23074     261.3841    36638.639 
  586700    314.06939   -1558.6146    469.41858    319.75671    276.54209    36638.639 
  586800    293.04231   -1532.9397    522.86923    304.55221    129.44656    36638.639 
  586900     301.9125   -1536.2825     458.2746    276.40749    44.726354    36638.639 
  587000    310.10707   -1571.0004    497.41298    317.58986    232.75307    36638.639 
  587100    298.60198   -1580.8154    486.82573    245.57435    429.10259    36638.639 
  587200     295.9065   -1549.7827    475.13177    252.82085    512.10867    36638.639 
  587300    310.28011   -1565.3199    460.80763    287.44128    682.41852    36638.639 
  587400    306.61251   -1594.0725    471.51406    252.94177    244.38693    36638.639 
  587500    295.71367   -1567.4376    475.44448    234.61362    39.622592    36638.639 
  587600    303.18036   -1537.4563     512.6476    335.29445    148.39692    36638.639 
  587700    298.83398   -1541.3401     474.3415    273.60625    286.07016    36638.639 
  587800    310.58557   -1541.2823    482.23856    334.28017    472.02401    36638.639 
  587900    303.35167   -1495.6486    497.67284    362.89592    891.91108    36638.639 
  588000    301.27924   -1566.1804    454.91679      240.311     45.00787    36638.639 
  588100    294.54714   -1543.7275    485.83429    263.48037    21.024516    36638.639 
  588200    308.58117     -1550.81    473.26007    306.78194    29.307735    36638.639 
  588300    301.82929   -1504.2382    478.37016    328.17411   -221.37148    36638.639 
  588400    297.27877   -1547.3986    457.18454    243.41393    229.92257    36638.639 
  588500    302.55264   -1569.8965    482.37938    269.77006    33.190613    36638.639 
  588600    301.81699   -1562.0749     470.5181     262.4302    214.47726    36638.639 
  588700      305.914   -1525.3748    486.04923    333.04105    358.75917    36638.639 
  588800    304.83927   -1533.4581     482.9226    317.00976    24.030531    36638.639 
  588900    291.35108   -1564.8194    489.90383     232.1201   -445.91023    36638.639 
  589000    298.26351   -1556.4687    471.62226    253.19918   -339.54643    36638.639 
  589100    297.24899   -1568.7913    488.77035    253.47348   -403.77636    36638.639 
  589200    310.07334   -1534.3209    475.29111    331.99614    -239.6477    36638.639 
  589300    289.29577   -1540.6032    476.95642    234.16852   -177.68587    36638.639 
  589400    299.71683   -1534.8332    492.47299    302.20522    -355.9848    36638.639 
  589500    302.12786   -1536.4167    499.22927    318.19419    592.05768    36638.639 
  589600    296.01761   -1518.6913     502.9083     312.1873    269.87642    36638.639 
  589700      304.995   -1547.5731    459.29307    279.96388    223.79665    36638.639 
  589800    301.56612    -1538.196    499.12734     313.7929     350.2515    36638.639 
  589900    293.66117   -1599.1638    492.72198    210.95716    530.15006    36638.639 
  590000    299.29283   -1554.5721    508.69395     296.7852    230.92945    36638.639 
  590100    301.66394   -1584.5408    470.94853    239.70811    365.70448    36638.639 
  590200    307.48067   -1544.4072    516.30024    351.28793   -132.59282    36638.639 
  590300    302.93413   -1565.6508    487.43404    280.78186    -455.0834    36638.639 
  590400    297.95414   -1526.0954    479.79797     290.3603   -246.18096    36638.639 
  590500    308.09412   -1561.6337    491.35306    311.86632   -407.04864    36638.639 
  590600    298.13046   -1583.2642    483.72532    237.90988   -651.83235    36638.639 
  590700    295.17679   -1551.8776    492.87277    265.19343    59.719771    36638.639 
  590800    289.83565   -1508.5805    483.97278    275.62955   -368.64787    36638.639 
  590900    304.66209   -1572.3752    486.58856    280.96384    134.64792    36638.639 
  591000    298.62541   -1593.4204    471.25695    217.50564    121.99084    36638.639 
  591100     304.2783   -1629.8933    485.40591    220.54126     725.4284    36638.639 
  591200    299.70411   -1605.6235    487.74344    226.62831    219.05604    36638.639 
  591300    295.73887   -1574.1914    492.38392    244.91238    785.57374    36638.639 
  591400    298.05906   -1567.2218    494.73937    264.64599    906.58772    36638.639 
  591500    290.28277   -1597.5697    496.75791    201.43132     549.4424    36638.639 
  591600    299.19954   -1624.7188    481.09291    198.61894    673.47587    36638.639 
  591700    302.88295   -1618.6482    473.67501    213.79586    117.74289    36638.639 
  591800    299.13625   -1578.7216    483.95303    247.19232    314.59848    36638.639 
  591900    305.18738   -1593.2447    466.87592    242.73816    911.20639    36638.639 
  592000     308.7671   -1558.7173    456.21999    282.66866    594.27958    36638.639 
  592100    296.73769   -1557.5375    491.77177    265.43494    136.64233    36638.639 
  592200    295.26415   -1546.1473    448.44769    226.89058    -179.7207    36638.639 
  592300    302.18223   -1570.5214    503.42438    288.52844    -123.7836    36638.639 
  592400    303.52242   -1545.1003    495.55688     312.0943    371.04524    36638.639 
  592500    305.29667   -1543.4917    507.54688    333.65241    565.73015    36638.639 
  592600      303.638   -1556.3222    475.35794    281.19201    480.69814    36638.639 
  592700    302.03821   -1555.1554    482.18034    282.00434    12.423148    36638.639 
  592800    294.19101   -1550.3696    472.23842    241.64471    45.990247    36638.639 
  592900    306.95287   -1575.6206    490.88628    292.29282   -3.5446552    36638.639 
  593000    291.31195   -1571.4007    480.25775    215.71713     -74.1667    36638.639 
  593100    300.64666   -1572.5041    486.76121    262.99386    192.87764    36638.639 
  593200    305.91738   -1561.3359    507.30905    318.35495    680.10931    36638.639 
  593300     297.4951   -1532.0574    492.82857    295.36962    104.96021    36638.639 
  593400    304.92394   -1532.6095    524.91714    360.23277   -148.38526    36638.639 
  593500    297.94477    -1615.885    495.99988    216.73057   -113.29358    36638.639 
  593600    302.21714    -1604.142    474.79392    226.43397    250.00748    36638.639 
  593700    307.77884   -1576.4696    509.80051    314.06347    141.15457    36638.639 
  593800     308.3076    -1530.956     512.4811    364.62969   -117.20475    36638.639 
  593900    302.62483   -1567.8247    474.30865    264.09498    101.81955    36638.639 
  594000    303.19852   -1532.5811    469.92413    297.52773   -366.71318    36638.639 
  594100    302.75232   -1503.7862    498.76808    353.16491   -262.37815    36638.639 
  594200    293.14455   -1552.3856    494.95344    257.64922   0.89517281    36638.639 
  594300     295.3077   -1541.4363    519.92586    303.27506   -465.91966    36638.639 
  594400    305.73496   -1529.6883    491.72634    333.60147    28.794571    36638.639 
  594500     304.2622   -1535.4376    528.73067    358.24956    452.14698    36638.639 
  594600    305.01924   -1499.3121    513.87556     382.9161    493.50339    36638.639 
  594700    302.45993   -1509.8942    505.66612    352.64318   -95.941832    36638.639 
  594800     313.3096   -1530.8654    491.91654    366.59537   -410.12518    36638.639 
  594900    291.04948    -1538.383    504.27602     271.5757   -591.47253    36638.639 
  595000    301.10248   -1509.0223    488.52326    330.28256   -146.31256    36638.639 
  595100    298.22313    -1527.078    495.80841    306.59488   -475.87396    36638.639 
  595200    306.02748   -1513.6132    463.13874    322.40127   -463.09765    36638.639 
  595300    300.36645   -1529.3942     545.0557    363.14118   -391.48857    36638.639 
  595400    311.62224   -1538.0021    485.10829    345.08069     -473.914    36638.639 
  595500    298.07978   -1518.5482    509.78546     328.4587    -558.0248    36638.639 
  595600    310.10986   -1565.7959    498.06709    323.46103   -229.23553    36638.639 
  595700    307.93158   -1570.2341    496.99659    308.18026   -51.821109    36638.639 
  595800    297.30242   -1578.1739    541.00862    296.56885    271.29456    36638.639 
  595900    292.12393   -1546.3471    519.80054    283.95618    192.57067    36638.639 
  596000     298.5676   -1593.9439    498.20124    243.66718    162.52275    36638.639 
  596100     304.9631   -1623.6583    485.96975    230.41225    55.404521    36638.639 
  596200    303.06045   -1576.2745    472.52962    255.82045    241.09656    36638.639 
  596300    298.98023    -1595.458    492.14697    237.94995   -385.88215    36638.639 
  596400     308.3875   -1600.9438    503.65359    286.17278    -638.1619    36638.639 
  596500    297.40621   -1651.1396     475.9096    158.96966   -15.995504    36638.639 
  596600    301.65737   -1626.9956    478.32164    204.59689    79.301081    36638.639 
  596700    297.18621   -1557.7512    495.52034    270.98194    33.280372    36638.639 
  596800    299.51622   -1584.9325    503.78102    262.51396   -97.701717    36638.639 
  596900    300.98665   -1577.2502    480.68739    253.69919    602.04474    36638.639 
  597000    304.85014   -1592.4759    503.13909    278.25718   -350.60086    36638.639 
  597100     308.5115   -1580.2163     466.3962    270.19926    113.42026    36638.639 
  597200    303.98946   -1537.2293    489.32683    315.83051     -165.626    36638.639 
  597300    297.95098   -1548.8704    476.50707    264.28031   -810.48484    36638.639 
  597400     292.2071   -1557.4638    503.70495    257.11698   -688.52748    36638.639 
  597500    303.70642   -1571.3983      486.992    278.05692   -247.17549    36638.639 
  597600    292.48921   -1591.7757    485.22978    205.59549    -562.7684    36638.639 
  597700    303.53136   -1574.3842    513.93966    301.23327    316.30831    36638.639 
  597800    302.66375   -1577.4655     504.8092    285.12934    316.76323    36638.639 
  597900     299.6228   -1574.2196    515.47372     285.3977    728.63244    36638.639 
  598000    297.54048   -1560.7116    470.64677    244.73716    838.49531    36638.639 
  598100    293.64966   -1579.0133    476.64186    214.97596     116.3978    36638.639 
  598200    292.38347   -1602.7101    497.33592    206.29293   -147.34307    36638.639 
  598300    300.51565   -1589.5992    467.70404    226.25388    235.31554    36638.639 
  598400     300.3404   -1554.7356    509.04664    301.67383   -300.96691    36638.639 
  598500    304.54377   -1574.4453    483.54884    275.32314   -168.54899    36638.639 
  598600    302.14185   -1573.6189    495.27859    277.10407    17.995281    36638.639 
  598700    300.36655   -1573.8199    499.37233     273.0326   -87.306558    36638.639 
  598800    314.93847   -1594.2822    471.76529    290.33457   -388.89787    36638.639 
  598900    296.23826   -1555.2068    497.24785    271.00117   -668.48055    36638.639 
  599000    301.51413   -1570.4139    487.06425    269.27865   -766.26068    36638.639 
  599100    301.75718   -1578.4682    502.75225    278.00272   -433.87038    36638.639 
  599200    310.59591    -1550.631    493.32149    336.06069   -771.86999    36638.639 
  599300    312.47709   -1569.8591    503.92604    335.87645   -465.54205    36638.639 
  599400    294.20167   -1558.3806    474.91501    236.35821   -115.56934    36638.639 
  599500    306.10683   -1598.6319    498.64203    273.24178    495.28534    36638.639 
  599600    292.32895   -1596.7678    514.03179     228.6865   -10.617502    36638.639 
  599700    307.96345   -1558.3703    502.15709    325.34748   -317.93486    36638.639 
  599800     291.0419   -1541.4947    520.52535    284.67926   -143.87015    36638.639 
  599900    289.90103   -1543.5697    516.76394    273.72483    365.12264    36638.639 
  600000    300.98376   -1516.2827    509.53793    343.50425      28.0559    36638.639 
  600100     302.7623   -1534.2612    502.86399    326.83058    -584.5962    36638.639 
  600200     293.5068   -1474.0318    513.67217    356.34689    -466.2059    36638.639 
  600300    302.79226   -1559.0423    494.69555    294.01544   -499.34573    36638.639 
  600400    299.18147   -1602.3065    518.73652    258.59374    -1259.591    36638.639 
  600500    310.83692   -1573.3066    493.01006    314.15492   -1017.8697    36638.639 
  600600    297.54812   -1564.7545    485.89285    255.97465    -388.0742    36638.639 
  600700    301.64993     -1598.77    478.51887     232.9864   -552.67271    36638.639 
  600800    286.87923   -1599.3074    514.73446    202.40148   -793.56451    36638.639 
  600900    301.92569   -1557.2195    501.67627    298.93138   -314.66301    36638.639 
  601000    297.19927   -1538.6668    507.70978    302.31429   -22.728193    36638.639 
  601100    296.50794    -1548.077     462.1159    244.20884   -34.068542    36638.639 
  601200    299.75146   -1556.2663    545.58855    334.04305    139.02402    36638.639 
  601300    301.31883   -1542.2452    477.71367     287.2206    313.13707    36638.639 
  601400    304.81116   -1528.8541    507.89536    346.46039   -114.02291    36638.639 
  601500    291.67953   -1571.5932    473.18972    210.10566   -111.44685    36638.639 
  601600    296.42963   -1571.8005    506.66863    264.68677   -137.67594    36638.639 
  601700    287.86388   -1586.4772    498.70623    203.62069    -746.2283    36638.639 
  601800    305.28938   -1596.0966    481.33436    254.80227   -302.41762    36638.639 
  601900    297.76132   -1588.0811    500.50564    248.21729   -325.24773    36638.639 
  602000    298.93358   -1537.4139    485.98236    289.62011   -448.43682    36638.639 
  602100    300.81939   -1539.6643    497.86893     307.7163   -602.71332    36638.639 
  602200      304.023    -1576.545    459.79639     247.1348   -458.18534    36638.639 
  602300    304.94418   -1561.8627    505.51214    311.66538    355.02998    36638.639 
  602400    309.75384   -1580.8961    492.72867    301.42522    413.29125    36638.639 
  602500    291.38094   -1572.7205     509.4606    243.90967    953.78849    36638.639 
  602600    305.72779   -1550.3731    505.80581    326.96394    1483.1182    36638.639 
  602700    285.23328   -1559.8553    521.51626    241.25145    581.51744    36638.639 
  602800     309.9551   -1510.4015    495.76046    375.85446    556.16674    36638.639 
  602900    300.13546   -1531.6853    496.88778    311.64589    657.92283    36638.639 
  603000    307.34757   -1563.0123    474.78017    290.56564   -181.36364    36638.639 
  603100     304.7215   -1531.2152    464.13607    299.93785   -59.212523    36638.639 
  603200    300.33382   -1523.8465    489.01152    312.49831   -250.16841    36638.639 
  603300    311.08953   -1529.3891    476.14403    342.33961   -534.37339    36638.639 
  603400    294.72735    -1565.781    496.93661    253.33763    -508.2922    36638.639 
  603500     308.9589   -1580.7706    490.76809    296.02394   -90.738862    36638.639 
  603600    305.56133   -1558.2681    487.48035    299.99674   -245.51723    36638.639 
  603700    294.98078   -1546.7099    488.15314    264.76218   -152.73508    36638.639 
  603800    304.97736   -1590.5359    471.24344     248.8723    415.86113    36638.639 
  603900    301.72066   -1564.2871     497.6154     286.8832    625.77216    36638.639 
  604000    299.84369   -1566.3578    504.55114    283.32787     454.2569    36638.639 
  604100    306.28192   -1579.4513    488.45908    283.02502    229.26732    36638.639 
  604200    296.28677   -1594.6758    484.19154    218.69347    129.86439    36638.639 
  604300    305.90887   -1584.0104    507.09675    295.42993    2.4595733    36638.639 
  604400    291.65085   -1549.0723    506.41419    265.72237    331.39194    36638.639 
  604500    302.93076   -1577.6038     484.3572    265.73682    154.78203    36638.639 
  604600    294.83992   -1561.8716     489.1198     249.9352    315.11721    36638.639 
  604700    297.81909   -1571.7287    478.87603    243.19924    266.44747    36638.639 
  604800    301.90311   -1563.4308    499.70342    290.64596    90.598322    36638.639 
  604900    291.96449   -1559.7881    471.80249    221.80189    244.01163    36638.639 
  605000    304.20649   -1540.9018    521.81805    345.62276    498.11441    36638.639 
  605100    298.40211   -1548.8102    491.57186    281.42911    361.99169    36638.639 
  605200    302.23698   -1592.0228    494.82333    258.67168    173.11071    36638.639 
  605300    310.26893   -1576.9286    501.22392    316.19868    500.88208    36638.639 
  605400    303.50374   -1561.9238    511.51882    311.14901    708.75337    36638.639 
  605500    311.99162   -1573.1606    495.27099    321.74192    758.79835    36638.639 
  605600     294.1439   -1571.3371    486.27875    234.50622     310.7928    36638.639 
  605700    305.49706   -1600.2254    500.70308    270.97387     1154.094    36638.639 
  605800    301.56867   -1558.2173    495.43367    290.08937    603.98256    36638.639 
  605900    294.78369   -1564.1519     499.1896     257.4724    147.23317    36638.639 
  606000    301.15189   -1569.6768    498.36984     279.6963    -138.0264    36638.639 
  606100      292.605   -1539.6056    487.95852    261.01381   -506.44602    36638.639 
  606200    294.45799   -1577.6662    522.26442    265.57188    2.1520595    36638.639 
  606300    303.60585   -1595.0465    468.44202    235.40754   -64.473371    36638.639 
  606400    297.18367   -1546.3796    470.36732    257.18909    143.74977    36638.639 
  606500    288.96205   -1589.3947     487.5899    194.51334   -159.66352    36638.639 
  606600    300.30382   -1505.6097    498.53928    340.12828   -56.353021    36638.639 
  606700    302.25637   -1534.4678    475.81686    297.30717    161.49302    36638.639 
  606800    297.34325   -1550.5998    454.71074    238.02819   -184.11333    36638.639 
  606900    301.89624      -1574.4    502.27896    282.22145   -211.05692    36638.639 
  607000    298.10174   -1538.8107    488.76459    287.27381   -282.07648    36638.639 
  607100    296.69234   -1559.0754     491.5331    263.45486   -362.57113    36638.639 
  607200    301.30809    -1524.448    499.09986    326.35587    359.73024    36638.639 
  607300    299.59127   -1522.2729    489.36124    311.09047   -297.88227    36638.639 
  607400    298.69893   -1557.4428    493.72257    276.27873   -234.74608    36638.639 
  607500    304.67383    -1506.726    495.19573    355.27281   -138.49414    36638.639 
  607600    298.65872   -1526.3597    502.92555    316.38451   -286.95336    36638.639 
  607700     295.9023   -1523.6562    490.12479    293.92157    132.44767    36638.639 
  607800    287.89438   -1465.3448    504.62944    330.81315    60.390171    36638.639 
  607900    304.35687   -1538.4636    486.22522    313.14282   -222.06186    36638.639 
  608000    295.21985    -1531.021    479.97963    273.35002    139.80182    36638.639 
  608100    306.32025   -1513.7559     508.8825    369.31574   -11.460105    36638.639 
  608200    314.25888   -1531.8824    470.75559    348.67595    531.66594    36638.639 
  608300    303.23535   -1531.8834     481.5946    310.06112    81.598371    36638.639 
  608400    299.74454   -1521.0515    478.33779    301.97605    93.409286    36638.639 
  608500    293.66796   -1523.3715     502.6726    296.73053     446.9056    36638.639 
  608600    297.12333   -1513.0155    526.00278    345.91798    756.32393    36638.639 
  608700    306.40657   -1537.7222    479.28482    316.13897    749.77024    36638.639 
  608800    302.96472   -1549.2879    495.58547    305.43345    1125.1729    36638.639 
  608900    304.44126   -1534.1003    487.22681    318.88623    401.52711    36638.639 
  609000    296.28942   -1544.0398    491.85579     277.0056    884.93948    36638.639 
  609100    304.14588   -1583.2234    461.66079    242.87201      217.179    36638.639 
  609200    297.48454   -1546.7539     481.3017    269.09892   -169.31017    36638.639 
  609300    305.79399   -1533.0491    467.83311    306.61228    236.06949    36638.639 
  609400    305.31989    -1533.651    494.59915    330.64959   -308.72379    36638.639 
  609500    296.99531   -1509.2654    496.00855    319.09952    64.057296    36638.639 
  609600    299.37017   -1546.3954    476.73811    273.35294   -491.54076    36638.639 
  609700    309.11592   -1555.7153    476.77289     307.7884   -697.30683    36638.639 
  609800    305.90053     -1552.17    487.09136    307.22754   -129.05588    36638.639 
  609900    301.32982   -1599.7891    482.15222    234.16458    426.75148    36638.639 
  610000     295.8769   -1649.6811     483.8665    161.52436    251.62784    36638.639 
  610100    296.68634   -1601.7633    504.60464    233.81158    403.80747    36638.639 
  610200    303.21842   -1553.4722    490.11361    296.91541   -156.35135    36638.639 
  610300    307.89651   -1536.0297    474.00382    319.23453   -457.99715    36638.639 
  610400    294.06657   -1553.9312     475.1831     240.4696   -384.06667    36638.639 
  610500    298.92564   -1570.8116    463.34349    233.54796   -622.21459    36638.639 
  610600      295.827   -1551.1962     478.9071    254.82609   -636.50574    36638.639 
  610700    302.09533   -1536.2769    489.70712    308.66591   -264.33856    36638.639 
  610800    292.27164   -1584.8171    504.48037    230.82861     22.73533    36638.639 
  610900    300.87749    -1576.425    477.76119    251.10843   -52.407561    36638.639 
  611000    300.70238   -1575.3703    470.52622    244.14267   -48.431276    36638.639 
  611100    306.88504   -1539.7621    500.85854    337.81926   -642.62231    36638.639 
  611200    295.86713   -1572.7436    490.07905    244.63069   -1037.5718    36638.639 
  611300    296.71867   -1551.2236    485.09541    264.98708   -156.01581    36638.639 
  611400    296.15412   -1586.0225    486.69818    229.25836   -267.50467    36638.639 
  611500    303.25154   -1574.7692    489.67403     275.3274    -355.5783    36638.639 
  611600    301.52843   -1542.8942     508.9283    318.72657   -105.55368    36638.639 
  611700    293.09425   -1540.6431    478.95389    253.16655   -19.683402    36638.639 
  611800    306.63531   -1541.5809    479.62319    313.64484   -262.99468    36638.639 
  611900    295.97209   -1583.3091    484.43101      228.888    103.80639    36638.639 
  612000    294.39153   -1569.1744    483.35038    234.85151   -399.56049    36638.639 
  612100     290.0985   -1531.5951    464.40979    234.23112   -1273.3582    36638.639 
  612200    302.54108    -1526.177     520.9746    352.03289   -892.87641    36638.639 
  612300    290.16119   -1557.3906    489.18544    233.49249   -268.72987    36638.639 
  612400    296.91779   -1540.1804      507.164    298.99222    257.73906    36638.639 
  612500    298.78307    -1524.187    499.90622     316.0957     -201.289    36638.639 
  612600    304.31991   -1575.2868    460.54135    250.46996   -185.07824    36638.639 
  612700    291.97185   -1570.4737    485.30711    224.65388   -144.49937    36638.639 
  612800     299.4526   -1564.1304    481.29571    260.54533    -312.0205    36638.639 
  612900    302.98397    -1579.807    475.58849    255.00367   -608.95727    36638.639 
  613000    292.25477   -1561.0378    447.26523    197.31711   -184.56856    36638.639 
  613100    293.14447    -1571.762    492.36667    235.68571   -208.75494    36638.639 
  613200    296.89647   -1619.6904      492.406     204.6285    149.10695    36638.639 
  613300    299.87437   -1611.5982    455.56688    189.24085    128.60102    36638.639 
  613400    307.17876   -1561.8813    494.36384      310.523    137.53832    36638.639 
  613500    305.00406   -1583.2197    450.73607    235.80087    366.13343    36638.639 
  613600    299.63137   -1582.4531    487.97402     249.7029     393.6924    36638.639 
  613700    291.89229   -1511.8932    489.15745    286.72781    114.05501    36638.639 
  613800    290.49215   -1586.8274    502.71926    219.07425    53.292994    36638.639 
  613900    305.21036   -1604.7862    486.65864    251.08247    663.53667    36638.639 
  614000     295.2657   -1605.1594     470.1266    189.56434   -236.90842    36638.639 
  614100    302.02963   -1549.9477    472.72811    277.72127    368.35203    36638.639 
  614200    288.27852   -1564.8247    498.37463    226.80169    152.48213    36638.639 
  614300    290.83069   -1619.1704    457.96769    143.49839    -255.7502    36638.639 
  614400    297.13765   -1601.5313    480.35583     211.8194   -222.75301    36638.639 
  614500    295.92252   -1547.6915    473.12022    252.97235   -554.10102    36638.639 
  614600    298.15847   -1556.2692    486.16252    267.46774   -544.63222    36638.639 
  614700    301.27498   -1548.7694    474.17229    276.95831    276.65047    36638.639 
  614800     304.7556   -1534.4002    483.92389    316.69362    532.78489    36638.639 
  614900    301.91729   -1568.7153    505.48391    291.20559   -186.20473    36638.639 
  615000    298.26161   -1553.6459    501.08912    285.48033    57.957181    36638.639 
  615100    288.59396   -1579.4772    478.63378    193.82351     228.3741    36638.639 
  615200    298.83692   -1544.3566    487.04182    283.30325    -453.8085    36638.639 
  615300    300.19002   -1508.5517    476.92773    315.06422   -380.77196    36638.639 
  615400    297.66886   -1512.0957    469.58488    292.86714   -148.13196    36638.639 
  615500    308.20544    -1539.936    492.58576     335.2961   -61.861509    36638.639 
  615600    309.24789   -1549.9277    464.71817    302.11332   -76.194931    36638.639 
  615700    293.79562   -1538.7041    488.72028    268.01836    371.79611    36638.639 
  615800    295.09975   -1546.0928     482.8579    260.61773   -211.40145    36638.639 
  615900     298.3707   -1534.9929     476.2662    279.79978    722.66412    36638.639 
  616000     304.6268   -1561.5521    456.21582    261.25584    505.15775    36638.639 
  616100    296.12849   -1530.7991    493.67232    291.34093    630.76196    36638.639 
  616200    309.72341   -1543.6008    473.87549    319.73083    142.62963    36638.639 
  616300    295.17686   -1541.5728    474.93139    257.55718   -174.85632    36638.639 
  616400    298.66426   -1539.8918    473.64734    273.59894    27.065267    36638.639 
  616500    293.30707   -1515.2054    451.94182    252.54691   -380.74359    36638.639 
  616600    300.96898   -1567.6453    490.85642    273.39385    222.46995    36638.639 
  616700    300.65908   -1602.3715    470.41551    216.83647    149.08367    36638.639 
  616800    299.43382   -1544.1725    490.92617    290.04941   -84.860235    36638.639 
  616900    295.52177   -1531.9984     492.3568     286.1043   -890.84432    36638.639 
  617000    298.38546   -1570.4319    466.53687     234.6977    -986.5137    36638.639 
  617100    294.55933   -1539.0588    489.64222    272.01163   -365.14899    36638.639 
  617200     297.5899    -1555.712    464.45035    243.76208   -171.25523    36638.639 
  617300    302.41552   -1562.8159    492.52062    286.37679   -138.76462    36638.639 
  617400    287.30087    -1538.136    444.23861    194.96857     173.4093    36638.639 
  617500    292.98267   -1579.9101    478.68838     213.1334   -221.34603    36638.639 
  617600    305.09975   -1588.8572    482.81915    262.67578    339.99359    36638.639 
  617700    301.61552   -1579.3023    446.01946    219.80028    444.43698    36638.639 
  617800    313.14572   -1572.1569     481.5756    314.22774   -395.50934    36638.639 
  617900    297.73612   -1546.2481    505.33926     294.7708    241.82634    36638.639 
  618000    304.69237   -1556.7837    474.31875    284.42137   -77.288923    36638.639 
  618100    312.80176   -1562.7166    492.56185    333.11119    369.85944    36638.639 
  618200    294.88871   -1583.6468    480.70003    219.95912    -160.4294    36638.639 
  618300    301.62912   -1561.8581    478.84786    270.13393    88.114816    36638.639 
  618400     295.7452    -1578.848    471.50297    219.40318   -193.95117    36638.639 
  618500    294.57877   -1553.9558    479.58906     247.1487   -593.06292    36638.639 
  618600    296.93948   -1556.1879    449.96481    225.88282   -924.45147    36638.639 
  618700    296.27766   -1577.6085    473.64655    225.17487   -1080.8493    36638.639 
  618800    298.40855   -1606.3637    466.21263    198.54523   -899.62209    36638.639 
  618900    301.87274   -1541.7525    495.51026    307.99485   -273.50959    36638.639 
  619000    303.87482   -1591.3981    466.01455    237.83506    4.1784634    36638.639 
  619100    298.32044   -1522.4679     489.0402    304.87337    254.92623    36638.639 
  619200    293.42853   -1529.0279    500.54711    287.87459   0.11722893    36638.639 
  619300    305.19627   -1511.8609    481.87122    339.15715    659.94797    36638.639 
  619400    308.22272   -1542.0002    486.61104    327.33461    520.04286    36638.639 
  619500    299.69127   -1524.0268    466.93798    287.36188    312.30141    36638.639 
  619600    309.56926   -1528.8142    473.86733    333.81776    278.32317    36638.639 
  619700    296.55078   -1514.0716    498.13239    314.42291    86.428103    36638.639 
  619800    297.99744   -1523.1522    513.41101    327.11084   -125.01392    36638.639 
  619900     294.4244   -1522.0829     450.4269     249.1669   -103.42778    36638.639 
  620000    295.40377   -1499.0213    478.25571    304.45094   -78.449963    36638.639 
  620100    308.13726   -1535.0383    498.70466    346.00683    181.16548    36638.639 
  620200    304.41555   -1528.3271    480.80036    318.11773    51.185228    36638.639 
  620300    313.66149   -1520.8424    482.78976    369.07015    132.04743    36638.639 
  620400     306.2064   -1525.8055    475.63729    323.51013   -422.23432    36638.639 
  620500    301.22849   -1483.0224    476.51194    344.83644   -241.82803    36638.639 
  620600    299.40861    -1521.154    469.19981    291.22849    -790.7259    36638.639 
  620700     298.2624   -1492.0587    516.27027    362.25223   -815.28975    36638.639 
  620800    304.15678   -1533.1311    472.07445    303.42688   -402.07307    36638.639 
  620900    291.77755   -1601.3782    455.39164    162.96225    57.616274    36638.639 
  621000    299.61204   -1566.1818    500.48246    278.39593    172.96974    36638.639 
  621100     289.7754   -1541.0797    458.63157    217.51879    256.40108    36638.639 
  621200    309.21905   -1526.7057    505.25806    365.74586    709.88985    36638.639 
  621300    290.28478   -1557.2225    458.37758    203.40724   -301.25758    36638.639 
  621400    300.45273   -1588.5617    457.92257    217.22758   -6.4909431    36638.639 
  621500    297.73546   -1585.3499    464.45578    214.78266   -521.11943    36638.639 
  621600    298.83561   -1552.1428    461.25111    249.72045   -479.57618    36638.639 
  621700    299.08996    -1567.678     443.1591    217.23426   -885.32407    36638.639 
  621800    301.97219   -1579.0465    482.47175    258.10843   -305.02409    36638.639 
  621900    301.93297   -1554.6756    470.71399     270.5457    83.376056    36638.639 
  622000    301.41339   -1602.3438      482.774    232.60657     647.1111    36638.639 
  622100    289.92793   -1554.2794    497.43173    243.80359    1011.0782    36638.639 
  622200    300.10153   -1524.7748     459.8409     281.3573    641.57721    36638.639 
  622300     304.2761   -1569.6685    495.68312     291.0334    716.66625    36638.639 
  622400    299.26681   -1553.9052    479.00779    267.64913    564.96529    36638.639 
  622500    300.03701   -1564.7704     468.1498    249.38115   -128.78726    36638.639 
  622600    299.24019   -1547.1516    493.61126    288.88681    75.236353    36638.639 
  622700    303.38045   -1555.7955    466.46655    271.67195   -256.55667    36638.639 
  622800    304.49138   -1522.0989    454.77307    298.65879    -436.1761    36638.639 
  622900    305.90287   -1545.7138    509.30878    335.91165   -119.39528    36638.639 
  623000    295.31013     -1536.42    484.36578    272.74218    297.98134    36638.639 
  623100    298.02623   -1557.8232    468.51034    247.66835   -35.920971    36638.639 
  623200    304.93737   -1543.1274    468.93412    293.79208    14.939824    36638.639 
  623300    286.34186   -1501.6007    483.57639    266.53942    239.38711    36638.639 
  623400    309.72435   -1556.2529    483.07159    316.27897     659.7707    36638.639 
  623500    292.15195   -1487.2219    477.26461    300.67113    170.71513    36638.639 
  623600    301.27031   -1525.8614    483.59725    309.27035    221.40097    36638.639 
  623700    296.72222   -1557.0075    463.17291    237.29662    23.955088    36638.639 
  623800    306.93363   -1519.1766     472.5249    330.28906   -382.38908    36638.639 
  623900    307.53105   -1536.3831    487.09937    330.33725   -107.30638    36638.639 
  624000    295.94302   -1536.4659    466.73975    257.90953   -739.55687    36638.639 
  624100    297.89077   -1565.8889     475.6216    246.10616   -767.59579    36638.639 
  624200    302.48034   -1536.4188    488.30702    308.85106    -223.6485    36638.639 
  624300    292.34482   -1546.5539    473.79454    238.73437   -367.15902    36638.639 
  624400    295.07677   -1537.4191    477.23122    263.56169    20.183139    36638.639 
  624500     290.0858   -1526.0731    498.84446    274.13087     45.42801    36638.639 
  624600    295.66802   -1520.6841    492.15367    297.87157    29.580972    36638.639 
  624700    309.51691   -1524.6989    479.89803    343.72881   -147.52245    36638.639 
  624800    306.80736   -1509.0233    475.54747    342.89853   -235.63386    36638.639 
  624900    296.14964    -1500.098    477.89655    306.36116   -200.19384    36638.639 
  625000    305.14333   -1490.8645    493.24984    371.29466   -236.11044    36638.639 
  625100    296.50043   -1502.3312    487.21722    315.02231    -75.18545    36638.639 
  625200    300.76419   -1481.5802    476.25033    343.93408     148.6368    36638.639 
  625300    304.77319   -1470.1607    492.06978     389.1579    342.77614    36638.639 
  625400    297.68973   -1491.4117    467.57845    311.63835    227.42181    36638.639 
  625500    300.25368    -1560.984    458.04906    244.03887    225.22477    36638.639 
  625600    300.71544   -1560.6946    480.09065    268.44137    807.76773    36638.639 
  625700     301.5255   -1513.7059    483.79466    322.76814    753.54995    36638.639 
  625800    311.12399    -1485.106    515.48599    426.11928    543.06449    36638.639 
  625900    309.57578   -1539.0113    481.17806    330.96055    279.99152    36638.639 
  626000    305.98238   -1526.7753    468.29866    314.19675    23.317594    36638.639 
  626100    296.63777    -1525.816    479.79655    284.73298    237.43131    36638.639 
  626200    297.54607   -1564.2406    467.54849    238.13499   -210.85444    36638.639 
  626300    302.91122   -1576.0116    485.65229    268.53652   -14.553511    36638.639 
  626400    296.62774   -1562.8063    460.05837    227.95946    251.35175    36638.639 
  626500    341.35232   -1589.6254    460.72051    402.44228   -67.751374    36638.639 
  626600    297.44325   -1516.5381    479.36448    297.19222   -395.49141    36638.639 
  626700    299.43713   -1561.3778    481.20463    263.13743   -242.52795    36638.639 
  626800    298.61743   -1510.8664    468.13902    296.90604   -291.38635    36638.639 
  626900    302.33855   -1513.9326    475.07354    317.46774   -418.66049    36638.639 
  627000     293.7183   -1510.9615    455.62355    262.31734    245.93603    36638.639 
  627100    305.82434   -1534.1414    476.89917     314.7222    708.84362    36638.639 
  627200    296.27012    -1535.496    479.03069    272.63773    714.67969    36638.639 
  627300    301.76065   -1524.1882    477.22197    306.76797    944.51661    36638.639 
  627400    305.01755   -1521.4694     476.3019    323.17757    -69.56451    36638.639 
  627500     310.8937   -1542.3895    493.75812     346.0748    -60.29997    36638.639 
  627600    300.26043   -1528.7271    482.36185    300.63881   -578.13041    36638.639 
  627700    294.71582   -1537.0268    464.63642    249.73989    58.464767    36638.639 
  627800      307.368   -1524.8749    444.49038    298.50498   -756.57532    36638.639 
  627900    293.31044   -1523.6827    452.05123    244.19408   -1081.4395    36638.639 
  628000    305.42667   -1534.1096    483.78012    319.85094    6.2968741    36638.639 
  628100    303.39317   -1509.3983    473.22583    324.88542    431.40349    36638.639 
  628200    291.02774   -1479.8642      490.473    316.19389    29.132872    36638.639 
  628300    309.04349    -1508.734    459.24748    336.91935     98.26377    36638.639 
  628400    302.72702   -1489.9612    488.18704    356.29534    236.35432    36638.639 
  628500    304.36375   -1479.3883    494.30717     380.3309    383.63287    36638.639 
  628600    291.05856   -1499.7863     466.6167     272.5538    624.03328    36638.639 
  628700     293.1431   -1513.6823    485.10347    286.49605    184.72755    36638.639 
  628800    299.45773   -1479.5468     463.0481    326.90434    139.91071    36638.639 
  628900    300.87592   -1518.5484    499.12561    330.34248   -739.52564    36638.639 
  629000    304.19762   -1527.7602     490.3124    327.21899   -75.393614    36638.639 
  629100    299.69702   -1526.2139    470.06674    288.32934   -645.03242    36638.639 
  629200    302.93178   -1489.9684    484.23344    353.25314    183.30836    36638.639 
  629300    296.72402   -1522.8452     467.4889    275.78298     293.5175    36638.639 
  629400    297.51133   -1492.6507    457.67876    299.69935   -276.68192    36638.639 
  629500    303.46243   -1533.4502    461.53705    289.45542    195.27633    36638.639 
  629600     304.3911   -1525.3327    464.44142    304.64351     115.2266    36638.639 
  629700    299.21392   -1541.9882    480.63022    280.95133    363.00381    36638.639 
  629800      303.875   -1506.9314    472.84952    329.13755    28.253126    36638.639 
  629900    309.74819   -1484.4135    470.16444    375.31825    630.33496    36638.639 
  630000    302.63072   -1519.3945    496.93962    335.18258    882.17171    36638.639 
  630100    296.38101   -1530.1655    451.06378     250.4988    400.23492    36638.639 
  630200    315.73403   -1525.0822    485.58295    376.92124    412.60247    36638.639 
  630300     293.2356   -1523.8268    457.26952    248.93256   -134.50359    36638.639 
  630400    300.34742   -1474.6968    494.30574    367.00327    -292.3888    36638.639 
  630500    296.57166   -1487.6287    480.73051    323.55762    -403.6395    36638.639 
  630600    293.02658   -1464.4666    464.81861    314.90418   -249.94091    36638.639 
  630700    300.32299   -1489.6156    490.03913    347.70821   -163.11404    36638.639 
  630800    294.03443   -1497.4454    455.99122    277.61933   -691.80361    36638.639 
  630900    301.51578    -1458.531     460.5005    354.60519   -859.67023    36638.639 
  631000    311.63943   -1470.0508    490.08001    418.08083   -244.40612    36638.639 
  631100    302.97659   -1514.2179     498.6225    343.59365    124.88173    36638.639 
  631200      291.759   -1482.9723     476.9868    302.88012   -389.46878    36638.639 
  631300    295.73211   -1406.6906    483.36232    403.36121   -92.993933    36638.639 
  631400    305.16829   -1494.4518    451.18457    325.75404   -303.37878    36638.639 
  631500    290.86298   -1486.1668    478.88677    297.56593   -362.09609    36638.639 
  631600     300.0234   -1480.1571    487.62743    353.41104   -17.708619    36638.639 
  631700    296.12853   -1505.4765    484.26991    307.26125   -551.89205    36638.639 
  631800    299.67115    -1489.012      484.994    340.34247   -493.01075    36638.639 
  631900    298.67243   -1492.6523    450.75195    297.97973   -237.72827    36638.639 
  632000    307.56453   -1498.8714    476.62225    357.52198   -144.47317    36638.639 
  632100     305.5518   -1512.1238    460.73659    319.35451   -615.80426    36638.639 
  632200    293.26262   -1461.2074    490.56459    344.96822   -788.99174    36638.639 
  632300    290.71894   -1447.0224     480.7589    337.93625    -892.8571    36638.639 
  632400    301.89009   -1484.3164    456.25558     326.2541   -730.90689    36638.639 
  632500    306.31722   -1460.9596      488.915    402.13098   -683.10701    36638.639 
  632600    300.75221   -1456.4998    484.32285    377.03323   -98.822861    36638.639 
  632700    294.04234   -1464.1501    473.02195    327.98087   -345.98302    36638.639 
  632800    305.33297     -1478.78    485.00733    375.98746   -183.08548    36638.639 
  632900    294.13768   -1448.8256    476.53294    347.24402   -560.81911    36638.639 
  633000    303.12841   -1479.1203    449.71339    330.46321   -101.50167    36638.639 
  633100    309.22479   -1475.3331    484.02133    395.90745   -255.56787    36638.639 
  633200    290.17767   -1518.2483    469.07933    252.60258    -461.5494    36638.639 
  633300    287.51301   -1512.2381     466.1797    243.75919    80.079352    36638.639 
  633400      300.256   -1495.8043    509.45268    360.63256    507.39651    36638.639 
  633500    294.25657   -1510.7766    455.01819    264.31161    692.55153    36638.639 
  633600    312.56448   -1510.2199    464.68603    356.66762   -158.71596    36638.639 
  633700    290.61499   -1500.4482    473.05132    276.33657   -361.97981    36638.639 
  633800    308.97787   -1492.7223    476.84622    370.23547    -71.89643    36638.639 
  633900     313.0679   -1502.2263    455.32866    357.56227   -95.081124    36638.639 
  634000    301.89286   -1447.6913    498.70334    405.33933   -929.87604    36638.639 
  634100    306.24795   -1499.7325    482.00686    356.13919   -89.686973    36638.639 
  634200    296.00654   -1493.5778    442.76169    277.10445   -396.99293    36638.639 
  634300    300.91172   -1539.4367    473.78044    284.26957   -318.57499    36638.639 
  634400     290.4339   -1523.9825    471.96863    250.90724    119.66325    36638.639 
  634500    298.90706   -1538.3355    462.39244     264.9896     644.9774    36638.639 
  634600    294.60078   -1544.8785    490.13859    266.87434    607.13726    36638.639 
  634700    298.82998   -1481.4873    481.07924    340.17885    779.14948    36638.639 
  634800    304.11341   -1504.6656     510.2523     369.8757    887.54981    36638.639 
  634900    290.51493   -1550.3481    486.64589    239.58235    577.23681    36638.639 
  635000    289.15833   -1520.9368    480.07838    256.34031    91.449316    36638.639 
  635100    301.85864   -1512.6689    472.68579    314.19066    36.479724    36638.639 
  635200    292.76551   -1514.6267    451.13741    249.89162    189.52807    36638.639 
  635300    302.02098    -1526.648    464.32131    292.57545    104.24324    36638.639 
  635400    302.80626   -1515.6869    478.19661    320.93467    434.37821    36638.639 
  635500    296.99832   -1509.7082    484.34815    307.00982   -28.244572    36638.639 
  635600    312.00321    -1530.369    453.73315    323.04771   -124.54158    36638.639 
  635700    297.14683     -1531.63    481.48642    282.89253    236.72119    36638.639 
  635800    306.32441   -1532.2241    478.32678    320.31046    193.65199    36638.639 
  635900    293.19527   -1559.1282    458.03283     214.2135    64.017872    36638.639 
  636000    306.99322    -1554.172    469.72855    292.76471   -126.64926    36638.639 
  636100    306.21943   -1580.1847    458.26043    251.81257    -767.2555    36638.639 
  636200    297.92644   -1560.1546    451.93167    228.31063   -475.54179    36638.639 
  636300    299.67747   -1560.3232    461.93301    245.99865   -529.18001    36638.639 
  636400    289.15866   -1502.2187    510.22201    305.20346    -412.0812    36638.639 
  636500    306.29718   -1467.7473    457.93783     364.2762   -238.70836    36638.639 
  636600    293.15503   -1489.6674    495.15071    320.61165     -618.241    36638.639 
  636700    295.82236   -1553.7362    476.91491    250.27303   -342.17052    36638.639 
  636800    297.16199   -1565.1884    469.49468    237.41035    23.440039    36638.639 
  636900    296.49262   -1550.5821    465.57698    245.09606   -37.993194    36638.639 
  637000    287.68275   -1527.2229    447.17573    210.53194   -578.40507    36638.639 
  637100    306.58638   -1539.5012    483.49333    319.37516    -471.9915    36638.639 
  637200    317.49992   -1530.9899    490.73635    384.08892   -273.55319    36638.639 
  637300     303.1521   -1571.1057     449.0398    237.91058   -388.75705    36638.639 
  637400    297.29323   -1543.3874    449.42674    239.73215    321.42623    36638.639 
  637500    289.66427    -1553.535    475.99145    221.92493    124.42956    36638.639 
  637600    301.26679   -1537.0798    460.52091     274.9598    318.54198    36638.639 
  637700    299.02056   -1537.9842    467.45837    270.91598    -95.41352    36638.639 
  637800    302.19059   -1550.7927    479.39968    284.26995   -137.71948    36638.639 
  637900    293.29431   -1569.0653    443.66003     190.3479   -194.30887    36638.639 
  638000    294.08341   -1568.1154    479.90796    231.08578   -292.54117    36638.639 
  638100    311.11076    -1537.656    453.55887    311.58285    238.53378    36638.639 
  638200    300.60861   -1596.9615    464.16282    215.76735    453.39632    36638.639 
  638300    304.65635   -1541.2414    470.82996    296.31322    626.86516    36638.639 
  638400    288.62324   -1575.7364    469.60171    188.66352    643.31398    36638.639 
  638500    307.70801   -1604.2761    495.08684     271.2255    571.41521    36638.639 
  638600    297.09903   -1525.8454    470.69562    277.67187    464.74765    36638.639 
  638700    312.56942   -1559.0461    454.21649    297.39399    100.30865    36638.639 
  638800     297.5518   -1587.0213    472.36509    220.19665   -317.00804    36638.639 
  638900    297.31154   -1561.3826    478.68631    251.07873   -18.496579    36638.639 
  639000    293.51563   -1544.9137    453.57786    225.41029   -121.77607    36638.639 
  639100    295.96052   -1571.8995     478.6416    234.45623    258.61917    36638.639 
  639200    301.78925   -1595.2829    461.44494    220.02462    37.604196    36638.639 
  639300    300.17014   -1538.0298    486.59575    295.16491   -398.56922    36638.639 
  639400    297.87017   -1544.3833    485.86996    277.76767   -253.95357    36638.639 
  639500    301.13517   -1543.0073    446.64514    254.56607    5.3848705    36638.639 
  639600    305.88209   -1520.7706    488.51614    339.96906   -54.775893    36638.639 
  639700    289.93932   -1547.6982     466.0754     219.0795   -275.68483    36638.639 
  639800    296.46005   -1550.4878     490.2203    269.68758    31.351131    36638.639 
  639900     293.0046   -1552.5157    480.74313    242.68103    -397.5308    36638.639 
  640000    292.50374   -1548.1902    447.64585    211.66225   -405.53392    36638.639 
  640100    303.96588   -1538.0507    472.96072    298.53716   -464.87371    36638.639 
  640200    311.23838   -1521.0758    487.90037    363.07705  -0.53693745    36638.639 
  640300    320.77191   -1565.4746    440.65583    314.20224   -73.334636    36638.639 
  640400    289.26476   -1530.3179    459.42623    226.78446   -386.20359    36638.639 
  640500    296.21336   -1491.6746    473.44041    310.61424   -512.06945    36638.639 
  640600    305.10018   -1543.5367    480.04628     305.2253   -537.62625    36638.639 
  640700    293.48367    -1521.798    452.03839    246.84303   -817.49546    36638.639 
  640800    304.19892   -1517.8618    486.62441    333.43517   -246.37671    36638.639 
  640900     310.4583   -1555.9375    477.24513    314.06054    209.61397    36638.639 
  641000    312.87299   -1515.3326    442.29264    330.54554    418.47105    36638.639 
  641100     299.1032   -1524.7236    497.61051    314.69955    413.49471    36638.639 
  641200    293.23334   -1500.4131    481.23277    296.29941   -628.56226    36638.639 
  641300    300.27395   -1524.4472    483.59648    306.21399    179.80859    36638.639 
  641400    291.91105   -1523.6563    485.97055    271.86197    37.071978    36638.639 
  641500    304.13842    -1528.859    476.10319    311.64534     89.77335    36638.639 
  641600    304.51474   -1554.2775    451.84532    263.65719   -286.25056    36638.639 
  641700    293.16872   -1529.6993    471.06431     256.5548    115.55002    36638.639 
  641800    308.13119   -1551.5181     469.8998    300.69494    136.38077    36638.639 
  641900    291.76606   -1534.5631    490.03867     264.3729    262.28343    36638.639 
  642000    297.09528   -1570.4792    464.07432    226.39995    493.07284    36638.639 
  642100    297.11841   -1527.8101    459.93477     265.0333     364.7961    36638.639 
  642200    295.81095   -1480.4993    507.68588    354.22977    226.67245    36638.639 
  642300     292.9659   -1526.4263    490.17882    278.03244    31.013824    36638.639 
  642400    296.48632   -1532.8129    478.58827    275.84835   -225.28832    36638.639 
  642500     295.9566   -1549.9103    482.01593    259.80221   -597.80863    36638.639 
  642600    284.47974   -1599.5046    472.45199    149.15738   -313.07204    36638.639 
  642700     298.8181   -1593.4179    468.45377    215.56941    464.17886    36638.639 
  642800    318.51867   -1534.9767    493.31269    387.24874   -2.0682684    36638.639 
  642900    297.89048   -1554.7568    487.03622    268.65164   -564.14443    36638.639 
  643000    306.40241   -1542.6845    471.87386    303.74708   -251.58215    36638.639 
  643100    315.04285   -1550.6287    484.47222    347.16331     61.03955    36638.639 
  643200    304.94712   -1531.1543    463.49016    300.36495   -250.26352    36638.639 
  643300    310.85518   -1545.4111    450.08925     299.2115   -30.629274    36638.639 
  643400     300.4067   -1508.0973    478.01839    317.58138   -272.78755    36638.639 
  643500    290.23575   -1519.9288    465.36427     247.4676   -763.07047    36638.639 
  643600    290.73748   -1517.4379     498.0311    284.87614   -358.24508    36638.639 
  643700    295.53872   -1540.2036    477.73936    263.35769   -525.28168    36638.639 
  643800    308.78975   -1539.7427    493.84602    339.37094   -431.08652    36638.639 
  643900    290.63077   -1565.4175    480.04637    218.43309    -770.4057    36638.639 
  644000    296.10035   -1524.0035    470.99692    275.33482   -1391.9259    36638.639 
  644100     293.9351   -1529.2106     460.5915    250.00876   -990.03696    36638.639 
  644200     306.3211    -1519.981    485.39531    339.60728   -720.89824    36638.639 
  644300    309.23968   -1517.8272    454.87458    324.33343    285.16969    36638.639 
  644400    298.81027   -1543.2657    486.59852    283.83134    89.935359    36638.639 
  644500    297.79684   -1518.8988    457.13677    274.19009   -190.02912    36638.639 
  644600    296.70803    -1524.943    486.44921    292.57373   -162.76601    36638.639 
  644700    294.08711   -1557.0559     509.4595    271.71344    -660.1376    36638.639 
  644800    291.78373   -1527.0283    490.50196    272.45027   -396.83402    36638.639 
  644900    289.54269   -1569.5727    471.79198     201.1423   -329.69957    36638.639 
  645000    309.52533   -1539.0519    473.67441    323.18999   -464.33215    36638.639 
  645100    295.82548    -1503.671    475.56685    299.00424   -277.05887    36638.639 
  645200    301.02413   -1480.4077      516.318    386.34043    79.094603    36638.639 
  645300    300.17079   -1504.9296    470.14035    311.81269    644.31361    36638.639 
  645400    296.82738   -1537.8209    492.80563    286.58769    799.84626    36638.639 
  645500    302.85108   -1522.0311    492.35533    328.95028   -45.783191    36638.639 
  645600     301.2751   -1512.4054    466.69593    305.84653    425.50852    36638.639 
  645700    303.87914   -1544.2282    507.75909    326.76897    132.58181    36638.639 
  645800    302.74185   -1457.4471    472.09629    372.78524    197.29185    36638.639 
  645900    295.49046   -1498.3446    483.68465    310.94542    295.71313    36638.639 
  646000    303.03094   -1525.9365    494.60007    328.09649    83.861929    36638.639 
  646100     294.1367   -1511.2333    461.86787    270.16685    526.60142    36638.639 
  646200    306.98849   -1507.9687    470.50533    339.72354   -81.322477    36638.639 
  646300    307.72826   -1514.5321    483.00293    348.97647    -319.3862    36638.639 
  646400    293.69467   -1515.2696    480.42952    282.70922    121.28853    36638.639 
  646500    294.72293   -1520.3889    474.34905    276.12229    -446.1515    36638.639 
  646600    301.92034   -1528.5928    488.70705     314.5649   -295.27893    36638.639 
  646700    302.25878   -1523.1725    474.33593    307.13239   -134.63056    36638.639 
  646800     303.5047   -1525.0598    461.78011    298.27857    154.85039    36638.639 
  646900    304.68331   -1499.2306    500.06009    367.67516    237.73787    36638.639 
  647000    304.86254   -1520.9971    481.28544    327.93798   -291.80262    36638.639 
  647100    305.52195   -1525.1132    480.90178    326.39647     106.7916    36638.639 
  647200    311.71266   -1519.7675    472.25192    350.86454    399.60775    36638.639 
  647300    300.78909   -1551.7736    488.68928    286.29138     219.1716    36638.639 
  647400    301.58166   -1510.4426     468.6594    311.14802   -170.69231    36638.639 
  647500    298.35892    -1537.001    478.67006    280.14274   -529.39418    36638.639 
  647600    304.75016   -1563.6451    464.29585    267.79622    -604.0528    36638.639 
  647700    299.68445   -1544.2299    484.30377    284.49405   -583.00644    36638.639 
  647800    297.12582   -1546.4613    483.50536    269.98591   -695.68537    36638.639 
  647900    302.01733   -1497.4513    485.34179    342.77627   -402.94264    36638.639 
  648000    292.66356   -1503.7835    488.73018    297.87029   -477.58796    36638.639 
  648100    286.69844   -1528.8651    496.08709    253.38536   -479.19371    36638.639 
  648200    292.84762   -1526.7803    483.69299    270.66196    183.69724    36638.639 
  648300    298.29678   -1542.7509    507.93798    303.38194   -788.86427    36638.639 
  648400    293.10953   -1498.1187     462.0869    278.89248    -799.4367    36638.639 
  648500    299.65639   -1485.7575    471.18013    329.71691   -716.16599    36638.639 
  648600    290.17649   -1513.3393    512.09324     300.5202   -864.82023    36638.639 
  648700     296.0756   -1515.4298    460.87194    273.67257   -106.15983    36638.639 
  648800    304.48429   -1542.1559    484.97825    308.77516   -288.13913    36638.639 
  648900    299.49291   -1556.1275    452.71777     240.1512   -125.38796    36638.639 
  649000    303.57561   -1568.2849    451.00334    244.59477    102.72941    36638.639 
  649100    301.76238   -1563.5886    458.55381    248.70713   -259.59607    36638.639 
  649200    303.21595   -1497.0233    497.89812    361.13773   -161.50495    36638.639 
  649300    287.97862   -1559.1682    502.85145    235.58966    79.536038    36638.639 
  649400    296.94494   -1556.0421    483.17002    259.25829   -385.16146    36638.639 
  649500     302.3041   -1496.5466    500.70827    360.33386    82.669096    36638.639 
  649600    303.63184   -1561.7314    472.53347    272.93068   -37.758564    36638.639 
  649700    308.78963   -1519.0695    486.12617     352.3237   -481.10687    36638.639 
  649800    306.10291   -1513.4662    488.33191    348.07984    -191.5463    36638.639 
  649900    297.68274    -1485.748    511.76852    361.46072   -348.59972    36638.639 
  650000    289.27471   -1480.5535    490.15925    307.32651   -300.62299    36638.639 
  650100    301.42604   -1502.6262    501.77998    351.38691   -87.818299    36638.639 
  650200    301.11167   -1527.2632    472.65323    296.21283     126.2038    36638.639 
  650300     308.2821   -1533.9903     481.1731    330.17302    -588.6584    36638.639 
  650400    301.12254   -1540.1495    463.01759    273.73968   -1073.4876    36638.639 
  650500    303.96265   -1509.2458    477.05093    331.41776    -1265.818    36638.639 
  650600    297.23214   -1494.2797    474.12382     313.2629   -1135.8072    36638.639 
  650700    302.41628   -1544.7099    472.13502    284.10052    -799.6436    36638.639 
  650800     297.5857    -1482.802    519.01045    371.21333   -6.0337127    36638.639 
  650900    305.18929   -1528.4785    476.86876    317.50575    497.89171    36638.639 
  651000    304.98955    -1501.599    479.19408    345.81454    323.52892    36638.639 
  651100    298.81884   -1495.6722    531.65841    376.52314    113.10656    36638.639 
  651200    295.92729   -1522.4622    466.13519    271.23804    188.90286    36638.639 
  651300    294.20666   -1521.1757     486.9141    285.58451   -455.19793    36638.639 
  651400    301.63782   -1496.9759    450.78038    306.98768   -88.461754    36638.639 
  651500    292.83481   -1500.4231    527.93519    341.20395   -31.135168    36638.639 
  651600    290.78791   -1481.3323    510.34084    333.51772   -41.315344    36638.639 
  651700    305.12915   -1550.7636    471.67747    289.75952    395.29476    36638.639 
  651800    308.83942   -1532.8449    508.50676    361.15228    178.46859    36638.639 
  651900    297.45857   -1511.5638    512.82866    335.69941   -512.19743    36638.639 
  652000    310.38606   -1513.4781    489.25835    368.20906    314.69761    36638.639 
  652100    298.53797   -1546.4704    467.47731    260.28382   -107.49642    36638.639 
  652200    298.81396   -1515.5314    491.92769    316.91137   -245.61756    36638.639 
  652300    302.94879   -1506.5256    475.71434    328.25308   -258.38702    36638.639 
  652400      314.008   -1496.3957    490.66198     402.9436   -239.25102    36638.639 
  652500    296.83803    -1518.961    488.04737    300.73711   -31.373316    36638.639 
  652600    310.31125   -1494.3526    508.85848    406.59908   -217.39952    36638.639 
  652700    300.79999   -1509.4031    456.04652    296.06798     451.0984    36638.639 
  652800    295.02569   -1498.7862    518.57311    343.30727      428.175    36638.639 
  652900    291.97956   -1490.9861    489.70206    308.57107    758.97963    36638.639 
  653000    306.54338   -1530.4131    499.23932    344.01636    199.42928    36638.639 
  653100    305.84654   -1500.6571    497.80868    369.21564    279.64782    36638.639 
  653200    304.94572   -1503.4946     474.6442     339.1724   -239.57416    36638.639 
  653300    293.42073   -1480.9146    493.82376    329.22953    1.6863464    36638.639 
  653400     300.5575   -1478.5651    483.89599    353.66768    109.89352    36638.639 
  653500    297.58861   -1496.1574    470.82551    309.68605   -121.78622    36638.639 
  653600    306.81446   -1487.7827    501.20064    389.82419    312.36452    36638.639 
  653700     306.2455   -1500.8501    458.74587    331.74954    632.23584    36638.639 
  653800    295.70515   -1546.5039    470.24406    250.30867    68.192003    36638.639 
  653900    297.73007   -1560.2482    464.12818    239.53257    185.13404    36638.639 
  654000    294.01049   -1518.2802     481.7311    282.41697    15.920959    36638.639 
  654100    297.54736   -1536.6273    482.50825    280.71384    168.15958    36638.639 
  654200    296.81375    -1519.837    477.00447    288.70926    615.33405    36638.639 
  654300    293.16269   -1506.2166    485.85214    294.79825    449.60183    36638.639 
  654400    298.23713   -1502.9564    507.34469    342.31558    401.60652    36638.639 
  654500    299.17539   -1473.9455    474.77427    342.96521    497.05041    36638.639 
  654600    305.21382   -1562.1654    460.99201    268.05213    330.35373    36638.639 
  654700    296.97315   -1513.1372    490.55381    309.67354    194.30355    36638.639 
  654800    287.84584   -1518.6864    490.12334    262.74765   -198.09368    36638.639 
  654900    296.86785   -1524.1402    464.40453     272.0489   -318.70746    36638.639 
  655000    285.95948    -1532.409    457.28995    207.72924   -288.15441    36638.639 
  655100    305.39198   -1522.4453    469.88513     317.4646   -216.74744    36638.639 
  655200    294.33911   -1475.1634    479.26135    324.53826   -123.54771    36638.639 
  655300    296.34018   -1475.5014    484.15722    338.07312    326.88658    36638.639 
  655400    299.75698   -1537.8529    484.93456     291.8272   -392.13903    36638.639 
  655500    284.45199   -1493.4079    490.30958    272.98717   -408.68382    36638.639 
  655600     300.3923   -1485.0852    493.25177    355.76215   -349.21894    36638.639 
  655700    310.08629   -1448.7447    470.33652    412.67591   -274.70727    36638.639 
  655800    300.67159    -1482.665    468.89068    335.07422   -395.84558    36638.639 
  655900    297.45013   -1478.9929    480.29488    335.69864   -80.950545    36638.639 
  656000    306.20125   -1505.6002    490.68595    358.74101   -367.58094    36638.639 
  656100    299.89728   -1532.9595    475.96435    288.37984   -550.35254    36638.639 
  656200    296.33937   -1516.8427    515.18514    327.75616    230.37649    36638.639 
  656300    296.69662    -1459.964    487.87668    358.92902    348.85729    36638.639 
  656400    306.47606   -1490.5597    494.81447    379.14285   -66.792964    36638.639 
  656500    299.07999   -1490.4993    472.47413    323.68326   -341.87696    36638.639 
  656600    296.30958   -1506.1424    462.26116     285.3988   -176.22309    36638.639 
  656700    294.72731   -1511.3478    490.69129    301.52525   -718.62198    36638.639 
  656800    304.94227   -1505.4471    456.54395    319.10418   -538.94295    36638.639 
  656900    310.14916    -1527.165    483.67462    347.87568    164.09181    36638.639 
  657000    296.20505   -1534.4025    475.06433    269.47297    171.34626    36638.639 
  657100    298.73651   -1510.5993    474.24751    303.81578    220.86871    36638.639 
  657200    301.38077   -1547.4554    478.11578    282.69043     -214.736    36638.639 
  657300     294.8761   -1566.7204    485.54151    241.67036    394.23392    36638.639 
  657400    295.21375   -1568.9031    455.49174    210.95271   -76.329031    36638.639 
  657500    305.97672   -1541.5174    502.05052     333.1811    742.21429    36638.639 
  657600     294.6003   -1525.5649    482.94638    278.99352    430.24001    36638.639 
  657700    298.80596   -1545.5884    466.09137    260.98215   -157.32392    36638.639 
  657800    307.59966     -1591.93    455.03563    243.03429     310.8668    36638.639 
  657900    307.46909   -1571.6295    476.24812    283.96158    449.23081    36638.639 
  658000    303.84517   -1552.8248    467.26746    277.52834    494.23731    36638.639 
  658100    294.15425   -1529.1994    468.98413    259.39571     226.7819    36638.639 
  658200    296.15739    -1534.255    470.72704    265.06933    -109.2461    36638.639 
  658300    302.83276   -1527.2261    489.78451    321.10222    -540.0921    36638.639 
  658400    297.32965   -1542.5053    470.94083    262.29175   -493.11599    36638.639 
  658500    311.39879   -1541.7831       484.94    340.12897   -169.46149    36638.639 
  658600    294.44195   -1550.4784    471.19899    241.62227    169.36555    36638.639 
  658700    311.97282   -1562.7131    465.79877    302.63286    538.72603    36638.639 
  658800    302.82649   -1554.1213    471.99098    276.38533    781.09294    36638.639 
  658900    303.23105   -1614.0775     462.5242    208.77729    1199.2218    36638.639 
  659000    295.60087   -1575.9916    495.34251    245.45167    448.91581    36638.639 
  659100    303.77161    -1565.843    459.71025    256.62284    424.54126    36638.639 
  659200    300.41318     -1604.86     457.4591    200.28846    -68.53458    36638.639 
  659300    305.57156   -1564.0812    506.14838    312.89759    207.71375    36638.639 
  659400    294.26544   -1512.3959    479.35487    287.06884    426.53279    36638.639 
  659500    311.64228   -1519.5952    488.54418    367.01334   -232.74063    36638.639 
  659600    307.74399   -1469.3092       489.16    400.42707    244.80653    36638.639 
  659700      301.171   -1505.0956    482.21261    328.20593    140.80171    36638.639 
  659800    299.88876   -1533.2093    490.77186    302.89929    577.67296    36638.639 
  659900    304.95563   -1542.9241    458.39122    283.53439    174.03025    36638.639 
  660000    308.59948   -1521.9505    479.64422    342.10774    182.52959    36638.639 
  660100    303.76805   -1497.8966    483.57362    348.41672    245.46694    36638.639 
  660200    295.26344   -1545.2394    474.67369    254.02121    230.49012    36638.639 
  660300    296.42476   -1495.7921    486.94755    320.95224    235.59433    36638.639 
  660400    300.16305   -1497.1026    480.15089    329.61551    211.52356    36638.639 
  660500    290.14797   -1538.1963    473.35811    236.80014    181.57822    36638.639 
  660600    308.36123   -1503.3212    489.37975    369.40377   -188.29157    36638.639 
  660700     297.0578   -1500.9323    483.18174    314.88612    31.211139    36638.639 
  660800    306.81217   -1528.6362    476.59935    324.35915   -240.08464    36638.639 
  660900    307.74717   -1530.4082    495.95424    346.13652   -37.540723    36638.639 
  661000    301.73711   -1499.2559    514.83224    369.20499   -90.818569    36638.639 
  661100    299.72836   -1523.2397    483.42341    304.80085    405.13171    36638.639 
  661200    302.63416   -1519.6722    497.83827      335.819   -147.26489    36638.639 
  661300    288.27621   -1501.6129    486.69973    278.32821     103.4452    36638.639 
  661400    302.06104   -1521.9179    505.46803    338.63193   -107.10557    36638.639 
  661500    290.62726   -1518.3707    479.64529    265.06309   -26.889296    36638.639 
  661600    303.05022   -1506.6939    476.39496    329.22048    432.22653    36638.639 
  661700    297.16295   -1516.2429    487.47731    304.34281     474.1149    36638.639 
  661800    293.90312    -1491.705    479.56325    306.34265    518.79661    36638.639 
  661900    302.34047     -1496.42    497.89917    357.81455    413.40597    36638.639 
  662000    301.54931   -1535.0508    489.13117    306.86643    523.13123    36638.639 
  662100    291.66153   -1505.9792    491.74982    294.19898    528.23364    36638.639 
  662200    301.94976   -1549.5585    498.76854    303.79266    453.25523    36638.639 
  662300    296.50168   -1560.9533    469.70672    238.89531   -85.030751    36638.639 
  662400    293.36234   -1579.0983     496.5691    233.52923     245.5932    36638.639 
  662500    290.20602   -1585.7779    472.74643     188.8673    197.45162    36638.639 
  662600     306.7235   -1568.7269    504.88385    312.15507   -39.170414    36638.639 
  662700    304.95872   -1575.6616    468.37139     260.7909    458.76027    36638.639 
  662800     294.3595   -1598.4354    488.92844    211.02485     144.2287    36638.639 
  662900      312.315   -1584.8254    507.68836    323.94528   -25.274528    36638.639 
  663000    304.95142   -1549.0381    465.81094    284.82129   -405.65914    36638.639 
  663100    305.65394   -1543.2421    479.09516    307.05305    350.03864    36638.639 
  663200    306.22742   -1559.9187    504.52905    318.38299   -326.55174    36638.639 
  663300    297.45367   -1542.0652    488.95673     281.3041   -393.00607    36638.639 
  663400    291.93084   -1504.3283     481.4823    286.79053   -342.75688    36638.639 
  663500    297.37474   -1549.8363    506.59318    290.81542    -468.7092    36638.639 
  663600    302.70097   -1503.0817    475.40829    330.27924   -237.75518    36638.639 
  663700    322.72981   -1495.9511      511.906     463.7593   -246.94677    36638.639 
  663800    289.79636   -1509.4594    466.03766    256.63925    456.01117    36638.639 
  663900    299.16593   -1502.9013    488.79478    327.98748   -23.483006    36638.639 
  664000     300.8713   -1504.3447    484.64279     330.0426   -391.74343    36638.639 
  664100    298.04887   -1465.0665     476.3099    348.32614   -660.21067    36638.639 
  664200    307.43082   -1497.3357    505.68154    387.51716    393.83515    36638.639 
  664300    295.04665    -1446.011    500.08518    377.68855    269.99173    36638.639 
  664400    295.93723   -1473.1853    494.95022    349.37464   -517.60635    36638.639 
  664500    300.61741   -1496.8112    485.88994    337.68428    -411.9796    36638.639 
  664600    301.97292   -1524.0649    510.02328     340.6449   -485.79147    36638.639 
  664700    282.49565   -1540.6704    485.82428    212.46302   -232.41524    36638.639 
  664800     305.2847   -1563.8565    489.69289    295.37987   -464.03558    36638.639 
  664900    299.74784   -1565.2592    481.56069    261.00601   -638.72482    36638.639 
  665000    299.79609   -1532.8157    495.99373    308.09897   -107.44015    36638.639 
  665100    299.31054    -1553.453    482.03452    271.32423   -276.32255    36638.639 
  665200    280.43422   -1548.4039    483.02826     192.6857   -51.320651    36638.639 
  665300    302.41729   -1554.7583    492.93367    294.85535    424.49865    36638.639 
  665400    299.26505   -1574.9298    471.95222    239.56109     100.0538    36638.639 
  665500    305.60467   -1561.1983    484.27099    294.05159   -141.32881    36638.639 
  665600     297.3497   -1520.1401     508.7051    322.51115   -172.81346    36638.639 
  665700    307.24911   -1530.6681    477.92778     325.6158   -141.98212    36638.639 
  665800    284.79347   -1572.1136    471.06996     176.5738   -70.332184    36638.639 
  665900     294.3504    -1570.244    470.52079    220.76773    119.22573    36638.639 
  666000    293.56521   -1549.0936    486.79609    254.67096     25.04436    36638.639 
  666100    307.64112   -1563.8804    486.34601    302.58026    344.69227    36638.639 
  666200    309.26697    -1577.654    496.11696    305.87139    383.87177    36638.639 
  666300    304.77051   -1586.7057    469.36754    249.89865    515.82237    36638.639 
  666400    293.16454   -1578.2537    496.97924    233.89654    383.79772    36638.639 
  666500    302.81447   -1556.4899    480.87462    282.84655    347.85234    36638.639 
  666600    294.64542   -1562.1307    487.76556    247.44928    208.12898    36638.639 
  666700    295.77862   -1568.3256    484.00685    242.57936    183.32446    36638.639 
  666800    296.82427   -1551.1613    487.58964    268.01733    273.66552    36638.639 
  666900    298.41473   -1551.6787    485.79458    272.83991   -138.81533    36638.639 
  667000    299.07994   -1545.1703    457.23295    253.77091   -262.16175    36638.639 
  667100     291.1575   -1535.0207    481.37101    252.51758   -1056.2532    36638.639 
  667200    292.80369   -1540.8549    491.31123    264.00861   -366.58458    36638.639 
  667300    299.12035   -1556.1554    468.03882    253.77293    213.85982    36638.639 
  667400     299.9717   -1559.3978    495.23909    281.55005    695.15216    36638.639 
  667500    301.40984   -1570.9167    476.75928    258.00308   -2.8448387    36638.639 
  667600    288.36071   -1559.2589    492.80945     227.1711   -39.071973    36638.639 
  667700    296.82499   -1556.9877    486.28989    260.89447    137.09975    36638.639 
  667800    306.44447   -1589.2144     486.9284    272.46037   -405.92632    36638.639 
  667900    309.48015   -1585.5427    463.30696    266.12906    1.9320368    36638.639 
  668000    310.16909   -1576.6681    498.00055    312.78792    109.36439    36638.639 
  668100    307.83634   -1557.0032    472.05213    296.03939   -200.91322    36638.639 
  668200    300.24253   -1545.3867    491.53062     293.0677    9.7344806    36638.639 
  668300    296.52862   -1534.1607    504.44114    300.54313   -90.666236    36638.639 
  668400    295.40933   -1549.2923     488.4806    264.42974    240.90008    36638.639 
  668500    297.04021   -1565.4412    496.40017    263.51677   -46.039548    36638.639 
  668600    291.76732   -1527.3333    484.89676    266.46639    204.96501    36638.639 
  668700    300.94651   -1538.2337    517.12217    328.97036    388.61866    36638.639 
  668800    295.52699   -1556.1367    477.50554    247.13812   -407.75515    36638.639 
  668900    304.31228   -1544.1113    495.94434    317.01419   -270.25779    36638.639 
  669000    302.67267   -1547.7972    470.34993    280.37836   -225.86483    36638.639 
  669100    301.49402   -1539.1415    508.38928    321.78585   -412.00229    36638.639 
  669200    300.34338   -1557.8517    463.30667    252.83112   -842.25793    36638.639 
  669300    300.45909   -1554.7534     469.6221    262.76401   -530.09127    36638.639 
  669400    288.07231   -1556.0154    473.68887    210.00021   -1014.0842    36638.639 
  669500    296.58576   -1576.0773    482.51077    236.95258   -206.26708    36638.639 
  669600    299.30758   -1550.5141     469.9572    262.17255   -441.03637    36638.639 
  669700    294.44945   -1588.5885    495.70882    228.05557    -374.5671    36638.639 
  669800    296.55164    -1547.639    467.73514    250.46209    314.92011    36638.639 
  669900    303.54911   -1559.6188    497.85742    299.99611    209.95682    36638.639 
  670000    292.03435   -1552.6547    483.02829    240.47448    -321.1998    36638.639 
  670100    288.48775   -1576.4875    446.48719    164.19009   -103.37009    36638.639 
  670200    298.92363   -1521.9038    456.81987    275.92308   -630.60943    36638.639 
  670300    303.44186   -1514.5325    493.00814      339.752   -180.40184    36638.639 
  670400    304.44646   -1531.8857      487.211    321.10836    -248.0666    36638.639 
  670500    300.75177    -1525.789    473.31373    296.73307    48.752211    36638.639 
  670600     300.3854   -1546.5054    508.76101    309.82035    126.07869    36638.639 
  670700    292.92436   -1530.8241    465.31507    248.58456    133.68953    36638.639 
  670800    295.45335   -1510.7141    505.70257    320.42738    219.48038    36638.639 
  670900    290.76471   -1504.1782    500.12551    300.35243   -94.360802    36638.639 
  671000    297.58601   -1523.0438    472.26926    284.23173   -288.95232    36638.639 
  671100    304.01146   -1539.9691     455.4861     279.3486    162.51973    36638.639 
  671200    301.95589    -1533.191    505.13116    326.55031    237.40853    36638.639 
  671300     292.5357   -1549.4917    507.65826    270.51652     26.59581    36638.639 
  671400    289.49119   -1534.3011    505.71724    270.10806    343.84916    36638.639 
  671500    295.96448   -1567.7272    484.89035    244.89512    805.46415    36638.639 
  671600    308.10017   -1511.6514    486.61751    357.14021    725.62244    36638.639 
  671700    295.67874    -1504.919    491.18493    312.71597    -15.55464    36638.639 
  671800    293.40351   -1524.6774     517.5211    309.08682    168.72469    36638.639 
  671900    304.11532   -1524.3379    484.04354    324.00318    390.35389    36638.639 
  672000     297.7372   -1518.0252    486.80453    304.46385   -152.22648    36638.639 
  672100    303.32007   -1493.8662    493.75849    360.62233   -583.87536    36638.639 
  672200    299.32686    -1500.225    505.08822    347.67913   -617.84878    36638.639 
  672300    299.64051   -1502.3647    477.83786    319.69614   -535.37789    36638.639 
  672400    305.41789   -1509.4407    475.37937    336.07972    -460.3999    36638.639 
  672500    311.16924   -1504.6031    538.46751    429.80666   -24.283174    36638.639 
  672600    293.23898   -1482.8496    475.17412    307.82954    -371.0957    36638.639 
  672700    296.90726   -1499.1169    507.92916    340.77364   -539.02862    36638.639 
  672800    300.31682   -1473.8833    477.41762    350.79134   -103.14566    36638.639 
  672900    306.45258   -1491.1372    491.62198    375.26761    78.927922    36638.639 
  673000    316.60522   -1541.2796    503.05791    382.10706    670.85862    36638.639 
  673100    308.69285   -1510.2145    493.08931     367.7077    588.11154    36638.639 
  673200    307.04818   -1489.5259    494.69116    382.61996    506.99156    36638.639 
  673300    309.88749   -1492.5428    482.98897    380.63837    198.82404    36638.639 
  673400     305.9196   -1487.1204    490.90021    376.17159   -82.372751    36638.639 
  673500    300.85681   -1500.0602    496.14296    345.76231    155.65557    36638.639 
  673600     299.6425   -1446.5904    483.79263    381.43419     323.1505    36638.639 
  673700    304.71383   -1499.1833    517.70948    385.50867    369.59465    36638.639 
  673800    305.26649    -1539.359    486.61399    316.71682    341.42274    36638.639 
  673900    308.75557   -1574.8219    466.43559     276.7279    153.61355    36638.639 
  674000    300.48146   -1558.2327    474.24568    264.00861    154.14937    36638.639 
  674100     300.5916   -1528.3045    465.03791    285.22316      860.746    36638.639 
  674200    294.86149   -1532.1447    475.11084    265.74992    226.18842    36638.639 
  674300    300.66477   -1549.4351    487.24929    286.63218    471.13961    36638.639 
  674400    292.40382   -1501.6634    499.31475    309.40969    372.98911    36638.639 
  674500    297.29107   -1524.4213    488.39773    297.65961   -245.07725    36638.639 
  674600    306.17875   -1533.2142    468.80053    309.14074    351.52737    36638.639 
  674700    308.39897   -1531.4144    471.58754    323.68772      79.8462    36638.639 
  674800    305.30861   -1538.8127    494.03474    324.87287    339.87566    36638.639 
  674900    304.66071   -1553.1698    464.70305    278.27745    -369.4749    36638.639 
  675000    295.84765   -1502.8311    503.35145    327.72811    464.89371    36638.639 
  675100    290.39004   -1527.5675    474.91218    250.06898   -380.13051    36638.639 
  675200    312.58684   -1515.0862    519.21514    406.43072   -47.900442    36638.639 
  675300    294.76042   -1484.4617    471.37836    309.24701   -514.81171    36638.639 
  675400    298.66844   -1461.3376    534.90892    413.43354    -236.9488    36638.639 
  675500    293.18504   -1507.6787     489.9093    297.49363   -383.37064    36638.639 
  675600    300.18995   -1528.9947    473.32708    291.02023    276.05509    36638.639 
  675700    301.21198   -1530.7498    491.70918    312.23219    381.91999    36638.639 
  675800    296.83115   -1554.2181    471.59646    248.99824   -229.86449    36638.639 
  675900    302.84576   -1551.4642    464.61367    271.75161     314.6405    36638.639 
  676000    301.19613   -1542.0423    490.68497     299.8444    965.67207    36638.639 
  676100    301.04474   -1510.0601    467.77778    308.24018    312.60086    36638.639 
  676200    296.29525   -1536.3068    496.31002    289.21899    435.38505    36638.639 
  676300    301.80914   -1565.2459    468.31171    257.01754    -60.13643    36638.639 
  676400    294.67802   -1532.3941    475.85175    265.41837   -11.855044    36638.639 
  676500    301.49727   -1552.4441    509.16156    309.27012    295.40631    36638.639 
  676600    297.66288   -1562.0164    437.63257    210.96733   -96.935028    36638.639 
  676700     304.5421    -1560.247     503.0298    308.99494    -691.7211    36638.639 
  676800    295.32098   -1564.3781    459.93372    220.40078   -1167.1851    36638.639 
  676900     301.7869   -1530.4422    471.37466    294.78449   -750.22656    36638.639 
  677000     304.8453   -1518.0269    501.49788    351.04332   -185.50561    36638.639 
  677100    298.45616   -1556.2938    459.29622    241.91232   -740.60798    36638.639 
  677200    302.00219   -1553.7347     480.9603    282.04337    -412.3597    36638.639 
  677300    296.57728   -1553.9375    472.04807    248.59157   -182.86666    36638.639 
  677400    301.92275   -1562.5243    466.05175    257.98884    607.62715    36638.639 
  677500    299.11594   -1492.8804    474.37287    323.36221    552.82862    36638.639 
  677600    301.35882   -1473.3665    501.73005    380.29513    468.66646    36638.639 
  677700    290.22729   -1536.5182    450.16547    215.64146    378.73931    36638.639 
  677800    293.42622   -1508.2756    482.11608    290.18552   -322.98514    36638.639 
  677900    302.04534    -1519.601    482.98792    318.39829    475.40282    36638.639 
  678000    293.89096   -1508.7441    466.19674     275.8825     515.9938    36638.639 
  678100    296.05257   -1524.3141    477.36333    281.17636    233.22879    36638.639 
  678200    298.12027   -1504.7022    481.98512    314.68594    -303.1758    36638.639 
  678300    294.98206   -1490.7479    460.63113     293.2079    31.454464    36638.639 
  678400    295.78656   -1479.9006    496.77784    343.81096   -75.582118    36638.639 
  678500    302.40755   -1526.2626    493.00626     323.3799    336.02959    36638.639 
  678600    300.79202   -1563.3782    467.60883    253.61951    250.28758    36638.639 
  678700    302.93537   -1528.7032    500.02608    330.32706    732.75015    36638.639 
  678800     310.9682   -1510.3599    498.76372    383.44424    717.01418    36638.639 
  678900    300.76408   -1475.4076    486.75426    360.61009    1282.5868    36638.639 
  679000    306.48436   -1496.3539    503.23257    381.80402    966.76316    36638.639 
  679100     295.7324   -1553.9877    484.44904     257.1521    552.05893    36638.639 
  679200    308.92685   -1536.2595    473.42165    323.04478    943.58404    36638.639 
  679300    299.70992    -1503.922     488.7301    329.34249    305.35393    36638.639 
  679400    302.46422   -1497.3238    439.72587    299.29258    279.30228    36638.639 
  679500    301.13491   -1463.1868    484.20535    371.94565    108.50409    36638.639 
  679600    294.77157   -1505.6631    488.74181    305.45908   -399.98477    36638.639 
  679700     301.1514    -1513.135    475.84025    313.70635    312.97742    36638.639 
  679800     293.2942   -1459.9775    519.76203    375.53728   -611.48445    36638.639 
  679900    296.85933   -1461.2563    460.34818    330.83825   -263.34292    36638.639 
  680000    292.24308    -1499.474    486.37393    297.93715   -751.34606    36638.639 
  680100    301.83087   -1497.2236     470.9404    327.76601    21.648344    36638.639 
  680200    295.82176   -1479.8765    490.03582    337.25096    637.69626    36638.639 
  680300     285.5251   -1489.8456    467.03197    258.08595   -243.61097    36638.639 
  680400    294.20654   -1534.2944    478.41915    263.97033   -745.72819    36638.639 
  680500    306.59803   -1520.4717    479.61305    334.57665   -341.75603    36638.639 
  680600    304.21806    -1502.253    468.17943    330.68494   -378.32493    36638.639 
  680700    299.59732   -1521.6907    457.91267    280.25124   -180.75846    36638.639 
  680800    311.18058   -1541.5058    453.72194    308.20927    336.98131    36638.639 
  680900    302.39596   -1550.7394    485.18608    291.03092   -115.12376    36638.639 
  681000    293.19319   -1542.3794    484.61706    257.53719    89.896357    36638.639 
  681100    304.44137   -1529.2365    470.74354    307.26726   -67.423371    36638.639 
  681200    303.34575   -1481.6406    490.48412    369.68869   -129.49703    36638.639 
  681300    306.34044   -1524.0609    478.42517    328.64399   -379.29345    36638.639 
  681400    308.81537   -1538.8117    481.64464    328.21546   -637.38543    36638.639 
  681500    298.40467   -1534.6026    464.94791    269.02424   -654.41734    36638.639 
  681600    293.70305   -1511.5039     470.5348    276.61774   -571.63741    36638.639 
  681700    304.07323    -1535.081    456.94305    285.97076   -394.69167    36638.639 
  681800    315.18394   -1524.8744    488.36046    377.43875   -54.827522    36638.639 
  681900    299.55603   -1511.4503    477.14213    309.53592   -746.16395    36638.639 
  682000    293.66788   -1456.5387    476.71294    337.60329     39.03845    36638.639 
  682100     303.6361   -1483.9424    458.31605    336.52131   -70.060891    36638.639 
  682200    291.60196   -1490.3286    461.67611    279.50861   -436.19289    36638.639 
  682300    294.27474   -1454.4485    496.82921    362.53223     -68.5723    36638.639 
  682400    306.24821   -1494.3115    481.81981    361.37425   -331.78192    36638.639 
  682500    302.92646   -1479.7911    492.00948    371.18252   -18.995668    36638.639 
  682600    303.02418    -1481.078    491.70607    370.03062   -134.81501    36638.639 
  682700    295.95655    -1469.672    493.14256    351.16695   -230.57737    36638.639 
  682800    295.34012   -1467.4453    450.87709    308.36272   -68.272625    36638.639 
  682900    293.05478   -1522.8447    471.39921    263.23317    133.62415    36638.639 
  683000     305.8308   -1521.0669    451.78595    302.71245    283.51195    36638.639 
  683100      305.135   -1532.4611     450.9786    287.38945   -93.889209    36638.639 
  683200    309.86121   -1476.8191    487.90237    401.15756   -22.237319    36638.639 
  683300    303.65514   -1472.6422    476.29921    365.89019    289.96889    36638.639 
  683400    299.19008   -1490.6973    487.15136     338.6564    174.88835    36638.639 
  683500    294.45139   -1497.9612    476.73464    299.71743   -30.024225    36638.639 
  683600    292.96044   -1544.4177    465.97349     235.8112   -454.87939    36638.639 
  683700    298.33775   -1523.8446    469.80987    284.34394   -52.763819    36638.639 
  683800     299.0879   -1520.1339    438.06004    259.67009    15.643497    36638.639 
  683900    304.54989    -1526.004    466.57545    306.81848    242.09734    36638.639 
  684000     301.1496   -1549.4653    455.34213    256.86985   -150.21802    36638.639 
  684100    293.06341   -1523.5371    486.77991    277.96017   -465.38105    36638.639 
  684200     310.0775   -1494.3598    473.63876    370.32354    214.85505    36638.639 
  684300     293.0597   -1521.5935    463.22723    256.33446   -97.593841    36638.639 
  684400    298.10591   -1513.5114    477.44524    301.27248   -70.153039    36638.639 
  684500    285.09451   -1522.2979    484.70155    241.37157   -441.42048    36638.639 
  684600    299.22751   -1599.3571    470.08393    213.09709   -127.61278    36638.639 
  684700    292.14799   -1595.0248    451.23588    166.82176   -253.93853    36638.639 
  684800    298.02269   -1573.2259     479.9088    243.64814     591.8274    36638.639 
  684900    290.80895   -1603.2065    466.91253    168.30961   -394.68535    36638.639 
  685000    307.32566   -1544.7016    478.23946    312.23736   -98.008137    36638.639 
  685100    303.95145   -1527.6387    468.74216    304.66593   -431.64862    36638.639 
  685200    307.52504   -1554.3225    469.61434    294.88579   -120.90265    36638.639 
  685300    302.43249   -1551.9084    442.53953    247.37931   -451.54019    36638.639 
  685400    295.35277   -1530.5094    457.96192    252.44026    232.08701    36638.639 
  685500    304.62816   -1566.3096    491.48839    291.77707   -333.83346    36638.639 
  685600    306.29194   -1565.5389    458.10315    266.62642    -261.3171    36638.639 
  685700    303.68106   -1553.0428    427.93892    237.24553   -211.39921    36638.639 
  685800    296.60884   -1548.8662    451.62449    233.38089   -189.83133    36638.639 
  685900    291.03086   -1600.8905    432.72249    137.43111   -684.33219    36638.639 
  686000     294.0925    -1555.169    467.52571    231.69074   -690.55954    36638.639 
  686100    300.03549   -1564.2349    453.22666    234.98674   -304.29966    36638.639 
  686200    302.41678   -1520.6286    452.80107    288.85015   -574.69984    36638.639 
  686300    299.81802   -1503.8493    460.09608    301.26611    63.895862    36638.639 
  686400    294.52276   -1541.9081    475.23298    254.58908    452.22748    36638.639 
  686500    300.01925   -1542.5258    441.36039    244.75669    86.697474    36638.639 
  686600    300.49883   -1468.3266     482.5841    362.33112   -5.8059457    36638.639 
  686700    293.84036   -1467.8463    476.80404    327.16056    238.98386    36638.639 
  686800    294.99642   -1476.3061    451.12766     298.2106    24.574829    36638.639 
  686900    303.48947   -1520.1498    463.79191    305.13202    421.25208    36638.639 
  687000    304.56301   -1472.7683    469.52168    363.05933   -182.38911    36638.639 
  687100    294.09611   -1500.5816    454.68388    273.45244    -163.6228    36638.639 
  687200    299.81739   -1486.4889    459.19429    317.72189   -172.23393    36638.639 
  687300    302.02289   -1512.5335    480.72251    323.09967   -278.69921    36638.639 
  687400    304.11518   -1493.3239    471.22104    342.19406   -222.41417    36638.639 
  687500    291.52488   -1476.7106    473.58375    304.68847   -824.89683    36638.639 
  687600    307.18744   -1487.7026    460.03243    350.40924   -680.92932    36638.639 
  687700    302.31318   -1515.0427    448.82206    289.99232   -318.42909    36638.639 
  687800    290.74068   -1490.7004    477.31544    290.91235   -495.51226    36638.639 
  687900    291.88273    -1497.384    470.28454    282.32122    145.98343    36638.639 
  688000    310.65951   -1566.0374    434.60472    262.22286    179.23856    36638.639 
  688100    297.53153   -1508.9473    442.41154    268.22608   -212.90944    36638.639 
  688200    298.31637   -1484.6708    469.90834    323.52036    127.63226    36638.639 
  688300    312.02784   -1500.1978    480.29326    379.88956    66.033249    36638.639 
  688400    296.12732   -1510.0681    462.80133    281.19562    190.06416    36638.639 
  688500    303.40986   -1489.7646     486.8555     358.2237   -102.26118    36638.639 
  688600    296.70007   -1506.0525    462.18867    287.16804    280.62188    36638.639 
  688700    305.70251   -1489.4426    444.66298    326.63829    64.759032    36638.639 
  688800    293.82908   -1482.0035    483.52165    319.67036    812.81779    36638.639 
  688900    303.37037   -1459.5711    469.67802     371.0625    972.80063    36638.639 
  689000    302.72127    -1476.429    485.27824     366.8929    580.44696    36638.639 
  689100    293.98747   -1480.1726    451.69353     290.3838   -28.551241    36638.639 
  689200    304.22042    -1493.899    475.07512    345.94515   -543.04736    36638.639 
  689300    298.36879   -1459.1123    482.70975    362.11537   -892.05552    36638.639 
  689400    296.55985   -1520.6642    446.36896    256.10756   -1179.2999    36638.639 
  689500    298.56102   -1528.9096     461.1185    271.58916   -357.77758    36638.639 
  689600    298.02638   -1517.2145    486.73684    306.50417   -8.8477187    36638.639 
  689700    299.48408   -1537.9806    462.48319    268.02384    339.72074    36638.639 
  689800    299.70511   -1557.6829    473.58664    260.41656    24.467105    36638.639 
  689900    285.90248   -1584.4317    479.99959     178.1605    147.05661    36638.639 
  690000    294.59438   -1540.9478    440.79413    221.43183    2.6189937    36638.639 
  690100    293.93974   -1561.5415    486.58146    243.68868   -388.45669    36638.639 
  690200    305.39886   -1508.2954    460.22034    321.98062   -238.99536    36638.639 
  690300    296.93217   -1472.1256    472.62244    332.56992   -188.62575    36638.639 
  690400    309.07985   -1464.5661    501.65551    423.65843   -548.69622    36638.639 
  690500    289.89004   -1458.8831    457.95265    299.55079   -769.01268    36638.639 
  690600     304.6178   -1471.0454    491.34587     386.8522   -859.41619    36638.639 
  690700    301.90258    -1442.902    467.02296    378.49192   -1276.7708    36638.639 
  690800    304.62461   -1459.2862     465.1604    372.45643   -957.88469    36638.639 
  690900    314.66062   -1502.7555    479.19864    388.04818   -413.13245    36638.639 
  691000    307.26489   -1540.0889    478.33709    316.67506    53.099185    36638.639 
  691100    301.34391   -1498.9392    466.07645    319.00191   -4.3522066    36638.639 
  691200    292.91803   -1528.9709    455.02937    240.12367   -781.56422    36638.639 
  691300    305.18947   -1508.4444    442.78796     303.4599   -242.17712    36638.639 
  691400     299.5104   -1511.7913    458.93601     290.7841   -38.349626    36638.639 
  691500    301.26746   -1511.4991     465.6184    305.64101    43.936126    36638.639 
  691600    295.85263   -1515.0588    496.66141    308.83277    349.28646    36638.639 
  691700    300.28143   -1513.6032    468.93075    302.42578    206.59536    36638.639 
  691800    298.75834   -1499.2081    485.44302    326.50044   -35.003398    36638.639 
  691900    294.01709   -1531.0058    459.65529     247.6452   -158.74822    36638.639 
  692000    306.15359   -1525.8864    457.39268    304.94774   -107.69456    36638.639 
  692100    296.11507   -1515.6762    486.48287    299.21416   -150.95954    36638.639 
  692200    290.48894   -1516.7141      453.982    240.43592   -536.29117    36638.639 
  692300    294.43417   -1517.5755      450.574    253.86523   -518.55735    36638.639 
  692400    307.16867   -1502.9481    442.57425    317.62138   -197.40629    36638.639 
  692500    291.84952   -1474.2253    483.79405     318.8405   -553.13447    36638.639 
  692600     292.1288   -1558.5925    464.41633    216.34838   -374.56723    36638.639 
  692700    316.77076   -1523.9983    483.05326    380.12631    44.731494    36638.639 
  692800    307.09436    -1485.536    471.75815    363.88405   -196.73116    36638.639 
  692900    306.87056   -1509.1421    449.15454    316.67037     -238.955    36638.639 
  693000    294.67802   -1502.7998    480.59755    299.75844   -912.84994    36638.639 
  693100    300.55445   -1503.9518    479.87416    324.24541   -64.623605    36638.639 
  693200    295.50945   -1516.1898    464.98206     274.4828     242.8815    36638.639 
  693300    298.76339   -1538.9169    451.55175    252.92305   -125.54348    36638.639 
  693400    288.47026    -1523.468    458.74803    229.39196   -189.45516    36638.639 
  693500    295.65594   -1487.6475    477.79375    316.49401    507.05341    36638.639 
  693600    307.24748    -1517.031    453.29714    314.61495    26.938401    36638.639 
  693700    308.34808    -1503.101    481.70638    361.89162    39.152963    36638.639 
  693800    303.06392   -1485.2399    446.60929    320.95026     306.8421    36638.639 
  693900    301.72736   -1503.8709    450.23242    299.94636   -162.49175    36638.639 
  694000    289.92524    -1542.539    446.79194    204.89206   -398.35684    36638.639 
  694100    301.59854   -1562.6424     464.7343    255.09891    137.46858    36638.639 
  694200      309.564   -1507.3216    459.92179     341.3412     135.7793    36638.639 
  694300    293.79758   -1486.1372    459.34598    291.21968   -34.841394    36638.639 
  694400    297.73471   -1549.4412     458.8357    245.06789    1.1568985    36638.639 
  694500    298.77251   -1490.0505    460.59777    310.87629   -46.354695    36638.639 
  694600    303.83808   -1522.3123    441.18985    281.93134    217.51322    36638.639 
  694700    304.50275    -1525.401    449.32862    289.96318   -327.00123    36638.639 
  694800    300.99951   -1489.8695    481.50242    341.95258   -524.82907    36638.639 
  694900    296.39135   -1488.9178    476.33062    317.05967   -539.22942    36638.639 
  695000    297.65314   -1519.4037    453.30143    269.20514    353.80358    36638.639 
  695100    301.42083   -1505.2081    463.12798    310.12964    131.71001    36638.639 
  695200    294.26351   -1500.4155    467.02853    286.71417    147.81983    36638.639 
  695300    289.88967   -1535.3212    477.48413    242.64249    216.76789    36638.639 
  695400    301.05447   -1517.4518    454.52183     287.6362   -10.860411    36638.639 
  695500    301.87671   -1530.9064    493.35707    316.70552    160.94426    36638.639 
  695600    308.19998   -1542.0906    458.11147    298.64271    620.98709    36638.639 
  695700    303.01977   -1550.6981    455.85844    264.54311   -169.27297    36638.639 
  695800     304.8623   -1555.0965    466.76763    279.31972    20.865218    36638.639 
  695900    297.18434   -1544.9961    434.83051     223.0388   -495.77095    36638.639 
  696000    294.41457   -1551.1544    453.38231    223.00675   -999.90523    36638.639 
  696100    302.28163   -1577.7103    446.03287    224.39395   -517.75385    36638.639 
  696200    300.35332   -1582.2255    454.32786     219.5232   -352.94419    36638.639 
  696300    288.24417   -1542.7034    443.71561    194.10993   -343.57984    36638.639 
  696400    301.92816   -1534.3278    485.05903    305.21688    324.79363    36638.639 
  696500    291.49022   -1521.7836    411.40507    197.28136     -134.031    36638.639 
  696600    299.80592    -1549.858    468.58526    263.69235   -538.29267    36638.639 
  696700    304.19314    -1528.091    456.98576    293.54135   -118.88905    36638.639 
  696800    292.53284   -1495.7113    461.93925    278.56512    558.94559    36638.639 
  696900    304.23747   -1437.5009    451.57335    378.91802    338.04568    36638.639 
  697000    313.00736   -1433.2001    492.20683    463.19502    243.43247    36638.639 
  697100    300.16505    -1434.616    450.04185    362.00198    47.978098    36638.639 
  697200    301.91076    -1476.153    472.72894    350.98355    425.76668    36638.639 
  697300    296.08846   -1499.0864    494.73566    323.93739   -54.507777    36638.639 
  697400    303.18851   -1510.3765    451.45972    301.22294    -154.0489    36638.639 
  697500    309.76129   -1512.2491    435.86224    313.23924    134.04887    36638.639 
  697600    298.73599    -1493.531    478.31185    324.94609    447.31267    36638.639 
  697700    294.62388    -1496.262    487.30406    312.75983   -53.055545    36638.639 
  697800    291.78114   -1551.6589    444.27239    201.57844   -355.31917    36638.639 
  697900    300.99024   -1525.6261    490.13654    314.78854    600.08999    36638.639 
  698000    287.36253   -1509.7913    471.76835    251.11957    391.89903    36638.639 
  698100    295.13284   -1463.9053    456.94983    317.04563    275.47631    36638.639 
  698200    307.61102   -1483.0856    474.03661    370.93067     651.5515    36638.639 
  698300     300.2221   -1507.2164    473.24369    312.85942    57.604049    36638.639 
  698400    305.69924   -1534.5824    460.00887    296.82969    143.45325    36638.639 
  698500    293.28863   -1514.1792    447.79815    249.34668   -79.883903    36638.639 
  698600    313.05691   -1480.3257    477.09797    401.18289   -891.19781    36638.639 
  698700    296.54959   -1494.6881    418.93617     254.6048   -341.71881    36638.639 
  698800    303.10361   -1474.9978    481.32099    366.08206   -596.56476    36638.639 
  698900    295.62417   -1505.5208    469.30215    289.98656    104.93295    36638.639 
  699000    309.27256   -1496.2645    479.54532    370.71437     517.9961    36638.639 
  699100    302.09055   -1467.1097    481.96872     370.0732    768.15274    36638.639 
  699200    304.10929   -1476.4965    442.86313    330.63712     887.6315    36638.639 
  699300     310.6993   -1493.3249    485.01749    385.52664    850.42018    36638.639 
  699400    290.26897   -1484.2123    469.45708    287.42594    292.31219    36638.639 
  699500      299.834    -1516.115    497.53115    326.50721    381.18746    36638.639 
  699600    309.58836   -1496.1811    444.98707    337.65626    539.18817    36638.639 
  699700    299.08173   -1482.6853    487.54839    346.57941     69.72677    36638.639 
  699800    304.91409    -1463.409    467.70389    372.17582   -218.03843    36638.639 
  699900    296.77573   -1498.5938    461.53989    294.31738   -2.9599521    36638.639 
  700000     309.6135   -1515.6177     468.5562    341.90159   -71.008445    36638.639 
  700100    300.72868   -1483.4474    449.98491    315.64224   -292.70445    36638.639 
  700200    297.69508   -1524.9923    463.02774    273.53099   -71.217619    36638.639 
  700300    296.22301   -1504.6658    463.38583    287.61179    206.00407    36638.639 
  700400    307.57985    -1512.761    481.71721     348.7961   -150.41174    36638.639 
  700500    305.15624    -1520.043    445.56586    294.49008   -93.318989    36638.639 
  700600    306.20599   -1566.3619    465.31658    272.63126   -221.37324    36638.639 
  700700    307.01872   -1538.3731    436.28815    275.23763    213.58198    36638.639 
  700800    294.27565   -1499.1254    477.40823    298.43841    289.88445    36638.639 
  700900     300.6509   -1506.4268    456.23093    298.55985    236.44402    36638.639 
  701000    297.66766   -1511.1716    462.87136     287.0724    13.249482    36638.639 
  701100    308.31531   -1497.9461    467.10593     352.2991    238.33223    36638.639 
  701200    290.25633   -1499.7042     475.6481    278.06834   -10.511951    36638.639 
  701300     295.9339   -1521.9506    467.35778    273.00189    444.96766    36638.639 
  701400    307.97577   -1557.7999    443.55114    267.36724      602.671    36638.639 
  701500    308.67772    -1574.053      450.146    260.85798    146.21625    36638.639 
  701600    295.74937   -1525.0553    463.52421    265.23581   -222.92024    36638.639 
  701700    301.93124   -1496.5909    441.95225    299.86082   -461.85753    36638.639 
  701800    299.85459   -1586.4703    458.12229    216.83539    150.64426    36638.639 
  701900    302.72078   -1538.5817    447.04822    266.50799    88.982154    36638.639 
  702000     304.0293   -1561.2309    447.84581    250.52659    252.09207    36638.639 
  702100    295.80736    -1585.587     440.3438    181.78383   -141.81274    36638.639 
  702200    300.08453   -1541.0953    456.97403     262.0937   -343.45426    36638.639 
  702300    293.67893    -1534.566    441.53856    224.45126    14.617264    36638.639 
  702400    302.97317   -1525.4221    452.71742    286.46902   -132.06235    36638.639 
  702500    302.13155   -1519.7214    454.08209    289.75887   -117.13361    36638.639 
  702600    288.87504   -1494.9678     450.6353    251.59532     810.6827    36638.639 
  702700    305.79636    -1506.892    471.08982    336.03674    783.10775    36638.639 
  702800    293.53122   -1461.6222    461.54421    316.73801   -98.418202    36638.639 
  702900    293.16801   -1459.9932    460.40152     315.5949   -123.23297    36638.639 
  703000    294.12984   -1508.0924    470.04259    281.45172    79.705057    36638.639 
  703100    302.25063    -1482.572    446.38302    319.74333    352.67846    36638.639 
  703200    297.98231   -1539.0895    457.83016    255.52481     224.7851    36638.639 
  703300    301.50761   -1499.7522    487.59297    340.43978    55.653572    36638.639 
  703400    300.09068    -1510.474    447.31938    283.08794    298.36774    36638.639 
  703500    291.61805   -1491.4442    471.46265    288.25178    180.79105    36638.639 
  703600    294.57582   -1485.2645    469.16448    305.40224    266.15845    36638.639 
  703700    300.65943   -1472.4519    457.59475    333.93688    37.911794    36638.639 
  703800    298.98161   -1513.8012    469.90573    297.37161    490.56587    36638.639 
  703900    293.60805   -1514.8283    460.56969    262.90211    849.82104    36638.639 
  704000    296.50877   -1446.1055    462.93684    347.00501    841.04297    36638.639 
  704100    299.49201   -1473.1584    493.45132    363.84975    848.46702    36638.639 
  704200    307.13935   -1479.0521    434.39243    333.20401    328.85049    36638.639 
  704300    303.39496    -1471.487    447.11625     336.6952    422.53497    36638.639 
  704400    305.20837   -1481.0213    425.05873    313.23852    562.74633    36638.639 
  704500    298.98045   -1501.6004    469.18083    308.84231    585.42694    36638.639 
  704600    302.27457   -1492.9868    490.89235    353.94525    510.08791    36638.639 
  704700    293.34267   -1471.7435    450.56975    294.79638   -68.520157    36638.639 
  704800    295.16982   -1487.4618    466.42253    303.12772      488.685    36638.639 
  704900    303.05411     -1469.17    462.69557    353.06237    589.90515    36638.639 
  705000    300.14391   -1486.2948    452.27041    312.45693      298.651    36638.639 
  705100    299.53361   -1513.1777    453.35827    283.92403    231.04452    36638.639 
  705200    300.64713   -1480.7755    445.63806    313.60141    18.401021    36638.639 
  705300    303.07337   -1452.4623    457.63062    364.79151   -284.60083    36638.639 
  705400    299.48896   -1426.0606    459.51925    377.00184   -896.11151    36638.639 
  705500    298.02211   -1463.0551    450.52496    324.43254   -994.91123    36638.639 
  705600    302.04629   -1413.0004    463.01272    405.02792   -958.62433    36638.639 
  705700    289.96945   -1449.1385    449.15562     300.8546   -617.79393    36638.639 
  705800    297.00445   -1461.3297    459.77597    330.84364   -513.35896    36638.639 
  705900    297.98414   -1477.5851    484.69987     343.9071    -1096.464    36638.639 
  706000    295.59475   -1455.4411    446.47226    317.10441   -890.80243    36638.639 
  706100     309.3037    -1497.537      455.309    345.34521   -301.67974    36638.639 
  706200    296.72613   -1480.2109    477.74039    328.67832   -607.67026    36638.639 
  706300    305.33391   -1473.7572    492.02765    388.03472    256.84425    36638.639 
  706400    307.89258   -1488.6977    445.91841    338.46354    424.77553    36638.639 
  706500    292.66795   -1447.0906    472.85978    338.71253    -21.31071    36638.639 
  706600    302.41148   -1440.7465    493.54264    409.45007   -41.591932    36638.639 
  706700    302.66052   -1467.4763    473.98163    364.27652    489.29379    36638.639 
  706800    300.61844   -1497.0082    473.46291    325.06482    -53.28431    36638.639 
  706900    304.53786   -1433.7069    467.91397    400.40012   -30.544286    36638.639 
  707000     307.4856   -1441.1119    480.27451    418.57963   -358.40641    36638.639 
  707100    300.51074   -1494.9395    444.80431    297.99177    71.865529    36638.639 
  707200    298.32159   -1439.6432    488.46131    387.12428   -133.12948    36638.639 
  707300    304.86003    -1463.893    452.33142    356.07679    433.55864    36638.639 
  707400    295.51004   -1485.7439    478.39958     318.3489    244.98734    36638.639 
  707500    302.96295   -1474.0198    470.45313    355.56116    17.011917    36638.639 
  707600    302.61651   -1451.7059    470.81835    376.68613    394.24335    36638.639 
  707700    302.70206   -1478.7529    481.26216    360.46679    426.69596    36638.639 
  707800    311.66476    -1442.918    484.83614    440.08335    159.35659    36638.639 
  707900    295.27783   -1480.7668    467.16263    311.04729    586.13054    36638.639 
  708000    292.74843   -1437.8099    476.99255    352.48699     60.90553    36638.639 
  708100     290.9679   -1450.9101    495.90251    350.30912   -42.941934    36638.639 
  708200    298.96674   -1458.0543    458.91128    342.05738   -747.69822    36638.639 
  708300     294.7768   -1505.6709    430.90195    247.63493   -708.44011    36638.639 
  708400    305.46311   -1478.9233    480.00517    371.42572   -52.387008    36638.639 
  708500    296.76471   -1473.4664    476.07715    333.93262   -517.25161    36638.639 
  708600    293.44577    -1469.275    455.89632    303.05395    -453.2425    36638.639 
  708700    290.11524   -1504.0523    465.16415    262.60336   -433.13165    36638.639 
  708800    307.62869   -1507.6657    481.38754    353.78076    643.78347    36638.639 
  708900    292.96062   -1488.4962     462.8301     288.5901    453.70274    36638.639 
  709000    313.09719   -1489.7071    468.77803    383.66224      794.146    36638.639 
  709100    297.42065   -1459.2138    498.68913    373.73985    378.60487    36638.639 
  709200    295.43944   -1452.8184    472.50127     345.0594   -243.01823    36638.639 
  709300    291.36719   -1487.5476    468.08878    287.64913    66.173392    36638.639 
  709400    294.94977   -1486.4845    486.69659    323.39186   -174.93851    36638.639 
  709500    301.94575    -1438.351    444.53364    360.74726    282.35277    36638.639 
  709600    298.15453   -1493.0827    460.93929    305.41329    259.15256    36638.639 
  709700    301.05061   -1532.3903     476.5403    294.69894    404.76104    36638.639 
  709800    297.22314   -1480.4753    462.18487    315.08796    893.78078    36638.639 
  709900    296.30854   -1476.5121    495.67756    348.44091    349.93954    36638.639 
  710000    293.87538   -1510.6623    481.72726    289.42492    602.72035    36638.639 
  710100    303.31556   -1496.1325    480.62783    345.20508    836.04311    36638.639 
  710200    293.50183    -1515.018    465.66621    267.33237    435.96427    36638.639 
  710300    292.15329   -1530.4528    474.51517     254.6968    92.117673    36638.639 
  710400    302.86291   -1531.7233    461.98368    288.93945    324.57363    36638.639 
  710500    299.66179   -1511.0377    450.16898    283.44981   -269.29079    36638.639 
  710600    292.66701   -1507.2085    462.20699    267.93755    398.40017    36638.639 
  710700    309.71938   -1542.1741    465.97684     313.2408    534.50836    36638.639 
  710800    301.84986   -1520.9785    483.34251    316.49839    420.61472    36638.639 
  710900    289.04718   -1542.0344    473.74701    228.41268    218.49036    36638.639 
  711000    305.90879    -1566.457    452.39294    258.27917    69.095542    36638.639 
  711100    296.37522   -1562.6694     473.9356    240.84076    143.57215    36638.639 
  711200    301.94109   -1561.0519    443.23027    236.72212    32.248882    36638.639 
  711300    295.25186   -1546.6418    472.13026    250.02346    93.900729    36638.639 
  711400     301.9816   -1504.8866    490.61266    340.45153    58.734219    36638.639 
  711500    299.94517   -1523.2059    447.87273    270.25655    75.321523    36638.639 
  711600    306.08192   -1584.8334     484.8044    273.09094   -181.10351    36638.639 
  711700    302.14184   -1549.7683      455.756    261.43199    139.95087    36638.639 
  711800    303.16104    -1515.368    456.18629    300.83484   -82.149266    36638.639 
  711900    297.39652   -1595.5514    444.94487    183.54968   -586.14711    36638.639 
  712000    299.47069   -1563.8553    424.80076    204.40661   -203.86144    36638.639 
  712100    301.67319   -1556.8092    470.02369    266.55634   -435.61636    36638.639 
  712200    297.17293   -1547.0658    449.78541    235.87277   -315.54007    36638.639 
  712300    308.66208   -1518.2818    493.66065    360.07371   -215.99872    36638.639 
  712400    299.59464   -1510.6195    453.19682    286.59451   -335.95893    36638.639 
  712500    296.27971   -1491.5057    461.20116     298.8415   -307.30035    36638.639 
  712600    304.80859   -1505.8001    460.00672    321.61425   -475.47378    36638.639 
  712700    295.08851   -1503.7093    469.07598    289.16893   -356.11669    36638.639 
  712800    295.93831   -1507.1614    462.30616    282.75924   -19.670626    36638.639 
  712900     295.3423   -1521.0843     473.4115    277.26797    510.84835    36638.639 
  713000    298.45167   -1503.2136    465.16991    300.84602    658.93157    36638.639 
  713100    295.81387   -1516.9107     471.6272    281.77277    264.10891    36638.639 
  713200    304.07539   -1519.4127    462.96006    307.66576    774.87662    36638.639 
  713300    306.72583   -1539.9937    465.32549    301.34041    272.34272    36638.639 
  713400    292.92885   -1562.3686    478.55767    230.30282    443.13274    36638.639 
  713500    308.76687   -1554.8189     444.9658    275.31191    465.74634    36638.639 
  713600    295.91905   -1567.1037    482.01979    242.44423   -36.411558    36638.639 
  713700    291.46819   -1534.9892    458.34339    230.91522   -265.55202    36638.639 
  713800    300.01166   -1514.7219    493.36046     324.5266   -417.35928    36638.639 
  713900    309.01862   -1531.5627    481.72551    336.45718   -345.37376    36638.639 
  714000    298.41092   -1565.9005    475.69751    248.50392   -376.00214    36638.639 
  714100    303.69848   -1572.6472    450.08334    239.86374   -60.718483    36638.639 
  714200    304.96733   -1542.4581    469.95381    295.61547    93.179189    36638.639 
  714300    291.09776   -1539.5065    469.45191    235.84467    350.24778    36638.639 
  714400    295.52427    -1562.342    459.80981    223.22488    179.74405    36638.639 
  714500    296.83711   -1490.2753    459.48082    300.85216  -0.53642657    36638.639 
  714600    302.17955   -1515.5342    491.05082    331.13005    436.27572    36638.639 
  714700    300.58006   -1539.7561    450.87853    259.56044    127.97997    36638.639 
  714800    300.51923   -1544.8979     458.3423    261.60945    417.77207    36638.639 
  714900    292.37701   -1551.9866    461.62614    221.27766    367.69141    36638.639 
  715000    305.18852   -1574.8528    468.70379    262.96301    57.274451    36638.639 
  715100    298.29467   -1573.2185     461.3927    226.35958   -482.90224    36638.639 
  715200    303.68273   -1546.9644    484.23309    299.62562     333.9387    36638.639 
  715300       304.86   -1531.5409    464.00544    300.10282    303.70281    36638.639 
  715400    295.94957   -1523.1959     448.9382    253.40727   -284.07542    36638.639 
  715500    300.91531    -1545.094    456.79478    261.64275    292.47015    36638.639 
  715600    308.91503    -1568.319     474.8614    292.37206    430.53268    36638.639 
  715700    295.64263   -1560.6218    445.47257    211.13887    131.46703    36638.639 
  715800    307.18883   -1557.4795    454.77893    275.38505    487.58543    36638.639 
  715900    304.47932   -1530.1007    451.84223    287.67205    473.44286    36638.639 
  716000    294.61609   -1586.7495    465.22114    200.15446    760.39811    36638.639 
  716100    304.93449   -1611.6272    461.77364    218.11887    207.72381    36638.639 
  716200    295.48524   -1571.8668    443.74998    197.46515    10.161929    36638.639 
  716300    303.09908    -1567.982    484.64939    276.40604    411.76654    36638.639 
  716400     301.1149   -1543.1555    475.39139    283.07315    309.87621    36638.639 
  716500    293.79613    -1512.202    470.74036    276.54276    179.29557    36638.639 
  716600    300.39722    -1523.193    474.30609    298.73082   -202.77508    36638.639 
  716700    305.17719   -1547.7693    461.30782    282.59975   -72.764574    36638.639 
  716800    296.73265   -1519.9763    451.81046    263.01221   -109.42352    36638.639 
  716900    307.17495   -1548.9679    479.60757    308.66312    482.82465    36638.639 
  717000    299.54617   -1514.2313    457.58199     287.1505     181.9163    36638.639 
  717100    293.60181   -1521.6065    438.86099    234.38713   -270.60526    36638.639 
  717200    302.12849   -1530.9094    473.20081    297.67581     264.4052    36638.639 
  717300    299.93824   -1520.7706    477.79168    302.57976    4.9466051    36638.639 
  717400    303.35521   -1519.9216    463.15843    304.12441    124.64011    36638.639 
  717500    306.41028   -1515.6432    475.53353    334.48337   -119.11449    36638.639 
  717600     303.8789   -1481.4962    479.75718    361.49793   -306.53477    36638.639 
  717700    310.84121   -1521.0123    453.74226    327.20068     40.49333    36638.639 
  717800    301.25579   -1519.1571    466.03876    298.35106   -197.19938    36638.639 
  717900    303.40264   -1545.8306    440.34002    255.60983   -21.692939    36638.639 
  718000    304.89145   -1554.0324    457.82078    271.56771    464.60041    36638.639 
  718100     307.1674   -1530.5057    468.11361    315.59744   -107.45046    36638.639 
  718200    294.77052   -1534.3426    463.71683    251.74993   -2.0360449    36638.639 
  718300    292.99139   -1515.7487    464.48903     263.1346   -166.90566    36638.639 
  718400    294.42475   -1528.9743    448.59774    240.44795   -274.99264    36638.639 
  718500    309.49258   -1493.3236    451.38401    346.48104    189.40796    36638.639 
  718600    296.24199   -1481.3356    486.47064    334.11194   -745.19669    36638.639 
  718700     304.9263   -1473.3312    466.16448    360.76901   -476.48475    36638.639 
  718800    311.58621   -1528.6211    465.63347    334.82519   -777.83091    36638.639 
  718900    300.23089   -1489.7507    467.98913    325.10993   -536.58848    36638.639 
  719000    319.79242   -1530.2803    474.99573    379.34232   -198.59284    36638.639 
  719100    292.77133    -1511.184    462.44156    264.66457    283.45254    36638.639 
  719200    307.90202   -1487.9133     496.4004    389.77221    400.34552    36638.639 
  719300    304.37697   -1498.1863    456.88298    324.16798    380.87341    36638.639 
  719400    297.54833   -1491.2469    498.59443     342.1848    827.15574    36638.639 
  719500    295.35065   -1507.2785    479.25971    296.95944    406.50028    36638.639 
  719600    311.42316   -1517.4077    480.26821    359.94187    678.57871    36638.639 
  719700    301.22532   -1491.8482    479.40808    338.89257    60.183266    36638.639 
  719800    302.31527   -1501.6943    483.30611    337.83411    176.07155    36638.639 
  719900    310.93567   -1480.9292     466.3293    380.29458   -140.95266    36638.639 
  720000    301.68408    -1494.114    460.32675    319.60346   -41.222085    36638.639 
  720100    305.42944   -1531.6798    458.95935    297.47237   -282.03651    36638.639 
  720200    283.81342   -1516.1503     458.6221    215.69259   -435.13066    36638.639 
  720300    289.63739   -1512.1213    469.98636    257.21288   -265.46077    36638.639 
  720400    303.15949   -1510.0584    487.12079    337.07199   -377.31909    36638.639 
  720500    294.52001   -1468.0824    478.44095    331.61038   -590.76716    36638.639 
  720600    303.56412    -1537.474    483.71814    308.06895   -929.58696    36638.639 
  720700    310.83107   -1513.3628    470.92217    351.98454    209.82191    36638.639 
  720800    303.33549   -1546.7942     460.9883    274.99325   -81.496773    36638.639 
  720900    302.66404   -1555.5194    482.81171    285.07921    330.78523    36638.639 
  721000    301.34025   -1557.8375    448.76066    242.77141    -79.03347    36638.639 
  721100    301.15304   -1551.6454    484.77557    284.13862    6.8851778    36638.639 
  721200    299.96827   -1549.0059    481.09552    277.78303   -218.31693    36638.639 
  721300    308.61246   -1532.9049     472.5719    324.13925    -19.16175    36638.639 
  721400    309.00885   -1517.0915    486.21826    355.37731    281.67462    36638.639 
  721500    298.58022   -1506.2135    465.43552    298.68846   -491.99932    36638.639 
  721600    304.57726   -1555.7836    469.57178    280.15807    155.23204    36638.639 
  721700    303.69639    -1519.559     489.1956    332.05477    153.92872    36638.639 
  721800    301.05982   -1526.0041    490.34693    314.93307    305.25567    36638.639 
  721900    291.73298   -1524.5641    457.91758    242.10238    9.3233473    36638.639 
  722000    296.51643   -1526.8944    482.33018    285.64385    545.22152    36638.639 
  722100    291.83842   -1512.9845    486.59232    282.82973    281.12679    36638.639 
  722200    300.58775   -1519.8258    463.01426    291.66095    357.17051    36638.639 
  722300    290.24942    -1522.638    484.13129     263.5868   -318.40344    36638.639 
  722400    288.92274   -1515.6436    501.23668    281.73491    835.74258    36638.639 
  722500    296.94205    -1514.084    491.07543    309.10883    487.33819    36638.639 
  722600    293.96368   -1553.4401     473.5445    238.86044    467.62226    36638.639 
  722700     305.3235   -1547.1411     474.6933    297.26979    663.17867    36638.639 
  722800    296.79948   -1530.3013    483.88846    285.06497    555.61939    36638.639 
  722900    297.51204   -1539.9415    469.81174    264.54471    1040.6954    36638.639 
  723000     295.4809   -1481.9806     492.0959    335.67783    403.74638    36638.639 
  723100    304.21259   -1528.0837    469.50088    306.15111    135.27628    36638.639 
  723200    309.61168   -1506.4325    470.84871    353.37112    303.50706    36638.639 
  723300    291.44493     -1503.27    488.67213    292.85885    57.771568    36638.639 
  723400    309.16619   -1541.8693    468.94357    314.03065   -230.20156    36638.639 
  723500    304.95394   -1545.2709    468.36314    291.15191   -437.76518    36638.639 
  723600     297.3281   -1513.8041    468.26737    288.31252   -381.71421    36638.639 
  723700    308.35453   -1512.8132     465.4602    335.96213   -270.32954    36638.639 
  723800    302.22898    -1572.524    463.28397    246.59517   -389.37261    36638.639 
  723900    302.95586   -1544.1148    474.66809    289.64943   -378.60736    36638.639 
  724000    307.69525   -1565.5176    489.91849     304.7584   -148.92487    36638.639 
  724100    300.58435   -1536.6417    462.43243    274.24793   -30.630748    36638.639 
  724200    300.35096   -1573.9998    456.61066    230.02107    233.32954    36638.639 
  724300    303.04231   -1556.2202    453.27125    256.53494     52.38677    36638.639 
  724400    293.00282   -1546.2463      467.299    235.49823    570.39183    36638.639 
  724500    301.48774   -1530.1894    472.59554    294.91612    569.13175    36638.639 
  724600    307.36329    -1567.439    476.89412    288.32348    666.17624    36638.639 
  724700    288.19282   -1541.4404    495.85561    247.28252    609.57259    36638.639 
  724800    296.67986   -1524.7967    473.83776     279.9823    157.27489    36638.639 
  724900    298.09951   -1562.5395    498.48523     273.2556    117.75736    36638.639 
  725000    307.76926   -1582.3756    466.52272    264.83667      -281.51    36638.639 
  725100    297.21481   -1528.7567    479.01743    283.60176   -562.68262    36638.639 
  725200    297.41847    -1541.748    462.38856    254.89518    -267.7482    36638.639 
  725300    304.83176   -1558.3755    471.55972    280.69576   -354.87287    36638.639 
  725400    297.95278   -1541.6612    499.47009    294.46054   -511.29228    36638.639 
  725500    290.11732   -1558.8789    488.24641    230.86839   -433.83067    36638.639 
  725600    292.17853   -1546.3698    477.86449    242.24241   -32.791614    36638.639 
  725700    306.05051   -1526.4711    487.91443    334.42231   -204.11718    36638.639 
  725800    295.18428   -1542.9557    493.61225    274.88838   -401.04162    36638.639 
  725900    292.98897   -1514.1907    510.28946    310.48219    329.03732    36638.639 
  726000     307.5406   -1592.3774    466.37954    253.66588   -70.828461    36638.639 
  726100    295.85468   -1572.2427    483.21411    238.21078   -558.43217    36638.639 
  726200    294.49766   -1552.4328    483.84383    252.56257   -96.249771    36638.639 
  726300    291.97113   -1529.8444    487.85849    267.83136   -368.66553    36638.639 
  726400    304.68412   -1535.6365    486.77008    317.98282    93.376169    36638.639 
  726500     308.7769   -1552.5413    475.34449     308.0132    1.2763336    36638.639 
  726600     295.9867   -1527.0114    480.90627    281.72644    107.19567    36638.639 
  726700    297.93026   -1565.9995    461.98113    232.53233   -8.6844713    36638.639 
  726800    308.38099   -1580.5121    496.59455    299.51627    480.04857    36638.639 
  726900    296.21734   -1535.7653     481.0028    274.10382    386.11137    36638.639 
  727000    298.47833   -1569.2546    478.65809    248.41284    24.159096    36638.639 
  727100    304.33996   -1553.2962    471.53407    283.54322    118.70771    36638.639 
  727200    297.68394   -1591.9298    495.47613    238.99199   -52.731955    36638.639 
  727300    292.54164   -1568.9644     482.6254    226.03764   -131.91817    36638.639 
  727400    300.18114   -1560.1216    484.69164    271.21837    69.693313    36638.639 
  727500    293.14657    -1543.677    498.72297    270.13643   -328.96289    36638.639 
  727600    305.15838   -1538.2054    486.50421    317.27562   -79.875964    36638.639 
  727700    300.24386   -1561.3688    498.34531    283.90621   -298.13678    36638.639 
  727800    305.96494    -1554.164    477.10881    295.54003   -656.07678    36638.639 
  727900    295.33902   -1545.9454    483.01255    261.99319   -259.89781    36638.639 
  728000    300.17349   -1558.2255    502.97593    291.36444   -246.45872    36638.639 
  728100    292.17053   -1606.4886    458.10619    162.32941   -100.33765    36638.639 
  728200    303.38062   -1583.1591    454.78257    232.62507   -130.31856    36638.639 
  728300    298.72539   -1597.8303    476.92257    219.20998    435.70464    36638.639 
  728400    297.50444   -1577.9412     489.8219    246.52102    20.734812    36638.639 
  728500    299.33578   -1564.6195    475.24618    253.48266   -278.24361    36638.639 
  728600    303.00619   -1525.8322    487.64924     321.1389   -1033.9182    36638.639 
  728700    306.03922   -1537.5693    476.33141    311.69052   -679.23361    36638.639 
  728800    291.80679   -1534.7101    485.25017    259.62012   -779.48699    36638.639 
  728900    302.37912   -1563.5186    494.09026     287.0804    -696.1759    36638.639 
  729000    299.23056   -1498.7317    504.30729    347.95957   -706.17655    36638.639 
  729100    292.77177   -1502.5511    500.60111    311.45905    -92.29628    36638.639 
  729200    296.63721   -1539.8518    480.47067    271.36873   -93.644536    36638.639 
  729300    307.76728   -1564.4782    505.68415    321.88662    290.76222    36638.639 
  729400    297.50342   -1521.8069    488.85467    301.68353   -293.67711    36638.639 
  729500    293.52529   -1520.6064    511.73947    307.92245   -479.77403    36638.639 
  729600    291.94329   -1493.8859    490.88627    306.69277   -516.62663    36638.639 
  729700    307.53057   -1492.8045     470.7991     357.6134   -420.17951    36638.639 
  729800    315.37234   -1564.3504    494.47288    344.92037   -60.241942    36638.639 
  729900    293.50834   -1559.8701    499.40378     256.2471   -161.36604    36638.639 
  730000    302.35708   -1537.9689    485.43262    303.87355   -29.204062    36638.639 
  730100    303.64655    -1543.831    491.08929    309.45285    27.331946    36638.639 
  730200    319.39697   -1560.6993    481.52167    353.67517    234.91256    36638.639 
  730300    297.34569   -1526.4614    489.72088    297.18768    332.10567    36638.639 
  730400    295.12706   -1540.0128    483.87355    267.83584    265.65109    36638.639 
  730500    302.53785   -1557.3629     461.1242    260.98209    -510.7005    36638.639 
  730600    296.01977   -1553.6486    469.11293    243.44428   -385.08489    36638.639 
  730700    304.76233   -1530.9448     512.2223    348.47765    9.7513908    36638.639 
  730800    288.76235   -1562.3289    454.84604    187.93942   -463.01495    36638.639 
  730900    309.28852   -1568.5029    475.84761    294.84986   -422.77134    36638.639 
  731000    298.50548   -1550.1591    463.61848    252.59047     6.123062    36638.639 
  731100    296.45853   -1592.8439    473.43831    210.54268    25.569232    36638.639 
  731200    299.58423   -1580.4571    487.05369    250.56708   -33.447106    36638.639 
  731300    297.48016   -1533.1098    490.97351    292.39511   -225.67276    36638.639 
  731400    297.42143   -1540.7615    466.04272    259.54925   -75.979576    36638.639 
  731500     298.3157   -1538.9624    499.02742    298.34483   -199.59202    36638.639 
  731600    292.61842   -1572.1877    477.56495    218.09827    152.73527    36638.639 
  731700    299.01189   -1536.6208    473.11727    277.89946    22.820982    36638.639 
  731800    301.91055   -1556.2137    479.91973     278.1127   -150.25163    36638.639 
  731900    300.84741   -1567.2332    454.69809    237.10216    605.27945    36638.639 
  732000    301.11148    -1544.008    491.39598    298.20995    362.79196    36638.639 
  732100    307.88954   -1540.3636    472.29342    313.15894     590.4384    36638.639 
  732200    294.51829   -1551.7659    482.29572    251.77393    610.09205    36638.639 
  732300    302.26557   -1527.2489    486.43936    315.18981    778.43124    36638.639 
  732400    299.21053    -1565.927     453.8356    230.20268    763.26905    36638.639 
  732500    307.86392   -1546.6612    499.24932    333.70236    685.79995    36638.639 
  732600    297.62135   -1570.6128    473.70869    238.26068    131.76162    36638.639 
  732700      298.761   -1565.4445    468.61546     243.4484    379.51592    36638.639 
  732800    298.35725   -1540.7425     482.9518    280.67545    496.23648    36638.639 
  732900    299.89941   -1560.0758     474.4353    259.74403    429.27001    36638.639 
  733000    298.33088   -1571.4562    476.97516    243.86682    362.45022    36638.639 
  733100     299.9961   -1542.6139    489.28341    292.48777    354.09392    36638.639 
  733200    291.04944   -1542.9256    473.56557    236.32239    4.9000421    36638.639 
  733300    310.28746   -1488.1158    488.50987    392.38062   -3.3461834    36638.639 
  733400    294.52404   -1513.7216    476.58161    284.12991   -404.86955    36638.639 
  733500    294.04818   -1495.3503    483.52623    307.31108    -0.637598    36638.639 
  733600    306.04643   -1509.2621    509.93323    373.63188    633.34205    36638.639 
  733700    295.95229   -1501.3425    489.28004    315.61478    505.34461    36638.639 
  733800    289.43273   -1537.7555    496.45974    257.13393    201.30687    36638.639 
  733900    311.84603    -1534.093    487.39273    352.27817   -63.220549    36638.639 
  734000    299.60391   -1546.3661     480.4904    278.18313   -388.28441    36638.639 
  734100    305.40867   -1542.4648     459.4006    287.03544   -239.06441    36638.639 
  734200    312.03632   -1511.1177     496.1958     384.9102   -178.89229    36638.639 
  734300    302.75932   -1527.3633     492.7357    323.58676   -238.08793    36638.639 
  734400    295.80301   -1539.2205    470.82366    258.61068    90.470334    36638.639 
  734500    290.84253   -1536.1491    486.82349    255.42857   -433.28199    36638.639 
  734600    296.46817   -1589.3926    488.09843    228.69732   -311.06097    36638.639 
  734700    298.90348   -1608.1322    460.74295    193.52741    94.332406    36638.639 
  734800    304.19528   -1566.3236    485.63411    283.96673    612.45296    36638.639 
  734900    303.58765   -1605.9875    494.31929     250.2622    1017.0059    36638.639 
  735000     308.2525   -1591.5251    503.42695    294.75931     1013.336    36638.639 
  735100    303.83234    -1582.082     449.4517     230.3977    532.18664    36638.639 
  735200    309.08802   -1625.6748    479.02981    239.96068    498.55077    36638.639 
  735300    303.21472   -1606.4357    464.91306    218.73475    274.75565    36638.639 
  735400    304.26859   -1572.7867    490.88246    283.08086    748.45399    36638.639 
  735500    294.88828    -1579.884    474.72102    217.74102    155.45558    36638.639 
  735600    301.26539   -1567.7416     440.4216    224.19245    649.61943    36638.639 
  735700    293.84419   -1588.5777    498.13795    227.78032   -30.501211    36638.639 
  735800     293.1207   -1560.2949    441.84835    196.52781   -296.39177    36638.639 
  735900    295.17212   -1613.5514    464.15277    174.77867   -136.10528    36638.639 
  736000    294.73121   -1575.2607    470.26632    217.20498   -312.89435    36638.639 
  736100    301.64461   -1586.8036    452.37346    218.78355   -29.941067    36638.639 
  736200    288.66346   -1611.9158    474.12173    157.18456    121.20487    36638.639 
  736300     297.4857   -1596.3673    473.70235    211.89131    392.01004    36638.639 
  736400    303.46879   -1552.7706    482.01982    290.64639    174.50439    36638.639 
  736500     309.5825   -1550.1053    476.06675    314.78549   -149.76996    36638.639 
  736600    295.95562   -1562.0531    436.27516    201.91423    -92.85523    36638.639 
  736700    309.54328   -1584.2157    467.99968      272.432   -146.70926    36638.639 
  736800    311.11574   -1550.0342    486.78986    332.45795    -1.486197    36638.639 
  736900    312.81603   -1547.5841    467.14679    322.89266   -205.09391    36638.639 
  737000    294.90683     -1603.34    477.09841    196.74562   -716.46485    36638.639 
  737100    283.80686   -1547.8896    450.52875    175.83057   -502.51253    36638.639 
  737200    292.34231   -1519.7688    498.76742    290.48107   -16.679088    36638.639 
  737300      296.554   -1514.4653     487.3963     303.3076    341.45629    36638.639 
  737400    303.74276    -1518.386    462.77312    307.01336   -258.93459    36638.639 
  737500    305.30366   -1502.0597    478.81033    346.37919   -85.932885    36638.639 
  737600    303.09698   -1478.9295    495.75383    376.55351   -422.88762    36638.639 
  737700    313.58051   -1543.0374    473.89928    337.62141   -138.20173    36638.639 
  737800    296.98212   -1545.1951    467.79814    254.90025    161.55654    36638.639 
  737900    299.62001    -1560.195    467.17565    251.11166   -333.72415    36638.639 
  738000    311.32288   -1541.0542    470.62181    326.19914   -309.08293    36638.639 
  738100    304.89284    -1544.305     480.9247    304.40528     48.01438    36638.639 
  738200    298.39045   -1508.6855    459.01908    288.94864   -685.04594    36638.639 
  738300    304.07331   -1523.5337    453.51222     294.0876   -337.54524    36638.639 
  738400    300.14916   -1495.3303    470.44645    321.62106   -437.79829    36638.639 
  738500    296.50232   -1502.4418    517.10297    344.80589    115.91891    36638.639 
  738600    304.28185   -1531.0855    478.17479    312.13392    671.71432    36638.639 
  738700    300.66521   -1519.5823    475.75174    304.98935    558.80542    36638.639 
  738800     312.5671   -1508.2727    503.70428    397.64484    792.31303    36638.639 
  738900    296.62621   -1494.6077    439.45131    275.54414    280.89401    36638.639 
  739000    302.03576   -1521.6175    485.70723    319.05814   -363.23054    36638.639 
  739100    304.09832   -1506.1276    472.80068    330.89433   -530.01854    36638.639 
  739200    300.81952   -1519.4163     452.6212    282.71712    -542.7598    36638.639 
  739300    291.49602   -1509.9481    449.04962    246.78734   -808.65464    36638.639 
  739400    305.99301   -1521.4178    456.33603    307.63932    12.030143    36638.639 
  739500    298.75206   -1523.6924    470.33871    286.88366    207.68551    36638.639 
  739600    295.45036   -1514.6094    452.40454    263.22068    433.60256    36638.639 
  739700    303.01469   -1491.9577    481.20923    348.61157    582.01219    36638.639 
  739800    302.94513   -1531.4303    457.28218    284.89982    16.720217    36638.639 
  739900    302.52793   -1546.4196    448.86982    259.62659    56.781055    36638.639 
  740000    301.49928   -1519.7604    460.86977    293.67101    401.62507    36638.639 
  740100      291.658    -1511.819    478.25806    274.85161    335.48313    36638.639 
  740200    303.67156   -1479.1707    456.08931    339.22539   -9.5383076    36638.639 
  740300    294.66477   -1514.3887    461.40081     268.9134    193.29368    36638.639 
  740400    307.34841   -1526.3311     453.0794    305.54985   -341.70214    36638.639 
  740500    304.44957   -1503.4871    473.58338    335.89335   -520.79394    36638.639 
  740600    296.21515   -1493.5833    478.58339    313.85656   -551.67344    36638.639 
  740700    304.51594   -1470.3397    467.86119    363.61623   -231.66845    36638.639 
  740800     307.6728   -1489.7774    458.45005    348.92952   -174.84043    36638.639 
  740900     291.3598   -1469.1643    457.25189    295.16239     247.7611    36638.639 
  741000    303.63017   -1493.6321    494.46523    362.95429    471.87131    36638.639 
  741100    309.88659   -1486.5794    463.42266    367.03138    221.68401    36638.639 
  741200    298.34667    -1491.115    449.44942    296.75311    419.81025    36638.639 
  741300    306.24117   -1495.8544    472.76012    350.74007    395.20914    36638.639 
  741400    298.23727   -1489.0054    460.33309     309.2556    496.24926    36638.639 
  741500    294.17023   -1483.9332    473.14717    308.89665   -68.603672    36638.639 
  741600     300.3139   -1484.9409    458.52497    320.82805    329.40418    36638.639 
  741700    296.65223   -1536.3523    482.89648    277.36145   -77.086112    36638.639 
  741800    292.27302   -1509.2995    479.33471    281.20681    -283.3473    36638.639 
  741900    294.42186   -1484.3831    452.94518     289.3736   -52.321386    36638.639 
  742000    299.10434   -1485.9407    464.33019    320.20717   -509.21292    36638.639 
  742100    297.77118   -1466.1212     447.6073    317.32302   -183.74799    36638.639 
  742200    297.70719   -1468.6754    486.08214    352.95664   -254.93478    36638.639 
  742300    305.05865   -1438.5949    452.49199    382.42655    -341.1172    36638.639 
  742400      302.012   -1470.8455    471.99455     356.0109   -106.51209    36638.639 
  742500    297.46575    -1486.784    446.51205    294.19489    146.20013    36638.639 
  742600    299.89443   -1477.7134    485.68404    353.33277   -22.781765    36638.639 
  742700    294.35684   -1472.3989    446.98912    295.11004   -70.186763    36638.639 
  742800    307.93529   -1450.7427    448.23384    378.92554   -267.76596    36638.639 
  742900    299.80397   -1474.2474    473.76257    344.47148    399.85741    36638.639 
  743000    296.43914   -1497.4558    456.51452    288.92003    491.10484    36638.639 
  743100    290.38698   -1506.5286    459.99041    256.17242    132.37178    36638.639 
  743200    298.61502   -1466.5202    463.52329    336.62559     207.0098    36638.639 
  743300    296.67969   -1484.0341    468.29981    315.20615   -171.59107    36638.639 
  743400    299.23491   -1492.0671    456.94124    307.27762    378.46814    36638.639 
  743500     298.2887   -1493.7964    475.33434    319.69657   -17.172407    36638.639 
  743600    293.39211   -1503.4434    469.04969    281.79828   -52.881898    36638.639 
  743700    296.43973   -1483.3131    463.36864    309.91948    -128.2987    36638.639 
  743800    296.71598   -1468.4096    471.84952    334.54318   -648.33061    36638.639 
  743900    300.67543   -1443.8774    479.69829    384.68666   -643.12991    36638.639 
  744000    297.02905   -1474.9329    464.54795    322.12278    -797.0747    36638.639 
  744100    297.42088   -1461.7481    450.19812     322.7155    -71.10122    36638.639 
  744200     291.6489   -1488.6044    469.89386    289.66114   -364.52495    36638.639 
  744300    300.55498   -1445.7728    485.19271    387.74537   -61.720192    36638.639 
  744400    296.04849   -1418.7306    462.42473    371.80295    344.08268    36638.639 
  744500    302.15396   -1481.9174    462.52412    336.10535     418.3156    36638.639 
  744600    301.63349   -1464.9879    464.23968    352.41561    313.14927    36638.639 
  744700    296.37044    -1432.498    456.87645    353.93151   -114.16976    36638.639 
  744800    299.16677   -1444.5292    464.23173    361.80028   -190.06545    36638.639 
  744900     300.5404   -1485.5384     461.0004    323.72201    -423.1464    36638.639 
  745000     298.0387   -1481.7123     460.7203     316.0451   -650.87315    36638.639 
  745100    316.53502   -1462.7847    467.97575    425.20484   -736.82103    36638.639 
  745200    310.52803    -1450.525    450.28984     392.8306    32.547355    36638.639 
  745300    306.56222   -1493.7299    465.04191    346.58665   -523.42522    36638.639 
  745400    311.93284   -1530.8758    448.29818    316.79023    192.47599    36638.639 
  745500    292.61764   -1517.3476    476.34584    271.71579    1189.3305    36638.639 
  745600    308.61969   -1489.7712    476.15418    370.88773    886.60708    36638.639 
  745700    299.42079   -1507.6707    451.07583    286.64247    317.73458    36638.639 
  745800    301.44141    -1482.897    442.61844    312.02352    676.70475    36638.639 
  745900    306.73569   -1497.2874    438.07077    316.83619   -10.595672    36638.639 
  746000    299.77146   -1493.9897    439.61783    290.43864    321.72532    36638.639 
  746100    298.49759   -1499.4873    473.40984     313.0183      98.3938    36638.639 
  746200    301.22422   -1443.4809    475.39133     383.2382   -45.705939    36638.639 
  746300    303.68689    -1481.769    453.74567    334.35224    196.74415    36638.639 
  746400    313.12672   -1495.8918    456.10402      364.936   -335.71872    36638.639 
  746500    300.05995    -1506.256    466.39103    306.23967   -147.88917    36638.639 
  746600    304.89891   -1530.8601    475.20481    312.15752    150.17873    36638.639 
  746700    297.55322   -1516.6839    459.75217    277.92748    454.23011    36638.639 
  746800    294.27314   -1505.2722    469.00881    283.88097    244.41255    36638.639 
  746900    306.63183   -1517.4755    474.67576    332.78713    725.88818    36638.639 
  747000     298.9119   -1531.9488    423.63622     232.6418    333.62888    36638.639 
  747100    300.68094    -1506.939    472.05854    314.01004    -30.57215    36638.639 
  747200     300.9339   -1503.9296     455.0094    301.10515   -295.71962    36638.639 
  747300     287.0529   -1481.2936    461.89487    268.35482   -189.84969    36638.639 
  747400    286.53625   -1474.4774    448.56752    259.52584   -325.92554    36638.639 
  747500    295.39573   -1477.1539    424.10687    272.13339   -615.00083    36638.639 
  747600    308.77527   -1473.3272    474.00321    385.87866   -66.688316    36638.639 
  747700     312.1426   -1491.8648    460.41405    368.85812   -624.79415    36638.639 
  747800    305.89535   -1497.4185    450.56724    325.43175   -640.46748    36638.639 
  747900    300.45076   -1516.5563     465.4995    296.80105   -346.83313    36638.639 
  748000    304.24114    -1499.496    460.64051    326.00644    117.06933    36638.639 
  748100    289.82864   -1484.4514    472.88247    288.63683    246.20197    36638.639 
  748200    306.77577   -1488.4244    458.69447    346.50275    146.09041    36638.639 
  748300    307.79394   -1484.3853    458.66015    355.07513    623.16946    36638.639 
  748400    296.40782    -1515.468    453.98205    268.23487   -17.776856    36638.639 
  748500    298.59413   -1496.5236    458.09575    301.10102    373.96333    36638.639 
  748600    301.01895   -1499.3053    440.73849       291.84    66.638304    36638.639 
  748700    291.65989   -1511.1269    451.83301    249.12711    127.64158    36638.639 
  748800    294.34869   -1514.2088    463.82023    270.09473   -126.18377    36638.639 
  748900    298.39808   -1505.7966    466.94196    299.79469    967.78044    36638.639 
  749000    306.25062   -1501.4936    449.97998    322.36319     385.6228    36638.639 
  749100    301.35822   -1561.3037    442.61694    233.24211    182.73982    36638.639 
  749200    296.69791   -1557.8426    423.26672    196.44623     491.4891    36638.639 
  749300    306.88472   -1531.9653    434.23335    278.98949    515.89209    36638.639 
  749400    301.85636   -1545.8501    448.11408    256.42761    213.40025    36638.639 
  749500    307.79175   -1510.2566    477.51527    348.04909      714.478    36638.639 
  749600    299.45234   -1478.2548    453.32046    318.44455    359.86887    36638.639 
  749700    305.82859   -1504.0507    460.44821    328.38103   -11.360401    36638.639 
  749800    307.20444   -1482.2919    451.86417      347.728    -735.3037    36638.639 
  749900    291.31666    -1479.352    471.50754    299.03682   -294.39223    36638.639 
  750000    301.25954   -1486.9788    465.10538    329.61279    92.325035    36638.639 
  750100    296.41703   -1531.8944    445.67426    243.54194    302.07064    36638.639 
  750200    304.06255   -1541.4592    479.13725    301.73882    614.28273    36638.639 
  750300     296.2138   -1474.3555    473.68157    328.17645    438.53831    36638.639 
  750400    298.13572   -1495.7185    474.47121    316.22506    121.99068    36638.639 
  750500    312.41124   -1519.2617    443.10436    325.35669     34.28086    36638.639 
  750600    299.95177    -1467.642    491.42019    369.39758    69.808556    36638.639 
  750700    313.55685   -1514.2115    460.11558    352.55748    883.73023    36638.639 
  750800    300.50693   -1483.4645    473.97794    338.62336    597.97357    36638.639 
  750900    294.00748   -1518.3152    470.42678    271.06421     252.1132    36638.639 
  751000     299.3859   -1467.1256    451.71305    327.66823    269.95531    36638.639 
  751100    302.24025   -1492.2521    478.41841    342.05211    325.28636    36638.639 
  751200    286.60317   -1503.3461    465.19631    247.58619   -75.692649    36638.639 
  751300    300.17812   -1509.6711    470.86308    307.82675   -26.439461    36638.639 
  751400    305.11753   -1520.9249    471.95408     319.8228   -257.84721    36638.639 
  751500      309.675   -1504.4643    467.13745    351.91211    72.817691    36638.639 
  751600    303.49838   -1487.0778    470.65219     345.1043   -410.44914    36638.639 
  751700    298.75571   -1513.9718    433.72724    260.00914   -533.85371    36638.639 
  751800    298.67909   -1466.1472    479.90341    353.66619    154.60141    36638.639 
  751900    304.73552   -1461.6411    452.06216    357.50089    103.24589    36638.639 
  752000    290.07964   -1472.4414    479.92145    308.81187   -156.19305    36638.639 
  752100    301.36355    -1458.173    461.53361    355.31338   -338.45296    36638.639 
  752200    302.06527   -1456.4534    459.00273    357.65016    91.965497    36638.639 
  752300    289.21009   -1471.0431    472.67017    299.05803    395.44706    36638.639 
  752400    298.48667   -1433.5726    470.02609    375.50027    47.095325    36638.639 
  752500    305.28863   -1433.3564    483.14571    419.35044   -171.90238    36638.639 
  752600    303.75181   -1424.2669    458.46469    396.86461   -119.98463    36638.639 
  752700    295.06841   -1479.4657    464.70676    308.95314   -184.92918    36638.639 
  752800    292.74351   -1447.9721    483.14117    348.45138   -97.582495    36638.639 
  752900    293.52081   -1509.6787    447.63157    254.72217   -412.50069    36638.639 
  753000    296.69382   -1494.0442    478.31207    315.27167   -169.48746    36638.639 
  753100    299.11819   -1494.2404    456.19678    303.83626   -259.51577    36638.639 
  753200    316.64688   -1510.7116    482.42044    392.22443    -853.9861    36638.639 
  753300    295.60395   -1526.9724    436.79565    235.93776   -714.21829    36638.639 
  753400    297.50942   -1487.3368    481.87468    329.20056    -366.5892    36638.639 
  753500    300.25557   -1462.3845    482.32082     366.9186    45.537257    36638.639 
  753600    293.67417   -1534.2528    479.34931    262.55383   -57.921673    36638.639 
  753700    291.35108   -1469.2594    483.04595    320.82222   -584.31316    36638.639 
  753800    301.99284   -1470.8476    459.27957     343.2078   -500.18298    36638.639 
  753900    304.28342     -1487.28    466.64755    344.41921   -20.478492    36638.639 
  754000    294.24226   -1507.3145    480.52333    293.21472    62.036036    36638.639 
  754100    290.53916   -1496.7192    463.77047     270.4446    168.55452    36638.639 
  754200    293.83034   -1491.4473    485.22903    311.93962    637.11323    36638.639 
  754300    295.96932   -1494.9741    462.60622    295.38578   -5.5552225    36638.639 
  754400    306.03235   -1487.2781    478.61873    364.23826    195.11193    36638.639 
  754500    301.00116   -1520.9901    467.37648    296.71345   -528.77405    36638.639 
  754600    291.24419   -1497.7351    470.45371    279.27471     138.7778    36638.639 
  754700    295.23966   -1509.9793    478.59378    293.09476   -195.17312    36638.639 
  754800    305.35615   -1531.7262    454.08844    292.22636    476.53383    36638.639 
  754900    303.01211   -1558.4354    465.68606    266.59904    -330.4675    36638.639 
  755000    298.09705   -1508.4404    463.04558      291.904    17.798007    36638.639 
  755100    306.27825   -1539.7489    460.00262    294.25446    162.85163    36638.639 
  755200    296.49926    -1490.577    467.93492    307.48897    278.97993    36638.639 
  755300    305.68299   -1534.4056    458.61808    295.54278   -47.629898    36638.639 
  755400    299.32478    -1498.019    460.85864    305.64626     95.88514    36638.639 
  755500    296.56267   -1486.6332     452.3692    296.15143    237.91607    36638.639 
  755600    296.70362   -1504.6097    485.87009    312.30821    231.82093    36638.639 
  755700    301.07138    -1500.794    461.69089    311.53894    -133.1965    36638.639 
  755800    301.25102   -1512.4025    470.69715    309.74267   -157.39103    36638.639 
  755900    301.91277   -1514.2568    487.67874    327.83859    208.00181    36638.639 
  756000    304.90211   -1535.2959    471.16512    303.69644    192.51354    36638.639 
  756100    296.82353   -1524.4334    461.75116    268.90342    161.87633    36638.639 
  756200    296.14146   -1542.0772    467.58612    254.03484    174.78861    36638.639 
  756300    295.24808   -1515.5796    471.12574    280.06421    77.225294    36638.639 
  756400    296.90003   -1525.3144    467.42963    274.04409    316.11628    36638.639 
  756500    290.87761   -1506.1263    466.57565    265.36097   -50.114631    36638.639 
  756600    297.22422   -1508.8014    450.04859    274.63047    427.97789    36638.639 
  756700    301.31529   -1514.4291    489.89587    327.20307    247.54492    36638.639 
  756800    299.88814   -1489.5017    490.34318    346.17539   -33.202107    36638.639 
  756900    293.59254   -1501.4421    461.82613    277.47518   -41.586053    36638.639 
  757000    299.15698   -1502.3552    463.74691    303.44552   -492.69128    36638.639 
  757100    302.47016   -1488.3613     435.9991    304.55495   -81.086502    36638.639 
  757200    294.33955   -1505.9412    493.80555     308.3066   -702.46361    36638.639 
  757300    306.26888   -1481.6652    451.79538    344.08886   -198.81375    36638.639 
  757400    311.18831   -1500.5463    470.39718    365.87871   -77.439166    36638.639 
  757500    302.24767   -1523.4761    447.03697     279.4799   -73.485982    36638.639 
  757600    309.67502   -1509.7436    462.78193    342.27735   -186.70258    36638.639 
  757700    304.65409   -1509.3529    489.73088    347.09253    26.433476    36638.639 
  757800    289.51366   -1537.8854    445.55837    206.46575    12.924588    36638.639 
  757900    301.15584   -1489.1525    498.55935    360.42782    211.76801    36638.639 
  758000    294.00913   -1537.7866    463.55133    244.72477    361.11089    36638.639 
  758100    292.94215   -1514.4181    468.89549    268.65078   -457.33084    36638.639 
  758200    290.48848   -1512.0273    489.37988    280.51847   -257.68789    36638.639 
  758300    300.68139   -1508.0052    470.45871    311.34608   -290.12686    36638.639 
  758400    299.75531    -1494.668    461.04986    311.11992    -619.5963    36638.639 
  758500     308.0914   -1483.1467    478.81715    377.80518    -496.9428    36638.639 
  758600    298.60406   -1456.8247    469.01767    351.76637   -17.443108    36638.639 
  758700    301.05298   -1490.6756     474.3003    334.18424    167.09362    36638.639 
  758800    302.85985   -1524.5867     484.9168     318.9955     82.79028    36638.639 
  758900    290.76185   -1485.1007    464.19039    283.48193   -37.645774    36638.639 
  759000    288.76841    -1487.942    451.23104    258.73848   -90.921164    36638.639 
  759100     307.5142   -1514.0854    465.76037    331.22027    467.92285    36638.639 
  759200    294.81313   -1499.6309    433.95751    256.89337    320.91184    36638.639 
  759300    294.58764   -1473.2228    478.73962    327.07209    51.919903    36638.639 
  759400    312.80027   -1490.3153    463.96479    376.90879   -492.41415    36638.639 
  759500     298.7699   -1465.5945     493.0719    367.79473   -507.45066    36638.639 
  759600    296.81797    -1503.137    466.08481    294.50855   -798.19008    36638.639 
  759700    299.92356   -1499.8485    456.87226    302.51661   -291.68412    36638.639 
  759800     305.2109   -1512.4975    461.50168    318.21669   -152.08556    36638.639 
  759900    302.54546   -1501.1633    478.71795    334.80966   -21.631685    36638.639 
  760000    306.71772   -1544.4841    462.33133    293.81948   -140.07106    36638.639 
  760100     297.8185    -1498.965    457.13775    294.22207   -63.662161    36638.639 
  760200    304.69076   -1523.0716     458.3342    302.14166    275.57457    36638.639 
  760300     297.0255   -1483.3269    473.15226    322.31712    614.19615    36638.639 
  760400    308.76105   -1524.8196    474.14638    334.46564    650.22653    36638.639 
  760500    303.23192   -1501.6779    474.22987    332.88646    641.13214    36638.639 
  760600    310.63548   -1488.0605    474.31978    379.80704    93.795437    36638.639 
  760700    303.82166   -1521.3798    429.56851    271.16885    357.20586    36638.639 
  760800    297.34826    -1510.343    459.26122    282.85792    20.188406    36638.639 
  760900    306.95631   -1498.8081    491.48291    369.71736    15.321787    36638.639 
  761000    305.75708   -1515.5431    451.58092    307.70048     678.5323    36638.639 
  761100    299.02312   -1476.4573    463.81694    328.81299    211.97935    36638.639 
  761200    302.03027   -1464.3006    486.32754    376.97066    126.86464    36638.639 
  761300    305.30693   -1478.7256    460.88347    351.80112   -128.96029    36638.639 
  761400    308.35278    -1482.055    442.52907    343.78139    26.993426    36638.639 
  761500    306.18901   -1504.6459    462.59853    331.55301   -231.96041    36638.639 
  761600    306.00124   -1478.6563    472.39228    366.49397    163.86845    36638.639 
  761700    292.19695   -1487.2244    502.59005    326.19595    326.77066    36638.639 
  761800    297.02476   -1440.8252    465.79756    357.46082    621.86468    36638.639 
  761900    303.53452   -1485.1474    468.40018    344.94476    211.25465    36638.639 
  762000     292.5636   -1492.3155    471.03258    291.19218    470.71799    36638.639 
  762100    304.14267   -1469.2367    471.77176    366.95532    947.90661    36638.639 
  762200    296.84888   -1513.9841    465.44431    283.15962    602.59543    36638.639 
  762300    309.09699   -1492.2188    455.13937    349.56647    520.91219    36638.639 
  762400    297.35883   -1512.2405    451.36897    273.11556    207.25625    36638.639 
  762500    304.37771   -1481.8143    457.55238    341.21274   -413.04632    36638.639 
  762600    308.66932   -1492.5904    448.02678    340.16377   -558.81902    36638.639 
  762700    303.50015   -1460.4148    459.02529    360.14834   -634.95218    36638.639 
  762800    295.61192   -1494.3253    441.96746    273.79248   -203.71672    36638.639 
  762900    296.79146   -1492.8928    471.69663    310.24569   -117.60165    36638.639 
  763000    297.88969   -1478.0923    466.01464      324.291   -129.10712    36638.639 
  763100    295.05566   -1493.9169    468.45632    298.19429   -131.44058    36638.639 
  763200    298.17302    -1499.967    465.33608    303.00873   -598.91322    36638.639 
  763300    312.12125   -1506.6333    450.82293    344.40277    214.89649    36638.639 
  763400    304.29125   -1476.1746    479.92103    368.83321   -555.11291    36638.639 
  763500    293.89373   -1475.9999    481.85725    324.29964    331.51926    36638.639 
  763600    291.66843   -1492.6215    484.08456    299.92239    167.52938    36638.639 
  763700    299.03741   -1489.9582    450.13472      301.694    -94.52202    36638.639 
  763800    300.59791   -1450.5909    462.99952    360.92671    278.04495    36638.639 
  763900    293.71266   -1488.6262     455.8106    284.81439   -90.379642    36638.639 
  764000    304.07803   -1475.7546    476.39812    364.77375   -104.69129    36638.639 
  764100    301.75631   -1506.1665    446.02975    293.57798   -94.650266    36638.639 
  764200    291.85357    -1493.948    474.03393    289.37585    233.42472    36638.639 
  764300    294.00151   -1500.0653    470.28569    289.14614    153.43991    36638.639 
  764400    304.67108   -1497.9336    474.14989    343.00707    643.87133    36638.639 
  764500    306.61823   -1490.6774    497.30414    382.15268   -105.00471    36638.639 
  764600    304.19832   -1503.9491     439.0064    299.72717   -473.62045    36638.639 
  764700     304.4085   -1496.8096    486.06583    354.86898   -392.22367    36638.639 
  764800    293.60894   -1483.0832    472.91889    307.00032   -425.60548    36638.639 
  764900     301.9871   -1510.2795    471.75053    316.22116    441.04143    36638.639 
  765000    301.52308   -1507.1786     491.8915    337.38141    301.89044    36638.639 
  765100    296.07061   -1521.8233    455.20851    261.59321    403.62677    36638.639 
  765200    293.62599   -1541.8825    465.30104    240.65973    517.74695    36638.639 
  765300      301.238   -1527.2852    477.93759    302.04194    437.04853    36638.639 
  765400    305.94778   -1505.9345    485.01508    351.59878   -40.746044    36638.639 
  765500    305.05707   -1528.3171    459.70538    299.91061   -602.44249    36638.639 
  765600    303.57392   -1487.5465    465.00867    339.33091   -30.130783    36638.639 
  765700    303.08772   -1488.5849    463.91894    335.02166    62.434218    36638.639 
  765800    292.33913   -1485.5549    476.03115    301.94436    390.63755    36638.639 
  765900    291.34777   -1546.7557    466.91559    227.18068   -201.58292    36638.639 
  766000    297.53391   -1509.7698    459.20867    284.21147    130.87415    36638.639 
  766100    301.54364   -1531.7616    478.96427    299.96334   -38.666775    36638.639 
  766200    300.70661   -1536.6396    454.25576    266.62187   -106.10636    36638.639 
  766300    300.21569   -1533.3051    466.73647    280.23472   -450.42461    36638.639 
  766400    305.49672   -1520.0917    480.77828    331.18122   -290.07471    36638.639 
  766500    296.77441   -1486.9996    432.07008     276.4358    53.734843    36638.639 
  766600    293.09667   -1458.9932    482.17101    338.04441    177.21552    36638.639 
  766700    302.03708   -1493.8519    484.52323    345.64565    358.60631    36638.639 
  766800    303.96837   -1493.8846    458.87896    328.63272     568.2174    36638.639 
  766900    305.07122   -1493.8387    464.53228    339.27943    442.70187    36638.639 
  767000    304.80747   -1502.4345    458.18855    323.15667    511.68359    36638.639 
  767100    299.93965   -1510.7768    452.52939    287.31755     604.2291    36638.639 
  767200    298.18255    -1544.844    450.07453    242.91295    880.90016    36638.639 
  767300    297.79718   -1504.9974    499.54951    330.50573     377.7318    36638.639 
  767400     300.3586   -1524.7887    472.87329    295.52902    848.91863    36638.639 
  767500    291.76338   -1562.9366    455.75424    201.70299    295.15719    36638.639 
  767600    308.94209   -1560.5107    459.52155    284.96183    605.60021    36638.639 
  767700    293.80634    -1559.038    467.77902    226.79131    271.46191    36638.639 
  767800    301.31737   -1551.7842    444.04221    244.00367      142.567    36638.639 
  767900    296.89858   -1491.7276    461.05518    301.24995    521.04883    36638.639 
  768000    289.93963   -1500.6814    478.50899    278.53127   -29.946604    36638.639 
  768100    302.25605   -1524.1907    488.45119    320.21709    537.14938    36638.639 
  768200    304.35492   -1517.9045    477.28891    324.75679    455.11114    36638.639 
  768300    302.16679   -1541.5551    425.64497    239.64611     144.5539    36638.639 
  768400    307.24948   -1524.8287    488.47208    342.00113    139.27088    36638.639 
  768500     305.3424   -1544.5833    466.86068    292.07977    142.77142    36638.639 
  768600    306.99825   -1493.6492    451.15045    334.73202   -325.05524    36638.639 
  768700     301.7551   -1516.0908    475.33204     312.9506   -140.70384    36638.639 
  768800     286.9321   -1491.7974    473.57785    268.99203   -291.62095    36638.639 
  768900    309.15554   -1539.8138    472.17152    319.26633   -169.16083    36638.639 
  769000    305.19374   -1559.1191    474.74396    284.76034   -158.81538    36638.639 
  769100    303.52519   -1518.8602    470.10759    312.89753    85.496595    36638.639 
  769200    292.34324   -1535.1183    480.77479    257.14302   -17.664148    36638.639 
  769300    307.25454   -1537.1232    467.94861    309.20587    479.97758    36638.639 
  769400    294.79752   -1521.4062     476.7762    277.86681   -58.506455    36638.639 
  769500     291.5319   -1534.6486    475.78612    248.98443    119.76911    36638.639 
  769600    296.17209   -1557.9246    483.91069    254.64937    713.07339    36638.639 
  769700    300.80623   -1540.1409    480.07947     289.3912    965.05618    36638.639 
  769800    297.02975   -1520.3961    484.23115    296.34586    605.27558    36638.639 
  769900    295.10665   -1548.1917    451.70826    227.40017   -423.84663    36638.639 
  770000    309.12968   -1488.7501    479.65248      377.695    2.8177692    36638.639 
  770100    289.67274   -1480.7943    479.41619    298.12826   -1375.5189    36638.639 
  770200    302.77183   -1531.7353    444.03593    270.57116   -586.07678    36638.639 
  770300    299.83216   -1519.7707    466.04245    291.35459   -447.99727    36638.639 
  770400    299.10275   -1538.0886    500.11269    303.83468   -273.52004    36638.639 
  770500    289.07107   -1539.6052    479.10154    236.30363   -115.46154    36638.639 
  770600    298.42612    -1513.733    481.76824    306.81039    559.83193    36638.639 
  770700    301.21257   -1519.1346    474.73874    306.87959     817.1029    36638.639 
  770800    303.19374    -1535.257    467.23822    292.14443    352.77372    36638.639 
  770900    297.81031   -1531.6008    477.83548    282.24723    351.70171    36638.639 
  771000    296.42808   -1536.2067     449.2105    242.81546    193.95021    36638.639 
  771100    308.52502    -1503.047    469.43895    350.47199    539.76071    36638.639 
  771200    302.84249   -1528.1811    447.08658    277.49299     484.4343    36638.639 
  771300    313.92432   -1564.3978    497.16512    341.06926    963.10951    36638.639 
  771400    308.71108   -1579.4284    461.82315    267.30944    432.82622    36638.639 
  771500    305.61183   -1488.8601    468.76521    350.91624    369.88105    36638.639 
  771600    306.60992   -1474.6432    465.99096     366.8364   -488.37801    36638.639 
  771700    295.75294   -1485.2495    462.33608    303.86953     -189.518    36638.639 
  771800    297.41178   -1528.0725    441.18548    247.33769   -151.16216    36638.639 
  771900    294.61752   -1560.3091    503.43462    264.81482   -386.51231    36638.639 
  772000    299.38724   -1547.7975    447.04722    242.33654    206.39239    36638.639 
  772100    303.95367   -1489.2137    473.32763    347.68629    84.045147    36638.639 
  772200    306.91901   -1511.7715    476.12714    341.23085   -97.698633    36638.639 
  772300    305.17421   -1520.4072    462.20372    310.84441    135.48608    36638.639 
  772400    300.59387   -1545.3523    446.00628    249.15386   -75.003438    36638.639 
  772500    292.93441   -1510.6229    474.61382    278.12959    332.40235    36638.639 
  772600    305.75599   -1478.8022    477.80269    370.65826    299.58966    36638.639 
  772700     303.6221   -1499.7909    478.10938    340.40345    175.02112    36638.639 
  772800    293.29678   -1510.2138    441.25649    246.80701    361.90359    36638.639 
  772900     289.3909   -1511.1773    446.70029     233.7651    501.22757    36638.639 
  773000    304.20966   -1518.9593    461.72595    307.48745    376.76063    36638.639 
  773100    300.89168   -1544.2893    466.43689    271.98351    2.7878765    36638.639 
  773200    304.04591   -1536.3916    436.57812    264.17267   -193.42497    36638.639 
  773300    296.19197   -1508.9558    460.32324    280.11987   -361.00914    36638.639 
  773400    303.05944   -1539.9914    459.12643    278.69578   -253.51675    36638.639 
  773500    299.53846   -1543.1044     434.6659    235.32673   -256.23617    36638.639 
  773600    297.50106   -1536.8158    466.46812    264.27749   -712.33561    36638.639 
  773700    291.28598   -1533.8486    487.99707    260.89208   -454.44727    36638.639 
  773800    309.94076   -1525.5934    445.32084    310.15861   -84.633097    36638.639 
  773900    303.58055   -1550.4132    453.54865    265.03391   -543.58725    36638.639 
  774000    301.95314   -1533.5711    460.35746    281.38414    408.10816    36638.639 
  774100    299.97029   -1539.2661    439.34953    245.78591    2.1995215    36638.639 
  774200    295.23175   -1532.9231    447.18748    238.70919    -106.0518    36638.639 
  774300    308.05169   -1506.9106    480.01747    355.06343     595.1824    36638.639 
  774400    304.44433   -1557.0358    458.88839    267.62616    725.91825    36638.639 
  774500    295.19953   -1536.5533    434.02979    221.77675    108.89714    36638.639 
  774600    297.18642   -1509.2237    479.61433    303.60427    87.855462    36638.639 
  774700    294.72825   -1503.6006    457.46137    276.04678      238.609    36638.639 
  774800    307.56008   -1531.7026    448.82933     296.8779    296.38592    36638.639 
  774900    302.80691   -1470.9935    440.22797    327.66232    -85.14117    36638.639 
  775000    296.64193   -1529.9077     467.0365    267.89982   -136.05554    36638.639 
  775100    298.08567   -1512.5256    450.22987    274.95211   -780.07165    36638.639 
  775200    301.91584   -1502.2754    447.95343    300.10844     -862.449    36638.639 
  775300    300.60197   -1542.1008    465.05236    271.48778   -135.82792    36638.639 
  775400    299.81201   -1527.0364    437.12672    255.08274   -673.54856    36638.639 
  775500    295.01699   -1535.9767    443.41044    230.91509   -142.33628    36638.639 
  775600    309.78179   -1517.9427     463.6582    335.43351       52.362    36638.639 
  775700    292.70125   -1490.2873    439.59644    262.40181    305.31201    36638.639 
  775800     309.9261   -1457.7361    506.35135    438.98071   -138.02921    36638.639 
  775900    304.66898     -1499.71    444.89148    311.96285   -467.01048    36638.639 
  776000    286.04305   -1481.3382    457.13618    259.02121    103.57142    36638.639 
  776100    290.44544   -1466.4422    457.63298     294.1636    33.460727    36638.639 
  776200    286.65762   -1485.2929    469.47502    270.16236    90.604506    36638.639 
  776300     292.8401   -1504.9831     456.1467    264.87911    255.24225    36638.639 
  776400    298.39079   -1488.5351    457.74435     307.8259   -264.99492    36638.639 
  776500    307.94464   -1482.0538    463.49979     362.9223    199.69828    36638.639 
  776600    298.17999   -1515.5678    448.90195     271.0051    230.67022    36638.639 
  776700    294.50303   -1475.5019    456.02165    301.69538    91.601993    36638.639 
  776800    305.42605   -1492.8003    451.11961    328.49699    69.413253    36638.639 
  776900    304.12313   -1503.8161     449.4584     309.9749    18.868877    36638.639 
  777000    304.42971   -1492.8438    452.72251    325.58669   -695.24881    36638.639 
  777100    297.72608   -1511.3974    474.03859     298.2758   -1020.5877    36638.639 
  777200    304.47926   -1508.0535    439.30442    297.18115   -1140.4946    36638.639 
  777300    303.93004   -1468.3867    440.82635      335.906   -1022.7112    36638.639 
  777400    303.56091   -1491.7454    453.62463    323.68968   -554.75322    36638.639 
  777500    293.65036   -1506.7899    459.42025    269.98081   -109.60395    36638.639 
  777600    285.40466   -1518.5784    436.97106    198.75193    295.25873    36638.639 
  777700    303.72208   -1503.5088    473.43046    332.45508     629.1448    36638.639 
  777800    298.65754   -1518.3781    454.34855    275.78376     461.1197    36638.639 
  777900    293.56498   -1514.0248    465.43085    268.37348     319.4887    36638.639 
  778000    291.57289   -1507.9066    464.20706    264.33113    413.86468    36638.639 
  778100    307.77988   -1517.6678    438.85846     301.9279   -142.78109    36638.639 
  778200    297.54412   -1516.4242    438.71686    257.11103   -121.76403    36638.639 
  778300    295.76548   -1509.2792    425.86264    243.42258   -318.84596    36638.639 
  778400    304.19315    -1468.826    463.28668    359.10738    126.28961    36638.639 
  778500    301.29074   -1458.4067    433.09687    326.31627   -68.049349    36638.639 
  778600    306.15568   -1444.1316    497.98644    427.30569    23.120213    36638.639 
  778700    299.08835   -1402.2561    458.06348    397.55329   -352.14903    36638.639 
  778800    296.77985    -1454.388    471.02842    348.03019    25.531115    36638.639 
  778900    298.12137    -1480.422    465.80289    322.78883   -40.921342    36638.639 
  779000    302.48677   -1496.1756    489.83882    350.65486    61.535949    36638.639 
  779100    293.64432   -1506.4941    435.49319    246.32246   -608.07337    36638.639 
  779200    299.79378   -1497.9139    475.90404    322.90079    339.16064    36638.639 
  779300    304.78905    -1492.074    453.84399    329.08996    16.542579    36638.639 
  779400    296.34825   -1475.8996    436.63365    290.18761    15.789838    36638.639 
  779500    298.71874   -1471.7439    486.44633     354.7903    107.86778    36638.639 
  779600    301.05936   -1453.4097    464.29647    361.47494    328.86464    36638.639 
  779700    294.39746   -1472.8076    445.05307    292.94758    744.95028    36638.639 
  779800    302.82881   -1503.6849    444.36413    299.20534    658.68756    36638.639 
  779900    305.96326   -1507.2044    453.31617    318.69943    351.46462    36638.639 
  780000    306.30405   -1520.0712    433.72168    287.76695    742.46137    36638.639 
  780100    295.58024   -1496.4864    445.05433    274.57606    365.15606    36638.639 
  780200    285.57519   -1447.1735    450.36311    284.31396    151.44507    36638.639 
  780300    297.56725   -1506.3807    463.43925    291.98066    359.69261    36638.639 
  780400     294.3295   -1486.6626     457.6718    291.40647    403.82841    36638.639 
  780500    302.16302   -1467.6177     463.3189    351.24053    84.343337    36638.639 
  780600    311.16319   -1493.0043    456.17091    359.08173    163.27169    36638.639 
  780700    298.15959   -1487.4347    465.21257    315.35724   -278.34804    36638.639 
  780800    308.75974   -1476.7636    468.49036    376.85971    105.10636    36638.639 
  780900    302.77523   -1516.2846    461.57052     303.5717   -235.62041    36638.639 
  781000    312.58411   -1503.6205    441.44521    340.11428   -347.90912    36638.639 
  781100    303.35149   -1502.0336     445.6381    304.47537   -77.079671    36638.639 
  781200    306.90753    -1493.874    450.06019    333.00997    175.88147    36638.639 
  781300    298.16231   -1520.1792    445.52802    262.94048    -85.77405    36638.639 
  781400    303.06611    -1509.209    443.27432    293.65606    224.36224    36638.639 
  781500    282.74877   -1489.7561    478.50861     257.1972   -11.483665    36638.639 
  781600    286.46468   -1510.7103    481.91629    256.32069    338.41241    36638.639 
  781700    300.12236   -1460.8711    463.75749    349.27105    -12.31129    36638.639 
  781800    291.34355   -1507.5408    428.22852     227.6896   -978.87058    36638.639 
  781900     300.8444   -1512.2388    437.19657    274.58159   -240.88134    36638.639 
  782000     287.1143   -1504.0022    479.33626    263.36298   -381.61326    36638.639 
  782100    311.24049   -1490.0427    449.79268    356.01189   -446.72484    36638.639 
  782200    301.20568   -1475.9282    454.55106    329.86744   -866.51191    36638.639 
  782300    293.48531   -1454.0006    435.60823    298.21769   -772.16962    36638.639 
  782400    302.77563   -1431.4655    451.79406    378.61611   -566.95997    36638.639 
  782500    295.41311    -1466.543    481.39288    340.10826   -468.73621    36638.639 
  782600    296.41422   -1455.7718    459.45211    333.42977   -301.74325    36638.639 
  782700    294.50123   -1438.6949    463.76041    346.23314   -208.03851    36638.639 
  782800    304.70219   -1458.5156    427.40507    335.81979   -209.92472    36638.639 
  782900    289.15665   -1467.5543    456.69315    286.33006   -387.54354    36638.639 
  783000    306.55479    -1462.417    461.26576    374.09007    -218.5573    36638.639 
  783100    302.61856   -1503.7969    449.45673    303.24271   -171.54345    36638.639 
  783200    305.20344   -1472.8406    465.71928     362.0577   -120.08813    36638.639 
  783300    300.64199    -1469.612    454.44062    333.54437   -154.63784    36638.639 
  783400     291.7155   -1445.6948     457.0283    320.00403   -472.52607    36638.639 
  783500     302.2591   -1489.7986    445.92924    312.10097    158.26758    36638.639 
  783600    294.38563   -1465.0947    465.73473    321.28904   -237.18156    36638.639 
  783700    293.86519   -1457.1059    454.00589    315.21428   -463.27384    36638.639 
  783800    301.24883   -1495.6088    439.44791    295.27726   -258.30236    36638.639 
  783900    295.06328   -1498.5711    441.91195    267.02981    322.84935    36638.639 
  784000     303.2466   -1495.1241     462.6698    327.94607   -181.38782    36638.639 
  784100    307.64421   -1467.0997    449.82379    362.85268   -173.41744    36638.639 
  784200    296.20538   -1492.0725    441.47755    278.21762    93.142589    36638.639 
  784300     302.4754   -1456.3295      451.588    352.19914   -79.483442    36638.639 
  784400    297.56842   -1448.1279    469.93038    356.72983    11.633068    36638.639 
  784500    304.72469   -1481.3566    466.13199    351.80659    100.02588    36638.639 
  784600    304.94003   -1484.0758    463.59573    347.51726    137.95717    36638.639 
  784700    306.54667   -1448.8386    466.51179     392.8781    110.31691    36638.639 
  784800    302.48623   -1457.8975    466.31222    365.40404    458.43179    36638.639 
  784900    297.20401   -1415.3415    455.61452    373.56567     90.01168    36638.639 
  785000    301.80072   -1479.0383    469.67051    344.54617    27.233588    36638.639 
  785100    304.47919    -1484.764    466.90954    348.07543    550.34357    36638.639 
  785200    294.62784   -1492.9956    439.52495    268.26493    1154.0677    36638.639 
  785300    294.84312   -1459.5585    470.09989    333.24272   -710.25323    36638.639 
  785400    296.23373   -1464.9824     457.3689    321.32626   -777.66908    36638.639 
  785500    308.80489   -1487.9547    441.22929    338.61017    431.30853    36638.639 
  785600    303.65666   -1452.5943    487.62631    397.27202     101.3525    36638.639 
  785700    300.03952   -1481.6333    462.91758    327.29729    124.98875    36638.639 
  785800    298.24355   -1493.1251    440.06084    284.89178   -200.35723    36638.639 
  785900    291.94819   -1478.7796    461.90509    292.83986   -199.76349    36638.639 
  786000    305.15804    -1510.052     469.4257    328.34906    345.55653    36638.639 
  786100    312.10113   -1481.5455    470.69735     389.2747    478.52529    36638.639 
  786200    289.73747   -1468.1602     453.4102    285.04678    34.759801    36638.639 
  786300     291.1461   -1445.6226    454.24183    314.73536    96.272334    36638.639 
  786400    287.94733   -1427.3747    489.54614    353.93753    604.73612    36638.639 
  786500    296.75534   -1446.9195    465.04948    349.40976    292.96025    36638.639 
  786600    302.35764   -1458.7105    489.71829    387.42018    146.03819    36638.639 
  786700    305.45244   -1468.6732    444.47553    346.09838    241.20196    36638.639 
  786800     294.1059   -1510.2791    441.97574    251.09069    25.137093    36638.639 
  786900     294.8103   -1500.4663    459.48894    281.57671    505.52251    36638.639 
  787000    310.07543   -1497.0563    455.86938     349.8484    1136.0771    36638.639 
  787100    294.35395   -1514.4081    448.41759    254.51637    188.08802    36638.639 
  787200    292.00552   -1502.0174    476.46483    284.41894    183.24591    36638.639 
  787300    296.83882   -1489.6637    463.92442    305.91504    217.30105    36638.639 
  787400    292.40756   -1530.3843    457.27227    238.66317    109.27639    36638.639 
  787500    294.03362   -1521.3473    430.52837    228.25092    84.754697    36638.639 
  787600    292.30144   -1494.4939    432.39022    249.19543   -25.109938    36638.639 
  787700    318.26185   -1490.4885    440.96386    378.23597    461.46776    36638.639 
  787800    303.01079   -1538.1284    440.17082    261.38495   -181.24721    36638.639 
  787900    308.56863   -1524.5645    429.82275     289.5339   -174.51581    36638.639 
  788000    307.89548    -1499.921     448.5486    329.88335    46.866444    36638.639 
  788100    292.19173   -1469.8738     449.7105    290.64359    342.91752    36638.639 
  788200    301.86206   -1489.1719    478.98532    344.00261    336.33512    36638.639 
  788300     296.0334   -1510.6169    447.25849     264.6827    413.97875    36638.639 
  788400    307.55881   -1534.9393    456.87696    301.68309    142.38606    36638.639 
  788500    304.34539   -1526.9644    470.90641    309.27166   -166.72183    36638.639 
  788600    305.99957   -1489.0331    450.98586    334.70325    -582.5983    36638.639 
  788700    299.10816   -1457.0837    463.24853     347.9996   -300.75217    36638.639 
  788800    307.14003   -1466.1669    453.10759     364.8075   -1005.2017    36638.639 
  788900    291.73731   -1428.3705    470.63918      351.037   -274.78387    36638.639 
  789000    298.46415   -1446.7068    454.27491    346.51388   -276.58367    36638.639 
  789100    303.84142   -1431.9964     456.6921    387.76455   -16.498145    36638.639 
  789200    292.23703   -1479.7922    436.74617    267.96409   -388.23861    36638.639 
  789300    303.51637   -1468.8556    441.41637    334.17135    633.71965    36638.639 
  789400     291.8076   -1490.1585    455.88845    274.81359    361.50047    36638.639 
  789500    314.83996    -1505.049    443.63601     350.9966    307.49826    36638.639 
  789600    298.81682   -1483.5163    451.11262    308.12416    567.12966    36638.639 
  789700    300.44628   -1490.8795    452.78628    309.74455    938.42189    36638.639 
  789800    294.76619   -1479.4305    446.04981    288.97552    41.692811    36638.639 
  789900    301.27761   -1509.5825    455.69193    297.67668    267.84916    36638.639 
  790000    303.77454   -1472.5821    459.55997    349.74668    60.053687    36638.639 
  790100    299.68821   -1512.0077    433.54098    265.97034   -284.98347    36638.639 
  790200    291.91308   -1469.0975    463.28759    303.74697   -578.17249    36638.639 
  790300    297.59215   -1536.2167    443.69212    242.50929    9.9829669    36638.639 
  790400    305.22906   -1498.1371    449.00778    320.16458   -126.14003    36638.639 
  790500    291.63867   -1458.6018    461.58676    311.31076    242.05083    36638.639 
  790600    296.29228   -1489.5459    468.50115    308.15767   -86.582496    36638.639 
  790700    303.29723   -1489.8816    470.46668    341.21254   -10.793507    36638.639 
  790800    303.34165   -1456.3135    463.63916    368.15247    -290.1975    36638.639 
  790900    295.66179   -1497.4215    464.68386    293.63635   -7.9743191    36638.639 
  791000     302.4074   -1482.9581    444.04133    317.71888    130.87214    36638.639 
  791100    299.31644   -1540.0442    428.88905    231.61402    343.07026    36638.639 
  791200    299.69542   -1534.1865    435.19263    245.47554    28.399934    36638.639 
  791300    302.18803   -1546.6845    431.39992    240.36694   -325.60117    36638.639 
  791400    311.22758   -1561.5134    428.63447    263.32513    486.62932    36638.639 
  791500    298.90966   -1522.3649    449.73636    268.31579    553.22557    36638.639 
  791600    298.23272   -1505.4946    463.90001    296.31291    474.98715    36638.639 
  791700    295.58758   -1517.7377    421.33794    229.64137    362.64336    36638.639 
  791800    302.53586   -1513.2151    442.84264    286.83946    622.71099    36638.639 
  791900    301.50953   -1524.7766    440.54794    268.37897     442.2978    36638.639 
  792000    294.50495   -1488.4807     434.4419    267.14548    1026.4306    36638.639 
  792100     295.0346   -1504.4517    430.82992    249.93853    415.67602    36638.639 
  792200    305.78435   -1458.7654    462.45669    375.47629    212.29133    36638.639 
  792300    302.79397   -1457.8186    460.69667    361.24784    72.386483    36638.639 
  792400    290.19897   -1464.7066      440.972    278.13255    178.11437    36638.639 
  792500    302.91857    -1448.766    429.85893    340.02175    185.98711    36638.639 
  792600    316.42261   -1462.9762    429.77805    386.31138   -203.49441    36638.639 
  792700    300.39768   -1428.3863    422.80563    342.03909   -228.08661    36638.639 
  792800    311.70898   -1456.2641    421.64727    363.74681    403.92008    36638.639 
  792900    303.59449   -1507.7126      407.123    261.37141   -281.40701    36638.639 
  793000    296.43711   -1463.0183    436.33183    303.16574    27.391872    36638.639 
  793100    306.15304   -1491.4541    457.16954    339.15439    309.33192    36638.639 
  793200    296.21472   -1508.1496     443.6343    264.33923    256.63563    36638.639 
  793300    293.59716    -1485.811    455.94142    287.24228    556.87589    36638.639 
  793400    307.27677   -1462.2088     460.2055    376.47692    239.83697    36638.639 
  793500    297.75485   -1478.1212     444.6835    302.32602    -249.8329    36638.639 
  793600    307.55424   -1502.9026    433.16832    309.99069   -214.90563    36638.639 
  793700    290.15923   -1485.7257    448.44349    264.40671    247.68071    36638.639 
  793800    313.64379      -1514.3     426.3272    319.07059   -333.01178    36638.639 
  793900    294.66291   -1481.1853     462.4007     303.1083    163.09875    36638.639 
  794000    296.93105   -1486.0832     457.0232    303.00807    183.26364    36638.639 
  794100    302.20977   -1481.9922    455.45015    329.20697   -448.42146    36638.639 
  794200    291.93411   -1470.4946    437.64421     276.8008   -415.63096    36638.639 
  794300    291.11975    -1449.631    451.69719    308.06412   -718.18541    36638.639 
  794400    297.83668   -1479.8731    437.73815    293.99586   -199.86267    36638.639 
  794500    314.72595   -1507.9404    442.12428    346.08196     212.5212    36638.639 
  794600     299.7418   -1526.3761    449.14945     267.4508    548.82493    36638.639 
  794700    301.42133   -1514.4589    438.17389    275.92703    69.403136    36638.639 
  794800    305.58272    -1483.067    437.09693    324.91045    527.93407    36638.639 
  794900    302.65191   -1512.6085    433.02972    278.15374    374.97209    36638.639 
  795000    315.70156   -1523.6027    436.54639    329.21853   -10.246049    36638.639 
  795100    309.52681    -1514.431    437.53908    311.68223    9.1603285    36638.639 
  795200    306.13422    -1487.026    443.17956     329.5081    755.32615    36638.639 
  795300    301.85561   -1526.5885    435.59495    263.16668    406.01997    36638.639 
  795400     299.2294   -1480.8136    450.91617    312.48126    120.53645    36638.639 
  795500    311.05598   -1506.2578    447.09184    336.26825    365.37024    36638.639 
  795600    299.74808   -1491.6232    471.45739    324.53975    98.967601    36638.639 
  795700    303.11186   -1467.7028    420.74123    312.83433    1013.9332    36638.639 
  795800    291.61886    -1512.576    458.16121    253.82217    512.11028    36638.639 
  795900    305.89482   -1507.5628     432.1907    296.90845    113.47915    36638.639 
  796000    306.98869   -1491.8361    433.23313    318.58484    293.04125    36638.639 
  796100     298.7185   -1465.8244    461.18554    335.44793    34.868629    36638.639 
  796200    305.82003   -1465.2643    459.44042    366.12122    7.3515609    36638.639 
  796300    301.57712   -1494.4967    437.00759    295.42175   -446.18699    36638.639 
  796400    303.65831   -1487.1468    446.26784     321.3684   -132.81918    36638.639 
  796500     290.1953   -1506.9359     441.2446    236.15937    -255.1287    36638.639 
  796600    302.94841   -1524.3131     422.7314    257.48098    54.169428    36638.639 
  796700    294.02866   -1492.6994    438.24209    264.59034    153.03153    36638.639 
  796800    313.70526   -1495.5298    445.19162    356.98099    444.16192    36638.639 
  796900    307.82776   -1452.4018    452.69233    381.24251  0.087779406    36638.639 
  797000    291.51046   -1520.1844    443.01297    230.57922    216.29483    36638.639 
  797100    304.00927   -1445.6687    463.77793    381.93101    507.67895    36638.639 
  797200    292.30695   -1448.8619     453.0938     315.5557    424.43033    36638.639 
  797300    298.76279   -1460.7318     479.0048    358.55843    583.02557    36638.639 
  797400    296.78379   -1493.7811     465.1961    302.82241    546.73562    36638.639 
  797500    303.61363   -1409.1385    470.94357    423.85199    658.50227    36638.639 
  797600    294.38042   -1492.6539    456.46339    284.43519    147.27492    36638.639 
  797700    299.88257    -1504.987    477.87226    318.19419    1329.5126    36638.639 
  797800    296.97266   -1496.7054    442.42546     277.9748    535.08863    36638.639 
  797900    299.74098   -1500.0085    468.25481    312.92001    614.88281    36638.639 
  798000    300.20293   -1499.6041    454.95455    302.09654     708.2579    36638.639 
  798100    303.20949   -1494.7251    465.35541    330.86423    290.95159    36638.639 
  798200    305.87007   -1515.2713     423.9548    280.85304    548.60958    36638.639 
  798300    293.77626    -1511.628      487.332    293.61931    180.32061    36638.639 
  798400     295.1343   -1536.8834    465.40987    252.53406    664.14939    36638.639 
  798500    295.55702   -1452.7072    464.71415    337.91094   -162.10875    36638.639 
  798600    298.78775   -1456.7884    465.15431    348.76336   -16.327985    36638.639 
  798700    300.12389    -1443.713    463.81626    366.49476    63.678867    36638.639 
  798800    299.17466   -1515.7412    474.87296    301.26494    187.58862    36638.639 
  798900    297.92876   -1517.9507    449.75247    268.34567     143.2453    36638.639 
  799000     296.9528   -1505.8479    463.75544    290.07319    167.84528    36638.639 
  799100    296.34033   -1492.2767     460.8606    298.00198    450.24241    36638.639 
  799200    309.58358   -1550.2794    452.50804    291.05744    76.721905    36638.639 
  799300    302.92303   -1506.2353    479.78654    332.49999    786.05993    36638.639 
  799400    295.27723   -1550.9957    459.85392      233.507    1304.4788    36638.639 
  799500    293.18715   -1571.6501    464.07685    207.69921    952.60531    36638.639 
  799600     303.3873    -1546.198    460.00974    274.84337     521.0662    36638.639 
  799700    294.27412   -1507.9622    445.04776    257.23431   -2.9838276    36638.639 
  799800    298.22472    -1526.333    465.34196     276.8806    64.142378    36638.639 
  799900    298.27378   -1509.1464    446.62075     275.5661    1017.2405    36638.639 
  800000     304.8158   -1531.4736    477.30415    313.27051    337.48439    36638.639 
  800100    294.54422   -1575.9968    456.59961    201.96329    460.01484    36638.639 
  800200    310.31626   -1553.8095    469.57434     307.8806   -85.177852    36638.639 
  800300    308.86009   -1562.1213    450.14469    273.60658   -105.37899    36638.639 
  800400    296.34218   -1550.8496    457.12363    235.70033    173.30956    36638.639 
  800500    294.34601   -1596.0768    440.00309    164.39755   -144.27121    36638.639 
  800600    293.44246   -1542.2775    486.07194    260.21227    195.12439    36638.639 
  800700    293.10711   -1596.7834    466.56411    184.69414     795.7456    36638.639 
  800800    305.75655   -1603.0762     447.7287     216.3128    765.17109    36638.639 
  800900    296.70682   -1549.7339    461.01107    242.33929    743.38824    36638.639 
  801000    302.77984   -1536.4843    482.18157    304.00372     667.4272    36638.639 
  801100    302.93569   -1563.5561    451.23023     246.6797    642.68193    36638.639 
  801200    303.36684   -1518.0683    481.71946    324.59097    911.04513    36638.639 
  801300    292.75952   -1547.2795    470.64147    236.71607    785.98988    36638.639 
  801400    305.69522   -1521.8929    441.87817    291.37043    963.56744    36638.639 
  801500    307.89793   -1503.8555    456.94012    334.35136    307.53802    36638.639 
  801600    306.30571   -1536.1278    473.10109    311.09722   -267.50057    36638.639 
  801700    298.48223   -1523.6098      459.826    275.24305    170.20601    36638.639 
  801800    299.13992   -1509.7257    476.14507    308.39671   -181.82919    36638.639 
  801900    313.41681   -1492.4801    464.70839    378.25344    75.458854    36638.639 
  802000    297.77112   -1511.7884    458.95558    283.00394   -186.96064    36638.639 
  802100    295.46768   -1490.5152    459.39822    294.38621   -314.37034    36638.639 
  802200    309.60179   -1472.9263    482.51828    398.50256   -188.13991    36638.639 
  802300    300.81274   -1476.7782    438.03464     310.7382   -515.83213    36638.639 
  802400    295.83075   -1497.9878    492.64319     321.7874   -330.40906    36638.639 
  802500     313.7796   -1527.0609    453.85569    334.44743    9.5845796    36638.639 
  802600    307.71001   -1498.6265    474.01666    355.81393    658.60709    36638.639 
  802700    308.70819   -1483.8894     469.6601    370.67244    204.95516    36638.639 
  802800    300.32345   -1562.7766     452.3529    236.86311   -178.28791    36638.639 
  802900    310.99841   -1533.0664    471.36738    333.47694    154.65058    36638.639 
  803000    299.04915   -1476.1465    507.04672    372.47036    424.45788    36638.639 
  803100    294.17996   -1487.3512    488.24482    320.62001    319.56749    36638.639 
  803200    305.28371   -1514.8404     472.0968    326.79553    891.64442    36638.639 
  803300     301.0645   -1501.9873    479.46787    328.09174    1036.0104    36638.639 
  803400    301.14883   -1463.4739    467.03412    354.54974    510.58785    36638.639 
  803500    297.30152   -1509.8534    463.47871    287.35535    172.91139    36638.639 
  803600    311.96666   -1507.8917    457.34753    348.97545   -21.070799    36638.639 
  803700    299.62336   -1489.5798    467.71444    322.28072   -522.57345    36638.639 
  803800    293.25056   -1503.8536    445.30299    257.00637   -487.75011    36638.639 
  803900    305.96222   -1438.7419    506.77069    440.61176   -1048.4361    36638.639 
  804000    280.86706   -1466.6401    462.79314    256.15617   -493.29975    36638.639 
  804100    300.40875   -1468.6406    467.48342    346.51229   -168.57541    36638.639 
  804200     300.0273   -1454.1845    472.00792    363.78162    386.32887    36638.639 
  804300    307.23827   -1443.9666    455.70467    390.04555   -6.8940162    36638.639 
  804400    300.78867   -1427.7429    487.74877    409.37971   -204.80679    36638.639 
  804500    302.51593   -1450.6697    451.29153    357.74438    447.10818    36638.639 
  804600    307.46542   -1456.2103    485.68577    408.80199    741.69127    36638.639 
  804700    296.08277   -1500.1326    438.56441    266.69441    234.68439    36638.639 
  804800    293.69294   -1431.6326     473.6153    359.52418    36.760155    36638.639 
  804900    301.73127   -1433.2773    492.73992    413.06506    45.971012    36638.639 
  805000    296.78783   -1459.7457    458.40777     330.0876    35.873589    36638.639 
  805100    301.30723   -1512.2759    450.37315    289.79734     236.9631    36638.639 
  805200     300.7752   -1541.0999    457.28113    265.49464     31.93955    36638.639 
  805300    304.71904   -1520.2249    458.04309    304.82407   -131.72219    36638.639 
  805400    306.57089   -1505.4998    473.48491    343.29868   -544.60461    36638.639 
  805500     289.6971   -1509.8505    453.04968    242.81488   -797.71508    36638.639 
  805600    294.69877   -1526.2175    453.18613    249.02236    -168.6488    36638.639 
  805700    300.15728    -1490.087    495.32481    351.77912    -293.5098    36638.639 
  805800    301.67436   -1526.3836    466.84032    293.80385   -66.128207    36638.639 
  805900    299.76553   -1512.4441    452.09403    284.43379    470.03095    36638.639 
  806000    310.78756   -1510.6666    455.69889    339.26228    527.51476    36638.639 
  806100    304.72898    -1558.945    446.70612    254.81162    887.70973    36638.639 
  806200    288.20863   -1542.0133    453.75588    204.68084    1017.7593    36638.639 
  806300    293.53412   -1535.4084     465.1591    246.57976      118.393    36638.639 
  806400    301.65542   -1543.1679    453.88155    263.97583    405.34088    36638.639 
  806500    307.43786   -1564.7421    458.57471    273.03544    705.24581    36638.639 
  806600    304.21458   -1565.2533     440.7799     240.2695    974.50157    36638.639 
  806700    297.50222   -1503.6217    479.67579    310.68446    292.28608    36638.639 
  806800    289.10681   -1495.9323    466.96084    267.99616   -95.639489    36638.639 
  806900    306.49348   -1530.5719    441.22868    285.62303    16.572153    36638.639 
  807000     292.1046   -1508.1071    480.82772    283.13665    -246.6629    36638.639 
  807100    294.95781   -1496.1726    465.01389    292.05716   -191.76731    36638.639 
  807200    301.89264   -1498.5494    484.09708    339.87405   -390.74366    36638.639 
  807300    307.17302   -1518.4352    462.45814     322.0377    207.30637    36638.639 
  807400    308.84691   -1500.0364    467.49172    352.97931    137.57404    36638.639 
  807500    297.69856   -1493.0137    481.48043    323.97787    41.150544    36638.639 
  807600    292.81789   -1533.5162    454.64746    234.74725    113.89681    36638.639 
  807700       304.19   -1528.6604    476.01237     311.9845    25.689349    36638.639 
  807800    306.55572   -1496.7662    463.32762    341.80693   -473.93862    36638.639 
  807900    289.94567   -1532.9715    455.28711     223.0464   -401.55992    36638.639 
  808000    301.58646   -1507.7259    466.99768     312.2246   -600.89235    36638.639 
  808100    316.93899   -1525.3754    490.31729    386.76796   -111.12061    36638.639 
  808200    307.03488   -1466.7002    458.76197    369.45688   -91.491129    36638.639 
  808300    298.42546   -1512.8446    462.23085     288.1584   -271.34427    36638.639 
  808400       295.35    -1536.651    476.09492    264.41917   -510.11793    36638.639 
  808500    298.96276   -1541.3804    468.68406    268.48621   -397.42155    36638.639 
  808600    296.57426   -1486.6077    490.53073    334.39051    -440.5023    36638.639 
  808700    305.13432   -1440.5489    486.65441    414.97447    252.69626    36638.639 
  808800    289.55996    -1472.706    471.89193    298.18635    250.76779    36638.639 
  808900    291.13342   -1465.5212     483.7149    324.25284    270.06372    36638.639 
  809000    294.87228   -1451.4033    484.79096    356.21985     113.2049    36638.639 
  809100    301.40719   -1505.0028    484.23399    331.37973    465.59975    36638.639 
  809200    304.06717   -1527.1289    476.46802    313.42065     551.0319    36638.639 
  809300    297.23324   -1544.4788    491.32194    280.26686    653.49838    36638.639 
  809400    291.29551   -1509.4046    476.50418    273.88597    506.29033    36638.639 
  809500    303.67404   -1503.3311    492.29616    351.28302    704.74773    36638.639 
  809600    296.15377   -1503.6773    474.90039    299.80419    163.98724    36638.639 
  809700    295.96435   -1500.7709    482.10652    309.06699    415.40906    36638.639 
  809800    302.73423   -1495.2074    465.49368    328.38809     5.839641    36638.639 
  809900    297.30934   -1493.9264    473.65343    313.49212      406.607    36638.639 
  810000    306.76872   -1499.3161    468.86475     345.7497   -119.16117    36638.639 
  810100    306.67539   -1517.7772    459.38607    317.39124    807.41859    36638.639 
  810200    302.96471   -1502.2484    486.52834    343.41571    313.08491    36638.639 
  810300    301.91865   -1502.5942    472.85664    324.70546    328.84532    36638.639 
  810400     301.6387    -1531.857    489.55101    310.88117   -73.356817    36638.639 
  810500    302.16124   -1537.7203    456.44533     274.2564   -363.66073    36638.639 
  810600    297.90494   -1538.3125    479.80061    277.92517   -77.789113    36638.639 
  810700    306.71112   -1483.1612    487.78176    380.56319     478.1838    36638.639 
  810800    293.72149   -1548.4423    458.83366      228.061   -435.06073    36638.639 
  810900    298.33881   -1492.2476    465.75653    311.89242    30.455122    36638.639 
  811000    303.33607   -1516.2593    488.11728    332.65975    -263.2557    36638.639 
  811100     290.4765   -1535.0224    486.49221    254.58198   -422.51932    36638.639 
  811200    295.31774   -1500.4283    470.41557     294.8178   -371.89956    36638.639 
  811300    297.23611    -1495.916    505.08385    342.60449   -395.57251    36638.639 
  811400    304.93156   -1502.8226    487.66974    352.80646   -57.940196    36638.639 
  811500    316.71506   -1481.9732    464.10712    402.95548    713.45354    36638.639 
  811600    294.75755   -1525.0024    467.71628     265.0314    836.28877    36638.639 
  811700    304.52563    -1475.456    485.98688     376.6692    625.28453    36638.639 
  811800    305.05166   -1468.5668    483.73727    383.66854    619.66337    36638.639 
  811900    300.41876   -1437.5129     500.3657    410.56714    594.64093    36638.639 
  812000      303.994   -1471.9466    489.18032    380.98702     5.236544    36638.639 
  812100    302.97951   -1498.4069    475.12754    335.92285    387.28086    36638.639 
  812200    296.89305   -1518.1654    487.10315    300.83539    152.70712    36638.639 
  812300    295.12697   -1547.2737    466.09561    242.79664    188.56245    36638.639 
  812400    302.52902   -1568.8498    449.86003    238.19151   -589.64789    36638.639 
  812500     306.1265   -1559.9813    442.47825    255.81692   -475.32386    36638.639 
  812600    292.37434   -1566.1663    480.13387    225.59364   -909.53143    36638.639 
  812700    297.54515   -1514.0716    501.41034    322.16167   -5.5141039    36638.639 
  812800    305.92336   -1556.4376    467.05575    283.02677    -328.7531    36638.639 
  812900    301.28758   -1607.6395    453.16707    197.13959   -207.37979    36638.639 
  813000    300.90266   -1571.3359    459.48568    238.03498    304.80329    36638.639 
  813100    296.42934   -1547.8824    464.73399    246.66891    376.47446    36638.639 
  813200    312.95317    -1600.535    463.82033    267.23058    -232.1783    36638.639 
  813300    301.14008    -1623.809    448.67421     175.8155    224.48967    36638.639 
  813400    297.28474   -1611.3166    469.73772    192.07592    135.44777    36638.639 
  813500    307.09535   -1564.9773    465.59739    278.28638    10.324188    36638.639 
  813600    303.14665    -1565.631    457.00299    251.32396    18.370226    36638.639 
  813700     307.1144   -1578.5416    470.59755    269.80775   -222.92276    36638.639 
  813800    311.02998   -1531.5553    455.95097    319.71322    643.86294    36638.639 
  813900    306.38038   -1526.4474    472.41829    320.42979   -430.15502    36638.639 
  814000    297.70456   -1520.5217    482.60363    297.62003   -106.02988    36638.639 
  814100    293.76846   -1519.3101    474.19976    272.77001   -418.02508    36638.639 
  814200    305.29283   -1518.6603     456.2915    307.21122    21.592132    36638.639 
  814300    306.43359   -1561.4132    485.81471    299.09908    57.070885    36638.639 
  814400    299.07408   -1494.5762    477.63863    324.74441    193.45468    36638.639 
  814500    293.04873   -1530.8502    474.84297     258.6443   -594.41823    36638.639 
  814600     296.5268   -1465.1104     472.9834    338.12751   -803.01549    36638.639 
  814700    290.16967   -1473.2322    467.96874    296.47225   -71.062557    36638.639 
  814800    296.64232   -1504.9153    462.18409    288.04158   -494.99053    36638.639 
  814900    303.78758   -1558.7772    463.39161    267.44168   -41.665212    36638.639 
  815000    295.05496    -1550.113    463.54469    237.08342     292.6367    36638.639 
  815100    291.97572   -1546.9887    467.35636    230.20553   -89.833014    36638.639 
  815200    327.57322   -1501.2312    442.49351    410.79478    135.71927    36638.639 
  815300     304.8462   -1544.3108    476.79012    300.05564    255.75659    36638.639 
  815400    293.10244    -1512.268    494.81814    297.44259    277.12002    36638.639 
  815500    298.93394   -1531.8397    473.98271    283.19624    285.60183    36638.639 
  815600    300.42966   -1552.2857    468.73387    264.21141    464.06695    36638.639 
  815700    294.22641   -1558.1828    465.03507    226.78701    184.24004    36638.639 
  815800    306.45514   -1559.5759    459.55963    274.77801    202.70631    36638.639 
  815900    298.37708   -1571.3934    490.30628    257.46798   -612.63492    36638.639 
  816000    302.47766   -1510.4994    481.05853    327.50995   -363.80283    36638.639 
  816100    296.78085    -1529.463     486.2499    288.18118    -551.7787    36638.639 
  816200     305.2932   -1553.6143    463.78435    279.75171    94.681973    36638.639 
  816300    290.12574   -1589.4834    478.97248    191.02775   -436.80637    36638.639 
  816400    301.31304   -1529.2622    498.70804    321.17199    287.76519    36638.639 
  816500    306.08661   -1534.7908    503.85449    342.20465    76.254616    36638.639 
  816600    302.32919   -1516.0812    480.47378     320.6773    189.11911    36638.639 
  816700    300.30062   -1481.3253    488.55015    354.40917     26.72321    36638.639 
  816800    290.41309   -1508.3565    475.49748    269.96867    187.12734    36638.639 
  816900    299.89122   -1497.8254    486.89576    334.41811    715.09234    36638.639 
  817000     288.4194     -1510.95    475.21014    258.14387    193.99903    36638.639 
  817100    300.38482   -1504.4483    506.28512    349.39891    37.665053    36638.639 
  817200    293.40168   -1506.3116    488.09382    298.01713    292.49584    36638.639 
  817300    308.25549   -1482.7822    494.28884    394.37747   -301.54751    36638.639 
  817400    287.40524   -1509.4139    455.95928    235.87948   -402.91813    36638.639 
  817500    305.85591   -1516.2396    503.60116    359.46765   -670.30435    36638.639 
  817600    308.44189   -1480.2764    482.35448    385.78518   -337.05904    36638.639 
  817700    293.01387   -1512.7723    478.34253    280.06535   -249.09584    36638.639 
  817800    302.07791   -1567.2355    468.06429    255.98627   -86.022161    36638.639 
  817900    302.17868   -1528.5789    492.50294    319.53361    417.21758    36638.639 
  818000    302.05197   -1523.3993    463.23683    294.87869    70.665697    36638.639 
  818100    289.47198   -1480.9547    482.53404    300.18508    459.08948    36638.639 
  818200    309.07093   -1507.6206    474.92622    353.83463    438.71959    36638.639 
  818300     300.8553   -1496.6062    498.19653    351.26304    745.91005    36638.639 
  818400    306.20973   -1524.8499    486.31038     335.1538   -493.30405    36638.639 
  818500    300.44619   -1539.3811    481.57838    290.03472   -8.9354276    36638.639 
  818600    288.44077   -1531.9957    508.91639    270.90039   -263.54883    36638.639 
  818700    298.53381   -1500.7722     480.8759    319.36192   -577.77225    36638.639 
  818800     303.6902   -1537.5273    483.85554    308.71867   -261.48256    36638.639 
  818900    292.95901   -1561.1564     473.1573     226.2499   -395.96187    36638.639 
  819000    297.69878   -1548.7811    469.30078     256.0319   -792.25996    36638.639 
  819100    299.23507   -1561.5458    473.33308    254.19149   -266.65397    36638.639 
  819200    288.62685   -1558.2814     469.2776    205.81061   -197.99911    36638.639 
  819300    298.60417   -1530.4036    479.86785    289.03815   -670.70845    36638.639 
  819400    298.96204   -1541.6615    487.35799     286.8758   -349.14866    36638.639 
  819500    297.15517    -1532.094    475.99367    276.97316    377.63892    36638.639 
  819600    302.80129    -1556.334    475.82835    277.89705    375.03384    36638.639 
  819700    296.48914   -1516.0925    489.08002    303.07307    518.79333    36638.639 
  819800    299.73169   -1528.7434    465.73593    281.62463    6.7488032    36638.639 
  819900    294.36609   -1529.3774    532.02312    323.20704    523.92243    36638.639 
  820000    294.76388   -1495.9019    459.05218    285.49613    435.18726    36638.639 
  820100    294.80466   -1512.4757    472.40239    282.45547    255.98693    36638.639 
  820200    295.02578   -1507.5445    502.61003    318.58632   -268.34299    36638.639 
  820300    299.94426   -1497.3894    521.07518     369.2715   -278.36965    36638.639 
  820400    300.59702   -1517.6183    489.46104    320.35681   -187.02495    36638.639 
  820500     292.3937   -1547.7413    491.38047    255.35214   -9.5428911    36638.639 
  820600    301.88758   -1504.6589    491.60803    341.25282    156.07942    36638.639 
  820700    284.91401   -1515.5637    480.84736    243.44188   -316.13275    36638.639 
  820800    298.14762   -1554.1432    477.89773    261.28025    19.749356    36638.639 
  820900    297.87311   -1531.5488     485.8708    290.61629   -418.83537    36638.639 
  821000    296.13173   -1526.8358    508.75361    310.40006   -670.46999    36638.639 
  821100    294.86251   -1485.0673    521.42187    359.14286     65.87044    36638.639 
  821200    305.69508   -1515.9874    499.13927    354.53641   -27.877054    36638.639 
  821300    299.14228   -1591.6344     490.3022    240.65574    -150.3649    36638.639 
  821400      293.928   -1560.8428     482.5853    240.33855    87.395763    36638.639 
  821500    304.28049   -1567.3358    490.33187    288.03459   -99.666241    36638.639 
  821600    288.63843   -1537.1315    497.08968    254.82457   -100.78792    36638.639 
  821700    312.00009   -1550.0978    501.98082    351.55253   -625.02827    36638.639 
  821800    290.08897   -1555.3066    488.08485    234.15192    -613.6889    36638.639 
  821900    305.92832   -1578.6404    508.36403    302.15455   -247.48264    36638.639 
  822000    302.64897   -1604.5241     476.7531    229.94833   -13.984677    36638.639 
  822100    308.31154   -1568.2211    474.58036    289.48152   -350.93707    36638.639 
  822200    307.92869    -1584.075    491.16893    288.49873   -272.94203    36638.639 
  822300     305.9887   -1584.7713    473.90368    261.83411   -229.98022    36638.639 
  822400    295.61544   -1558.9261    484.35975    251.59969   -568.77267    36638.639 
  822500    296.05341   -1553.4729    499.56431    274.22225   -225.75447    36638.639 
  822600    309.50619   -1550.5115     477.8308     315.8009     186.5583    36638.639 
  822700    309.63867   -1502.2631    507.06025    393.87313   -434.92438    36638.639 
  822800    296.62832   -1536.7972    485.93699    279.84972   -450.99951    36638.639 
  822900    297.81154   -1532.3473     493.1419    296.81267   -14.467372    36638.639 
  823000    306.65816   -1541.7317    506.91281    340.88619    -190.9137    36638.639 
  823100    306.35132   -1509.2314    474.26993    339.36709    452.28074    36638.639 
  823200    297.09112   -1518.7582    506.61981    320.64782    336.33424    36638.639 
  823300    296.55761   -1540.2883    462.81537     252.9198    157.23485    36638.639 
  823400    309.16809   -1536.7479    511.18497    361.40192   -453.99506    36638.639 
  823500    303.05578   -1539.4439    500.98458    321.08503   -711.88761    36638.639 
  823600    310.62191   -1502.6318    449.84073    340.69584   -202.52251    36638.639 
  823700    301.66594    -1526.473     503.8802    330.71655    -487.8484    36638.639 
  823800    301.42205   -1542.3081    459.44968    269.35684   -540.45464    36638.639 
  823900    303.34658   -1535.4662    487.67794     313.0606    27.555332    36638.639 
  824000    307.58755   -1522.1839    483.57103    341.26153   -209.92931    36638.639 
  824100    292.56631   -1496.9901    498.46917    313.96645    710.35471    36638.639 
  824200    292.79622   -1530.7199    491.91976    274.71864    772.71398    36638.639 
  824300    299.52895   -1524.4998    479.24022    298.46301    480.20622    36638.639 
  824400    303.14787   -1492.1348    510.28268    378.10533    753.54997    36638.639 
  824500    307.56963   -1483.1685    497.75966    394.38511    200.45815    36638.639 
  824600    310.32903   -1491.8523    491.85579    392.17646    366.92906    36638.639 
  824700    301.17429   -1485.9414     507.5293     372.6917    211.83908    36638.639 
  824800    295.53885   -1502.0618    504.87649    328.63718    134.43775    36638.639 
  824900    297.09762   -1534.8411    478.34641    276.32062     312.5738    36638.639 
  825000    294.67204   -1536.2602     504.6411    290.31473    294.40544    36638.639 
  825100    295.04223   -1551.0289    492.66714    265.23284    497.55305    36638.639 
  825200    295.61899    -1574.723    495.54655    247.00555    660.74831    36638.639 
  825300    306.94768   -1569.3402    491.75732    299.42095    407.98638    36638.639 
  825400    293.47825   -1495.8285    498.01555    318.76545    307.88539    36638.639 
  825500    289.26586   -1533.5018    505.37519    269.55451    215.83836    36638.639 
  825600    297.41223   -1521.3165    509.96966    322.87983    360.03664    36638.639 
  825700     297.9086    -1525.205    493.57327    304.82174   -60.147115    36638.639 
  825800    296.75481   -1521.9367    491.56306    300.90381      177.793    36638.639 
  825900     290.6047   -1539.5585     497.0066    261.13544    291.64163    36638.639 
  826000    294.25476   -1519.6793    496.34755    296.73021    356.79083    36638.639 
  826100    289.34464    -1527.322     508.4644    279.17694   -24.988658    36638.639 
  826200    313.04911   -1536.4597    499.11347    367.02932    576.52204    36638.639 
  826300    306.22115   -1550.3106    515.03911    338.47304    176.52049    36638.639 
  826400     291.3865   -1528.2175    470.34827    249.32529    71.740746    36638.639 
  826500    297.92702   -1549.4527     470.6789    257.76231   -378.65524    36638.639 
  826600    311.71936   -1566.3319    495.37028    327.44857    108.27916    36638.639 
  826700    307.88027   -1541.7771    496.91329    336.32369    204.43962    36638.639 
  826800    295.90106   -1557.7838    457.48949    227.15312   -125.02314    36638.639 
  826900    294.57468   -1541.3261    494.66582    274.83678   -256.46047    36638.639 
  827000    292.38979   -1546.4441    470.04635    235.29762   -24.883483    36638.639 
  827100     303.5502   -1539.2854    475.14007    297.61698   -783.98584    36638.639 
  827200    301.99709   -1529.8862    471.15753    296.06627    212.30616    36638.639 
  827300    296.54097   -1534.9201    497.55722    292.95525    288.59186    36638.639 
  827400    295.98529   -1515.8955    471.89429    283.82403    222.75078    36638.639 
  827500    297.26561   -1536.5476    503.55293    300.57422    215.54407    36638.639 
  827600    294.97417   -1539.8274    458.12429    241.58613    25.349612    36638.639 
  827700    307.91171   -1550.4903    501.73526    332.57355     607.6375    36638.639 
  827800    297.97953   -1549.1218    471.94235    259.59223    455.73373    36638.639 
  827900    309.44261   -1545.4197    498.10614    340.88289   -244.96307    36638.639 
  828000    301.07839   -1573.1776     473.9066    251.40254   -99.223264    36638.639 
  828100    318.36522   -1522.7263    480.01182    385.50983   -122.61429    36638.639 
  828200    297.03659   -1546.0728    495.31729    281.78602   -1.7019874    36638.639 
  828300    300.43362   -1585.1255    494.30127    256.95676   -301.10984    36638.639 
  828400    299.27348   -1580.8016    470.71856    232.49349    264.33645    36638.639 
  828500    298.37625   -1559.8424    483.17453     261.8835     209.7021    36638.639 
  828600    303.03437   -1563.4027    508.44888    304.49451    789.61436    36638.639 
  828700    298.18118   -1626.0372    449.71669    161.35578    379.22697    36638.639 
  828800     296.2643   -1597.3024    466.74423    198.51878    326.26713    36638.639 
  828900    290.11716   -1583.9983    482.82552    200.32735    242.52406    36638.639 
  829000    308.97484   -1541.2473    526.99132      371.842    463.51899    36638.639 
  829100     314.7951   -1530.7314    482.52192    363.99886   -279.71025    36638.639 
  829200    303.57205   -1539.8463    481.85681    303.87084   -790.89511    36638.639 
  829300    286.84076   -1559.7853    476.21765    203.23411   -791.08187    36638.639 
  829400    301.53748   -1569.5059    448.43027    231.65742   -1077.8694    36638.639 
  829500     302.6948   -1559.7881    487.49646    285.63335   -733.03418    36638.639 
  829600    314.72235   -1612.0219    442.39446    242.25452   -151.30143    36638.639 
  829700    288.64758   -1575.5908     484.1909    203.50749   -148.47001    36638.639 
  829800    308.25142   -1549.0384    472.27621    306.09041   -46.771468    36638.639 
  829900    300.60356   -1481.5813    501.72879    368.69093     25.27546    36638.639 
  830000    290.54385   -1507.9812    491.09214    286.52524    462.21136    36638.639 
  830100       293.82   -1553.2363     489.5147    254.38989    546.49967    36638.639 
  830200      299.847   -1515.5344    510.21703    339.83198     120.4293    36638.639 
  830300    297.81941   -1477.7854    494.00837    352.27634     -78.9177    36638.639 
  830400    305.14695   -1457.7988    493.48568    404.61248    18.738199    36638.639 
  830500    305.93007   -1472.6635    497.11408     396.8893   -332.95738    36638.639 
  830600    298.23917   -1478.9092    488.64399     347.6712    -482.7313    36638.639 
  830700    300.63261   -1468.7331    517.84113    397.78174    33.609968    36638.639 
  830800    297.67404   -1509.2676    497.06565    323.19924    894.78496    36638.639 
  830900    290.98747   -1492.2898    504.16361    317.27823    402.51177    36638.639 
  831000    295.15288   -1511.0255    488.17733    301.24281    -273.7015    36638.639 
  831100    293.74985   -1539.3667    480.02872    258.45881   -490.09301    36638.639 
  831200     292.4382   -1516.4704    507.69458    303.13674   -328.52569    36638.639 
  831300      298.908   -1512.4945    475.32314    303.76551    114.38833    36638.639 
  831400    294.58528    -1560.754    474.06473    234.85544   -454.40143    36638.639 
  831500    308.39809   -1524.3057     491.3568    350.56171   -752.96031    36638.639 
  831600    297.21534   -1563.9522    454.04765    223.43885   -829.75666    36638.639 
  831700    297.28372   -1546.8251    484.03517    270.86026   -92.518559    36638.639 
  831800      300.331   -1541.0873    479.38107    285.61445   -18.341739    36638.639 
  831900    298.68941   -1551.1596    501.70045     290.4971    578.65175    36638.639 
  832000    302.37835   -1540.2958    484.51722    300.72673     81.52407    36638.639 
  832100    302.23669   -1539.0474     488.7537    305.57605   -698.49833    36638.639 
  832200    308.35644   -1522.8405    448.74996    309.23318   -132.24309    36638.639 
  832300    301.82529   -1532.9346    506.01734    327.10698   -139.30359    36638.639 
  832400    299.90811   -1528.0346    477.85227     295.2412   -569.39213    36638.639 
  832500     303.1401   -1550.1024     472.8166    282.63684   -335.17952    36638.639 
  832600    298.21524   -1578.5701    482.22911    241.48813   -632.17504    36638.639 
  832700    303.45082   -1589.4773    461.68703    233.52627   -149.34815    36638.639 
  832800    303.41469   -1527.2462    504.43674    338.34498   -199.65781    36638.639 
  832900     292.7859   -1537.4765    483.04154    259.03745   -252.78421    36638.639 
  833000    297.23987   -1548.5543    464.98016    249.87937    10.652368    36638.639 
  833100    315.14466   -1556.5677    480.58771     337.7965   -613.61011    36638.639 
  833200    299.48543   -1571.2799    465.49825    237.74562    153.34299    36638.639 
  833300    310.33011   -1548.5833    474.03323    317.62774   -162.50347    36638.639 
  833400    295.73233   -1542.2955    485.55043    269.94542   -125.26908    36638.639 
  833500    301.88699   -1532.0668    464.05619    286.29041    216.73252    36638.639 
  833600    307.41362   -1523.9738    475.57695    330.69727   -351.67392    36638.639 
  833700    303.79992   -1546.3323    443.51309    260.06345   -495.86417    36638.639 
  833800    300.51917   -1524.8128    486.83863    310.19067   -786.41039    36638.639 
  833900    292.37358   -1521.1849    447.91945    238.35728   -579.78144    36638.639 
  834000    290.56258   -1542.0192    494.53419    256.01339   -915.18425    36638.639 
  834100    292.06022   -1507.1409    470.40363     273.4796   -1153.0686    36638.639 
  834200    298.62137   -1537.3221    509.27396    311.60292   -1006.3086    36638.639 
  834300    293.82298   -1530.3439    447.15744    234.93845   -652.18939    36638.639 
  834400    294.00087   -1514.3592    496.80882    301.37259   -797.25733    36638.639 
  834500    297.50011   -1472.0549    462.04593    324.61203   -685.76737    36638.639 
  834600    296.49587   -1498.4418    484.09207     315.7661   -761.06954    36638.639 
  834700    298.85518   -1496.3726    464.90298     309.2303   -400.78821    36638.639 
  834800    302.69848   -1474.2572    484.97465    368.65893    4.5636146    36638.639 
  834900    287.18877   -1496.8331    482.56722    274.09714     20.80882    36638.639 
  835000    298.92698   -1495.8331    488.92886    334.11778    491.26189    36638.639 
  835100    297.91323   -1478.9856    473.86497    331.35365   -14.366203    36638.639 
  835200    294.11049   -1477.5571    478.31251    320.17009    305.26625    36638.639 
  835300    302.56755    -1534.349     475.4699    298.47495    137.22215    36638.639 
  835400    301.94597   -1548.1165    447.93033    254.37945    435.11351    36638.639 
  835500    307.69496   -1496.1184    496.82734    381.06519    1119.3424    36638.639 
  835600     304.6803   -1508.8788    488.53846    346.49175     959.2791    36638.639 
  835700    289.62437   -1545.9877    489.90599    243.20776    388.78551    36638.639 
  835800    291.28433   -1526.8311    499.68701    279.59216   -118.75164    36638.639 
  835900     293.9134   -1515.1505    492.41563    295.79566   -130.29625    36638.639 
  836000    304.71024   -1512.0541    495.21552    350.12787    58.436151    36638.639 
  836100    308.83829   -1514.0233    468.79883    340.26088   -266.18731    36638.639 
  836200    296.23806   -1504.2534    495.36899     320.0748    -601.2966    36638.639 
  836300    302.94235   -1551.5632    486.30849    293.78077    198.32447    36638.639 
  836400    299.83338   -1534.0904    476.59841    287.59627   -97.507766    36638.639 
  836500    303.99326   -1528.0961    496.12497    331.77883    669.03676    36638.639 
  836600    309.18587    -1545.126    485.05196    326.97055    582.07789    36638.639 
  836700    297.19358    -1563.779    457.71168    227.17845    308.23761    36638.639 
  836800    306.48586   -1552.4582    498.65526    321.12911    42.069034    36638.639 
  836900    300.51875    -1574.961    489.39645    262.59833    280.66451    36638.639 
  837000    304.81169   -1587.7056    478.86881    258.58473   -501.68591    36638.639 
  837100    297.12068   -1516.6559    476.58638    292.84925   -780.97842    36638.639 
  837200    297.41198    -1514.082    474.75096    294.89457   -635.85872    36638.639 
  837300    306.94893   -1580.6378    475.68635    272.05804   -243.64941    36638.639 
  837400    292.16207   -1574.3302    450.70869    187.05233   -149.11024    36638.639 
  837500    298.68185   -1554.5967    458.25466    243.58035     36.49839    36638.639 
  837600    306.72321   -1554.1218    482.16451    304.03956    375.29317    36638.639 
  837700    294.99862   -1564.5924    458.20075    217.00732    302.76464    36638.639 
  837800    297.04765   -1551.0891    486.77611    268.27815    636.75948    36638.639 
  837900    300.15132   -1530.4331    484.67742    300.75886    436.10786    36638.639 
  838000    299.55018   -1553.9786    459.27404    249.11326   -98.875827    36638.639 
  838100    303.42229   -1508.0152    487.46329     340.6366    227.81476    36638.639 
  838200    300.89347    -1555.778    484.00151    278.06752     78.24513    36638.639 
  838300    300.03802   -1524.2263    465.66054    287.44054   -84.937343    36638.639 
  838400    297.80093   -1550.1595    463.55643    249.36735     10.49702    36638.639 
  838500    295.43034   -1543.5756    485.71689    267.47695    -359.1158    36638.639 
  838600     307.3435   -1537.1098    483.54829    325.21804   -417.23398    36638.639 
  838700    302.95069   -1526.4249    464.33802    296.98598    -397.6935    36638.639 
  838800    305.61799   -1528.3983    494.84912    337.48952   -347.22944    36638.639 
  838900    300.24732   -1517.6952    469.07189    298.32192   -379.29374    36638.639 
  839000     307.5378   -1496.5096    469.74929    352.89087   -100.81678    36638.639 
  839100    280.70125   -1518.5843     501.3015    241.97648    188.70227    36638.639 
  839200    300.32637   -1504.9022    500.95677     343.3544     373.6382    36638.639 
  839300    300.09633   -1513.5345    477.92676    310.66011    -79.16526    36638.639 
  839400    305.78325   -1515.6255    503.88391    360.03853    55.190192    36638.639 
  839500     304.8372   -1498.4882    473.88939    342.93721   -192.17624    36638.639 
  839600     300.5661   -1497.1622    481.61939    332.83252    517.75359    36638.639 
  839700    291.68679   -1514.2881    475.81707    270.07068    388.99647    36638.639 
  839800    306.21055   -1471.1463     475.4911    378.04179    518.93718    36638.639 
  839900    301.24374   -1462.0693     460.4642    349.81017   -387.50683    36638.639 
  840000    309.98972   -1529.9399    464.34186    325.05278    218.99913    36638.639 
  840100    293.29908   -1513.8579    470.26666    272.18334    362.35499    36638.639 
  840200    308.21457   -1526.2182    503.36516    359.83422    377.57933    36638.639 
  840300    289.74577   -1534.3187    471.02853    236.54381    568.30791    36638.639 
  840400    297.11056   -1538.6348    459.32022    253.55876    220.35224    36638.639 
  840500     293.5887     -1514.31    481.09572    283.85963    621.26784    36638.639 
  840600    301.61831   -1520.5163    456.06841    288.64781    427.10801    36638.639 
  840700    310.20211   -1540.5784    483.07596    334.10118    301.34579    36638.639 
  840800     303.7877   -1496.8446    494.07821    360.06141    197.24699    36638.639 
  840900    293.93825   -1500.3392    492.83435    311.13712   -160.66236    36638.639 
  841000    301.66961   -1536.4962    453.39227    270.22181      96.2371    36638.639 
  841100    303.03278   -1490.7118    466.66641     335.3957    342.75454    36638.639 
  841200    303.61118   -1523.9171    473.18134    311.30013    54.989555    36638.639 
  841300    304.25981   -1503.9383    457.69818    318.70566    139.27138    36638.639 
  841400    293.53473   -1464.5082    502.47958    354.80313    34.748969    36638.639 
  841500    291.34186   -1488.8422    497.45176    315.60382     380.1968    36638.639 
  841600    303.14328   -1547.4622      454.972    267.44671    157.52928    36638.639 
  841700    302.78495   -1494.2996    497.94268    361.97248   -119.97512    36638.639 
  841800     290.1905   -1516.3637    482.41163    267.87706    503.73744    36638.639 
  841900    291.04348    -1488.597    476.75318    293.81196    -125.1565    36638.639 
  842000    303.72673   -1449.8435    489.95018    402.66101    98.260922    36638.639 
  842100    297.77518   -1467.7227    492.04405    360.17627    150.66846    36638.639 
  842200    292.40171   -1490.8591    484.56994    305.45974   -206.25809    36638.639 
  842300    304.33809   -1497.1539    460.22262    328.36567   -135.96685    36638.639 
  842400    288.30027   -1521.5144    487.73254    259.56748   -466.06889    36638.639 
  842500    291.61762   -1500.4207    508.02545    315.83616   -16.587587    36638.639 
  842600     304.5234   -1533.5329    466.39533    298.99067   -112.45084    36638.639 
  842700    294.61346    -1509.614    471.44762    283.50472     838.9185    36638.639 
  842800    300.76777   -1531.7728    467.65471    285.16198    396.53696    36638.639 
  842900    301.61434   -1482.7834    490.40971    360.70412    327.75201    36638.639 
  843000    288.24279   -1507.8608    478.71606    263.94672   -66.176254    36638.639 
  843100    303.74691   -1506.2758    464.99668    321.36575    53.964341    36638.639 
  843200     287.0464   -1486.1921    505.63156    307.16378   -608.86648    36638.639 
  843300    310.35641   -1515.3453    475.58824    352.53879    103.13495    36638.639 
  843400    308.05836   -1484.9946    446.30038    343.29223   -80.921192    36638.639 
  843500    304.22919   -1515.0142    457.47835    307.27253    313.91059    36638.639 
  843600    311.42127    -1540.285     464.9635    321.75145    50.081462    36638.639 
  843700    295.71142   -1512.5173    477.81202    291.89133      266.488    36638.639 
  843800    287.69445   -1478.6161    441.47685    253.49236    185.70604    36638.639 
  843900    304.76396   -1511.8777    469.43054    324.76032    44.317518    36638.639 
  844000    304.04285   -1498.6197    489.45483    354.80763    12.883299    36638.639 
  844100     303.7601   -1514.7026    463.44142    311.44286    480.90638    36638.639 
  844200    289.75384   -1501.6048    478.27088    276.53634    321.74431    36638.639 
  844300    292.28711   -1456.9415    461.58867    315.88198   -271.33558    36638.639 
  844400    297.42835   -1515.3573    442.56607    261.50776    45.445089    36638.639 
  844500    306.84438   -1500.6098    467.60261     343.5333   -175.16588    36638.639 
  844600    299.01921   -1550.4124    460.63392    251.65728   -78.731635    36638.639 
  844700    306.08124   -1520.2308     447.7889    300.67497    191.17011    36638.639 
  844800    296.57886   -1508.3264    490.43757    312.59925    35.598378    36638.639 
  844900    310.43233   -1532.3585    460.85089     321.1288    60.023688    36638.639 
  845000    300.05894   -1514.8202    460.62152    291.90151       153.36    36638.639 
  845100    307.83196   -1511.4435     464.9037    334.43103    1236.4779    36638.639 
  845200     296.1243    -1509.657     459.1633    277.95516    527.27699    36638.639 
  845300    299.13917   -1512.5192    443.62024    273.07495     537.2472    36638.639 
  845400    308.86487   -1489.9111     517.4146    413.10813    605.85942    36638.639 
  845500    295.84352    -1479.727    453.30348    300.76579    583.65897    36638.639 
  845600    287.14754   -1476.1907    465.81248     277.7998    366.51481    36638.639 
  845700    296.13952   -1462.4276    481.94566    348.03529   -66.183605    36638.639 
  845800    289.71188   -1464.5383    461.68035    296.82403    195.11422    36638.639 
  845900     303.1818   -1482.9941    469.92682    347.04237    74.638425    36638.639 
  846000    289.02509   -1483.8693    472.88125    285.61294   -461.97615    36638.639 
  846100    294.39597   -1512.2304    448.78943    257.25441   -151.44743    36638.639 
  846200    308.03743   -1507.1401    467.28999    342.04247    453.98646    36638.639 
  846300    293.03538   -1533.5636     450.0421    231.07011     231.2444    36638.639 
  846400    300.61506   -1468.7699    476.97231    356.79734    760.22668    36638.639 
  846500    301.99796   -1487.6601    489.46909    356.60782    590.11963    36638.639 
  846600    300.05397   -1489.5208     455.3112    311.86825     431.1159    36638.639 
  846700    308.03998   -1488.1634    474.73889    368.47953     275.0507    36638.639 
  846800    298.48298   -1464.9007    450.63207     324.7616     438.5816    36638.639 
  846900    296.42371   -1484.9973    466.39007    311.18486    174.21953    36638.639 
  847000    304.95791   -1475.9951    478.94496    371.02739   -455.35411    36638.639 
  847100      300.646   -1476.3484    486.94778    359.33312    131.06048    36638.639 
  847200    307.46978   -1515.2208    455.31146    319.43669    -281.0812    36638.639 
  847300    290.96097   -1533.2096    463.96822    236.04419   -318.46322    36638.639 
  847400    300.28602   -1519.2706    457.60219    285.45047   -205.64646    36638.639 
  847500    297.43117   -1453.9038    483.30692    363.71479    -199.5629    36638.639 
  847600    300.32928   -1487.8664    469.21486    328.66136   -414.62226    36638.639 
  847700    297.70761   -1500.2183     442.6826    278.01614   -952.51824    36638.639 
  847800    295.26934   -1531.1308    440.98419    234.46686    -672.0292    36638.639 
  847900    303.65358   -1492.9538    457.10882    326.38112   -92.826138    36638.639 
  848000    292.65395   -1504.5486    462.96567    271.29754   -139.19993    36638.639 
  848100    292.48404   -1487.5218     461.7836    286.38005   -544.84469    36638.639 
  848200    284.33448   -1520.2896      445.218    200.48675    -125.7548    36638.639 
  848300    302.02862   -1527.1375    477.09029    304.88917   -422.38161    36638.639 
  848400    299.97491   -1547.5516    424.91385    223.08545   -138.65629    36638.639 
  848500    293.15154   -1537.4939    459.93733    237.55618     15.30463    36638.639 
  848600    297.82056   -1528.2568    459.24416    267.04589    73.920046    36638.639 
  848700    305.67741   -1484.4244    482.39018    369.27108    131.10976    36638.639 
  848800    303.80489   -1485.3028    460.80284    338.40494   -288.30542    36638.639 
  848900    291.49592   -1454.7565    483.32807    336.25697   -25.688287    36638.639 
  849000    304.07903   -1444.9337    454.32388    373.52491    165.01302    36638.639 
  849100    298.46323   -1471.4874    431.78546    299.23967   -210.79437    36638.639 
  849200    282.46841   -1463.6611    442.90893    246.43472   -256.17451    36638.639 
  849300    322.78381   -1455.6174    488.01169    480.44087   -86.456256    36638.639 
  849400    286.38727   -1435.6231    467.74065    316.88491   -558.30616    36638.639 
  849500    302.33894   -1472.8397    443.50129    326.99011    236.69441    36638.639 
  849600    295.13319   -1430.5727     465.4841    358.91408    424.15981    36638.639 
  849700    316.13302   -1464.8124    453.48098    406.87893    65.513127    36638.639 
  849800    301.34549   -1477.5963    481.93258    356.20802    180.22282    36638.639 
  849900    293.38804   -1449.4687    458.62831    325.33333    114.78455    36638.639 
  850000    301.69262   -1438.3672    513.26682    428.32865    239.03339    36638.639 
  850100    302.69653   -1477.5691    459.78578    340.14934    548.87529    36638.639 
  850200    304.94182   -1416.6399    484.32252    435.68792   -228.61516    36638.639 
  850300     304.9735    -1426.147    437.15223    379.15269   -820.39821    36638.639 
  850400    309.35196    -1430.514    478.36179    435.63749   -42.233518    36638.639 
  850500    303.26102   -1469.0735    452.97683    344.36836   -315.12857    36638.639 
  850600    307.30489   -1428.0269    477.28266    427.86207   -698.91947    36638.639 
  850700    302.02189   -1440.8767    461.56405    375.59354   -516.65186    36638.639 
  850800    309.92934   -1424.7338    468.38655    434.03269   -299.17829    36638.639 
  850900    293.74644   -1502.7149    461.28288    276.34949   -176.34351    36638.639 
  851000    301.97517   -1433.1775    478.49346    400.01256    223.69724    36638.639 
  851100    287.55922   -1436.0758     459.3981    313.34716    277.88589    36638.639 
  851200     298.6089   -1392.9349     476.9142    423.57444    525.23586    36638.639 
  851300    295.32996   -1406.4978    482.74402    401.13158    241.96077    36638.639 
  851400    304.08397   -1460.4323    462.24038    365.96497    432.20558    36638.639 
  851500    296.82027   -1468.2678     458.9325    322.23582   -231.98292    36638.639 
  851600    311.36518   -1459.6275    469.91893    407.11271    676.95671    36638.639 
  851700    292.19494    -1437.071    467.39304    341.14335    112.60087    36638.639 
  851800    296.67847   -1404.8624    485.97974     412.0523    12.806043    36638.639 
  851900    298.59804   -1449.3483    453.25628    343.45432   -722.14472    36638.639 
  852000     294.7293   -1478.2559    462.17339    306.10824   -1209.5645    36638.639 
  852100    309.67302   -1503.6312    458.90028    344.49912   -464.46102    36638.639 
  852200    298.88478   -1491.3608    446.07947     295.5514   -184.86208    36638.639 
  852300    292.69245   -1472.1962    460.60117     301.4582   -140.80626    36638.639 
  852400    295.79866   -1487.1573    464.22989    304.06059     159.8354    36638.639 
  852500    298.70829   -1467.4296     467.9178    340.52914   -452.88355    36638.639 
  852600    294.29171   -1454.8969    471.72697    337.05774   -27.584626    36638.639 
  852700    301.05091   -1429.5907    456.65026    377.60984    304.84362    36638.639 
  852800    289.75178   -1473.6127    468.26496    294.51324     774.9758    36638.639 
  852900    294.17427   -1460.2087    448.24357    307.73571   -357.92237    36638.639 
  853000    299.00427   -1437.0714    460.99192    365.28925   -24.058176    36638.639 
  853100    299.09229   -1479.9154      442.255    304.10324    333.42332    36638.639 
  853200    302.41887   -1480.1305    452.35063    328.90718    153.37205    36638.639 
  853300    301.07338   -1483.9368    469.54501    336.25928    -12.32596    36638.639 
  853400    309.80238   -1499.5775    462.51225    352.74512    373.82553    36638.639 
  853500    296.18088   -1457.6765    455.05081    326.07708    91.554157    36638.639 
  853600     301.9955   -1483.4347    469.13131    340.48437    184.29287    36638.639 
  853700    311.54415   -1440.2649    489.28907    446.64834    463.28985    36638.639 
  853800     306.9929   -1439.1848     478.2751    416.29706     627.0033    36638.639 
  853900    288.09849   -1467.3441    462.65944    287.75944    157.62385    36638.639 
  854000    305.66094   -1447.6237    462.99866    386.60634    935.12305    36638.639 
  854100    297.49897    -1501.337    484.05765    317.33643    163.14943    36638.639 
  854200    304.45535   -1449.2066    446.20599    362.82238    170.58883    36638.639 
  854300    299.35396   -1425.5004    435.37661    352.81374   -187.34627    36638.639 
  854400    305.56744    -1431.092     490.9483    430.66822   -68.940624    36638.639 
  854500    299.23824   -1458.0337     446.2232    330.60792   -181.37471    36638.639 
  854600    304.73145   -1467.2507    480.81819    380.62902    -659.4968    36638.639 
  854700    301.43095    -1468.166    470.35573    354.44484   -26.093288    36638.639 
  854800    303.94905   -1493.3484    464.54345    334.74671    44.473685    36638.639 
  854900    296.93402   -1468.4077    468.41622    332.08988    -665.0663    36638.639 
  855000    301.54287    -1461.291    477.59473    369.06093   -489.76035    36638.639 
  855100    306.16609   -1489.7155     461.1951    344.97712    -661.1416    36638.639 
  855200    299.30438   -1515.6306    440.73623     267.8207   -370.94424    36638.639 
  855300    305.53692   -1519.3708    494.15527     345.4595   -157.21304    36638.639 
  855400    303.42222   -1543.3865    452.20696    270.00866    286.48702    36638.639 
  855500    307.93124   -1494.6338    482.40171     369.1841    151.27274    36638.639 
  855600    304.11995   -1465.4262    479.36718    378.25928   -482.24531    36638.639 
  855700    286.16444   -1440.8378    472.41777    315.34775    -439.0647    36638.639 
  855800    303.10658   -1475.0719    464.13032    348.83071    219.94168    36638.639 
  855900    301.73728   -1471.8469    490.76285    372.54536    41.789471    36638.639 
  856000    290.82792   -1460.1566    501.92504    346.45712    535.99157    36638.639 
  856100    300.12969   -1520.0651    446.30007    272.65248    691.85915    36638.639 
  856200    305.15434   -1487.8548    469.41953    350.52345    526.80803    36638.639 
  856300     304.3333   -1510.5461    482.78022    337.50956    172.32277    36638.639 
  856400     292.9117   -1528.5885    477.52364    262.97188    81.542003    36638.639 
  856500    294.65514   -1488.8461    464.62235    297.63432   -371.39837    36638.639 
  856600    289.50238   -1483.3899    446.87366    262.22589   -149.09976    36638.639 
  856700    298.57346   -1445.6352    457.52268     351.3236   -490.98655    36638.639 
  856800    299.64876   -1447.7847    475.78954    372.26486   -185.56982    36638.639 
  856900    304.65294   -1484.0291     450.8935    333.57383   -578.11105    36638.639 
  857000    295.58873   -1467.0052    454.49082    313.53186   -819.37757    36638.639 
  857100    318.86822   -1486.6415    460.50115    404.34043   -124.91432    36638.639 
  857200    297.19062   -1423.5469    485.16723    394.85288   -293.83161    36638.639 
  857300    304.64617   -1485.4382    476.71592    357.95676    483.61805    36638.639 
  857400    309.57375   -1517.9521    463.95095    334.78355    882.03117    36638.639 
  857500    306.11501   -1488.3304    460.22283    345.16081    745.37105    36638.639 
  857600    301.71953    -1525.212    458.82361     287.1614    238.35612    36638.639 
  857700    296.08783   -1507.1313    449.81596    270.96989    242.74021    36638.639 
  857800    302.78696   -1499.1564    456.37187    315.55385   -236.97734    36638.639 
  857900    286.57813   -1475.5168    488.77275    298.87954    341.07082    36638.639 
  858000    300.66561   -1477.7571    454.74982    325.81447   -51.543876    36638.639 
  858100    297.97758   -1476.3882    440.76338    301.13808    349.68365    36638.639 
  858200    301.19974   -1479.1514    455.95344    328.01994   -328.43365    36638.639 
  858300    288.27598   -1450.8331     465.6215    308.02879   -418.21279    36638.639 
  858400    304.61894   -1486.3349    457.46024    337.68214   -173.21839    36638.639 
  858500     309.4928    -1486.381    458.58395     360.6245   -90.344159    36638.639 
  858600    307.82616   -1509.1289     435.0754    306.89133   -215.52893    36638.639 
  858700    306.51137   -1524.2993     440.4925    291.23971      -156.29    36638.639 
  858800    298.23928   -1535.0986    479.39397    282.23229     380.8648    36638.639 
  858900    306.87376   -1501.2375    457.90133    333.33607    72.536376    36638.639 
  859000    296.04634   -1525.8301    459.40967    261.67874    354.67074    36638.639 
  859100    307.95486   -1482.2362     441.2579    340.54387    351.63279    36638.639 
  859200    307.34315   -1515.4967    453.88206    317.16335    258.87717    36638.639 
  859300    299.50795   -1455.8158    455.13417    342.94666    92.966284    36638.639 
  859400    299.99646   -1472.9118    471.55612    344.46414    446.81112    36638.639 
  859500    305.75692    -1471.931    461.58828    361.31921   0.48011168    36638.639 
  859600    300.42255   -1460.7583    457.80299    344.77598    67.422064    36638.639 
  859700    291.68652    -1494.977    454.98732     268.5508    12.190829    36638.639 
  859800    301.35464    -1542.306    454.33639    263.94323    101.90222    36638.639 
  859900    310.22639   -1507.4585    465.34394    349.59802     299.7886    36638.639 
  860000    303.90705   -1508.7891    435.50579     290.0799    588.50841    36638.639 
  860100    301.61352   -1477.3307      483.667    359.41043   -220.03659    36638.639 
  860200     301.7176    -1494.969    446.55772    305.12987   -230.77809    36638.639 
  860300    291.89124   -1507.8154    467.60777    269.25123    112.42636    36638.639 
  860400    297.83567   -1484.0915    478.30846    330.34323    120.46614    36638.639 
  860500     294.6162   -1495.3316    461.17326    287.52509    281.81184    36638.639 
  860600    296.64294   -1500.7681    456.44312     286.4506    208.41725    36638.639 
  860700    310.44694   -1477.0984    473.86569    389.46921     382.8638    36638.639 
  860800    293.52368   -1498.4576    438.63335    256.95794    289.52572    36638.639 
  860900    290.64265   -1462.8043    459.41429    300.46754    114.46668    36638.639 
  861000    299.74063   -1472.9272    470.75719     342.5022    469.50346    36638.639 
  861100     292.5996   -1473.2258    473.25079    312.66161    665.35389    36638.639 
  861200    298.69478   -1509.2627    443.39124    274.10894   -50.917799    36638.639 
  861300    306.27494   -1486.8245    473.43573    360.59711    313.61902    36638.639 
  861400    305.59218   -1510.1202    450.69846    311.50121    398.45698    36638.639 
  861500     294.5461   -1518.7998    452.51673    255.08584    290.60562    36638.639 
  861600    296.84043   -1448.2481    475.87804    359.29147   -34.876073    36638.639 
  861700     292.1555   -1481.0679    464.84288    294.41937    244.85299    36638.639 
  861800    296.43946   -1521.4642    476.65147    285.04996    527.58131    36638.639 
  861900    299.15734   -1468.3666    471.86239    345.55124    442.11936    36638.639 
  862000    300.21724   -1511.7992    462.02833    297.03949   -152.96104    36638.639 
  862100    308.75411   -1484.3661    466.82087    367.56247    122.90301    36638.639 
  862200    296.00003   -1474.9118    469.26381    322.24343   -285.95177    36638.639 
  862300    304.57348   -1508.7488    444.10884    301.71297    445.22968    36638.639 
  862400    304.26288   -1501.9434    463.71167    326.72781    247.83644    36638.639 
  862500    299.98208   -1514.0018    450.14505    281.89863   -31.120965    36638.639 
  862600     291.6823   -1524.8222     472.3301    256.02945   -302.95934    36638.639 
  862700    301.53685   -1505.3499    447.66826    295.04856   -340.27358    36638.639 
  862800    305.93855   -1504.5153    478.03295    345.99439   -176.76963    36638.639 
  862900    298.73713    -1481.657    446.46883    304.98221   -494.30356    36638.639 
  863000    306.58596   -1502.3134    447.46275    320.53049   -323.73081    36638.639 
  863100    302.05001   -1505.7882    480.91009    330.15424   -338.36513    36638.639 
  863200    317.61578     -1478.25    468.88472    415.49692   -149.00503    36638.639 
  863300    304.23235   -1528.7542    454.36844    290.43679   -478.32945    36638.639 
  863400    302.99263   -1526.3294    477.09384    310.02545   -275.29135    36638.639 
  863500    289.20901   -1509.0503    462.95549    251.33128   -828.54944    36638.639 
  863600    300.30493   -1554.5347    469.11395    261.78296   -374.60904    36638.639 
  863700    302.91269   -1503.0949    466.78208    322.58954    291.79523    36638.639 
  863800    308.79393   -1543.0908    451.76787    293.96336    11.729413    36638.639 
  863900    299.63215   -1548.9216    457.99056     253.2545   -45.727509    36638.639 
  864000    297.17224   -1513.9625     456.4156    275.60312   -246.94742    36638.639 
  864100    302.47692   -1546.7531      473.305    283.49933   -647.18818    36638.639 
  864200    295.40492   -1559.1707    444.70846    210.75941   -591.74733    36638.639 
  864300    306.23432   -1513.4258    459.32646    319.70426   -326.76822    36638.639 
  864400     309.6775   -1508.5234    448.45939    329.18616    184.78769    36638.639 
  864500     296.9937   -1534.2823    450.97207    249.03888   -174.17417    36638.639 
  864600    298.32501   -1570.9762    456.27389    223.61917   -880.21802    36638.639 
  864700     295.2619   -1527.7307    462.15221    259.00163   -461.35359    36638.639 
  864800    281.16708    -1543.626    486.44293    204.16595   -77.519924    36638.639 
  864900    296.63797   -1566.0886    452.62062    217.28527   -42.771055    36638.639 
  865000    307.24422   -1535.2916    462.84287    305.88544   -311.94572    36638.639 
  865100    302.96608   -1513.3876     479.3538    325.10812   -679.87579    36638.639 
  865200     296.4997   -1488.2635    450.30952    292.17904   -31.461143    36638.639 
  865300    295.88188   -1485.4857    469.99542    311.87103   -438.29047    36638.639 
  865400    302.98438   -1527.6097      453.351    284.96529    355.00316    36638.639 
  865500    308.73491   -1521.5851    482.01428    345.45079    20.431057    36638.639 
  865600     295.4161   -1520.9176    462.17299    266.52723   -43.951297    36638.639 
  865700    299.83068   -1539.2251    464.71357    270.56463   -306.52649    36638.639 
  865800    306.18219   -1564.2425    479.16527    288.49255   -39.801838    36638.639 
  865900      299.948   -1534.5296    456.84266    267.91552   -211.52332    36638.639 
  866000    310.46738   -1524.2026    457.98863    326.57969    70.141146    36638.639 
  866100     302.2344   -1530.9106    470.10061    295.04954   -294.85525    36638.639 
  866200    289.55589   -1517.7399    459.08383    240.32619    78.028694    36638.639 
  866300    286.69141   -1486.5054    485.41364    285.04005    99.789685    36638.639 
  866400    311.44789   -1488.0871    508.04022    417.14544    161.82263    36638.639 
  866500    300.56296   -1443.6194    470.03369    374.77553    74.877655    36638.639 
  866600    296.43414    -1466.402    506.53632    369.97323      146.097    36638.639 
  866700    295.81066   -1511.1326    473.06475    288.97402   -306.57706    36638.639 
  866800    303.83309   -1494.8885    500.09944    368.24235    101.42713    36638.639 
  866900    301.03734   -1501.1661    495.79998    345.12319    101.56273    36638.639 
  867000    296.30954   -1518.6457    453.91121    264.54541    451.38177    36638.639 
  867100    301.07736   -1506.3578    464.43362    308.74475    258.32201    36638.639 
  867200    301.73127    -1481.146    465.72745    338.18383    22.910208    36638.639 
  867300    304.03721   -1533.9345    483.68455    313.69719    69.331981    36638.639 
  867400    296.14204   -1504.2753    492.27444    316.52762    354.53681    36638.639 
  867500    315.35042   -1512.3032    478.21146    380.60781    260.61645    36638.639 
  867600    296.49949    -1507.145    479.92194    302.90894   -204.63255    36638.639 
  867700    295.81605    -1488.866    454.79158    292.99167    222.77347    36638.639 
  867800    305.46145     -1529.85    444.35787    284.84432   -283.19751    36638.639 
  867900    303.49925   -1498.8632    472.47799    335.14854   -737.37087    36638.639 
  868000    304.88055   -1483.0489    474.54875    359.23036   -840.67868    36638.639 
  868100    294.92606   -1506.0299    477.87594    294.91948   -221.48188    36638.639 
  868200    314.61788   -1480.7967    484.34229    414.95892   -610.53188    36638.639 
  868300    296.03404   -1505.6976    488.46963    310.81595    82.173591    36638.639 
  868400    303.12275   -1494.1645    458.97846    324.65875    323.28294    36638.639 
  868500     298.0438   -1513.3568    471.02115    294.72433    30.573836    36638.639 
  868600     304.0756   -1500.5351    486.76959    350.35379    20.160411    36638.639 
  868700    302.61387   -1486.5192    455.02257    326.06523      207.765    36638.639 
  868800    294.38836   -1465.5208    479.07184    334.21227   -327.28702    36638.639 
  868900     298.8873     -1478.94    490.65414    352.55818    93.481587    36638.639 
  869000    295.08224   -1476.4866    494.70799    341.99545    -543.5272    36638.639 
  869100    294.63297   -1517.6916    472.44353    276.51058   -216.13009    36638.639 
  869200    299.16804   -1483.2742    453.86131    312.69056   -386.00897    36638.639 
  869300    307.74203   -1455.7862    497.21599    421.99715    419.88841    36638.639 
  869400    305.89659   -1469.9506    483.34045    385.67837   -125.28512    36638.639 
  869500     282.8233    -1452.039    470.77156    287.51162   -1007.3909    36638.639 
  869600    305.67413   -1463.4967    484.42675    392.22059   -686.71697    36638.639 
  869700    296.62205   -1464.3651    471.99817    338.31489   -1014.5409    36638.639 
  869800     304.6914   -1457.0772    500.41255    410.21728     109.2899    36638.639 
  869900    302.92948    -1456.552    477.08925      379.515    292.09937    36638.639 
  870000    302.67762   -1498.8698    463.36497    322.34299    202.70024    36638.639 
  870100    292.69729   -1468.1288    487.24585    332.19202    214.88405    36638.639 
  870200    297.77722    -1494.861    472.25046    313.25352    184.71726    36638.639 
  870300    298.15098   -1494.6681    461.95534     304.8281    450.95141    36638.639 
  870400    301.68387   -1500.2224     483.3394    336.50675    52.002875    36638.639 
  870500    294.55322   -1470.6348    450.32277    301.08878    114.20739    36638.639 
  870600    297.52832   -1538.3628    477.35746    273.74219    -241.2502    36638.639 
  870700    309.58037   -1534.7983    459.40922    313.42534   -80.082164    36638.639 
  870800    297.32667    -1562.935    467.76632    238.67419   -581.08663    36638.639 
  870900    299.18241   -1527.8897    450.38939    264.66758   -694.32671    36638.639 
  871000    303.66739   -1508.9054     494.9821    348.36477    326.53977    36638.639 
  871100    314.88294   -1546.0474    496.79944    363.35446    278.71222    36638.639 
  871200    293.28342   -1536.7498    486.75754    265.71215   -113.15058    36638.639 
  871300    306.97252   -1519.3538    470.57037    328.33188   -125.24304    36638.639 
  871400    304.36785    -1513.512    474.43461    326.35302    470.33272    36638.639 
  871500    307.12634   -1543.2222    486.00645    320.58963    249.10449    36638.639 
  871600    300.19577   -1555.8804    490.45909    281.29269    115.53327    36638.639 
  871700    310.14788   -1520.9656    492.78995    363.18468    777.89916    36638.639 
  871800    292.95258   -1519.7768    486.11681     280.5602    805.78618    36638.639 
  871900    297.80768   -1561.4413    444.77487    219.33429    181.71271    36638.639 
  872000    293.70206   -1521.8505    467.06749     262.7994   -24.601046    36638.639 
  872100    305.87135   -1533.7085    477.14683    315.61367    -218.0269    36638.639 
  872200     313.5238    -1521.979    459.21214    343.73825   -533.23546    36638.639 
  872300    293.70357   -1516.9172    456.84316    257.51519   -601.72325    36638.639 
  872400    301.89918   -1488.8767    492.56172    358.04068   -324.78069    36638.639 
  872500    300.44786   -1521.5547    485.58665    311.87688    85.294101    36638.639 
  872600    299.59419   -1573.7161    466.38989    236.68907    187.39672    36638.639 
  872700    296.26854   -1548.5806     471.9183    252.43364    197.40242    36638.639 
  872800    302.57615   -1547.3051    475.53842    285.62595    902.79485    36638.639 
  872900    294.98261   -1577.0631    459.99308    206.25706    278.45294    36638.639 
  873000    302.66622   -1525.9408    469.89397    301.74991    333.79101    36638.639 
  873100    301.94046   -1528.2316     486.4592    312.76845    72.392168    36638.639 
  873200    301.79927   -1508.0387    455.09994    300.96876   -461.54004    36638.639 
  873300     293.6288   -1522.7473    479.81377    274.32023    -588.7886    36638.639 
  873400    286.61326   -1531.4504    454.82568     209.1565   -478.31755    36638.639 
  873500    306.77223   -1507.7435    479.86626    348.33957   -135.88555    36638.639 
  873600      313.649   -1552.0317    479.18754    334.22268   -541.83701    36638.639 
  873700    311.66891   -1527.6948     495.7779    366.26697    190.40707    36638.639 
  873800    299.40904   -1547.5693    465.57722    261.19253    206.36871    36638.639 
  873900    290.29749   -1536.6568    500.31373    265.96608   -142.08898    36638.639 
  874000    306.21111   -1559.4899    462.17807    276.38765   -218.35071    36638.639 
  874100    303.22112   -1520.1759    472.03698    312.14715    -95.58063    36638.639 
  874200    304.49379   -1525.0052     480.0926    321.08281    555.33586    36638.639 
  874300    306.36536   -1503.9001     500.7377    371.22911    395.33855    36638.639 
  874400    304.12551   -1504.9528    479.45359    338.84401    552.71738    36638.639 
  874500    301.28982   -1507.7092    467.69962     311.6125   -54.993429    36638.639 
  874600    290.10958   -1508.4668    466.40948     259.4088    304.46697    36638.639 
  874700    294.05515     -1509.49    476.39573    286.07215    125.91613    36638.639 
  874800    311.24812   -1528.1396    481.74565    349.90219    216.08653    36638.639 
  874900    297.21518   -1544.6626    445.53656    234.21665       6.1122    36638.639 
  875000    296.91659   -1533.4901    477.75812    276.27115    169.32707    36638.639 
  875100    306.10232   -1538.4399    487.32055    322.09212   -348.24991    36638.639 
  875200    300.04647   -1521.7354    448.53122    272.84008   -198.17871    36638.639 
  875300     299.0598   -1500.8581    483.79449    324.55425   -608.02476    36638.639 
  875400    307.51882   -1498.0236    463.45626    344.99876    114.64441    36638.639 
  875500    309.27032   -1494.7952    492.42902    385.05738    619.07938    36638.639 
  875600    293.72341   -1471.2066    481.02995    327.50158    604.62795    36638.639 
  875700    301.95151   -1492.1007    475.86718    338.35695    811.62157    36638.639 
  875800    296.50897   -1516.1108    466.72954    280.79329    348.19319    36638.639 
  875900     300.7768    -1531.333    465.49673    283.48432    77.272582    36638.639 
  876000    308.80612   -1539.9764    477.10129    322.46596     579.7615    36638.639 
  876100     294.2116   -1542.9602    496.12985    273.03794    612.44909    36638.639 
  876200    308.15362   -1516.3605    480.93305    346.98641    511.87391    36638.639 
  876300    286.89024   -1533.7566    493.97772    247.24491    535.53044    36638.639 
  876400    290.91975   -1519.2909     489.4449    275.25464    107.06105    36638.639 
  876500    294.64285   -1539.2667    446.98885    229.52505     475.1811    36638.639 
  876600    305.60958   -1518.7871    498.94084    351.15475    123.29078    36638.639 
  876700    299.78815   -1537.6509    480.44095    287.67548    404.28694    36638.639 
  876800    302.51561   -1547.8168    461.12083    270.42512   -205.37722    36638.639 
  876900    294.08634   -1543.9335    453.31373     228.6866   -667.56435    36638.639 
  877000    309.96735   -1544.1241    461.37596    307.80236   -573.78686    36638.639 
  877100    294.03018   -1538.1986    458.28515    239.14102   -843.74083    36638.639 
  877200    299.00369   -1570.4706    455.59956    226.49516   -448.78934    36638.639 
  877300    298.37358   -1551.5425    469.33987    256.33677    172.56972    36638.639 
  877400    293.80613   -1512.7161    478.90305    284.23626    280.14351    36638.639 
  877500    310.09614   -1547.4874    482.91256    326.55344    1213.5806    36638.639 
  877600    292.26295   -1514.6933    467.13769    263.57076    424.15588    36638.639 
  877700    300.84408   -1567.6048     498.3233    280.34082    1053.8776    36638.639 
  877800    297.48349   -1560.3712    475.71183    249.88695    618.81061    36638.639 
  877900    289.97652   -1519.4725    495.73837    277.13513    429.30131    36638.639 
  878000    294.02354   -1515.9395    502.13383      305.219    235.91697    36638.639 
  878100    305.32876   -1540.4802     459.3612    288.62222    266.97667    36638.639 
  878200    286.00248   -1483.9736    495.48622    294.55383   -356.73675    36638.639 
  878300    304.07661    -1478.264    495.03244    380.89231    121.64644    36638.639 
  878400    293.49677   -1486.6232    457.91724    287.95547    2.8643155    36638.639 
  878500    308.84042   -1466.1263    496.90103    416.26966    270.29528    36638.639 
  878600    300.89481   -1503.1606     476.0719    322.76123    171.51849    36638.639 
  878700     298.0243    -1537.595    485.10729    284.48474    166.83588    36638.639 
  878800    299.68078   -1538.8379    466.82415    272.38993    509.86692    36638.639 
  878900    301.28309   -1593.1415    494.24491    252.69523    813.01144    36638.639 
  879000    299.58928   -1562.8109    476.98267    258.16491    916.28796    36638.639 
  879100    306.93048   -1541.7682    480.06872     315.2272    1010.2309    36638.639 
  879200    295.60344   -1556.4012    484.50258    254.21365    28.248878    36638.639 
  879300    298.40759   -1510.0355    461.69088     290.3474    704.31082    36638.639 
  879400    301.38757   -1526.3312    483.32328     309.0526    711.90081    36638.639 
  879500    305.84803   -1558.0964    477.94078    291.91512    812.13854    36638.639 
  879600    301.83075   -1541.0781    478.08844    291.05907    681.93591    36638.639 
  879700     286.4695   -1553.4848    468.80523    200.45677   -181.96501    36638.639 
  879800     292.1547   -1571.8041    485.38151    224.21822    203.87989    36638.639 
  879900    303.17318   -1554.7464     502.9391    308.26366   -320.54108    36638.639 
  880000    296.57952   -1523.9529    464.84628    271.38444   -246.57046    36638.639 
  880100    292.42324   -1565.6547    494.06299    240.25372    129.19271    36638.639 
  880200    290.84593   -1583.4244    481.28399    202.62906    -38.64162    36638.639 
  880300    294.65251     -1534.17    468.07731    255.75358   -551.50142    36638.639 
  880400    301.67779   -1529.1037    461.16971    285.42856   -770.18743    36638.639 
  880500    290.00989   -1511.3307    483.15894     272.8471   -467.09395    36638.639 
  880600    299.36209   -1545.0217    472.97745    270.92977   -361.39182    36638.639 
  880700    308.53399   -1507.5465    485.70328    362.27701   -269.65016    36638.639 
  880800    307.90832   -1531.6519    474.23081    323.89236    7.0064656    36638.639 
  880900    291.53066    -1525.584     481.7554    264.01266    -169.9931    36638.639 
  881000    300.94184   -1500.7082    483.50738    332.86019    431.52571    36638.639 
  881100    297.42186   -1560.7013    465.53225     239.1008    95.895994    36638.639 
  881200    304.21887   -1516.8365    493.19526    341.12087    768.74244    36638.639 
  881300    296.66977   -1507.0402    484.26104    308.11681    314.52348    36638.639 
  881400    291.15435   -1484.1313    490.50051    312.52231   -48.693672    36638.639 
  881500    308.08657   -1500.1333    516.05426    398.03403   -217.66906    36638.639 
  881600    303.80021   -1529.3685    465.09245    298.60783    1.4976435    36638.639 
  881700    298.74453   -1497.4132      484.076    326.86635   -96.322247    36638.639 
  881800    289.13676   -1497.1185    504.00607    303.98949   -559.53877    36638.639 
  881900    303.47761    -1479.711    462.46387    344.18961   -542.06248    36638.639 
  882000    287.52378    -1548.882    480.14096    221.12488   -761.21293    36638.639 
  882100    291.30385   -1528.4314     488.0996    266.49201   -732.22054    36638.639 
  882200     297.1404   -1492.0412    473.27139    314.23738   -440.19934    36638.639 
  882300    296.39618   -1543.3975    482.10189     268.3729    12.847335    36638.639 
  882400    305.42851   -1476.0988    463.80146    357.89133   -337.41752    36638.639 
  882500    286.66459   -1541.2271    464.55932    209.34368   -56.271313    36638.639 
  882600    301.92459   -1542.8923    494.89597    306.47341   -238.18439    36638.639 
  882700    287.55486   -1543.6102    507.74827    254.14346   -13.875493    36638.639 
  882800    302.14244   -1550.3599    473.61504     278.7021    188.82225    36638.639 
  882900    300.76276   -1529.0122    487.90897    308.15438    915.76411    36638.639 
  883000    295.30985   -1489.7402    470.46328    305.51829    426.44151    36638.639 
  883100    311.47651   -1466.4229    500.76104    431.65894     641.7386    36638.639 
  883200     293.2705   -1473.4799    504.22867    346.39511    679.18235    36638.639 
  883300    299.47712   -1531.5113    487.07916     299.0579    213.21832    36638.639 
  883400    291.35677   -1496.0372     475.2681    286.29212    -87.47639    36638.639 
  883500    286.28157   -1503.4619    482.63943    263.47074   -650.29215    36638.639 
  883600    304.73379   -1490.7888    489.50884    365.79218   -279.07344    36638.639 
  883700    303.59224    -1485.789    460.71177    336.87372   -228.02591    36638.639 
  883800    288.67599   -1522.2192    479.38572    252.20145    -41.22304    36638.639 
  883900    295.05562   -1546.2184    483.87647    261.31271    28.079158    36638.639 
  884000    311.36337   -1548.0541    479.56485    328.32388    112.01008    36638.639 
  884100    296.85743   -1543.4779    460.46422    248.72409    527.34271    36638.639 
  884200    309.99841   -1505.5212    491.60499    376.77358    812.64573    36638.639 
  884300    302.39379   -1530.4755    483.78225    309.88128    249.40414    36638.639 
  884400    299.02462   -1517.3434    450.47164    274.58829    6.6409697    36638.639 
  884500    294.71972   -1512.2184    489.00869     298.9381       9.2335    36638.639 
  884600    308.26543     -1440.97    487.40034    429.34575    22.985595    36638.639 
  884700    303.23727   -1497.2411    486.57086    349.68824   -336.30567    36638.639 
  884800    297.50375   -1517.2002     458.1693    275.60634    231.07898    36638.639 
  884900    307.75312   -1508.9666    498.97072    370.62131    362.20403    36638.639 
  885000    289.51436   -1506.9466    455.09691    246.94618    213.90338    36638.639 
  885100    293.37829   -1511.6977     494.6906    299.12288    366.26725    36638.639 
  885200    303.01445   -1473.7869    476.71641    362.28843    -313.3666    36638.639 
  885300    311.22168   -1535.9538    460.66743    320.89122    215.34803    36638.639 
  885400    297.86411   -1520.7673    461.94606    277.43265   -348.35039    36638.639 
  885500    293.02068   -1505.7325    490.34908    299.14227   -111.69075    36638.639 
  885600    303.72507   -1540.8627    485.26966    306.95381      574.617    36638.639 
  885700    295.64223   -1482.6452    462.27867    305.91978     279.6693    36638.639 
  885800    306.79181   -1466.0824    477.63321     387.8554    335.79782    36638.639 
  885900    301.47726   -1494.9414    474.84285    332.36435    398.69925    36638.639 
  886000      301.629   -1490.6388    493.10762    355.61248   -218.58141    36638.639 
  886100    291.93586   -1477.8858    465.58296    297.35619   -441.92256    36638.639 
  886200    291.06955   -1507.4062    480.92486    279.29134   -180.41905    36638.639 
  886300     301.7008   -1543.4594    471.82389    281.83021   -344.76592    36638.639 
  886400    304.34406   -1577.6686    448.88105     236.5362     141.4309    36638.639 
  886500    312.85558   -1517.9605    492.52058    378.06752    349.58118    36638.639 
  886600     305.8519   -1488.6394    494.23591     377.6846     248.5041    36638.639 
  886700    300.91605   -1496.7874    474.23867    327.39651    111.66485    36638.639 
  886800    303.13119   -1523.8886    464.89627    300.89035   -204.56586    36638.639 
  886900    308.25136   -1505.6161     489.6753    366.91151   -184.66509    36638.639 
  887000    307.86485   -1459.8351    491.97035    413.25361   -632.70006    36638.639 
  887100    298.08369   -1483.8524    470.93594    324.32248   -804.08456    36638.639 
  887200    286.10627   -1465.8979    483.38905    300.99791   -949.03168    36638.639 
  887300    308.15049   -1483.5481    449.60997    348.46166   -735.73564    36638.639 
  887400    301.71949   -1507.2802    467.71237    313.98172   -540.44134    36638.639 
  887500    303.04851   -1481.8672    487.85746    365.50195   -959.14073    36638.639 
  887600    300.79153   -1454.1186    470.38049    365.64855   -678.60954    36638.639 
  887700    302.32035   -1456.5994    515.46276    415.10848   -139.56509    36638.639 
  887800    312.99846   -1472.0548    473.54052    405.63411    -127.2529    36638.639 
  887900    301.35952   -1462.1616    497.36994    387.14308     259.4781    36638.639 
  888000    300.25374    -1448.048    486.38784    385.31388    588.95895    36638.639 
  888100    301.12388   -1453.8029    489.50088    386.57561   -118.58778    36638.639 
  888200    292.43815   -1451.0138    472.92929    333.82785    336.80744    36638.639 
  888300    303.01738   -1473.2563    500.81465    386.93048    605.41601    36638.639 
  888400    292.96856   -1463.1589    480.39763     331.5306    400.04507    36638.639 
  888500    309.34336   -1500.1355    481.11677     368.7325       754.84    36638.639 
  888600    291.77122   -1530.0699    480.41114     259.2617   -101.97531    36638.639 
  888700    300.71531   -1512.2928     468.5345    305.28638    365.19272    36638.639 
  888800    304.33178   -1512.8377    494.36706    346.79795    306.35796    36638.639 
  888900    290.36092   -1500.8606    464.34135    266.07441     243.2416    36638.639 
  889000     285.1339    -1486.581    509.55608    302.11973   -528.96195    36638.639 
  889100    291.22655   -1488.1598    492.09256    310.40974   -419.24381    36638.639 
  889200    312.95754   -1484.5626    477.36344    396.76558   -147.58333    36638.639 
  889300     290.0745   -1495.0472    510.56057    316.82217   -577.91132    36638.639 
  889400    291.89219   -1539.6288    486.72427    256.55866    235.08615    36638.639 
  889500    295.58208   -1576.2633    475.31851    225.07164    291.67566    36638.639 
  889600     299.9049   -1576.6303    500.87397    269.65283    353.11196    36638.639 
  889700    298.54539   -1557.7332    472.46558    254.04257    64.494036    36638.639 
  889800    304.80294   -1554.6235    466.48592    279.24471  -0.19946564    36638.639 
  889900    294.37934   -1571.1276    467.80719    217.30034    255.99295    36638.639 
  890000    296.27946   -1566.3943    484.73321    247.48388    86.422878    36638.639 
  890100    303.32331   -1534.1433    474.24861    300.84982   -36.382707    36638.639 
  890200    284.58823   -1548.8627    478.79609    206.63005   -331.36564    36638.639 
  890300    304.26979   -1568.9456    501.91723     297.9622    7.8323949    36638.639 
  890400    299.94333   -1572.6237    481.16655    254.12439     255.7683    36638.639 
  890500    299.55187   -1554.4757    443.39543    232.74507    322.93193    36638.639 
  890600    293.91627   -1564.7089    471.42147      225.256    290.07049    36638.639 
  890700    295.23415   -1567.2409    473.04151    230.25617   -47.931816    36638.639 
  890800    295.83209    -1555.392    499.54978    271.29573    463.22665    36638.639 
  890900    288.91305    -1547.867    476.19802    224.42934    487.14002    36638.639 
  891000    293.07413   -1567.2382    448.81664    196.34393      563.916    36638.639 
  891100    298.21638   -1592.0206    487.00667     232.8203    485.31049    36638.639 
  891200    303.78994   -1602.9802    432.61953    192.47725    441.78553    36638.639 
  891300    303.45419    -1568.775    467.91342    260.47008    298.82947    36638.639 
  891400    304.84013    -1539.799    454.14876    281.89884    42.944121    36638.639 
  891500    308.53519   -1523.6967    461.67478    322.10366   -129.76462    36638.639 
  891600    297.66163   -1569.9575     452.0602    217.44819   -359.38045    36638.639 
  891700     294.1968   -1548.1677    475.48476    247.11899    15.264554    36638.639 
  891800    311.34134   -1541.3847    454.12445    309.45413   -7.9475509    36638.639 
  891900    311.66499   -1607.0623    445.37523    236.47917    223.55976    36638.639 
  892000    310.48993   -1553.3396    457.25723    296.81241   -265.01229    36638.639 
  892100    297.76882    -1564.633    479.41364    250.60705     190.0491    36638.639 
  892200    303.29031   -1546.3686      454.196    268.42383     126.8672    36638.639 
  892300    303.46999    -1579.942     481.4555      262.916    -580.1882    36638.639 
  892400    302.63822   -1538.5521    469.96329    289.08231    344.17885    36638.639 
  892500     294.3106   -1583.2421    447.51597    184.58633    167.50369    36638.639 
  892600    301.24427   -1563.1933    467.53295    255.75732    18.997174    36638.639 
  892700    298.34929   -1530.1073    451.92177    260.24491    81.075016    36638.639 
  892800    304.07578    -1532.096    472.88865    304.91278    678.93649    36638.639 
  892900    304.76448   -1538.4902    477.70558    306.42515    885.34961    36638.639 
  893000    304.16462   -1591.9449    446.84659     219.4204    92.774871    36638.639 
  893100    294.71941    -1573.041    464.57575    213.68112    886.34334    36638.639 
  893200    293.16269   -1575.0324    486.51102    226.64134    367.28344    36638.639 
  893300     303.8287   -1553.5978    481.95353    291.36751    560.08702    36638.639 
  893400    293.25125   -1536.6268    461.46205    240.39525    96.671965    36638.639 
  893500    294.29885   -1518.1162    470.49698    272.64047    66.226914    36638.639 
  893600    302.16797   -1501.0723     449.3175    303.80666   -287.62374    36638.639 
  893700    298.29779   -1549.7476    471.72537    260.17722   -14.965736    36638.639 
  893800    298.54695   -1543.6407    461.13922    256.81571   -684.99855    36638.639 
  893900    293.92679   -1526.9802    453.90896    245.51939     -634.108    36638.639 
  894000    296.58544   -1527.0095    477.90996    281.41808   -886.53495    36638.639 
  894100    296.78442   -1548.9875     466.9265    249.34924   -343.32025    36638.639 
  894200    296.78115   -1546.5124    469.25555    254.13874    184.66428    36638.639 
  894300    304.16838   -1518.4333    426.68688    272.78916    373.23575    36638.639 
  894400    296.93395   -1510.3608    528.92836    350.64861    490.32108    36638.639 
  894500    300.54536   -1526.4505    473.99386     295.8256    828.50946    36638.639 
  894600    292.03549   -1536.6801    490.20115     263.6271    438.05605    36638.639 
  894700    291.41282   -1504.6065     491.1165    293.82264   -80.462236    36638.639 
  894800    296.55328   -1498.2879    494.38399    326.46945    141.55226    36638.639 
  894900    296.47143   -1503.8169    473.51396    299.70326    343.33031    36638.639 
  895000    306.56715   -1493.9959     518.0991     399.3999    352.56144    36638.639 
  895100    300.10556   -1501.9435    483.90479    328.27055    907.59018    36638.639 
  895200    308.40031   -1548.7985    483.23316    317.95519    4.3521076    36638.639 
  895300    302.69476    -1518.842    463.52636    302.60908    150.24038    36638.639 
  895400    287.17478   -1535.5037    477.55806    230.35461   -376.54052    36638.639 
  895500     305.1088   -1523.5755    475.05609    320.23502   -236.30318    36638.639 
  895600    300.83887   -1575.4924    455.45675    229.56337    128.81232    36638.639 
  895700    297.21138   -1593.4109    465.79891    205.71367   -327.51861    36638.639 
  895800    295.76285   -1592.2875    480.63815    215.17809    408.12326    36638.639 
  895900    305.58658   -1586.9484    475.18858    259.13795     64.77987    36638.639 
  896000    299.20608   -1550.5696    464.93979     256.6443   -403.73927    36638.639 
  896100    306.05272   -1529.2843    454.64191    298.34662    388.24524    36638.639 
  896200    309.46127   -1577.2388    479.25063    290.29197   -93.240656    36638.639 
  896300    294.69827   -1563.7153    482.27391    240.61016   -15.771111    36638.639 
  896400    306.41697   -1562.4386    487.37783    299.56223    459.02917    36638.639 
  896500    301.83141   -1581.2544    460.33922    233.13642    130.60899    36638.639 
  896600    296.88822   -1586.4308    459.71338    205.15851    350.10546    36638.639 
  896700    317.85392    -1613.907    493.06268    305.08621    352.25479    36638.639 
  896800    293.92224   -1533.5673    461.24673    246.24959   -15.091802    36638.639 
  896900    314.24954   -1514.6363    498.35478    393.47939    116.29063    36638.639 
  897000    305.96583   -1534.2968    463.71652     302.0189    169.69689    36638.639 
  897100    298.34254   -1542.7585    473.64013    269.28181    298.97104    36638.639 
  897200    291.71278   -1488.9336    513.06751    332.79225    71.108247    36638.639 
  897300     299.9246   -1507.1208    468.55721    306.93395      64.7825    36638.639 
  897400     304.3989   -1509.4312    486.67616    342.81464   -156.85292    36638.639 
  897500    295.03938   -1524.4107    489.16891       288.34    547.11971    36638.639 
  897600    310.12103   -1505.2373    482.12977    368.13238    366.35444    36638.639 
  897700    304.10897   -1539.5444    463.42102    288.14567    400.67431    36638.639 
  897800    297.07045   -1548.0352    497.93207    282.59029    312.67955    36638.639 
  897900    300.46183    -1507.534    473.76859    314.14215    772.72447    36638.639 
  898000    294.40093   -1541.4012     502.2043    281.52069     1.483655    36638.639 
  898100    299.94092   -1568.1581    443.46895    220.88158    137.64984    36638.639 
  898200    297.27479   -1492.6792    508.30318    349.23414   -438.83926    36638.639 
  898300    300.70575   -1538.9897    458.37349    268.38563   -617.97608    36638.639 
  898400    308.30485   -1554.1828    515.03284    343.94239   -227.91385    36638.639 
  898500     301.5551   -1525.8811    440.89462    267.82563   -684.20688    36638.639 
  898600    302.26147   -1503.8003    491.30664    343.48731   -850.42678    36638.639 
  898700    294.61128   -1471.8776    472.36911     322.1528   -636.22538    36638.639 
  898800    303.57823   -1504.2752    505.05119    362.66404   -91.495908    36638.639 
  898900    302.48033    -1553.043    484.01211    287.93193    282.19292    36638.639 
  899000    302.67672    -1559.732    491.29719    289.40899   -263.79215    36638.639 
  899100     299.7244    -1503.341    465.03037    306.28871   -600.48345    36638.639 
  899200    300.79998   -1516.7178    485.27542    317.98211    472.66995    36638.639 
  899300    302.29317   -1548.0688    469.46276    277.51718    507.18187    36638.639 
  899400     302.1469   -1490.9847    480.82344     345.3057   -9.0399686    36638.639 
  899500    299.68869    -1533.304    443.77237     254.9075    344.29244    36638.639 
  899600    290.58583     -1496.86    510.04062    316.78327    57.942953    36638.639 
  899700      299.934   -1460.5292    473.44697    358.45744    -635.0655    36638.639 
  899800    296.62054   -1507.9499    485.59302    308.31817   -598.03626    36638.639 
  899900    313.55575    -1540.782    480.75525    346.62171   -389.75257    36638.639 
  900000    297.64387   -1525.5702    450.69142    260.38702   -377.07459    36638.639 
  900100     320.0616    -1525.739    470.10914    380.20463    29.318358    36638.639 
  900200    298.35589   -1560.1512    475.17196    253.48088    -115.6128    36638.639 
  900300    298.33372   -1536.1041    483.05194    285.30844    13.293735    36638.639 
  900400    299.02748   -1520.6694     467.1571    287.96057    -114.8446    36638.639 
  900500    291.13719   -1531.7688    495.43086    269.73813   -869.34458    36638.639 
  900600    295.72651   -1547.8079    466.68387    245.54032   -402.59219    36638.639 
  900700    305.45678   -1501.5256    459.61308      328.403    420.38312    36638.639 
  900800    293.68269   -1485.3267     479.3295    311.49828    296.36208    36638.639 
  900900    306.30079   -1520.6049    473.19914    326.69602    634.07157    36638.639 
  901000    310.79744   -1544.7006    454.68363    304.25733     144.6394    36638.639 
  901100    295.81865   -1500.6037     480.2933    306.76736   -212.35696    36638.639 
  901200    303.83738   -1465.2875    480.64589    378.40909    332.95144    36638.639 
  901300    298.90039   -1514.8863    461.85901    287.87544   -170.94561    36638.639 
  901400    299.22768   -1488.2612    500.80097    354.91081   -545.65427    36638.639 
  901500    295.43445   -1560.3545    448.17885    213.17849    162.84092    36638.639 
  901600    289.86903   -1521.1662    502.57107    281.79189   -485.49725    36638.639 
  901700    299.51017   -1534.9247    426.43141    235.14499   -534.24891    36638.639 
  901800    292.49461   -1551.9938    451.77632    211.94823   -137.56872    36638.639 
  901900    309.43198   -1544.0581    513.37874    357.46935    191.51351    36638.639 
  902000    298.65785   -1559.2415    462.51205     243.0853    696.48219    36638.639 
  902100    297.57789   -1537.2412    491.73133    289.45997    304.10703    36638.639 
  902200    299.76245   -1561.6046    484.37013    267.53564    660.31039    36638.639 
  902300    304.52528   -1548.1549    485.26994    303.25167    478.16772    36638.639 
  902400    293.86485   -1516.3558    472.38343    274.34034    659.55151    36638.639 
  902500    292.91174   -1521.5379    477.41458    269.91362    344.70358    36638.639 
  902600    297.15371   -1533.8388    471.32987    270.55801   -234.14724    36638.639 
  902700    306.93203    -1562.528    472.86571    287.27138    -579.4881    36638.639 
  902800    303.15111     -1549.85    474.01768    284.13969    -556.9474    36638.639 
  902900     296.7594   -1548.3666    441.63981    224.57127   -436.71792    36638.639 
  903000    289.96718   -1535.2856    459.96777    225.50946   -559.55377    36638.639 
  903100    301.51775   -1495.6089    468.18338    325.21901    116.58873    36638.639 
  903200    306.54835   -1524.7379    499.03893    349.51344    118.05147    36638.639 
  903300    307.97248   -1563.4927    473.04431    291.15281    47.141953    36638.639 
  903400    298.27519   -1589.0537    483.28351    232.32779     -34.9823    36638.639 
  903500    294.87897    -1531.766     488.7801    279.87626   -1.5996862    36638.639 
  903600    304.90879   -1570.2757    466.36834    263.94981   -75.718524    36638.639 
  903700    299.11338   -1555.8866    453.47846    239.45009   -122.65963    36638.639 
  903800    300.74797   -1549.7326    472.25501    271.71359    186.90864    36638.639 
  903900    303.52805   -1551.1913    449.79869    260.27039   -26.639803    36638.639 
  904000    295.32493    -1537.808    502.66227    289.71708    414.02321    36638.639 
  904100    303.94294    -1538.011    464.74833    290.26155   -57.975206    36638.639 
  904200    304.79447   -1469.1274    472.56479    370.78165    254.41562    36638.639 
  904300     295.5387   -1448.6161    485.66032    362.86606    86.525767    36638.639 
  904400    303.11086   -1516.7768    491.76317    334.77781    391.99864    36638.639 
  904500    308.97757   -1523.6577     485.7976    348.25012    366.58942    36638.639 
  904600    288.82486   -1544.4885    477.38214    228.59641    193.57672    36638.639 
  904700    304.15561   -1550.1559    491.49444     305.8168    197.04016    36638.639 
  904800    294.71553   -1552.4893    445.13487    214.77458    131.24613    36638.639 
  904900    293.92708   -1545.8745    482.17411     254.8915   -179.82529    36638.639 
  905000    298.66881     -1553.31    454.84658    241.40042    236.72058    36638.639 
  905100    299.48971      -1584.5    463.07574    222.12229    513.34147    36638.639 
  905200     303.6987   -1575.5935    473.66922    260.50429    382.92799    36638.639 
  905300    296.60202   -1533.8496    463.27117    260.01356   -99.613867    36638.639 
  905400    296.41714    -1535.887    460.70416    254.57981    288.34093    36638.639 
  905500    287.26573   -1500.5824    498.85104    286.97691    55.471054    36638.639 
  905600    297.98196   -1496.4731    480.29708    320.60655   -525.09335    36638.639 
  905700    307.72684   -1532.5089    463.37869    311.36902   -630.13251    36638.639 
  905800    290.84812   -1579.6587    469.56108    194.68173   -209.11176    36638.639 
  905900    299.17015   -1542.8167    464.03938    263.33562    98.028254    36638.639 
  906000    300.63121   -1564.6381    467.51792    251.54724    278.64322    36638.639 
  906100    300.78003   -1549.5806    499.31191    299.06638    256.26095    36638.639 
  906200     295.2945   -1511.8948    450.42753    263.25905    212.73729    36638.639 
  906300    301.39057    -1551.146    487.42551    288.35356    704.67231    36638.639 
  906400    306.23941   -1581.1361    453.75024    246.44058    556.08956    36638.639 
  906500    294.49851   -1562.4929    459.46383    218.12636    458.45932    36638.639 
  906600    297.98756   -1561.5861    468.77129    243.99286   -157.76751    36638.639 
  906700    313.77189   -1587.6734    456.26129    276.20596    428.26957    36638.639 
  906800    287.85589   -1572.8834    470.76231    189.23473   -107.64211    36638.639 
  906900     298.4128   -1586.8149    451.88838    203.78892    435.12104    36638.639 
  907000    299.69634   -1594.5359    455.57761    205.51523    696.65509    36638.639 
  907100    309.64262   -1571.2302    480.15893    298.02242    862.91273    36638.639 
  907200    298.44004   -1547.9088    451.03991    241.96866    542.41047    36638.639 
  907300    302.30434   -1564.6774    475.96435     267.4602   -77.164099    36638.639 
  907400    303.63392   -1543.4521    440.54486    259.23068    579.05278    36638.639 
  907500    308.16194   -1535.3377    486.69703    333.81049    625.17753    36638.639 
  907600    301.88237   -1509.2122    463.02669    308.09471    332.85173    36638.639 
  907700    309.87272   -1553.3722    465.71488     302.4686   -7.1419036    36638.639 
  907800    302.60771   -1563.2027    477.27989    271.61145    -644.1832    36638.639 
  907900    297.55797   -1586.2843    446.10308    194.69933   -119.45835    36638.639 
  908000    296.20032   -1515.9443    465.89216    278.73775   -360.01939    36638.639 
  908100    297.06602   -1479.5523    481.61689    334.73819    138.26419    36638.639 
  908200    297.17172   -1510.4451    487.70565    310.40827     112.5234    36638.639 
  908300    307.68618   -1529.2577    464.29698    315.35609   -79.837022    36638.639 
  908400     296.5693   -1531.3866    471.96013    271.01877   -255.55291    36638.639 
  908500    293.45509   -1501.0409    452.76405    268.19764   -476.84973    36638.639 
  908600    300.52307    -1541.704    482.56064    289.03891    75.452479    36638.639 
  908700    307.80991   -1511.0782    485.27802    355.07175    867.28803    36638.639 
  908800    290.66516   -1527.1457    504.04555    280.85835    492.18232    36638.639 
  908900    302.15143   -1503.5614    499.55474    351.48065    278.87715    36638.639 
  909000    299.55364   -1527.7064    468.26469    284.39167   -468.71404    36638.639 
  909100    299.43543   -1498.4781    456.65455    301.47946   -368.15116    36638.639 
  909200    288.75805   -1555.5984    477.28467    217.08925   -400.93461    36638.639 
  909300    300.22651   -1530.8263     464.9687    280.99429    -164.0312    36638.639 
  909400    305.22843   -1533.6548    457.71049    293.34677    -505.8555    36638.639 
  909500    296.22103    -1521.958    457.99099    264.91581   -197.30362    36638.639 
  909600    304.59523    -1552.619     449.3839    263.21542   -263.35665    36638.639 
  909700    296.30476   -1545.8688    437.66132      221.051    9.7768913    36638.639 
  909800    309.54651   -1535.4207    465.33656    318.57835   -196.78849    36638.639 
  909900    291.73474   -1537.8543    460.99545    231.89791   -740.81643    36638.639 
  910000    303.11565   -1517.7906    467.19455    309.21689   -413.24379    36638.639 
  910100    307.52912   -1570.5568    461.17658    270.23199   -1038.8109    36638.639 
  910200    295.63706   -1526.0227    462.64974     262.8901    33.537073    36638.639 
  910300    309.88306   -1544.9696    460.63372    305.83645    333.68873    36638.639 
  910400    297.23423   -1500.3389     477.8166    310.90583    454.18891    36638.639 
  910500     297.9987   -1499.0131    459.13501    296.97962    438.53926    36638.639 
  910600    305.63968   -1533.6699    474.31594    311.78203   -77.093538    36638.639 
  910700     297.0376   -1521.9766    429.08372    239.65323    11.896629    36638.639 
  910800    296.16508   -1552.2872    467.55512     243.8998   -325.83731    36638.639 
  910900    303.79553   -1479.4855    464.06191    347.43933    13.870228    36638.639 
  911000     303.3441   -1510.2837    444.59363    295.14771   -37.176614    36638.639 
  911100    294.19296   -1518.5718    462.12178    263.33469   -219.98142    36638.639 
  911200    301.06296    -1502.779    457.46544    305.29077   -552.65723    36638.639 
  911300    289.54709   -1482.8494    452.20047     268.2938   -302.22933    36638.639 
  911400    307.14583   -1498.3801    453.45086    332.96359    -274.7551    36638.639 
  911500    310.43987   -1524.2908    463.19399     331.5734    187.75558    36638.639 
  911600    299.60876   -1489.8639     495.2547    349.47143     428.0815    36638.639 
  911700     290.5531   -1477.8058    453.17457    278.82463   -302.87258    36638.639 
  911800    292.88933   -1509.7566    481.31767    285.49746    135.32164    36638.639 
  911900     302.2051   -1541.4502    487.25025    301.52815    282.26135    36638.639 
  912000    293.17891   -1519.4837    469.55216    265.30402    212.33209    36638.639 
  912100    297.14447   -1537.2791    474.98371    270.73005   -39.470422    36638.639 
  912200    291.43784   -1544.3226    495.42803    258.53027    360.47162    36638.639 
  912300    297.06757   -1565.4948    472.43427    239.62001    221.11456    36638.639 
  912400    311.28201   -1534.1518    474.60083    336.89725    635.96756    36638.639 
  912500    292.53763   -1498.1322    507.40276    321.62925    183.29522    36638.639 
  912600    300.50779   -1524.9884    491.26453    314.38985    198.67819    36638.639 
  912700     297.3116   -1562.7698    481.29502    252.30047    69.438191    36638.639 
  912800    292.34426   -1551.4856    480.72187    240.72745    428.31495    36638.639 
  912900    314.12868   -1549.3853    471.29897    331.13238    34.350988    36638.639 
  913000    303.26689   -1564.3881     474.9188    271.02207   -81.328666    36638.639 
  913100    287.54526   -1581.2369    477.77519    186.50055    87.786473    36638.639 
  913200    297.77074   -1571.6598    474.01736     238.1926   -287.56325    36638.639 
  913300    305.25702   -1574.7187    445.83303    240.53365   -460.52367    36638.639 
  913400    284.56296    -1572.426     475.5937    179.75099    286.97804    36638.639 
  913500    296.37269   -1516.8562     474.5479    287.25491    80.619544    36638.639 
  913600    293.29406   -1590.2726    480.86389    206.34334    54.171279    36638.639 
  913700    314.35151   -1542.3391     478.5124    346.39168   -188.14979    36638.639 
  913800    297.22806   -1522.2438    486.63256    297.78927    237.39976    36638.639 
  913900    301.83441   -1539.9967    483.69778    297.76617   -87.547615    36638.639 
  914000    288.04303   -1587.0582    469.34777     174.4849    -198.8603    36638.639 
  914100    303.96933   -1590.6878    459.81285    232.76768    -260.3541    36638.639 
  914200      300.832   -1593.0001    463.91614    220.48424   -773.18281    36638.639 
  914300    304.98148   -1551.8627    459.17467    275.49516   -409.02788    36638.639 
  914400    304.63238   -1588.8761    478.37117    256.11216   -863.66498    36638.639 
  914500    300.40738   -1568.7968    473.60131    252.46785   -100.92703    36638.639 
  914600    297.63013   -1574.0907    468.16096    229.27453   -371.94988    36638.639 
  914700    300.46526   -1566.0234    462.30802    244.20757    -349.9728    36638.639 
  914800    296.73361    -1554.826    478.64454     255.0008   -312.91646    36638.639 
  914900     297.9783   -1544.2262    476.50628    269.04618   -400.00339    36638.639 
  915000    312.18274   -1562.6414    452.75306    290.60058    18.475836    36638.639 
  915100     294.8653   -1531.4097     477.0228    268.41394    299.70343    36638.639 
  915200    304.99358   -1536.3627    491.64835    323.52317    518.32665    36638.639 
  915300    306.20642   -1600.0386     478.9369    252.57678    913.54849    36638.639 
  915400    295.63822   -1549.0513    482.87494    260.09188    585.29187    36638.639 
  915500    296.32212   -1481.6047    480.58021    328.31182    725.43299    36638.639 
  915600    294.34893   -1504.3142    454.57267    270.74288    558.65677    36638.639 
  915700    305.11648   -1523.3141    495.78156    341.25639    564.67239    36638.639 
  915800    296.89016    -1554.204    470.95719    248.63783    603.78737    36638.639 
  915900    296.13189   -1517.6458    490.00882    300.84598    462.45472    36638.639 
  916000    305.09887   -1548.9786     476.6757    296.40698   -159.41119    36638.639 
  916100    302.16886   -1531.9099    482.62285    306.27841   -331.14409    36638.639 
  916200    296.64958   -1523.0165     475.0238    282.81265   -491.00724    36638.639 
  916300    306.31425   -1530.0071    482.43532    326.59042    27.190113    36638.639 
  916400    300.92394   -1539.1734    463.30136    274.10863   -144.17698    36638.639 
  916500    303.39528   -1506.6279    481.03374    335.47318    349.88448    36638.639 
  916600    299.28119   -1515.3411    497.11125    324.38123    25.512879    36638.639 
  916700    311.55601   -1483.5578    478.90057    393.02019   -190.16833    36638.639 
  916800    305.14293   -1445.6304     494.9244    418.20155   -478.59466    36638.639 
  916900    285.85719    -1484.457      497.978    295.91039   -228.98753    36638.639 
  917000    304.69984   -1516.6457    470.11662     320.3907   -247.36312    36638.639 
  917100     293.9264    -1502.721    492.28841    308.15622   -1101.7381    36638.639 
  917200    303.10447    -1479.558    462.90182    343.10653   -694.18782    36638.639 
  917300     304.3818   -1491.9107     498.2407    371.82299    -1059.754    36638.639 
  917400    288.92126   -1446.6108    500.58111     350.1055   -703.35519    36638.639 
  917500    305.79067   -1522.2646    456.41294    305.96171   -71.436638    36638.639 
  917600    305.33638   -1505.4857    506.55883    370.84844   -56.195748    36638.639 
  917700    309.28637   -1507.4339    486.21773    366.27938   -113.50503    36638.639 
  917800    310.67881   -1507.1645    466.51933    353.09698    108.32977    36638.639 
  917900    296.53249   -1484.0572     496.6208    342.84362    268.27465    36638.639 
  918000    289.14378   -1529.6472    474.38892    241.87517   -505.37329    36638.639 
  918100    298.06534   -1484.4501    502.30152    355.00802   -232.06246    36638.639 
  918200    291.60072   -1503.9996    477.67904    281.83503  -0.75108667    36638.639 
  918300    309.44944   -1481.4256     510.8374    417.63885    107.40024    36638.639 
  918400     291.2393   -1497.8305    476.19576    284.89946   -7.2658771    36638.639 
  918500    295.00039   -1470.0428    489.89228    343.25631   -259.05683    36638.639 
  918600    307.83606   -1452.5271      480.702    409.16419   -222.66591    36638.639 
  918700    309.13986   -1520.7004    489.08107    355.21892    22.914912    36638.639 
  918800    301.23073   -1446.8464    489.17281    393.68331    661.77109    36638.639 
  918900    303.70918   -1495.4412    487.84906    354.88342    225.92667    36638.639 
  919000    306.66118   -1525.6848    468.30975    318.34352    533.63954    36638.639 
  919100    301.58529   -1492.7912    484.37674    344.53308    438.84398    36638.639 
  919200    295.79469   -1489.8731    486.89725    323.99436    649.69833    36638.639 
  919300    313.70082   -1506.1112    441.63393    342.82202    536.97982    36638.639 
  919400    296.91328   -1495.7732    487.00925    323.22435    575.87798    36638.639 
  919500    292.42593   -1516.9429    457.96668    252.88135    312.29783    36638.639 
  919600    295.64154   -1555.2959    488.44186    259.42913    505.80511    36638.639 
  919700    314.17707   -1532.3765    462.60889    339.66818    715.96787    36638.639 
  919800    301.53975   -1508.3869    481.89199    326.24829    579.44815    36638.639 
  919900    304.12743   -1514.0498    489.39261    339.69468     680.0543    36638.639 
  920000    303.69818   -1467.5854    471.19935    366.04018    465.11123    36638.639 
  920100    309.71505   -1501.1972    473.20332    361.42475   -331.93654    36638.639 
  920200    294.76307   -1481.4857     469.2861    310.14263   -257.47503    36638.639 
  920300    305.40653   -1494.6545    468.21296    343.64853   -69.461439    36638.639 
  920400    303.59485   -1481.2255    485.33202    366.06919   -366.86227    36638.639 
  920500     297.5711   -1553.1064    471.41023    253.24326   -395.74831    36638.639 
  920600    304.09939   -1540.1417    484.18271    308.26714    689.37989    36638.639 
  920700    300.36281   -1548.5386    478.77942    277.70416    268.88848    36638.639 
  920800    297.94419   -1504.2977    461.42246    293.73789    618.31564    36638.639 
  920900    305.93061   -1508.5928    478.69428     342.5426    237.92531    36638.639 
  921000    302.71203   -1542.8179    458.93843    274.12273    221.37112    36638.639 
  921100    298.21993   -1525.7496    471.12669    283.22727    -79.70623    36638.639 
  921200    292.42492   -1557.4769     494.9555    249.33161   -812.97626    36638.639 
  921300     301.8076   -1516.2322    491.51735    329.23002   -541.92194    36638.639 
  921400    304.62177   -1532.2703    486.31485    320.61404    64.061522    36638.639 
  921500    292.05115   -1521.8509    472.58721    260.91257   -370.45225    36638.639 
  921600    300.10164   -1577.9783    458.50923    226.82265    -36.75642    36638.639 
  921700    292.90934   -1555.8763    472.13101    230.28091    10.502714    36638.639 
  921800    305.94073   -1565.2196    467.24872     274.5157    742.24449    36638.639 
  921900     300.7522   -1514.7894    467.10675    301.52756    421.33242    36638.639 
  922000    298.47697   -1527.9111    479.98115    291.07329    644.62238    36638.639 
  922100    304.43464   -1528.6709    479.71077    316.76996    374.77372    36638.639 
  922200     305.2125   -1535.1576    475.80606    309.86806    -26.64302    36638.639 
  922300    299.77956   -1530.5664    469.16707    283.44747    441.40409    36638.639 
  922400    311.21733   -1538.8224    468.34516    325.68078    541.90511    36638.639 
  922500    288.46913   -1560.9912    479.49759    212.61323   -117.64592    36638.639 
  922600      296.732   -1497.5408    446.01456    279.64893    47.549931    36638.639 
  922700    293.99303   -1488.0866    466.32165    297.12283   -299.71221    36638.639 
  922800    310.44031   -1546.8321    469.76762    315.60772   -68.271629    36638.639 
  922900    300.32888   -1509.7784    462.57122    300.10395    221.19783    36638.639 
  923000    306.67996   -1528.9976    468.25277    315.05801    433.41008    36638.639 
  923100    299.93401   -1526.5434    489.26342    308.25971    634.91277    36638.639 
  923200    290.12826   -1527.9107    463.09227    236.73148    403.20463    36638.639 
  923300    297.61018   -1528.7588    430.17661    236.53252    301.55496    36638.639 
  923400    317.01784    -1521.854    455.83243    356.15822    189.10583    36638.639 
  923500    291.98199   -1534.2715    458.17912    233.77361    88.346847    36638.639 
  923600      294.529   -1514.5684    467.97179    274.69559    364.65256    36638.639 
  923700    305.83727   -1549.2113    459.67833    282.48946    355.49024    36638.639 
  923800    291.60045   -1547.2848    472.73193    233.60148    771.01985    36638.639 
  923900    298.42242   -1533.2677    472.27709    277.76785    516.49764    36638.639 
  924000    311.25689   -1534.0271    456.45908    318.76744    41.937707    36638.639 
  924100    306.44885   -1517.3207    453.14944    310.59476   -450.09055    36638.639 
  924200    296.77701   -1529.3771    455.94058    257.94053   -460.14824    36638.639 
  924300    295.53014   -1526.0726    459.93188    259.64263   -374.49389    36638.639 
  924400    307.89857   -1536.3878    465.38468     310.2665   -183.41414    36638.639 
  924500    300.46734   -1517.9791     458.7244    288.67759    238.23973    36638.639 
  924600    288.87538   -1478.1875    461.65032    279.39214    -314.6287    36638.639 
  924700    304.29869   -1540.8602      439.804    264.06397   -723.17212    36638.639 
  924800    302.71856   -1520.6052     469.1059    306.53225   -276.22142    36638.639 
  924900    292.84665   -1514.9307    470.99938    269.81358   -70.373127    36638.639 
  925000    304.41853   -1521.3065    474.99972    319.35097    25.421455    36638.639 
  925100    307.03223   -1572.6563    461.24543    265.97225    48.588762    36638.639 
  925200    304.20642   -1524.0366    448.01307    288.68276     191.0862    36638.639 
  925300    296.30974   -1519.2317    461.13769    271.18683    806.86419    36638.639 
  925400    296.06264   -1492.1295    489.50002    325.54275    1007.5525    36638.639 
  925500    297.84676   -1482.7958    465.96649     319.3468    470.78219    36638.639 
  925600    304.24293   -1475.8217    444.69006     333.7384    803.33874    36638.639 
  925700    300.77367   -1480.4714    471.62577    340.46085    543.50803    36638.639 
  925800    306.52909    -1447.632    491.26563    418.75964    357.12896    36638.639 
  925900    290.74135   -1426.4724    484.18128    362.00918    311.84807    36638.639 
  926000    289.68421   -1399.3278    462.70463    362.93475   -200.54472    36638.639 
  926100    302.52712   -1438.8196    463.36095    381.71405   -399.66961    36638.639 
  926200    289.90553   -1436.8547    462.40217    326.09822   -427.16792    36638.639 
  926300    296.11934    -1491.358    482.96321    320.03186   -257.11752    36638.639 
  926400    306.81396    -1486.072    470.29132    360.62333     244.3034    36638.639 
  926500     306.1345   -1525.2407    449.46773    297.58285    408.92509    36638.639 
  926600    303.17083   -1481.3327     445.6737    324.40146    394.51997    36638.639 
  926700    295.12671   -1497.2612    470.04154    296.75394   -54.493233    36638.639 
  926800    298.84446    -1470.209    474.47035    344.91316    110.71106    36638.639 
  926900    299.81692   -1525.2517    459.95676     279.7195   -16.228512    36638.639 
  927000     298.7539   -1551.5909    447.77655    236.43125    117.68426    36638.639 
  927100    299.76134   -1557.6751    478.39429    265.48426    299.69256    36638.639 
  927200    305.97799   -1581.5316    443.12855     234.2507    638.16049    36638.639 
  927300    299.66626   -1592.8463    444.91258    196.40486   -149.93502    36638.639 
  927400    298.02722   -1527.3064    451.64528    261.32448   -144.59099    36638.639 
  927500    302.33397   -1519.4311    442.31851    279.19363    152.47312    36638.639 
  927600    299.05576   -1532.2259    469.05708    278.43096    451.34497    36638.639 
  927700    304.63063   -1490.6746    508.54166    384.47633    398.96116    36638.639 
  927800    297.88305   -1494.3249    460.16132    302.17531    725.52533    36638.639 
  927900    294.55247   -1524.2597    435.65934    232.79716   -212.88389    36638.639 
  928000    298.66927   -1520.2179     447.5942    267.24224   -227.48449    36638.639 
  928100    306.82732   -1516.6444    449.14135    308.96092   -59.910878    36638.639 
  928200    293.94141     -1529.11    453.00719    242.55343   -325.60431    36638.639 
  928300    290.94778   -1524.7834    463.43386    243.87691   -133.42515    36638.639 
  928400    295.12227   -1533.4305    445.88229    236.40548   -105.64029    36638.639 
  928500    300.49769   -1484.1952    466.88137    330.75459     51.95379    36638.639 
  928600    289.33816   -1503.4608    484.58418    279.12881   -55.920881    36638.639 
  928700    294.15908    -1509.077    474.36747    284.92314   -163.75059    36638.639 
  928800    294.80175   -1487.0586    476.46965    311.92687    228.45176    36638.639 
  928900    290.98448   -1508.4556    458.32413    255.25957   -409.56022    36638.639 
  929000    298.38499    -1495.327    477.48482     320.7484   -141.57833    36638.639 
  929100     305.3732   -1518.7518    456.84277    308.03158    57.245814    36638.639 
  929200    300.58199   -1530.4969    483.81193     301.7616   -4.2538705    36638.639 
  929300    307.42462   -1531.6756    450.46422    297.93209   -320.19219    36638.639 
  929400    305.76572   -1501.7473    459.17289    329.12703   -407.15252    36638.639 
  929500    301.14751   -1488.6445    430.20974    292.54882   -1485.7889    36638.639 
  929600    302.83002   -1492.0431    475.25432    341.74275   -618.44431    36638.639 
  929700    297.03653   -1493.3413    457.32486    296.52479   -256.04955    36638.639 
  929800    303.15247   -1537.0342    463.41539    286.35929    11.463728    36638.639 
  929900    303.34341   -1455.9681    483.74832    388.61492    552.17145    36638.639 
  930000    298.57661   -1507.4473    474.00775    306.01073    300.02082    36638.639 
  930100     300.2578   -1471.7363     473.0373    348.29325    1125.8143    36638.639 
  930200    292.88748   -1467.0678    462.28569    309.14599   -304.82261    36638.639 
  930300    302.68006   -1487.5628    471.26593    341.56198    840.10737    36638.639 
  930400    310.01945   -1507.0209    467.08136     350.8446   -32.497727    36638.639 
  930500    306.91607    -1469.107    457.62445    365.37947    96.812124    36638.639 
  930600    292.72534   -1465.2176    473.63281    321.61594    97.052165    36638.639 
  930700     298.2652   -1474.3762    479.64599    343.32305    459.00442    36638.639 
  930800    301.93608   -1475.0791    464.41274    343.85485    290.62743    36638.639 
  930900    305.95572   -1523.2182      483.465    332.80065    185.95579    36638.639 
  931000    307.41686   -1502.9822    469.51001    345.63646   -127.62076    36638.639 
  931100    313.23503   -1480.0014    457.47333    382.68154    367.38808    36638.639 
  931200    294.60874   -1507.3329    464.13632    278.45334   -206.41477    36638.639 
  931300     305.2326   -1510.8379    459.71161    318.18356   -49.187467    36638.639 
  931400    302.25943   -1487.0653    467.08149    335.98801   -145.01239    36638.639 
  931500    301.38737   -1518.6164    460.16693    293.61024   -374.84215    36638.639 
  931600    292.01345   -1502.8915    466.46691    273.58252   -342.14052    36638.639 
  931700    289.03116    -1477.227    487.10673     306.5079   -625.48131    36638.639 
  931800    304.57612   -1483.6093    495.67587    378.43134   -419.03753    36638.639 
  931900    294.36202   -1477.6571    481.95844    324.84447   -160.22861    36638.639 
  932000    309.62365   -1486.9365    474.85216    376.92423    68.399061    36638.639 
  932100    289.64676   -1489.4181    436.57337    246.54512    505.86766    36638.639 
  932200    288.42532   -1470.8777    492.09908    315.13171    262.10266    36638.639 
  932300    299.75533   -1473.6415    481.08458    352.18124    591.15383    36638.639 
  932400    308.21402   -1530.2477    479.01312    331.45024   -363.77759    36638.639 
  932500     292.3807   -1529.2119     470.5741    253.01683    114.19592    36638.639 
  932600    309.27202   -1525.5542    458.45617    320.33312     44.53923    36638.639 
  932700    293.32129   -1526.3014    461.61877    251.19158   -432.84616    36638.639 
  932800    300.82589   -1505.3273    453.88166    298.09514   -506.47616    36638.639 
  932900    295.48212   -1479.0806    472.40192    318.88938   -461.58731    36638.639 
  933000    307.22731   -1454.0714    458.31246    382.49936   -746.80498    36638.639 
  933100    299.45773   -1463.3089    482.59732    362.69151   -540.87011    36638.639 
  933200    303.42556   -1473.4162     494.5186    382.30564   -121.06216    36638.639 
  933300    302.40273   -1498.8313    444.31242    302.09578   -5.2779429    36638.639 
  933400    294.73834   -1491.2309    475.75663    306.75702    176.36262    36638.639 
  933500    301.63938   -1482.5295    506.71007     377.3708   -209.45766    36638.639 
  933600    286.79682   -1509.9536    449.39032     226.0414   -1205.3091    36638.639 
  933700    294.64931   -1472.0227    456.76409    306.57329   -1015.6194    36638.639 
  933800    310.66856   -1481.2001    464.34123    376.83735   -370.44339    36638.639 
  933900    305.36313   -1459.2956    460.70427     371.3041    216.20358    36638.639 
  934000    291.27497   -1528.5848     483.9146    262.02399   -83.319743    36638.639 
  934100    299.55889   -1499.5424    449.38956    293.70398   -337.50588    36638.639 
  934200    309.30928   -1493.4044    464.65564    358.84954    752.48222    36638.639 
  934300    293.20299   -1519.6044    478.24809     273.9872      920.758    36638.639 
  934400    304.72884   -1493.4736    493.02304    366.59932    653.03743    36638.639 
  934500    305.44604   -1475.9136    476.71907    371.07285    412.65402    36638.639 
  934600    308.78619   -1495.7465    446.14863    335.65374    207.05288    36638.639 
  934700      311.096   -1509.4402    498.78869    384.96217    471.20205    36638.639 
  934800     303.4156   -1557.7492    476.08936    279.49869   -11.209617    36638.639 
  934900    297.32219   -1462.1319    465.22954    336.92038    300.42812    36638.639 
  935000    289.00271   -1470.0238    452.12709    278.60385   -149.11241    36638.639 
  935100    302.39359   -1552.4915     473.8771    277.95924    121.95829    36638.639 
  935200    302.87724   -1512.4339    466.44507    312.75459    178.78026    36638.639 
  935300    301.79251   -1476.7159    477.39055    354.55179    163.77901    36638.639 
  935400    299.67326   -1470.5781    471.35086    345.14273    271.44175    36638.639 
  935500    306.56984   -1510.2141    456.09979    321.19451    602.64617    36638.639 
  935600    301.32024   -1500.4593    476.40563    327.70487    972.26036    36638.639 
  935700    301.85676   -1510.9787     494.4061     337.5928    962.82076    36638.639 
  935800    305.46458   -1527.6221    444.41172    287.14004    1188.1717    36638.639 
  935900    301.11221   -1492.3535    502.15582    360.62755    595.20088    36638.639 
  936000    319.46127   -1531.1646    471.39667    373.37344    871.13358    36638.639 
  936100    297.29661   -1517.8803     470.5192    286.34693    391.27823    36638.639 
  936200    306.46988   -1528.3818    469.44448     315.9231    -140.0977    36638.639 
  936300    292.76872   -1502.6715    485.57071    296.29456    151.30895    36638.639 
  936400     295.0288   -1467.0002    480.63104    337.16522   -98.469274    36638.639 
  936500    302.39327   -1507.4965    469.25707    318.33281    328.25095    36638.639 
  936600    288.08699   -1562.9268    467.41544     196.8812    163.57674    36638.639 
  936700    300.03255   -1532.5299    480.15522    293.60709    647.04091    36638.639 
  936800     290.1669   -1520.9612    458.99456    239.75664    213.72713    36638.639 
  936900    291.13634   -1513.9134    476.20868    268.36757    261.85336    36638.639 
  937000    289.98583   -1519.2224     479.1294    260.81798     303.1875    36638.639 
  937100    292.28596    -1492.191    474.96396    294.00257    72.321929    36638.639 
  937200    289.48037   -1485.1977    466.62321    280.06898    31.335511    36638.639 
  937300    311.53011   -1519.6792    483.94841    361.83038    664.91761    36638.639 
  937400    295.96165     -1511.97    501.51871    317.26787    604.25984    36638.639 
  937500      293.018    -1538.982    469.34802    244.87968    634.76981    36638.639 
  937600    294.18932   -1519.4576    484.79415    285.10488     621.2688    36638.639 
  937700    302.16387   -1511.4335    493.80534    337.91496   -82.874539    36638.639 
  937800     295.5619   -1505.9548    475.20107    295.17217    111.78627    36638.639 
  937900    294.86014   -1502.6513    492.07587    312.20232  -0.94049367    36638.639 
  938000    288.64429   -1486.7524    491.37065    299.51093   -745.58298    36638.639 
  938100    299.63514   -1448.3303    480.86388    376.73255    118.89973    36638.639 
  938200    292.45322   -1487.5114       475.77    300.23856    40.852608    36638.639 
  938300    298.10212   -1524.7413    502.77635    315.35667    16.026534    36638.639 
  938400    299.20236   -1482.1404    463.29582    323.41292   -158.39224    36638.639 
  938500    299.11816   -1499.0257    466.28135    309.13538   -163.91516    36638.639 
  938600    304.35644   -1518.5469    466.41222     313.2446    652.73356    36638.639 
  938700    297.68096   -1490.3237    456.63519    301.74374    253.06245    36638.639 
  938800    294.97947   -1504.5843    494.23742    312.96614   -472.90822    36638.639 
  938900    300.55923   -1509.5686    466.05962     304.8355   -200.53676    36638.639 
  939000    293.12855   -1543.0548    456.90556    228.86033   -124.90959    36638.639 
  939100     299.9949   -1529.6578    511.24755    327.40263    379.62396    36638.639 
  939200    298.69148   -1533.1383    447.96884    254.79608    706.97607    36638.639 
  939300    304.52597   -1489.1081     489.5744    366.60604    692.59352    36638.639 
  939400    289.72223   -1550.8984     485.1758    234.00587    460.87368    36638.639 
  939500    308.21115   -1529.1553    466.84029    320.35693    235.09773    36638.639 
  939600    299.99886   -1509.9433    472.05279    307.94017    299.84916    36638.639 
  939700    296.11024   -1540.4326    478.02192    265.97511    51.080931    36638.639 
  939800    296.20343   -1552.2582    465.98235    242.52802   -909.38564    36638.639 
  939900    287.35954   -1572.4343    467.35859    184.05348   -791.76061    36638.639 
  940000    304.12067   -1497.4103    468.89203    335.80328   -245.47029    36638.639 
  940100    289.49908   -1526.5132    433.39791    205.61206   -551.90641    36638.639 
  940200    301.55681   -1472.8033     473.7832    353.79965   -130.60145    36638.639 
  940300    278.68865   -1516.0661    454.31811     188.4825   -885.62205    36638.639 
  940400    288.95682   -1469.8938     480.3348     306.7357    -407.0274    36638.639 
  940500    292.50548   -1515.6298    483.31893    279.90358   -111.56767    36638.639 
  940600    289.73408    -1497.172    493.90676    296.51638    57.370239    36638.639 
  940700    306.93782   -1568.9534     479.1731    287.17935   -118.93557    36638.639 
  940800    305.41833    -1552.672     454.2645    271.73555   -200.81715    36638.639 
  940900    293.29538   -1513.8841     462.4884    264.36227    246.14031    36638.639 
  941000    301.72313   -1534.7142     467.4968    286.34852    17.531055    36638.639 
  941100    298.72298   -1560.1145     479.4017    259.39407   -61.981048    36638.639 
  941200    300.85684   -1532.8466    473.78812    290.62116   -186.93968    36638.639 
  941300    300.81031   -1524.1444    477.31196    302.63844   -20.905931    36638.639 
  941400     295.9298   -1505.1202    480.85501    303.31113     783.2271    36638.639 
  941500    296.15589   -1501.8399    476.05236    302.80308    744.75689    36638.639 
  941600    306.19333   -1497.4467     468.7083    344.88133     955.3947    36638.639 
  941700     294.4535   -1482.2408    506.36189    345.07454    113.31255    36638.639 
  941800     288.6112   -1491.6161    464.11133    267.23943   -314.26948    36638.639 
  941900    309.90574   -1496.1536    456.81933    350.93984   -365.07148    36638.639 
  942000    305.19826   -1504.1975    485.73403    350.69228    -408.9312    36638.639 
  942100    300.16822    -1551.966    488.81908    283.44347   -297.25041    36638.639 
  942200    301.67375   -1526.8273    473.50586    300.02299     530.5911    36638.639 
  942300    293.48986   -1524.1474    464.92993    257.41297    617.52019    36638.639 
  942400    292.98895    -1553.273     472.6574    233.76779    310.32176    36638.639 
  942500    300.91326   -1552.3388    466.23427    263.82818    495.94152    36638.639 
  942600    302.03832      -1539.3    458.96796    274.64784    491.53655    36638.639 
  942700    292.24936   -1516.8354    464.01526    258.24524    304.28088    36638.639 
  942800    293.18451   -1490.2352    482.51775    307.54316   -13.240688    36638.639 
  942900    301.35369   -1515.2568    459.85216    296.50389   -67.941931    36638.639 
  943000    308.83366   -1542.5205    474.78807    317.73215    67.391745    36638.639 
  943100    307.10577    -1516.037    473.68276    335.35886   -63.903619    36638.639 
  943200    298.75384    -1539.589    460.69658    261.35294    287.05892    36638.639 
  943300    299.14928   -1549.9312    466.89308     258.9812    -270.9041    36638.639 
  943400    300.69859   -1519.3987     471.4668    301.03775    10.605251    36638.639 
  943500    309.28998   -1496.0704     477.7996    369.24091    541.55625    36638.639 
  943600     301.5414   -1492.9061    476.42803    336.27254   -29.888047    36638.639 
  943700    297.09689   -1478.9357    484.97747    338.85383    905.83876    36638.639 
  943800    299.31758   -1494.7068    454.01682    302.08431    614.22024    36638.639 
  943900    298.17578   -1460.8063    490.00685    366.85258    1130.2663    36638.639 
  944000    303.56345   -1488.0294    471.74984    345.54229    835.39169    36638.639 
  944100    305.80837    -1444.693    452.78518    379.98495    965.99145    36638.639 
  944200     304.7733   -1478.1634    492.92775     382.0137    686.49872    36638.639 
  944300     287.9472   -1480.3792    463.03113    274.41739   -88.755557    36638.639 
  944400    300.24502   -1457.6459    475.15096    364.43996    75.857148    36638.639 
  944500    296.28821   -1440.8506    483.40398    371.73753   -202.71761    36638.639 
  944600    299.19312   -1438.3716    497.63688     401.4812   -389.07347    36638.639 
  944700    311.66466   -1475.8223    450.30816     372.6506  -0.95778167    36638.639 
  944800    294.45741   -1517.6958    463.15197    266.42719   -523.27886    36638.639 
  944900    304.39842   -1480.0953     474.9006    360.37286    44.031014    36638.639 
  945000    283.46574   -1450.1181    452.65209    274.19513    -718.6566    36638.639 
  945100    302.90244   -1507.3172    489.84644    341.38572    80.832805    36638.639 
  945200     295.4679   -1492.1015    464.86195    298.26463    404.38745    36638.639 
  945300    309.07283   -1469.5705    481.89462    398.86167    581.76769    36638.639 
  945400    302.34646   -1512.2985    461.21755    305.28127    161.30677    36638.639 
  945500    305.39832   -1481.4376    482.01187    370.62755    269.50005    36638.639 
  945600    299.25277   -1460.9935    510.07598    391.56608    70.835002    36638.639 
  945700    300.84759    -1498.003    450.02893    301.66401   -70.244063    36638.639 
  945800    302.31707   -1491.6208    467.28896    331.89854    -27.94406    36638.639 
  945900    310.70069   -1483.8022    491.48377    401.52188    214.74036    36638.639 
  946000    304.02538   -1497.0846    477.88798    344.69744   -6.5370635    36638.639 
  946100    304.07367   -1502.5559    458.37445    319.92928   -125.47572    36638.639 
  946200    301.31753   -1517.7615    469.62534     303.6102   -639.94257    36638.639 
  946300    299.74064    -1484.819    464.45907     324.3123   -562.61066    36638.639 
  946400    306.44153   -1470.9657     474.8307    378.59827   -30.558171    36638.639 
  946500     290.6985   -1524.6646    477.72944    257.17294   -311.21367    36638.639 
  946600    303.11148   -1513.7435    473.22071    319.27141    857.26767    36638.639 
  946700    298.75761   -1533.8066      486.471    292.92663   -88.700999    36638.639 
  946800    289.25156   -1520.1673    465.68522     243.1349   -273.95662    36638.639 
  946900    295.55227   -1505.9859    459.27622    279.17297    469.92956    36638.639 
  947000     307.7536   -1541.4311    441.71686    280.90507    363.58576    36638.639 
  947100    305.37973   -1533.6591    455.30884    291.61958    54.814459    36638.639 
  947200    307.79689   -1497.4857    445.97633    329.30411   -97.784458    36638.639 
  947300    302.04214   -1510.4199    456.43662    301.01373   -457.57856    36638.639 
  947400    307.88573   -1499.1179    462.07002    344.16415    62.055083    36638.639 
  947500    295.24285   -1522.4854    454.15537     256.1646    594.69527    36638.639 
  947600    299.08943   -1518.4589    470.90078    294.19272    571.31164    36638.639 
  947700    293.74255   -1507.5803    489.01407    299.19783     640.0637    36638.639 
  947800    301.49106   -1500.3976    473.86582    325.99307      561.065    36638.639 
  947900    294.82572   -1509.3405    484.59464    297.87749   -79.064937    36638.639 
  948000    308.49016   -1507.1314    476.64234    353.43451    196.70455    36638.639 
  948100    298.26495   -1530.0051    481.65951    289.70656   -14.914424    36638.639 
  948200    301.60752    -1509.688     468.3658    311.72504   -383.07487    36638.639 
  948300    302.25594   -1505.5794    435.78284    286.15962   -608.54098    36638.639 
  948400     300.8071   -1513.0805    462.54749    298.92349   -360.17804    36638.639 
  948500    294.04069   -1490.4963    452.45929    281.06452   -469.95786    36638.639 
  948600    308.96226   -1469.4441    467.84052    384.43788   -330.52059    36638.639 
  948700    295.99505   -1472.2968    477.68663    333.25887    163.89668    36638.639 
  948800    306.49075   -1480.8276    469.80883    363.93524    497.12913    36638.639 
  948900    295.06768   -1500.0173    451.12913    274.82061    28.739804    36638.639 
  949000    306.92919   -1468.8025    442.42863    350.54704   -634.71358    36638.639 
  949100    294.84833   -1504.5985    459.36082    277.48707   -387.06276    36638.639 
  949200    299.73612   -1495.3705    469.03407    318.31556    137.33594    36638.639 
  949300    307.99927   -1481.9835    489.93351    389.67142    67.462171    36638.639 
  949400    306.54514   -1465.7889    464.36562     373.7747    224.00406    36638.639 
  949500    311.69131   -1468.5507    456.02718     385.7608    1033.1758    36638.639 
  949600    294.66594   -1500.6557    505.00668    326.25748    639.74635    36638.639 
  949700    292.62298   -1470.4838    472.52451    314.78227    854.48383    36638.639 
  949800    304.16308   -1413.1264    469.91845    421.30385    1221.0532    36638.639 
  949900    293.40324   -1463.5645    499.06885    351.74625    75.272314    36638.639 
  950000    307.30545   -1493.6149    470.73401    355.72796    363.73309    36638.639 
  950100    297.30188   -1500.8572    488.57695    321.45136     250.6327    36638.639 
  950200    309.47498    -1502.006    480.77974     367.1154    531.51403    36638.639 
  950300    305.34366   -1461.7934    454.61325    362.62786    -100.5858    36638.639 
  950400    304.99013    -1486.502    456.71671    338.43672    -556.2487    36638.639 
  950500    302.76123   -1475.0619     495.4104    378.57146   -155.54339    36638.639 
  950600    291.31492   -1529.7125    451.86512      229.026    -909.6845    36638.639 
  950700    310.74214   -1493.1411    461.90412    362.78933   -499.26909    36638.639 
  950800     296.7809   -1490.5931     480.1914    320.99281   -314.52538    36638.639 
  950900    304.70326   -1492.2657    493.43676    368.10622    379.62798    36638.639 
  951000    314.69878   -1538.8653    467.06327    339.97422    209.66667    36638.639 
  951100    307.43232    -1559.677    463.36665    282.86764    55.655182    36638.639 
  951200     294.4892   -1548.3158    481.96264    254.76047   -88.097694    36638.639 
  951300    305.62675   -1530.7344    473.66263    314.00621    162.97033    36638.639 
  951400    303.98155    -1532.672    485.90008     316.9255    -378.7299    36638.639 
  951500    294.34348   -1524.3717    458.45463     254.5428   -206.70436    36638.639 
  951600    295.31189   -1508.0445    478.39222    295.15203   -463.23186    36638.639 
  951700    304.34475   -1485.0271    471.38118    351.68082   -127.42096    36638.639 
  951800    294.13315   -1481.8409    478.90363    316.57905    492.19998    36638.639 
  951900    298.88048   -1479.9081    484.15911    345.06447    168.98317    36638.639 
  952000     290.9832   -1485.1803    485.26526    305.47027   -122.39125    36638.639 
  952100    297.10693   -1472.9763    473.83532     333.7161    378.89132    36638.639 
  952200    291.81235   -1525.9031    471.91333    255.11517    391.84256    36638.639 
  952300    306.06055   -1507.9443    479.24582    344.32564    581.21031    36638.639 
  952400    295.60995   -1510.9483    469.66979    284.86294    724.39242    36638.639 
  952500    288.97821   -1503.2947    454.11436    247.21035    175.55678    36638.639 
  952600    302.05304   -1521.6762    482.86862    316.23829    21.694354    36638.639 
  952700    311.68194   -1512.1357    456.78697    342.89355    18.915173    36638.639 
  952800    289.38616   -1534.1194    486.67665    250.77804    20.578105    36638.639 
  952900    296.86844     -1545.42    488.32184    274.68905   -209.66211    36638.639 
  953000    291.48555   -1507.9749    450.51214    250.17612   -694.13609    36638.639 
  953100    299.57843   -1513.4559      478.867    309.35559   -247.07326    36638.639 
  953200    304.71328   -1503.3717    442.84789    306.45626    389.81101    36638.639 
  953300    292.63143   -1531.4969    483.74633    265.02891   -159.78483    36638.639 
  953400    306.01442   -1502.0805    485.73437    356.47106    138.56181    36638.639 
  953500    300.59734   -1470.7247    457.41366    335.20442   -308.77891    36638.639 
  953600    292.64529   -1481.4549    497.99258    329.37932   -819.13391    36638.639 
  953700    301.55802   -1467.1531    464.90024    350.57237   -956.51286    36638.639 
  953800    303.00898   -1461.0366    498.68298    396.98075   -368.21897    36638.639 
  953900    292.98557   -1477.7973    487.90427    324.47511   -50.656958    36638.639 
  954000    303.87946   -1534.4702    489.32814    318.09734    21.940623    36638.639 
  954100    302.30976   -1536.7893    462.43118    281.83953    142.71441    36638.639 
  954200    312.30413    -1559.215    476.66047    318.47904    177.72846    36638.639 
  954300    295.53323    -1561.267    448.25753    212.78783   -310.46646    36638.639 
  954400    300.41106   -1528.9006    483.42693    302.20608   -181.72461    36638.639 
  954500    298.98017   -1565.8568     455.0726    230.47646   -511.05171    36638.639 
  954600    296.59094   -1528.3703    504.16334    306.33534   -210.48585    36638.639 
  954700    292.85309   -1522.3032    473.31472    264.78535     80.05384    36638.639 
  954800    301.27656   -1499.4185    482.61093    334.75494    72.889482    36638.639 
  954900    296.95557   -1492.8611    485.70873    325.02573   -386.15613    36638.639 
  955000    301.80755   -1547.4655    469.49854    275.97768   -275.73867    36638.639 
  955100    310.63617   -1513.9737      466.803    346.38017    199.32889    36638.639 
  955200    296.46777   -1488.8334    482.57701    323.73334     59.73248    36638.639 
  955300    301.17406   -1469.4078    491.93942     373.6343   -329.86692    36638.639 
  955400     309.6094   -1495.6433    481.76291    375.06427   -45.740843    36638.639 
  955500    306.57407   -1492.1746    463.86261    347.01578     195.0921    36638.639 
  955600    303.42914   -1443.7764    505.99847    423.44132   -317.78015    36638.639 
  955700    300.67162   -1480.8621    476.13184    344.11846    2.5921817    36638.639 
  955800    299.84584   -1488.5589    474.59616    331.18141   -233.20717    36638.639 
  955900    303.57854   -1502.0771    459.16457    318.97693   -990.91135    36638.639 
  956000    302.80653   -1458.6496    484.36328    384.13987    -1341.213    36638.639 
  956100    306.69536   -1487.9442    472.88851     360.8162   -631.28578    36638.639 
  956200    293.20714   -1495.2327    464.21764     284.3471   -243.50401    36638.639 
  956300    307.44526   -1526.9621    464.92992    317.20387   -224.08844    36638.639 
  956400    304.96483   -1516.9591    484.47856    335.62805    255.82228    36638.639 
  956500    295.31787   -1499.7507    479.74654    304.82704      190.373    36638.639 
  956600     294.3667    -1509.273    466.32376    277.61482    308.23305    36638.639 
  956700     301.7569   -1518.7982    478.58306    313.50221   -145.63707    36638.639 
  956800    300.91917   -1478.2547    493.14758    364.85205   -250.47212    36638.639 
  956900    298.28357   -1502.1688    466.40738    302.37421    855.06565    36638.639 
  957000    297.59128   -1541.8758    472.71422    265.86839    764.57159    36638.639 
  957100    299.55169   -1557.6992    454.25265      240.378    910.27634    36638.639 
  957200    307.00355   -1521.3478     463.9653      319.872    979.76068    36638.639 
  957300    294.85258   -1581.7189    456.76504       197.79    1037.3281    36638.639 
  957400    302.46951   -1555.3314    466.12341    267.70623    827.49356    36638.639 
  957500    311.21275   -1490.1753     472.0753    378.03747    1128.3634    36638.639 
  957600    289.40197   -1498.2133    463.93591     264.0143    902.09151    36638.639 
  957700    297.92784   -1497.0509    475.34102    314.82988    605.74617    36638.639 
  957800    309.24386   -1495.2566    489.62219    381.67033    299.15887    36638.639 
  957900     297.4926   -1527.1858    444.70888    252.11035    -3.524476    36638.639 
  958000    303.34956   -1489.8475    478.48147    349.49623    53.757101    36638.639 
  958100    300.14189   -1477.2383    467.43179    336.66575    94.931971    36638.639 
  958200    293.06137   -1473.9386    469.51031    310.27987   -617.42442    36638.639 
  958300    307.53025   -1480.3994    463.97774    363.19565   -593.72108    36638.639 
  958400    299.85014   -1545.9537    457.02103    256.23076   -953.09382    36638.639 
  958500     300.1334   -1576.5588    469.07447     238.9498   -631.71259    36638.639 
  958600    321.45754   -1564.0336    429.04561    307.10887   -161.26876    36638.639 
  958700    295.15717   -1545.6968    459.78696    238.20042   -198.08654    36638.639 
  958800    292.29047    -1512.582    488.56644    287.23434   -200.67894    36638.639 
  958900     308.2217   -1488.5219    473.03908    367.23644    70.200212    36638.639 
  959000    303.53137   -1493.8359    466.65846    334.50046    386.32559    36638.639 
  959100    297.50708   -1499.2504    466.51662    301.91844    663.58093    36638.639 
  959200    295.96349   -1548.0993    454.27183    233.89998   -145.14292    36638.639 
  959300    296.88992   -1525.6754    463.67839     269.8866   -68.505577    36638.639 
  959400    292.37406    -1473.064     476.2183    314.77922    170.48518    36638.639 
  959500    302.82816   -1523.3272     463.2916    298.48759    382.85855    36638.639 
  959600    294.57535    -1525.241    466.53286    262.79196    196.99416    36638.639 
  959700    302.97146   -1493.6318    480.72413     346.2584    604.57746    36638.639 
  959800    305.82815   -1470.8331    489.26738    390.41582    501.53191    36638.639 
  959900    293.45005   -1491.3942    482.73642    307.79416    474.26004    36638.639 
  960000    293.59024   -1464.4555    494.70126     347.3265    398.97013    36638.639 
  960100     296.8325    -1537.035    472.80788    267.39882    395.87035    36638.639 
  960200    304.89958   -1522.2336    495.65523    341.23751   -23.673295    36638.639 
  960300    305.37412   -1545.4028    476.78711    301.32896    23.770452    36638.639 
  960400    301.14878   -1518.2444    453.75446     286.4994   -167.27581    36638.639 
  960500    290.62586   -1565.3188    477.16548    215.62886    102.24026    36638.639 
  960600     304.2916    -1574.361     474.9706    265.69794    163.50052    36638.639 
  960700    299.44885   -1559.7604    469.61133    253.21413    199.37686    36638.639 
  960800    301.41672   -1542.5381    500.93475    310.58802    387.37237    36638.639 
  960900    306.23185   -1495.6683    490.02064    368.14493   -95.533211    36638.639 
  961000      297.383   -1490.8649    484.06842    327.29905    205.86402    36638.639 
  961100    303.82855   -1490.6736    468.93476    341.27228   -420.91561    36638.639 
  961200     305.5694   -1493.0615    470.41728    348.17648   -570.67814    36638.639 
  961300     298.9736   -1496.3934    443.47451    288.31224   -688.10555    36638.639 
  961400    301.09286    -1523.811    474.07913    301.00657   -481.32498    36638.639 
  961500    307.93258   -1538.8374    456.09035    298.67519   -906.47364    36638.639 
  961600    306.54945   -1513.7901    469.93694    331.36417   -78.886423    36638.639 
  961700    294.40897   -1526.6955    457.01538    251.07358    -710.1048    36638.639 
  961800    302.87191   -1508.1597    459.82215    310.38191   -397.20559    36638.639 
  961900    294.03106   -1492.2361     489.4474    316.26969   -574.84972    36638.639 
  962000    309.15698   -1499.4166     457.5602     345.0586   -419.65146    36638.639 
  962100    304.08815   -1514.6761    456.14285     305.6424    -111.2451    36638.639 
  962200    296.90154   -1522.1492    475.51975     285.3062   -791.34498    36638.639 
  962300    299.89604   -1519.9405    462.36898    287.79781    -636.7303    36638.639 
  962400     296.5059   -1495.9783    461.44714    295.62961   -215.92913    36638.639 
  962500     299.3163   -1508.7714    503.56112    337.55832     16.02138    36638.639 
  962600    299.35909   -1508.9862    490.83512    324.80949   -267.82902    36638.639 
  962700    294.65348   -1505.1494    464.66643    281.36764   -367.00442    36638.639 
  962800    304.23622   -1496.4081    466.68395    335.11579   -1.8535637    36638.639 
  962900    291.98616   -1520.7328    497.86923    287.02116    140.34866    36638.639 
  963000    306.27571   -1520.7352    481.57606    334.83019    309.86157    36638.639 
  963100    289.78282   -1532.1348    457.93941    225.80492   -230.38353    36638.639 
  963200    291.20506   -1497.4992    461.96185    270.84323   -270.62319    36638.639 
  963300    302.44304   -1494.6294    496.69572     358.8618   -102.85539    36638.639 
  963400    306.18696   -1476.2169     488.5406    385.91484   -69.587014    36638.639 
  963500    290.79433   -1517.9274    481.17085    267.78144    335.71898    36638.639 
  963600    307.40854   -1491.7671    472.30107    359.60529    420.04964    36638.639 
  963700    290.74841   -1473.7733     479.7785    310.33714    216.33546    36638.639 
  963800    300.58167   -1464.7331    493.01966    376.73168    334.78197    36638.639 
  963900    293.02735   -1479.9965    465.69983    300.25888    61.969081    36638.639 
  964000    302.76227   -1505.8985    492.14227    344.47138    446.27202    36638.639 
  964100     310.6179   -1485.9982    488.32788     395.7986    323.44243    36638.639 
  964200    310.22077   -1454.1444    474.21269     411.7556    460.38254    36638.639 
  964300     298.9321   -1490.0214    480.00956    331.03315    180.98894    36638.639 
  964400    296.72293   -1503.4187    469.04775    296.76349     99.30386    36638.639 
  964500     303.7883   -1519.4839     458.4297    301.77625    12.016865    36638.639 
  964600    304.55015    -1502.637    500.32325    363.93447    223.66829    36638.639 
  964700    304.67106   -1506.6486    480.56724    340.70931   -67.244918    36638.639 
  964800    308.16563   -1493.0131    448.34797    337.80255   -937.11041    36638.639 
  964900     306.4736   -1499.7877    476.15874    351.24814   -1039.7352    36638.639 
  965000    312.44122   -1479.3491    467.39188    389.69137   -538.96615    36638.639 
  965100    296.01604   -1498.4135    468.38959    297.93927    14.020436    36638.639 
  965200    308.32474   -1519.0495    478.50241    342.63441   -165.95386    36638.639 
  965300    299.37095   -1494.8133    494.88646    343.08687   -95.486139    36638.639 
  965400    278.59822   -1530.8156    461.35681      180.366   -398.06399    36638.639 
  965500    298.79682   -1502.5419    488.80225    326.69849   -237.43317    36638.639 
  965600    300.96985   -1512.1601    468.80767    306.83418    472.49909    36638.639 
  965700    296.16096   -1512.7962    478.67363    294.49079    343.56696    36638.639 
  965800    288.99405   -1501.1105    486.93125     282.2825    231.63622    36638.639 
  965900    305.07495   -1500.6236    463.76615     331.7451    458.27926    36638.639 
  966000    303.37815   -1519.7529    509.96245    351.20014    261.13502    36638.639 
  966100    305.34185   -1548.4063    485.66347    307.05701     379.2753    36638.639 
  966200    296.62706   -1523.9672     452.8891     259.6262   -254.89174    36638.639 
  966300    295.94034   -1553.3116    494.48135    268.79336    256.62208    36638.639 
  966400    301.95902   -1503.5894    459.66491    310.69965   -415.34671    36638.639 
  966500    292.58639   -1516.1448    467.05769    263.49025   -385.27578    36638.639 
  966600     289.6659   -1536.9274    471.78574    234.33402   -219.50822    36638.639 
  966700    306.16168   -1537.8171    475.87767    311.53832    250.83205    36638.639 
  966800    302.40388    -1506.009    475.61953    326.23032    334.55056    36638.639 
  966900    291.52658   -1481.6948    466.98598    293.11415    296.33751    36638.639 
  967000    303.20686    -1481.725    489.79426    368.29134    378.14331    36638.639 
  967100    308.62043   -1473.3186    471.44988     382.6393    227.79564    36638.639 
  967200    297.71304   -1503.8546    457.86628    289.58787    50.625149    36638.639 
  967300    304.66221   -1536.5914    460.09338    290.25292   -137.38007    36638.639 
  967400    302.11904   -1479.0814    488.68365    364.94425    -566.8576    36638.639 
  967500    289.79167   -1479.8989    464.47776    284.61882   -244.77309    36638.639 
  967600    300.99188   -1485.9392    491.47421    355.82042    86.979618    36638.639 
  967700    307.74135   -1492.3325    486.08912    374.32095   -192.20775    36638.639 
  967800    292.89173   -1475.1703    455.91016    294.68703   -496.55175    36638.639 
  967900    307.81598   -1516.6169     473.9096    338.19188   -74.935553    36638.639 
  968000    306.99579   -1474.9247    460.66105    362.95601   -242.38948    36638.639 
  968100    296.28235   -1490.7906    499.29301    337.66033   -212.36251    36638.639 
  968200     297.4543    -1484.073     478.1504    328.49283     15.61879    36638.639 
  968300    303.81148   -1508.5671    507.29257    361.65993    20.658555    36638.639 
  968400    311.81788   -1502.4137    485.84586    382.28436    53.953934    36638.639 
  968500    297.38336     -1542.81    477.76008    269.04721   -166.62156    36638.639 
  968600    296.18957   -1502.0587    473.98046     300.6635    -167.3065    36638.639 
  968700    298.57613   -1490.6849    481.57647    330.33967   -353.06107    36638.639 
  968800    304.13437   -1452.0359    508.60087    420.94801    -330.2132    36638.639 
  968900    297.77716   -1511.4324    474.64612    299.07755   -559.92624    36638.639 
  969000    299.06677    -1545.618    476.75419    272.78539    -389.4159    36638.639 
  969100    292.68461   -1478.9484    493.42735    327.49694   -643.31574    36638.639 
  969200    304.64611   -1487.1037    480.72564    360.30068    -56.28601    36638.639 
  969300    300.28889    -1497.744    490.57943     339.9672   -225.08247    36638.639 
  969400    290.07218   -1518.5245    499.85638    282.63022  -0.84441929    36638.639 
  969500    306.63496    -1476.902    478.17537    376.87436   -85.808541    36638.639 
  969600     300.2866   -1535.8822    486.16433    297.40353    290.47356    36638.639 
  969700    307.63743   -1497.2896    504.73501    387.54354     502.1762    36638.639 
  969800     291.7787   -1563.5108     474.9886    220.43184    154.10989    36638.639 
  969900    298.96231   -1485.5403    485.76112    341.40131    338.51062    36638.639 
  970000    297.03874   -1462.8554    501.33985    371.03558   -39.839518    36638.639 
  970100    299.30959   -1466.6978    481.02676    357.06742   -550.62184    36638.639 
  970200    290.68574   -1528.6213      478.328    253.75757    117.42601    36638.639 
  970300    302.70958    -1478.293    471.76065    351.45887   -24.656817    36638.639 
  970400     302.8686   -1505.3835    501.57642    354.89756   -537.57577    36638.639 
  970500    293.09079   -1511.9461    503.73341    306.62749   -295.38693    36638.639 
  970600    297.99359   -1511.9912    485.87771    310.72127   -20.563119    36638.639 
  970700    295.01677   -1475.3639    485.62396    333.74041   -406.85702    36638.639 
  970800    302.52377   -1454.7998    513.74739    416.10528   -900.37037    36638.639 
  970900     295.4544   -1438.8708    484.77894    371.35175    -594.8454    36638.639 
  971000    300.77849   -1502.2642    470.61692     317.6808   -431.18832    36638.639 
  971100    294.82203   -1469.0774    468.60829    322.13764   -854.91291    36638.639 
  971200     307.1777   -1507.4231    469.96505    340.57776   -741.63186    36638.639 
  971300    296.36368   -1512.0574    484.63758     302.1029   -13.136788    36638.639 
  971400    300.62124   -1493.3524    474.87618    330.14642    53.626113    36638.639 
  971500    304.59709   -1499.4428    490.01399    357.03007   -225.89338    36638.639 
  971600    300.72849   -1528.2846    467.82678    288.64598    288.18784    36638.639 
  971700     301.7986   -1515.2609    474.41908    313.06261    532.44709    36638.639 
  971800     289.3169   -1525.9741    467.32418    239.26014    916.26146    36638.639 
  971900    311.80618   -1512.6738    506.87727    393.00313    411.71066    36638.639 
  972000    299.50036   -1512.1649    447.19838    278.62778    438.14608    36638.639 
  972100    311.92214   -1537.3545    468.98296    330.94839    252.03184    36638.639 
  972200    304.89239   -1513.4399    504.70573    359.04944   -78.433658    36638.639 
  972300    297.86778   -1545.4534    464.01058    254.82748   -357.45804    36638.639 
  972400    308.81702      -1571.4    469.68576    283.67574    -681.9469    36638.639 
  972500    308.26463   -1569.2573    479.24832    292.90286    71.649601    36638.639 
  972600    310.24312   -1540.1432     483.3125    334.95688    513.07409    36638.639 
  972700    300.68176   -1571.5173    446.17893    223.55578   -136.24684    36638.639 
  972800    298.54785   -1527.6134    510.03506    321.74283   -327.53536    36638.639 
  972900    291.01775   -1507.0515    465.02129    263.51006    33.098642    36638.639 
  973000    298.88638   -1552.1296    497.59928    286.30956   -221.84339    36638.639 
  973100    292.14702   -1547.6527    491.97872    254.93234   -420.37962    36638.639 
  973200     298.3623   -1522.8101    460.47082    276.14949   -870.64161    36638.639 
  973300    318.10241   -1533.9152    472.43152    365.56159   -402.64937    36638.639 
  973400    298.52517   -1490.1026    472.78646    321.90329   -506.29884    36638.639 
  973500    296.37529    -1504.014    495.49674    321.05759   -708.16846    36638.639 
  973600    296.33999   -1563.1316    480.72259    247.00754   -304.34015    36638.639 
  973700    293.76483   -1601.8727    445.65655    161.64789    438.90804    36638.639 
  973800    297.13336   -1561.3929    462.75553     234.3383    633.69876    36638.639 
  973900    288.31182   -1553.2601    461.80896    201.94998    21.103536    36638.639 
  974000    304.53457   -1546.9953    452.26742    271.45053   -72.770868    36638.639 
  974100    302.70426   -1553.5414    468.97255     273.3985   -129.81487    36638.639 
  974200    305.79836   -1504.7716    463.81379    330.89002   -235.33731    36638.639 
  974300    300.07681    -1495.187    472.95691    323.95023    245.41842    36638.639 
  974400    299.30247   -1529.0304    478.76578    292.44192    108.74294    36638.639 
  974500    301.44927    -1540.529    448.33924    260.14756    349.71593    36638.639 
  974600    307.89027   -1547.4554    437.19685    270.97394    186.43189    36638.639 
  974700    292.58867    -1536.606    485.20529    261.18694   -85.476662    36638.639 
  974800    303.99748   -1531.6894    463.79305    295.87257    202.10538    36638.639 
  974900    297.48578   -1497.2777    485.95521     323.2341    303.78247    36638.639 
  975000    306.16296   -1509.2852    499.95041     364.1487    320.95334    36638.639 
  975100    296.44049   -1468.3679    489.66033    351.15976    208.61657    36638.639 
  975200    294.85017   -1497.8216    486.98059      311.892    -425.1372    36638.639 
  975300    296.78031     -1477.86    473.53463    327.06649     -324.911    36638.639 
  975400    297.20342    -1465.423      454.791    322.65789   -938.39695    36638.639 
  975500    298.17256   -1478.0585    483.07821    342.65738   -718.87579    36638.639 
  975600    306.16287   -1490.8659    474.39254    357.00977   -101.90441    36638.639 
  975700    291.47078   -1471.1069    465.08375    301.54945   -670.94106    36638.639 
  975800    306.20415   -1409.5821    492.01401    456.10016   -550.06359    36638.639 
  975900    299.82677   -1423.0701    472.85023    394.83875   -385.73735    36638.639 
  976000    288.60571   -1460.8723    488.27936    322.12668    351.63157    36638.639 
  976100    292.74529    -1489.545    498.83725    322.58252   -93.506882    36638.639 
  976200    293.77917   -1483.5002    465.53089    299.95902    268.51737    36638.639 
  976300    301.27442   -1442.5485    508.45775    417.46221   -8.7133553    36638.639 
  976400    298.60322   -1428.1587    497.57161    408.98249    204.40223    36638.639 
  976500    302.12689   -1418.0415    474.66182    411.99754   -330.51784    36638.639 
  976600     300.5499   -1470.2189    502.94843     381.0322   -662.42765    36638.639 
  976700    295.48732   -1472.8484    480.74753    333.49045   -543.53307    36638.639 
  976800    297.37648   -1476.7473    471.68594      329.005   -757.57528    36638.639 
  976900    302.90341   -1470.2579    474.78991    363.39277   -535.33737    36638.639 
  977000    310.28332   -1464.6724    473.66659    400.96216    172.27547    36638.639 
  977100    297.84645   -1478.1002    487.28419    345.35862    462.73717    36638.639 
  977200    306.02093   -1505.6144      478.688    345.91995     56.32415    36638.639 
  977300    299.18617   -1518.0884    465.27947    289.37591    -139.7685    36638.639 
  977400    307.46263    -1520.856    440.85438    299.31239    -24.19068    36638.639 
  977500     303.4376   -1519.0738    468.92058    311.10401    94.140477    36638.639 
  977600    292.35435   -1557.5165    490.18228    244.20224    237.23359    36638.639 
  977700    288.46817   -1505.5638    490.00698    278.54574    222.36443    36638.639 
  977800    310.29843   -1529.1252     468.7453    331.65583    622.06569    36638.639 
  977900    300.85992   -1548.7031    452.09007    253.08035     151.8135    36638.639 
  978000     295.8127   -1557.5874    481.40192    250.86557   -31.125924    36638.639 
  978100    294.47677   -1509.5358    475.83415    287.35622   -206.19496    36638.639 
  978200    294.89805   -1501.9947    481.63047    302.58357   -650.01314    36638.639 
  978300    309.94914   -1499.3072    502.23114     393.3927    -230.6707    36638.639 
  978400    304.21523   -1504.3625    464.99372    325.37696    628.48796    36638.639 
  978500    303.39415   -1469.1451    493.48359    385.40084    516.85127    36638.639 
  978600    301.90122   -1519.8685    473.87963    308.37597    506.30393    36638.639 
  978700     296.3438   -1536.1804    455.50163    248.75477   -657.87247    36638.639 
  978800    296.52523   -1494.7523    489.12348    324.61867   -157.78689    36638.639 
  978900    306.76754    -1496.912    471.88327    351.16699    203.45339    36638.639 
  979000    296.87103   -1503.8309    479.27313    307.24106   -254.27031    36638.639 
  979100    296.00103   -1501.6723    489.56987    315.79347    64.324278    36638.639 
  979200     303.7785   -1558.7682     472.0541    276.07249   -13.244412    36638.639 
  979300    297.24475   -1557.9299    460.08733    235.63276   -684.79388    36638.639 
  979400    312.72775   -1543.2647    477.31816    336.98738    58.855821    36638.639 
  979500    293.01835   -1569.2762    456.92562    202.16466    239.69987    36638.639 
  979600    302.45793   -1568.9456    464.37429    252.29095    440.01339    36638.639 
  979700    298.46109   -1517.0174    477.49354    299.40813    292.28129    36638.639 
  979800    299.68426   -1484.7708    512.93021    372.57873    266.06089    36638.639 
  979900    306.54977   -1492.0177    493.07512    376.27621    181.74932    36638.639 
  980000    304.87288   -1490.2828    485.61734    363.03058   -12.901549    36638.639 
  980100    304.72963   -1505.7413    476.70817    338.02029   -361.70296    36638.639 
  980200    296.37543    -1483.935     473.1173    318.75774   -753.76617    36638.639 
  980300    299.18506   -1501.8473    465.00585    305.33835   -452.96616    36638.639 
  980400    304.12359   -1543.7552    467.54451    288.12394   -482.07717    36638.639 
  980500    307.58162   -1508.5939    458.06415    329.31804   -229.66271    36638.639 
  980600    299.74304   -1472.4163    487.02213    359.28877    161.29779    36638.639 
  980700    299.82882    -1547.569    466.32782    263.82662   -260.21681    36638.639 
  980800    301.62892   -1510.1779    473.98711    316.95245   -159.43801    36638.639 
  980900    286.27126   -1490.3808    478.49064    272.35682   -536.65015    36638.639 
  981000    299.71327   -1504.0354    480.72268     321.2367   -80.064974    36638.639 
  981100    290.92966   -1514.4876    461.37441    252.03195    -607.5924    36638.639 
  981200    308.73353   -1528.9322    483.06068    339.14392   -473.99024    36638.639 
  981300    297.47557   -1545.9423    461.75892    250.32745    -398.7627    36638.639 
  981400    307.89425   -1507.8706      477.114    350.49363   -909.63617    36638.639 
  981500    294.74442   -1519.5584    479.73415    282.43435   -175.49058    36638.639 
  981600     301.0134   -1524.7017    502.97505    328.65526    242.92694    36638.639 
  981700    288.65699   -1526.5705    500.92185    269.30096    319.93276    36638.639 
  981800    300.80239   -1539.2718     487.3567    297.52029   -259.72719    36638.639 
  981900    298.39897   -1531.2428    483.73912    291.14968    166.11832    36638.639 
  982000    305.92176   -1563.1681    467.75265    276.98598     96.17066    36638.639 
  982100    291.85086   -1561.6165    480.55668    228.21787   -384.63901    36638.639 
  982200    309.79147   -1541.4956    466.48432    314.75014    88.099367    36638.639 
  982300    302.81584   -1488.6825    491.94309    361.72853     108.2047    36638.639 
  982400     299.4033   -1539.3269    469.51798    273.34996   -171.61718    36638.639 
  982500     298.0272   -1583.6518    495.20346    248.53721    5.8722659    36638.639 
  982600    293.09621   -1583.3269    470.87066    202.40828    334.41226    36638.639 
  982700    304.98503   -1606.1549    479.23233    241.27657    216.17563    36638.639 
  982800    289.67777   -1578.8028    472.51558    193.24178    490.97236    36638.639 
  982900     299.7941   -1557.0365    484.31109    272.18666    1213.8605    36638.639 
  983000    290.41346   -1565.7301    495.30267    232.40196    1024.7104    36638.639 
  983100    303.18247   -1568.3018     467.0695     258.8804    536.56579    36638.639 
  983200    302.80498   -1558.4382     470.1933    270.17433     63.06033    36638.639 
  983300    300.10884   -1552.9143    458.74303    252.15279    49.241595    36638.639 
  983400    308.72309    -1518.674    487.34846    353.64302    308.70983    36638.639 
  983500    303.39785   -1552.6964    499.40861    307.79109   -127.75923    36638.639 
  983600    296.78854   -1528.5517    476.14273    279.01978   -816.67258    36638.639 
  983700    298.72089   -1507.9652    492.66595    324.79823   -1011.6872    36638.639 
  983800    293.65314   -1501.5944    492.45891    308.22748   -886.22682    36638.639 
  983900    292.78505   -1509.3637    464.81381    268.91876    -589.4065    36638.639 
  984000    306.90196   -1542.9061    461.85032    295.74295   -667.67479    36638.639 
  984100     298.6272   -1531.6714    486.31207    294.31784   -951.43048    36638.639 
  984200     301.0502   -1500.1995    484.10263    334.45017   -295.94641    36638.639 
  984300    297.49458   -1567.0491    507.98715    275.53425   -129.51199    36638.639 
  984400    293.14341   -1576.4767     482.3944    220.99394    522.56714    36638.639 
  984500    301.47998   -1615.3075    465.53758    202.70518    763.83342    36638.639 
  984600    296.17866   -1543.7952     484.4892    269.38678    451.91058    36638.639 
  984700     291.1134   -1570.1932    472.72333    208.49955    914.08236    36638.639 
  984800    300.70393   -1538.8626    472.54077    282.67182    1037.0841    36638.639 
  984900    299.00212   -1590.2411    452.04342    203.16143    311.46806    36638.639 
  985000    301.39936   -1554.5258    483.40114    280.98873    232.49686    36638.639 
  985100    300.22595   -1515.4772    497.37328    328.74544    837.93274    36638.639 
  985200    311.70636   -1569.1158    472.97159    302.20767    817.15287    36638.639 
  985300    310.57128   -1567.9107     482.0907    307.43979    33.247638    36638.639 
  985400    303.33616   -1561.9063     509.1032    307.99903    258.92142    36638.639 
  985500    292.88717   -1570.2015     493.2555    236.98075   -59.336106    36638.639 
  985600    299.89311   -1535.8861    479.72589    289.19602    23.166533    36638.639 
  985700    294.62658   -1562.5881    461.21447    220.35636   -863.67407    36638.639 
  985800    299.55498    -1565.525    473.34323    251.65752   -175.57837    36638.639 
  985900    307.81424   -1594.8588    477.17577    263.20829    391.35688    36638.639 
  986000     296.9032   -1578.2517    500.53738     254.2288    684.54442    36638.639 
  986100     306.5085   -1592.1881    462.62179     245.4673    690.81919    36638.639 
  986200    301.65784   -1564.5916    481.12691    269.80832    273.02897    36638.639 
  986300    306.31403   -1545.0742    479.62443    308.71146    354.07044    36638.639 
  986400    304.18412   -1529.1796    508.56006    343.98667    645.14068    36638.639 
  986500    302.33127   -1523.8476    468.47651    300.92302    434.50752    36638.639 
  986600     307.7072     -1528.33    457.64653    309.72765    697.71672    36638.639 
  986700    302.23732    -1531.667    471.38164     295.5873    242.68208    36638.639 
  986800    307.10155   -1498.7627    488.22348    367.15495    89.315897    36638.639 
  986900    296.02006   -1547.7399    445.13553    225.37693   -136.77669    36638.639 
  987000    295.00594   -1506.5552    495.73246    312.60908    221.56118    36638.639 
  987100    292.93006   -1520.9677    483.75684    276.90827    611.65403    36638.639 
  987200    303.31537   -1487.4062    468.38529    341.68802    390.07156    36638.639 
  987300    291.12501   -1454.4951    480.05301    331.57934    231.43196    36638.639 
  987400    292.30083   -1501.6292    487.84986    297.51695    196.13581    36638.639 
  987500    292.94712   -1541.5792    476.35802    248.97446   -167.36422    36638.639 
  987600    308.18274   -1523.0834    483.46039    342.92147    114.57512    36638.639 
  987700    303.23745   -1536.1771     470.6514    294.83362    318.07172    36638.639 
  987800    311.38818   -1513.7076     486.5877    369.80454   -82.069167    36638.639 
  987900    300.84615   -1484.2598    478.56128    343.93314   -658.56653    36638.639 
  988000    308.14623   -1528.1148     465.1867    319.45265   -548.48548    36638.639 
  988100    300.52394   -1519.6894    479.52746    308.02427   -734.73084    36638.639 
  988200    293.83859   -1514.0228    492.17613    296.34828    -258.2217    36638.639 
  988300     304.9769   -1469.3527     501.9024    400.71236   -438.43415    36638.639 
  988400     301.1221   -1512.7891    486.10303    324.18356    79.740869    36638.639 
  988500    295.82492   -1515.6652    469.98691    281.42749    -294.5378    36638.639 
  988600    303.12981    -1532.908    454.80651    281.77495   -66.081067    36638.639 
  988700    294.27632   -1523.8912    492.99733    289.26476    55.956887    36638.639 
  988800    299.39396   -1504.0264    487.14191    326.23242    14.315328    36638.639 
  988900    293.46928   -1519.7506    483.11231    279.89984   -215.45861    36638.639 
  989000    296.26066   -1474.2893    474.64055    329.41187   -258.44299    36638.639 
  989100    298.94132   -1536.9808    454.91468    259.02025   -528.48996    36638.639 
  989200    289.81704   -1533.7985     450.3768    216.73204   -215.41194    36638.639 
  989300    299.89791   -1525.7613    500.26027    319.87671    275.22939    36638.639 
  989400     304.2177   -1523.1229    485.31262    326.94655    337.74702    36638.639 
  989500    299.01867   -1551.7959    452.35837    241.99584   -126.08063    36638.639 
  989600    296.65047   -1514.3989    483.00195    299.41243    188.57684    36638.639 
  989700    297.90555   -1497.3194     498.5627    337.68314    88.883214    36638.639 
  989800    300.48886   -1478.5028    469.41125    338.93726     507.5486    36638.639 
  989900    310.08832   -1521.1257    468.73663    338.70402    107.54865    36638.639 
  990000     296.6947   -1528.4695    474.66725    277.20551   -679.90936    36638.639 
  990100    305.96205   -1538.9195    478.56767    312.23037   -5.0395686    36638.639 
  990200    301.51544   -1540.8284    456.46114    268.26696    207.56618    36638.639 
  990300    302.22736   -1580.9156    457.06374    231.97604    253.25489    36638.639 
  990400    310.89397   -1542.2109    467.54358    320.04012   -131.70426    36638.639 
  990500    301.23521   -1566.7894    473.71483    258.30247   -509.86618    36638.639 
  990600    298.90864   -1559.2595    501.82686    283.50713    49.034833    36638.639 
  990700    299.27319   -1554.0763    455.09236    243.59126    407.61091    36638.639 
  990800    308.80103   -1587.2947    481.30788    279.33136    321.28016    36638.639 
  990900      303.006   -1593.9544    490.19782    255.56443   -198.82238    36638.639 
  991000    298.91598   -1559.7339    469.72692     250.9657   -113.17342    36638.639 
  991100    293.61313   -1527.3963    464.43569    254.22287   -220.68365    36638.639 
  991200    288.39322   -1540.2267    460.87307    214.41275    32.030453    36638.639 
  991300    302.38468   -1502.2363    479.85125    334.14868    596.83119    36638.639 
  991400    293.33628   -1541.4657     473.7203    248.19606    261.94805    36638.639 
  991500    298.90424   -1545.6415    495.10204    290.38049    253.66299    36638.639 
  991600    312.26149   -1525.7092    478.12616    353.25919    326.90231    36638.639 
  991700    305.21842   -1538.1421    483.89082    314.99489    59.803539    36638.639 
  991800    298.77325   -1536.2903    476.29679     280.3389     111.5791    36638.639 
  991900    309.73887   -1508.6451    475.58066    356.46101   -361.49457    36638.639 
  992000    295.69683   -1517.0338    489.34835    298.84574   -69.890563    36638.639 
  992100     300.3639   -1530.9287    472.39599    288.93552   -355.86884    36638.639 
  992200    305.57062    -1554.851     505.5709     321.5461    -135.7611    36638.639 
  992300    304.64602   -1492.6183    501.74205    375.80214   -21.280412    36638.639 
  992400    293.97122   -1521.0223    494.61802    292.38563   -400.61114    36638.639 
  992500    293.88557   -1505.4818    492.80099    305.72489   -83.478369    36638.639 
  992600    293.39993   -1558.3419    499.91147    257.79658   -38.241804    36638.639 
  992700    291.12486   -1496.4632    491.51741    301.07503    163.56522    36638.639 
  992800    301.61687   -1542.0373    487.48147    298.53331    349.19473    36638.639 
  992900    299.92138   -1527.4803    479.76904     297.7718    139.40136    36638.639 
  993000    303.97113   -1535.6209    456.56302    284.59278   -249.09992    36638.639 
  993100    298.11822   -1541.2062     488.5374    284.72501   -402.55349    36638.639 
  993200    294.70514    -1571.191    475.85649    226.74787    -271.4546    36638.639 
  993300    301.86976   -1522.0981    480.59161    312.71722   -197.78271    36638.639 
  993400    308.32643   -1566.6086    468.04817    284.62865    -307.6098    36638.639 
  993500     305.2163   -1521.9685    475.09216    322.36037    810.25255    36638.639 
  993600    295.72656   -1607.9687    455.51184    174.20773    478.16073    36638.639 
  993700    291.20077    -1588.248    461.69403     179.8074    266.44378    36638.639 
  993800    293.68161   -1582.2834    461.73954    196.94688   -148.29725    36638.639 
  993900    296.29188   -1548.1203    490.02759    271.10794   -204.04875    36638.639 
  994000    305.43864   -1560.5572    458.23106    267.90796    -72.10324    36638.639 
  994100    291.52037   -1524.2744    482.67956    266.20021    193.85613    36638.639 
  994200    301.60651    -1539.223    468.50206    282.32177  -0.88472642    36638.639 
  994300    309.92747     -1496.16    478.72556    372.93714    374.64249    36638.639 
  994400    298.01794   -1529.3557    483.03429    290.62257   -81.537641    36638.639 
  994500    299.34101    -1509.847    487.50827    320.54065    -294.4645    36638.639 
  994600    305.58411   -1497.6184    499.92651    373.19482    103.25433    36638.639 
  994700    290.78629   -1469.9951     491.9258    326.43259    14.645549    36638.639 
  994800    307.48468   -1503.3475    491.81791    367.88329   -504.09204    36638.639 
  994900    295.23435   -1518.5048    484.31315    290.26483    325.48394    36638.639 
  995000    312.37131   -1516.4708    470.30214     355.1663   -526.67045    36638.639 
  995100    301.63525   -1481.1245    466.78366    338.83088   -304.29053    36638.639 
  995200    301.74986    -1533.982    464.34699    284.05078   -619.38701    36638.639 
  995300    298.78962   -1514.6213     500.6439    326.42847   -415.03624    36638.639 
  995400    304.61572   -1534.2971    454.63684    286.88217   -419.06477    36638.639 
  995500    298.19112    -1496.707     506.7148    347.72873   -576.02095    36638.639 
  995600    295.43974   -1512.2858    493.45229    306.54433    -700.1799    36638.639 
  995700    300.81485   -1500.8976    476.43788    325.03152   -139.25844    36638.639 
  995800    296.41259   -1512.2005    485.72278     303.2645   -39.367442    36638.639 
  995900    302.30455   -1591.3576    472.23043    237.04706    58.249931    36638.639 
  996000    300.57446    -1552.242    489.63531    285.80617    258.86295    36638.639 
  996100    289.11849    -1533.661    493.27896    256.63794    213.23273    36638.639 
  996200    306.17616   -1544.7403    457.99184    286.79423    187.18449    36638.639 
  996300    298.84658   -1543.1441    489.77567    287.29294   -189.30692    36638.639 
  996400    293.12069    -1535.326    454.32441     233.9728    204.34799    36638.639 
  996500    300.13292   -1545.0237    476.20956    277.61786   -19.043261    36638.639 
  996600    300.33535   -1544.9812    491.94274    294.30168   -147.05108    36638.639 
  996700    301.27856   -1553.3369    502.46765    300.70219    6.8451977    36638.639 
  996800    300.65282   -1555.2841    466.67022    260.15053    98.038698    36638.639 
  996900    293.25436   -1549.0226    483.77585    250.32721   -559.98152    36638.639 
  997000    302.17276   -1553.9248    481.69222     283.3504   -943.86242    36638.639 
  997100    302.25435   -1544.8688     431.9389    243.01911   -575.69982    36638.639 
  997200    304.82836   -1535.7431    481.35051    313.10379   -143.37684    36638.639 
  997300    309.88478   -1493.1324    480.76869    377.81628    516.00085    36638.639 
  997400    292.60288    -1547.391    467.04456    232.30498    238.68772    36638.639 
  997500    299.51379   -1557.2201    514.90645    301.34093     -10.7563    36638.639 
  997600    290.30403   -1557.3447    464.44133    209.43515    84.239784    36638.639 
  997700    296.60184   -1501.1031    482.40894    311.89704   -672.31701    36638.639 
  997800    299.11385   -1494.3483    466.16874    313.68074   -604.30254    36638.639 
  997900    299.18838   -1493.2701    501.78092    350.70556    -625.5164    36638.639 
  998000    297.56654   -1473.3357    472.67449    334.25775   -418.31274    36638.639 
  998100    305.03721   -1458.9861      490.847    400.29412   -901.98206    36638.639 
  998200    307.00476   -1486.6546    456.02056    346.62588   -962.99136    36638.639 
  998300    301.48574   -1522.8414    463.52483    293.18433   -440.75455    36638.639 
  998400    304.07984   -1516.6007    497.77987    345.31761   -333.22072    36638.639 
  998500     293.0579   -1467.1156    468.84423     316.4213   -669.41869    36638.639 
  998600    300.23677   -1526.3911    472.67965    293.18647   -566.84231    36638.639 
  998700    304.67995   -1536.6364    461.46104    291.65523    29.573074    36638.639 
  998800    295.54814    -1526.583    461.91708    261.19817   -736.29677    36638.639 
  998900    300.84409   -1513.6715    499.92978    335.88067   -356.08129    36638.639 
  999000    310.86272   -1542.6134    465.10042    317.05421    86.684817    36638.639 
  999100    301.00436   -1538.5474     484.9191    296.71315   -142.01732    36638.639 
  999200    300.73263   -1524.6953    468.31277    292.73989    182.35638    36638.639 
  999300    300.86964   -1562.4182    467.96731    255.28611    414.63308    36638.639 
  999400    303.87662   -1536.1996    483.44732    310.47438    641.92422    36638.639 
  999500    294.65906    -1604.909      453.975    170.94168     359.2773    36638.639 
  999600    297.86188    -1546.212    474.67451    264.70637    156.33242    36638.639 
  999700    305.84409   -1604.4223    483.67863    251.30938    242.14572    36638.639 
  999800    298.44087   -1597.7635    456.47134    197.54912   -252.26398    36638.639 
  999900    303.33007   -1545.6648      453.314    268.42405     -432.584    36638.639 
 1000000    301.74158    -1562.173    489.69863    281.17426   -549.91863    36638.639 
 1000100    303.98415   -1544.4629    466.08645    285.33268    -467.0594    36638.639 
 1000200    299.42448   -1554.7687    459.94319    248.42843   -349.05446    36638.639 
 1000300    285.52271   -1594.0261    455.74875     142.6116    -154.7847    36638.639 
 1000400    298.04325   -1594.2659     476.0737     218.8653   -164.09425    36638.639 
 1000500    289.89779   -1561.5123    449.20076    188.20444    176.66884    36638.639 
 1000600     303.9493   -1559.3819    478.50217    282.67303   -513.98547    36638.639 
 1000700    301.88564   -1580.5517    471.28609     245.0293    34.000648    36638.639 
 1000800    289.73409   -1563.5393    463.50676    199.74914       411.97    36638.639 
 1000900    296.09526    -1527.993    485.53427    285.85988    391.14925    36638.639 
 1001000    302.89479   -1525.4713    474.95038    308.30114   -225.30603    36638.639 
 1001100    291.91367   -1521.7848    486.18725    273.96189   -423.82894    36638.639 
 1001200    301.41823   -1513.5546    473.45628    312.09981    -339.3362    36638.639 
 1001300    300.36574   -1522.1074    478.59462    303.96371     -186.337    36638.639 
 1001400    306.66299   -1493.2324    453.64661    336.14088   -201.64558    36638.639 
 1001500    305.45561   -1520.7017    478.25662    327.86513    45.297915    36638.639 
 1001600    306.51228   -1516.7284    472.55208    330.87428     -14.4834    36638.639 
 1001700    292.70943   -1518.2502    476.29335     271.1725   -364.21244    36638.639 
 1001800    308.89436   -1518.5018    476.55649    343.79159   -155.90133    36638.639 
 1001900    301.66097   -1502.8046    499.53727    350.01969    310.58346    36638.639 
 1002000    307.66998    -1488.491    480.53326    372.28643    421.11597    36638.639 
 1002100     285.6452   -1465.6872    499.26263    315.01384    72.492968    36638.639 
 1002200    302.53949   -1460.2271    498.85263    395.85371   -634.36242    36638.639 
 1002300    302.92344   -1476.0452    491.72074     374.6262    117.85819    36638.639 
 1002400    297.95544   -1490.6573     472.0951    318.10134    122.30747    36638.639 
 1002500    303.80854   -1492.6858    490.46584    360.70137    691.69904    36638.639 
 1002600    295.79049    -1471.828    501.78232    356.90567    381.56802    36638.639 
 1002700      301.491    -1513.503    479.53263    318.55416    954.25116    36638.639 
 1002800    297.89598   -1524.3022    482.15274    294.24743    -64.30398    36638.639 
 1002900    292.57161   -1531.2704    479.05351     260.2942   -637.81822    36638.639 
 1003000    302.92164   -1503.3416    483.69411    339.29508   -580.04955    36638.639 
 1003100     303.0927   -1462.2537    475.53315    372.98945    -652.1955    36638.639 
 1003200    302.79418   -1524.0674    463.09972    297.40304   -916.17847    36638.639 
 1003300    299.86475   -1505.1998    495.41651    335.44567   -783.96586    36638.639 
 1003400      301.518   -1507.2128     467.8398    313.27267   -418.73137    36638.639 
 1003500       297.49   -1514.8666    515.13844    334.84743   -24.662586    36638.639 
 1003600    302.82975   -1522.4768     485.6437    321.69723    414.84822    36638.639 
 1003700    301.74904   -1516.7853    513.57492    350.47179    452.02504    36638.639 
 1003800    288.15551   -1535.7783    488.22069    245.14232   -227.56761    36638.639 
 1003900    290.41212   -1563.6187    459.65266    198.85736   -215.81093    36638.639 
 1004000    300.63033    -1539.999    505.24335    313.90782    294.05767    36638.639 
 1004100    297.46253   -1535.7969    483.08306    281.73847    -47.10512    36638.639 
 1004200    298.21401   -1515.4113    475.53823    297.95055   -202.02138    36638.639 
 1004300    300.60308   -1481.0574    487.84464    355.32849   -261.06935    36638.639 
 1004400    305.94408   -1533.1855    489.98859    329.30472    -582.0719    36638.639 
 1004500    299.28788   -1509.3661    485.87748     319.1525   -203.83744    36638.639 
 1004600    299.99475   -1504.4439    495.60389    336.97221    -275.9304    36638.639 
 1004700    297.75417     -1483.12     501.5709    354.21162   -36.925781    36638.639 
 1004800    293.03221   -1475.7071    485.20806    324.07833    234.85631    36638.639 
 1004900    292.49542   -1484.9138    490.46492    317.72047   -140.48884    36638.639 
 1004913    300.13792    -1467.738    481.07478    359.79124   -294.24979    36638.639 
Loop time of 593.363 on 32 procs for 1000000 steps with 1506 atoms

Performance: 145.611 ns/day, 0.165 hours/ns, 1685.309 timesteps/s
100.0% CPU use with 32 MPI tasks x no OpenMP threads

MPI task timing breakdown:
Section |  min time  |  avg time  |  max time  |%varavg| %total
---------------------------------------------------------------
Pair    | 242.56     | 278.39     | 309.8      |  96.5 | 46.92
Bond    | 1.3946     | 1.491      | 1.605      |   4.5 |  0.25
Neigh   | 38.363     | 38.444     | 38.523     |   1.0 |  6.48
Comm    | 231.95     | 263.3      | 298.86     |  99.0 | 44.37
Output  | 0.38971    | 0.40623    | 0.83204    |  12.0 |  0.07
Modify  | 8.0573     | 8.2468     | 8.5571     |   4.4 |  1.39
Other   |            | 3.088      |            |       |  0.52

Nlocal:        47.0625 ave          71 max          14 min
Histogram: 1 1 2 2 4 3 10 6 1 2
Nghost:        1990.88 ave        2039 max        1943 min
Histogram: 4 1 2 2 6 5 4 4 2 2
Neighs:        5366.75 ave       10294 max        1497 min
Histogram: 2 2 5 3 8 6 2 3 0 1

Total # of neighbors = 171736
Ave neighs/atom = 114.03453
Ave special neighs/atom = 2.0079681
Neighbor list builds = 49710
Dangerous builds = 0

# Output the system volume
variable v equal vol
print 'The system volume is $v'
The system volume is 36638.6386634246

# Outputs
variable A equal xhi-xlo
variable B equal yhi-ylo
variable C equal zhi-zlo
variable D equal xy
variable E equal xz
variable F equal yz
print 'Lattice vectors'
Lattice vectors
print '$A 0 0'
33.2133826943363 0 0
print '$D $B 0'
0 33.2133826943363 0
print '$E $F $C'
0 0 33.2133826943363
Total wall time: 0:09:58
