LAMMPS (29 Sep 2021 - Update 1)
# Test LAMMPS input file for single DeFDe

# Initialize simulation

clear

units real
atom_style full
boundary p p p
dielectric 1
special_bonds dreiding

bond_style harmonic
angle_style harmonic
dihedral_style harmonic
improper_style umbrella
pair_style hybrid/overlay hbond/dreiding/lj 4 9.0 11.0 90 lj/cut 8.50000

# Read data file
read_data frag5.dat
Reading data file ...
  triclinic box = (0.0000000 0.0000000 0.0000000) to (15.000000 15.000000 15.000000) with tilt (0.0000000 0.0000000 0.0000000)
  2 by 4 by 4 MPI processor grid
  reading atoms ...
  1509 atoms
  scanning bonds ...
  3 = max bonds/atom
  scanning angles ...
  6 = max angles/atom
  scanning dihedrals ...
  6 = max dihedrals/atom
  scanning impropers ...
  1 = max impropers/atom
  reading bonds ...
  1008 bonds
  reading angles ...
  512 angles
  reading dihedrals ...
  10 dihedrals
  reading impropers ...
  2 impropers
Finding 1-2 1-3 1-4 neighbors ...
  special bond factors lj:    0        0        1       
  special bond factors coul:  0        0        1       
     4 = max # of 1-2 neighbors
     5 = max # of 1-3 neighbors
     8 = max # of special neighbors
  special bonds CPU = 0.002 seconds
  read_data CPU = 0.017 seconds

# Dreiding potential information

bond_coeff 1 700 1.275
bond_coeff 2 350 0.935
bond_coeff 3 700 1.22
bond_coeff 4 350 1.43
bond_coeff 5 350 1.09
bond_coeff 6 350 0.98

angle_coeff 1 50 120
angle_coeff 2 50 120
angle_coeff 3 50 109.471
angle_coeff 4 50 104.51

dihedral_coeff 1 5.625 -1 2
dihedral_coeff 2 0.0833333333333333 -1 6

improper_coeff 1 40 0

pair_coeff 1 1 lj/cut 0.0774 3.6621
pair_coeff 1 2 lj/cut 0.0857947550844456 3.77835472527395
pair_coeff 1 3 lj/cut 0.0860649754545948 3.53100349192691
pair_coeff 1 4 lj/cut 0.0857947550844456 3.77835472527395
pair_coeff 1 5 lj/cut 0.00278208554864871 3.41951536039831
pair_coeff 1 6 lj/cut 0.0342998542270955 3.42058613398347
pair_coeff 1 7 lj/cut 0.0860649754545948 3.53100349192691
pair_coeff 2 2 lj/cut 0.0951 3.8983
pair_coeff 2 3 lj/cut 0.0953995283007206 3.64309650983885
pair_coeff 2 4 lj/cut 0.0951 3.8983
pair_coeff 2 5 lj/cut 0.00308382878902186 3.52806914614779
pair_coeff 2 6 lj/cut 0.0380199947396104 3.52917391183829
pair_coeff 2 7 lj/cut 0.0953995283007206 3.64309650983885
pair_coeff 3 3 lj/cut 0.0957 3.4046
pair_coeff 3 4 lj/cut 0.0953995283007206 3.64309650983885
pair_coeff 3 5 lj/cut 0.0030935416596516 3.29710294046152
pair_coeff 3 6 lj/cut 0.0381397430510485 3.29813538230316
pair_coeff 3 7 lj/cut 0.0957 3.4046
pair_coeff 4 4 lj/cut 0.0951 3.8983
pair_coeff 4 5 lj/cut 0.00308382878902186 3.52806914614779
pair_coeff 4 6 lj/cut 0.0380199947396104 3.52917391183829
pair_coeff 4 7 lj/cut 0.0953995283007206 3.64309650983885
pair_coeff 5 5 lj/cut 1e-04 3.193
pair_coeff 5 6 lj/cut 0.0012328828005938 3.19399984345648
pair_coeff 5 7 lj/cut 0.0030935416596516 3.29710294046152
pair_coeff 6 6 lj/cut 0.0152 3.195
pair_coeff 6 7 lj/cut 0.0381397430510485 3.29813538230316
pair_coeff 7 7 lj/cut 0.0957 3.4046
pair_coeff 1 1 hbond/dreiding/lj 5 j 9.50 2.75 4 9.0 11.0 90
pair_coeff 1 3 hbond/dreiding/lj 5 i 9.50 2.75 4 9.0 11.0 90
pair_coeff 1 7 hbond/dreiding/lj 5 i 9.50 2.75 4 9.0 11.0 90
pair_coeff 1 7 hbond/dreiding/lj 5 j 9.50 2.75 4 9.0 11.0 90
pair_coeff 3 7 hbond/dreiding/lj 5 j 9.50 2.75 4 9.0 11.0 90
pair_coeff 7 7 hbond/dreiding/lj 5 j 9.50 2.75 4 9.0 11.0 90

neighbor 2 bin
neigh_modify every 2 one 10000

# Gemoetric relaxation
fix 1 all box/relax iso 1.0 vmax 0.001
minimize 1.0e-4 1.0e-6 10000 10000
WARNING: Using 'neigh_modify every 1 delay 0 check yes' setting during minimization (../min.cpp:188)
Neighbor list info ...
  update every 1 steps, delay 0 steps, check yes
  max neighbors/atom: 10000, page size: 100000
  master list distance cutoff = 13
  ghost atom cutoff = 13
  binsize = 6.5, bins = 3 3 3
  3 neighbor lists, perpetual/occasional/extra = 3 0 0
  (1) pair hbond/dreiding/lj, perpetual, skip from (3)
      attributes: full, newton on
      pair build: skip
      stencil: none
      bin: none
  (2) pair lj/cut, perpetual, half/full from (3)
      attributes: half, newton on
      pair build: halffull/newton
      stencil: none
      bin: none
  (3) neighbor class addition, perpetual
      attributes: full, newton on
      pair build: full/bin
      stencil: full/bin/3d
      bin: standard
Per MPI rank memory allocation (min/avg/max) = 13.27 | 13.59 | 14.06 Mbytes
Step Temp E_pair E_mol TotEng Press Volume 
       0            0 5.5166418e+16    262.99836 5.5166418e+16 4.483169e+18         3375 
    5302            0   -1200.8938    24.470377   -1176.4234    103.95049    37625.902 
Loop time of 4.5882 on 32 procs for 5302 steps with 1509 atoms

100.0% CPU use with 32 MPI tasks x no OpenMP threads

Minimization stats:
  Stopping criterion = energy tolerance
  Energy initial, next-to-last, final = 
    5.51664183731254e+16  -1175.84594790874  -1175.92392835067
  Force two-norm initial, final = 5.6022979e+18 102.39927
  Force max component initial, final = 2.2311462e+18 75.864996
  Final line search alpha, max atom move = 1.6533687e-05 0.0012543281
  Iterations, force evaluations = 5302 5303

MPI task timing breakdown:
Section |  min time  |  avg time  |  max time  |%varavg| %total
---------------------------------------------------------------
Pair    | 1.3561     | 2.5291     | 3.8873     |  40.5 | 55.12
Bond    | 0.006579   | 0.010891   | 0.017867   |   2.4 |  0.24
Neigh   | 0.094021   | 0.094254   | 0.094545   |   0.1 |  2.05
Comm    | 0.25417    | 1.6126     | 2.7926     |  50.9 | 35.15
Output  | 0          | 0          | 0          |   0.0 |  0.00
Modify  | 0          | 0          | 0          |   0.0 |  0.00
Other   |            | 0.3413     |            |       |  7.44

Nlocal:        47.1562 ave          68 max          22 min
Histogram: 1 0 4 3 3 9 4 3 3 2
Nghost:        1901.81 ave        1994 max        1805 min
Histogram: 2 10 3 1 0 0 0 5 8 3
Neighs:        4931.91 ave        8080 max        2045 min
Histogram: 1 3 4 2 11 3 3 0 2 3

Total # of neighbors = 157821
Ave neighs/atom = 104.58648
Ave special neighs/atom = 2.0145792
Neighbor list builds = 94
Dangerous builds = 0

# MD simulation
velocity all create 300.0 12345 rot yes dist gaussian
timestep 1.0
fix 2 all nvt temp 300.0 300.0 1

# Compute interaction energy
group WAT molecule <> 2 501
1500 atoms in group WAT
group MOL molecule 1
9 atoms in group MOL

compute w WAT group/group MOL pair yes
fix 3 all ave/time 10 5 100 c_w file outa

# Outputs
thermo 100 # Output thermodynamic data every nth step
#dump mf1 all xyz 10000 mol_*.xyz

# Run
run 1000000
Neighbor list info ...
  update every 2 steps, delay 10 steps, check yes
  max neighbors/atom: 10000, page size: 100000
  master list distance cutoff = 13
  ghost atom cutoff = 13
  binsize = 6.5, bins = 6 6 6
  4 neighbor lists, perpetual/occasional/extra = 3 1 0
  (1) pair hbond/dreiding/lj, perpetual, skip from (4)
      attributes: full, newton on
      pair build: skip
      stencil: none
      bin: none
  (2) pair lj/cut, perpetual, half/full from (4)
      attributes: half, newton on
      pair build: halffull/newton
      stencil: none
      bin: none
  (3) compute group/group, occasional, copy from (2)
      attributes: half, newton on
      pair build: copy
      stencil: none
      bin: none
  (4) neighbor class addition, perpetual
      attributes: full, newton on
      pair build: full/bin
      stencil: full/bin/3d
      bin: standard
Per MPI rank memory allocation (min/avg/max) = 12.12 | 12.15 | 12.52 Mbytes
Step Temp E_pair E_mol TotEng Press Volume 
    5302          300   -1200.8938    24.470377    172.09502    1742.2859    37625.902 
    5400    293.61322   -1146.6226    213.28452    386.47146    959.25349    37625.902 
    5500    295.81569   -1152.5714    176.75074    353.88906    21.398559    37625.902 
    5600    289.93791   -1214.9943    183.37657    271.67098   -157.21044    37625.902 
    5700    300.66392   -1139.0778    177.66436    390.08938    25.130892    37625.902 
    5800    292.57277   -1163.8432    204.70794    355.99731    -383.5029    37625.902 
    5900    302.31935   -1136.1562     180.9908    403.77863   -380.31411    37625.902 
    6000    299.53339    -1138.722    200.17781    407.87682     4.630993    37625.902 
    6100     299.4711   -1121.2591    183.69581    408.57773    52.567195    37625.902 
    6200    300.92461   -1161.1107    202.18559    393.74954    -166.3321    37625.902 
    6300    292.79675   -1149.2381    201.71015    368.61141    78.697573    37625.902 
    6400      294.959   -1131.8815    212.39718    406.37452    544.00625    37625.902 
    6500     300.2191   -1146.2878    196.48899    399.70448    356.92148    37625.902 
    6600    299.47224   -1138.6758    201.67753     409.1479    775.74204    37625.902 
    6700    299.05347   -1149.2199    203.82536    398.86926    626.48075    37625.902 
    6800    293.44335   -1132.3217    203.81779    390.54202    734.25997    37625.902 
    6900    298.34057   -1140.6344    218.09886    418.52368    504.11188    37625.902 
    7000    293.71731   -1150.9986    214.39333    383.67208    154.54796    37625.902 
    7100    303.49249   -1168.0021    205.61262    401.82795    297.66383    37625.902 
    7200    304.23237   -1167.2632    205.34241    405.62245    320.92855    37625.902 
    7300    299.87252   -1178.9986    203.84317    372.79002    204.55927    37625.902 
    7400    295.39198   -1164.9991    215.02966    377.83569     233.7628    37625.902 
    7500    302.94245   -1152.7339    220.07406    429.08509     344.3166    37625.902 
    7600    299.61135   -1162.4019    212.53054    396.90013    732.70394    37625.902 
    7700    307.11402   -1130.7178    222.89461    472.67318    947.09284    37625.902 
    7800    295.53879   -1137.7692    221.08464    411.78046    330.45278    37625.902 
    7900    303.60452    -1166.391    231.90463    430.23469    663.60892    37625.902 
    8000    306.98842    -1178.087     231.9994    433.84425    719.45653    37625.902 
    8100    306.91452   -1181.1324     218.0016    416.46887    256.43685    37625.902 
    8200    299.45285   -1137.7645    238.05644    446.35091    654.32461    37625.902 
    8300    286.23987   -1133.0702    232.09815    385.69382    450.16196    37625.902 
    8400    295.49451   -1176.8556    235.57985    386.99021    310.65518    37625.902 
    8500    301.18397   -1187.5153    216.47738    382.80256    469.37096    37625.902 
    8600    302.64586   -1153.4813    229.46394     436.3944     349.8731    37625.902 
    8700    311.12242   -1191.2114    236.06491    443.36795    970.56642    37625.902 
    8800    295.29974   -1171.3739    236.54858     392.5652    1108.5151    37625.902 
    8900    308.35608   -1155.2555    238.55179    469.37591    547.88503    37625.902 
    9000    307.76876   -1175.6973    247.56042    455.30263    714.07076    37625.902 
    9100    298.72404   -1189.2076    223.27177    376.84707    428.46224    37625.902 
    9200    296.48559   -1155.5589    255.15481    432.31686    322.52955    37625.902 
    9300    296.22724   -1178.9519    230.82386    383.43166     533.4455    37625.902 
    9400    292.40352    -1186.203    224.46952    352.63838    36.081542    37625.902 
    9500    294.65306    -1138.764     247.6794    433.39908    220.42912    37625.902 
    9600    301.98396   -1158.3833    254.34288    453.39606    709.32564    37625.902 
    9700    300.22381   -1144.3805    232.69481    437.83881    273.68744    37625.902 
    9800    301.91142   -1172.5547      232.319    416.87478    110.34067    37625.902 
    9900    309.13022   -1139.7989    253.32722    503.08772    599.05964    37625.902 
   10000    294.04032   -1162.7585    235.12671    394.09754    222.10198    37625.902 
   10100    292.42472   -1144.9863    251.48257    420.96334    354.60803    37625.902 
   10200    292.27569   -1149.9371    242.63509    406.49523    723.66952    37625.902 
   10300    292.32903   -1179.1739    247.43956    382.30262    955.40113    37625.902 
   10400    297.14262   -1184.8165    251.39959    402.25748    867.67322    37625.902 
   10500    298.30595   -1159.1917    254.94075    436.65264     420.1807    37625.902 
   10600    307.98756   -1164.6731    255.90684    475.65678    471.96395    37625.902 
   10700    306.80886   -1182.9685    263.71527    459.87144    600.12894    37625.902 
   10800     291.2957   -1119.9062    257.01861    446.50448    170.99544    37625.902 
   10900    301.83306    -1163.904    255.64047    448.49464     421.4142    37625.902 
   11000    305.86938   -1162.7278    261.18687    473.36078     658.8189    37625.902 
   11100    295.41595   -1157.2949    255.30279    425.92078    432.26749    37625.902 
   11200    307.45262   -1140.7031    269.73165      511.047    340.59903    37625.902 
   11300     300.1312    -1115.664    251.16602     484.6102    129.58686    37625.902 
   11400    309.57562   -1151.8299    249.84439    489.57599    353.79502    37625.902 
   11500    294.29443    -1159.332    260.22601    423.76565    77.175824    37625.902 
   11600    296.20668   -1163.0469    277.01004    445.43039   -123.81498    37625.902 
   11700    292.41256   -1160.7193    272.13585    425.82901    251.19595    37625.902 
   11800    302.12896   -1188.0904    255.25327    425.25117    134.64696    37625.902 
   11900    298.95326   -1141.1722    283.03362    485.67479    436.62195    37625.902 
   12000    303.51345   -1181.0067    258.87678    442.18167    630.88368    37625.902 
   12100    305.25408   -1168.6048    273.53429    477.06533     950.9464    37625.902 
   12200    296.20778   -1155.9085    279.20462    454.76837    633.53238    37625.902 
   12300    300.50262   -1156.6397    261.11587    455.25392    1089.7192    37625.902 
   12400    305.71522   -1179.1099      284.849    479.94781     1192.323    37625.902 
   12500    306.26889   -1162.2083    271.67146    486.16065    422.86756    37625.902 
   12600    301.06341   -1128.3674    272.39405    497.32525    301.86564    37625.902 
   12700    296.84029    -1138.034    284.24735    480.52874    292.85418    37625.902 
   12800    299.33375   -1159.2054    260.42305    446.74123     223.7483    37625.902 
   12900    300.95577   -1160.9749    276.08469    467.92451    608.74338    37625.902 
   13000    297.43557   -1202.1856     279.0293    413.83482     100.7314    37625.902 
   13100    299.12057    -1171.071    260.41689    433.91125    630.84045    37625.902 
   13200    303.58898   -1143.1468    290.99627     512.5006    270.94067    37625.902 
   13300    297.53497   -1140.1665     288.8272    486.09867     176.3418    37625.902 
   13400    297.22978   -1183.2468    269.91676    422.73613    75.427922    37625.902 
   13500    297.87667   -1184.5564    281.17706    435.59458    191.10829    37625.902 
   13600    297.80977   -1193.2942    278.94936     424.3284    555.62801    37625.902 
   13700    305.26159   -1195.4135    285.51332    462.26948    641.92031    37625.902 
   13800    302.05511   -1215.1347    276.37465    418.99624    394.74375    37625.902 
   13900    300.90166   -1198.7237    279.75691    433.60464     740.7436    37625.902 
   14000     306.6254   -1219.8632     292.4996     450.9364    384.24589    37625.902 
   14100    295.79626   -1227.9216    273.51159    375.21237   -21.056916    37625.902 
   14200    308.32213   -1185.1973    282.61169    483.34137    134.34017    37625.902 
   14300    312.01967   -1197.5412    283.89247    488.89894    175.40832    37625.902 
   14400    303.08714   -1175.4391    271.30239    458.25869    150.53434    37625.902 
   14500    302.08711   -1187.2631    269.51381     440.1509    29.065902    37625.902 
   14600     290.3016   -1206.8428    282.23139    380.31217   -67.298377    37625.902 
   14700    301.71146   -1222.9024    281.77034    415.07952   -179.47546    37625.902 
   14800    303.36833   -1209.5305    291.34258    445.47135    341.69393    37625.902 
   14900    290.07324   -1199.1121    289.90083    394.68578   -150.78739    37625.902 
   15000     305.0256    -1197.418    278.43061     452.1215    234.07526    37625.902 
   15100    299.26192   -1240.5869    283.34273    387.95656    427.79766    37625.902 
   15200    294.73181   -1242.1341    306.31829    389.02181    377.82171    37625.902 
   15300    302.26514   -1224.7771    272.12489    406.04817    494.46944    37625.902 
   15400    306.49973   -1213.6751    301.97393    466.03403    321.57244    37625.902 
   15500    297.30916   -1218.6548    283.17271    400.94083    186.40792    37625.902 
   15600    306.26131   -1229.0085    310.26201    457.91695   -141.21173    37625.902 
   15700    296.84457    -1185.056    308.07719     457.3558    340.64351    37625.902 
   15800    300.30512   -1245.3627    284.16289    388.69017    222.17628    37625.902 
   15900    294.45088   -1242.3896    285.01089    366.19612    279.18481    37625.902 
   16000    293.08812    -1245.206    298.12717    370.37033    369.78044    37625.902 
   16100    294.76072    -1218.241    303.40818    410.13477     742.8349    37625.902 
   16200    303.47799   -1182.7286    317.08005    498.50366    549.21337    37625.902 
   16300    302.52596   -1179.9586    287.17751    467.09174    397.56552    37625.902 
   16400    299.62053   -1189.1473    279.69316    437.35859   -63.117526    37625.902 
   16500    298.86894   -1159.4931    310.61824    494.55939    243.85803    37625.902 
   16600     296.6957   -1200.3719    298.28805    431.58162   -36.593083    37625.902 
   16700    308.69268   -1198.4725    307.15253    496.27262    127.18855    37625.902 
   16800    303.81157   -1219.0122    313.13119    459.77073   -184.43038    37625.902 
   16900    307.16183   -1231.8213    308.51133    457.40141   -185.95437    37625.902 
   17000    298.59287   -1237.4005    294.13558    398.92842    315.36404    37625.902 
   17100    293.53368   -1227.9203    320.86247    412.39417     62.76039    37625.902 
   17200     304.1214     -1219.59    293.99455    441.44895   -526.99086    37625.902 
   17300    306.25922   -1211.6696    300.62827    465.61266   -52.344567    37625.902 
   17400    308.65799   -1226.3767    301.28063    462.34063   -86.304249    37625.902 
   17500    314.76883   -1205.6283    297.59549    506.87241    124.99208    37625.902 
   17600    304.42544   -1213.2473    303.96639     459.1302    355.85758    37625.902 
   17700    304.90231   -1169.4086     312.5766    513.72261    546.72066    37625.902 
   17800    300.48134   -1216.0266    307.96153    442.61709    436.39261    37625.902 
   17900    295.94015   -1214.9985    291.29915    406.56989    473.53477    37625.902 
   18000    290.48711   -1214.8353    315.36383    406.28597    169.67552    37625.902 
   18100     306.4114   -1194.2333    312.66829    495.77306   -30.499001    37625.902 
   18200     301.2054   -1236.0309    296.17676    414.08263   -138.93246    37625.902 
   18300    302.68027   -1212.7332    298.18126    446.01454    106.08056    37625.902 
   18400    302.95694   -1214.1327    316.53791    464.21527   -145.62868    37625.902 
   18500    286.25069   -1219.1757    315.61096    383.14974   -88.642582    37625.902 
   18600    300.10207   -1168.3375    313.54662    494.18642    20.979486    37625.902 
   18700    293.25193   -1199.1138    327.97242    447.04407   -477.18019    37625.902 
   18800    296.32081   -1238.3093    297.97962     391.6506   -258.42189    37625.902 
   18900    295.00395   -1276.0442    302.00481    352.02156   -189.76894    37625.902 
   19000    301.14325    -1223.675    323.11923    453.10163   -265.89962    37625.902 
   19100    296.84682   -1225.7803    319.10459    427.66902   -28.863534    37625.902 
   19200    291.01726      -1197.4    315.20838    425.94888    21.620561    37625.902 
   19300    305.49907   -1259.8644    309.40809    422.78082    -180.0305    37625.902 
   19400    288.42071   -1224.3157    321.70979    393.86293   -97.442085    37625.902 
   19500    298.80913    -1233.952    332.25825    441.47168    373.19804    37625.902 
   19600     303.6356   -1252.4765    322.63266    435.01691    389.91178    37625.902 
   19700    315.57965   -1231.8053    321.75032    508.49497    1139.1037    37625.902 
   19800    301.86321   -1198.1399    330.25986    489.01366    469.60976    37625.902 
   19900    287.91993   -1266.3899    324.10988    351.93784    121.84334    37625.902 
   20000    294.23524   -1267.9958    325.87711    380.48685    134.70608    37625.902 
   20100    309.84504    -1219.275    306.29841    479.79595    660.19542    37625.902 
   20200    309.82708   -1239.1833    324.33654    477.84501    268.88225    37625.902 
   20300    298.35596   -1193.8285    321.59428    468.89419     446.8295    37625.902 
   20400    291.47834   -1225.2313    327.19495    412.17673    75.401527    37625.902 
   20500    301.86077   -1227.3841    329.12261    458.62129    333.58418    37625.902 
   20600    303.08829   -1236.6248    297.97909    423.75482    628.99998    37625.902 
   20700    296.88585   -1202.1631    313.09319    445.45024    205.19824    37625.902 
   20800     295.7953   -1222.8735    349.41338    456.15793    7.9186831    37625.902 
   20900    290.42571   -1212.2925    299.31532    392.50431     120.9188    37625.902 
   21000    303.64617   -1246.7932    313.53513     431.6502     210.9022    37625.902 
   21100    303.15036   -1239.5558     353.5157     476.6394   -212.95082    37625.902 
   21200    303.99711   -1254.7004     313.4091    425.19446   -90.452141    37625.902 
   21300    297.63599   -1261.4052    336.27631    412.76322   -384.45887    37625.902 
   21400    298.97606   -1273.3223    334.70105    405.29457    344.17063    37625.902 
   21500    300.46134   -1215.5491    311.19825    446.24136   -558.11606    37625.902 
   21600     300.5247   -1233.3737    335.24328    452.74662   -158.20908    37625.902 
   21700    296.17065   -1231.1973    331.90816     432.0162    391.23178    37625.902 
   21800    305.41442    -1241.914     331.4541    462.39669    563.30375    37625.902 
   21900    301.97152   -1236.5901    312.05683    432.84734     401.2205    37625.902 
   22000    302.49768   -1221.3115    330.94617    469.38033    561.95175    37625.902 
   22100    299.48794   -1247.0677    343.44551    442.59454    600.56339    37625.902 
   22200    301.44588   -1258.7719     335.3008    431.54671    687.55879    37625.902 
   22300    296.43713   -1268.9178    320.14379     383.7291    366.18078    37625.902 
   22400    306.71003   -1227.3311    319.18488     470.5342    655.48459    37625.902 
   22500    302.65266   -1250.1146    350.18399    460.51171    395.78841    37625.902 
   22600    301.88751   -1274.1075    329.47798     412.3734    307.84172    37625.902 
   22700     291.6644   -1284.4323     329.8289    356.44601   -81.268687    37625.902 
   22800    312.49187   -1286.1026    322.61526    441.18284    468.27708    37625.902 
   22900    311.06193   -1289.4287    322.26362    431.07741    355.81995    37625.902 
   23000    297.94047   -1255.6683    328.26559    411.85803      243.438    37625.902 
   23100    309.46916   -1223.1542    334.06533    501.99402    382.93136    37625.902 
   23200    297.23201   -1223.9851    354.47933     466.5704    40.831681    37625.902 
   23300    295.03649   -1217.8477    332.06711    440.42662    168.24192    37625.902 
   23400    304.62509   -1216.8337    338.74022    491.21503    233.19992    37625.902 
   23500    303.93123   -1243.8745    354.23339     476.5485   -7.1949988    37625.902 
   23600     302.7707   -1219.2327    349.93402    491.67424    470.06659    37625.902 
   23700    292.36719   -1228.3021    331.49179    417.39824   -40.829801    37625.902 
   23800    308.63603   -1228.4246    346.41021    505.32354    377.86511    37625.902 
   23900    299.07506   -1236.1225    347.88657    456.12487     125.3016    37625.902 
   24000    295.44433   -1212.5132    370.80041    486.32764    506.51389    37625.902 
   24100    292.73935   -1232.9187    333.79311    416.75584    268.15666    37625.902 
   24200    299.03402   -1237.0309    360.68799    467.83337    519.88488    37625.902 
   24300    300.99331   -1236.7941     355.7066    471.89595    396.49329    37625.902 
   24400     303.9054   -1259.7889    351.66975     457.9543    615.30514    37625.902 
   24500    300.23538   -1240.0522    358.19205    467.71641     368.2053    37625.902 
   24600    311.09789   -1246.1339    343.50218    495.77251    104.81865    37625.902 
   24700     298.8084   -1229.2838    339.17669    453.05501    89.132633    37625.902 
   24800    292.81558   -1254.0663    353.35397    415.51174   -362.57552    37625.902 
   24900    302.23988   -1240.4829    352.95166    471.05569   -312.77254    37625.902 
   25000    302.72851   -1286.4397    337.21673    411.56035   -510.78959    37625.902 
   25100     296.8573   -1260.6248    340.45416     414.2212   -425.14802    37625.902 
   25200    300.11494   -1255.2668    339.62132    433.38962    47.507123    37625.902 
   25300    298.49437   -1255.2086    339.53733    426.07932   -503.11133    37625.902 
   25400    301.00171   -1257.0711     347.1624    443.11254   -692.66832    37625.902 
   25500     305.1025   -1287.5448    358.60878    442.51844   -602.35254    37625.902 
   25600      300.901   -1239.7774    346.65537    459.44643   -164.20622    37625.902 
   25700    297.27586   -1259.9937    347.70162    423.98122   -156.29103    37625.902 
   25800     298.4619    -1293.791    340.43166    388.24529    57.099869    37625.902 
   25900    300.41829   -1320.6561     362.6236    392.36618    267.74663    37625.902 
   26000    295.97903   -1327.3999    342.44507    345.48915    82.915078    37625.902 
   26100    295.08645   -1297.9804    343.75262    372.20403    456.95953    37625.902 
   26200    306.42983   -1322.5086    346.48835    401.40063    487.05697    37625.902 
   26300    298.14367   -1261.9403    356.00001    434.23387    350.37619    37625.902 
   26400     292.6307   -1283.3105     360.5197    392.60223    764.90592    37625.902 
   26500    303.03304   -1290.5532    358.97226     430.5712     158.1778    37625.902 
   26600    302.95558   -1296.9152     360.0249    424.91371     340.3487    37625.902 
   26700    297.28294   -1275.5997    358.89643    419.60178    397.85974    37625.902 
   26800    290.26605   -1285.9604    361.61719    380.42055    136.74337    37625.902 
   26900     304.3964   -1243.1497    380.59138    505.72223    694.87145    37625.902 
   27000    293.34994   -1268.5572    364.50537    414.57425   -76.721644    37625.902 
   27100     297.0836   -1258.8152    370.41071    447.00452    18.587758    37625.902 
   27200    288.41776   -1279.3649    365.55466    382.64539   -145.27104    37625.902 
   27300    304.11676   -1291.3416    374.80167     450.4836    469.03207    37625.902 
   27400    301.68797   -1272.5726    352.07527    435.60867    591.82919    37625.902 
   27500    291.23114   -1310.9041     369.1642    367.36204    638.82771    37625.902 
   27600    300.35033   -1278.1341    346.10982    418.06895   -94.428069    37625.902 
   27700    293.88592   -1304.4063    358.40129    375.03031   -360.77536    37625.902 
   27800    299.45553   -1297.4856    359.56285    408.14826    614.51477    37625.902 
   27900    307.91686   -1318.8999     358.2264    423.43171    179.90773    37625.902 
   28000    308.62181   -1272.7258    355.61193    470.16014   -362.46285    37625.902 
   28100    295.67102   -1250.8762    362.48924    440.67245    40.575328    37625.902 
   28200    300.81603   -1218.8714    380.32263    513.63783    90.171314    37625.902 
   28300    292.12715   -1238.4942    369.54878    444.18412    284.75348    37625.902 
   28400    293.20787   -1278.5085    355.74797    395.22694    339.41231    37625.902 
   28500    301.69108   -1293.3953    364.00388    426.72849    403.25382    37625.902 
   28600    297.85998    -1238.817    379.71169    479.79369    8.9766862    37625.902 
   28700    293.86228   -1279.4982    366.93751    408.36831   -491.90966    37625.902 
   28800    295.49169   -1201.0138    387.09492     514.3344   -45.076078    37625.902 
   28900    300.99659   -1220.1616    358.24077    491.07736    -665.0543    37625.902 
   29000    304.54233   -1293.9235    368.46585    443.47892    211.09761    37625.902 
   29100    295.07057   -1276.7403    367.79081    417.41092    94.270555    37625.902 
   29200    297.27926   -1255.6363    370.05391    450.70621    170.01621    37625.902 
   29300    300.96057    -1259.389    355.56024    449.00751    543.89525    37625.902 
   29400    300.81486   -1231.1764    388.57065     509.5756    356.73923    37625.902 
   29500    305.00034   -1225.6498    373.13771    518.48325    1.3047304    37625.902 
   29600    296.26084   -1204.3714    378.06043    505.39973   -176.84013    37625.902 
   29700    306.05366   -1273.9311    352.93898    454.73791   -344.12866    37625.902 
   29800    298.48602   -1254.1253    356.63715    444.22491    207.83095    37625.902 
   29900    306.15604   -1258.3759    358.79346    476.60783    3.2441498    37625.902 
   30000     287.6419   -1261.3676    366.22101    397.82144    54.401573    37625.902 
   30100    307.67139   -1285.0154    376.37375    474.36017    67.059704    37625.902 
   30200    306.17546   -1270.3321    366.06778    472.01316    309.58167    37625.902 
   30300    306.62043   -1298.6541    358.29367    437.91729    201.52845    37625.902 
   30400     294.0247   -1287.4007    345.92288    380.18128    289.09109    37625.902 
   30500    306.17324   -1285.2889    366.34565     457.3243    361.02746    37625.902 
   30600    305.86906   -1299.0615    355.24214    431.08094    561.00823    37625.902 
   30700    301.21473   -1317.8801     349.6168     385.7155    82.367122    37625.902 
   30800    301.06776   -1262.8176    359.62563    450.12617   -39.525933    37625.902 
   30900    306.56004   -1252.0003    383.69059    509.69654      231.809    37625.902 
   31000    301.02627    -1274.106    362.99565    442.02122    260.49202    37625.902 
   31100    298.19269   -1294.9078    382.19728    427.68394    683.47315    37625.902 
   31200    294.91795   -1329.3628    371.56401    367.87552    360.13339    37625.902 
   31300    295.77396   -1316.9601    374.24601    386.80812    532.09249    37625.902 
   31400    307.65055    -1304.295    357.81332    436.42649    666.45515    37625.902 
   31500    301.62483   -1340.4219    377.28832    392.68862    811.68555    37625.902 
   31600    301.91387   -1313.6174    367.77098    411.27498    232.68449    37625.902 
   31700    296.94585   -1296.2711     348.4707     386.9895    -91.29105    37625.902 
   31800    302.58753   -1334.9148    339.49711     364.7319   -144.48757    37625.902 
   31900    300.62385    -1315.495    361.85932    397.68709   -185.78003    37625.902 
   32000    306.13414   -1392.1853    352.07777    335.98425   -157.57853    37625.902 
   32100    298.18695   -1328.4072    359.10168    371.06319   -277.39767    37625.902 
   32200    293.78676   -1319.5849    362.87724    363.88193   -121.51039    37625.902 
   32300    301.67866   -1283.3605    373.14296    445.84658    398.22237    37625.902 
   32400    301.78979   -1313.3641    380.64859    423.84818    629.92331    37625.902 
   32500    298.79079   -1310.3288    387.28459    420.03878    987.72937    37625.902 
   32600    300.96702   -1304.3625    354.91464    403.41742    656.40598    37625.902 
   32700    299.17327   -1311.6409    348.20576    381.36713    543.90832    37625.902 
   32800    302.09025   -1267.5309    384.69295    475.07628    315.08333    37625.902 
   32900    307.05484   -1302.6611    366.10623    443.67555   -55.437846    37625.902 
   33000    305.32259   -1304.2044    363.07913    431.31859    368.51921    37625.902 
   33100    291.73247   -1310.5846      353.965    354.73584    351.73027    37625.902 
   33200    310.29273   -1351.2961    378.98893    422.47774   -85.550354    37625.902 
   33300    300.65803   -1308.5971    365.36046    408.23967   -342.20421    37625.902 
   33400    296.78649   -1323.5893    362.15869    372.64299   -6.5877844    37625.902 
   33500    297.19984   -1308.9211    364.93013    391.94061    423.34547    37625.902 
   33600    298.65016   -1302.7685    383.79798    423.48033    447.63021    37625.902 
   33700    306.82099   -1304.4813    402.47561    477.17358    302.38433    37625.902 
   33800    300.48293    -1296.239    379.36861    433.81885     526.2835    37625.902 
   33900    288.80717   -1307.1689    417.01824     408.0553   -140.53631    37625.902 
   34000    305.88719   -1293.4399    383.96453    465.50643    219.95686    37625.902 
   34100    295.39261   -1306.6447    380.29133    401.45464    391.45209    37625.902 
   34200    300.23191    -1336.469    411.28668    424.37861    927.09939    37625.902 
   34300    298.78002   -1346.8038    380.60008     376.8309    872.71962    37625.902 
   34400    296.59471   -1356.9811    374.54187    350.77227     858.5457    37625.902 
   34500    302.23057   -1348.0464    384.85746    395.35613    842.18266    37625.902 
   34600    304.47497   -1351.4561    378.90407    396.08163    713.00019    37625.902 
   34700    302.31826   -1319.6945    388.43813    427.68287     783.7804    37625.902 
   34800    305.60978   -1311.2177    385.10879    447.62591    570.47976    37625.902 
   34900    304.84472   -1301.8757      364.956    433.37606    167.03501    37625.902 
   35000    302.37258    -1319.123    377.21101    417.27138    164.05551    37625.902 
   35100    301.50512   -1273.4385    396.91062     478.7562   -33.183549    37625.902 
   35200    298.16773   -1302.7853    371.42038    408.91739   -210.56408    37625.902 
   35300    303.11755   -1273.3267    415.30244    504.50778    -58.28213    37625.902 
   35400    291.18349   -1255.5652     384.0566    437.37912   -497.32494    37625.902 
   35500    297.62822   -1262.9577    376.00136    450.90084    168.24936    37625.902 
   35600    296.78468   -1239.0745    366.25162    461.24253    136.14344    37625.902 
   35700    304.75081   -1301.6574     368.5117    436.72791    314.92367    37625.902 
   35800    302.98583   -1282.6581    405.27196     484.5538   -247.40766    37625.902 
   35900    304.08617   -1302.0412    377.38594    442.23077    197.91645    37625.902 
   36000    299.37222   -1302.4455    394.78893    438.04001    68.260139    37625.902 
   36100    300.31864     -1287.79    375.87752    438.03828    248.78559    37625.902 
   36200     306.0293   -1293.7403    388.57188    470.45215    421.92116    37625.902 
   36300    302.78681   -1307.5133    375.78703    429.31907    11.277486    37625.902 
   36400     305.2014   -1270.4708    381.51749    482.94581    218.30197    37625.902 
   36500    295.95305   -1317.0707    367.57599    380.83246   -91.647156    37625.902 
   36600    297.94772   -1327.9395    376.53311    387.88701     328.0616    37625.902 
   36700    299.12738   -1325.9237    378.64629    397.31858     380.1016    37625.902 
   36800    298.84534   -1312.4447    384.30496    415.18848    465.79909    37625.902 
   36900    304.07534    -1334.587    379.80959    412.05994    49.838988    37625.902 
   37000    308.49738   -1312.6468    383.92982    457.99771    297.38539    37625.902 
   37100     297.6979   -1338.6908    383.31648    382.79609    629.41113    37625.902 
   37200    298.23206   -1349.3537    386.86675    378.08454    426.56874    37625.902 
   37300    302.20406   -1341.6732    402.69078     419.4434    315.26215    37625.902 
   37400    302.52442    -1342.522    370.69194     388.0358    403.31238    37625.902 
   37500      305.732   -1311.9973    395.26707    457.55395    296.06573    37625.902 
   37600    298.74253   -1356.8461    391.31396    377.33395   -194.05264    37625.902 
   37700    286.01322   -1332.7432    378.45054    331.35438   -151.10524    37625.902 
   37800    303.57177   -1329.7417    361.44256    396.27466    227.66146    37625.902 
   37900    307.26446   -1357.3995     382.8153    406.58847   -282.40266    37625.902 
   38000    294.79355     -1346.59    372.02652     350.5517   -82.202379    37625.902 
   38100    298.91316   -1379.6463    379.64015    343.62689    161.83744    37625.902 
   38200    293.16206   -1408.6501    392.88539    302.01684    494.11896    37625.902 
   38300    305.31032   -1416.1726    372.30776    328.52383    1038.5601    37625.902 
   38400    300.41751   -1415.9205    385.35682    319.83151    594.66974    37625.902 
   38500    310.14109   -1387.4665    363.35452    369.99128    358.46323    37625.902 
   38600    298.15258   -1380.0671    391.32496    351.47206    220.34062    37625.902 
   38700    304.29368   -1323.2593    394.55088    439.11037   -190.38379    37625.902 
   38800    303.90972   -1341.5716    381.84574    406.36709   -294.55028    37625.902 
   38900    298.69848   -1355.3879     398.6158    385.89601   -383.99632    37625.902 
   39000    299.67224   -1321.1944    389.22014     415.0709   -417.90222    37625.902 
   39100    292.79402    -1316.138    420.38671    420.37581   -394.13048    37625.902 
   39200    297.98907   -1342.1464     404.0804    401.41317     587.1861    37625.902 
   39300    293.57564   -1350.5813    407.12263    376.18195     319.3341    37625.902 
   39400    290.88761   -1366.8185    378.89396     319.6332    177.15338    37625.902 
   39500     300.0266    -1334.095    377.01796      391.561    470.45662    37625.902 
   39600    297.49696   -1336.9844    380.40713    380.68986    531.71495    37625.902 
   39700    298.67897   -1323.0248    394.28118    413.83673    987.00365    37625.902 
   39800    299.49192   -1266.3521    407.47823    487.36072    607.54309    37625.902 
   39900    294.13537   -1306.6163     421.8694    437.40965   -5.2133422    37625.902 
   40000      303.999   -1321.8853    396.82023    441.42919    27.755654    37625.902 
   40100    307.90659   -1320.3731    395.45754    459.14348    457.92687    37625.902 
   40200    296.76944    -1339.118    415.09395    409.97284    75.367381    37625.902 
   40300    302.55401   -1314.9917    394.69695    439.70409   -92.878114    37625.902 
   40400    297.28189   -1300.7408     405.4772    441.03681   -166.32584    37625.902 
   40500    291.15239   -1321.6554    392.74454    379.83705   -70.060372    37625.902 
   40600    297.68776   -1348.8614     379.0564    368.31985    36.024384    37625.902 
   40700    297.43725   -1321.0779    397.44253    413.36344   -320.52278    37625.902 
   40800    293.09119   -1297.7966    400.80132    420.46764   -57.053908    37625.902 
   40900    294.91044   -1298.6171    426.11241    453.13594    361.72953    37625.902 
   41000    302.24064   -1341.1888    399.38292    416.78437    401.92572    37625.902 
   41100    310.02427   -1322.3424    400.24182    471.47761    291.72977    37625.902 
   41200    290.90976   -1324.0292    390.73557    374.36365    124.37349    37625.902 
   41300    297.25326   -1313.9275    391.50478    413.74893   -54.610438    37625.902 
   41400     309.4268   -1342.9091    379.43453    427.41799    149.19176    37625.902 
   41500    297.07468     -1329.22    400.34307    406.49208   -20.347284    37625.902 
   41600    313.20908   -1303.4997    390.68216    495.07658   -128.96115    37625.902 
   41700    298.93945   -1326.9639    397.85514    414.64244    499.39521    37625.902 
   41800    295.97103   -1347.9397    422.46886    404.93713     470.5081    37625.902 
   41900    310.68584   -1391.4624    395.98215    401.07173    827.03274    37625.902 
   42000    294.02516    -1334.435    398.37111    385.59734    746.36054    37625.902 
   42100    305.70408   -1322.2329    388.68466    440.61046    948.63522    37625.902 
   42200    306.37718   -1339.5718    403.47799    441.09051    732.13844    37625.902 
   42300     304.4754   -1332.8866    393.71516    429.46426    545.75814    37625.902 
   42400    290.22787   -1325.9334    396.88159    375.54032    457.88927    37625.902 
   42500    311.26148   -1331.3193    411.58032    479.40052    319.62328    37625.902 
   42600    293.18807   -1327.1481    409.86687    400.61723    595.18073    37625.902 
   42700    289.09074   -1344.4725    376.45853    331.46672    357.86014    37625.902 
   42800    313.84371   -1334.4026    404.67275    481.01696    694.81013    37625.902 
   42900    297.87842   -1389.6095    374.59893     323.9713    278.36225    37625.902 
   43000    312.88495   -1340.1431    406.62037    472.91441    125.81384    37625.902 
   43100    295.96913   -1335.8219    391.21498    385.79257    411.82797    37625.902 
   43200    291.68502   -1359.7082    366.66235    318.09625    126.90054    37625.902 
   43300    301.96654   -1355.2982    422.22798    424.28803   -52.323187    37625.902 
   43400    306.92741    -1329.039    401.30007    451.91862   -6.9325055    37625.902 
   43500    306.36703   -1389.9816    398.29656    385.45359    38.364629    37625.902 
   43600    302.17661   -1391.9774    419.36932    385.69444   -32.624248    37625.902 
   43700    291.26592    -1355.686    392.80479    346.37707    136.28253    37625.902 
   43800    299.60417   -1349.1453    396.47173     394.0656    184.51699    37625.902 
   43900    296.68613   -1349.8598     393.6152    377.37778   -523.76672    37625.902 
   44000    311.70456    -1377.748    381.86528    405.24852   -125.31849    37625.902 
   44100    296.65435   -1313.8646    386.57893    406.19389   -95.906406    37625.902 
   44200    315.53781   -1381.0576    396.29193    433.59621   -167.74025    37625.902 
   44300    288.76289   -1361.7914    393.12795    329.34351    17.180772    37625.902 
   44400    297.75858   -1371.7267    407.46821    374.18469   -58.543869    37625.902 
   44500    315.09368   -1338.5774    402.47223    480.26031   -96.592357    37625.902 
   44600    303.91933   -1357.1366    408.52299    417.52253   -173.52623    37625.902 
   44700    295.04915   -1344.2399    404.51799    386.54213   -4.1010401    37625.902 
   44800    300.70965   -1306.0737    406.78307     452.4178    192.51209    37625.902 
   44900    310.04891   -1317.4949    388.70663    464.90067    152.92417    37625.902 
   45000    303.40603   -1320.0948    400.85608    444.59004    553.99922    37625.902 
   45100    306.64624   -1273.6349    402.11476    506.87356    489.59742    37625.902 
   45200    300.23518   -1342.3256    404.73201    411.98204    1.2285821    37625.902 
   45300    300.77613   -1344.1701    398.47393    406.31106    35.552033    37625.902 
   45400    305.69193    -1301.742    399.61544    471.97748    441.95403    37625.902 
   45500    304.93809     -1280.82    422.82028    512.71578    371.74283    37625.902 
   45600    295.03969   -1285.2679    422.94135    463.89502   -412.06496    37625.902 
   45700    308.14604   -1277.1831    416.00949    523.96179   -225.37048    37625.902 
   45800      297.393   -1338.3491    411.24462     409.6953   -168.43287    37625.902 
   45900    303.42633   -1318.0486    401.75983     447.6313    9.3102731    37625.902 
   46000    304.15827   -1287.9197    412.54678    491.83725    263.87203    37625.902 
   46100    298.78298   -1293.5679    408.58189    458.06191    326.52694    37625.902 
   46200     305.0055   -1327.0199      396.186    440.18463    467.46999    37625.902 
   46300    290.56954   -1372.5701    389.79599    323.35385     699.5222    37625.902 
   46400    309.86043   -1340.8979    404.32617    456.26993    798.16376    37625.902 
   46500    300.63123   -1292.9577    395.98528    454.38347    597.71059    37625.902 
   46600    301.78181   -1315.7011    418.18226    459.00903    34.267894    37625.902 
   46700    291.98437   -1301.2264    398.82345    410.08475    271.60168    37625.902 
   46800    296.62082   -1351.9625     397.2941     378.6605    226.17193    37625.902 
   46900    301.50322   -1336.8937    411.48893    429.87073   -559.17327    37625.902 
   47000     307.5634   -1385.5867    378.13516    375.06484    344.44901    37625.902 
   47100    304.15581   -1316.5497    401.59127    452.24067    345.59504    37625.902 
   47200    297.74663   -1307.4463    405.65675    436.59987   -221.30671    37625.902 
   47300    296.13876   -1311.6751    414.51937    434.00624     43.36297    37625.902 
   47400    297.09467     -1368.99    404.14927    370.61813    -383.4514    37625.902 
   47500    295.42781     -1372.14    415.77199    371.59816   -487.74208    37625.902 
   47600    305.15786   -1330.6534    408.12133    449.17122    -685.8487    37625.902 
   47700    296.73142   -1375.8371    396.32786    354.31676   -940.24232    37625.902 
   47800    303.38257   -1347.8679    401.48817    417.34363   -462.24234    37625.902 
   47900    295.06196    -1339.331    388.46532      375.456   -440.20369    37625.902 
   48000    292.21092    -1334.322    383.14007    362.32418   -272.01542    37625.902 
   48100    304.98459   -1348.8593    392.09675    414.16198    693.36164    37625.902 
   48200    295.48077   -1327.5936    425.68569    426.29635    588.86694    37625.902 
   48300    295.25483   -1352.7746    396.02665    370.44072    571.19588    37625.902 
   48400    300.04435   -1399.5606     404.9391    354.09631    419.00153    37625.902 
   48500    298.12244   -1373.5083    400.38173    366.95212   -37.464804    37625.902 
   48600    295.81549   -1379.3103    406.36678    356.76538   -214.65973    37625.902 
   48700    288.14113   -1409.6163    417.40689    303.00274   -57.631644    37625.902 
   48800    309.68209   -1409.5902    418.10225    400.55213    222.09014    37625.902 
   48900    305.45227   -1331.8889    420.29827    461.43609    91.200478    37625.902 
   49000    298.26034   -1335.2612    399.79602     405.2334    524.70502    37625.902 
   49100    300.83952   -1339.1755    411.68955    424.80617    224.10514    37625.902 
   49200     293.3724   -1363.1677    407.27613    362.83546    497.58882    37625.902 
   49300    295.31365   -1362.9036    426.24947    390.79892     193.0053    37625.902 
   49400    312.68132   -1348.3054    403.02953    460.24592    866.43229    37625.902 
   49500    289.12813   -1358.2308    422.29219    363.71014     84.15671    37625.902 
   49600    300.45188   -1327.9906    423.05118    445.61023    173.93862    37625.902 
   49700    299.80033   -1331.6607    418.59544    434.55564   -73.427446    37625.902 
   49800    302.37617   -1365.9041    415.47546     408.7709    381.49225    37625.902 
   49900    307.67902   -1376.4869    425.31749    431.86669    376.44618    37625.902 
   50000    300.60355    -1349.108    410.52656    412.64999    270.74744    37625.902 
   50100    304.21864   -1365.8896    407.95613    409.54809    73.699844    37625.902 
   50200    305.52394   -1378.7869    432.35418    426.91619    247.74877    37625.902 
   50300    302.88987   -1375.9894    435.44648    420.96569    239.30159    37625.902 
   50400    297.78901   -1378.4315    411.87012    372.01858   -82.495007    37625.902 
   50500    305.82538   -1366.8867    423.16061    430.97777   -460.86286    37625.902 
   50600    291.00965   -1310.2764    410.51419    408.34412   -397.71694    37625.902 
   50700    296.13335   -1306.8762    413.25847    437.51984    -140.8599    37625.902 
   50800     308.6936   -1351.0577     401.1004    437.63948    40.195686    37625.902 
   50900    296.63957   -1341.4842    445.55045    437.47937   -156.48569    37625.902 
   51000    297.33039   -1354.5611    412.81037    394.76762    101.27771    37625.902 
   51100    288.86064   -1379.5362    404.37199     323.2821   -356.24212    37625.902 
   51200    314.03474   -1361.6473     415.3184    465.27653    516.32403    37625.902 
   51300    293.89258   -1353.6096    431.81131    399.26696    857.24609    37625.902 
   51400    299.06167   -1339.9216    425.76031    430.13933    72.899449    37625.902 
   51500    287.46425   -1345.6951     427.2301    373.70447    438.43687    37625.902 
   51600    306.47136   -1330.7465    402.82622    449.68733    263.92842    37625.902 
   51700    303.01301   -1327.5876    422.50059    456.97506    84.212581    37625.902 
   51800    295.54733   -1346.8975    424.24893    405.85485   -453.49844    37625.902 
   51900    306.05159   -1316.9051    422.18832    481.00396   -479.03127    37625.902 
   52000    294.92261   -1320.2917    421.66505    427.06866   -601.28395    37625.902 
   52100    288.32643   -1380.6727    417.77061    333.14299   -860.04813    37625.902 
   52200    300.28487   -1384.1754    405.21969    370.84328   -296.89923    37625.902 
   52300    303.01224   -1409.8982    401.54619    353.70664    55.133655    37625.902 
   52400     294.0149   -1397.0146    407.30325    331.90367    321.57118    37625.902 
   52500    294.15975   -1400.1322    430.46888    352.60286     818.0974    37625.902 
   52600     303.4268   -1391.8625    435.12746    407.18708    794.80687    37625.902 
   52700    297.00589   -1414.3046    410.80597     331.5611    641.34932    37625.902 
   52800      293.262   -1381.5988    397.16224    333.79416    583.93248    37625.902 
   52900    296.74987   -1399.3691    407.95289    342.49277     402.1771    37625.902 
   53000    303.88008   -1402.3521    425.03428    388.64183    248.05363    37625.902 
   53100    298.80745   -1394.6548    426.57381    375.07695    55.203232    37625.902 
   53200    309.76808   -1382.9181    425.08793    434.59641   -356.08988    37625.902 
   53300    306.31149   -1387.1318    419.47349    409.23076   -296.35676    37625.902 
   53400    299.31439    -1395.012    406.79802    357.22261   -118.33106    37625.902 
   53500    304.12342    -1472.709    427.89996    322.24446    84.787116    37625.902 
   53600    309.09892   -1378.7375     419.5973     430.2785     374.5106    37625.902 
   53700    303.73443   -1401.4338     420.0759    383.94712    47.419342    37625.902 
   53800    294.70999   -1448.1514    433.24404    309.83218   -1.3797193    37625.902 
   53900    299.33105    -1415.479    418.35236    348.38486    323.16294    37625.902 
   54000    292.84528   -1438.2612     410.5685    288.66487    323.01863    37625.902 
   54100    307.66919   -1448.2802    439.94438    374.65611    533.74477    37625.902 
   54200    304.14693   -1438.6753    426.01758    354.50141    157.35579    37625.902 
   54300    300.44441   -1450.3703    432.86322    333.00908    475.25752    37625.902 
   54400    292.85389   -1435.2442    426.62407    307.77607   -34.935311    37625.902 
   54500     316.6297    -1442.376    394.61547    375.50945    501.16478    37625.902 
   54600    308.43877   -1422.4414    420.78245    384.79235    350.47479    37625.902 
   54700     303.1657   -1460.2364    416.64173    319.15383    102.47898    37625.902 
   54800    311.49143   -1442.6472    403.84346     361.3694    23.538484    37625.902 
   54900    304.79568   -1407.2646    416.11213    378.92287   -32.089805    37625.902 
   55000    308.69661   -1383.0348    409.93833     414.5138   -331.68493    37625.902 
   55100    300.65966    -1409.378    413.32103    355.42672   -390.65557    37625.902 
   55200    300.92314   -1420.4512    429.71734    361.93418   -541.14301    37625.902 
   55300    296.77909   -1464.3712    414.24969    283.91871    396.36516    37625.902 
   55400    287.80675   -1456.4242    424.24116    261.52599     591.6578    37625.902 
   55500    300.98724   -1443.0033     420.7423    330.69522    846.58774    37625.902 
   55600    296.13565   -1413.1141    432.97086    351.00474    232.81972    37625.902 
   55700    294.31229   -1425.3589    420.75644    318.34942   -75.400011    37625.902 
   55800    289.73434   -1405.5585     437.7844    334.59962   -162.28014    37625.902 
   55900    301.42916   -1425.0739    422.04502    351.91372   -169.18457    37625.902 
   56000     295.7744   -1413.9057    411.63876    327.25721   -517.99607    37625.902 
   56100    298.27554   -1422.8767    418.66392    336.55413   -643.54485    37625.902 
   56200    296.14373   -1403.2487    420.20147    348.13707   -410.03276    37625.902 
   56300    301.68727   -1445.8948    423.32033    333.52834   -596.04721    37625.902 
   56400    298.35771   -1406.8186    427.82842    362.14614    247.39126    37625.902 
   56500    292.00149   -1408.6506    439.76349    343.67757    344.01257    37625.902 
   56600    313.98579   -1395.3284    422.88463    438.94167    913.95534    37625.902 
   56700      303.372   -1425.8574    429.87198     367.6904    449.63688    37625.902 
   56800    304.29748   -1413.1045     447.0418    401.77323    191.61799    37625.902 
   56900    295.70084   -1383.0252    433.58293    379.75115    733.63715    37625.902 
   57000      303.457    -1438.268     415.0979    340.88785    509.74428    37625.902 
   57100    296.98028   -1394.8013    437.22664    377.36997    404.01131    37625.902 
   57200    299.03377   -1438.8376    452.86378    358.20143    444.65671    37625.902 
   57300    299.76343   -1458.2174    427.34842    316.58612    716.85181    37625.902 
   57400    299.53968   -1443.3754    430.28164    333.35549   -45.407107    37625.902 
   57500     290.6089   -1414.9522     414.5438    305.89651    426.92015    37625.902 
   57600    295.59202   -1412.0105    434.32135    351.01517    15.889856    37625.902 
   57700    294.06923   -1434.1197    408.49276    296.23232    381.78356    37625.902 
   57800    295.65611    -1371.336    445.10162    402.75808   -67.391178    37625.902 
   57900    301.80234   -1398.2946    417.09773    375.42319    275.74346    37625.902 
   58000    293.55537   -1430.0922    425.70643    315.16371    139.96181    37625.902 
   58100    295.71554   -1420.7954    418.21976    326.68393    264.92531    37625.902 
   58200    302.54521   -1394.0933    429.14909    395.01516    193.98651    37625.902 
   58300    305.43939   -1435.4163     404.1059     341.6584    334.64561    37625.902 
   58400    313.46955   -1417.8407    413.36743    404.59168    148.29574    37625.902 
   58500    303.14785   -1410.0053    418.06677    370.72973    273.22784    37625.902 
   58600     301.4655   -1435.0996    410.82452    330.83086    205.26515    37625.902 
   58700    301.40286   -1392.1423    419.58445    382.26652    1006.8502    37625.902 
   58800    302.66469   -1390.3024    398.92927    369.12332    446.70285    37625.902 
   58900    298.55803   -1390.8895    400.86287    352.01009    168.91169    37625.902 
   59000    291.10628   -1394.8103    451.69598    365.42634    207.94505    37625.902 
   59100    303.35214   -1392.4767    444.21679    415.32669   -63.206905    37625.902 
   59200    293.08773   -1384.0826    440.77227    374.13703    -165.3845    37625.902 
   59300    289.31771   -1378.2688    424.86157    347.09365    119.12292    37625.902 
   59400    312.92478   -1357.2963     411.8568    461.17665    133.00963    37625.902 
   59500    303.74999   -1396.0552    425.56242    394.88209    865.12412    37625.902 
   59600    303.10984   -1399.7924    434.37768    397.08272    750.61831    37625.902 
   59700       294.23   -1404.4002    427.42163    345.60338   -321.94832    37625.902 
   59800    304.94452   -1417.5989    428.05599    381.20148    129.70564    37625.902 
   59900    299.08552   -1430.1601    425.97446    340.22224    114.17043    37625.902 
   60000    307.57881   -1427.9746    424.34931    378.96039    12.395942    37625.902 
   60100     304.5848   -1379.8123    443.34812    432.66329   -642.53105    37625.902 
   60200    299.68598   -1410.8607    398.96471    335.21097   -704.68056    37625.902 
   60300    304.92429   -1360.5569    451.76782    461.86439   -830.60856    37625.902 
   60400    303.87258   -1382.8862    405.13444    388.17423    125.04878    37625.902 
   60500    298.56291   -1411.6919    425.93763    356.30436   -433.02297    37625.902 
   60600    298.22529   -1413.6192    448.64299    375.56488   -157.69845    37625.902 
   60700     301.9611   -1398.0292    441.95804    401.26257    144.83542    37625.902 
   60800     283.6259   -1449.4146     408.7506    234.25187    5.1410024    37625.902 
   60900    300.48244   -1429.0538    418.12278    339.75602   -179.50238    37625.902 
   61000    295.54567   -1453.9534    421.38861    295.93117    -193.3465    37625.902 
   61100    303.20502    -1445.989    426.59236    343.52859   -33.963372    37625.902 
   61200    293.82379   -1382.7056     428.4459    366.49631    469.37395    37625.902 
   61300    290.95097   -1403.4536    426.30138    330.69031    648.83739    37625.902 
   61400    302.06603   -1413.2294    428.87351     373.4495     1185.728    37625.902 
   61500    291.03016   -1394.1114    434.50588    348.59292    1332.1773    37625.902 
   61600    305.85841    -1407.739    409.39274    376.50614    406.25154    37625.902 
   61700    288.64785   -1371.3921    463.87562    389.97338    605.38663    37625.902 
   61800    302.05012   -1374.8412    439.04771    421.94042    331.01037    37625.902 
   61900    303.41486    -1383.561    442.90078    423.20823    -240.9801    37625.902 
   62000     302.2882   -1387.8559     427.3769    398.32501   -288.16393    37625.902 
   62100    303.67864   -1427.8509    442.16682    379.37005    721.95905    37625.902 
   62200    298.98487   -1436.4096    427.53709    335.08284    699.76286    37625.902 
   62300    304.51867   -1416.4517    420.72666    373.10512    280.75411    37625.902 
   62400    309.50665    -1453.421    428.57528    366.40571    525.43332    37625.902 
   62500    288.34887   -1441.6288    442.55376    297.07089    916.43495    37625.902 
   62600    297.56323   -1451.1398    421.52292    307.94816    438.88767    37625.902 
   62700    299.83129   -1481.5633    430.91156    297.10833    518.90874    37625.902 
   62800    308.68967   -1454.4268    404.47981    337.63209    220.92054    37625.902 
   62900     302.7943   -1470.1101    418.19524     309.1641    277.98416    37625.902 
   63000    301.12405   -1433.6048     424.0889    344.05524   -249.68758    37625.902 
   63100    314.15201   -1411.2359    415.86624    416.76297   -160.41069    37625.902 
   63200    290.49603   -1416.2311    424.13621    313.70268    -229.3408    37625.902 
   63300    294.70023   -1418.4933    422.89861      329.101   -692.87652    37625.902 
   63400    298.01835   -1380.9927    412.28115    370.89933    -308.1742    37625.902 
   63500    303.94836    -1351.268    436.12859    451.12714   -262.25766    37625.902 
   63600    304.35742    -1386.826    435.64221    416.92155   -306.98997    37625.902 
   63700    292.55301   -1387.0472    406.38441    334.38096    99.771972    37625.902 
   63800    299.67806      -1446.3    423.81515    324.58651    238.03236    37625.902 
   63900    302.57346   -1411.8439    437.70598    385.94842     93.95119    37625.902 
   64000     306.0749   -1412.8246    441.40601    404.40692    39.275328    37625.902 
   64100    291.09046   -1431.6548    443.47598    320.29069   -371.55348    37625.902 
   64200      298.608   -1395.6089    422.12761    368.78005    5.1589738    37625.902 
   64300    303.50752   -1407.1301    425.68191    382.83681   -587.96963    37625.902 
   64400    300.00984   -1391.3533     452.8361    410.04555    14.374886    37625.902 
   64500    302.29509    -1426.044    418.91213    351.70315   -116.44416    37625.902 
   64600    297.23806     -1421.14    417.52475    332.48816   -223.92974    37625.902 
   64700    303.59641   -1414.6941    415.42228    365.41266   -193.73897    37625.902 
   64800    301.67179   -1437.7089    424.52744    342.85184     455.0062    37625.902 
   64900    301.98098   -1434.3575    433.50946    356.57502    434.95955    37625.902 
   65000    305.75481   -1412.6529    433.35162    395.08542    714.24682    37625.902 
   65100     309.1422   -1446.2048    406.60742    350.01579    647.41144    37625.902 
   65200    304.34429   -1415.9293    442.75271    394.86969    375.48151    37625.902 
   65300    300.42265   -1448.6443    434.98542    336.75939    818.03719    37625.902 
   65400    302.80131   -1421.6144     428.2472    367.74329    767.66343    37625.902 
   65500    299.97484   -1418.1756    429.77349    360.00324    159.93498    37625.902 
   65600    298.36985   -1401.0261    413.60744    353.77219    270.06095    37625.902 
   65700    291.95025   -1436.2992    416.50516    292.54028   -108.81005    37625.902 
   65800    311.94357   -1403.4877     439.6334    438.35124    480.99779    37625.902 
   65900    290.04991   -1376.4039    434.28672      361.675   -78.555031    37625.902 
   66000    307.25777   -1420.4822    432.04107    392.70145   -361.28419    37625.902 
   66100    308.95539   -1420.2955    412.16274    380.64078   -368.29172    37625.902 
   66200     298.9843   -1381.6634    411.54596    373.83535   -644.06111    37625.902 
   66300     294.5655     -1412.17    420.52843     332.4485    -843.0062    37625.902 
   66400    310.30414   -1411.9895    405.29524    388.14198   -218.72952    37625.902 
   66500    304.64988   -1406.1228    434.44906    397.74629   -441.65832    37625.902 
   66600     314.4992   -1407.9418    431.30373     437.0552    2.7002761    37625.902 
   66700    304.92532   -1412.8293     415.9004    373.72919    360.89563    37625.902 
   66800    309.10457    -1404.908     427.1607    411.69683    962.19924    37625.902 
   66900    295.11396   -1407.9542    412.63777    331.23902    536.11697    37625.902 
   67000    293.33325   -1442.8951    420.54426    296.20015     465.5719    37625.902 
   67100    292.92219   -1419.3281    446.20192    343.57712      654.069    37625.902 
   67200    302.31266   -1442.0404    442.26859    359.14216    939.36073    37625.902 
   67300    304.36358   -1403.3686    431.31228    396.07666    691.41376    37625.902 
   67400    301.98847    -1441.431    398.46567    314.49138    2.7063135    37625.902 
   67500    297.93487   -1415.0071    415.49049      339.719    337.38509    37625.902 
   67600    295.35963   -1408.0453    415.17657    334.79097    628.38102    37625.902 
   67700     305.1076   -1425.5742    438.69528    384.59856    -70.24933    37625.902 
   67800    303.49652   -1419.9699    435.25768    379.52328     540.2153    37625.902 
   67900    289.78376   -1413.1129    410.07528    299.55824   -429.41018    37625.902 
   68000     298.7632   -1391.2283    427.08385    378.81453   -262.98536    37625.902 
   68100    303.02963   -1444.9245    432.30757    349.51988    -98.71465    37625.902 
   68200     297.8862   -1379.7534    443.55208    402.81551      405.683    37625.902 
   68300    303.51878   -1435.5832    433.73739    362.48984     494.9518    37625.902 
   68400    299.09335   -1405.5971    444.14231    382.98818    376.05719    37625.902 
   68500     295.8864    -1435.231    439.66322    334.45979   -303.59342    37625.902 
   68600    309.36056    -1403.505    412.37332    399.46313    491.34199    37625.902 
   68700    303.48637   -1414.9494    438.07249      387.313   -34.072535    37625.902 
   68800    307.86955   -1425.5149    420.21432    378.59203    -52.04753    37625.902 
   68900    291.73985   -1428.8426    396.50279     279.0488   -5.2838281    37625.902 
   69000    302.52081   -1422.4059    409.66634    347.11013    576.24167    37625.902 
   69100    297.49946   -1401.0839    421.52846    357.72297    787.52201    37625.902 
   69200    288.94075   -1386.0055    446.09896    358.89988    163.88772    37625.902 
   69300    314.32658   -1437.2527    416.32957    391.99418    271.12087    37625.902 
   69400    308.00188   -1422.0139    442.85951      405.333   -52.667805    37625.902 
   69500     302.7846   -1410.1046    425.16323     376.0941    195.93848    37625.902 
   69600    301.85378   -1412.0768    418.93494    363.70942    -108.0782    37625.902 
   69700    304.51661   -1440.6283    419.78719    347.97977     52.96176    37625.902 
   69800    291.93525    -1441.957    431.19571    301.50564    275.11619    37625.902 
   69900     297.9731   -1458.1065    417.49947    298.80039   -227.45569    37625.902 
   70000     299.9102   -1446.3558    425.68434    327.44337   -16.810755    37625.902 
   70100    304.25478   -1485.4867    421.79519    303.95245    61.779067    37625.902 
   70200    303.56201   -1456.6782    426.19551    334.04724    273.35645    37625.902 
   70300    295.09323   -1456.5361    422.60182    292.52798     138.8674    37625.902 
   70400    307.75007   -1405.4888    443.36803    421.23474    190.65189    37625.902 
   70500    293.94976   -1406.5446    421.88849    336.66616   -100.22131    37625.902 
   70600    308.78975   -1376.9672    445.68861    456.75033     174.1425    37625.902 
   70700    306.80241   -1418.3568    442.56748    403.30645   -254.61367    37625.902 
   70800    302.06875   -1399.5998    439.96892    398.18675    368.25534    37625.902 
   70900    295.56728   -1388.4054    425.83987    366.02764     263.5856    37625.902 
   71000    301.42085   -1441.6101    420.90828    334.20344   -571.98996    37625.902 
   71100    303.69587   -1442.1556    438.84017    361.81622   -221.76193    37625.902 
   71200    295.70562   -1466.1003    421.12289    284.23755   -7.9613958    37625.902 
   71300    293.19411   -1456.7452    404.20094    265.38131   -305.19023    37625.902 
   71400    307.82305   -1387.2435     412.3603    408.80042   -40.097944    37625.902 
   71500    291.98485    -1403.736    430.64512      339.399   -304.83173    37625.902 
   71600    301.14471    -1384.329    455.64737    424.98238   -419.31072    37625.902 
   71700     305.7758    -1436.944    412.56285    350.09984   -497.95719    37625.902 
   71800     294.2718   -1403.2313    432.14216     351.6807   -78.032206    37625.902 
   71900     297.8295   -1368.4668    456.42634    426.72153    -583.1906    37625.902 
   72000    297.38915   -1391.6545      422.296    367.42405    155.08331    37625.902 
   72100    301.10547   -1399.8509    430.71595    384.35265    -123.4893    37625.902 
   72200    299.30597    -1418.676    448.46031    375.18307   -320.58489    37625.902 
   72300    306.34716   -1397.8579    441.34149    420.53298   -136.95038    37625.902 
   72400    293.53987   -1383.8624    463.54923    399.16664    340.25713    37625.902 
   72500    297.76608   -1374.7072    457.57877    421.34844     386.5299    37625.902 
   72600    301.13279   -1438.4752    445.12622    360.26142    360.78217    37625.902 
   72700    295.13906   -1458.5577    440.05137     308.1619   -51.976267    37625.902 
   72800     305.7521   -1446.6088    428.42999    356.19568   -14.950207    37625.902 
   72900    297.84149   -1430.1466    444.79565     353.4649     27.69118    37625.902 
   73000     299.2033   -1445.4913    440.91795    340.36388    21.750665    37625.902 
   73100    311.03891   -1471.6384    421.47516    347.97579    45.493654    37625.902 
   73200    293.49944   -1436.7803    444.51452    327.03227    314.74222    37625.902 
   73300     306.7146    -1466.669    450.83335    362.86533    824.30188    37625.902 
   73400    297.33612   -1427.0094    467.50579    377.04059    518.94111    37625.902 
   73500    292.03378   -1419.2625    444.29437    337.74174    283.19563    37625.902 
   73600    301.72322   -1430.1822    415.56508    341.64731    -175.2213    37625.902 
   73700    303.22719   -1407.7319    464.38746    419.68043   -24.669534    37625.902 
   73800    304.17731   -1434.8392    444.35152    376.80809    200.60211    37625.902 
   73900    298.89053   -1423.0752    451.63354    372.08971    31.486043    37625.902 
   74000    300.51777   -1412.5435    442.11254     380.4149    90.733353    37625.902 
   74100    301.00525   -1381.1863    437.65314    409.50391    182.70784    37625.902 
   74200    294.59995   -1393.2457    451.30338    382.30264    211.49202    37625.902 
   74300    318.25437   -1392.9845    437.72899    475.31753    511.56073    37625.902 
   74400    309.03602   -1416.1113    429.56192    402.58654    560.40694    37625.902 
   74500    311.38138   -1433.4138    438.06909     404.3338    583.65827    37625.902 
   74600    291.18306   -1398.2611     441.9098    352.53446    946.42187    37625.902 
   74700    301.49716   -1431.3154    439.70625    363.63913    323.15042    37625.902 
   74800    307.53832   -1440.8029    454.19835    395.79915    93.871283    37625.902 
   74900    305.23554   -1452.2659    451.19106    370.97766    171.31129    37625.902 
   75000    303.40788   -1428.9978     454.4533    389.29263   -605.34816    37625.902 
   75100    301.41968   -1412.3366    436.77649    379.33986   -218.91317    37625.902 
   75200     296.2186   -1391.4728    464.26436    404.31243   -88.572075    37625.902 
   75300    307.68502     -1438.54    449.62204    394.14513    70.204481    37625.902 
   75400    298.21367    -1404.829    455.19655    390.85631   -310.89804    37625.902 
   75500    299.25865   -1423.8587    481.67906    403.00642   -458.26375    37625.902 
   75600    297.63471   -1435.0328    441.60496    344.45849   -775.98704    37625.902 
   75700    301.47403   -1446.4722    427.82337    336.49545   -801.40517    37625.902 
   75800    306.35382   -1455.5136    431.43087    352.99654   -1129.4836    37625.902 
   75900    297.70881   -1398.8042    458.09663    397.51191   -285.36078    37625.902 
   76000      293.238   -1379.1803     468.9472    407.88974    -938.2893    37625.902 
   76100    301.24371   -1440.6333    447.73385     361.2096   -473.84728    37625.902 
   76200    304.36138   -1426.7822    438.72194    380.06292   -6.1411796    37625.902 
   76300     293.1962   -1449.3445    438.17187    306.76239    159.26596    37625.902 
   76400    291.00652   -1413.6374    453.68966    348.14442   -605.98122    37625.902 
   76500    303.06417   -1416.3252    463.63809      409.605   -107.95671    37625.902 
   76600    289.44634   -1431.1319    440.79346    310.74063   -225.22202    37625.902 
   76700    303.35137   -1416.7916      433.755    380.54644    500.74921    37625.902 
   76800    299.93998   -1452.1636    457.35996     353.4451      590.265    37625.902 
   76900    309.31443   -1465.2768    439.26335    364.37393    298.12993    37625.902 
   77000    297.66061   -1405.8193    468.96396    401.14744    126.22187    37625.902 
   77100    304.88779   -1366.8925    457.62447    461.22133    342.51261    37625.902 
   77200    289.30824   -1409.2736    446.93563    338.12034    799.54573    37625.902 
   77300    291.42924   -1424.2826    450.64931    336.35906    304.80907    37625.902 
   77400     290.7183   -1463.4235    446.49466    289.86777   -425.44642    37625.902 
   77500    299.85903   -1387.0215    430.74665    391.60995   -1022.1835    37625.902 
   77600    287.32117   -1378.9247    457.48637      370.088   -817.01532    37625.902 
   77700    308.25127   -1434.1002    446.94824    398.45647   -782.03738    37625.902 
   77800    300.32718   -1408.1567    440.50583    382.33825   -742.99281    37625.902 
   77900    294.13479   -1432.4761    440.49487    330.17276   -534.70668    37625.902 
   78000    307.20213   -1444.2361    454.02583     390.6822    333.81051    37625.902 
   78100    286.19923   -1403.9455    460.62317    343.16087    142.17699    37625.902 
   78200    293.04217   -1433.1844    442.29258    326.35078    1010.7899    37625.902 
   78300    296.86475   -1424.0831      428.246    338.58818    328.09821    37625.902 
   78400    298.73296   -1412.2429    446.70832    377.28848   -220.10015    37625.902 
   78500    300.52819   -1412.9567    427.90691    365.84294   -355.46717    37625.902 
   78600    306.50733   -1384.9154     460.8384    453.69236    507.29834    37625.902 
   78700    291.33646   -1414.1194    437.75866     333.2146   -446.51135    37625.902 
   78800    290.87706   -1456.1261    428.38791    279.77212    46.134133    37625.902 
   78900    295.29665   -1415.9192    450.84294    362.30033   -316.67534    37625.902 
   79000    302.94001   -1407.0859    454.01911    408.66723    283.81593    37625.902 
   79100    303.61353   -1425.5361    471.49613    410.72147      329.241    37625.902 
   79200    301.11307    -1408.928    443.12087    387.71468    230.78344    37625.902 
   79300     299.2161   -1421.5653    452.53641    375.96583    81.726907    37625.902 
   79400    303.63622   -1385.6232     452.5881    431.82843   -275.15921    37625.902 
   79500    298.23889   -1367.8348    446.42824    419.19557   -339.12308    37625.902 
   79600    290.29422   -1353.3866    456.92884    408.43261   -475.05447    37625.902 
   79700    301.42008   -1406.1287    419.99706    368.77014   -718.46908    37625.902 
   79800    300.18741   -1389.7317     439.7574    399.38657   -520.39184    37625.902 
   79900    302.50168   -1430.7156    452.35736    381.40547    50.100335    37625.902 
   80000    299.01817   -1451.3398    440.06082    332.82613   -704.96083    37625.902 
   80100    297.55812   -1441.4216    458.35705    354.47752   -238.96591    37625.902 
   80200    308.12819   -1437.0555    446.81588     394.8155   -379.21905    37625.902 
   80300    299.22763   -1444.3015    450.83319    351.57833   -32.052839    37625.902 
   80400    300.20864   -1457.0637    426.42597    318.81855   -566.46047    37625.902 
   80500    301.15968   -1461.3901    422.84156    315.18279   -743.67398    37625.902 
   80600    309.28546   -1485.0822    425.28338    330.45833   -482.11731    37625.902 
   80700    297.23752   -1460.8748    441.54465    316.77075    10.106098    37625.902 
   80800    294.56367   -1466.7442    433.33408     290.6717   -175.65561    37625.902 
   80900    302.57995   -1490.5701    442.21648    311.76185    161.86035    37625.902 
   81000    307.88022   -1493.5381    437.84747    328.24989    -52.46327    37625.902 
   81100    305.28085   -1448.8149    427.31406     350.7554    143.63774    37625.902 
   81200     297.2334   -1390.1604    458.39317    404.31513     208.1673    37625.902 
   81300     300.4783   -1428.7792    434.41006    356.29935    418.38833    37625.902 
   81400    303.30494   -1434.1924    436.63687    365.81889     252.7734    37625.902 
   81500    296.66774    -1410.831    450.09462    372.80336    17.657172    37625.902 
   81600    301.14732   -1435.8472    444.36172    362.19029    325.91721    37625.902 
   81700    293.44887    -1392.055    465.79118    392.80689   -34.006812    37625.902 
   81800    311.73877   -1423.4881    453.61452     431.4114    336.89857    37625.902 
   81900    300.42517     -1438.11    453.67379    365.99344    221.45215    37625.902 
   82000    303.42865   -1437.5927    423.53783    349.87564   -286.77851    37625.902 
   82100    304.04837   -1408.1564    456.62233    415.18207   -489.42849    37625.902 
   82200    295.48612   -1395.2365    436.48111    369.47292   -350.73154    37625.902 
   82300    299.02133   -1377.3748    450.50643    417.25092   -632.72031    37625.902 
   82400    310.11526   -1421.3717    451.18593    423.80146    53.002725    37625.902 
   82500    298.76158   -1394.5702    471.86659    420.24811   -364.94157    37625.902 
   82600     285.7296   -1388.9608    466.60315    362.01445    208.87831    37625.902 
   82700    311.41696   -1432.9503    443.96333    410.85146    327.99966    37625.902 
   82800    299.93961   -1437.0897    456.23053    367.38784    269.15776    37625.902 
   82900    296.04155   -1440.8854    436.37991     326.2195   -9.4124093    37625.902 
   83000    300.32505   -1426.0155    447.49608    371.46016    73.531561    37625.902 
   83100    308.05707   -1415.8168     461.3962    430.31493    244.13784    37625.902 
   83200    293.41961   -1407.2621    434.88758    346.56468    241.33114    37625.902 
   83300    300.05409   -1429.9673    474.38299    393.17727    157.58339    37625.902 
   83400    294.96991   -1468.9032    442.51183    299.51654    281.02809    37625.902 
   83500    311.36171   -1455.7772    446.73403     390.5469    825.82918    37625.902 
   83600    303.03192   -1462.4181    455.86879    355.59789    618.71248    37625.902 
   83700    306.10299   -1460.1309    466.24092    382.06177    1095.5599    37625.902 
   83800    305.41496    -1412.789    457.19329    417.26337    83.555907    37625.902 
   83900    305.22028   -1453.1042    463.95137    382.83113   -225.83504    37625.902 
   84000    309.28959   -1426.7707    452.06098    415.56604   -75.322347    37625.902 
   84100    296.04018   -1424.1763    455.59892    362.14148   -284.50276    37625.902 
   84200     299.8366   -1417.1004    432.01398    362.69754   -227.75558    37625.902 
   84300    292.86528    -1392.758    468.52894     392.2184   -76.156683    37625.902 
   84400     298.2466   -1384.4156    469.19438    425.41557    685.07459    37625.902 
   84500    295.37962   -1426.7441    467.43736    368.44281    256.33421    37625.902 
   84600    291.83581   -1442.8283    468.46702     337.4587    127.01899    37625.902 
   84700    298.92828   -1454.3056    455.14189    344.53736    365.52257    37625.902 
   84800    295.89452   -1431.1548    459.70154    358.61085    202.25502    37625.902 
   84900    292.47548   -1490.5891    434.70029    258.80647    443.72285    37625.902 
   85000    299.34258    -1497.408    447.82053    295.97592    246.21979    37625.902 
   85100    290.66136   -1452.8291     451.6341    305.34569   -84.858517    37625.902 
   85200    306.11502   -1441.4528    447.97721    382.53029    333.42866    37625.902 
   85300    300.03177    -1411.629    449.45447    386.48677    632.11125    37625.902 
   85400     304.9553   -1441.4675    469.07498    398.40029    250.75358    37625.902 
   85500    299.13158   -1464.1052     444.4589    324.96856   -87.541039    37625.902 
   85600    291.90558   -1493.8559    425.63963    243.91733   -120.81978    37625.902 
   85700     298.3907   -1438.0952    459.66553    362.85488   -331.35249    37625.902 
   85800    301.31119   -1423.8718    437.45911    367.99966   -536.88486    37625.902 
   85900    301.06961   -1443.9657    452.48504    361.84572   -209.92949    37625.902 
   86000     304.2038   -1489.0453    438.17564    316.54512   -108.11288    37625.902 
   86100    302.36112   -1456.5492     470.9332    373.51583    687.91388    37625.902 
   86200     316.5462     -1426.22    461.17645    457.85112    344.80999    37625.902 
   86300    306.59368   -1474.1246    471.73941    375.77228     734.9208    37625.902 
   86400    289.27632   -1478.8154    470.49507    291.99451    1055.4213    37625.902 
   86500      304.502   -1433.9242     480.5495    415.38056    605.66546    37625.902 
   86600    295.37787    -1427.243    460.45756    360.95626   -104.39472    37625.902 
   86700    300.59856   -1452.1175    447.97792    347.06945   -169.50851    37625.902 
   86800    302.18402   -1427.6636    455.81995    386.49208    -1108.008    37625.902 
   86900    301.77896   -1410.0449    472.49964    418.96974   -640.77015    37625.902 
   87000    295.97273   -1404.7597    452.56879    378.22476   -778.81034    37625.902 
   87100    305.16577   -1414.1008    451.35521    408.99338   -1177.0918    37625.902 
   87200    305.25213   -1421.4394    478.09801     428.7857   -172.16046    37625.902 
   87300    305.45861   -1399.3534    488.64195    462.34379   -112.13928    37625.902 
   87400    292.28432   -1430.2942    450.16032    333.70209    -318.9637    37625.902 
   87500    293.29358   -1402.5686    471.61448    387.41858   -288.07358    37625.902 
   87600    299.65367   -1420.1279    428.93728    355.77108   -622.72952    37625.902 
   87700    298.83368   -1411.8242    437.15239    368.60395    82.985701    37625.902 
   87800    294.50609   -1417.4891     465.9993    372.33324   -136.28195    37625.902 
   87900    290.61715    -1403.994    444.64542    346.99339     67.33143    37625.902 
   88000     300.4246   -1445.5688     446.6022    351.46046    352.53547    37625.902 
   88100    299.46119   -1429.5122    451.30025    367.88449    88.899188    37625.902 
   88200     291.5184   -1451.2993    458.22384    317.31768    686.77011    37625.902 
   88300     306.4252   -1449.8386    464.69227    392.25382    500.81558    37625.902 
   88400    303.17582    -1455.742    455.84391    362.89587    651.22903    37625.902 
   88500    300.37005   -1451.1513    446.19729     345.2278    271.79703    37625.902 
   88600    294.03649   -1422.8679    450.31117    349.15541    -194.2271    37625.902 
   88700     298.6175   -1452.6977    469.36737    358.97367   -1002.8883    37625.902 
   88800    308.72857   -1448.8472    458.12602    397.03275   -774.46331    37625.902 
   88900    302.97894   -1455.6649    464.42013    370.66426   -534.41046    37625.902 
   89000    310.47318   -1416.4542    446.43748    425.57933    129.81494    37625.902 
   89100    299.33378   -1413.6272    457.38818    389.28473   -227.22646    37625.902 
   89200    297.37618   -1415.1328    452.92886    374.52035    143.88227    37625.902 
   89300    299.95495   -1470.9878     460.1441    337.47228     78.04932    37625.902 
   89400    297.83127   -1468.3068    442.68753    313.15057    398.28159    37625.902 
   89500    298.53597   -1453.4708    477.48468    365.95142    286.94464    37625.902 
   89600    311.86858   -1417.2347    461.25547    445.88919    295.69993    37625.902 
   89700    296.29769   -1430.9307    465.98743    366.93305    145.79408    37625.902 
   89800     296.7786   -1450.9461    451.01614     334.1081     390.1287    37625.902 
   89900    296.61372   -1449.6923    475.59846    359.20313    855.35097    37625.902 
   90000    299.21632   -1473.4407    452.56402    324.11906    1127.8577    37625.902 
   90100    298.24981   -1454.3004    452.42372    338.77456    534.24323    37625.902 
   90200    308.38123   -1503.7375    455.09302    337.54816    943.49324    37625.902 
   90300    297.35834   -1503.7476    463.63127     296.5277    309.05408    37625.902 
   90400    301.43563   -1457.1034    457.89857    355.76686    201.79895    37625.902 
   90500    295.67932   -1473.2843    495.51854    351.33103    30.653204    37625.902 
   90600    302.48789   -1538.3928    433.76883    255.07771   -23.341056    37625.902 
   90700    295.44412   -1454.7306    465.24926    338.55815   -146.80973    37625.902 
   90800    306.98012    -1445.708    454.96208    389.14862    163.02949    37625.902 
   90900    302.98656   -1465.4903    483.09106    379.54399    105.27628    37625.902 
   91000     303.5851   -1447.6578    474.40676    391.38265    347.82198    37625.902 
   91100    306.08643   -1466.8595    463.21354     372.2314    809.43561    37625.902 
   91200    298.16093   -1492.6962    453.96976    301.52527    602.81888    37625.902 
   91300    308.13575   -1477.1176    481.35182     389.3234    468.25258    37625.902 
   91400    302.96022   -1472.5013    473.93462    363.25819    327.54031    37625.902 
   91500    304.83928   -1477.9563    465.58372    357.89877    27.867753    37625.902 
   91600    297.17471   -1496.9299    438.74895    277.63771    408.17552    37625.902 
   91700    292.67838   -1462.7787    480.97292    333.80155    234.27008    37625.902 
   91800    307.65085   -1503.6251    480.24854    359.53299     278.3893    37625.902 
   91900    298.42976   -1527.7843    428.59831    242.27419    372.21581    37625.902 
   92000    314.47324   -1490.8698    460.35627    383.06305     328.3215    37625.902 
   92100    309.09234   -1517.7476    451.39677     323.0383    4.9284879    37625.902 
   92200    302.60344    -1487.369    439.73702    312.58913   -100.83857    37625.902 
   92300    296.76504   -1505.3197    454.80622    283.46367   -426.66424    37625.902 
   92400    305.48684   -1501.4884    460.77391    332.46766   -317.63416    37625.902 
   92500    305.62909   -1490.2927    471.89931    355.42822   -58.596471    37625.902 
   92600    310.29575   -1475.6107    462.40609    381.59392    200.65358    37625.902 
   92700    295.18581   -1481.6331    473.61279    318.85811   -58.939602    37625.902 
   92800    302.76348   -1488.5397    476.99582    349.39663   -68.658573    37625.902 
   92900    295.28488   -1462.1307    471.78296    336.97601   -109.42815    37625.902 
   93000    302.99435    -1475.366    461.83722     348.4495   -500.37956    37625.902 
   93100    291.68609   -1523.1163    447.59479    235.62543   -367.17069    37625.902 
   93200    293.09496   -1460.8344    461.41323    318.05872   -227.79624    37625.902 
   93300     297.8126    -1521.059    466.43181    284.05876   -132.83782    37625.902 
   93400    304.61984   -1543.3917    439.31091    265.20413    581.09613    37625.902 
   93500    306.08246   -1512.2211    471.11535    334.75378    847.27137    37625.902 
   93600    309.86959    -1519.411    459.16114    332.63302    869.48847    37625.902 
   93700    298.27275   -1534.9288    467.38116    273.20673    118.99426    37625.902 
   93800    290.38345   -1488.3033    462.48078    279.46899    841.16234    37625.902 
   93900    293.68658   -1524.5449    457.68111    253.27542    607.50132    37625.902 
   94000    292.12855   -1519.8883    438.91102    232.15856     892.4877    37625.902 
   94100    303.71249   -1503.0375    458.39028    320.55916    413.65581    37625.902 
   94200    295.89378   -1508.2638     476.5729    298.36987     215.8657    37625.902 
   94300    299.76969   -1518.2365    441.35126    270.59795    484.16968    37625.902 
   94400    294.49309   -1479.0191    476.98023     321.7257    242.72803    37625.902 
   94500    296.85503   -1515.8709    467.39602    285.90676   -40.105553    37625.902 
   94600    293.40691   -1468.3545    484.95042    335.47804   -461.07169    37625.902 
   94700    299.59868   -1436.0966    475.09785    385.71572   -595.23417    37625.902 
   94800    299.25686   -1435.7697    479.42872    388.83707   -323.99023    37625.902 
   94900     297.8922   -1425.2316    465.00244    378.81458   -232.06997    37625.902 
   95000    293.56954   -1471.8003    454.86301    302.67582   -313.53598    37625.902 
   95100     306.6309   -1482.9301    480.60243    375.99713   -590.53679    37625.902 
   95200    300.51416   -1464.5744    443.24618    329.50147   -605.11048    37625.902 
   95300    305.46336   -1475.4257    467.36078    365.01169   -291.02994    37625.902 
   95400    301.97327   -1486.9606    461.01433    331.44215   -244.59158    37625.902 
   95500    296.09202   -1489.4523    466.94109    308.44065   -98.928093    37625.902 
   95600    300.04439   -1494.3606    457.43384     311.7912    185.78009    37625.902 
   95700    289.57843   -1455.6898    475.86808    321.85119    82.710789    37625.902 
   95800    300.48908   -1473.8885    467.75693    344.58542     624.8661    37625.902 
   95900    313.53836   -1494.8482    458.56594      373.092    466.25888    37625.902 
   96000    290.87441   -1458.9506    455.54644    304.09421   -328.43247    37625.902 
   96100    304.64444   -1467.2832    473.64107     375.7534   -615.28861    37625.902 
   96200    308.86741   -1468.1301    459.09595    379.34383   -498.84962    37625.902 
   96300    306.11368   -1486.6889    446.03021    335.34114     -739.596    37625.902 
   96400    303.47998   -1499.2446    458.55819    323.47476   -443.51735    37625.902 
   96500     299.2339   -1508.5639    450.07847    286.58938   -381.93388    37625.902 
   96600    297.89709    -1443.753     463.7957    359.10849   -253.94347    37625.902 
   96700    295.57826   -1465.5104    462.35081    325.48292   -3.1475119    37625.902 
   96800    298.79636   -1496.6461    471.71651    318.17846   -192.57882    37625.902 
   96900     301.5991   -1481.1237    471.82202    346.40482    18.463156    37625.902 
   97000     306.8035   -1466.9447    464.67897    376.83487    693.55427    37625.902 
   97100    295.61158   -1517.0545    467.51278     279.2505    743.89795    37625.902 
   97200    306.95397   -1469.3958     459.8779    370.25913    998.98344    37625.902 
   97300    290.35999   -1496.1733    462.17064    271.18343    356.28539    37625.902 
   97400    294.06366   -1527.0131    459.42405    254.24525    847.03008    37625.902 
   97500    298.95027   -1506.3759    459.91478    297.33881    245.44907    37625.902 
   97600    298.26446   -1509.6137    441.86487    272.96831    349.16244    37625.902 
   97700    323.46991   -1499.8444    492.31783     446.4906    969.89476    37625.902 
   97800    302.10545   -1496.8313    470.99058    332.14185    518.24054    37625.902 
   97900    303.79308    -1485.091    492.55421    373.03183    955.11422    37625.902 
   98000    292.51907   -1449.4529    461.72531    327.16357   -13.644543    37625.902 
   98100    301.77127   -1456.6822    466.79671    366.59492    709.27863    37625.902 
   98200    302.36135   -1456.1967    472.68693    375.62312    465.31381    37625.902 
   98300    307.34173   -1448.9914     455.9827    388.51128    568.88504    37625.902 
   98400    301.98128   -1481.2872    449.88291    326.02017    198.39914    37625.902 
   98500    302.64088   -1523.4069    452.80581    289.78826    152.11737    37625.902 
   98600    281.04006   -1442.3967    491.01336    311.90907   -54.007872    37625.902 
   98700    305.40841   -1451.7901     473.7906    394.83014    -453.0536    37625.902 
   98800    298.91946   -1441.5066    468.48637    370.64113    542.56441    37625.902 
   98900    290.23566   -1488.6562    488.31335    304.28431    15.901615    37625.902 
   99000    309.88336   -1503.2517    441.55499    331.24813    312.44773    37625.902 
   99100    298.08316   -1424.3685    475.96244    391.49614    303.47898    37625.902 
   99200     307.6357   -1458.1182    440.07004    364.79323   -50.830947    37625.902 
   99300    297.68467    -1476.412    471.08825    332.78717    853.84496    37625.902 
   99400    288.62463   -1488.5621    470.22453    279.04785    346.66426    37625.902 
   99500    293.15298   -1505.3773    480.55237    292.91579     385.8197    37625.902 
   99600    303.48574   -1499.6344    480.76015    345.31286    471.29741    37625.902 
   99700    291.60825   -1448.7191    470.39052    332.46841   -202.43191    37625.902 
   99800    307.31151   -1445.5554    499.39401    435.22278   -229.00413    37625.902 
   99900    303.89911   -1475.4414     485.3818    375.98563   -469.58891    37625.902 
  100000    303.51849   -1475.3136    483.74397    372.76467   -261.20033    37625.902 
  100100    310.14295   -1454.1539    472.52069     412.4785   -184.64977    37625.902 
  100200    300.97979   -1431.7421    463.86316    385.04375   -163.68916    37625.902 
  100300    300.18945   -1461.4631    474.91767    362.82462   -132.84611    37625.902 
  100400    299.82979   -1413.4653     488.5879    422.87598    24.813398    37625.902 
  100500     299.7294   -1478.5178    464.60368    333.38799    278.07623    37625.902 
  100600     297.7108   -1462.5234    464.27469    339.97963   -388.84932    37625.902 
  100700    292.20309   -1439.0148    473.07732    347.53338   -734.51048    37625.902 
  100800    295.20399   -1458.1741    445.27715     314.0632   -1024.6522    37625.902 
  100900    307.43094   -1432.8045    472.57375    421.69022   -604.21251    37625.902 
  101000     298.5037   -1415.4985    491.41552     417.7095    -476.2799    37625.902 
  101100    306.12408   -1465.3265    481.94563    392.66572    228.41295    37625.902 
  101200    302.38121   -1464.4558     481.7337     376.5001    279.43895    37625.902 
  101300    307.01769   -1503.4589    469.12485    345.72941    15.051196    37625.902 
  101400     309.1203   -1503.2786    468.66359    354.89981    359.20395    37625.902 
  101500    301.13786   -1456.9059    478.86893    375.59622    273.34423    37625.902 
  101600    309.72892   -1474.2466    455.17423    373.17817   -16.399721    37625.902 
  101700    309.50279   -1448.0627    458.73973    401.91113    53.102532    37625.902 
  101800    289.01497   -1481.8743    466.09589    283.36168    -409.0632    37625.902 
  101900    296.05493   -1462.2948    473.24368    341.73399    28.213364    37625.902 
  102000    312.62935   -1493.7234    454.75236    366.31706    445.17845    37625.902 
  102100    298.90102   -1425.6799    477.65347    395.55204    610.73115    37625.902 
  102200    306.57847   -1469.8397    500.75544     409.0048    597.74195    37625.902 
  102300    298.26577    -1432.311    500.35254    408.76452    388.04989    37625.902 
  102400    302.63437   -1450.1753    481.57606    391.76087    152.15163    37625.902 
  102500    300.07157   -1474.7794    472.60789    346.66861    41.068902    37625.902 
  102600    307.27598   -1456.3065     465.0268    389.94473    19.287082    37625.902 
  102700    302.02747   -1464.6545    483.05272    376.03032    487.89399    37625.902 
  102800    299.10113   -1452.4543    488.83127    380.85495    -195.6499    37625.902 
  102900    289.94571   -1476.1451    471.40631    298.58503   -183.57533    37625.902 
  103000    299.45696   -1463.2589    463.33983    346.15844    46.580863    37625.902 
  103100    296.58683   -1453.6523    470.47388    349.99766    237.43159    37625.902 
  103200    310.20783   -1476.0304    475.53099     393.9039    63.116307    37625.902 
  103300    301.45231   -1483.9141    472.35137      343.484    551.37495    37625.902 
  103400    306.98528     -1494.24    488.84621    374.52389    1232.7054    37625.902 
  103500    305.30263   -1457.7244     472.7966    387.42636    620.30448    37625.902 
  103600    291.71173   -1491.5953     451.1987    270.86556    445.21613    37625.902 
  103700    303.06785   -1509.9338    485.49903    337.87384    301.40238    37625.902 
  103800    304.58622   -1494.1612    443.77572     318.7483    339.46745    37625.902 
  103900     297.1881   -1480.4089    459.00369    314.47359    45.543037    37625.902 
  104000     305.3171    -1509.373    460.54541    323.59158    33.691653    37625.902 
  104100    298.82081   -1503.6544    463.26977    302.83327    -57.74669    37625.902 
  104200    302.61992   -1520.2884    462.63887    302.64562    116.53511    37625.902 
  104300    301.59013   -1514.3112    450.71784    292.07288    148.06717    37625.902 
  104400    299.50286   -1478.6727    464.07535    331.68643    353.47025    37625.902 
  104500    293.83082   -1468.1314     452.6788    305.33501   -251.87808    37625.902 
  104600    304.03747    -1503.213    493.32225    356.77638   -527.51556    37625.902 
  104700    288.93231   -1491.6053    481.28539    288.44864    -75.08367    37625.902 
  104800    295.52276   -1495.4991    455.96409    288.85802   -447.20163    37625.902 
  104900    305.40566    -1526.709    482.64775      328.756    333.43563    37625.902 
  105000    300.72183   -1504.3733    459.83063    307.22045    205.98984    37625.902 
  105100    284.99938    -1532.783    465.61037    213.91712     127.0831    37625.902 
  105200    303.59026   -1545.7349     445.9979    264.91988    578.90215    37625.902 
  105300    293.62685   -1527.5157    463.54462    255.89971   -263.57727    37625.902 
  105400    308.41833   -1477.8374    441.77422     350.2962    73.990749    37625.902 
  105500    292.91222   -1490.1205    469.97655    296.51454    239.10072    37625.902 
  105600    306.44917   -1525.5426    447.81898    299.78424   -577.99643    37625.902 
  105700    296.77382    -1513.081    442.06424    262.99983   -47.220721    37625.902 
  105800    309.40037   -1492.0328    456.88254    355.62342   -346.64624    37625.902 
  105900    304.83704   -1494.7585    481.95683    357.45963    251.50065    37625.902 
  106000     306.6478   -1488.0013    467.63373    358.03322    19.009412    37625.902 
  106100     307.1449   -1487.9261    447.10925    339.81838   -217.26374    37625.902 
  106200    299.53294   -1503.3989    467.03569    310.05579     339.9593    37625.902 
  106300    295.50046   -1505.2846    474.65439    297.66254     473.8827    37625.902 
  106400    295.68399   -1488.5598    466.98461    307.54256    135.55984    37625.902 
  106500    295.43032   -1492.9504    455.22157    290.24859    66.944883    37625.902 
  106600    297.20038   -1463.8789    476.84592    348.90106    477.65132    37625.902 
  106700    309.26138   -1466.5474      483.938    407.53948   -186.58948    37625.902 
  106800    293.79179   -1504.5751    467.68866    283.72571    -358.5336    37625.902 
  106900    302.60574   -1501.4779     479.2834    338.03695    117.83621    37625.902 
  107000    291.61727   -1512.2171     456.3491    254.96961   -57.408118    37625.902 
  107100      302.276   -1465.9634     456.5994    349.38526   -539.27236    37625.902 
  107200    295.55468   -1506.6155    465.95135    287.87236   -166.63692    37625.902 
  107300    298.44083    -1497.999    459.52412    303.03499     76.26848    37625.902 
  107400    302.72897   -1492.9074    454.34156    322.21953    80.352299    37625.902 
  107500    299.15882   -1492.5235    471.89762     324.1115   -247.05976    37625.902 
  107600    295.09955   -1517.0454     450.4033    259.84861   -322.63069    37625.902 
  107700    298.97233   -1493.0004    475.03985    325.93845    133.27838    37625.902 
  107800    300.22928   -1513.9911    461.29557    296.85356    80.341649    37625.902 
  107900     294.7829   -1529.1911    463.20925    259.08544    559.71001    37625.902 
  108000    300.92971   -1486.7345    470.92981    336.89286    103.24895    37625.902 
  108100    314.07054   -1449.2941    470.04011    432.51246    99.250962    37625.902 
  108200    291.16789   -1447.9707    457.13768    317.98458    323.15494    37625.902 
  108300    311.56542   -1486.1047    492.55267    406.95369    382.66351    37625.902 
  108400    293.05271   -1521.7024    460.82179     256.4094    811.94697    37625.902 
  108500    300.67329   -1526.2968    480.27264     305.5208    102.66074    37625.902 
  108600    290.67424   -1557.0717    478.86948    228.39642    302.29921    37625.902 
  108700    298.12358    -1516.642    426.80386    250.24567    -149.4434    37625.902 
  108800    292.31413   -1465.9489    468.20325    316.22436   -226.34752    37625.902 
  108900    304.12531   -1518.8998     454.8495    303.01166    300.14959    37625.902 
  109000    298.52946   -1542.1214    435.29345    235.08036   -124.75733    37625.902 
  109100    303.26963   -1476.8889    453.16089     339.4876    540.60074    37625.902 
  109200    313.75779   -1511.2333    458.65653    357.78377    691.98988    37625.902 
  109300    300.41356   -1503.9337    487.52125    333.96501    384.22714    37625.902 
  109400    299.84354     -1512.63    474.92363    310.10883     323.9164    37625.902 
  109500    294.63419   -1484.4469    456.08542    296.03731    557.91451    37625.902 
  109600    303.76003   -1483.4359    465.09626    347.08037    420.35071    37625.902 
  109700    306.69492   -1483.3108    457.28663    352.58833     326.5779    37625.902 
  109800    297.91321   -1492.8403    460.14082    306.43873    68.214369    37625.902 
  109900    311.22517   -1494.1617    456.91768    361.73231    353.17021    37625.902 
  110000    299.35855   -1536.0505    458.38766    267.97227    637.64272    37625.902 
  110100    301.27092   -1481.6347    466.97704    339.57367    565.55223    37625.902 
  110200    296.31602   -1505.5024    467.11901    293.57532    437.51473    37625.902 
  110300    290.15998    -1468.067    477.43688    313.65687    160.09994    37625.902 
  110400      304.491   -1475.2888    448.28868    341.70572   -31.386243    37625.902 
  110500    291.61192   -1504.3566    459.08588    265.54279    -268.3709    37625.902 
  110600    306.24006   -1487.7037    455.24459    344.10886   -755.45303    37625.902 
  110700     309.7183   -1491.8036    468.25105     368.6503   -110.25598    37625.902 
  110800    295.11694   -1496.0639    444.13626    274.64113    -396.8178    37625.902 
  110900    293.24451   -1503.0849    478.03005    293.09722   -41.953467    37625.902 
  111000    296.89529   -1480.9559    441.00236    294.60911    118.41433    37625.902 
  111100    298.77774   -1501.0031    456.78684    298.80809    79.338781    37625.902 
  111200    291.23159   -1487.3744     452.0478    273.77735   -61.365155    37625.902 
  111300    287.95041   -1498.9604    477.18777     272.5822    499.99766    37625.902 
  111400     299.3022   -1485.2068    454.45603    314.63101    707.97446    37625.902 
  111500    307.28579   -1503.0231    468.21738    346.46281    408.80815    37625.902 
  111600     299.8264   -1486.5819    462.68788    323.84414    130.61393    37625.902 
  111700    301.95011   -1517.7584    453.86511    293.39103    564.07642    37625.902 
  111800    286.68793   -1490.6034    472.93409    271.01054    739.58699    37625.902 
  111900    300.91003   -1480.9714    463.94888     335.5866    395.45046    37625.902 
  112000     300.1253   -1491.9705    471.66888    328.78012    464.59212    37625.902 
  112100    294.72065    -1480.712    454.09055    298.16602    766.27583    37625.902 
  112200    297.33802   -1476.6281    470.82896    330.75355    868.63904    37625.902 
  112300    296.97369    -1448.341    463.66331    350.23731    335.38445    37625.902 
  112400    298.27456   -1471.5651    454.72684    323.92431   -21.941972    37625.902 
  112500    290.92524   -1442.4741    459.63558    324.88838   -181.76014    37625.902 
  112600    299.94834    -1457.923    487.25617    377.61938   -564.22056    37625.902 
  112700    303.47251   -1444.1897    451.25396    371.19189   -211.14793    37625.902 
  112800    299.78226   -1458.7412    450.33709    339.13562   -51.922899    37625.902 
  112900    314.89976   -1430.2806    468.36677    453.57995    542.16102    37625.902 
  113000     300.5237   -1469.3884    467.50696     348.9911    296.31783    37625.902 
  113100    291.07454   -1466.2067    474.19901    316.39033    170.64672    37625.902 
  113200    298.85823   -1431.8728    489.44389    400.95719    658.35109    37625.902 
  113300    303.01109   -1430.5583     477.9229    409.41808    447.13485    37625.902 
  113400    299.39729   -1466.5193    456.84088    336.13087    16.308348    37625.902 
  113500    304.13101   -1429.9245    454.55932    391.72243   -472.03689    37625.902 
  113600    307.98126   -1418.6031    460.51959    426.31121   -965.17734    37625.902 
  113700    300.96203   -1431.1918    485.94124    407.59226   -989.74102    37625.902 
  113800    302.56677   -1420.5205    481.08511    420.62082   -157.25856    37625.902 
  113900    300.60952   -1438.5604     448.8652    361.56307    -771.2181    37625.902 
  114000    298.84913   -1440.8096    478.22813    380.76371    -728.7882    37625.902 
  114100    297.72785   -1443.5211    456.84184    351.62574   -497.52287    37625.902 
  114200    310.58365   -1445.7923    456.74533    407.04567   -583.97475    37625.902 
  114300    293.24937   -1489.0916    451.07251    280.15484   -739.86212    37625.902 
  114400    297.21031   -1457.1243    435.58201    314.43638   -365.39498    37625.902 
  114500    298.07783   -1463.0875    477.69855    354.48923    131.03557    37625.902 
  114600    295.86865    -1472.644    472.50613    329.80994    -51.22645    37625.902 
  114700    291.14368   -1443.3843    453.08522    318.40973    525.44504    37625.902 
  114800    295.91848   -1469.2823    447.56641    308.45587   -44.313165    37625.902 
  114900    293.59921   -1465.8021     466.3353    320.27976    225.81609    37625.902 
  115000    307.82228   -1472.4953     469.8755    381.06026    85.726463    37625.902 
  115100    295.93412   -1436.8506    471.72216    365.11361    255.71516    37625.902 
  115200    302.03331   -1425.7855    482.11588    413.98868    303.02118    37625.902 
  115300    307.45102    -1476.571    481.35292    386.79318    6.2921816    37625.902 
  115400    299.79934   -1447.0782    494.26979    394.80807   -114.88816    37625.902 
  115500    298.44369   -1466.5669    494.17292    369.12881   -66.519464    37625.902 
  115600    305.45886   -1431.2992    466.83495    408.59214    137.86295    37625.902 
  115700    306.03549   -1442.9103    475.48451     408.2226    224.78333    37625.902 
  115800    303.26452   -1479.3846    437.03512    320.84319    373.89461    37625.902 
  115900    296.39142   -1483.3576    489.52407    338.46417    294.88524    37625.902 
  116000    305.16426   -1457.3395    462.47331    376.86597    208.24452    37625.902 
  116100    295.13785   -1451.9096    464.87363    339.62681    603.40788    37625.902 
  116200    297.55681   -1455.0945    474.71734    357.15898    1055.1475    37625.902 
  116300    290.39101   -1449.3926    489.51367    345.44656    937.71871    37625.902 
  116400    294.10182   -1487.6196    483.86684      318.253    573.78454    37625.902 
  116500     291.0528   -1475.6695    488.10811    320.73889    425.45558    37625.902 
  116600    299.20105   -1452.1494    481.83961    374.61735    476.15617    37625.902 
  116700     291.3052   -1453.8295    482.91196    338.51729    467.01961    37625.902 
  116800    298.70591   -1500.3086    482.93937     325.3322    852.45466    37625.902 
  116900    296.35966   -1470.3069    449.31127    311.15932    324.76715    37625.902 
  117000    296.34471   -1468.0756    484.15126    348.16342   -66.943824    37625.902 
  117100    289.89473   -1437.5968    470.98344    336.48128   -59.109953    37625.902 
  117200    300.77899   -1444.3129    487.07943    394.78663    -156.1633    37625.902 
  117300     293.3089   -1428.6016    473.64928    363.48928   -278.75979    37625.902 
  117400    308.64701   -1416.4074    481.57516    452.55506   -370.37784    37625.902 
  117500    296.39658    -1462.811    484.18478    353.69464   -197.01145    37625.902 
  117600     296.7942   -1471.2764    478.09638    340.92816   -225.67136    37625.902 
  117700    305.00963   -1491.6995    491.00182    370.33942    185.00908    37625.902 
  117800    291.04846   -1448.6546    471.76008    331.38621    245.43404    37625.902 
  117900    306.74152   -1443.6272    489.78321    424.97806    16.391699    37625.902 
  118000    304.39393   -1485.2131    462.36154    345.41788   -380.86887    37625.902 
  118100    302.44699    -1482.076    449.85547    327.29735    21.041959    37625.902 
  118200    301.86834   -1483.0512    492.17634     366.0419    156.18656    37625.902 
  118300    304.00087   -1485.5134    484.94567    365.93494    440.69127    37625.902 
  118400     301.7587   -1486.3198    489.59317    359.69731    147.19865    37625.902 
  118500    309.30941   -1502.5071    485.25052    373.10827   -545.18621    37625.902 
  118600    296.97503   -1513.1233    452.81798    274.61576   -249.87291    37625.902 
  118700    299.55065   -1519.2869    490.98377    318.19545    357.98492    37625.902 
  118800    297.73977   -1502.1557    463.78729    299.99023    280.80229    37625.902 
  118900    305.52945   -1506.7892    483.89136    350.47586    638.37504    37625.902 
  119000    305.18823   -1504.7848    455.92013    322.97518    549.28217    37625.902 
  119100    297.67497   -1471.9144    476.13747    342.29041   -237.13791    37625.902 
  119200    291.44368     -1471.45    473.54358    312.15089    4.7322159    37625.902 
  119300    301.96846   -1511.2561    468.47881    314.58957    528.28528    37625.902 
  119400     282.6136   -1462.9405     484.8515     292.2765    438.39294    37625.902 
  119500    287.39193   -1470.9823    433.18396    254.04614    102.44916    37625.902 
  119600    297.71009   -1497.9637     470.9945    311.25595   -158.10678    37625.902 
  119700    299.26064   -1471.1349     483.7782    357.83835   -128.80697    37625.902 
  119800    303.71423   -1503.4596    467.26351    329.01807   -312.73094    37625.902 
  119900    297.31442   -1493.9957    465.41563    307.86656   -501.02396    37625.902 
  120000    302.77641   -1507.6975    444.42716    297.72827   -58.147703    37625.902 
  120100    299.58967   -1492.2937    458.47594    312.85621   -560.74476    37625.902 
  120200    297.69075   -1521.2433    461.62085    278.51583   -666.31968    37625.902 
  120300    307.45554   -1520.1374    479.22614    341.12035    -681.5879    37625.902 
  120400    304.99809   -1478.9518    470.02169     362.0551   -392.93193    37625.902 
  120500    293.47163   -1516.5614    465.19435    267.80602    221.07319    37625.902 
  120600    297.30266   -1498.8207     467.4856    305.05864   -52.540259    37625.902 
  120700    302.58139   -1484.5215    464.88107    340.48156   -99.156264    37625.902 
  120800    295.93476    -1500.345    454.62904    284.52898   -484.93217    37625.902 
  120900    306.77811   -1473.4277    480.61924    386.17804    -357.9737    37625.902 
  121000    299.06294    -1495.929    478.48899    326.86634   -251.11403    37625.902 
  121100    298.27236   -1509.0232    475.37915    307.10855   -407.02272    37625.902 
  121200    305.39585   -1476.2098    478.61272    375.17604   -488.64869    37625.902 
  121300    287.24765   -1459.6279    474.10566    305.67362   -345.29726    37625.902 
  121400    302.02328   -1483.2787    484.86536     359.1999   -286.68688    37625.902 
  121500    304.38518   -1468.1572    469.96539    370.03828    228.47371    37625.902 
  121600    298.64775   -1465.8325    470.99255    347.60013    208.75259    37625.902 
  121700    304.19629   -1476.0425    465.17662    356.51519    183.86681    37625.902 
  121800    291.73358   -1467.9035    453.93852    297.39542   -255.47432    37625.902 
  121900    295.70696   -1531.8383    458.02517    255.40783   -253.64594    37625.902 
  122000    296.19019   -1537.7988    451.46543    245.05976    304.60203    37625.902 
  122100    298.46075   -1544.9479    475.27045    271.92198    217.93661    37625.902 
  122200    294.75382   -1504.0199    471.60739    292.52404    380.51365    37625.902 
  122300    296.57919   -1515.3349    472.98015    290.78691    502.80422    37625.902 
  122400    294.25299   -1454.0538    467.08811    335.71958    893.19456    37625.902 
  122500     302.0744   -1453.1622    474.84967    379.53049    757.50053    37625.902 
  122600    289.66782   -1518.5497    472.34337    255.86839     421.5583    37625.902 
  122700    302.48026   -1469.1225    465.71832    356.26318    178.93146    37625.902 
  122800    297.49272   -1472.6868    477.86413    342.42548   -30.145562    37625.902 
  122900    298.62518   -1468.9308    459.56145    332.96924    71.728594    37625.902 
  123000    297.73587    -1515.924    468.51088    290.92794   -511.05341    37625.902 
  123100    309.31324   -1496.1206     483.3819    377.64336   -322.87659    37625.902 
  123200    304.34468   -1439.8459    463.10803    391.31018   -167.07435    37625.902 
  123300    298.37385   -1502.7833    469.04098    307.46647   -341.64514    37625.902 
  123400    304.80287   -1527.3989    464.67592    307.38467   -358.68194    37625.902 
  123500    306.38602   -1454.5148    492.05423    414.76348   -397.40893    37625.902 
  123600    297.39789   -1483.6706       472.86    326.01123    -196.9611    37625.902 
  123700    293.40719   -1485.9422     466.0098    298.95099   -308.89072    37625.902 
  123800    306.15582   -1439.4489    484.41589    421.15621    34.754015    37625.902 
  123900    301.43208    -1462.451    485.71277    378.21758    224.65575    37625.902 
  124000    285.04257   -1432.3527    472.17205     321.1032    234.24126    37625.902 
  124100    298.54563   -1454.0071    484.93547    372.90932    144.24261    37625.902 
  124200     302.4477   -1437.3807    448.36345    370.50377    57.392146    37625.902 
  124300    297.85333   -1464.2731    471.26985    345.86578    621.38367    37625.902 
  124400    302.28694   -1444.3233    473.12534    387.60049    552.38902    37625.902 
  124500    294.13811   -1458.9459    468.69184    331.91486    287.26103    37625.902 
  124600    302.40797   -1449.3411    459.54618    369.54751    607.69054    37625.902 
  124700      292.525   -1478.3013    458.94528    295.56184    63.353022    37625.902 
  124800    296.40469   -1450.1099    452.56476    334.81218    473.34717    37625.902 
  124900    314.24465   -1488.7566    464.05068    387.84314    581.44085    37625.902 
  125000    295.18858   -1467.9447    488.26138    347.20752   -168.59427    37625.902 
  125100    289.41479    -1453.801    483.32542     330.4617    96.633449    37625.902 
  125200    294.11746    -1468.773    460.66809    313.97119    139.59899    37625.902 
  125300     290.2068   -1481.0684     446.8378    270.26681    2.5591035    37625.902 
  125400     303.3249   -1500.5912     437.6489    300.52183   -340.10261    37625.902 
  125500    291.22236   -1473.3991    485.89523    321.55859   -118.57437    37625.902 
  125600    301.74332   -1476.0573    472.23501    352.53251    252.58487    37625.902 
  125700    305.44229   -1497.8147    486.51125    361.67848    150.56929    37625.902 
  125800    301.69127   -1453.4161    473.58484    376.28952     823.3066    37625.902 
  125900    294.65224   -1473.9882    460.39888    310.89068    328.81928    37625.902 
  126000    293.57398   -1449.1148    467.43561    337.95393    97.893198    37625.902 
  126100    296.44372   -1461.8482    460.53096    331.21549   -17.026258    37625.902 
  126200      289.248   -1456.7418    492.75378     336.1996   -9.4370504    37625.902 
  126300    307.80267   -1495.1347    468.63158    357.08882    90.584839    37625.902 
  126400    301.88181   -1493.6075    467.91601    331.28582   -35.885716    37625.902 
  126500    297.70327   -1534.5187    476.59105    280.26684    277.35473    37625.902 
  126600    295.09417   -1470.6961    467.41229    323.18267   -3.3268646    37625.902 
  126700    290.84016   -1449.4472    473.28247    331.17968   -340.54755    37625.902 
  126800    303.70385   -1457.2563    465.63018    373.54144   -310.37706    37625.902 
  126900    307.90415   -1466.7172    465.96784     383.2987    -85.18312    37625.902 
  127000    297.21835   -1468.9595    461.56186    328.61713    -518.0761    37625.902 
  127100     298.7995   -1464.6293    465.13275    343.62559   -79.410435    37625.902 
  127200    311.21252   -1509.0799    485.43387    375.27343    753.26056    37625.902 
  127300    288.45693   -1511.4147    473.84347    259.06043    164.98465    37625.902 
  127400    303.71877   -1445.7562    485.12811    404.60651    49.007769    37625.902 
  127500    303.70352   -1451.9928    451.83995     365.0132   -144.52698    37625.902 
  127600    289.68339   -1441.8476    471.08346    331.38057    16.000457    37625.902 
  127700    296.68503   -1455.8833    471.10744    348.84157   -249.30337    37625.902 
  127800    315.09989   -1495.7363    476.43003    397.08716     496.8627    37625.902 
  127900      305.504   -1490.3473    464.40097    347.31297   -174.07929    37625.902 
  128000    306.59226   -1520.3577     421.4687     279.2621   -333.28091    37625.902 
  128100    300.77598   -1539.1183    446.56119    259.44945   -148.81151    37625.902 
  128200    295.57244     -1529.59    472.02307    271.04938   -213.88746    37625.902 
  128300    301.01917   -1511.1591     465.9414    307.88204   -42.576921    37625.902 
  128400    292.76103   -1439.7875     484.2894    360.48072    526.10954    37625.902 
  128500    301.90115   -1517.0605    446.27572    286.27945    54.005122    37625.902 
  128600    299.18592   -1468.1992    466.77878    343.43875   -197.87114    37625.902 
  128700    306.70361   -1490.0562    453.12588    341.72135   -244.32029    37625.902 
  128800    299.22888    -1467.419    448.46668    326.09988    23.609846    37625.902 
  128900    302.65548   -1497.7736    472.87437    335.55578   -233.76825    37625.902 
  129000    303.74429    -1501.433    464.27147    328.18772   -361.64152    37625.902 
  129100    297.44233      -1495.4    476.87853     318.5001    119.30978    37625.902 
  129200    303.05821   -1455.1699    444.74637    351.84177    107.70796    37625.902 
  129300    302.48897   -1442.6012    446.60638     363.7117   -210.83555    37625.902 
  129400    302.66928   -1468.2504    481.06597     373.3326    87.652182    37625.902 
  129500    296.11519   -1490.0459    468.03665    309.04677   -278.61708    37625.902 
  129600    301.75818   -1472.5858    479.61958    363.45536    756.90987    37625.902 
  129700    303.70802   -1461.5757    469.82128    373.43179    462.26978    37625.902 
  129800     299.5632   -1466.4873    479.41961     359.4873    211.79022    37625.902 
  129900    304.48231   -1461.1514    484.46391    391.97919    454.46937    37625.902 
  130000    292.29089   -1471.9042    461.82994    303.79131   -281.59016    37625.902 
  130100    301.10153   -1473.1706    469.55191    349.85127    274.92748    37625.902 
  130200      302.159   -1499.8084     487.5343     345.9492    606.53293    37625.902 
  130300    307.60345   -1486.2321     462.4261    358.89048    925.81883    37625.902 
  130400     297.6409   -1463.4345    482.30173    356.78135    405.52012    37625.902 
  130500    300.56683    -1447.452    449.95362    353.56801    -104.5315    37625.902 
  130600    302.35619   -1472.0275    474.49275    361.57497   -340.55323    37625.902 
  130700    300.11881   -1450.8301    487.57981    385.80227    49.376298    37625.902 
  130800    298.25755   -1414.9954    459.40587    385.09655    219.09561    37625.902 
  130900    295.28136   -1429.4842    477.25239     375.0761    597.29365    37625.902 
  131000    302.10367   -1478.2791    468.92454    348.62003    287.17426    37625.902 
  131100    314.01382   -1454.0331    459.48569    416.96405   -196.15119    37625.902 
  131200    303.28161   -1458.4698    456.29539     361.0951    168.22743    37625.902 
  131300    309.81566   -1496.9533    442.45157    338.13877   -62.716292    37625.902 
  131400     295.9475   -1489.5843     453.5939    294.31186   -348.07197    37625.902 
  131500    291.45447   -1484.6885    481.67183    307.08915   -268.66333    37625.902 
  131600    297.79348   -1490.6277    475.65883    323.63115   -120.79119    37625.902 
  131700       301.13   -1483.9742    470.40442    340.02811    396.84224    37625.902 
  131800    303.66729   -1505.0336    482.03343    342.00301    91.970402    37625.902 
  131900    293.76559    -1512.019    450.96239    259.43777     44.96937    37625.902 
  132000    301.28439   -1451.5592    494.20057    396.93326    162.87331    37625.902 
  132100    298.84539   -1473.1757    470.01633    340.16907   -382.61656    37625.902 
  132200    294.52568   -1445.5927    484.45364    362.77201    261.97618    37625.902 
  132300     299.5248   -1450.3222    478.36624    374.42649   -26.609553    37625.902 
  132400    308.26595   -1503.0764    432.85428    315.45234   -353.93192    37625.902 
  132500    298.05868   -1469.5529    506.52453     376.7638    -41.45209    37625.902 
  132600    294.08499    -1457.816    455.24163    319.35574    377.77874    37625.902 
  132700    291.65287   -1449.2048     475.6317    337.42447    -370.8559    37625.902 
  132800    296.31457   -1433.4527    470.02224    368.52173   -464.82718    37625.902 
  132900    296.90552   -1447.9186    470.18544    356.87546   -475.16485    37625.902 
  133000    309.84749   -1461.5035    495.75773    427.03778     55.23391    37625.902 
  133100     303.8506   -1505.8512    470.18758    330.16354    225.90016    37625.902 
  133200    286.23608   -1471.3096    477.02334    292.36249   -286.84543    37625.902 
  133300    295.91748   -1472.6806    490.66012    348.14677    403.74498    37625.902 
  133400    292.07154   -1462.5198    470.05498    320.41474   -218.52335    37625.902 
  133500     287.9244   -1457.5262    470.64699    307.35866   -491.81117    37625.902 
  133600    299.32515   -1458.4912     465.0918    352.08559     217.8861    37625.902 
  133700    313.15053   -1479.2439    454.44161    382.82867   -371.84825    37625.902 
  133800      305.582   -1454.1919    478.55246    397.97046   -115.32719    37625.902 
  133900    296.74899    -1463.835    459.35144    329.42142    148.17638    37625.902 
  134000    299.42192   -1524.0432    465.52841    287.40515    17.374129    37625.902 
  134100    295.59258   -1506.9969    480.29578    302.00568   -233.24253    37625.902 
  134200    306.82259   -1495.7171    457.90663    341.37591    359.41088    37625.902 
  134300    304.56376   -1463.0498     448.2016    354.18465   -302.51611    37625.902 
  134400    309.22066   -1498.7237    495.29585    386.53801     575.5154    37625.902 
  134500    297.10459   -1477.5084     467.0533    325.04834    925.09648    37625.902 
  134600    287.92736   -1455.6583    471.45598    310.04884    454.37559    37625.902 
  134700    285.12356    -1480.737    453.93862    254.84961   -25.105146    37625.902 
  134800    312.99381   -1484.7497    464.76144    386.93814    380.51929    37625.902 
  134900    289.45245     -1444.21    465.09668    321.99325   -457.86784    37625.902 
  135000    297.75192   -1435.7381    469.43199    372.10707    226.20026    37625.902 
  135100    309.02283   -1423.3157     451.8074    417.56829    105.17858    37625.902 
  135200    311.19706   -1499.4726    453.14523    352.52262   -80.962685    37625.902 
  135300    301.03006   -1506.0977    476.82521    323.87616    210.41946    37625.902 
  135400    301.04672   -1502.8273    459.33831    309.73451   -227.42976    37625.902 
  135500    305.14071   -1484.5381    486.49553     373.5837    337.38557    37625.902 
  135600    298.84437   -1461.2068    464.05321     346.1703   -501.61259    37625.902 
  135700    294.93588   -1453.9501    440.32823    312.13303    -122.0926    37625.902 
  135800     301.1313   -1479.1173    488.32532     362.8118   -219.93943    37625.902 
  135900    302.51525   -1475.1101    437.31528    322.02989    16.966761    37625.902 
  136000    293.23013   -1442.2185    456.11326    331.98228   -75.732481    37625.902 
  136100    306.58625    -1443.416    489.36386    424.07192     529.6811    37625.902 
  136200      305.027   -1465.4971    490.05608    395.67412    592.10335    37625.902 
  136300    295.05133   -1428.2929    472.10342    370.08437     105.6132    37625.902 
  136400    291.62209   -1500.2305     489.8325    300.46125    315.32868    37625.902 
  136500    305.96958   -1470.4708    473.96803    378.84932    441.13553    37625.902 
  136600    300.14061   -1452.0881    469.59627    366.65872     29.13335    37625.902 
  136700    300.23459   -1475.1289    471.49745    345.94154   -104.83926    37625.902 
  136800    302.26336   -1472.5991    495.46188    381.55522    392.95404    37625.902 
  136900    307.35999   -1443.8862    499.88541    437.60127    232.87866    37625.902 
  137000    295.97745   -1486.4748    464.86256    308.82463    544.29016    37625.902 
  137100    300.71609   -1501.3149    477.62586    328.04834    472.85723    37625.902 
  137200    304.31984   -1469.8938    467.92381    365.96646    316.19389    37625.902 
  137300    295.08102   -1460.6716    480.84452     346.5802   -60.512165    37625.902 
  137400    317.29052   -1446.9674    462.17602    441.44904    552.92129    37625.902 
  137500    304.86091   -1463.9782     479.3546    385.74494     101.2924    37625.902 
  137600     291.0581    -1496.904    464.41127    275.83139   -630.07132    37625.902 
  137700    299.45792   -1487.6427    444.08077    302.51992   -1233.8606    37625.902 
  137800    308.54781   -1471.6533    456.34998     371.6381   -743.46875    37625.902 
  137900     292.6299   -1480.1116    468.71446    303.99231   -572.70773    37625.902 
  138000    298.80035   -1457.8411     459.0401    344.32501   -238.86758    37625.902 
  138100    300.35559   -1477.8078    483.09827    355.40738   -359.78392    37625.902 
  138200    295.97331   -1445.7278    469.41648    354.10695    25.062601    37625.902 
  138300    293.55796   -1467.1871    484.90569    337.27966   -222.94638    37625.902 
  138400    285.36841   -1413.2262    485.45378    354.97611    107.16314    37625.902 
  138500    300.52287   -1436.6416    478.50655    392.73378    234.38243    37625.902 
  138600     298.2376   -1423.9963    462.01933    378.61936    98.039941    37625.902 
  138700    296.91524   -1449.3371    495.20695    380.52213    227.44578    37625.902 
  138800    287.88053   -1463.9891    458.74534     288.7969    164.89068    37625.902 
  138900    305.67092   -1529.2547    463.96165    308.71658    486.13012    37625.902 
  139000    306.81591   -1525.5333    466.36371    319.98681    154.81083    37625.902 
  139100    307.76599   -1544.3174    443.48783    282.59746    128.34832    37625.902 
  139200    293.20656   -1531.0119    457.71958    244.68924   -714.02264    37625.902 
  139300     302.4793   -1486.7472    463.51697    336.43284   -287.41588    37625.902 
  139400    301.06856   -1478.5085     485.1674    359.98056   -469.73486    37625.902 
  139500    299.44071   -1505.5649    461.31595    301.75544   -702.75859    37625.902 
  139600    309.41777   -1456.5473    481.16581    415.47041    -296.9001    37625.902 
  139700     308.1491   -1505.1062    459.81065    339.85357   -493.74629    37625.902 
  139800    298.62563   -1505.9918    457.69015    294.03897   -187.32581    37625.902 
  139900    301.33338   -1511.7781    450.20863    292.94265   -89.160171    37625.902 
  140000    308.40129   -1531.9603    456.06001    310.38245   -126.36205    37625.902 
  140100    296.74354   -1556.6639    466.70791    243.92451     257.5681    37625.902 
  140200    308.10794   -1517.6297    487.09966    354.43406    429.55412    37625.902 
  140300    305.77356   -1521.3278    458.52274    311.66594    271.49965    37625.902 
  140400    311.53734   -1531.8858    470.49184    338.98555    45.174615    37625.902 
  140500    307.27631   -1509.3222    447.88222    319.78595   -115.70801    37625.902 
  140600    300.29484   -1479.5889    451.83249    322.08737   -93.688193    37625.902 
  140700    303.83213   -1491.8247    456.94369    330.86313   -360.98073    37625.902 
  140800     311.2975   -1450.9935    470.68075    418.98863   -590.38718    37625.902 
  140900    300.22409   -1483.8951    455.54108    321.17175   -274.49592    37625.902 
  141000    308.16828     -1522.88    444.42855    306.78391    151.53812    37625.902 
  141100    297.69777    -1537.733    461.54409    261.98088   -347.13821    37625.902 
  141200    294.35566   -1492.8932    472.70118    302.95483   -778.72801    37625.902 
  141300    298.11149   -1460.2306    461.97412    341.77297   -1006.2896    37625.902 
  141400    300.52116   -1510.6686    457.53608    297.72853   -610.52958    37625.902 
  141500    313.62036   -1490.4178    462.04516    381.37018   -353.19652    37625.902 
  141600      307.717   -1491.9807     454.1123    345.33849   -422.65071    37625.902 
  141700    303.07333   -1513.4546    453.90639    302.78512    124.75512    37625.902 
  141800    309.29457   -1492.0254    440.62469    338.89746    94.709396    37625.902 
  141900    302.93747   -1498.1122    439.52969    303.14006   -24.534554    37625.902 
  142000    296.55909   -1526.2469    449.50636    256.31085   -487.81248    37625.902 
  142100    313.46722    -1557.892    439.20318    290.36559   -656.09375    37625.902 
  142200    288.39791   -1512.0471    475.99599    260.31522   -629.84931    37625.902 
  142300    302.60323   -1542.1676    480.57071    298.62319   -522.63467    37625.902 
  142400    303.38296   -1479.8211    464.41731    348.32133    92.394609    37625.902 
  142500    291.98017   -1481.6429    481.65699    312.48298   -730.48384    37625.902 
  142600    302.57496   -1453.2283    477.12279    383.98756    256.76274    37625.902 
  142700    306.31394   -1470.5635    472.39177    378.72832    379.15935    37625.902 
  142800    293.87648   -1461.1905    483.96562      343.768   -57.027332    37625.902 
  142900    305.91338   -1448.0621    478.75344    405.79079   -288.96787    37625.902 
  143000    306.06178   -1426.9333    484.32293    433.15619    8.7869553    37625.902 
  143100    302.59489   -1448.4614    455.32533    367.04657    16.141661    37625.902 
  143200    303.53085   -1505.0684    468.31179    327.63322   -658.75164    37625.902 
  143300    299.52107   -1471.9161    471.58359    346.03313   -134.94563    37625.902 
  143400    297.05209   -1461.1133    505.77635    379.93052    105.60908    37625.902 
  143500    307.47357   -1457.4327    475.91004    400.58998   -358.46584    37625.902 
  143600    296.05071   -1478.9961    474.04361     325.8137    132.84253    37625.902 
  143700    299.07318   -1438.0776    498.73351    405.00827    120.47325    37625.902 
  143800     318.5271   -1411.5927    484.52354    504.72979    50.175335    37625.902 
  143900    300.17438    -1452.317    463.91251    360.89785   -35.149215    37625.902 
  144000    300.35562   -1479.4188    476.74944    347.44763   -65.382936    37625.902 
  144100    300.08055   -1467.2842    486.34663    367.94297   -581.16593    37625.902 
  144200    297.81109   -1441.0929    487.81559    385.40189   -368.92681    37625.902 
  144300    290.88812   -1475.5215     490.3251    322.36354   -420.06073    37625.902 
  144400    307.69662   -1520.3271     471.7933    334.58142   -264.78457    37625.902 
  144500    294.48058   -1459.4666    479.60332    343.84508   -331.62386    37625.902 
  144600     300.3377   -1442.0498    479.31126    387.29792   -184.01644    37625.902 
  144700    300.77401   -1430.9601    455.25769    376.29528   0.89514225    37625.902 
  144800    299.69321   -1501.5552    465.97443     311.5587   -154.09438    37625.902 
  144900    314.04039   -1525.5721    458.87618    344.93495    16.433835    37625.902 
  145000    289.54703   -1506.1098    474.72239    270.14426    67.137208    37625.902 
  145100    306.07565   -1496.6454    449.10459    328.28805   -288.77419    37625.902 
  145200    303.01638   -1519.2635    461.46716    304.28093    280.23785    37625.902 
  145300    294.06222   -1499.6049    474.50929    296.73217    112.65117    37625.902 
  145400    306.02608   -1559.4268    483.83521    300.01448   -109.91664    37625.902 
  145500    301.99832   -1548.9593    461.10913    269.65091   -914.86881    37625.902 
  145600    294.30608   -1541.5778    502.86542    284.21157   -564.68543    37625.902 
  145700    303.44334   -1512.5784    490.71974    342.13784   -339.96708    37625.902 
  145800    300.10641   -1521.8318    466.16846    293.33346    76.289517    37625.902 
  145900    296.48751   -1557.6134    483.29315    258.40936   -170.98498    37625.902 
  146000    294.45037   -1598.5635    469.79248    194.80148    487.89165    37625.902 
  146100    294.68355   -1547.3955    447.11836    224.34356    295.16444    37625.902 
  146200     307.2191   -1545.9218    468.43989     303.4868   -8.3410064    37625.902 
  146300    300.02621   -1468.2042    476.34358     356.7757   -311.63082    37625.902 
  146400    310.80004   -1514.6393    483.87507    366.30104   -414.39783    37625.902 
  146500    302.20521   -1486.7704    490.23903    361.89962   -286.01776    37625.902 
  146600    300.42295   -1542.4105    450.93145    258.94059   -351.11499    37625.902 
  146700    306.43363   -1507.0406    466.09229    336.48976    117.92125    37625.902 
  146800    301.87942   -1500.1089    485.19593    342.05358    557.39082    37625.902 
  146900    302.52244   -1525.6471    453.55298    287.76287    125.37165    37625.902 
  147000    297.40862   -1469.5357    487.98525    355.31963     23.76399    37625.902 
  147100    301.70971   -1496.7327    474.72791    334.19894     53.34783    37625.902 
  147200    295.40802   -1529.0569    471.83712    270.65742    175.85105    37625.902 
  147300    295.55588   -1508.3916    454.70006    274.85036    1.9949507    37625.902 
  147400    292.19176   -1525.8633    479.97401    267.53061    49.308749    37625.902 
  147500    297.61306   -1500.4785    456.21209    293.52258    366.18439    37625.902 
  147600    290.14852   -1492.8005    495.54402    306.97892    398.29605    37625.902 
  147700    295.32437   -1518.3907    461.80526    270.91579    106.24348    37625.902 
  147800    291.94581   -1509.4774    455.25736    258.09429   -210.53776    37625.902 
  147900     301.2409   -1467.4038    466.37246    353.06505   -433.81181    37625.902 
  148000    305.86954   -1504.3031     460.2874    330.88673   -256.12399    37625.902 
  148100    296.95469   -1480.2248    460.96351    315.56835    -739.2262    37625.902 
  148200    293.72102   -1533.8333    463.43655     249.8973    49.310254    37625.902 
  148300    295.21503   -1474.1666    506.99546    359.83862    81.451228    37625.902 
  148400    302.77467   -1502.4215     479.5868    338.15605    276.23377    37625.902 
  148500    309.02664   -1500.9826     473.7813    361.89251    432.56203    37625.902 
  148600    299.58007   -1490.3008    463.36008    319.69017    220.35156    37625.902 
  148700    301.19896   -1504.6842    489.17804    338.40173     440.5745    37625.902 
  148800    300.28097   -1487.9014    475.56469    337.44472   -56.962341    37625.902 
  148900    307.61742   -1530.4308    476.95379    329.28219    360.36307    37625.902 
  149000    302.27316   -1527.0231    477.88175    309.59511    16.417229    37625.902 
  149100    296.24322   -1531.8667    490.90188    290.66668    585.45402    37625.902 
  149200    298.26215   -1482.2963    503.40628    361.81669    659.60416    37625.902 
  149300    294.52648   -1477.5865    492.99701    339.32517    317.59013    37625.902 
  149400    307.19338   -1517.4673    487.07516    350.46105    634.78664    37625.902 
  149500    301.00928   -1501.4101    484.40376    336.04886    527.41849    37625.902 
  149600    292.73903   -1479.1896     480.2782    316.96859     110.3466    37625.902 
  149700    303.25325   -1478.8711    469.76519    354.03607    359.02741    37625.902 
  149800    309.31396   -1490.2064    498.76444    398.94335   -141.10478    37625.902 
  149900    294.01646   -1483.2786    480.29188     318.6354   -174.29008    37625.902 
  150000    309.35114   -1481.2942    506.36964    415.62786     82.03483    37625.902 
  150100    308.36907   -1475.2557    483.05637    393.93859   -41.947389    37625.902 
  150200    295.58696   -1484.5107    482.58696    326.75783   -413.80604    37625.902 
  150300    296.26076   -1485.2714    494.96291    341.40189   -349.76066    37625.902 
  150400    296.92725   -1475.7609    492.20158    351.14694    123.98492    37625.902 
  150500     301.3748   -1475.1342    466.02587    345.58991    155.54535    37625.902 
  150600     307.5015   -1479.1964    513.67981    416.72151    515.59689    37625.902 
  150700    302.87723   -1496.1693    464.73052    330.01297    17.219718    37625.902 
  150800    299.10685   -1468.6397     493.2327     369.0967   -139.45031    37625.902 
  150900    303.02682   -1520.3426    479.54186    321.32344   -62.365452    37625.902 
  151000    303.02559   -1516.1625    479.75119    325.70739    93.791526    37625.902 
  151100    302.55114   -1506.3591    507.08658    360.71343   -123.88775    37625.902 
  151200    300.58288   -1498.9828    478.18412    330.33983    724.25502    37625.902 
  151300    294.85361   -1503.1134    482.83874    305.11047   -288.97871    37625.902 
  151400    289.04086   -1479.0085    488.52429    308.77223   -946.83006    37625.902 
  151500    303.54472   -1499.8098    489.85447    354.49682   -697.14217    37625.902 
  151600    304.31984   -1590.3104     464.2378    241.86378    186.55812    37625.902 
  151700    310.11491   -1531.9064     484.0821     346.1613    287.18953    37625.902 
  151800    293.03489    -1548.945    488.02342    256.28827   -79.229189    37625.902 
  151900    310.81206   -1494.9707    474.20952    376.35818    319.41052    37625.902 
  152000    307.19832   -1470.1194      494.142    404.89799    163.88732    37625.902 
  152100    303.46615   -1511.6266    487.42822    339.90061    430.74945    37625.902 
  152200    298.77423   -1553.8592    457.83845    246.98775    340.34616    37625.902 
  152300    295.40993   -1519.8577    469.62365    277.65177   -229.90643    37625.902 
  152400    300.65586   -1481.4396    469.94578     339.9728   -12.185593    37625.902 
  152500    302.13964   -1497.8962    486.23503    346.47508   -124.38288    37625.902 
  152600    307.30415   -1525.7884    489.49891    345.06156   -154.77168    37625.902 
  152700    294.32113   -1495.5573     492.7264    320.16066   -23.902972    37625.902 
  152800    299.41829   -1574.7524    472.60964    243.76095    54.023168    37625.902 
  152900    298.62494   -1558.3816     467.6024    251.55834   -220.00278    37625.902 
  153000    303.71827   -1532.1222    477.43541    310.54558   -327.62801    37625.902 
  153100    289.40664   -1560.7065    478.57468    218.76884    13.220256    37625.902 
  153200    304.96866   -1600.3608    489.41608    259.90816    451.53767    37625.902 
  153300    300.14428   -1595.3918    449.70436    203.47958   -325.79197    37625.902 
  153400    284.53906   -1579.5004    487.79169    187.31186    388.97689    37625.902 
  153500    305.38043   -1537.2487    481.68481    317.13993   -165.99461    37625.902 
  153600    309.80236   -1561.2258    499.72216    331.07703    62.331853    37625.902 
  153700    286.55741   -1568.5278    472.66085    192.22626    333.01716    37625.902 
  153800    312.59109   -1524.6863     470.6741    351.10401      154.818    37625.902 
  153900    311.83854   -1616.5849    487.43715    272.58569   -523.00106    37625.902 
  154000    285.12721    -1578.383    470.30171    173.58308   -769.50071    37625.902 
  154100    311.88461   -1543.5353    473.67793    332.08316    120.39218    37625.902 
  154200    299.91797   -1577.6688    472.52888    243.00988     25.08936    37625.902 
  154300    293.84313    -1599.994    486.65123    207.50019   -369.17137    37625.902 
  154400    310.14452   -1584.0789    484.28572    294.32555    291.01996    37625.902 
  154500     299.1248   -1580.0621     501.4406    265.96284    213.92783    37625.902 
  154600    303.56159   -1598.5224    442.90837    208.91405    95.511484    37625.902 
  154700    300.30362   -1600.0247    469.93278    219.79135   -11.141014    37625.902 
  154800    298.77467   -1586.2313    476.00732    232.78653    27.505488    37625.902 
  154900    294.32457   -1578.1676    473.98004    218.81953   -71.334209    37625.902 
  155000    303.93505   -1549.3422    481.92249    298.78706    10.665791    37625.902 
  155100    288.44421   -1568.0836    479.27342     207.7643   -574.20598    37625.902 
  155200    301.97221   -1516.2148    492.64829    333.81717    42.949106    37625.902 
  155300    295.45764   -1510.5875    479.01387    296.52662   -405.11494    37625.902 
  155400    299.51177   -1556.9636    477.79323    267.15343    347.70105    37625.902 
  155500     302.4363   -1539.6848    499.13806    318.92303   -208.12356    37625.902 
  155600    298.92287   -1545.9115    485.75667    283.52188    148.87626    37625.902 
  155700     295.4294   -1550.7238    475.21303    252.46258    321.65978    37625.902 
  155800    296.09841    -1558.045    510.11239    283.04798   -113.69984    37625.902 
  155900    298.72631   -1514.7136    498.21505     326.2946    11.690948    37625.902 
  156000    327.70531   -1577.3442    443.54863    339.26002    209.43936    37625.902 
  156100    294.80297   -1563.9154    468.24223     229.4843    49.304764    37625.902 
  156200    306.52121   -1563.8965    453.60585    267.54104    231.21628    37625.902 
  156300    291.95993   -1549.4204    493.83957    256.79699    63.409138    37625.902 
  156400    302.20248   -1559.2634    465.81506    264.97044    205.29097    37625.902 
  156500    311.61617   -1534.7698     496.8887    362.85276    173.75638    37625.902 
  156600    299.02879   -1541.8178    470.03987    272.37485     224.0414    37625.902 
  156700    314.33968   -1550.9226    492.54534    354.59892   -202.34509    37625.902 
  156800    301.19108   -1571.6471    486.52989    268.75522    -491.7589    37625.902 
  156900    298.77022   -1513.6939    492.51238    321.80904   -825.74057    37625.902 
  157000    304.39042   -1537.0837    472.25684    303.42677   -727.10214    37625.902 
  157100    296.90693    -1538.117    492.78957    289.28747   -739.51509    37625.902 
  157200    297.83819   -1540.6818    475.35913    273.47829   -7.4613285    37625.902 
  157300    292.98331   -1537.5629    487.72544    267.14052   -124.67851    37625.902 
  157400     300.1449   -1523.5267    493.47499    319.11809    111.54057    37625.902 
  157500    304.16065   -1550.1131    482.08874    299.19652    404.95802    37625.902 
  157600    290.88751   -1532.3724    486.98058    262.16545    416.04394    37625.902 
  157700    305.34949   -1562.5918    496.78528    306.75819    49.727543    37625.902 
  157800    302.48742   -1502.4093    498.96246    356.25276   -352.32761    37625.902 
  157900    301.64293   -1514.7073    480.04384    321.24014   -212.84092    37625.902 
  158000    288.00306   -1534.2921    484.68782     244.9872    511.25289    37625.902 
  158100    303.50175   -1513.6345    491.33663    341.96113    773.48656    37625.902 
  158200    303.95617   -1542.8391    485.33241    308.79495    732.28361    37625.902 
  158300    306.44689   -1559.7579    483.96967    301.70945    734.57444    37625.902 
  158400    301.61068   -1495.9031    493.13991    352.99537    473.48654    37625.902 
  158500    289.73287   -1520.3255    513.81422    295.85578    321.40592    37625.902 
  158600    296.76119   -1518.0248    463.10584    279.04085    824.08038    37625.902 
  158700    292.69726   -1556.2276    498.68286    258.14751   -16.567184    37625.902 
  158800    304.32805   -1541.6196     494.4106    320.76433    221.96507    37625.902 
  158900    312.33666   -1557.4559    503.68115    350.19776    6.2947438    37625.902 
  159000     295.9954   -1602.3128    471.28825    199.49296    -132.8068    37625.902 
  159100    298.92387   -1516.2042    470.53749    298.01449    116.66695    37625.902 
  159200    301.29238    -1523.106    498.79363    330.01546    552.46815    37625.902 
  159300    298.46566   -1567.8999    463.68512    237.40675    523.87217    37625.902 
  159400    291.64242   -1554.2862    485.55916    242.22359   -163.24051    37625.902 
  159500      294.623   -1534.9155    464.64605    254.07907   -454.53143    37625.902 
  159600    290.38597   -1587.2923    479.18062    197.19116    245.09999    37625.902 
  159700    301.73204   -1533.9011    476.49863    298.90156   -188.41003    37625.902 
  159800    307.48583   -1489.9376    510.18569    402.41577    131.14646    37625.902 
  159900    298.41768    -1539.048    470.36302    272.72087   -155.69514    37625.902 
  160000    293.80775   -1513.5634    493.80023    300.92078   -114.41515    37625.902 
  160100    307.43778   -1505.0082    487.85819    364.80172    272.88907    37625.902 
  160200     298.0082    -1545.356    468.58445    262.79361   -100.46394    37625.902 
  160300    298.19379   -1521.7436    511.34803    330.00387    354.91923    37625.902 
  160400    304.32238   -1547.9752     470.2202    290.19285    249.77568    37625.902 
  160500    302.36225   -1574.5976    450.36964    234.90894    329.61152    37625.902 
  160600    299.94752   -1566.0951    509.28035    291.46783   -29.140397    37625.902 
  160700     298.8265   -1536.2656    495.33777    302.31563   -686.15216    37625.902 
  160800    305.04779   -1492.7546    516.86512    395.31912   -426.04255    37625.902 
  160900    299.50989   -1490.0262    483.35969    339.64892   -160.18987    37625.902 
  161000    297.31573   -1475.5663    476.50695    337.39316   -270.46007    37625.902 
  161100    292.46395   -1501.8007    485.66185    298.50461   -601.86188    37625.902 
  161200    297.81946   -1489.2008    495.35124    344.86724   -866.08842    37625.902 
  161300    310.01941   -1467.4956    506.56107    432.62182   -1101.1716    37625.902 
  161400     306.0257   -1477.2457    478.39463    376.75332   -879.48611    37625.902 
  161500    292.43637   -1513.5739    491.69879    292.64441   -496.39702    37625.902 
  161600    305.42345   -1541.2386    462.28236    293.94097   -1113.1562    37625.902 
  161700     308.3905   -1533.7351    498.19316    350.69235    293.87408    37625.902 
  161800    291.77546   -1567.8212    477.46251    221.19002    282.30123    37625.902 
  161900    295.87191   -1548.3365    493.00528    274.63119    851.19541    37625.902 
  162000    307.98388   -1516.4179       483.56    351.54864    235.72387    37625.902 
  162100     306.1495   -1494.8736    512.14984    393.43709    56.643707    37625.902 
  162200    289.56124   -1525.4172    473.26513     249.4435    -869.3786    37625.902 
  162300    298.33021   -1573.4788    463.94817    231.48203   -150.74147    37625.902 
  162400    300.40663   -1515.4883    510.67934    345.53732    82.188005    37625.902 
  162500    305.28156   -1521.1426    476.75653    327.87336    112.99151    37625.902 
  162600    306.02581   -1474.9871    501.62807    402.24581    483.79216    37625.902 
  162700    298.83563    -1472.578    491.90525    362.61184    665.93528    37625.902 
  162800    291.60988    -1494.764    482.05014    298.09052    963.35387    37625.902 
  162900    295.46503   -1530.6776    495.62254     293.0784    779.47828    37625.902 
  163000    301.78702   -1541.5466    479.40455    294.40924    1200.4167    37625.902 
  163100    309.04805   -1581.5772    494.26808    301.88083    799.37898    37625.902 
  163200    288.87144   -1499.3742    509.39058    308.51125    478.69895    37625.902 
  163300    305.06812   -1527.2908    509.21896    353.22812    570.16757    37625.902 
  163400    290.43746   -1545.4718    464.03901    224.10148   -113.96861    37625.902 
  163500    313.39885   -1511.2961    474.84682    372.29783   -124.49815    37625.902 
  163600    295.64901    -1560.518    483.49196    251.93445     132.9716    37625.902 
  163700    313.24107   -1536.9825    478.39795    349.45339    72.570614    37625.902 
  163800    311.58923   -1569.4727    480.95438    312.09443    394.60443    37625.902 
  163900    296.70609   -1543.3992    472.36103    262.67401    952.85624    37625.902 
  164000    304.56814   -1567.9658     498.3659    299.45258    221.73055    37625.902 
  164100    306.65836   -1585.3024    481.53749    274.68327    885.48407    37625.902 
  164200     299.6622    -1589.132    479.85492     237.7229   -283.99722    37625.902 
  164300     300.6726   -1534.7882    464.29788    281.05151    -140.4289    37625.902 
  164400    296.48835   -1592.7361    483.68869    223.68598    50.969998    37625.902 
  164500    302.12605   -1615.5173    479.09806    221.65592   -162.90574    37625.902 
  164600    307.96744   -1594.1525    497.62943    287.80954    131.52388    37625.902 
  164700    301.66187   -1615.7221    468.25529    208.52191    173.16232    37625.902 
  164800    307.25785   -1595.3966     480.2837    266.03007    587.08824    37625.902 
  164900    293.76097   -1590.6127    476.49579    206.35677   -142.50534    37625.902 
  165000    294.82901   -1548.7631    480.81025     257.3217    299.91829    37625.902 
  165100     305.0944   -1581.0321    473.95894    264.34494   -35.656874    37625.902 
  165200    301.19457   -1562.9089    501.79012    292.76935   -520.95245    37625.902 
  165300    295.32204   -1599.6582    470.39243    198.22497   -464.67814    37625.902 
  165400    299.68257   -1580.5255    475.72431    242.29047   -782.70715    37625.902 
  165500    299.35699   -1532.2487    489.10547     302.4849   -703.85418    37625.902 
  165600    293.41847    -1560.375    487.01595    245.57504    91.384918    37625.902 
  165700    290.37073   -1596.4034    495.05246     203.8834    138.60503    37625.902 
  165800    310.81909   -1574.6828    472.92275    295.39089    129.25211    37625.902 
  165900     294.8985   -1603.4408    496.55885    218.70495    26.846338    37625.902 
  166000    305.22967   -1594.1112    491.32025     269.2352    37.155073    37625.902 
  166100    299.58171   -1590.4596    495.16186    251.34046    370.08884    37625.902 
  166200    303.11793   -1581.8456    474.31412     255.0023    150.00511    37625.902 
  166300    291.52564   -1569.7685    495.88455    236.54177   -102.53501    37625.902 
  166400    317.39737   -1553.8081    499.45475    372.36741    89.398649    37625.902 
  166500    302.74184   -1537.4798    492.26188    315.62523   -338.55801    37625.902 
  166600    306.70233   -1517.4792    494.59124    355.75786    59.074518    37625.902 
  166700    297.68233   -1570.9736    501.29857    268.42539   -51.027123    37625.902 
  166800    303.40777   -1560.9799     497.5974    300.45411   -352.17406    37625.902 
  166900    299.76371   -1541.3427    492.19852    298.31212    446.02808    37625.902 
  167000    304.68132   -1558.1474    503.52856    314.94242    467.66118    37625.902 
  167100    297.39987   -1610.8162    487.45297    213.46753     317.6029    37625.902 
  167200    311.63327   -1590.0413    479.29431     290.0638   -226.71987    37625.902 
  167300    290.60773   -1574.1396    470.29398      202.454   -133.24182    37625.902 
  167400    301.43528    -1525.699    507.48816    336.75931   -26.423584    37625.902 
  167500    310.58343   -1584.2003    474.84046     286.7318    -217.9112    37625.902 
  167600    294.60155   -1611.8864    476.41193    188.77763    92.942891    37625.902 
  167700    299.15898   -1601.6568    507.34992    250.43113     584.7023    37625.902 
  167800    293.74742   -1601.2065    486.11182    205.31801    990.15716    37625.902 
  167900    302.40242   -1537.6669    495.55227    317.20291    689.19139    37625.902 
  168000    298.30022   -1529.7721    503.46906    314.57478    490.64619    37625.902 
  168100    305.74423   -1562.2731    508.54204    320.60811    560.11147    37625.902 
  168200    290.37241   -1541.0223    500.11444    264.33402    1068.1498    37625.902 
  168300    300.94411   -1564.2569     511.8956    300.40103  -0.25567222    37625.902 
  168400    305.61419   -1573.1347      493.757    294.37688   -72.924658    37625.902 
  168500    287.99066    -1565.432    480.76929    209.87299   -839.26855    37625.902 
  168600    301.27688   -1582.5661    502.12473    273.81676    -216.2246    37625.902 
  168700    301.82392     -1598.37    477.90839    236.25549    -583.2811    37625.902 
  168800    293.78258   -1590.3237    466.37086    196.61798   -162.10506    37625.902 
  168900    302.20701   -1555.3555    494.32585    297.40949   -758.24075    37625.902 
  169000    310.90019    -1523.993    469.55178    343.07425    116.40978    37625.902 
  169100    303.06668   -1557.8685    496.19377    300.62862   -407.92566    37625.902 
  169200     290.9165   -1568.7001    495.18062    234.16805   -72.940176    37625.902 
  169300    297.89699   -1531.7081    492.98729    300.34448    30.919879    37625.902 
  169400    304.97333   -1533.9083    500.42688    337.39247    96.171578    37625.902 
  169500    297.27691   -1563.3719    498.44523    271.35139    -119.3498    37625.902 
  169600    299.24578   -1560.0865    505.22623    290.26792   -303.38131    37625.902 
  169700    296.18983    -1550.894    485.78879    266.28631   -467.23631    37625.902 
  169800    300.91642   -1509.3801    515.67138    358.92911   -584.42751    37625.902 
  169900     294.8148   -1547.0613    494.62726    272.77663   -133.93002    37625.902 
  170000    302.42315   -1569.9069    494.83565    284.33947   -462.55179    37625.902 
  170100    307.27507   -1534.4639    503.45893    350.21533   -168.59477    37625.902 
  170200    297.35185   -1543.1708    496.11177    289.55582   -742.08169    37625.902 
  170300    299.33853   -1555.7907     514.1146    303.86903   -252.02276    37625.902 
  170400    293.02271    -1566.136    502.17751    253.19661   -786.97298    37625.902 
  170500    296.71798   -1486.2887    479.17629    326.65323   -118.72527    37625.902 
  170600    292.70977   -1517.4476    482.21447     280.5153   -379.38662    37625.902 
  170700    296.53723   -1545.7596    505.96365    293.15717   -524.59852    37625.902 
  170800    298.04156   -1569.1675    474.18777    244.73546    101.25182    37625.902 
  170900    307.65574   -1554.4926    507.50291    335.94186    261.42395    37625.902 
  171000    305.43179   -1547.9068    498.73715    323.76505    644.88804    37625.902 
  171100    315.43995   -1508.3395    463.43336    373.01585    253.07787    37625.902 
  171200     306.2961   -1529.5672    518.84246    366.09513    198.49329    37625.902 
  171300    302.06621   -1518.2413    493.17747     332.7424     204.4181    37625.902 
  171400    308.51436   -1502.4589      497.976    382.30817     44.53753    37625.902 
  171500    304.20355   -1545.3982    469.50845    291.52393    245.76734    37625.902 
  171600    315.58783   -1535.6125    496.15106    379.12532    466.15394    37625.902 
  171700     301.7621   -1537.4686    477.78411     296.7547    102.19346    37625.902 
  171800    298.98543   -1519.7248    484.76656    308.99963    300.44635    37625.902 
  171900    314.71585   -1522.5786    481.69754    373.78609    323.50951    37625.902 
  172000    292.49708    -1534.583    487.65774    267.86708   -195.58843    37625.902 
  172100    294.33621   -1535.1234     468.8767    256.81272   -461.87118    37625.902 
  172200    297.02468   -1553.2125    478.40019    260.33187   -269.09522    37625.902 
  172300    306.85165   -1539.2496    519.09736    359.16483   -639.05427    37625.902 
  172400    299.28314   -1537.4839    458.68624    266.49844   -621.62151    37625.902 
  172500    293.24349   -1517.5382    484.65295    285.26229   -687.79796    37625.902 
  172600    295.17447   -1524.6284    500.87114     303.0702   -5.8642052    37625.902 
  172700    305.46649   -1530.2267     490.3153    333.17925    163.53944    37625.902 
  172800    293.21633   -1564.9492    461.80311    214.87941   -159.90893    37625.902 
  172900     300.9734   -1554.7361    497.88151     296.0393    76.526092    37625.902 
  173000    299.70931   -1568.2245    461.33037    240.31771    299.78126    37625.902 
  173100    305.38158   -1518.0203    496.96426      351.653    156.51221    37625.902 
  173200     293.8028   -1558.9763    487.90446    249.58984   -964.86818    37625.902 
  173300    295.76437   -1568.3263    498.26883    259.42156    104.33645    37625.902 
  173400    298.90038   -1535.0226    505.28224    313.83528   -252.46361    37625.902 
  173500    287.85102   -1546.5162    484.82845    232.22027   -682.50475    37625.902 
  173600    297.77694   -1543.7754    495.22869    289.97899   -950.42841    37625.902 
  173700    300.33261   -1525.3877    471.85946    296.48531    114.59347    37625.902 
  173800    302.00807   -1539.5761    531.01194     348.9807    70.472221    37625.902 
  173900    300.70167   -1551.7124    491.11877    291.07882   -29.222883    37625.902 
  174000    295.95357   -1522.8436    498.99133    306.47719    1141.1166    37625.902 
  174100    295.94786    -1546.541    491.79179    275.55462     484.8527    37625.902 
  174200    300.70096   -1512.6086    504.26376    343.32448    621.32311    37625.902 
  174300    289.79766   -1506.7605    500.49532    296.39311    343.16372    37625.902 
  174400    286.98713   -1560.7352    502.93504    232.22465    555.05119    37625.902 
  174500    298.74911   -1524.5103    506.68243    325.06781    707.11859    37625.902 
  174600    304.19961   -1547.1324    499.53783    319.80143    263.00284    37625.902 
  174700    298.02363    -1583.707    496.13898    252.06655    -43.74098    37625.902 
  174800    298.00528   -1531.3257    501.31101    309.53743    130.23556    37625.902 
  174900    297.93276   -1540.8327    501.66539     300.0588    321.05633    37625.902 
  175000    290.74173   -1531.4191    496.30038    271.78322   -252.41871    37625.902 
  175100    290.01873   -1547.5163    464.67229    220.80806   -256.06421    37625.902 
  175200    298.88361   -1500.6193    517.55018    360.43112   -592.21655    37625.902 
  175300    299.08422   -1571.0373    490.79553    264.16018   -482.82306    37625.902 
  175400    287.34517   -1542.6786    465.26676     214.2224   -189.95218    37625.902 
  175500    303.85993   -1525.3179    464.10964    304.66081    209.86253    37625.902 
  175600    318.13721   -1551.8338    530.10692    408.31943    387.19426    37625.902 
  175700     296.8163   -1546.8928    477.35922    264.67395    615.40243    37625.902 
  175800    295.25802   -1524.1191    487.91501    290.99883    311.83483    37625.902 
  175900     308.8806   -1532.6735    529.76005    385.52391   -112.25294    37625.902 
  176000    302.22275   -1534.5631    483.70269    307.64947    65.822594    37625.902 
  176100    296.17176    -1528.246    494.24484    297.30909     330.1258    37625.902 
  176200    304.97464   -1503.1177    519.06995    386.83201    354.52702    37625.902 
  176300    306.49096   -1523.2054     469.3512    323.84151   -754.14763    37625.902 
  176400    309.89217   -1508.4729    476.96654    361.47803    -483.1565    37625.902 
  176500    308.98953    -1492.338    486.93427    383.52324   -351.64138    37625.902 
  176600    301.35295   -1468.1064    506.43961    392.93325   -372.29042    37625.902 
  176700    303.47906   -1494.5038    460.34038    329.99358   -74.271101    37625.902 
  176800    294.95764   -1521.8709     507.8938    311.87567   -156.11506    37625.902 
  176900    299.75913   -1480.3652    482.67361     349.7442    41.216327    37625.902 
  177000    294.80128   -1492.0289    474.07723     307.1982    75.132194    37625.902 
  177100    301.46546   -1525.2012    498.81843      328.723   -155.95517    37625.902 
  177200    294.59395   -1476.8519    487.48765    334.85368   -356.96499    37625.902 
  177300    302.12641   -1528.2773     500.4071    330.20657   -424.69356    37625.902 
  177400    299.60624   -1505.8896    484.19102    325.04992   -327.57203    37625.902 
  177500    288.33282   -1498.3283    477.76259    275.50805   -146.66439    37625.902 
  177600    290.04862   -1530.4495    472.54568    245.88261    17.077267    37625.902 
  177700    300.00821   -1548.3508    480.46347    280.66809    142.85567    37625.902 
  177800    307.24416   -1557.3749    499.03045      322.737   -39.745528    37625.902 
  177900    303.22827   -1564.8186    483.70473    281.91587    592.18504    37625.902 
  178000    295.97492   -1518.5809    482.51853    294.36309     583.8807    37625.902 
  178100     297.5503   -1492.8777    480.72128    325.35051    429.68087    37625.902 
  178200    292.24951   -1567.0109    487.43004    234.09869    231.60851    37625.902 
  178300    302.63351   -1565.1062    481.06896    276.31901     240.5776    37625.902 
  178400    309.78165    -1506.202    490.32964    376.61526    635.78206    37625.902 
  178500    307.04497    -1517.639    480.09121    342.63826   -264.37109    37625.902 
  178600    304.64319   -1522.1768    513.52932     360.7424     -124.382    37625.902 
  178700    293.17386   -1513.2485     466.4243    271.01032   -183.99929    37625.902 
  178800    291.52526   -1531.0167    470.40116    249.80844   -427.57941    37625.902 
  178900    292.96301   -1558.6299    491.99394    250.25078    -569.2261    37625.902 
  179000    296.41602   -1550.8696    451.44944    232.98814    119.15219    37625.902 
  179100    308.00277   -1512.8627    475.25805    346.88674    206.83052    37625.902 
  179200    297.62079   -1552.2083    480.50797    266.12341    193.74883    37625.902 
  179300    309.54287   -1531.2303    463.21554    323.39943    79.583892    37625.902 
  179400    311.37588   -1554.3679    482.41131    327.69714    583.19918    37625.902 
  179500    302.18192   -1562.6091    484.18067    279.89786    700.48185    37625.902 
  179600    297.81646   -1532.4068    466.50573    272.80224    896.18629    37625.902 
  179700    304.07135   -1538.6242    447.47789    275.67314    129.61508    37625.902 
  179800    299.93606   -1535.7607    484.67194    297.14225    345.66654    37625.902 
  179900    288.52276   -1554.6121    492.50223    234.81773   -51.398306    37625.902 
  180000    298.47406   -1575.3218    469.07719    235.41461    40.634605    37625.902 
  180100    295.71611   -1545.6313    457.67708    241.30793   -181.97607    37625.902 
  180200    293.72193   -1551.4218    457.64051    226.51689   -449.74808    37625.902 
  180300    293.10454    -1523.824    489.26808      282.967    106.70335    37625.902 
  180400    285.87441   -1537.3693    467.23965    214.89345    219.40602    37625.902 
  180500    298.08466   -1506.6149    474.69382    307.98781    394.78254    37625.902 
  180600    300.35965   -1552.9593    476.63541    273.81117   -21.543823    37625.902 
  180700    299.87246   -1542.0697    453.27003    259.14554    66.504671    37625.902 
  180800    294.11235    -1497.386    491.80876    316.47589    -29.72862    37625.902 
  180900     296.1931    -1490.958     510.6305    351.07869   -458.13155    37625.902 
  181000    289.46778    -1524.174     463.6534    240.65491   -736.32055    37625.902 
  181100     284.3025   -1533.8954    489.75105    233.81288   -708.47454    37625.902 
  181200    291.83272   -1495.5923    489.04701    305.26077   -419.97696    37625.902 
  181300    307.28822   -1492.8149    475.78508    364.24965   -384.31403    37625.902 
  181400    299.03609   -1521.6407    470.59402    293.13894   -102.62324    37625.902 
  181500    301.66372   -1505.6501    493.85325    344.20011    273.68465    37625.902 
  181600    304.69466   -1470.5013    513.31453    412.43448    870.71186    37625.902 
  181700     290.6643    -1498.445    483.28158    291.39045     846.2991    37625.902 
  181800     291.1303   -1488.3324    494.60755    314.92377    1038.2544    37625.902 
  181900    298.86271   -1526.7449    479.30476    295.96609    278.26342    37625.902 
  182000    303.86165   -1519.9176    495.28823     341.2475   -434.78483    37625.902 
  182100    302.80909   -1542.2863      488.614    307.47318   -249.31207    37625.902 
  182200    298.30573   -1500.6946    486.66214    326.87014    402.62734    37625.902 
  182300    297.30865    -1503.807    477.63385     310.2475    536.78058    37625.902 
  182400    306.97115   -1521.8632    519.97707    377.96807    301.61292    37625.902 
  182500    297.07972   -1513.9232    475.67506    297.14346    849.95849    37625.902 
  182600    299.19377   -1513.1512    479.00912    310.75237    352.19182    37625.902 
  182700    297.98033   -1514.2929    491.53512    316.68211   -139.77385    37625.902 
  182800    308.36037   -1484.7911    503.29261    404.60039    196.97151    37625.902 
  182900    292.58629   -1534.1217    472.14209    253.21379   -280.03857    37625.902 
  183000    300.85968   -1518.9816    471.04703    304.44816   -892.21792    37625.902 
  183100    303.82492   -1513.6886    471.79892    323.82202   -768.44016    37625.902 
  183200    306.67467   -1498.1965    468.94592    349.27089   -486.51905    37625.902 
  183300    314.88637    -1493.375    486.84372    408.90228   -350.13108    37625.902 
  183400    294.65879   -1521.3187    465.58885    268.77955   -108.08858    37625.902 
  183500    310.30313   -1511.6416    520.83284    404.02294    118.82676    37625.902 
  183600    296.42326    -1496.766    478.30415    313.97892    472.18842    37625.902 
  183700    297.82576   -1518.6231    504.26384    324.38586    429.40205    37625.902 
  183800    291.93466   -1509.2617    498.83326    301.83581   -314.40383    37625.902 
  183900    296.69945    -1519.682    473.68537    287.68561   -113.03801    37625.902 
  184000     304.4498    -1507.574    499.49131    360.43788   -142.03812    37625.902 
  184100    301.13057   -1470.2601    482.62115    365.96145   -12.857943    37625.902 
  184200    313.95828    -1503.685     480.7157    388.29247   -687.42088    37625.902 
  184300    300.49683   -1480.3929    482.04139    352.40027    41.370625    37625.902 
  184400    305.01953   -1499.6028      511.182    382.66077    265.86345    37625.902 
  184500    302.92637   -1486.5104    489.47386    364.63614   -322.37772    37625.902 
  184600    301.56738   -1504.3405    485.39448     336.6179   -300.59911    37625.902 
  184700    298.28103    -1496.107    487.05429    331.73888     201.1843    37625.902 
  184800    301.37439   -1547.6613    471.36287    278.39803    -419.6865    37625.902 
  184900    295.58791    -1522.929    479.89946    285.65633   -52.249505    37625.902 
  185000    295.13616   -1499.1302    479.24688    306.77187    126.19343    37625.902 
  185100    297.97102   -1519.1976    509.00247    329.20289    152.70148    37625.902 
  185200    292.04459   -1542.2549    477.24565    247.74917    256.14435    37625.902 
  185300    300.10766   -1517.8462    502.98454    334.14075    287.83518    37625.902 
  185400    302.36476   -1507.7759    465.34024    316.71252    163.30632    37625.902 
  185500    302.21921   -1480.9748    484.31325    361.83237    449.03927    37625.902 
  185600    300.83138   -1528.0643      508.528    332.71926    792.44482    37625.902 
  185700    301.15834   -1521.5726     472.6057    304.75842    43.839823    37625.902 
  185800    292.09308   -1510.3067    481.95656    284.62629   -37.977111    37625.902 
  185900    307.21409   -1512.0739    486.37365    355.24598    138.82687    37625.902 
  186000    298.68099   -1534.8937    489.62769    297.32349    78.963197    37625.902 
  186100    302.09782     -1509.32    504.92831    353.55657    229.47024    37625.902 
  186200    304.08538   -1528.1568    481.54867    320.27439    95.107387    37625.902 
  186300    312.46621    -1519.514    470.30995     355.3508   -388.39037    37625.902 
  186400    304.14363   -1558.6875    479.82893    288.28574   -70.111187    37625.902 
  186500    310.37073   -1516.6019    465.72468    344.25826    61.497208    37625.902 
  186600    302.51377   -1505.4986    483.86473     338.1841    125.28733    37625.902 
  186700     293.4001   -1548.2586    482.04858    252.64154    134.57126    37625.902 
  186800    307.50794   -1508.0719    488.59184    362.78704    1079.2507    37625.902 
  186900     299.2077   -1561.8857    471.43747    254.50875    770.99124    37625.902 
  187000    289.19878   -1551.3857    503.85174     252.4323    1167.7915    37625.902 
  187100    311.91675    -1540.404     481.8019     343.4829    923.21397    37625.902 
  187200    297.29598   -1504.3812    491.34841    323.33094    424.47352    37625.902 
  187300    303.55627   -1529.2956    486.96553    322.17404    143.68358    37625.902 
  187400    298.71069   -1547.3264    480.95307    276.34961   -303.85998    37625.902 
  187500    290.97973   -1574.4156    480.20714    213.76336   -298.49917    37625.902 
  187600    305.47281   -1536.0828    479.29392    316.33017   -646.93751    37625.902 
  187700    299.29262   -1509.1532    457.95996    294.14549    5.6905947    37625.902 
  187800    310.11135   -1525.3848    483.94583    352.53071     -184.509    37625.902 
  187900    289.65316   -1514.5043    494.04719    281.55168   -219.26074    37625.902 
  188000    304.75481   -1536.1077    471.99611       305.78   -513.52065    37625.902 
  188100    291.44732   -1547.5735    470.38613    232.88631   -356.11744    37625.902 
  188200    295.57916   -1568.6029    478.73711    238.78074    247.84849    37625.902 
  188300      298.805   -1571.9779    485.43867    256.60763    43.242616    37625.902 
  188400    298.77524   -1545.2256    462.25117    260.03863    147.44293    37625.902 
  188500    303.32455   -1570.2383    478.52825    271.75248   -131.77059    37625.902 
  188600    286.80392   -1543.9966    497.20042    242.40509    58.643298    37625.902 
  188700    305.91925   -1537.7761    483.45835    320.80815    -222.9101    37625.902 
  188800    298.14469   -1498.1235    470.27807    312.33335   -376.95988    37625.902 
  188900    302.26125   -1483.4294    482.84323    358.09679   -297.79481    37625.902 
  189000    296.62033   -1496.1083    499.06852    336.28686   -854.30096    37625.902 
  189100    304.42409   -1530.5605    474.18604    312.03057   -1069.4113    37625.902 
  189200    295.96409   -1496.1144    472.10978    306.37225   -337.60114    37625.902 
  189300    302.05944   -1486.6576    493.15279      364.271   -201.02332    37625.902 
  189400    301.33662   -1473.9972    485.80352    366.33295    229.55412    37625.902 
  189500     307.5984   -1508.8386    495.99302    369.82814    437.69031    37625.902 
  189600    305.87508   -1520.9259    477.60096    331.60242    231.15063    37625.902 
  189700    289.36682   -1520.3258    490.35614    270.75199    9.6533877    37625.902 
  189800    301.80265   -1526.1736    452.92911    283.37696   -730.08619    37625.902 
  189900    301.44729   -1477.7227     480.7607    358.06214   -355.44151    37625.902 
  190000    300.75099   -1501.6615    452.01485    302.24762    422.31177    37625.902 
  190100    299.60538    -1480.303    487.37266    353.81433     809.2008    37625.902 
  190200     297.4124   -1521.7606    501.22153    316.34791    615.37212    37625.902 
  190300    292.01302   -1518.9573    499.73019    293.38938    376.22991    37625.902 
  190400    304.43649   -1543.5933    481.69591    306.56336    363.33115    37625.902 
  190500    294.92747   -1563.2315    468.40661     230.8922    564.60959    37625.902 
  190600    303.92416   -1500.1016    478.03867     344.0949     886.1181    37625.902 
  190700    303.81545   -1480.6325    497.25138    382.28804    876.04926    37625.902 
  190800    304.77639   -1472.5912     504.6122    402.00961    484.85812    37625.902 
  190900     307.6814    -1505.317    472.69717    350.42698    140.41745    37625.902 
  191000     297.8119   -1506.9788    498.06285     329.7669    591.84809    37625.902 
  191100    306.51791   -1515.3577    511.06929     373.5285    754.37866    37625.902 
  191200    301.43649     -1519.52    458.83534    294.29091    19.563442    37625.902 
  191300    287.50719   -1561.8118    470.24166    200.79238   -173.76424    37625.902 
  191400    294.46559   -1567.5097     478.9069    235.03813    42.296963    37625.902 
  191500    296.03368   -1601.0028    473.95169    203.63848     315.4388    37625.902 
  191600     295.2226   -1572.6252    451.74885    206.16744    284.48786    37625.902 
  191700     304.4704   -1578.0285    504.06867    294.65343    212.47846    37625.902 
  191800    300.70333   -1596.4777    461.70534    216.90763    -1.880772    37625.902 
  191900    284.61146   -1585.2693    467.15921    161.23599    345.18519    37625.902 
  192000    298.29212   -1549.3182    467.44161     258.9648   -243.81485    37625.902 
  192100    290.83685   -1533.2429    480.68957    254.77623    -596.8828    37625.902 
  192200    298.37836   -1561.2574     459.1892     239.1609   -75.324651    37625.902 
  192300    293.66283   -1530.8713    475.94067    265.10184   -5.9464443    37625.902 
  192400    299.96368   -1523.9429    471.18529    295.59761   -622.06343    37625.902 
  192500    298.04274   -1533.3754    495.02283     301.3679   -559.29845    37625.902 
  192600    304.93857   -1576.2694    448.05179        242.5   -63.515623    37625.902 
  192700    292.13201   -1511.5405    497.08349    298.69438   -340.14679    37625.902 
  192800     299.0227   -1548.9863    479.63764    274.77677   -494.30748    37625.902 
  192900    299.04204   -1538.8477    458.68948    264.05415   -599.23303    37625.902 
  193000     300.3133   -1555.1439    501.04169    295.82453   -1375.8814    37625.902 
  193100    296.35547   -1531.7264     478.5192    278.92888   -549.95163    37625.902 
  193200    303.28015   -1504.7014    493.31413    351.87568   -312.68491    37625.902 
  193300    294.96509   -1528.9581    470.65441    267.58251    187.91507    37625.902 
  193400    289.54708   -1506.3203    471.79637    267.00804    243.54524    37625.902 
  193500    298.63943   -1505.2176    457.94756    295.13255   -7.8395994    37625.902 
  193600    288.75222   -1483.9175    492.53356    306.57509   -297.25516    37625.902 
  193700    306.21937   -1478.2125    478.15798    376.42037   -412.02794    37625.902 
  193800     302.6087   -1517.5839    463.41747    306.07827    125.05332    37625.902 
  193900    297.86988   -1520.7215    456.63664    274.85854   -583.90637    37625.902 
  194000    290.49634   -1581.9006     458.9291    182.82747   -377.76799    37625.902 
  194100    300.62526   -1569.9151    472.91412      254.328   -949.92884    37625.902 
  194200     292.3356    -1558.471    465.19791    220.79348   -557.69861    37625.902 
  194300    303.79857   -1542.8466    465.09138    287.83803   -450.89206    37625.902 
  194400     291.9171   -1568.7115    476.94147     220.4153    53.158764    37625.902 
  194500    305.29077   -1556.6357    483.74378    299.40888   -468.62125    37625.902 
  194600    297.72629   -1563.6906    485.64102     260.2484    80.870096    37625.902 
  194700    298.80903   -1583.6572    467.24492    226.75272    394.99473    37625.902 
  194800    295.59707    -1556.877    465.66124    237.51123    429.49309    37625.902 
  194900     306.2464   -1554.0917    454.55186    277.05657   -201.67997    37625.902 
  195000    298.51099   -1546.4232    456.12817    251.53027    534.34655    37625.902 
  195100    301.71804   -1584.6244    493.63332    265.25009    497.46517    37625.902 
  195200    304.22273   -1580.0223     450.9128    238.39038    653.19123    37625.902 
  195300    298.85471   -1541.8191    472.29442     273.8457    701.26349    37625.902 
  195400     290.3867   -1500.4427    468.42093     273.2843     430.8237    37625.902 
  195500    295.21901   -1533.0526    464.97239    258.94743    10.416963    37625.902 
  195600     299.4127   -1511.9394     474.9146    308.85369    77.577148    37625.902 
  195700    307.42952   -1560.4096    487.08184    308.58684    163.22708    37625.902 
  195800    310.72242   -1555.0182    448.18613    289.88432    211.78193    37625.902 
  195900    291.33446   -1536.8441    470.42308    243.14529    237.08645    37625.902 
  196000    302.74892   -1582.2852    476.56759     255.1574    377.67103    37625.902 
  196100    293.81388   -1535.3152    481.41947    266.81574    486.97034    37625.902 
  196200    314.35909   -1546.9412    472.01583    338.13811    169.26491    37625.902 
  196300    296.26084   -1556.5087    445.00408    220.20609   -136.28477    37625.902 
  196400    294.57833   -1529.9176    481.15896    275.38906   -794.34034    37625.902 
  196500    293.16913   -1513.6548    462.52009    266.67854   -671.95279    37625.902 
  196600    308.77589     -1531.12     460.2426    317.08924   -114.17301    37625.902 
  196700     294.4046   -1519.4789    481.51587    285.40371   -648.00651    37625.902 
  196800    301.16537   -1489.8127    473.32965    337.27379   -216.45064    37625.902 
  196900    294.77563   -1524.5478    477.35501    277.84175   -17.288114    37625.902 
  197000    302.89468   -1496.4033    483.23596    348.36289   -391.95122    37625.902 
  197100    299.57105    -1472.082    491.28782    365.79612   -10.567005    37625.902 
  197200    303.34361   -1484.9839     488.8432    367.40745    23.206236    37625.902 
  197300     298.4144   -1516.0503    459.48465    284.82549    262.14213    37625.902 
  197400    297.89789   -1518.8127     485.9958    306.25242    313.83372    37625.902 
  197500      302.763   -1534.9455    464.67109    290.66393   -305.45624    37625.902 
  197600    296.08864   -1513.4733     462.6993    280.16265   -758.52791    37625.902 
  197700    302.98595   -1476.2754    459.85326    345.51841   -763.72073    37625.902 
  197800    296.79795   -1523.8848    472.51519    282.75545   -67.869084    37625.902 
  197900    303.15504   -1505.4256    451.00926    308.28423   -355.75767    37625.902 
  198000    289.16948   -1521.3365    468.23524    246.73335    -98.31024    37625.902 
  198100    301.63217     -1527.62    508.57036    336.80549     61.49179    37625.902 
  198200    304.18148   -1524.9808    456.39567     298.7293     637.0484    37625.902 
  198300    305.47805   -1520.0695    493.28605    346.35916    838.72228    37625.902 
  198400    302.32044   -1532.6644    466.28205    292.56664    631.78773    37625.902 
  198500    304.01092   -1574.5213    478.18918    270.21571    1050.1021    37625.902 
  198600    306.03956   -1534.6776    484.33728    325.32632     528.5067    37625.902 
  198700    307.12438   -1526.9198    467.98144    321.60462    255.09277    37625.902 
  198800    305.20338   -1514.6306    492.95773    350.23509    187.52067    37625.902 
  198900    304.20055   -1463.2177    485.44273    389.62523   -170.24459    37625.902 
  199000    306.83447   -1506.5495    493.55253    366.24285   -62.266239    37625.902 
  199100    306.44691   -1506.1194    492.02912    363.40744    165.79051    37625.902 
  199200    298.62533   -1518.9581     475.5186     298.8997    158.91891    37625.902 
  199300    298.89241   -1524.2829    493.43959    312.69644    60.270926    37625.902 
  199400    296.54621    -1512.143    463.49103    284.34151    216.45063    37625.902 
  199500    302.05703   -1525.0496    506.70259    339.41796    577.91662    37625.902 
  199600    301.33704   -1495.3092    480.76986    339.98921    624.84795    37625.902 
  199700    302.23933   -1526.7921    468.75289    300.54513    983.65625    37625.902 
  199800    303.48142   -1485.1842    482.43171    361.41514    1186.1868    37625.902 
  199900    292.70045   -1495.4701    468.36478    288.60116    362.50174    37625.902 
  200000    293.83574   -1511.9516    465.29819    274.15633    369.20876    37625.902 
  200100    293.31101   -1517.1487    455.12556    256.42794    351.13475    37625.902 
  200200    305.63841   -1549.0573     493.1676    317.97381    520.02822    37625.902 
  200300    305.46858   -1511.2815    468.65657    330.47515    277.91038    37625.902 
  200400    301.52066   -1496.5567    500.36398    359.16117    412.73875    37625.902 
  200500    299.06362   -1549.4931    480.08949    274.90579   -186.52875    37625.902 
  200600    296.73388   -1535.6813    473.52406    271.67981   -536.89846    37625.902 
  200700    298.55959   -1502.1824    446.83132    286.69263   -211.75293    37625.902 
  200800    299.30366   -1518.3644    480.56836    307.59237     -360.236    37625.902 
  200900    302.63189     -1550.79    476.93985    286.49885   -169.06385    37625.902 
  201000    296.31256   -1543.7246    478.43842    266.65703   -136.71536    37625.902 
  201100    286.89437   -1555.8114    477.52918    211.32569   -548.45665    37625.902 
  201200    302.46966   -1494.4574    465.25138    330.41372   -346.31171    37625.902 
  201300    304.82671   -1522.3569    474.26866    322.12658    61.824174    37625.902 
  201400    298.32599   -1570.3277    445.09631    215.76229    112.67498    37625.902 
  201500    298.09178   -1559.7437    485.40217    265.59933    554.58916    37625.902 
  201600    294.63833   -1570.5113    471.94872    225.85479    214.65452    37625.902 
  201700    300.82114   -1580.7128    433.03857    204.53531   -141.73449    37625.902 
  201800     301.8523   -1523.3831    477.18792    310.64949   -88.637693    37625.902 
  201900    298.95538   -1503.7317    466.40739    306.49847   -343.24794    37625.902 
  202000      302.808   -1518.7652     472.2031     314.5785   -176.18251    37625.902 
  202100    284.43113    -1518.724    447.46954    207.28096    79.097856    37625.902 
  202200    302.25819   -1523.7964    464.73159    299.60439   -620.52748    37625.902 
  202300    303.38559   -1565.8391    463.74366    261.64145   -158.69724    37625.902 
  202400    289.65806   -1503.3267    466.53626    265.24043   -467.52895    37625.902 
  202500    305.34851   -1518.6891    425.75477    279.62598   -400.43203    37625.902 
  202600     309.6915   -1501.0117    451.34822    342.41889   -127.18026    37625.902 
  202700    304.52454    -1496.814    454.20582    326.24836   -243.69035    37625.902 
  202800    302.26094   -1492.7221    462.64864    328.60808    10.637768    37625.902 
  202900    295.58461   -1508.9899    497.26561    316.94669    378.18274    37625.902 
  203000    299.20358   -1527.9817    468.88068    285.83749    288.34091    37625.902 
  203100     307.4071   -1516.1707    488.51952    354.16272    33.728469    37625.902 
  203200    302.89239   -1498.5154    487.52997     350.5345    -137.7551    37625.902 
  203300    310.47236   -1511.0259     465.7416    350.30805    354.93288    37625.902 
  203400     297.3016   -1524.1097    473.83173    286.11102    85.377352    37625.902 
  203500    301.68026   -1541.6574    503.39206    317.80597    361.02516    37625.902 
  203600    301.27127   -1555.8713    457.02154    255.38319    725.84873    37625.902 
  203700    294.82717   -1529.8238     460.3887     255.8312    20.065871    37625.902 
  203800    298.84387   -1504.2523    505.02249    344.09184    185.76671    37625.902 
  203900    307.41407   -1495.8543    488.27978    374.27067    -110.8357    37625.902 
  204000     299.8016   -1467.5292    459.69887    339.79631    131.31214    37625.902 
  204100    298.52648   -1497.7689    502.57445    346.70046   -559.21197    37625.902 
  204200    297.85623   -1500.5783    506.29247    344.59624   -591.48992    37625.902 
  204300    292.68984   -1485.3929    452.88247    283.14841    446.49704    37625.902 
  204400    300.13562     -1508.63    491.34883     331.8469    419.06093    37625.902 
  204500    292.38056   -1505.1816    451.48472    260.57173    247.03853    37625.902 
  204600    301.41589   -1527.6558    469.85003    297.07726   -557.66499    37625.902 
  204700    297.51678   -1533.2929    482.34206    286.40536    392.52795    37625.902 
  204800    311.16848   -1554.6041    488.27404    332.39135    165.91377    37625.902 
  204900    288.02648   -1495.1547    454.88134     254.4234    110.49328    37625.902 
  205000    302.73429    -1535.498    476.03741    301.34864    169.96166    37625.902 
  205100     302.3163   -1540.1195    475.59939    294.41032    -163.0186    37625.902 
  205200    296.62708   -1535.9292    475.72477    273.15253   -135.02941    37625.902 
  205300    302.74176   -1488.0408    484.77082    357.57287    -344.0147    37625.902 
  205400    283.46672   -1512.6278    454.03479    215.60734   -9.4508047    37625.902 
  205500    299.86602   -1490.9526    455.97238    312.93601   -181.15689    37625.902 
  205600    299.89391   -1517.4997    496.71816    327.26008    -582.3614    37625.902 
  205700    291.90915   -1534.6991    464.63858    242.08907    185.31323    37625.902 
  205800    296.33884   -1538.7323    456.41417    249.74323    135.42641    37625.902 
  205900    305.82361   -1498.6746    484.63895    360.66032   -122.63907    37625.902 
  206000    307.06463   -1470.5026    486.09481    395.86667    225.06976    37625.902 
  206100    293.77444   -1504.9517    480.92482    296.50733    289.31007    37625.902 
  206200    299.10435   -1542.0897    453.27832    255.68112    68.143795    37625.902 
  206300    284.79893   -1527.8055    469.27623    221.65949    550.99787    37625.902 
  206400    307.76329   -1532.4704    458.85225    309.79675    746.43806    37625.902 
  206500    294.22948   -1503.5912    483.14098    302.12943    286.81805    37625.902 
  206600     306.0486   -1501.1463    440.86298      315.424    88.220744    37625.902 
  206700    296.78931   -1531.9051    456.07714    258.25828   -165.45488    37625.902 
  206800     298.0521   -1538.6011    497.29973    298.46116    587.33165    37625.902 
  206900    309.74633   -1556.1843    488.07561    324.22013    472.57092    37625.902 
  207000    294.64914   -1563.1285    461.30289    222.64047    756.13141    37625.902 
  207100    309.98086   -1582.5685    464.92975    275.74427    801.55964    37625.902 
  207200    294.14557   -1585.5079    427.82475    164.51926    199.67607    37625.902 
  207300    305.94721   -1561.1806    477.71846    291.78941    214.17317    37625.902 
  207400    296.02955    -1574.525    456.75523    212.90127   -130.16656    37625.902 
  207500    290.81665     -1568.54    451.12024    189.81899    184.23888    37625.902 
  207600    311.23762   -1569.3577    469.06033     298.7349    306.26917    37625.902 
  207700    295.89429   -1573.7463    462.06172    218.37844    395.31374    37625.902 
  207800    303.87517   -1557.7936     457.9963    266.14033    445.63756    37625.902 
  207900    308.34523   -1538.2961    487.63588    335.37059   -104.90595    37625.902 
  208000    303.15915   -1576.9086    430.20182    216.01229   -87.120881    37625.902 
  208100     296.2556   -1565.9479    476.63266    242.37195   -270.23507    37625.902 
  208200    287.86136   -1480.3966    475.48259    289.04052   -245.87403    37625.902 
  208300    302.46465   -1512.6207     481.4412    328.41769    -607.3992    37625.902 
  208400    309.53834    -1551.881    445.73022    285.24313   -746.87381    37625.902 
  208500    308.44114   -1554.5119    454.49102     286.4411    169.27801    37625.902 
  208600    306.82444   -1518.4747    497.12662    357.84669    555.59798    37625.902 
  208700    314.88741   -1490.1473    487.83762     413.1286    447.89258    37625.902 
  208800    289.46802   -1510.5382     475.1449    265.78321    807.53215    37625.902 
  208900    302.32201   -1521.1944    482.46081     320.2225    250.87114    37625.902 
  209000    299.87604    -1557.887     472.2525    262.32679     466.3148    37625.902 
  209100    288.54948   -1526.7845     476.5693    246.83242    347.44098    37625.902 
  209200    289.08162   -1524.8008    489.18853    263.82739    52.273518    37625.902 
  209300    292.24083   -1546.8635    470.46736    237.24444    688.84485    37625.902 
  209400    299.80944   -1529.1361    449.56917    268.09492    70.660364    37625.902 
  209500    306.68114   -1556.0497      511.294    333.79485    658.23961    37625.902 
  209600    301.68929   -1563.7205    474.16071    266.55209    146.23918    37625.902 
  209700    297.30098   -1579.5131    468.06683    224.93997   -139.02607    37625.902 
  209800     299.1186   -1573.3307    471.21401    242.43988   -55.278225    37625.902 
  209900    302.83987   -1547.7104    477.87891    291.45231   -439.50572    37625.902 
  210000    301.50645   -1544.0897    469.93217    281.13248   -943.59131    37625.902 
  210100    302.27502   -1538.5689    474.06798    294.24392   -1117.6428    37625.902 
  210200      292.525   -1563.9431    449.39309    200.36783   -1353.5109    37625.902 
  210300    311.87233   -1546.3905    461.21382    316.70864   -463.91243    37625.902 
  210400    293.53795   -1588.4891    469.48726    200.46935   -386.15431    37625.902 
  210500    304.74163   -1551.9589    470.74571    288.61919   -750.34988    37625.902 
  210600    291.76152   -1558.1038    470.18989    223.57208   -499.06766    37625.902 
  210700    292.33015   -1543.4735    458.52478    229.09331   -939.51938    37625.902 
  210800    283.00121   -1536.7338    490.31557    225.68966   -718.00592    37625.902 
  210900     294.4985    -1501.832    487.16193    309.11883   -918.25083    37625.902 
  211000    291.60614   -1522.6243    450.14872    238.31191   -609.59018    37625.902 
  211100     299.6717   -1517.0681    498.81743      328.792   -211.68958    37625.902 
  211200    308.01204   -1512.7164    490.01444    361.83112   -143.68151    37625.902 
  211300    287.73129   -1525.3815     485.2169    253.20529   -224.46976    37625.902 
  211400    304.91041   -1477.7764    480.11374    372.92843   -212.15857    37625.902 
  211500    287.23634   -1470.3939    472.31189    293.06298   -302.33888    37625.902 
  211600    304.09398   -1507.9581    484.80478    343.76781   -115.58074    37625.902 
  211700    302.68529   -1509.6522    484.98983    335.92665    72.060092    37625.902 
  211800    298.25055   -1516.3994    491.13563    315.39079   -37.298252    37625.902 
  211900    296.66223   -1526.9166    473.46282     280.0612    18.967896    37625.902 
  212000    308.83499   -1474.3864    491.54138    405.38731    396.76028    37625.902 
  212100    296.13734   -1446.2877    477.52429    362.39213    96.964405    37625.902 
  212200    290.98823   -1453.6591    479.29841    333.64934    -344.9512    37625.902 
  212300    298.46604   -1461.6513    488.53937    368.51124    126.93678    37625.902 
  212400    307.81224   -1439.4689     487.9757     432.1418   -55.517348    37625.902 
  212500    295.04811   -1453.0968    479.21642    352.37901    667.68253    37625.902 
  212600    301.19049   -1484.9315    490.45325    359.39149    567.71735    37625.902 
  212700    301.74727   -1438.6189    496.04451    413.79815    388.62611    37625.902 
  212800    297.56027   -1480.1704    484.21266      341.594   -436.16939    37625.902 
  212900    318.25337   -1479.4259    474.91138    426.05404   -231.03016    37625.902 
  213000    292.18222   -1495.1478    489.02095    307.25026   -352.31195    37625.902 
  213100    292.09915   -1458.1211    505.12418    360.00674   -244.35561    37625.902 
  213200    307.88068   -1487.9329    493.42203    389.43177    110.12376    37625.902 
  213300    302.08794   -1500.5295    503.18995    360.56431    55.934039    37625.902 
  213400    306.33327   -1514.6066    488.61617    350.99646      461.591    37625.902 
  213500    302.14568   -1529.7179    470.59871    299.04422    119.76252    37625.902 
  213600    290.28644   -1495.3985    464.27681    273.73377    415.86166    37625.902 
  213700    299.49542   -1506.2721    506.57296    346.55116    1173.4938    37625.902 
  213800    280.64368   -1507.9067     491.0702    244.67412    482.54332    37625.902 
  213900     296.5448   -1477.3069    496.09594    351.77616    315.54416    37625.902 
  214000      288.444   -1503.0716    480.42502    273.92701   -136.30079    37625.902 
  214100    299.60776   -1513.9001    479.12457    311.97978    140.44511    37625.902 
  214200    299.94934   -1496.5201    485.75779    337.52847    200.37691    37625.902 
  214300    308.16162   -1502.7615    488.93386    371.37776   -77.471362    37625.902 
  214400    296.08373   -1510.7775    498.30914    318.44623   -786.90783    37625.902 
  214500    310.73639   -1533.0975    478.99014    342.67181   -377.64383    37625.902 
  214600    309.19733   -1494.7566    477.54898     372.6534    268.16468    37625.902 
  214700    297.08978   -1532.3449    486.81168    289.90358    159.26767    37625.902 
  214800    295.40058   -1470.3582    484.00097     341.4866   -494.31155    37625.902 
  214900    297.45435   -1484.2518     484.6577     337.4815   -267.85597    37625.902 
  215000    298.86131    -1462.423    481.63903    362.61603   -535.60487    37625.902 
  215100    300.76426   -1455.5785    500.91232    397.28769   -271.18363    37625.902 
  215200    301.65074   -1486.7046    476.44428    345.67834   -229.41484    37625.902 
  215300    313.11501   -1447.3524    485.28591    445.40473    24.824882    37625.902 
  215400    296.78688   -1458.6255    484.40959    359.85944   -250.89183    37625.902 
  215500    302.63084   -1463.7855    496.50636    393.06514    -305.0122    37625.902 
  215600    299.27493   -1493.1214     505.0778    357.21559    27.953656    37625.902 
  215700    296.17652   -1479.3837    492.31664    344.26458    418.04795    37625.902 
  215800    300.41756   -1477.0966    501.15136    374.45021    877.96073    37625.902 
  215900    293.58378   -1500.3863    472.87794    292.16884   -169.66905    37625.902 
  216000    307.88866      -1478.5    494.42958    399.90805   -926.33081    37625.902 
  216100    309.30816   -1476.7515    469.48454    383.09222   -1074.3897    37625.902 
  216200     308.3758   -1507.7635    481.45292     359.8576   -736.90943    37625.902 
  216300    302.06414   -1465.7065    501.24921    393.33961   -680.02599    37625.902 
  216400     298.2953    -1489.775    489.81103    340.89175   -158.35079    37625.902 
  216500    294.06463   -1527.5936    484.92238    279.16741     4.401505    37625.902 
  216600    292.50001    -1536.955    477.97188    255.82242   -92.647135    37625.902 
  216700    300.47012   -1549.3044    494.06474    295.39205    593.46636    37625.902 
  216800    300.68641   -1486.5626    489.53537     354.5767    425.20209    37625.902 
  216900    288.98791   -1498.8738     478.9693    279.11388   -329.90563    37625.902 
  217000    304.67914   -1513.3227    488.92616    345.15491   -13.933338    37625.902 
  217100     296.8319   -1548.9304    463.70089    249.04813   -218.48492    37625.902 
  217200    305.02204   -1552.7988    467.62274    285.91673    -417.8097    37625.902 
  217300    295.55791     -1490.29    487.38891    325.64991   -247.51269    37625.902 
  217400    308.82838   -1543.1624    442.56012    287.60025     -203.246    37625.902 
  217500    306.08899   -1530.5157     484.4722    329.84536    -561.7462    37625.902 
  217600    289.58374   -1513.9039    465.30491    253.09776   -223.81672    37625.902 
  217700    284.87115   -1500.8083    483.61809    263.32313   -838.37126    37625.902 
  217800    300.21072   -1506.3773    473.75542    316.84385    -501.0142    37625.902 
  217900    297.37819   -1544.5458    463.49012    255.67758    204.90853    37625.902 
  218000     288.0342   -1534.0319    480.28184    240.98136    321.05453    37625.902 
  218100    305.80404   -1481.5137    495.44132    388.53562    342.57503    37625.902 
  218200    307.06166   -1524.1694    455.94973    312.04138   -87.241755    37625.902 
  218300    310.21462    -1544.321    462.81591    312.92872    451.50782    37625.902 
  218400    306.30093   -1526.6715    480.69666    330.86675    161.74712    37625.902 
  218500    306.01068    -1527.445     488.3372    336.42907    720.83411    37625.902 
  218600    306.15556   -1572.6292     498.3239    301.88278    756.99638    37625.902 
  218700    308.03238   -1541.0694    474.69411    318.24927     730.5647    37625.902 
  218800    299.20583   -1540.7477    489.86721    294.06818    126.21982    37625.902 
  218900    294.63784   -1526.4066    520.32168    318.33026    463.41999    37625.902 
  219000     303.9827   -1557.3529    452.60178    261.66984    -71.43594    37625.902 
  219100    304.61913   -1531.2484    477.97083    316.00419   -578.65507    37625.902 
  219200    310.76289   -1479.9032    467.68133    384.67643   -16.030898    37625.902 
  219300    302.68601   -1546.9944    462.91038     276.5083    141.89815    37625.902 
  219400    296.89298   -1568.8937    470.94892     236.6075   -166.55635    37625.902 
  219500    305.18811   -1553.4916    488.04156     306.3893    276.04772    37625.902 
  219600    291.79979      -1564.7    453.30765    200.26572    548.34215    37625.902 
  219700    304.34287   -1501.4023    484.37854    351.01618   -55.740025    37625.902 
  219800    300.49738   -1527.2598    494.26273    317.75709      177.476    37625.902 
  219900    298.52712   -1553.6492    470.88345    259.13206   -356.36723    37625.902 
  220000    304.73638   -1546.2863    490.16144    313.68394   -84.232346    37625.902 
  220100    285.72699   -1540.3081    472.22296     216.2753   -177.07895    37625.902 
  220200    305.59148   -1490.7479     505.6246    388.52916   -477.10046    37625.902 
  220300    311.82391   -1489.8924    460.27421    372.04946   -61.669756    37625.902 
  220400    285.42384    -1488.217    476.59746    271.37821    677.39459    37625.902 
  220500    295.42179   -1500.9614    502.14944    329.12718    1122.4889    37625.902 
  220600     296.8804   -1526.6085    480.17452    288.06173    1131.3506    37625.902 
  220700    301.32948   -1529.4553    495.79263    320.83186    1214.4941    37625.902 
  220800    306.16698   -1559.2808    478.55303    295.51168    699.27389    37625.902 
  220900    304.57072   -1570.5239    472.51797    271.05822    377.82579    37625.902 
  221000      295.626   -1544.1842    489.52041    274.19324   -1.5071261    37625.902 
  221100    294.32232   -1549.3336    469.57263    243.23593   -100.70228    37625.902 
  221200    306.65716   -1523.9502    509.53738    364.02999    201.65829    37625.902 
  221300     305.0723   -1535.3361    489.56068    325.54335    309.19306    37625.902 
  221400    291.54164   -1522.6014    486.13024    274.02648    110.38281    37625.902 
  221500    307.92208   -1547.4292    478.39845    315.09802    546.17583    37625.902 
  221600    308.48935   -1514.3374    530.00494    402.34613    400.49899    37625.902 
  221700    306.20477   -1558.7875    490.43093    308.05268    357.69991    37625.902 
  221800    301.52776   -1571.2492    497.60195    281.73858    813.48224    37625.902 
  221900    299.69482   -1570.9976    487.04096    263.19001    22.975087    37625.902 
  222000    310.66403   -1536.9309    465.68085    325.20391      139.347    37625.902 
  222100    308.68959   -1604.3338    481.16647    264.41134   -251.16789    37625.902 
  222200    295.09094   -1558.1223    484.30938    252.63906   -492.30936    37625.902 
  222300     306.9759    -1528.757    456.05539    307.17392    459.76434    37625.902 
  222400    300.80389   -1525.8022    463.58993    289.91971   -125.13595    37625.902 
  222500    298.09285   -1566.7515    505.83247    279.02665    416.84866    37625.902 
  222600    309.16583   -1497.8217    465.83773    357.73548    214.07873    37625.902 
  222700    311.52046   -1498.4939    491.95582    393.76552   -23.615308    37625.902 
  222800    293.53661   -1554.9525    474.15844    238.67109    -299.6377    37625.902 
  222900    296.04417   -1528.0338    521.61471     324.3177    456.39062    37625.902 
  223000    302.26464   -1536.7276    471.07689    293.04746    31.441627    37625.902 
  223100    315.96889   -1539.4993    507.92404    388.72432    505.66331    37625.902 
  223200    301.86539   -1518.8911    477.19525    315.20771    89.654748    37625.902 
  223300    304.15432   -1471.3266    479.29895    375.16469    105.41763    37625.902 
  223400    293.92192   -1508.3776     498.5411    311.36061   -124.03651    37625.902 
  223500    304.97614    -1510.678    472.19915    332.40769    269.72317    37625.902 
  223600    292.24591   -1498.3124     491.9136    307.26453    211.67375    37625.902 
  223700    303.26829   -1514.3419    486.77315     335.6409    440.52711    37625.902 
  223800    301.76661   -1528.6852    501.07453    328.84884    274.22022    37625.902 
  223900    302.88943   -1498.0932    495.52209    358.93556    209.26577    37625.902 
  224000    299.00032   -1461.0999    505.85222    388.77717    229.61489    37625.902 
  224100    291.46472   -1490.7149    503.62226    323.05925   -833.83156    37625.902 
  224200    308.43195   -1497.2872    473.43092    362.56438   -273.77529    37625.902 
  224300    301.94031   -1467.6534    513.67542    403.26228    78.736111    37625.902 
  224400    303.45693   -1505.1439    495.08125     353.9949   -133.19065    37625.902 
  224500    299.22952   -1495.6987    489.99317    339.34953    82.238841    37625.902 
  224600    311.76437   -1436.3751    483.89295    448.91785      173.625    37625.902 
  224700    309.08002   -1479.1368    463.58875    373.78564   -516.22911    37625.902 
  224800    307.51399   -1487.0837     504.9785    400.18915   -210.54845    37625.902 
  224900    293.54267   -1519.8078    491.32931    291.01386    279.43812    37625.902 
  225000    294.33691    -1570.203    460.69168    213.55126    44.943382    37625.902 
  225100    301.27605   -1522.4237    475.13398    306.96465   -116.47517    37625.902 
  225200     303.0872     -1524.79    498.22845    335.83404   -912.63445    37625.902 
  225300    307.30615   -1490.1873    485.15543    376.32818    -949.0837    37625.902 
  225400    293.22415   -1511.9545    473.12874    279.23482   -619.97116    37625.902 
  225500    303.29981   -1539.8438    463.70567    287.21315   -461.51022    37625.902 
  225600    291.53097   -1552.3643    469.92658    228.01197   -287.35885    37625.902 
  225700    306.67067   -1554.4109    476.42228     300.5149   -21.808484    37625.902 
  225800    299.67248   -1559.7278     474.9042    262.22269    322.91063    37625.902 
  225900    294.73222    -1508.835    464.47071    280.47519   -133.30022    37625.902 
  226000    306.97859   -1532.3572    500.48809    348.01857    260.40614    37625.902 
  226100    309.27771   -1515.3758    482.35158    357.19811  -0.95680742    37625.902 
  226200    296.39172   -1497.5398    481.14043    315.89973   -269.66919    37625.902 
  226300     293.3745   -1521.8107    498.11733     295.0431    220.71559    37625.902 
  226400    296.12613   -1529.2312    473.24855    275.12255   -58.998887    37625.902 
  226500    296.61877   -1494.8683    495.04517    333.49644   -32.486462    37625.902 
  226600    306.12009   -1482.6079    480.42929    373.85007    142.80752    37625.902 
  226700    311.84371   -1482.8972    488.93074    407.79018    499.91469    37625.902 
  226800    301.42006   -1518.9531    498.51103     334.4596    865.13226    37625.902 
  226900    305.81439   -1528.3932    472.75671    319.01804   -38.134054    37625.902 
  227000    298.69938   -1510.7561    488.32917    320.24522     153.1164    37625.902 
  227100    305.49612   -1482.1823    447.10859    338.15017    540.45478    37625.902 
  227200    310.85418   -1484.6214    498.65659    411.34384    600.61779    37625.902 
  227300    297.80952    -1516.728    495.01214    316.95623   -346.93312    37625.902 
  227400    306.63921   -1523.4861    465.12971    320.00576   -142.89707    37625.902 
  227500    298.85438    -1520.956    494.72585    317.13872   -26.076425    37625.902 
  227600    298.19735   -1504.9718    482.86308    318.30668   -526.46076    37625.902 
  227700    288.62174   -1513.6124    484.92872    268.68881   -166.93829    37625.902 
  227800    296.31878   -1505.4823    489.97156     316.4604    291.82634    37625.902 
  227900    303.02526   -1526.4391    460.34055    296.01863   -159.35834    37625.902 
  228000    295.70067   -1527.9169    475.77651    277.05229   -409.79602    37625.902 
  228100    301.22191   -1536.5122     475.0655    292.56435    102.15986    37625.902 
  228200    290.59874   -1571.1588    462.82898    197.92944     32.95447    37625.902 
  228300    290.26087   -1563.3031    471.75834    213.19577   -309.79583    37625.902 
  228400    294.80669   -1579.6169    470.69275    216.25002    -109.2637    37625.902 
  228500    297.02989    -1499.051    488.54763     324.6643   -671.91915    37625.902 
  228600    291.59162   -1500.5128    480.47685    290.68636   -7.1935339    37625.902 
  228700    298.08096   -1519.5262    476.42219    296.78827   -31.775374    37625.902 
  228800    299.86489   -1552.6578    482.34908    277.60237    189.79824    37625.902 
  228900    297.44369   -1525.0494    480.14246    292.12082    23.887278    37625.902 
  229000    309.58855    -1493.332    499.62516    397.91276    279.19992    37625.902 
  229100    299.61537    -1528.312    471.40811    289.88561    403.48456    37625.902 
  229200    294.82391   -1537.3543    480.36537    268.26274    374.11138    37625.902 
  229300    293.50711   -1556.4569    481.21269    244.08836    781.02249    37625.902 
  229400     298.7502   -1535.4284    490.41998    297.89216    356.06935    37625.902 
  229500     301.8974    -1581.812     488.9722    264.20765    379.18855    37625.902 
  229600    290.33369   -1554.7749    458.12783    208.42077    211.15983    37625.902 
  229700    303.02516   -1497.5099    482.95074    347.55756   0.85541497    37625.902 
  229800    298.76035   -1519.7778    480.87869    304.04704    -1023.371    37625.902 
  229900     300.5807    -1522.903    477.82267    306.04841   -723.54241    37625.902 
  230000    293.63122   -1570.9623    447.81031    196.73846   -345.89714    37625.902 
  230100     308.1894   -1542.0894    468.54273     311.7837    427.63253    37625.902 
  230200    304.01575   -1547.2721    488.24996    307.54733    454.27798    37625.902 
  230300    297.76429   -1555.1762    476.54823    259.84088    77.014105    37625.902 
  230400    295.98163    -1517.427    474.13113    287.15976    85.603005    37625.902 
  230500    298.98393   -1528.2054    457.39419    273.13994    303.86067    37625.902 
  230600     302.9832   -1566.0278    451.19055    247.09091     258.4266    37625.902 
  230700    303.11486   -1561.8807    462.22728    262.86658    -247.3725    37625.902 
  230800    300.15825   -1513.0198    475.05425     311.2642   -798.22289    37625.902 
  230900    309.90474   -1589.2332    478.13877    281.94646   -108.97843    37625.902 
  231000    287.16148   -1531.6806    485.08135    244.20929    -830.2949    37625.902 
  231100    287.52482    -1523.595    473.64566    242.49243   -139.60513    37625.902 
  231200    302.54709   -1495.1961    482.26586    347.03751    355.84258    37625.902 
  231300    296.23152   -1531.0974    469.78043    270.26197   -367.10976    37625.902 
  231400    302.07454   -1517.8333    479.01325    319.02358   -101.97906    37625.902 
  231500    308.71523   -1502.1965     478.0095    363.50698   -80.210826    37625.902 
  231600    298.69394   -1560.7178    474.69825    256.62812   -387.04046    37625.902 
  231700    311.67706   -1570.4274    454.11802    284.69818   -864.90936    37625.902 
  231800    310.96971   -1569.8794    447.94656    275.89518   -329.29153    37625.902 
  231900    294.58514   -1563.0822    454.49293    215.58904    98.127634    37625.902 
  232000    297.56795   -1548.3127     472.8677    262.14124   -166.36231    37625.902 
  232100    297.17222   -1529.1549    461.03706    267.68963    651.29029    37625.902 
  232200    289.41226   -1561.7762    453.09448    192.24417    501.28344    37625.902 
  232300    304.69975   -1541.7127    481.03117    308.96262   -6.7024199    37625.902 
  232400    310.86353   -1569.6362    463.23482    290.94932    834.70716    37625.902 
  232500    300.42153   -1575.8488    467.25133    241.81577    511.45055    37625.902 
  232600    299.86685   -1569.4975    461.77993    240.20239    156.38677    37625.902 
  232700    302.69358   -1507.4403    437.18003    290.36595     46.86766    37625.902 
  232800     307.1961   -1497.6146    475.52061    358.77144   -748.25646    37625.902 
  232900    296.58292   -1479.9468    465.12769    318.33943   -971.29782    37625.902 
  233000    290.33378   -1484.1325    444.52389     265.4596   -672.20556    37625.902 
  233100    287.12853   -1466.7119    480.73268    304.68121    -1217.974    37625.902 
  233200     303.4915   -1460.2932    488.67181    392.59164   -1098.2296    37625.902 
  233300    299.92882   -1450.8517    458.94368    356.29047   -346.15457    37625.902 
  233400    296.26056   -1452.3606    497.70325    377.05209   -310.52356    37625.902 
  233500    297.18196   -1489.1519    453.17845    299.87772   -631.43601    37625.902 
  233600    304.95876    -1463.881    458.16664      365.094   -56.344341    37625.902 
  233700    294.91091   -1451.6345     473.2117    347.21992   -249.25588    37625.902 
  233800    298.05761   -1473.8644     466.9521    332.87497   -236.98005    37625.902 
  233900    300.59151   -1488.4261    473.44395    336.19525   -141.42565    37625.902 
  234000    310.75058   -1461.2209    455.25222    390.87431   -60.672963    37625.902 
  234100    304.82209   -1452.8211    459.42588     376.7989   -541.22583    37625.902 
  234200    302.89465   -1475.5889    494.31502    380.25617    52.258153    37625.902 
  234300    292.00151   -1493.2801    460.84222    280.12694   -89.229831    37625.902 
  234400    302.26105   -1487.5292     467.3115    338.46432   -136.48092    37625.902 
  234500    309.01034   -1465.2252    482.37072    406.16604    229.67966    37625.902 
  234600    304.75086   -1511.8751    468.60966    326.60841     844.6905    37625.902 
  234700    306.08514    -1534.814    459.76971    300.82727     220.7987    37625.902 
  234800    299.27301   -1521.6235    457.70492    281.33202    441.31966    37625.902 
  234900    298.19962   -1552.9304    459.02898    246.52427    400.68789    37625.902 
  235000    298.92164   -1513.2489    466.23398    296.65618   -25.619392    37625.902 
  235100    297.16603   -1505.8227    472.86901    302.82587    186.92796    37625.902 
  235200     294.1012   -1489.8654    463.95642    296.09398    34.502708    37625.902 
  235300    305.92624   -1501.0707    448.14722    322.23382   -67.192038    37625.902 
  235400    298.62143    -1513.792    475.80123    304.33099    1023.3311    37625.902 
  235500    296.27889   -1478.4878    460.26674    313.57083    388.22564    37625.902 
  235600    295.49966   -1485.2742    458.33897    301.35391    512.88462    37625.902 
  235700     298.5878   -1486.4749    493.61723    349.31284    832.14872    37625.902 
  235800    293.78714   -1483.1918    461.52543    298.92488    1046.9574    37625.902 
  235900    313.80811    -1457.534    460.00983    413.06265   -130.99723    37625.902 
  236000    304.81255   -1505.0686    430.62988    295.71251    294.79025    37625.902 
  236100    291.51633   -1474.1982    489.46219    325.64785    282.96418    37625.902 
  236200    312.37223   -1478.1538    475.59167    401.57027    739.76129    37625.902 
  236300    294.23858   -1414.8673    460.37747    368.13069    357.12827    37625.902 
  236400    289.48496   -1460.0892    480.10959     321.2731    -58.52706    37625.902 
  236500    303.16074   -1460.4709    452.74124    354.99651   -409.85127    37625.902 
  236600    297.75092   -1457.8573     476.8677    357.41908   -633.12862    37625.902 
  236700    292.23415    -1465.345     463.8145    312.08003   -361.99044    37625.902 
  236800    303.00528   -1462.0818    479.46175    379.40739    191.40034    37625.902 
  236900    306.49163   -1459.0323    474.95378    393.62018    153.98626    37625.902 
  237000    305.74635    -1488.555    487.42335    373.21703    45.993969    37625.902 
  237100    298.54028   -1484.0666    467.24779    325.13813    149.02339    37625.902 
  237200    298.90716   -1490.1577    466.97316     320.4216     319.4517    37625.902 
  237300    310.26732   -1432.0044    479.64681    442.31315    94.671806    37625.902 
  237400    305.20288   -1463.7315     474.0476     382.2218    646.15442    37625.902 
  237500    306.12197   -1488.6215    473.42866    360.84426    716.42071    37625.902 
  237600    293.71127   -1482.1737    454.26133    292.33787    462.65986    37625.902 
  237700    292.81588   -1490.9165    471.51972    296.82862    585.39642    37625.902 
  237800    299.68977   -1478.8425     457.6944    325.97592   -8.7583446    37625.902 
  237900    298.13023   -1532.1745    472.51103    280.45024    433.86654    37625.902 
  238000    303.90838   -1546.3893    465.29654     284.9941    206.71308    37625.902 
  238100    303.33471   -1532.9458    457.20398    287.76632   -158.62129    37625.902 
  238200    300.16277    -1515.032    451.98431    286.20241   -373.15431    37625.902 
  238300    297.14215   -1467.8501     466.4027    334.22488    9.4523783    37625.902 
  238400    297.73964    -1486.496    476.10774     327.9697    35.836014    37625.902 
  238500    299.84643   -1474.5415    436.79935      310.086   -107.04812    37625.902 
  238600    304.96889    -1494.884    479.22713    355.19712   -51.694774    37625.902 
  238700    300.07917   -1472.5732    482.61438    358.91558   -319.09565    37625.902 
  238800    295.15627   -1460.1981    470.33682     336.8843   -750.03106    37625.902 
  238900    285.69081   -1451.3191    502.52103    335.39968   -258.80647    37625.902 
  239000    303.30564   -1462.7135    480.04601       380.71    128.62861    37625.902 
  239100    299.22013   -1492.7508     479.3327    331.59481    318.53203    37625.902 
  239200    304.72535    -1484.736      459.292    344.31522     -251.101    37625.902 
  239300    296.75772   -1467.7994    475.10375    341.24859    19.194967    37625.902 
  239400    293.45806   -1487.6594    476.37744     307.8301    15.239054    37625.902 
  239500    305.58382   -1486.6278    463.99884    350.98917   -287.37429    37625.902 
  239600    292.41392   -1541.3464    451.35858    224.43079   -556.33345    37625.902 
  239700    305.87251   -1551.3921    458.61407    282.13778   -180.84427    37625.902 
  239800    303.85622    -1550.038    454.99782    270.81225    38.643635    37625.902 
  239900    302.77989   -1528.8734    475.93541    308.07628     363.2213    37625.902 
  240000    303.94227   -1503.2181    454.30913    317.33023    212.66124    37625.902 
  240100    303.42252   -1532.0548    451.49742    283.34558    313.44619    37625.902 
  240200    296.07709   -1502.4226    460.15086    288.61304   -320.90104    37625.902 
  240300    303.66322   -1497.4053      459.197    326.77662    128.54707    37625.902 
  240400    294.05739   -1520.8504    456.99295    257.94866    183.76837    37625.902 
  240500    297.92787   -1499.8434    429.37828    268.73903    179.04944    37625.902 
  240600    295.44502   -1506.5172    467.05298    288.57933    346.96296    37625.902 
  240700    303.20053    -1525.039     482.5207    320.38674    154.40714    37625.902 
  240800    289.60257   -1515.9415    473.34725    259.18711    88.147606    37625.902 
  240900    303.51604   -1504.4631    461.09093    320.95115    99.053241    37625.902 
  241000    317.97148    -1537.987    478.24635    369.56068   -371.74648    37625.902 
  241100    303.13378   -1529.6701    448.75341    281.68834    191.35135    37625.902 
  241200     299.8171   -1548.0542    449.05585    248.69801   -144.43279    37625.902 
  241300     309.8223   -1550.0308    435.51825    278.15773   -503.16199    37625.902 
  241400    288.77117   -1519.2122    448.36726    227.19929   -862.60994    37625.902 
  241500     311.6428   -1524.0905    440.39859    317.16165   -179.78571    37625.902 
  241600    293.92562   -1546.5026    475.85522     250.5664   -491.56549    37625.902 
  241700    301.01481   -1543.7032    441.82594    251.20282    39.980495    37625.902 
  241800     296.6799    -1549.863    465.43549    249.16694   -330.17306    37625.902 
  241900    286.63993   -1523.6606    459.80954    224.61306   -354.52208    37625.902 
  242000    302.43181     -1534.37    441.37818    266.45781    291.59061    37625.902 
  242100    302.53491   -1521.1019    455.99896    294.81011    517.10725    37625.902 
  242200    309.24998   -1511.3433    469.68499    348.43937    171.25693    37625.902 
  242300    289.80796    -1531.785    436.35937    207.27895   -377.44287    37625.902 
  242400     289.2871   -1531.1069    453.21775    222.47415   -876.98681    37625.902 
  242500     303.0502   -1501.3264    462.41824    323.32117   -396.99682    37625.902 
  242600    288.36388   -1497.9267    462.71336    261.00007   -596.77377    37625.902 
  242700     306.0418   -1525.2263     458.1174    308.56784    -460.6806    37625.902 
  242800    308.69571   -1501.2094    448.78914    335.18601    -208.4794    37625.902 
  242900    292.11544   -1524.9134    459.13792    247.30139   -604.78172    37625.902 
  243000    293.34944     -1547.18    451.71027    223.15402    129.35605    37625.902 
  243100    292.12796   -1552.8737    426.03031    186.28976    149.02942    37625.902 
  243200    308.07006   -1548.4921    455.61478    291.91655    256.99492    37625.902 
  243300    305.09293   -1558.9413    461.02678    273.49695    156.41585    37625.902 
  243400    313.20632   -1550.0527    433.07257    290.90156   -3.8748751    37625.902 
  243500    295.98673     -1543.74    438.59333     225.3319   -365.67772    37625.902 
  243600    302.69173   -1501.0049    438.28693    297.90003  -0.52480533    37625.902 
  243700    292.42461   -1540.4456    446.70559    220.72663   -529.60624    37625.902 
  243800    302.31854   -1567.1594    443.68031    235.46131   -838.77536    37625.902 
  243900    292.57047   -1526.8704    437.11472    225.36663   -890.56419    37625.902 
  244000    286.62331   -1499.5325    448.76925    237.62616   -458.50547    37625.902 
  244100    294.46989   -1488.2655    476.63222    312.02703   -297.51156    37625.902 
  244200    303.07734   -1545.9879    460.08383    276.44721   -276.54588    37625.902 
  244300    304.48719   -1494.3051      482.111    356.49458    60.763541    37625.902 
  244400    304.74134   -1561.8558    469.34371    277.31902   -455.67949    37625.902 
  244500    304.75903    -1542.037    464.65704    292.53067    43.227165    37625.902 
  244600    291.82642   -1520.7782    452.78396    243.78348   -682.17738    37625.902 
  244700    309.35274   -1533.6161    448.85491     305.7984   -585.45315    37625.902 
  244800    305.16414   -1485.8736     448.7678    334.62578    125.39208    37625.902 
  244900    303.57705   -1499.3038    459.97656    325.27031    74.355578    37625.902 
  245000    301.21504   -1518.1466    453.48819    289.32172    515.03653    37625.902 
  245100    302.67391   -1491.8642    491.22311    359.89676    357.30296    37625.902 
  245200    302.04883   -1513.9382    466.71675    310.50663    647.36896    37625.902 
  245300    300.18701    -1555.599    437.00778    230.76787     47.79274    37625.902 
  245400    303.88934   -1571.7461    491.67692    285.93208    238.39899    37625.902 
  245500    302.58908   -1521.9517    447.60441    285.80926      165.637    37625.902 
  245600    301.64194   -1483.9916    488.78351      360.691   -281.00697    37625.902 
  245700    310.63843   -1503.4894    475.98375    368.83322   -200.22339    37625.902 
  245800    283.08238   -1507.7589    462.70049    227.41433   -111.44842    37625.902 
  245900    296.47141   -1523.1436    437.12234    246.63602   -9.1502919    37625.902 
  246000    300.61694   -1516.3014    451.93602    286.92624   -151.64342    37625.902 
  246100    299.33893    -1511.898    473.92436    307.57331    7.0984903    37625.902 
  246200    304.12311   -1498.4788     453.3842    321.95744   -45.461035    37625.902 
  246300    295.64611   -1474.0011     475.9908    330.93715    150.56002    37625.902 
  246400    292.15664   -1480.8569    467.03694     299.4421    24.546169    37625.902 
  246500    285.19767   -1469.4652    480.45123    292.96712   -442.05064    37625.902 
  246600     306.5575   -1470.7453    483.60473    390.85427     36.67006    37625.902 
  246700    287.11025   -1485.1063     472.3229    277.79481   -281.36115    37625.902 
  246800    295.55816   -1503.3275    481.83611    307.06079    21.181157    37625.902 
  246900    296.73922   -1517.5348    480.13328    296.45959   -45.168503    37625.902 
  247000    300.34485   -1537.3578    455.05547    267.76622    458.82051    37625.902 
  247100    306.67197   -1475.4886    471.73042    374.75123   -95.123986    37625.902 
  247200    308.73656   -1516.8624    474.75534    345.68277    23.169249    37625.902 
  247300    292.91689   -1511.5656    480.35039     285.4643    18.198028    37625.902 
  247400    292.00473   -1508.5511     476.8195    280.84766   -66.540993    37625.902 
  247500    301.59742   -1540.2926    469.69508     285.1014    315.52279    37625.902 
  247600    308.82957   -1564.3796    443.12853     266.9568    243.52772    37625.902 
  247700    294.44213   -1540.9773    478.46074    261.01898    362.62213    37625.902 
  247800    305.40336   -1551.8255    462.30029    283.28166     1010.798    37625.902 
  247900     296.9283   -1538.1002    463.85631    260.46713    1016.0378    37625.902 
  248000    305.84979   -1500.7313    491.19162    365.27401    315.65363    37625.902 
  248100    293.54995   -1520.4037    452.56862    251.69003    295.13879    37625.902 
  248200    298.23211    -1587.086    461.80361    215.28934   -131.87095    37625.902 
  248300    306.27995   -1528.7821    484.84763    332.81278    877.44775    37625.902 
  248400    308.51743   -1457.5487    485.61275    414.86893    851.80903    37625.902 
  248500    302.72697    -1474.773    489.09497    375.09834    371.07954    37625.902 
  248600    294.44887   -1523.7264    467.80476     267.6442    47.467698    37625.902 
  248700    295.49901   -1522.6807    483.21106    288.81665   -442.08357    37625.902 
  248800    302.83836   -1495.2502    474.80469    340.83153    -158.5367    37625.902 
  248900    300.76733   -1524.2921    464.41679    292.09232   -581.13237    37625.902 
  249000    295.64263   -1494.2282    482.25638       316.96    -715.9923    37625.902 
  249100     300.9443   -1515.4777    462.18923    299.47474   -332.94363    37625.902 
  249200    301.10377   -1507.3767    469.22901    315.33226   -208.77419    37625.902 
  249300    300.73058   -1486.1635    484.85638    350.49534   -453.78451    37625.902 
  249400    296.29115   -1513.3852    482.73869    301.20044   -111.89737    37625.902 
  249500     298.5704   -1526.9467    511.46636    326.61195    413.19559    37625.902 
  249600    295.55936   -1473.5395    461.36362    316.38163    98.468735    37625.902 
  249700    294.54941    -1508.357    458.61752    274.27826    -173.5893    37625.902 
  249800    306.50823   -1528.6441    437.04205    286.17129   -223.39294    37625.902 
  249900    310.37569   -1539.9465    460.51115    315.72244   -363.74874    37625.902 
  250000    301.92959   -1552.0329    464.93533    270.09454   -12.613955    37625.902 
  250100    297.10659   -1539.8419     475.2602    270.93067    534.04138    37625.902 
  250200     304.1204    -1519.986    484.84434    331.89824    201.45752    37625.902 
  250300    299.05076    -1490.185     461.4964    315.56299    773.30094    37625.902 
  250400     298.9695   -1503.0267    477.37924    318.23886    325.15693    37625.902 
  250500    289.20174   -1518.8987    463.54789    244.62878   -255.77248    37625.902 
  250600    293.80128   -1524.1593    464.40502    260.90051     156.6835    37625.902 
  250700    301.59445   -1517.2877    493.63838    332.03625   -99.129353    37625.902 
  250800    304.89609   -1599.6457    485.17672    256.05776    2.8202582    37625.902 
  250900      292.421   -1571.1617    445.72588    189.01451   -308.98547    37625.902 
  251000    307.35638   -1530.1121    470.21681    321.69059   -134.47852    37625.902 
  251100    291.83469   -1511.1849    463.44835     264.0784    70.106439    37625.902 
  251200    297.59775   -1541.2268    470.50252    266.99598    114.89567    37625.902 
  251300    294.74337    -1506.596    454.20273     272.4963    41.133476    37625.902 
  251400    294.28686   -1559.8527    485.79162    248.77651    610.71278    37625.902 
  251500    295.90003   -1571.7461    483.72463    242.06737    692.62367    37625.902 
  251600    306.54641   -1528.3507    509.99911    359.59338    573.21575    37625.902 
  251700    309.16495   -1532.2826     452.2553    309.68818    384.58123    37625.902 
  251800    298.21321   -1528.9727    462.96165    274.47568    592.29434    37625.902 
  251900    301.20173   -1528.0202    467.89512    293.79525    166.69799    37625.902 
  252000     307.9427    -1547.875    477.87979    314.22615    422.39411    37625.902 
  252100    290.89687   -1528.3532    475.05191    254.29805    536.90113    37625.902 
  252200    293.77245   -1484.6636    473.21481    309.07646    489.11203    37625.902 
  252300    297.08461   -1505.7591    473.78785    303.44236    185.91938    37625.902 
  252400     289.0364   -1527.4443    483.81523    255.60729   -302.88585    37625.902 
  252500    298.66948   -1495.3629    484.20983    331.38462    538.69271    37625.902 
  252600    301.85085   -1528.8175    468.89192    296.91261   -353.99111    37625.902 
  252700    299.44951   -1467.7463    492.50652    370.80419    223.82432    37625.902 
  252800    307.02422   -1499.6892    465.04196    345.44554    142.86695    37625.902 
  252900    302.07733   -1496.3537    503.95022    365.45273    637.42371    37625.902 
  253000    299.95658   -1500.2897    472.35314    320.38675   -231.20703    37625.902 
  253100    303.39597   -1475.0314    464.72438    353.47648   -147.15986    37625.902 
  253200    295.74465   -1499.6138    466.11826    295.89487    223.09458    37625.902 
  253300    292.39714   -1473.1922    483.40404    324.55496     113.4353    37625.902 
  253400    295.71869   -1474.7518    465.58541    320.10732   -133.42977    37625.902 
  253500    299.07885   -1459.4472    484.63983    369.57048   -358.94329    37625.902 
  253600    297.29032   -1495.8245    480.54437     321.0582   -587.87139    37625.902 
  253700    296.48243   -1512.9459    484.67913    304.43999   -105.05349    37625.902 
  253800    296.78236    -1512.982    494.60613    315.67915    -389.3896    37625.902 
  253900    292.01163   -1473.1274    493.85735    333.34022   -2.6562993    37625.902 
  254000    299.57776   -1542.6609    467.12871    271.08823   -134.51913    37625.902 
  254100    293.71795   -1487.7736    481.51473    314.02142   -72.103701    37625.902 
  254200    300.15228   -1493.3168    484.81108    340.69723    -661.4418    37625.902 
  254300     311.9061    -1510.215    449.80418    341.62634   -326.66511    37625.902 
  254400    299.73536   -1448.1322    512.12257    411.31924   -654.36474    37625.902 
  254500    290.71735   -1461.2833    475.95945    321.46851   -487.42522    37625.902 
  254600    301.26316   -1473.8743    471.25683    351.57903    -25.35264    37625.902 
  254700    296.07024   -1432.3608    484.25111    382.74427   -434.44662    37625.902 
  254800    294.87223   -1453.8847     492.0186    363.60273   -12.892534    37625.902 
  254900    295.46992   -1508.8685    502.01727    321.30421    476.42578    37625.902 
  255000    286.83158   -1530.4112    473.98089    232.89527    164.33655    37625.902 
  255100    297.96343    -1530.633    467.48247    276.21342     174.0171    37625.902 
  255200    304.00732   -1489.3344    492.55499    369.75217    118.37079    37625.902 
  255300    300.80478   -1464.5826     443.8071    331.36056   -82.820218    37625.902 
  255400    303.64979   -1492.1149    476.67984    349.48945    97.429837    37625.902 
  255500    304.98572   -1516.6443    468.11168    322.39695   -739.25058    37625.902 
  255600     302.7721   -1540.0709    446.79543    267.70381   -43.954928    37625.902 
  255700    298.61362   -1505.8777    459.42423    295.83311   -118.70358    37625.902 
  255800    290.79797   -1501.1043    468.48488    274.53537   -145.56547    37625.902 
  255900    298.54366   -1497.2399    475.56893    320.30109    116.83021    37625.902 
  256000    298.16667   -1501.4554    470.32334    309.14549    688.84923    37625.902 
  256100    304.79729   -1511.4412    479.14775    337.78913     330.6484    37625.902 
  256200    293.10986   -1538.7581    454.16039    232.94915   -49.375741    37625.902 
  256300    303.76883   -1566.2367    457.04834    256.27122    253.15205    37625.902 
  256400    304.67652   -1564.3722    480.04907    285.21662    441.70374    37625.902 
  256500     308.0644   -1520.7371    442.75872    306.79005    428.78125    37625.902 
  256600    311.91234   -1496.0883    473.56628    379.54313    67.145833    37625.902 
  256700    304.98015   -1528.0702    480.70717    323.54152   -55.306015    37625.902 
  256800    307.16317   -1526.9486    468.52986     322.2986   -369.08867    37625.902 
  256900    310.09752   -1541.9287    466.94827    318.92708   -629.27145    37625.902 
  257000    301.01888   -1532.5475    472.15889    292.70975   -683.92754    37625.902 
  257100    313.08207   -1466.7773    456.49355    397.03945   -694.89689    37625.902 
  257200     305.5592   -1469.5226    472.18354    376.16832   -966.93257    37625.902 
  257300     305.0143   -1491.9605    474.85967    353.95722   -686.39788    37625.902 
  257400    303.26562   -1492.5522    462.14516    332.79061   -818.18321    37625.902 
  257500    303.30328   -1507.7774    474.55466     330.1442   -740.87669    37625.902 
  257600    310.90572   -1535.4121    471.04749    333.17578   -237.55506    37625.902 
  257700    299.80641   -1505.6161    455.63831    297.67047   -547.01301    37625.902 
  257800    301.20029   -1488.6572    470.46743    335.72414   -254.53268    37625.902 
  257900     288.7008   -1491.9133     487.6749    293.48942   -543.04183    37625.902 
  258000    288.45068   -1541.8125    468.69711    223.48815    225.32251    37625.902 
  258100    301.39729   -1534.7147     452.6072    272.69185   -78.219638    37625.902 
  258200    296.90216   -1507.4984    482.32547    309.42056    676.84512    37625.902 
  258300    293.03087   -1492.2704    463.41665    288.33803   -20.195693    37625.902 
  258400    304.31498   -1522.0302    458.45005    304.33444   -279.87476    37625.902 
  258500    298.71213   -1517.0283    468.21996    293.92111   -757.28361    37625.902 
  258600    298.01477   -1516.6928    442.98141    265.88337   -626.86658    37625.902 
  258700    303.12489   -1485.1358    496.52709    373.95636   -444.74602    37625.902 
  258800    302.64644   -1546.3144    458.65018    272.75015   -214.96434    37625.902 
  258900    299.70145   -1487.0383    474.19809    334.33622    503.91858    37625.902 
  259000    297.02213   -1527.3514    478.43619    286.21757    279.85692    37625.902 
  259100    304.05741   -1487.2409    474.74697    354.26283    499.92654    37625.902 
  259200    299.40945    -1524.827    478.67731    299.71422   -266.10382    37625.902 
  259300    302.50944   -1476.4518    452.77777    336.12454    -374.4626    37625.902 
  259400    301.72164    -1454.303    458.20281    360.15719   -838.43029    37625.902 
  259500    296.66233   -1445.3708    456.56933    344.71393   -629.79613    37625.902 
  259600    298.55949   -1510.6698    459.40096    290.77445   -447.89872    37625.902 
  259700    295.82579    -1459.818    481.47789    351.41503    171.07979    37625.902 
  259800    306.16872   -1449.9923    467.52236     393.7773    127.06569    37625.902 
  259900    293.69813   -1475.0167    449.20345    294.37794    -9.145065    37625.902 
  260000    289.74792   -1498.6596    454.82579    258.60093    111.94898    37625.902 
  260100    306.65848   -1444.9808     461.9811    395.44905     666.7214    37625.902 
  260200    307.64774   -1444.3409    512.15589    450.71047     174.9903    37625.902 
  260300     314.6711   -1471.8756    465.80876    408.39917   -336.04202    37625.902 
  260400    306.88841   -1458.1113    476.17255    397.54353   -572.93152    37625.902 
  260500    303.39083   -1459.0909    474.33326    379.00275   -764.92148    37625.902 
  260600    301.05108   -1452.6245    463.14258    363.76115   -565.02456    37625.902 
  260700    294.80755   -1504.7923    482.58781    302.97356   -826.90585    37625.902 
  260800    309.61785   -1482.8878    479.99595    388.85948   -186.65768    37625.902 
  260900    309.66771    -1467.909    481.54971    405.61617   -277.42293    37625.902 
  261000    302.28512    -1431.886    490.03367    416.93794   -377.63166    37625.902 
  261100    298.93811   -1456.1791    456.96504    344.53111   -585.79745    37625.902 
  261200    295.64042   -1487.7168    495.13666    336.34177    191.28908    37625.902 
  261300    300.13777   -1470.1004    463.43661    342.47395    340.89947    37625.902 
  261400    305.29796    -1491.367     471.0395    352.00564    420.00963    37625.902 
  261500    295.36611   -1467.4459    490.39209      350.635     204.5295    37625.902 
  261600    307.46038   -1477.4332      466.516    371.13615    12.484755    37625.902 
  261700    298.75195   -1498.8843    499.85172    343.87579    67.028409    37625.902 
  261800    306.51249   -1454.5962    497.69053    420.88684     769.0094    37625.902 
  261900    304.53943   -1483.8497    471.99283    357.06657    24.841127    37625.902 
  262000    301.58619   -1499.0346    473.48866    330.10256   -404.31599    37625.902 
  262100    296.45926   -1467.3816    470.51112    335.73218   -232.25025    37625.902 
  262200    295.36635   -1500.5249     448.2649     275.4299   -249.15188    37625.902 
  262300    288.17362   -1510.5762    472.61712    257.39908   -315.84711    37625.902 
  262400    295.47166   -1474.0792    506.49386    360.57799    -320.9142    37625.902 
  262500    300.52031   -1434.3144     484.0024    400.54526      178.351    37625.902 
  262600     298.1789   -1438.4969     484.7459    386.58151   -8.5914186    37625.902 
  262700    298.29413   -1416.9278    482.93409    406.85676   -288.18948    37625.902 
  262800    304.30079   -1433.3552    488.90634    423.40197   -474.84384    37625.902 
  262900    310.81601    -1497.261    470.01012    369.88621   -146.43765    37625.902 
  263000    300.47896    -1462.047    486.28604    374.91043    159.38263    37625.902 
  263100    301.40681   -1482.8832    477.35356    349.31255    2.7172281    37625.902 
  263200    301.36516   -1454.7415    496.28554    396.19898    66.728028    37625.902 
  263300     289.0745   -1457.6192    462.48226    304.27078    32.634845    37625.902 
  263400    297.46133   -1425.4386    477.34715    389.01553   -28.149101    37625.902 
  263500    301.53494   -1454.6474    471.77898    372.54973   -39.584592    37625.902 
  263600    291.86491   -1428.0967    488.00208    371.85609   -137.67301    37625.902 
  263700    298.56044   -1435.0052    487.79172    394.83413    400.66837    37625.902 
  263800    310.35392   -1456.9734    465.03332    403.11994    544.60546    37625.902 
  263900    291.60317   -1482.2942     485.7046    314.18465    297.82944    37625.902 
  264000     299.5228   -1477.4691    467.75501    336.65934   -258.65227    37625.902 
  264100    292.89067   -1532.3133    476.56582    260.81411    -44.41257    37625.902 
  264200    295.48128   -1494.0399    486.62068    320.78728    416.14789    37625.902 
  264300    296.76341   -1498.3275    513.39447    349.03672   0.90540302    37625.902 
  264400    300.08953   -1475.3153     459.3356    332.94115    103.65734    37625.902 
  264500    302.36834   -1471.0656    509.89528    397.99398    654.00637    37625.902 
  264600    302.12448   -1427.0102    484.79183     415.8497    618.94521    37625.902 
  264700    304.39175   -1472.8015     456.6883    352.14647    520.25325    37625.902 
  264800    301.06459   -1486.6184     480.9494    347.63491    51.929799    37625.902 
  264900    308.08072   -1466.1587    466.00289    384.68599   -209.45786    37625.902 
  265000    306.98669   -1431.4787    465.32582    413.77117    285.47928    37625.902 
  265100    290.36344   -1463.4057    478.76331    320.55915   -612.01357    37625.902 
  265200    291.30446   -1496.8117    483.19349    295.81325   -339.94707    37625.902 
  265300    302.15227   -1466.9257    472.03153     363.2989   -1195.9261    37625.902 
  265400    312.04207   -1478.5856     473.3488    397.41152   -1005.7393    37625.902 
  265500    301.30506   -1537.2614    462.77037    279.89377   -922.15546    37625.902 
  265600     294.6912   -1481.1866    452.40995    295.87846   -850.13716    37625.902 
  265700    304.82537   -1503.6964    468.14501    334.65745   -412.86752    37625.902 
  265800    294.01983   -1499.9323    447.75175     269.4567   -598.47199    37625.902 
  265900    311.88259   -1494.2467    461.80497    369.48973   -15.865556    37625.902 
  266000    296.99847   -1508.2508    477.30332     304.0789    261.32375    37625.902 
  266100    296.60714   -1533.6808    460.28435    259.87094     421.8527    37625.902 
  266200    301.48934   -1496.1761    461.31893      320.356    479.84751    37625.902 
  266300    284.26583   -1494.5734    492.87667     276.0957    483.03639    37625.902 
  266400    301.48021   -1520.8771    490.61255    324.90756     453.0908    37625.902 
  266500    307.22783   -1514.5918    485.05804    351.47422    333.88983    37625.902 
  266600    302.08318   -1505.5212    467.52301    319.88428   -174.65957    37625.902 
  266700    296.30454   -1489.9929    474.90427    316.81849    180.22237    37625.902 
  266800    288.57664   -1480.4286    456.90141    273.64251    158.36143    37625.902 
  266900    302.89764   -1504.0785    477.23091    334.69597   -125.29551    37625.902 
  267000    289.68175   -1500.5173    462.21558    263.83557    155.82561    37625.902 
  267100    306.09442   -1532.0577    489.02518    332.88076    458.71496    37625.902 
  267200    298.19932   -1512.6133    448.02793    275.83888    106.25466    37625.902 
  267300    290.59931    -1504.425    500.03727    301.87403    436.19161    37625.902 
  267400    287.60925   -1509.9254    468.17838    251.07426   -256.18631    37625.902 
  267500    306.35075   -1486.5195    466.35054    356.89656   -299.60821    37625.902 
  267600    307.81679    -1478.841    470.59297    375.40734     201.3369    37625.902 
  267700    295.21408   -1454.5861    513.46596    385.88535    245.45422    37625.902 
  267800    305.30796   -1446.8833    495.59088    421.08568   -217.97084    37625.902 
  267900    301.91874   -1465.4566    474.85629    366.54302   -16.971083    37625.902 
  268000    293.44831   -1459.1466    485.27231    345.19394   -17.446243    37625.902 
  268100    307.51122   -1469.0167    473.71391    386.97906    374.94642    37625.902 
  268200    306.27061   -1467.2983    463.71388    373.12089   -218.61007    37625.902 
  268300    303.30831   -1484.9835    487.51386    365.91989   -181.53671    37625.902 
  268400    293.55775   -1467.6283    497.53147    349.46333    12.333263    37625.902 
  268500    305.25518   -1546.0908    436.62178    262.67178   -330.93903    37625.902 
  268600    305.97521   -1531.1479    472.85184    317.08133   -189.44561    37625.902 
  268700    286.33426   -1481.1904    464.76935    270.66911   -213.40365    37625.902 
  268800    293.40935    -1502.693    461.46776    277.66783    212.93719    37625.902 
  268900    289.15857    -1560.893    492.01667    230.90925   -789.22776    37625.902 
  269000    292.81092   -1541.9887    450.71106    224.92545   -429.86113    37625.902 
  269100    298.83956   -1531.9672    494.36448    305.69946   -706.75524    37625.902 
  269200    306.52816   -1540.1429    469.81804    307.53803   -137.40914    37625.902 
  269300    292.95856   -1528.0621    468.92878    257.73347     354.2252    37625.902 
  269400    302.49208   -1521.2672    496.54842    335.00175    369.15307    37625.902 
  269500    295.27185   -1514.3557    474.88387    287.79327    651.94882    37625.902 
  269600    299.48703   -1528.5708    476.81449     294.4563    135.27188    37625.902 
  269700    309.67609   -1509.8933    479.63162     361.7514    306.44278    37625.902 
  269800    297.23425   -1531.7338    468.93705    273.28954    430.51335    37625.902 
  269900    301.78537   -1511.9815    477.81899    322.38131   -13.341624    37625.902 
  270000    291.98735   -1580.4864    461.63727    193.65195    -266.3522    37625.902 
  270100    293.10054   -1509.9879    478.54317     286.0602    -439.2949    37625.902 
  270200    305.95214   -1502.7103    484.10377    356.66718   -493.62556    37625.902 
  270300    304.81228   -1530.6626    476.22248    315.70986   -295.70948    37625.902 
  270400    304.15621   -1541.2104    505.40453    331.39496   -123.53449    37625.902 
  270500    301.84123   -1497.7991    456.09786    315.09373   -265.60232    37625.902 
  270600    297.48162    -1536.806    469.11809     269.5103   -144.49477    37625.902 
  270700     304.5303   -1557.8076    463.70497     274.7798    97.418103    37625.902 
  270800    294.90787    -1527.472    472.53294    270.68998   -104.06293    37625.902 
  270900    287.16336   -1515.6264    465.82182    241.01242   -280.26338    37625.902 
  271000    308.38651   -1510.2203    446.76153    322.75761    85.837723    37625.902 
  271100     300.8761   -1543.1371    488.56022    297.87976    184.54343    37625.902 
  271200    294.66754    -1531.734    474.07457    266.88932    859.92027    37625.902 
  271300    304.26427   -1514.9853    468.00382    320.70515    1167.5161    37625.902 
  271400    302.27774   -1504.3406     475.0823    329.49871    404.42176    37625.902 
  271500    298.70154   -1510.4283    473.01444    305.26794    1007.6588    37625.902 
  271600    305.21314   -1534.4016    458.00468    295.55492    93.559531    37625.902 
  271700    296.07779   -1513.6572    472.17835    289.40909   -324.15199    37625.902 
  271800    294.12818   -1548.3666    457.44486     231.2025   -332.95149    37625.902 
  271900    292.49128   -1518.9367    466.51809    262.34771    -191.1766    37625.902 
  272000    300.92683   -1489.2567    502.77869    366.20655    449.18304    37625.902 
  272100    304.23912   -1521.5157    505.23494    351.29283    670.02349    37625.902 
  272200    309.50689   -1545.5936    503.05309    348.71197    426.76339    37625.902 
  272300    295.34622   -1497.4841     488.5005    318.61588    1148.3345    37625.902 
  272400    320.98416   -1486.5247     510.8646    467.18345    468.86587    37625.902 
  272500    301.12167   -1513.3216    509.27593    349.51478    66.097628    37625.902 
  272600    297.21013   -1511.6216    490.54109     314.8973   -46.439146    37625.902 
  272700    302.79768   -1481.8267    500.58102    379.84851    147.37531    37625.902 
  272800    302.93432   -1521.8908     441.6084    281.42604    95.803122    37625.902 
  272900    301.26461   -1466.2485    482.54248    370.49697   -165.56707    37625.902 
  273000    303.74201   -1473.8953    483.95376    375.39745    -172.4757    37625.902 
  273100      298.962   -1462.2245    501.31201    382.94014    374.09107    37625.902 
  273200    296.55407   -1451.2072    500.07901     381.9006     133.7153    37625.902 
  273300    292.77695   -1448.9258    481.13665    348.26129    127.72885    37625.902 
  273400    300.48839   -1471.2689    454.80073    334.24569    153.31411    37625.902 
  273500    286.10308   -1531.0281    485.31282    240.33563   -180.67502    37625.902 
  273600    297.25179   -1480.6894    511.68175    367.15745    238.37316    37625.902 
  273700    289.88547   -1474.0118     489.2522    318.29341    13.572119    37625.902 
  273800    303.67358   -1472.4189     487.9448    380.55732   -283.41616    37625.902 
  273900    291.19881   -1442.2055    469.65145    336.40252   -833.07103    37625.902 
  274000    306.50415   -1493.4084     507.1244    391.47107   -886.71307    37625.902 
  274100     290.2716    -1494.687    445.33006    255.43181   -115.13629    37625.902 
  274200    302.75826   -1497.3036    494.92627    358.53966    39.122025    37625.902 
  274300    292.12813   -1480.5571    503.33878    335.91566   -216.08646    37625.902 
  274400    306.74535   -1451.7942    494.29061    421.33561     38.26997    37625.902 
  274500    293.11097   -1486.6383    505.07175    335.98532    9.9623654    37625.902 
  274600    303.69154   -1484.9104    494.83197    375.03378    299.45053    37625.902 
  274700    292.67725   -1498.3764    476.17271    293.39854    341.48731    37625.902 
  274800    296.39055   -1439.1096    493.82391    387.00805    201.27464    37625.902 
  274900    292.07622   -1482.0268    506.97429    337.84805   -228.68688    37625.902 
  275000    298.98075   -1449.1369    496.61631    391.41624    51.289201    37625.902 
  275100    298.12061   -1449.4029    482.31018     372.9778   -242.40361    37625.902 
  275200    298.84504   -1478.1824    519.85459    384.99899   -125.35824    37625.902 
  275300    293.32506   -1502.5385    497.64181    313.61756    118.58411    37625.902 
  275400    298.30017   -1498.6824    507.87698    350.07223    731.73888    37625.902 
  275500    298.95627   -1465.4389     475.9718    354.35972    320.88945    37625.902 
  275600    311.04382   -1527.4834     469.1054    339.78308    -205.1689    37625.902 
  275700    297.62517   -1487.8947    486.07673    336.02552   -230.22486    37625.902 
  275800     295.2945   -1480.5288    487.98929    334.82742   -248.04259    37625.902 
  275900    300.51008   -1484.7782     486.7222    352.75533   -115.29842    37625.902 
  276000    307.11322   -1476.9387    483.31917    386.87333   -118.68536    37625.902 
  276100    296.55872   -1490.6366    495.55794    337.97107   -28.453732    37625.902 
  276200      306.268     -1465.03     491.1295    402.79303   -299.31387    37625.902 
  276300    289.95531   -1522.6265    483.45686    264.19733   -242.73949    37625.902 
  276400    309.65629   -1460.2128     500.7347    432.44603   -1182.1382    37625.902 
  276500    290.05218   -1492.5487    483.49037    294.74411   -1496.8876    37625.902 
  276600    306.13776   -1509.3859    474.62447    341.34665    -1114.734    37625.902 
  276700    302.34016   -1537.6265    476.46561    297.87672   -398.20943    37625.902 
  276800    295.79152   -1552.0677    497.10022    274.63367    102.23722    37625.902 
  276900    296.88109   -1546.4551    475.11215    263.15583     405.9331    37625.902 
  277000    293.19721   -1551.3437    477.83492    244.43071   -58.486241    37625.902 
  277100    310.67293   -1507.3205    522.02417    411.19762   -628.34166    37625.902 
  277200    294.29175    -1497.362    473.04866    298.54619   -728.00275    37625.902 
  277300    302.23439    -1502.242    479.82461    336.14476   -1293.5993    37625.902 
  277400    294.97827   -1523.7529    486.98794    289.18051   -641.59183    37625.902 
  277500    304.21606   -1533.1231    474.14937    308.49623    -378.1821    37625.902 
  277600    311.03041   -1543.0803    494.76008    349.78062    329.95788    37625.902 
  277700    300.21692   -1527.8929    507.29335      328.894    -395.4561    37625.902 
  277800    294.49372   -1541.8176    473.59045    255.54027    55.486595    37625.902 
  277900    305.90241   -1568.7827    507.24938    313.51685    143.87869    37625.902 
  278000    297.33997   -1604.0074    477.84358    210.39767   -180.53446    37625.902 
  278100     306.3005   -1508.5743    475.91595    344.18127   -136.27479    37625.902 
  278200    298.73418   -1502.7376    487.78147    327.87241   -525.47364    37625.902 
  278300    304.62703   -1491.7633    500.17885    377.73278   -578.94952    37625.902 
  278400    299.04871   -1507.5814    481.81949    318.48046   -46.818781    37625.902 
  278500     304.4541   -1507.5292    485.32663    346.33733    -176.2286    37625.902 
  278600    295.96601   -1527.8624    479.56357    282.08663    80.563327    37625.902 
  278700    297.35198   -1510.2383    479.50129    305.87842   -6.3043554    37625.902 
  278800    293.27812    -1506.418    476.76104    288.64619    146.99748    37625.902 
  278900    310.47782   -1498.4277    508.18739    405.37662    570.44413    37625.902 
  279000    302.81009   -1463.6801    500.55302    398.02294    611.07682    37625.902 
  279100    298.77886   -1466.8997    500.40921    376.53889    495.68036    37625.902 
  279200    299.86876   -1483.3455    500.96676    365.54981   -88.881692    37625.902 
  279300    290.83908   -1500.6461    494.86453    301.55798   -383.99946    37625.902 
  279400    291.87623    -1512.983    484.34328    283.36191   -398.44506    37625.902 
  279500    304.34937    -1520.812    476.45234    323.70945   -129.55277    37625.902 
  279600    305.26098   -1508.7635    477.45131    340.85473   -412.10165    37625.902 
  279700    298.62025   -1479.5523     499.6425    362.40659    113.86035    37625.902 
  279800    296.27626   -1505.9398    476.84602    302.68624   -539.32106    37625.902 
  279900    293.69256   -1527.9409    494.02037    286.24556    67.529995    37625.902 
  280000    297.85436   -1538.6461    485.41908    285.64668    303.06317    37625.902 
  280100    297.34958   -1522.1814    518.12158    332.54486    -171.2017    37625.902 
  280200    301.95398   -1513.8226    475.59324     319.0724   -393.45476    37625.902 
  280300    319.10847   -1489.7502    495.33361    439.99556    197.86963    37625.902 
  280400    299.71357   -1563.0423    481.11058    265.29922    67.119901    37625.902 
  280500    301.48325   -1534.8592    477.79393     298.1205   -359.65472    37625.902 
  280600    286.16072   -1507.6132    515.77943     294.4763   -464.25685    37625.902 
  280700    303.47016   -1530.7501     464.4465    297.81344   -201.74204    37625.902 
  280800    302.37638   -1566.3952    491.04261    283.84788    342.37492    37625.902 
  280900     305.1694   -1544.0148    507.31269     335.0531   -91.485207    37625.902 
  281000    292.96693   -1506.5741    509.73528     320.0656   -343.13984    37625.902 
  281100    289.50005   -1497.3916    516.12677    320.05572    179.66196    37625.902 
  281200    304.78546   -1507.6948    498.00404    360.33862    31.060437    37625.902 
  281300    306.22957   -1506.4957    478.54744    348.57253    212.29343    37625.902 
  281400    307.17886   -1504.4017    495.24739    371.63361   -40.027057    37625.902 
  281500    293.24306   -1494.5241    516.02175    339.64327    145.84827    37625.902 
  281600    300.24406   -1509.1604    519.00276    359.45793      119.513    37625.902 
  281700    295.43279   -1499.2178    494.80056     323.5714    486.57078    37625.902 
  281800    298.56665   -1506.3997    516.97839    352.65421    1.9665656    37625.902 
  281900    290.15565   -1472.5292    498.75384     330.4921   -74.128721    37625.902 
  282000     300.2294   -1484.6328    502.52648    367.44327   -74.599626    37625.902 
  282100    292.95215   -1518.4585    500.63654      299.016   -44.273133    37625.902 
  282200    308.20812   -1529.1769    494.39775    350.63528    56.611992    37625.902 
  282300    285.53668   -1498.1251    479.31544    264.69527    -368.2911    37625.902 
  282400    302.33878   -1499.7578    515.21015     374.4838   -324.83394    37625.902 
  282500    299.91181   -1536.1508    495.63366    307.60492   -24.473355    37625.902 
  282600    287.64474   -1552.9762    505.78584     245.7905    160.60097    37625.902 
  282700    314.60089   -1511.6492    502.24758    404.74878    17.077229    37625.902 
  282800    299.07287   -1476.0433    508.74164    377.04931   -332.25437    37625.902 
  282900    298.04746   -1448.0403     508.3906    400.09199   -257.80695    37625.902 
  283000    296.23079   -1466.4326    503.14487    368.28786   -159.53321    37625.902 
  283100    309.27573    -1421.489    502.11919    470.84361   -19.376293    37625.902 
  283200     303.7732   -1480.6558    526.08112    410.90455   -606.36456    37625.902 
  283300    307.75727   -1487.8274    492.72327    388.28377   -6.8943492    37625.902 
  283400    309.08102   -1490.1272    515.00618    414.21718   -281.50767    37625.902 
  283500    296.22034   -1488.3266    492.54128    335.74334   -77.089272    37625.902 
  283600    286.52232   -1480.9017    512.36753    319.40133    -40.45184    37625.902 
  283700    300.74988   -1468.1297    513.04683    396.80639    80.920648    37625.902 
  283800    305.52034   -1534.7695    476.24423    314.80745   -68.267658    37625.902 
  283900    300.03529   -1527.4616    493.66012    314.87565   -443.00391    37625.902 
  284000    295.14551   -1536.0198    480.80978    271.48717    270.24912    37625.902 
  284100    289.12067   -1555.2458    491.23513    235.60456   -57.836774    37625.902 
  284200    299.55975   -1563.4944    480.24004    263.28511    50.339477    37625.902 
  284300    303.23368   -1512.9168    497.94832    348.08557   -291.04593    37625.902 
  284400    310.08314   -1552.0942    491.85317     333.6018   -348.75865    37625.902 
  284500    293.79823   -1517.3854    482.43185    285.68761   -366.93425    37625.902 
  284600    311.82643   -1495.0566     512.0149    418.63736   -115.78883    37625.902 
  284700    296.50906   -1532.8066    488.30486    288.32474   -273.87363    37625.902 
  284800    300.20812    -1531.204    498.57784    316.82786   -324.56481    37625.902 
  284900     302.4172   -1517.8416    482.34277    323.88509   -611.59073    37625.902 
  285000    282.95003   -1527.1595    482.67113    227.38943   -735.35684    37625.902 
  285100    304.87642   -1558.2257    454.69834    266.91095    -348.9506    37625.902 
  285200    299.27316   -1528.7613    488.25138    304.74133    -396.6256    37625.902 
  285300     305.8745   -1586.1881    481.93157    270.66817   -595.50785    37625.902 
  285400    304.60655   -1601.2371    475.38813    243.37618   -550.32196    37625.902 
  285500    293.47664   -1551.2761    464.68313    232.60257   -811.05673    37625.902 
  285600    298.87024   -1543.9743    492.70422    292.17006   -779.16771    37625.902 
  285700    297.33232   -1537.2087     465.6002    264.91862   -685.07349    37625.902 
  285800    291.58548   -1500.1222    475.60129    286.17379   -1069.6785    37625.902 
  285900    294.07597   -1559.9184    509.54186    271.51307   -757.19758    37625.902 
  286000    298.76344   -1526.3131    465.31062    281.95759   -520.32096    37625.902 
  286100    302.25708   -1517.1843    503.06202    344.54191   -68.858412    37625.902 
  286200    290.38816   -1529.4995    483.31303    259.12621    243.24903    37625.902 
  286300    302.93278   -1472.1815    489.93635     379.4563     535.7427    37625.902 
  286400    302.12424   -1491.7688    510.54646    376.84476     478.9745    37625.902 
  286500    294.96911   -1481.6122    487.53078    331.82292    289.00967    37625.902 
  286600    300.93518   -1524.0051     463.5507    292.26772    278.40657    37625.902 
  286700     305.6967   -1470.6733    492.47524    395.92744   -753.38262    37625.902 
  286800    293.04448   -1525.2279    466.89224    258.91732   -513.79561    37625.902 
  286900    306.73911   -1486.6195    496.63591    388.82765   -440.16242    37625.902 
  287000    298.81426   -1479.8865    496.49385    359.79588   -118.92664    37625.902 
  287100    300.71738    -1514.816    518.24955    355.17664   -231.95559    37625.902 
  287200    299.85344   -1494.1446    476.13946    329.85452   -32.573138    37625.902 
  287300    306.39414   -1486.6859    479.14699    369.72157   -547.54148    37625.902 
  287400     286.7954   -1456.4541    459.59787    292.30678   -534.55383    37625.902 
  287500    287.74162   -1475.2091    489.73716    307.94435   -43.945908    37625.902 
  287600    297.66557   -1519.1767    495.17221    314.02058    286.43331    37625.902 
  287700    301.68133   -1517.3684    489.91937    328.62714    594.73526    37625.902 
  287800    299.27376   -1515.9319    465.81569     295.1377    386.46166    37625.902 
  287900    299.91638   -1488.8654    469.95499    329.23215    567.03998    37625.902 
  288000    296.02146   -1526.5846    494.65379    298.70385   0.97798291    37625.902 
  288100    299.42962   -1518.5811    482.66936    310.04281   -139.97424    37625.902 
  288200    295.33769    -1467.879    493.03628    352.71843     274.2767    37625.902 
  288300    289.03458   -1504.1681    492.01493    287.07506    191.77987    37625.902 
  288400    306.68292    -1545.276    470.69597    303.97859    -270.8312    37625.902 
  288500    298.58412   -1503.7497     482.0423    320.44657    372.80654    37625.902 
  288600    302.40957   -1480.4523    494.97086    373.86821   -199.87273    37625.902 
  288700    297.52146   -1517.6569    466.76444     286.4848    -214.4766    37625.902 
  288800     296.9971   -1496.4135    498.45931    337.06611   -239.68694    37625.902 
  288900    304.80361   -1477.6597    491.11983     383.5711   -52.150333    37625.902 
  289000    301.37487   -1515.7259    469.87183    308.84453    311.64564    37625.902 
  289100    293.85363   -1489.9007    499.00018    329.98961   -62.159444    37625.902 
  289200    306.38215   -1525.1481    500.22868    352.28718    411.88805    37625.902 
  289300    287.63133   -1522.4109    483.65892    254.16859    258.93235    37625.902 
  289400    296.79882   -1484.2913    470.15199    319.98964    170.66098    37625.902 
  289500    296.33335   -1538.8266    480.62436    273.83437    255.69535    37625.902 
  289600    292.07159   -1488.7706    499.48241    323.59161    615.72397    37625.902 
  289700    300.02132   -1481.4809    504.59615    371.72957    639.20652    37625.902 
  289800    289.84543   -1492.6031    505.01127    315.28126   -19.615784    37625.902 
  289900    306.92285    -1464.152    479.36371    394.84883   -536.18677    37625.902 
  290000    293.89315   -1489.4236    475.35822    307.00238   -118.22886    37625.902 
  290100    307.01924   -1460.2865    512.39788    432.18173   -239.07417    37625.902 
  290200    302.41413   -1487.2698    486.66294    358.76329    15.844954    37625.902 
  290300    294.75516   -1495.4644    475.80107    305.27928     238.3549    37625.902 
  290400    307.01441    -1497.704    450.42475    332.76944    -57.68032    37625.902 
  290500    307.31838   -1513.7797    496.45838     364.0937    244.08186    37625.902 
  290600    300.97059   -1473.8012    487.44311    366.52325     63.35701    37625.902 
  290700    302.54904   -1483.7649    481.92039    358.13209    422.10113    37625.902 
  290800     298.6591   -1500.9219    491.35149    332.92064    254.56947    37625.902 
  290900    295.28989   -1478.0919    509.79581    359.05017    526.56071    37625.902 
  291000    311.32832   -1435.3047    494.90973    459.04495    320.20938    37625.902 
  291100    296.20402   -1459.7852    493.73035    365.40045   -29.570596    37625.902 
  291200    301.06765   -1452.9099    513.57077    413.97844    420.90685    37625.902 
  291300    307.14456   -1432.0001    512.83406    461.46771    314.38285    37625.902 
  291400    298.16206   -1442.1691    484.90236    382.99004     225.4092    37625.902 
  291500    292.04094   -1453.6259    494.67355    353.78963    167.07147    37625.902 
  291600    311.44653   -1425.2414    488.67539    463.40528     71.12678    37625.902 
  291700    297.65493   -1486.6385    493.76702    345.10572    584.50123    37625.902 
  291800    299.64486   -1468.3032     506.1304    384.74929   -128.01619    37625.902 
  291900    293.69245    -1526.244    458.08134    252.00299   -323.74862    37625.902 
  292000    299.94221   -1515.8714    485.67624    318.06352   -322.20848    37625.902 
  292100    311.22982   -1525.3509    489.67025    363.31654    5.4081057    37625.902 
  292200    288.83775   -1561.8398    434.36607    170.86975   -27.144773    37625.902 
  292300     311.6909   -1541.9044    508.72221    367.88758   -135.20494    37625.902 
  292400    291.35453   -1545.8551    459.03673    222.83814   -231.93861    37625.902 
  292500    309.15521    -1502.658    486.06572    373.07939   -95.539915    37625.902 
  292600    292.96413   -1493.5642      489.505    312.83259   -251.32029    37625.902 
  292700    298.58232   -1512.6239     483.5636    313.08563   -261.24548    37625.902 
  292800    302.77145   -1543.1665    492.87599    310.68578   -241.33767    37625.902 
  292900    298.33043   -1527.1613    462.09647    275.94886      154.907    37625.902 
  293000    304.07191   -1502.5941    519.05882    383.28661    772.61904    37625.902 
  293100    303.28639   -1541.7643    482.36261    303.88931    847.35903    37625.902 
  293200    307.42653   -1512.9635    472.65806    341.59576    586.80478    37625.902 
  293300    306.66742   -1542.9085    466.55319    302.13361    529.92231    37625.902 
  293400    300.29219   -1521.5397    452.41549    280.70768     310.2179    37625.902 
  293500    292.64703   -1498.7797    489.28368    305.97034    87.034296    37625.902 
  293600    294.54082   -1506.0214    511.10474    329.06248   -272.21252    37625.902 
  293700    295.29318   -1472.9042    490.77139     345.2282   -382.24939    37625.902 
  293800    304.98955   -1486.7923    467.02395    351.17847   -93.283559    37625.902 
  293900     307.9613   -1519.6894     495.1073    359.72292   -169.78462    37625.902 
  294000    295.12447   -1475.2994    488.84024    340.14352   -10.857127    37625.902 
  294100     298.9486   -1488.1672    484.81512    340.44024    210.43114    37625.902 
  294200    316.01656   -1452.9154    495.67211    463.27055    168.11537    37625.902 
  294300    293.66397   -1430.9642    493.70751    382.78089    52.052053    37625.902 
  294400    302.33765   -1426.2347    482.15664    414.94831    70.109324    37625.902 
  294500    306.69777   -1431.4557    483.51328    430.68293    275.64025    37625.902 
  294600    301.22893   -1436.2883    488.53305    406.28735   -22.517458    37625.902 
  294700    299.59842    -1483.686    501.04413     364.0715     187.5772    37625.902 
  294800    295.62344   -1441.4012    481.41795    368.86233    343.83183    37625.902 
  294900    299.29977   -1489.0796     506.8408    363.13213    661.27642    37625.902 
  295000    295.41084   -1496.2705    468.44778    300.06719    529.75265    37625.902 
  295100    306.60141   -1503.5904    473.18865    347.79044    -453.6339    37625.902 
  295200    300.64678   -1498.0943    486.91583     340.2473   -581.00444    37625.902 
  295300    302.00678   -1479.1657    495.30764    373.68103   -750.24709    37625.902 
  295400     298.6241   -1490.8474    481.98385    333.47018   -786.31534    37625.902 
  295500    301.58621   -1467.8256    486.65052    374.47351   -89.993976    37625.902 
  295600    299.22188   -1498.7113    492.68799     338.9975   -436.02231    37625.902 
  295700    291.56401   -1504.4171    479.64528    285.82633   -294.17078    37625.902 
  295800    296.30184   -1497.5636    481.72409    316.05546   -536.55997    37625.902 
  295900    302.18421   -1530.3947    439.23852    267.18049   -526.56487    37625.902 
  296000    297.04595   -1523.2055    469.26714    281.30147   -1048.4527    37625.902 
  296100    296.75876    -1534.335    471.19089    270.80482    -827.0938    37625.902 
  296200     308.6945   -1524.2505    479.76977    343.12007    59.094393    37625.902 
  296300     295.6218   -1527.2597    507.31296    308.89147   -50.614182    37625.902 
  296400    313.83686   -1522.5779    500.61907    388.75721    646.37482    37625.902 
  296500    307.69439   -1525.5202    515.43798    373.02298   -122.69821    37625.902 
  296600    299.71041   -1540.6305    477.21008    283.79633    384.71671    37625.902 
  296700    298.37191   -1503.8739    501.56762    338.89383    223.46947    37625.902 
  296800    291.76148   -1497.1477     493.4304     307.7685     6.210675    37625.902 
  296900    306.16845   -1525.6623    504.97348    355.55723    128.90609    37625.902 
  297000    304.54143   -1484.7483    491.98453    376.16874    93.669391    37625.902 
  297100    300.53221   -1482.1355    496.66154    365.43686    613.66326    37625.902 
  297200    297.18807   -1513.7516    481.22692    303.35397     524.8248    37625.902 
  297300    299.54832   -1525.2223    464.39265    285.65842    219.17865    37625.902 
  297400    297.85932   -1563.2937    470.85371    246.45602    470.71793    37625.902 
  297500    301.64865   -1517.8101    494.44588    332.56505   -138.22024    37625.902 
  297600    298.89986   -1558.6631    483.57618    268.48628   -28.626835    37625.902 
  297700    304.38652   -1533.7976     485.6598    320.09828   -389.80898    37625.902 
  297800    298.77188   -1515.0825      479.545    307.46052    46.329387    37625.902 
  297900    300.31568   -1519.5805    481.85245    312.20938   -167.72214    37625.902 
  298000    301.15159   -1532.9447    507.20509    327.95533    301.92958    37625.902 
  298100    298.94163   -1538.4443    432.62557    237.94235   -22.981881    37625.902 
  298200     305.7402   -1507.1992    473.97748    341.09932   -240.46002    37625.902 
  298300    306.40079   -1492.2924    484.82121    369.81919    420.56304    37625.902 
  298400    303.89645   -1494.6795    489.58019    360.93395    190.66557    37625.902 
  298500     304.3477   -1512.1031    484.83251    340.79108   -23.913251    37625.902 
  298600    299.02814   -1538.3029    464.44982    270.29677   -49.599828    37625.902 
  298700    298.61631   -1495.3398    492.70621    339.66508    254.11037    37625.902 
  298800    291.93624   -1509.9022    468.11482    270.48404    156.62115    37625.902 
  298900    302.91304   -1499.9496    472.27676    333.93991    288.45346    37625.902 
  299000    290.28149   -1516.7621    492.86863    280.93966     831.8371    37625.902 
  299100    296.42904   -1525.7125    494.66961    301.42393    752.71293    37625.902 
  299200    296.72356   -1491.7566    471.84185     313.8759    328.54738    37625.902 
  299300     303.3785   -1483.6345    472.66718    352.73774    335.91036    37625.902 
  299400    300.30231   -1508.0256    484.49232    326.34413   -797.04774    37625.902 
  299500    296.04313   -1541.7993    467.92116    256.85391   -311.60327    37625.902 
  299600    305.95173   -1544.3978    494.19736    325.07143   -473.69103    37625.902 
  299700    298.73465    -1553.501    473.80028    263.12999   -370.97067    37625.902 
  299800    308.99619   -1513.9262     472.2411    347.27179   -299.90097    37625.902 
  299900    308.90318   -1509.7102    473.79351    352.62214   -468.81614    37625.902 
  300000    295.88185   -1521.0074    485.53574    294.53547    -915.7333    37625.902 
  300100    311.26263   -1554.2141    496.24071    341.17131   -562.87183    37625.902 
  300200    293.25607   -1547.8861    447.98017    218.29812   -871.59749    37625.902 
  300300    309.38586   -1531.2087    454.88638    314.38613   -548.78422    37625.902 
  300400    291.96833    -1524.275     503.8503    291.99097   -317.80852    37625.902 
  300500    296.03131   -1520.5234    476.67023    286.82582   -381.63978    37625.902 
  300600     311.4752   -1487.3066     490.1294    402.92296    23.963399    37625.902 
  300700    291.02836   -1508.7624    479.42595    278.85393     55.73992    37625.902 
  300800    309.91281   -1534.9113    488.59843    346.76434    631.84636    37625.902 
  300900    303.44928   -1486.4179    474.68965    352.29492   -12.847163    37625.902 
  301000    303.62723   -1469.0744    485.45579    381.20445   -355.95781    37625.902 
  301100    304.90011   -1511.5054    482.36261    341.40197    56.157246    37625.902 
  301200    302.36457      -1508.8    462.66755    313.01493   -37.425566    37625.902 
  301300    287.99519   -1498.0079    462.29089     258.8391    150.91996    37625.902 
  301400    300.54916   -1476.6997    483.20008    357.48731    39.755205    37625.902 
  301500     298.5761   -1488.4408    493.01895    346.69613    180.77087    37625.902 
  301600    307.92016   -1514.4214    473.39667    343.09533   -242.32675    37625.902 
  301700    297.89998   -1504.7667    494.95455     329.2666    198.22435    37625.902 
  301800    298.25072   -1519.3644    487.95846    309.24943    646.24704    37625.902 
  301900    311.13229   -1505.4816    489.34454    382.42169    523.51329    37625.902 
  302000    305.15688   -1512.7577    482.30779    341.24911    421.29352    37625.902 
  302100    304.70927   -1490.7341    497.33814      376.291    274.88559    37625.902 
  302200    295.27466    -1538.142    480.39068    269.52643    231.26048    37625.902 
  302300    302.95254   -1506.9007    461.92383    316.81348    53.687784    37625.902 
  302400    303.19343    -1463.936    475.82458    374.76177     -477.402    37625.902 
  302500    296.64044   -1481.4814    496.54467    348.48033   -314.96345    37625.902 
  302600    293.06397   -1457.0971    492.32258    352.56601   -229.13288    37625.902 
  302700    301.88524   -1475.0666    484.79199     366.7181   -779.37374    37625.902 
  302800    300.18072   -1445.2076    476.23074    380.35391   -670.09901    37625.902 
  302900    295.95636   -1480.1807    487.69994    337.86131   -658.24604    37625.902 
  303000    291.58274   -1475.1505    482.44971     317.9815   -249.01448    37625.902 
  303100     291.0871   -1509.7253     462.0431    260.77223    150.03534    37625.902 
  303200    300.28894   -1497.3855     509.0606    361.49238    366.07487    37625.902 
  303300     314.9062   -1476.5366     478.5835    417.56968    448.31635    37625.902 
  303400    298.74193   -1468.4422    512.09998     386.5212    262.60673    37625.902 
  303500    293.97873   -1434.8213    497.36788    383.99905   -12.367808    37625.902 
  303600    297.00927   -1471.1905    492.09438    355.97886   -285.49641    37625.902 
  303700    291.44674   -1485.8258        518.3    342.54519     27.90501    37625.902 
  303800     296.9195   -1468.7875    485.02797    350.91187    125.03638    37625.902 
  303900     299.1093   -1467.4444    486.24965    363.31992    139.63382    37625.902 
  304000    298.02661   -1504.3207    508.99899    344.32628    245.24673    37625.902 
  304100    300.18711   -1482.1362     459.8018    327.02519    271.11024    37625.902 
  304200    295.15842   -1507.3001    452.66167    272.11689   -98.594967    37625.902 
  304300    298.74191   -1485.0114    503.44121    361.29309   -204.41393    37625.902 
  304400    295.52644   -1486.8639    457.81214    299.35775   -694.72819    37625.902 
  304500    291.43277   -1468.1681     507.8977    349.73779   -624.50005    37625.902 
  304600    294.47555   -1454.6398    486.32354    355.36945   -244.20728    37625.902 
  304700    311.19025   -1478.6873    449.45533    369.58736    67.372314    37625.902 
  304800    306.80368    -1482.094    491.79869    388.80608   -22.972469    37625.902 
  304900    298.25919   -1504.5478    468.38646     304.5321   -276.81278    37625.902 
  305000    295.14973   -1487.6695    507.95426    347.00099   -398.49939    37625.902 
  305100    288.05148   -1491.7083    466.37642    269.47727    -114.1145    37625.902 
  305200     291.9868   -1542.6067    468.58425     238.4762   -192.55159    37625.902 
  305300    290.03225    -1499.982    476.97381    280.70463   -294.99863    37625.902 
  305400    296.71492   -1500.8792    481.75051    314.62307    53.457896    37625.902 
  305500    301.58385   -1479.4439    482.16385    358.35791   -496.01135    37625.902 
  305600    302.76787   -1511.8687    464.70489    313.79635   -278.84959    37625.902 
  305700    302.50963   -1531.9073    471.98434    299.87641    137.78967    37625.902 
  305800    293.24267   -1526.3198    467.89826     259.7223   -215.50294    37625.902 
  305900    301.77802   -1494.0917    471.49775    333.91678   -526.47468    37625.902 
  306000    300.75807   -1527.3017    463.33743    287.96181   -805.20156    37625.902 
  306100    301.36208   -1511.7631    503.59826    346.47622   -64.632571    37625.902 
  306200    298.80883   -1534.4325    478.88174    287.61329   -83.886759    37625.902 
  306300    294.55234   -1526.3063    460.96218    258.68673    237.07252    37625.902 
  306400    303.06214   -1511.5654    490.45366    341.17121    619.23507    37625.902 
  306500    301.95374   -1524.9082    499.40797    331.80039    366.81047    37625.902 
  306600    304.12395    -1520.619    478.59188    325.02873    396.24766    37625.902 
  306700    295.24103   -1529.1079    486.86514    284.88382    162.72338    37625.902 
  306800    308.39855   -1530.2044    480.62714    336.69324    196.04938    37625.902 
  306900    289.56098   -1559.7705     476.7499    218.57383    228.56683    37625.902 
  307000     293.3848   -1557.1806    483.18145    244.78354     45.42645    37625.902 
  307100    307.91367   -1504.2798    467.69073    347.50185    338.79988    37625.902 
  307200    305.48476   -1527.8611    489.70287    335.01452   -173.80117    37625.902 
  307300    292.52816   -1550.2413     508.4254    273.11614    138.82698    37625.902 
  307400    293.31071   -1536.4873    483.40347    265.36588     463.3971    37625.902 
  307500    300.67213    -1553.978    488.32596    285.88772     545.5121    37625.902 
  307600    309.84078   -1513.2484    484.20248    363.70753    322.97982    37625.902 
  307700    291.70426   -1511.0019    485.22705    285.45378    17.608613    37625.902 
  307800    304.85801   -1483.1018    494.88226    382.13593   -127.43937    37625.902 
  307900    301.24159   -1480.7658    509.71191    383.04557   -459.95086    37625.902 
  308000    273.68861    -1451.859    479.25804    257.64621    -666.1128    37625.902 
  308100    301.86452   -1453.3618    508.88491    412.42273   -440.41864    37625.902 
  308200    297.33858   -1478.3082    512.46721    370.71425   -481.58512    37625.902 
  308300    304.60004    -1498.424    493.21493    363.98689   -70.137025    37625.902 
  308400    317.01891    -1470.666    511.19673     465.5502    18.665873    37625.902 
  308500    304.07923   -1480.7887    469.93849    356.00464   -327.44727    37625.902 
  308600     303.5936   -1484.2425    507.54569    387.97517   -393.14389    37625.902 
  308700     297.1369   -1506.7734    481.04045    309.91566   -635.62886    37625.902 
  308800    301.82059   -1473.9041     519.7977    402.59576   -48.583636    37625.902 
  308900    301.20295   -1506.8605     463.4169    310.48222   -232.13434    37625.902 
  309000    299.56724   -1551.3494    516.21932    311.44306    -126.6602    37625.902 
  309100    298.25488   -1565.5697    472.39802    247.50234   -138.79913    37625.902 
  309200    301.44455   -1513.1374     467.3436      309.218   -433.66978    37625.902 
  309300    298.81733   -1554.5121    489.35053    278.04067   -956.95051    37625.902 
  309400    304.60488   -1559.3425    488.97668     298.8519   -408.82802    37625.902 
  309500    305.21023   -1533.5951    474.32014    312.66382   -98.130483    37625.902 
  309600    292.31102    -1542.891    478.65097    249.71598   -228.82292    37625.902 
  309700    296.96185   -1549.3617    489.37978    274.87986    -594.6815    37625.902 
  309800    308.21615   -1537.7562    507.77405    355.46838    301.16704    37625.902 
  309900    292.34607    -1558.121    489.18688    245.17945    729.79866    37625.902 
  310000    300.69145   -1561.4814    483.50234    273.64745    642.53269    37625.902 
  310100    300.52751   -1535.2239    502.83239    318.49814    376.35518    37625.902 
  310200    293.92858   -1553.4902    508.25756    275.99442    327.18146    37625.902 
  310300    296.08833   -1557.3045    490.92407    264.55485   -175.42348    37625.902 
  310400    303.86968   -1557.6001     491.1487    299.46149    81.581308    37625.902 
  310500     310.1122   -1563.8883    479.18122    309.26639    401.54493    37625.902 
  310600    301.99451   -1549.1942     498.2295    306.51921   -383.97822    37625.902 
  310700    298.19908   -1525.8438    499.85164     314.4311   -685.34661    37625.902 
  310800    304.21869   -1547.3496    479.23743    299.36952   -92.366438    37625.902 
  310900    295.76399   -1554.9015    492.00824     266.5841   -831.23253    37625.902 
  311000    294.81471   -1522.8081    504.87669    307.27888   -631.91324    37625.902 
  311100    293.95707   -1497.0853     502.7786    327.04839    -125.1168    37625.902 
  311200    301.59916   -1524.1948    492.79159    324.30361   -189.09752    37625.902 
  311300     309.3954   -1541.3428    513.35148    362.76006   -203.43187    37625.902 
  311400    301.30851   -1528.2179    495.48948     321.6719    500.07284    37625.902 
  311500    303.72844   -1539.0601    490.79445    317.01237    541.23486    37625.902 
  311600    289.60721   -1536.3235    483.36022    248.83894     422.3473    37625.902 
  311700    303.38251     -1529.25    513.97529    348.44841    337.03898    37625.902 
  311800    306.40228   -1560.2562    472.19023    289.23119    341.16728    37625.902 
  311900    303.69273   -1519.6049    487.21515    332.72776    604.14684    37625.902 
  312000    303.50715   -1527.4676    529.22017    366.03584    733.52974    37625.902 
  312100    296.58444   -1515.7581    487.12723     304.5345    374.80375    37625.902 
  312200    307.76375   -1503.1276    506.43165    386.72103    19.088738    37625.902 
  312300    304.62509   -1520.1172    474.52012     323.7115    560.50777    37625.902 
  312400    295.99055   -1522.7847    486.26641     293.9775    416.53353    37625.902 
  312500    300.56287   -1529.7302    515.77877    337.09715    714.38905    37625.902 
  312600    308.39059   -1523.8782    507.02566    369.38221    728.75507    37625.902 
  312700    290.70145   -1542.7282    496.33385    260.32659    764.89708    37625.902 
  312800    301.83861   -1569.4554     509.2014    296.52916     510.2681    37625.902 
  312900    292.30722   -1535.3907    489.96021    268.50841    375.32645    37625.902 
  313000    293.02208   -1524.2078    507.70795    300.65245    304.29115    37625.902 
  313100    305.63324   -1554.7289    482.51616    301.62753    350.68916    37625.902 
  313200     306.3708   -1542.3223    477.28334    312.11668    541.48517    37625.902 
  313300    292.77273   -1522.0759    484.73782    278.69335    205.30317    37625.902 
  313400    308.65762   -1528.6874    486.02287    344.77051    363.34294    37625.902 
  313500    316.66411   -1571.8783     491.9834    343.52975    554.85431    37625.902 
  313600    288.28269   -1546.5388    500.50797    249.81759   -51.285666    37625.902 
  313700    295.67682   -1521.3544    507.72235     315.4535   -191.35705    37625.902 
  313800    297.32076   -1538.4682    469.49827    267.50519   -522.94157    37625.902 
  313900    297.18399   -1524.7491    510.87664    321.98786   -581.70188    37625.902 
  314000    302.06608   -1512.2397     472.6575    318.22339   -836.15442    37625.902 
  314100    305.58129   -1520.0942    521.63042    375.14296   -366.50331    37625.902 
  314200    299.54937   -1543.3894    473.36664    276.47009   -300.26891    37625.902 
  314300    295.97772   -1512.9409     518.0694    335.56656    126.84442    37625.902 
  314400    298.66632   -1558.2281    477.99394    262.28931   -133.93976    37625.902 
  314500    294.00189   -1510.5436    489.63732    300.65025    -146.8095    37625.902 
  314600    295.31167   -1477.1929    528.31521    378.56647   -301.57417    37625.902 
  314700    310.48405   -1520.8591    469.53753     344.3234    228.13014    37625.902 
  314800    290.18973   -1521.1154    469.56546    252.87078   -325.83143    37625.902 
  314900    295.58255   -1515.5039    506.58949    319.74729   -128.92396    37625.902 
  315000    302.37654   -1508.7222    473.40998    323.88894   -50.665836    37625.902 
  315100     296.1449   -1512.1228    510.96663    330.03334   -410.50241    37625.902 
  315200    301.01645   -1527.6603    469.70947    295.13668    833.86595    37625.902 
  315300    304.15175   -1487.2746    525.88444     405.7907    392.43198    37625.902 
  315400    301.24288   -1456.6667    491.57559    389.01416     83.47101    37625.902 
  315500    300.50317   -1475.7786    498.45231    373.45397     -176.809    37625.902 
  315600    305.17145   -1430.2797    500.83639    442.32112   -831.44693    37625.902 
  315700    295.28099   -1490.7795    500.49226    337.01902   -620.52007    37625.902 
  315800    292.89774   -1480.9144     496.2263    331.90531    -273.1897    37625.902 
  315900    303.07351   -1473.3196    507.31378    396.32823    98.675429    37625.902 
  316000    298.13896   -1507.0063    496.69173    329.83841     605.1587    37625.902 
  316100    297.78196   -1487.1182     524.2113    375.64137    109.59692    37625.902 
  316200    294.29524   -1501.4901    518.84142     340.2265    659.45089    37625.902 
  316300    288.57297   -1555.3033    500.51021    242.36011    693.63589    37625.902 
  316400    308.59808    -1559.934    492.73497    319.96829    820.73842    37625.902 
  316500    292.95982   -1576.6129     487.5204    227.77992    582.18706    37625.902 
  316600     302.0143   -1552.0505    490.40428    295.92661   -220.02983    37625.902 
  316700    310.75925   -1538.4774    469.97558    328.38014   -278.09069    37625.902 
  316800    303.41311   -1545.0559    536.21394    355.01863    51.234729    37625.902 
  316900    299.01001   -1586.2421    475.33727    233.16354    130.98927    37625.902 
  317000      298.995    -1554.213    495.81474    285.60272    670.52512    37625.902 
  317100     297.1733   -1560.1078    480.96632    256.67083    333.50137    37625.902 
  317200    298.71102   -1565.2566    514.57866    292.04642    281.99729    37625.902 
  317300    289.24994   -1551.2964    476.98867    225.88857   -34.847628    37625.902 
  317400    305.18525   -1536.5827    518.47978    353.72355    30.549574    37625.902 
  317500    295.19402   -1548.7958    501.71626    279.83573    519.62393    37625.902 
  317600    302.77936    -1568.113    498.22189    291.12075    206.17311    37625.902 
  317700    299.50439   -1538.5274    483.47588     291.2391    315.87288    37625.902 
  317800    301.63962   -1533.3198    480.38266    302.95152   -318.18061    37625.902 
  317900    299.68781   -1542.8973     486.8514    291.06931   -407.84033    37625.902 
  318000    295.81966   -1509.4009    504.64789    324.97461   -661.47334    37625.902 
  318100     301.6234    -1540.763    515.55509    330.60783   -105.86548    37625.902 
  318200    295.72183   -1528.5119    509.87757    310.65346   -408.59291    37625.902 
  318300     301.4565   -1541.5044    497.10235    310.66347    -19.25639    37625.902 
  318400    297.73643   -1534.6807    496.96619    300.62905    118.46642    37625.902 
  318500    285.15786   -1556.9978    488.14008    212.94442   -156.20038    37625.902 
  318600    292.27647    -1493.103     502.1165    322.81419   -236.41226    37625.902 
  318700    295.86462   -1553.2942    485.99658    262.63205   -623.41447    37625.902 
  318800    294.73091   -1526.3739    522.03204    320.49167    33.836455    37625.902 
  318900    288.57068    -1504.439     514.7735     307.4775   -188.39617    37625.902 
  319000    310.64712   -1540.6072    478.64469    334.41538   -104.00381    37625.902 
  319100    295.02189    -1545.504    487.85431    268.49191    15.022905    37625.902 
  319200    296.74644   -1563.8972    476.98055    246.97684   -383.78499    37625.902 
  319300    289.37729    -1545.228    517.80268    273.34343   -414.83715    37625.902 
  319400    296.69255   -1545.5132    492.16137    280.29946    315.08803    37625.902 
  319500    302.44628   -1567.1444    467.84715    260.21734    257.59541    37625.902 
  319600    302.88415   -1568.3426    483.89256    277.03289   -21.967682    37625.902 
  319700    297.62046   -1585.8507    499.65899    251.63062   -156.35458    37625.902 
  319800    307.17376   -1547.9187    468.49317    301.33947    283.40307    37625.902 
  319900    299.73392   -1616.9707    491.39977    221.75146    112.25031    37625.902 
  320000    292.19064   -1550.9033    494.97883    257.49043    136.26738    37625.902 
  320100    300.64841   -1523.1456    518.72266    347.01012    50.263601    37625.902 
  320200    298.02753   -1543.1207    500.48972    297.02105    433.70587    37625.902 
  320300    311.72544   -1519.0986    515.51658    397.64302    342.47053    37625.902 
  320400    309.04624   -1551.1375    501.64513    339.68953    336.61128    37625.902 
  320500    304.83254   -1506.5758     490.3092    353.97445    211.07993    37625.902 
  320600    309.36819   -1525.5178    496.49412    361.60537    55.775759    37625.902 
  320700    299.32804   -1548.7172    481.41406     278.1948   -772.14883    37625.902 
  320800    300.93584   -1519.5823    500.38235    333.52513   -221.98223    37625.902 
  320900    303.34841   -1518.6206    485.41861    330.36777   -467.14328    37625.902 
  321000    296.07984   -1537.4453    479.45587    272.90764    865.85174    37625.902 
  321100    311.99256    -1553.557    523.89883    372.76762    448.80871    37625.902 
  321200    295.77814   -1568.9362    482.31642    242.92111    902.25705    37625.902 
  321300    309.11543   -1523.2088    489.08286    355.36695    573.26773    37625.902 
  321400    301.83163   -1544.4727    492.81204    305.09107    448.54341    37625.902 
  321500    294.05503   -1514.3044    488.92427    296.41532   -279.04149    37625.902 
  321600    307.78913   -1515.3804    497.27596    365.42668   -84.549836    37625.902 
  321700    300.59781   -1520.8799    476.10342    306.42921    -131.4772    37625.902 
  321800    297.77214   -1570.0105    497.48474    265.97835   -77.868597    37625.902 
  321900    306.48904   -1588.3147     491.9209    281.29329    115.82782    37625.902 
  322000    298.57128   -1563.7306    488.12925    266.49491   -411.24081    37625.902 
  322100    299.97665   -1558.0681    488.27363    278.61906   -367.05369    37625.902 
  322200    294.60545   -1538.7408    498.72635    284.25521   -5.1422336    37625.902 
  322300    305.85379   -1540.2411    496.55781    331.14836   -141.69296    37625.902 
  322400    305.12707   -1561.1525     490.6805    301.09296    218.83267    37625.902 
  322500    292.33377   -1517.7007     499.0888    295.44635    83.758301    37625.902 
  322600    305.44851   -1569.8331    496.26025    299.43695    556.27663    37625.902 
  322700    294.49063   -1547.4733    510.00429    286.28452     270.8419    37625.902 
  322800    295.93752   -1549.3593    511.95315    292.85123    717.07904    37625.902 
  322900    301.99605    -1535.571    490.42175    312.34161    396.58745    37625.902 
  323000    307.62785   -1550.5473    488.74512    321.00395    96.485503    37625.902 
  323100    302.50965   -1518.8096    513.00377    353.99369    -126.8803    37625.902 
  323200    297.08881   -1498.5956    501.92414    338.76106    213.54312    37625.902 
  323300    300.62401   -1528.5135    498.43524    321.24514    257.11991    37625.902 
  323400    307.62739   -1488.7919    502.07474    396.08696    925.20084    37625.902 
  323500    304.89445    -1540.707    485.83434    315.64665   -13.649364    37625.902 
  323600    304.34282   -1503.1102     513.4883    378.41782   -133.46832    37625.902 
  323700    298.66679    -1514.543     483.0762    311.05879    294.06245    37625.902 
  323800    301.88565   -1502.7118    494.16226    348.44509   -237.90896    37625.902 
  323900    301.70135   -1477.1798    515.05011    394.03645   -541.67856    37625.902 
  324000     298.0132   -1506.6932    490.88786    323.78239   -828.10355    37625.902 
  324100    298.84167   -1552.4882    453.20034    244.02384   -224.49733    37625.902 
  324200    292.04041   -1545.1144     515.3024     282.9276   -30.718639    37625.902 
  324300     300.9072    -1564.642    475.36855    263.32288    -148.5231    37625.902 
  324400    298.91498   -1584.7137    500.35903    259.28659     605.1903    37625.902 
  324500    305.17378   -1558.9351    488.47899    301.31879    227.17247    37625.902 
  324600     300.8823   -1536.3484    476.02295    292.15903   -529.72514    37625.902 
  324700    301.87918    -1537.357    515.73976    335.34821   -543.98266    37625.902 
  324800    307.32309   -1529.1307    479.93402    332.23957   -245.98224    37625.902 
  324900    295.40003   -1557.7345    481.51898    251.62582   -31.731069    37625.902 
  325000    308.12647   -1540.5124    520.79431     365.3294   -244.12023    37625.902 
  325100     293.0624   -1509.5175    503.50655    311.32253   -123.16362    37625.902 
  325200    303.90295   -1486.7143    503.69021    383.03844   -275.93561    37625.902 
  325300    307.24804   -1478.6941    499.50254    401.90735    71.567469    37625.902 
  325400    299.16232   -1533.4836    492.81209    304.08156   -365.56716    37625.902 
  325500    291.62731   -1550.7978    486.77488    246.85983    -422.7527    37625.902 
  325600    289.87555   -1576.3635    504.65055    231.29546   -305.85758    37625.902 
  325700    298.48179   -1587.9075    494.70672    248.49324   -136.54184    37625.902 
  325800    298.26007   -1551.0179    478.41993    268.09936    9.8239095    37625.902 
  325900     294.7017   -1586.8206    508.11372    245.99544    127.99891    37625.902 
  326000    302.72591   -1539.2054    495.02628     316.5925    217.59701    37625.902 
  326100    302.16843   -1487.1988    498.19762    369.26455    186.27955    37625.902 
  326200     306.4427   -1556.7509    491.17591    311.90377   -599.64245    37625.902 
  326300    299.51449   -1533.1085     497.8953    311.12289   -500.14869    37625.902 
  326400    296.94089    -1535.783    489.41641    288.40097   -490.28068    37625.902 
  326500    312.93199   -1529.2069    485.99091    363.43256   -498.32939    37625.902 
  326600    316.79456   -1546.0646    488.34646    366.29295    264.29629    37625.902 
  326700    291.12323   -1511.0772    498.67102    296.21062    154.38541    37625.902 
  326800    295.92114   -1518.4968    492.07088    303.75786   -217.04522    37625.902 
  326900    295.12909   -1518.8878     481.5567    289.29228   -316.72796    37625.902 
  327000    304.98256   -1532.0448     507.5162    346.38675   -118.57661    37625.902 
  327100    305.50412   -1521.0704    474.69298    326.88237   -64.224942    37625.902 
  327200    296.18098   -1500.3868    485.17151    316.13647   -382.35732    37625.902 
  327300    294.25515   -1479.1258    516.24837    359.81752   -439.03677    37625.902 
  327400    300.91013    -1529.269    498.02554    321.36607   -309.01578    37625.902 
  327500    297.49073    -1545.065     491.8646    284.03873    66.671978    37625.902 
  327600    298.23669    -1520.038    484.44822    305.00248    394.66519    37625.902 
  327700    294.07638   -1520.9292    509.17857     310.1408   -224.09281    37625.902 
  327800    295.69605   -1524.3211    482.82973    287.68055   -155.30909    37625.902 
  327900    291.31075   -1564.6584    474.73087    219.53226   -5.7654095    37625.902 
  328000    292.24035   -1542.1816    503.54098    274.99773    176.29964    37625.902 
  328100     295.2389   -1512.4868    483.73982    298.37006   -145.86411    37625.902 
  328200    296.04282   -1470.9949    502.05124    361.78702   -336.31381    37625.902 
  328300    314.98412   -1488.4755    499.38592    426.78347    187.36337    37625.902 
  328400    295.90979   -1478.4135    514.10129    365.82049   -217.90473    37625.902 
  328500    301.39922   -1498.1588    517.42099    374.07027    582.08602    37625.902 
  328600    300.91361   -1556.9675    495.73668    291.39439    203.90133    37625.902 
  328700    304.25969   -1509.1916    506.52934    365.00383   -25.152827    37625.902 
  328800    298.35438   -1499.2696    491.72229    333.57398   -207.11264    37625.902 
  328900    305.44381    -1521.459    508.26635    359.79606    172.12247    37625.902 
  329000    296.89657   -1539.0511    475.45548    270.97274   -549.06627    37625.902 
  329100    291.75329   -1510.4415    512.53612    313.54364   -1209.4802    37625.902 
  329200    299.74326   -1537.2811     490.6303    300.71363   -1088.5454    37625.902 
  329300    301.82753   -1517.3992    498.19231    337.52641   -516.09479    37625.902 
  329400    316.93563   -1529.0917    465.77499    361.32847   -117.03852    37625.902 
  329500    305.96629   -1559.2256     476.6448    292.75651   -165.15007    37625.902 
  329600     299.2564   -1535.8108    481.72044    291.08556    136.75122    37625.902 
  329700     308.7007   -1569.1338    509.85143    328.34621    668.47619    37625.902 
  329800     299.6358   -1585.0478    479.24419    241.07772    208.87315    37625.902 
  329900    302.41985   -1547.6479    488.61214    300.36008   -274.41881    37625.902 
  330000    295.73216   -1528.2574    492.06006    293.13693    193.92216    37625.902 
  330100     292.0016   -1533.8163    509.13429    287.88317    606.71824    37625.902 
  330200    299.19775   -1519.4921    484.98646    310.40667    238.96093    37625.902 
  330300    298.33362   -1537.1908    494.85419    298.69132   -341.30708    37625.902 
  330400    294.90445   -1497.9168    496.92018      324.617   -149.53259    37625.902 
  330500    292.11218   -1500.7365    498.45312    310.77888   -308.41729    37625.902 
  330600    307.90507    -1536.415    486.35399    333.99118   -367.12001    37625.902 
  330700    301.98591   -1523.2496    492.58669    326.78232   -426.08377    37625.902 
  330800    304.74073   -1521.5417    520.04483    368.33146   -373.83142    37625.902 
  330900     307.1978   -1498.3604    480.64165    363.15426    429.47639    37625.902 
  331000    288.17643    -1473.534    514.19336    336.03016    449.84653    37625.902 
  331100    301.59566   -1494.5556    502.94368     364.0792    759.68572    37625.902 
  331200    303.21112   -1552.1998    513.73946    324.49236     356.7038    37625.902 
  331300    296.77142   -1529.8061    506.50224     310.7019    806.38238    37625.902 
  331400     302.5084   -1559.8043    507.06715    307.05671    646.65763    37625.902 
  331500    307.25014   -1556.5069    471.28693    295.88831   -273.07725    37625.902 
  331600    296.43636    -1556.263    465.91814    242.15484   -301.86164    37625.902 
  331700    300.59265   -1516.5127    504.10063    338.77038   -327.25451    37625.902 
  331800    291.72766   -1514.9082     500.3206    296.74621   -68.201412    37625.902 
  331900    296.68544   -1533.4749    483.78105    283.92541   -44.846164    37625.902 
  332000    292.17822   -1530.2262    499.35798    282.49086     2.555173    37625.902 
  332100    307.03178   -1537.5257    483.11402    325.71507    369.62256    37625.902 
  332200    302.83143   -1479.8202    500.65535    382.08102    248.44702    37625.902 
  332300    300.51915   -1470.3363    504.69243     385.2082   -109.13738    37625.902 
  332400    294.18055   -1493.2154    487.42238    316.56666   -108.20528    37625.902 
  332500    301.16841   -1525.7632    486.61483     314.6222    517.88745    37625.902 
  332600    302.65037   -1556.6552    485.47145    289.24831    8.7611499    37625.902 
  332700    294.22191   -1477.9856    510.17346    354.73343    581.94252    37625.902 
  332800    303.58139   -1498.5923    492.53738    358.56216    902.65504    37625.902 
  332900    295.31746   -1527.9826    511.85816    311.34574   -103.80168    37625.902 
  333000    308.45563   -1543.5228    487.66126    330.66547    115.01006    37625.902 
  333100    305.76976   -1569.9503    497.29707    301.80064   -33.622854    37625.902 
  333200    297.79002   -1528.4512    501.86702    312.00028    55.207958    37625.902 
  333300    297.67602    -1493.478    501.53316    346.12724    188.82543    37625.902 
  333400    310.63732   -1488.4371    508.17799    416.07475   -375.39714    37625.902 
  333500    291.36219   -1493.4993    508.08183     324.2735   -524.76005    37625.902 
  333600    296.95085   -1525.7651    474.12597    283.17325   -64.524677    37625.902 
  333700    299.53552   -1508.2077    483.34848    321.57135    -645.1286    37625.902 
  333800    306.07519   -1508.7357    499.17823    366.26934   -43.023453    37625.902 
  333900     310.8798   -1544.4151     486.4184    339.42713   -64.363358    37625.902 
  334000    303.62982   -1496.1441    518.84307    387.53367     135.8132    37625.902 
  334100    309.30465   -1573.6014     492.7162    309.45821    456.26934    37625.902 
  334200     302.5695   -1518.1822    495.60145    337.48778   -40.852991    37625.902 
  334300    305.26314   -1542.5963    507.17252    336.75277   -29.166247    37625.902 
  334400     290.2169   -1505.6715    492.37279    291.24411   -223.52977    37625.902 
  334500    297.53004   -1491.6674    531.90447    377.65297   -347.88594    37625.902 
  334600    294.67059   -1480.1903    507.31083    351.68293   -146.52624    37625.902 
  334700    293.54356   -1487.5869    499.81481    331.72428    438.43367    37625.902 
  334800    303.69232   -1491.7645    514.64267    387.99384    301.87877    37625.902 
  334900    296.57369   -1459.2064    518.32412    392.23474    553.41644    37625.902 
  335000    299.42814   -1456.8555    507.10952    396.20193    375.19284    37625.902 
  335100    299.05177   -1511.2037    500.57184    333.62428   -72.531249    37625.902 
  335200    295.54834   -1529.5191    528.41926    327.40814   0.95924317    37625.902 
  335300    303.66039   -1512.9737    486.61089    338.60936    460.87369    37625.902 
  335400    315.94686   -1558.9633    491.28513    352.52238    515.17986    37625.902 
  335500    300.63765   -1542.2781    499.52387    308.63054     462.5164    37625.902 
  335600    302.90219   -1524.5668    467.93203    304.92925    131.28634    37625.902 
  335700    297.44665    -1561.596    492.58686    268.03188    377.37815    37625.902 
  335800    302.10648    -1467.413    491.54137    382.11558    783.82453    37625.902 
  335900    300.28838   -1446.8254    502.51107    405.50042    433.50837    37625.902 
  336000    300.17404   -1449.0273     517.2125    417.48596   -103.68732    37625.902 
  336100    296.62702   -1518.0353    493.26368    308.58512   -227.71864    37625.902 
  336200    300.21474   -1533.3313    508.45395    324.60636   -90.732337    37625.902 
  336300     298.1056   -1490.2655    480.11944    329.85694   -24.750974    37625.902 
  336400    298.63983   -1476.2772    503.17183    369.29904   -342.01738    37625.902 
  336500    297.19244    -1476.444    522.80097    382.25531    39.508074    37625.902 
  336600    292.34564   -1503.1541    498.39362    309.35114    168.31805    37625.902 
  336700    295.29441   -1497.5952     496.0462    325.81754    417.67719    37625.902 
  336800    299.68724   -1520.0995    520.25932    347.27243   -85.572832    37625.902 
  336900    296.06428   -1542.5635    508.74875    297.01241    400.61092    37625.902 
  337000    296.19957   -1545.2098    494.20089    280.42643    1027.6527    37625.902 
  337100    302.12711   -1535.9035    499.43601     321.6125    728.43119    37625.902 
  337200    302.76413   -1528.3838    510.49435    343.05398    543.35136    37625.902 
  337300     298.4984   -1499.2404    515.16478    357.69304    887.35917    37625.902 
  337400    301.83358   -1537.8185    507.51756    326.45959    936.21174    37625.902 
  337500    300.13176   -1553.3837    519.08426    314.81133    878.66983    37625.902 
  337600    286.50731   -1547.9569    487.14083    227.05188    936.45512    37625.902 
  337700    297.68083   -1532.2367      466.121    271.97798    335.60434    37625.902 
  337800    294.27741   -1541.4975    509.33822    290.63579   -114.96233    37625.902 
  337900    292.64638   -1556.4257    502.40205     261.4398    524.07795    37625.902 
  338000     292.5089   -1527.5867    492.47655    279.73539     258.1352    37625.902 
  338100    296.58625   -1557.4835    509.47527    285.16515    379.79417    37625.902 
  338200    298.12975   -1533.5695    512.66368    319.20581    800.31818    37625.902 
  338300    299.15571   -1561.6246    518.48904    301.58776   -251.28271    37625.902 
  338400    294.54692   -1557.7551    483.68136    249.93282   -108.91671    37625.902 
  338500    291.97001    -1522.237    491.90594    282.09216   -260.49881    37625.902 
  338600    302.57191   -1558.3657    495.21622    296.92993   -159.14453    37625.902 
  338700    293.95237   -1573.9506    491.71049    239.09389   -374.52825    37625.902 
  338800    296.53237   -1543.7712    486.91016    276.07019   -274.57169    37625.902 
  338900    310.81434   -1558.8172    470.54761       308.86   -220.38824    37625.902 
  339000    303.03806    -1550.671    488.51172    300.01549   -488.89488    37625.902 
  339100    302.83229   -1541.4729    487.53145    307.30836   -45.059436    37625.902 
  339200    304.22967   -1531.1554    509.89222    346.26789    111.04382    37625.902 
  339300    296.23352    -1533.457    485.07484    283.20576   -60.369255    37625.902 
  339400    292.48619   -1525.9879    494.06017    282.81567   -482.80095    37625.902 
  339500    306.10545   -1537.3918    454.82348    293.39449   -155.38246    37625.902 
  339600    306.72486   -1566.6673    500.37008    312.44989   -23.766174    37625.902 
  339700    293.61457   -1545.4976    501.69438    276.01236    330.03789    37625.902 
  339800    300.74667   -1509.1118    521.38537    364.14839    86.886132    37625.902 
  339900    295.64349   -1535.2685    480.41274    274.07997   -308.03999    37625.902 
  340000    294.21299   -1546.6557     490.3513    266.20116   -179.62343    37625.902 
  340100    301.20856   -1495.3143    486.28839    344.92507   -660.18757    37625.902 
  340200    305.43672   -1497.5706    504.05766    379.44396   -424.80514    37625.902 
  340300    294.46473   -1558.3598    497.11514    262.39249   -1249.0971    37625.902 
  340400    300.75748   -1588.2069    498.64973     262.3662   -682.17602    37625.902 
  340500    309.04794   -1590.8385    503.24115    301.59222   -812.67128    37625.902 
  340600    302.82231   -1543.4725    500.54742    318.27986   -781.04063    37625.902 
  340700    294.16072   -1562.2978    487.70972    247.68246   -352.54907    37625.902 
  340800    294.65384   -1567.0483    475.70282    233.14163   -491.32939    37625.902 
  340900    302.95039    -1570.734    476.14403    267.19064   -514.79826    37625.902 
  341000    306.91568   -1545.9501    498.37263    332.02738   -556.45687    37625.902 
  341100    301.47955    -1558.599    492.88039    289.45052   -676.68285    37625.902 
  341200    299.45106   -1558.4159     482.3656     270.0007    -578.0837    37625.902 
  341300    306.26526   -1530.9655    487.99083    333.70654   -146.24743    37625.902 
  341400    305.51897   -1527.9341    487.68337    333.07587    -185.2276    37625.902 
  341500    298.07483   -1522.2817    499.13645    316.71941   -104.71071    37625.902 
  341600    294.25635   -1531.1231    497.50136    289.07864   -457.06741    37625.902 
  341700    299.61787   -1499.5757    507.91484    355.13996    248.09047    37625.902 
  341800    295.15549   -1536.8834    480.80172     270.6604   -485.38531    37625.902 
  341900    302.66833   -1534.1682    488.10601    314.45057    51.954535    37625.902 
  342000    300.35033   -1512.2369    503.53812    341.39449    421.55368    37625.902 
  342100    297.92731   -1544.9722    488.27382    282.50318    146.29265    37625.902 
  342200    306.59562   -1553.7498    475.05314     299.4695    432.35126    37625.902 
  342300    294.38167    -1563.156    510.58975    270.69746    706.72259    37625.902 
  342400    296.13502   -1528.3756    518.97282    321.74239    370.20493    37625.902 
  342500    282.88087   -1560.4619    491.28972    202.39479    537.59664    37625.902 
  342600    289.28081   -1533.0113    514.67181    281.99551   -430.38919    37625.902 
  342700     292.6119   -1568.0603    502.22706    249.47529    -618.4162    37625.902 
  342800    296.07324    -1561.036    504.34406    274.17553   -342.07232    37625.902 
  342900    307.35561   -1496.0766    486.63891    372.14474   -685.84222    37625.902 
  343000     294.9663    -1526.035    482.41156    282.26825   -335.69825    37625.902 
  343100    307.25394    -1539.135    502.44543    344.43578   -293.52903    37625.902 
  343200    292.29649   -1567.2511    466.51482    213.15448   -45.042587    37625.902 
  343300    298.64892   -1574.0741    486.30604    254.67725   -149.97248    37625.902 
  343400    295.58543   -1571.6219    489.02069    246.07346    508.74196    37625.902 
  343500    307.40302   -1560.4203    488.36497    309.74015    498.87501    37625.902 
  343600    297.67494    -1546.003    494.99898     287.0632    178.72291    37625.902 
  343700    299.73047   -1559.8443    489.73127    277.19385   -10.605622    37625.902 
  343800    308.71547    -1537.109     475.8747    326.46077   -379.95018    37625.902 
  343900    302.01555   -1573.4017    462.40169    246.57845   -749.38919    37625.902 
  344000    299.70948   -1558.0476    491.80744    280.97237   -446.53607    37625.902 
  344100    296.50294   -1568.9392    471.84852    235.70834   -458.26937    37625.902 
  344200     307.6104   -1576.5738    498.99779    305.15165   -695.99898    37625.902 
  344300    296.33348   -1550.0102    466.32199    248.34903   -110.50283    37625.902 
  344400    293.07022   -1563.7841    478.20319    231.78775    206.04319    37625.902 
  344500    304.29631   -1544.3879    505.93764    329.38042   -86.998674    37625.902 
  344600    293.03867   -1534.5749    467.59094    250.24296    141.07837    37625.902 
  344700    304.07666   -1588.1936    489.95115    268.60088     246.9619    37625.902 
  344800    292.05637   -1565.0752    498.18981    245.92601     555.2754    37625.902 
  344900    296.47414   -1543.0655    476.08235    265.68637    126.83996    37625.902 
  345000     304.8211   -1541.0409    504.89529    334.04393   -756.24237    37625.902 
  345100    311.44862    -1569.663    483.83849    314.15625     83.89066    37625.902 
  345200    300.37647   -1567.6438    455.20006    237.76696    462.76919    37625.902 
  345300    290.54666   -1605.0106    497.59117    198.60571   -9.4835233    37625.902 
  345400    291.55323   -1584.9337    481.71937    207.33535    -67.00344    37625.902 
  345500    304.30035   -1589.9284    470.57465    248.49508    21.993389    37625.902 
  345600    304.52754   -1533.0489    496.69144    332.51252    739.98822    37625.902 
  345700    290.17229    -1529.139    503.01608    278.21932    617.07231    37625.902 
  345800      295.102   -1559.8544    502.74368     269.3909    845.24479    37625.902 
  345900    313.02827   -1600.7573    494.75531     301.0794    44.720875    37625.902 
  346000    314.61834   -1606.3236    468.38978    276.29501    237.22977    37625.902 
  346100    288.97287   -1584.6284    492.26498    206.58746    15.006615    37625.902 
  346200      301.926   -1580.1777    470.31512    247.31338   -221.16475    37625.902 
  346300    299.61826   -1590.1119    494.75782    251.44845    66.364818    37625.902 
  346400    297.63233   -1540.3729    495.01252    292.51528   -419.48824    37625.902 
  346500    303.73448   -1554.8999    503.16167    313.56695     197.3406    37625.902 
  346600    288.87672   -1574.6319    492.46349    216.35017   -13.209353    37625.902 
  346700     300.7358   -1550.7602    463.35199    264.41767    410.27637    37625.902 
  346800     306.9919   -1589.5799    465.28545    255.65303   -9.6208356    37625.902 
  346900    310.22863   -1592.3048    471.97728    274.16931   -752.59471    37625.902 
  347000    298.80054   -1604.2407    477.77335    216.65951    -135.1524    37625.902 
  347100    302.53985   -1589.4176    479.50412    250.02172    -579.4251    37625.902 
  347200    303.13853   -1581.6864     482.0977    263.03762   -350.46905    37625.902 
  347300    307.00293   -1559.1255     465.7112    286.58275   -294.85739    37625.902 
  347400    295.86932   -1589.2827     481.0986     221.7667   -115.81273    37625.902 
  347500    297.77664   -1596.0142    476.04763    218.55777    194.34005    37625.902 
  347600    296.94882   -1586.4502    489.24348    237.59646     249.5214    37625.902 
  347700    296.59462   -1572.3414    499.47866    260.34836    617.29767    37625.902 
  347800    294.62535    -1528.218    497.41308    293.55417     923.5446    37625.902 
  347900    299.74791   -1545.2685    503.15761     305.2744    351.97473    37625.902 
  348000    297.71533   -1563.5183    473.81139    248.54184    305.37744    37625.902 
  348100    300.44574   -1557.1893    522.57155    315.90439    -126.3306    37625.902 
  348200    287.01248   -1511.3406    500.86733    279.66553    103.11406    37625.902 
  348300    298.57908   -1557.4122    495.57555    280.29476    119.00913    37625.902 
  348400    300.50478   -1519.9061    489.73555    320.61694    21.067902    37625.902 
  348500    295.25995   -1585.3241    501.10418    242.99174    554.03497    37625.902 
  348600    301.84862   -1561.7252    488.58712    283.69005    304.86397    37625.902 
  348700    304.27352   -1576.5342    498.48047    289.67447    487.75724    37625.902 
  348800    298.29051    -1545.026    490.63176       286.44    921.65611    37625.902 
  348900    309.55344   -1591.5513    490.21217    290.12264     857.3575    37625.902 
  349000    286.56779   -1595.3312    475.21627    168.02493    441.39402    37625.902 
  349100    288.34637   -1563.8858     485.1449    217.39378    675.62201    37625.902 
  349200    305.93321   -1596.6023     457.1038    235.69013    383.29333    37625.902 
  349300    299.80073   -1577.5828    465.36641    235.40634    291.86149    37625.902 
  349400     300.5928   -1569.3561    474.17856    256.00559      197.536    37625.902 
  349500    294.53744   -1587.5583    499.90799    236.31363    267.13491    37625.902 
  349600    292.22088   -1592.7887    490.37098    211.13314    187.10895    37625.902 
  349700    299.20524   -1580.1064     476.0855    240.92506    232.46427    37625.902 
  349800    284.23232   -1561.7246    499.35308    215.27026   -201.12685    37625.902 
  349900     299.0592   -1543.9237    460.57882    260.94463   -694.54215    37625.902 
  350000    299.20217   -1530.2595    481.43718    296.10983   -116.95323    37625.902 
  350100    298.63312   -1574.2717    475.92859    244.03116     291.5923    37625.902 
  350200    303.30322   -1518.5158    515.26534    360.11622    227.56769    37625.902 
  350300    307.31028   -1530.0105    498.93859     350.3067    251.41269    37625.902 
  350400    312.93766   -1520.4321    486.66884    372.91072    549.80453    37625.902 
  350500    313.86034   -1514.5519     474.9744    371.24399    116.81431    37625.902 
  350600    304.98888   -1500.4643    512.64018    383.11965   0.34580659    37625.902 
  350700    294.91438   -1552.8557    495.35435    268.15694    -9.950134    37625.902 
  350800    290.74487   -1509.3138    492.46052    290.06282    342.49027    37625.902 
  350900    296.13682   -1542.2117    495.29057    284.23209   -235.85867    37625.902 
  351000    304.78357   -1551.7055    478.85314    297.16856   -353.94395    37625.902 
  351100    298.37025   -1558.1009    495.98008    279.07185    22.398949    37625.902 
  351200    295.06045   -1535.0639    493.15713    284.40807     336.5116    37625.902 
  351300    299.15527   -1535.8852    491.93304     300.7692   -123.92813    37625.902 
  351400    294.57885   -1551.9656    462.78982    234.97423    175.35494    37625.902 
  351500     294.5306   -1547.7006    510.14694    286.37947    526.40393    37625.902 
  351600     298.8985   -1556.5848    470.70526    257.68765    395.33221    37625.902 
  351700    297.82382   -1522.5521    511.26567       327.45   -28.756415    37625.902 
  351800    300.15893   -1554.3962    482.47425     277.3109    559.75422    37625.902 
  351900    306.90616    -1607.919     467.2746    238.91774    407.88753    37625.902 
  352000    304.26822    -1554.825    534.57086    347.45019   -195.55343    37625.902 
  352100    301.25097   -1590.7317    462.84983    226.25978   -227.21854    37625.902 
  352200    300.01069   -1559.4368    481.67585    270.80557    39.564286    37625.902 
  352300    291.08907   -1535.1716    488.81798    262.10968   -249.05814    37625.902 
  352400    297.34548   -1538.5701     484.0232    282.03933    209.04614    37625.902 
  352500    300.56072   -1591.6829    468.21878     227.5748   -13.220299    37625.902 
  352600    307.05579   -1545.1138    496.35893    331.47981    438.02303    37625.902 
  352700     293.8294   -1547.1045    493.40947    267.08627    462.98178    37625.902 
  352800    284.94052   -1512.0904     479.6436    248.37837    305.45204    37625.902 
  352900    303.58559   -1545.6382    483.42654    302.42425    179.19702    37625.902 
  353000    302.94669   -1555.6726    489.18611    295.27754     321.5511    37625.902 
  353100    303.85644   -1472.7959    461.11027    354.16776    914.39684    37625.902 
  353200    307.17884   -1512.0031    486.37634    355.16103    979.56692    37625.902 
  353300    303.74494   -1513.3561    492.72341    344.71952    650.54848    37625.902 
  353400    300.51903   -1534.5731    504.49002    320.76846    279.53266    37625.902 
  353500    293.63563   -1514.3745    478.44809    283.98378    23.529616    37625.902 
  353600    300.63221   -1543.4897    464.15514    272.02577   -132.37435    37625.902 
  353700    305.17706   -1494.1039    475.11116    352.79695    305.21007    37625.902 
  353800    301.34814   -1519.8861    483.72303    318.41531      399.619    37625.902 
  353900    304.49686   -1504.7555    500.24785    364.22446    966.77422    37625.902 
  354000    303.06642   -1522.0301    484.48557    324.75762    682.81416    37625.902 
  354100    307.11013   -1542.1946    485.53782    323.82219    959.53177    37625.902 
  354200     307.6957   -1521.2986    494.14532    355.95784    867.94538    37625.902 
  354300    304.31392   -1489.9753    505.50051    383.43499    740.74489    37625.902 
  354400     304.2492   -1490.9842    484.52418    361.15891    452.89763    37625.902 
  354500    305.32911   -1530.0461    506.04531    348.47233    486.06854    37625.902 
  354600    292.95441    -1479.409    541.90234    379.34146    436.17102    37625.902 
  354700    300.62647   -1512.4885    480.56031    319.40633   -59.476683    37625.902 
  354800     296.0062   -1505.4785    511.01129    336.09886   -511.10438    37625.902 
  354900    311.90638   -1495.7031    467.71226    374.04755   -698.29711    37625.902 
  355000    304.99501   -1555.5361    482.33879    297.77401   -827.07073    37625.902 
  355100    305.63539   -1525.1099     510.2708     359.0108   -552.60244    37625.902 
  355200    303.50554   -1538.6964    480.46196    306.04166    147.18557    37625.902 
  355300    295.62786   -1520.8728    484.10291    292.09551    46.665512    37625.902 
  355400    305.79745   -1543.0288    499.23674    330.78633    213.54137    37625.902 
  355500    303.63085   -1568.4669     491.5434    287.91581   -241.92912    37625.902 
  355600    306.59374   -1535.0573    487.46546    330.56587   -107.19839    37625.902 
  355700     293.5784   -1522.7788    479.66063    276.53482    325.78442    37625.902 
  355800    289.55808   -1555.7183     488.6915    234.55462    171.06784    37625.902 
  355900    285.80618   -1523.1226    468.82507     230.4188    495.98813    37625.902 
  356000    295.45541     -1539.15    520.49368    309.43397   -329.55807    37625.902 
  356100     292.9762   -1548.2825    491.19631    259.85985   -732.50069    37625.902 
  356200    299.57162   -1541.0005    483.21007    288.80249   -1157.2621    37625.902 
  356300    294.76736   -1525.9257    478.52334    277.59502   -1016.9702    37625.902 
  356400    302.52212   -1506.8422    480.65305    333.66645   -487.61318    37625.902 
  356500    301.83496   -1526.8899    493.07646    322.95333    44.685678    37625.902 
  356600    289.16121   -1553.6614    499.90829    246.04433   -28.907103    37625.902 
  356700    294.70344   -1475.0025    504.19847    353.90611    237.62721    37625.902 
  356800    294.09493   -1493.1961    515.63316    344.41183    53.303091    37625.902 
  356900    307.05039   -1532.3359     475.5155       323.39   -92.967383    37625.902 
  357000    294.42869   -1543.8519    492.11606    271.73926    42.495035    37625.902 
  357100    296.69306    -1556.851    486.85089     263.6534    313.78584    37625.902 
  357200    301.69005   -1524.6635    491.72474     323.1766    694.65364    37625.902 
  357300     287.1685   -1528.7361     478.9257     241.0297     367.2724    37625.902 
  357400    291.14836   -1517.8708    494.48153    285.34054   -325.02614    37625.902 
  357500     302.4566   -1543.7423    489.33272    305.15141   -169.14368    37625.902 
  357600    295.75574   -1511.9745    504.48963    321.95533    -970.7808    37625.902 
  357700    295.37118   -1532.7744    484.36866    279.30586   -1126.3725    37625.902 
  357800    297.44374   -1481.7445    488.33692    343.62032   -746.58491    37625.902 
  357900    293.62753   -1467.9615    488.13453    340.04689   -78.906595    37625.902 
  358000    302.34894   -1494.4501    507.28742    371.91441   -364.25689    37625.902 
  358100    304.29848   -1510.2461    514.80051    372.39477   -335.84379    37625.902 
  358200    295.64183   -1528.1996    498.30432    299.03296   -49.637756    37625.902 
  358300    296.78123   -1552.5457    512.80457    294.30873    172.14913    37625.902 
  358400    292.59149   -1507.1557    517.58437    325.64547   -215.09293    37625.902 
  358500    300.05699   -1527.3657    474.81145    296.22039    714.85993    37625.902 
  358600     302.6597   -1536.4573    535.69294    359.70964    692.93786    37625.902 
  358700    299.75161   -1475.7244    516.81752    388.49508    5.4316845    37625.902 
  358800    299.12882    -1502.927    499.22647    340.90198   -489.63767    37625.902 
  358900    301.67917   -1499.9395    523.99587    380.12281   -557.51035    37625.902 
  359000    304.67589   -1512.7225    491.59053    348.40495      -954.73    37625.902 
  359100    294.11113   -1534.7418    481.38251    268.68832   -476.08179    37625.902 
  359200    309.00787    -1527.239    527.18416    388.95454   -245.70486    37625.902 
  359300    307.31178   -1530.3506     476.3199    327.35464   -33.112774    37625.902 
  359400    304.90749   -1516.9131    550.50399    404.16883    328.96722    37625.902 
  359500    295.87592   -1533.5187    487.04097    283.50268   -210.87185    37625.902 
  359600    295.08914   -1576.8842     492.2273    241.78697    45.901969    37625.902 
  359700    308.17674   -1604.4002    503.42558    284.29884   -105.03401    37625.902 
  359800    298.25045   -1588.8322    481.83573     233.6577   -319.84437    37625.902 
  359900    294.20263   -1568.6793    500.43455     254.2142   -93.255873    37625.902 
  360000    298.49878     -1544.77     497.3299    294.33027    91.159061    37625.902 
  360100     311.0175   -1547.4031    489.52612    340.16589    193.94936    37625.902 
  360200    302.21964    -1551.576    488.75288    295.67274    211.90835    37625.902 
  360300    300.20007   -1550.8743    510.65308    309.19654    803.96324    37625.902 
  360400    304.78431   -1557.1282    487.05096    299.94698      609.988    37625.902 
  360500    299.20518   -1564.0097    489.00605    269.94209   -105.63231    37625.902 
  360600    307.10588   -1530.1253    501.56307    351.89754    51.666585    37625.902 
  360700    309.24017   -1535.6428    463.95068    318.36146   -266.16567    37625.902 
  360800    306.74995   -1534.9772    495.21373    339.09639    114.97808    37625.902 
  360900    295.73731   -1561.7769    479.18081    246.76138    228.90327    37625.902 
  361000    312.91464   -1575.0236    483.92269     315.4697    405.50877    37625.902 
  361100    300.76472   -1537.3587    516.38844    330.98562   -130.87881    37625.902 
  361200    290.92422   -1604.3565    497.15565    200.52141   -535.73848    37625.902 
  361300    298.15992   -1549.1726    486.03738      277.112   -613.98465    37625.902 
  361400    295.72265   -1526.4098    514.29299    317.17469    -392.0989    37625.902 
  361500    302.62111   -1565.4672    488.75943    283.59277   -870.92455    37625.902 
  361600       301.92   -1549.2083    495.13717    303.07788   -599.67107    37625.902 
  361700    297.85394   -1554.2572    491.96587    276.58046   -655.16076    37625.902 
  361800    302.45105   -1566.4328     481.7743    274.87757   -579.15241    37625.902 
  361900     290.1616   -1576.9136    474.96692    202.34753   -85.830505    37625.902 
  362000     304.7002   -1547.5469    506.64109    328.74028   -348.00782    37625.902 
  362100    294.39314   -1590.6233    466.92382    199.61585    227.26538    37625.902 
  362200    300.72057   -1565.3882    472.23895    258.60824   -53.917168    37625.902 
  362300    301.09197   -1557.1665    509.52935    305.78974    21.191502    37625.902 
  362400    306.36541   -1566.0851     489.0056    300.05189   -334.52197    37625.902 
  362500    309.57536    -1525.925    502.58686     368.2222   -262.61382    37625.902 
  362600    295.81386    -1554.341    488.12041    263.48091   -615.99539    37625.902 
  362700    299.61555   -1546.5348    471.37433    271.62982   -532.66476    37625.902 
  362800    310.18671   -1545.6406    482.78239    331.45016   -562.27488    37625.902 
  362900    302.33544   -1591.6447    516.42919     283.8009   -66.759018    37625.902 
  363000    298.50162   -1572.6029     474.6474    243.82767   -35.991465    37625.902 
  363100    291.49636   -1577.9376    482.46416    214.82066    240.84709    37625.902 
  363200    294.67547   -1552.8677    461.12329    232.83994    120.19278    37625.902 
  363300    302.95972    -1572.354    501.11669    290.58532   -602.97362    37625.902 
  363400    293.91782   -1546.3706    462.18748    236.99553   -954.02314    37625.902 
  363500    291.30963   -1588.6842    496.52466    217.29515   -626.27259    37625.902 
  363600    300.27001   -1566.3589    488.84811    272.22134   -244.44507    37625.902 
  363700    320.25092   -1568.3351     495.6657    366.87823    53.698154    37625.902 
  363800    305.01802   -1591.0199    481.12317    261.17806   -216.16422    37625.902 
  363900    312.19192   -1576.2128    488.29822    315.40736    111.04381    37625.902 
  364000     299.5775   -1554.8334    492.83085    284.61679    618.86353    37625.902 
  364100    292.10578    -1580.063    493.89836    226.86887     512.8516    37625.902 
  364200    301.84486   -1560.1772     496.7823    293.41632    390.75877    37625.902 
  364300    296.79954   -1548.1185    491.97922    277.99291   -113.30922    37625.902 
  364400    293.38898   -1529.9878    466.28531    255.09908   -51.660134    37625.902 
  364500     305.5944   -1506.2699    501.22564    368.62134    4.7014398    37625.902 
  364600     310.4913   -1527.6721    486.13993    354.14527    145.12637    37625.902 
  364700    306.29699   -1507.4289    488.37514     357.7701     281.6884    37625.902 
  364800    303.10658   -1551.4536    501.60975    312.63885    283.09899    37625.902 
  364900    287.48577   -1555.9914    504.08498    240.35986    301.41571    37625.902 
  365000    297.88458    -1584.054     467.0977    222.05319    229.76402    37625.902 
  365100    302.06023   -1524.4369    510.82477    344.16716    334.36127    37625.902 
  365200    297.31929   -1537.6691    477.18114    275.98051    777.40093    37625.902 
  365300    311.36004   -1538.4124    497.53981    358.70995     601.9364    37625.902 
  365400    291.69548   -1579.5144    488.59789     220.2726    250.79804    37625.902 
  365500    295.41602   -1549.2875    503.16375     281.7894    328.50098    37625.902 
  365600     295.2569   -1509.9171    470.23478    287.51564   -133.00554    37625.902 
  365700    314.08107   -1548.7439    476.27073    339.34052     21.41295    37625.902 
  365800    303.83277   -1547.9313    480.80184    298.61754    -43.82414    37625.902 
  365900    305.85541   -1564.1359     498.7112    309.41419    217.07191    37625.902 
  366000    312.93815   -1595.2032     496.2774    307.75045    469.78035    37625.902 
  366100    305.55178   -1549.2528    507.07996    331.30123    79.578745    37625.902 
  366200    300.96879   -1534.8905    501.21182    319.19455   -83.169718    37625.902 
  366300    301.84623   -1552.6479    503.90131    308.07081    357.76687    37625.902 
  366400    297.06689   -1552.0536    501.05743     284.3378   -21.821881    37625.902 
  366500    293.84816   -1577.4227    488.40628    231.84911    67.967329    37625.902 
  366600    295.07753   -1587.2612     472.3411    211.47153    442.83859    37625.902 
  366700    310.84317    -1539.227    494.77216    352.80431    486.18722    37625.902 
  366800    308.47529    -1535.933    488.41892    339.10132    438.10703    37625.902 
  366900    300.18018   -1548.2219    486.74439    287.85084    -132.8398    37625.902 
  367000    295.26741   -1517.1615    473.69715    283.78084   -203.44902    37625.902 
  367100    303.84039    -1509.427    531.52444    387.87868   -367.88569    37625.902 
  367200    306.41739   -1550.2261    463.13255    290.27152   -442.00003    37625.902 
  367300    300.98157    -1523.868    525.87428    354.93698   -989.29222    37625.902 
  367400    297.28539   -1537.5061    493.58979     292.3998   -111.07256    37625.902 
  367500    305.42078   -1529.7002    495.79347     338.9785    186.59852    37625.902 
  367600    304.08458   -1536.1785     475.0247    305.72508   -274.24745    37625.902 
  367700     305.2676   -1518.9064    506.37521    359.66551   -41.720998    37625.902 
  367800    301.02198   -1538.5008    502.03437    316.64595   -380.42622    37625.902 
  367900    300.02755   -1517.0884    505.62808    337.18201   -22.936985    37625.902 
  368000    297.88139   -1553.2015    485.96382    271.75752   -287.87127    37625.902 
  368100    298.36286   -1556.0461    478.95132    264.06468    337.31019    37625.902 
  368200    289.12925   -1554.7548    481.68814    226.58712    434.35566    37625.902 
  368300    311.00503   -1534.3022    494.89476    358.57926   -180.75959    37625.902 
  368400    296.80056    -1527.986     481.9779    288.12864   -96.875348    37625.902 
  368500    300.65779    -1538.833    505.64334    318.28564    175.62266    37625.902 
  368600    298.57459     -1498.97    492.91778    336.05892   -2.8215994    37625.902 
  368700    299.02551   -1526.8272    495.83742    313.14826   -214.49362    37625.902 
  368800    307.14475   -1502.8076    493.24036    371.06727    -151.6958    37625.902 
  368900    300.49608   -1501.9495    494.02305    342.82189    -284.6467    37625.902 
  369000    301.15877   -1548.7228    488.25247    293.25683   -236.30792    37625.902 
  369100    292.81227    -1484.971    505.33818    336.57633   -54.095821    37625.902 
  369200    307.08077   -1502.1115     481.8153    360.05078    -137.0101    37625.902 
  369300    295.93582   -1474.4381    476.84472    332.65636   -425.19687    37625.902 
  369400    302.47525    -1485.675    510.80886     384.7787    441.16563    37625.902 
  369500    304.53732    -1463.396    488.22783    393.74585    60.283992    37625.902 
  369600    304.61623   -1488.6755    507.91977    388.51304    74.445848    37625.902 
  369700    296.57122   -1515.4873    514.57498    332.19357    -26.36272    37625.902 
  369800    304.41525   -1504.2994    493.35531    357.42114    214.73603    37625.902 
  369900    300.90586   -1514.2169    459.36056    297.73396   -80.059921    37625.902 
  370000    304.20969   -1555.9414    504.53558    316.03553    97.259937    37625.902 
  370100    308.36568   -1528.7563    484.37713    341.74359    486.68299    37625.902 
  370200    300.61845   -1502.2576    517.48938    366.53025    526.97443    37625.902 
  370300    300.86502   -1521.5495    476.43127    307.28856    598.38501    37625.902 
  370400     303.3148   -1527.0179    491.92474    328.32557    485.52993    37625.902 
  370500    307.49155   -1543.1652    483.68701    322.71519    435.60323    37625.902 
  370600     302.1016   -1547.5235     502.9906    313.43245    595.79238    37625.902 
  370700    289.85839   -1552.0631    506.47808    257.34632    256.28558    37625.902 
  370800    303.06305   -1545.6612    482.95709      299.583    685.96701    37625.902 
  370900    293.40688   -1553.8096    483.18616    248.25852   -173.01358    37625.902 
  371000     299.7894   -1523.0796     506.8206    331.31278    119.41832    37625.902 
  371100    302.16876    -1539.343    466.22796    285.15212   -8.9869452    37625.902 
  371200    312.41476    -1523.821    493.94606    374.44866    13.484826    37625.902 
  371300    299.11296   -1522.0949    473.58126    296.01755    346.22707    37625.902 
  371400    299.44409   -1549.3377    510.37851    307.06039    514.50641    37625.902 
  371500    295.41394   -1551.5458    489.86953    266.22751    259.39728    37625.902 
  371600    304.81322   -1515.6442    508.81274    363.32275    132.77979    37625.902 
  371700    299.47739    -1499.733    453.84494    300.28126   -61.653805    37625.902 
  371800    299.15219   -1508.8185    512.05334    347.94236   -18.764936    37625.902 
  371900    305.40589     -1472.67    490.02654    390.17483     881.5483    37625.902 
  372000    296.56876   -1486.6245    493.27605    339.74642    748.99471    37625.902 
  372100    298.68391   -1497.3531     488.3357    333.58511    139.58281    37625.902 
  372200    292.12914   -1535.3198    501.36919    279.18787    395.96324    37625.902 
  372300    308.91941   -1520.6773    502.84887    370.78331     534.6671    37625.902 
  372400    295.68334   -1496.0926    493.41807    326.44028    431.38233    37625.902 
  372500    308.24792   -1528.2652    499.14906    356.47718    -175.8578    37625.902 
  372600    305.89883   -1492.1406    514.82756    397.72101   -406.76573    37625.902 
  372700     292.1926   -1481.7833    495.42673    327.06713   -453.46079    37625.902 
  372800    302.00666    -1538.321    473.33099     292.5485   -833.62747    37625.902 
  372900    297.83245   -1526.0425    499.90317    312.63591   -569.63567    37625.902 
  373000    296.06475   -1556.2793    497.13129     271.6813   -13.149007    37625.902 
  373100    298.22796   -1579.5088    480.55073    241.59496    106.24089    37625.902 
  373200    296.98863   -1531.5016     504.5781    308.05864   -31.824571    37625.902 
  373300    296.30169   -1516.9959    474.23145    289.12994   -183.55463    37625.902 
  373400    299.00531   -1566.5624    501.94191    279.42683   -133.54914    37625.902 
  373500    300.62172   -1542.5291    503.18518    311.96916   -41.702923    37625.902 
  373600    303.82254   -1505.0102    519.67603    380.36684    91.865736    37625.902 
  373700    307.57077   -1532.3343     470.1658    320.38111    100.08651    37625.902 
  373800    304.43725   -1511.3636    479.57904    336.67958   -47.829032    37625.902 
  373900    295.42393   -1545.3832    486.12351    268.68901   -255.95116    37625.902 
  374000     305.3015    -1555.572    480.90079    297.67789    -94.25972    37625.902 
  374100    292.03442   -1543.4972    495.44786     264.6634   -250.73584    37625.902 
  374200    300.78502   -1558.2669     501.0556     294.8359    58.843011    37625.902 
  374300    299.63893   -1569.2149    482.54169    260.22228   -58.515114    37625.902 
  374400    296.28968   -1567.1718    495.34238    260.01095   -192.07063    37625.902 
  374500    300.81755   -1560.9638    496.83148    288.06111   -236.98536    37625.902 
  374600    296.73389   -1529.6897    512.82937    316.97678   -193.47917    37625.902 
  374700    303.80736   -1525.9017    487.63973    327.37079   -551.68463    37625.902 
  374800    294.08655   -1554.3488    482.45346    250.04178   -190.91196    37625.902 
  374900    308.81776    -1532.215    488.54002    344.47987   -644.98839    37625.902 
  375000    304.11445   -1498.0179    515.70529     384.7005   -432.92397    37625.902 
  375100    296.99281   -1557.8616    484.56108    261.70039   -756.19133    37625.902 
  375200    302.27361   -1562.3259    496.07794    292.49054   -54.002417    37625.902 
  375300    308.24923   -1542.8523    500.02411    342.77109   -275.13146    37625.902 
  375400    304.35681   -1575.9815    483.48301    275.60414    231.97697    37625.902 
  375500    298.39093   -1606.6816    506.08099      240.685   -56.295552    37625.902 
  375600    300.67152   -1559.7195    490.10223     281.9197    80.035963    37625.902 
  375700    302.53563   -1576.6977    484.62488    267.84351    181.36247    37625.902 
  375800    296.55669    -1557.741    515.51209    290.81163   -239.22301    37625.902 
  375900    296.32889   -1594.1113    493.12097    231.02623   -452.64987    37625.902 
  376000    298.99667    -1580.866     478.8155    241.95789   -479.61956    37625.902 
  376100    294.29224    -1584.583    468.00774    206.28647    -431.5643    37625.902 
  376200    305.65343   -1568.6794    475.30356     280.5552   -623.57692    37625.902 
  376300    301.71908   -1552.3421    491.52121    295.42495   -410.34391    37625.902 
  376400    302.32343   -1569.3218    493.69414    283.33475   -220.60132    37625.902 
  376500    300.34459   -1587.8057    466.82443    229.08616    -663.9941    37625.902 
  376600    303.16435   -1571.0724    508.52502    300.19502   -640.01329    37625.902 
  376700    302.41727   -1573.3338    521.20915    307.25957   -576.52505    37625.902 
  376800    296.75713   -1555.6043    434.92515     213.2624    208.55965    37625.902 
  376900    304.58686    -1553.683    510.59677    326.05045   -464.25536    37625.902 
  377000    304.43235   -1515.9544    490.17137    342.65914   -86.851743    37625.902 
  377100    300.36953   -1537.6785    487.65908    300.16004    -149.6482    37625.902 
  377200    299.46453   -1545.9343    499.50905    299.68631    82.629207    37625.902 
  377300    296.77388     -1531.05     490.3783     293.3451    122.01927    37625.902 
  377400    299.25317   -1522.2837    489.41399    312.29173    94.600275    37625.902 
  377500    300.39757   -1564.1548    484.01483     270.1656   -169.23463    37625.902 
  377600    290.64158    -1510.069    483.63152    280.01428   -27.457899    37625.902 
  377700    299.55755   -1498.7309    507.92307     355.7218    295.39217    37625.902 
  377800     307.6752   -1520.0001    510.58807    373.60691     314.6313    37625.902 
  377900    300.96086   -1477.1125    487.43773    363.16278    151.92292    37625.902 
  378000    298.27792   -1540.5917    477.11786    277.30381    18.675977    37625.902 
  378100    300.06561   -1553.5807    511.61333    306.84602   -150.83313    37625.902 
  378200    301.68883   -1532.1824    520.14025    344.06775    183.37647    37625.902 
  378300    299.31463   -1508.9717    508.87464    345.34065   -300.14236    37625.902 
  378400    306.16426    -1541.842    475.45568    309.84082   -1060.5579    37625.902 
  378500    298.85347   -1531.3772     508.6272    320.61476   -1117.4859    37625.902 
  378600    298.95746   -1500.2023    501.62098    345.25087   -926.10885    37625.902 
  378700    289.51013   -1529.2681    521.81539     293.9131   -1178.0548    37625.902 
  378800    309.33965   -1521.6848    479.39857    348.21459   -612.23759    37625.902 
  378900    296.38619   -1529.2478    513.64833    316.67472   -209.02579    37625.902 
  379000    291.82249   -1503.8571    505.07526    312.97821    621.11754    37625.902 
  379100    307.08709   -1538.1897    516.64335    358.82904    247.25924    37625.902 
  379200    296.03603    -1533.247    483.07921    280.53238   -98.618619    37625.902 
  379300    298.08815   -1521.6428     521.6643    339.94609    10.595137    37625.902 
  379400    296.29371   -1566.4216    474.28237    239.71922    356.36379    37625.902 
  379500    299.34252   -1583.6271    524.94994    286.88586    460.88831    37625.902 
  379600    309.35863   -1591.7111    494.88847    293.76348    511.73792    37625.902 
  379700    308.06056   -1558.4698    500.81973    327.10115    642.55335    37625.902 
  379800     304.1485   -1590.1522    488.05794    265.07193    770.92971    37625.902 
  379900    302.43865   -1578.9705     510.2739    290.78375      319.648    37625.902 
  380000    309.59731   -1573.7275    488.68185    306.61333    487.15882    37625.902 
  380100    300.30664   -1565.4255    502.85527    287.32664    -840.6947    37625.902 
  380200    302.19446   -1579.3354    468.27442    247.32167   -410.10321    37625.902 
  380300      300.643   -1591.7575    501.29695    260.94827   -1354.3963    37625.902 
  380400    306.00453   -1526.4716    468.22317    317.26076   -987.94332    37625.902 
  380500    298.12266   -1600.4583    503.59029    243.21169   -946.95736    37625.902 
  380600    292.92951   -1590.2778    505.11026    231.56865   -882.71486    37625.902 
  380700    303.55999   -1591.8309     490.9092    263.59919   -392.02873    37625.902 
  380800    295.98657   -1570.1564    481.12145    241.44293   -724.53665    37625.902 
  380900    298.82978    -1551.934    494.05046    285.37468   -784.65177    37625.902 
  381000    293.93677   -1560.4247     514.0913    274.93046     -45.3675    37625.902 
  381100    296.47398   -1588.6228    476.05539    220.10133   -516.38098    37625.902 
  381200    291.68556    -1567.032    505.09988    249.21239    335.49377    37625.902 
  381300    303.48881   -1519.4073    495.48403    340.27765    604.00534    37625.902 
  381400    304.28703   -1520.9888    511.93647    358.73656    234.49275    37625.902 
  381500    310.16367   -1512.9882    500.35876    381.57536    138.87704    37625.902 
  381600    295.85836   -1544.5493    474.73342    260.08567   -56.169838    37625.902 
  381700    312.50043   -1558.7634    516.20643    362.15176   -288.02851    37625.902 
  381800    297.62502   -1599.2984    476.50952    215.05392    -681.3661    37625.902 
  381900    304.18245   -1596.6434    509.62698    280.30239    -147.0926    37625.902 
  382000    294.46535   -1581.1635    485.14011    227.61648    -121.6936    37625.902 
  382100    294.19107   -1571.8669     497.7916    248.33171    171.42432    37625.902 
  382200    295.93621   -1579.1171    474.21091    225.34528    68.019449    37625.902 
  382300    308.58609    -1603.261    520.76844    304.62088    996.61237    37625.902 
  382400    300.20238   -1585.5025    479.14295    243.06858    259.14858    37625.902 
  382500    297.76567   -1551.5806    476.66247    263.55692     532.6167    37625.902 
  382600    305.66711   -1556.5685    507.66006    325.08409    289.17906    37625.902 
  382700    299.96616   -1541.4085    481.51805    288.47591   -56.416288    37625.902 
  382800    305.00392   -1517.8291    512.69811    365.88036   -8.3049326    37625.902 
  382900    302.58006   -1515.4022    532.78505    377.49882   -339.59459    37625.902 
  383000    301.56857   -1549.0729    511.79964    318.29606    4.5742966    37625.902 
  383100    304.45527    -1513.309    492.84992    348.08616    25.896046    37625.902 
  383200    301.49141   -1549.7326    506.66695    312.15682   -213.66059    37625.902 
  383300    296.48484   -1493.9768    503.86656    342.60735   -621.13529    37625.902 
  383400    312.52097   -1508.9732    477.20757     373.0354   -732.43449    37625.902 
  383500    296.96088   -1485.7088    490.67705    339.82564   -1139.4475    37625.902 
  383600    300.32654     -1458.55    516.31043    407.74675   -765.14436    37625.902 
  383700    297.46623   -1475.5802    474.95384    336.50268   -622.00685    37625.902 
  383800    305.69927   -1485.3425     486.2418     375.0363   -67.380128    37625.902 
  383900    310.37596   -1495.7005     495.9773    395.43587     -176.288    37625.902 
  384000    292.45905   -1476.6514    514.09349    352.06353    145.97593    37625.902 
  384100    299.21906   -1554.0055    527.45915    318.46171    152.34638    37625.902 
  384200    297.57017   -1556.0505    477.75665    259.30238    -422.0808    37625.902 
  384300    293.73659   -1516.8505    499.94943    303.46302    99.497186    37625.902 
  384400    301.63146   -1512.7484     530.1429     373.2465    -82.01479    37625.902 
  384500    290.80163   -1494.0618    525.48532    338.59477   -395.63931    37625.902 
  384600     299.9971   -1512.2024    506.57311    342.87609     573.2319    37625.902 
  384700    306.28963   -1486.6683    494.69011    384.81249    352.20635    37625.902 
  384800    303.39007   -1517.9867    491.15837    336.92869    93.652983    37625.902 
  384900    295.15488   -1528.8065    511.96961    309.90248    75.516831    37625.902 
  385000    295.00748   -1468.0009    500.47422    358.55008   -227.18416    37625.902 
  385100    292.94833    -1525.487    508.29911    299.63294    62.333131    37625.902 
  385200    302.17129    -1536.231    505.45748    327.50501    398.82665    37625.902 
  385300    311.28169    -1478.843    500.79009    421.17749    305.56697    37625.902 
  385400    291.82442   -1510.7801    514.32129    315.30996    162.83863    37625.902 
  385500     293.3295   -1493.3096    499.56732    324.79187      311.045    37625.902 
  385600    305.68551   -1476.9467    536.46532    433.59375    408.17927    37625.902 
  385700     298.1014   -1494.7354    508.92423    354.17301   -172.65857    37625.902 
  385800    297.43617   -1497.9753    500.32628    339.34491    151.66185    37625.902 
  385900    293.99907   -1537.4926    506.65193    290.70328   -30.220269    37625.902 
  386000    304.11712   -1515.2732    524.04878    375.80079    470.31123    37625.902 
  386100    295.95133   -1508.3874    487.69732    309.62939    397.25152    37625.902 
  386200    308.64495   -1463.4571    494.07102    417.99192    394.24656    37625.902 
  386300    305.57935   -1489.5382     493.6614    377.72119    874.07213    37625.902 
  386400     293.4026   -1469.1717    504.41395    354.10493    816.85276    37625.902 
  386500    308.08807   -1482.8808    527.17814    429.17218    425.62664    37625.902 
  386600    295.07394   -1461.3514    495.28644    360.31056    981.13199    37625.902 
  386700    287.64272   -1498.8619    503.64909    297.75889    741.40552    37625.902 
  386800    301.44724   -1464.3907    514.47756    405.11075    480.82397    37625.902 
  386900    294.78267   -1508.5155    479.60849    296.15922    17.540919    37625.902 
  387000    303.32093   -1496.7493    491.80462    358.50154    472.39649    37625.902 
  387100    300.42767   -1486.5789    507.73475    371.59678   -454.77002    37625.902 
  387200    304.84725   -1520.4204     516.3081    366.19482   -741.07095    37625.902 
  387300    295.46711   -1494.2757     478.2452    312.11233    -357.1859    37625.902 
  387400    308.97822   -1496.0079    509.52503    402.39325    -84.81186    37625.902 
  387500    290.99314   -1522.4708     505.0508    290.61205   -146.98334    37625.902 
  387600    313.45374   -1542.2286    475.81579    342.58107     124.7336    37625.902 
  387700    290.81779   -1561.6633    497.36711    242.94766   -115.87231    37625.902 
  387800    297.45918    -1575.637    474.98317    236.44345   -53.097559    37625.902 
  387900    313.01996   -1556.0369    476.46826    327.47534    135.14483    37625.902 
  388000    296.94601    -1538.883    489.04994     284.9575    223.49567    37625.902 
  388100    297.30947   -1524.5795    507.75817     319.6031    67.295978    37625.902 
  388200    303.78703   -1554.4887    489.45676    300.50945   -232.86341    37625.902 
  388300    299.61405   -1496.0359    484.10051    334.84815   -899.74445    37625.902 
  388400     301.3278   -1513.3953    518.08471    359.17646   -813.14413    37625.902 
  388500    303.12823   -1540.2139    508.63443    331.00063   -485.64009    37625.902 
  388600     293.4218   -1555.7802      509.409    272.57789    218.29122    37625.902 
  388700    296.79943   -1562.9791    499.98063    271.13318    458.25986    37625.902 
  388800    302.11864   -1516.3435    498.58888    340.28729    686.88746    37625.902 
  388900    304.49665   -1529.3971    481.51069    320.84479    294.27045    37625.902 
  389000    297.94093   -1564.4548    485.16548    259.97344    311.29272    37625.902 
  389100    286.50778   -1484.5348    479.63634     282.9716    328.92542    37625.902 
  389200    298.76446   -1549.3861    482.37598    275.95452    -16.66909    37625.902 
  389300    299.51057   -1542.6353    479.59462    283.27777   -442.14708    37625.902 
  389400    296.38515   -1505.2613    486.98534    313.99353   -314.93932    37625.902 
  389500    298.31163   -1533.9797    479.68609    286.63553   -458.04138    37625.902 
  389600    299.85665   -1557.7017    492.63673    282.80916   -225.55837    37625.902 
  389700    302.81389   -1568.3357    530.22771    323.05902   -32.488353    37625.902 
  389800    306.80984   -1551.1437    504.87652    332.86198   -312.33075    37625.902 
  389900    307.27299    -1497.617    485.90613    369.50017   -732.06878    37625.902 
  390000    293.76402   -1528.6835    491.85975    283.66358   -634.24288    37625.902 
  390100    300.80251   -1531.5437    506.05603    326.63815   -983.79116    37625.902 
  390200    300.50946   -1568.7582    469.86038    251.91074   -68.606467    37625.902 
  390300    288.99327   -1571.6705    480.57511    207.94713   -309.74459    37625.902 
  390400    302.71062   -1541.9521    503.15799    321.90873   -306.00116    37625.902 
  390500    303.59854   -1505.6395    496.93898    355.99361   -456.02675    37625.902 
  390600     305.8933   -1538.6869     491.6762    327.99854   -276.78798    37625.902 
  390700    306.59215   -1502.6531    485.95464    361.45217   -764.17081    37625.902 
  390800    302.42056   -1493.8122    500.47172     366.0586   -662.82509    37625.902 
  390900    295.86058   -1610.7851    484.66245    203.78885   -102.28168    37625.902 
  391000    310.12227   -1579.3028     493.0229    307.73883   -48.360045    37625.902 
  391100    296.16109   -1583.5976     496.4691     244.1338   -287.06962    37625.902 
  391200    294.54858   -1553.7448    489.58155    259.85077   -412.13805    37625.902 
  391300    300.52407   -1561.6474    481.93984    271.16667   -156.44721    37625.902 
  391400    291.75593   -1508.8489    495.77173    298.38366   -459.75002    37625.902 
  391500    299.86334   -1478.7551    525.21434     394.3634   -261.77696    37625.902 
  391600    303.43068   -1537.0827    472.92508    299.78195    -238.6567    37625.902 
  391700    300.36935   -1585.6319    499.25586    263.80268     796.0677    37625.902 
  391800    306.93872   -1552.4028    493.11099    320.41665    604.63223    37625.902 
  391900    308.17061   -1554.5223    483.41127    314.13483    469.26319    37625.902 
  392000    295.04046   -1566.5311    511.60512    271.29901    321.58532    37625.902 
  392100    295.17201   -1568.6282    493.30802    251.49619    464.45118    37625.902 
  392200    291.90212   -1515.8242    505.59112    301.88486    569.25964    37625.902 
  392300    312.84615    -1510.935    498.27627    393.60401    327.50223    37625.902 
  392400     308.1349   -1581.9954    507.35056    310.44055     269.3682    37625.902 
  392500    294.10755   -1536.3667    476.84644    262.51131    542.85539    37625.902 
  392600    296.14845    -1537.935    516.95011    310.22057    192.67065    37625.902 
  392700     288.4843   -1517.3612     476.7521    256.14562    -15.47471    37625.902 
  392800    299.96108   -1502.6899    515.48918    361.14277    77.493029    37625.902 
  392900    289.66445   -1539.6834    490.37103    252.74717   -41.832733    37625.902 
  393000    292.53804   -1566.4072    487.89417     236.4635    -676.6869    37625.902 
  393100    301.47194   -1537.2276    496.10352    314.01081   -348.42724    37625.902 
  393200    310.06381   -1558.4589    501.22401    336.52108   -359.87228    37625.902 
  393300    295.49034   -1558.7719    481.46124     250.9366    17.768418    37625.902 
  393400    308.22234   -1592.0973     501.1345    294.51559    189.41241    37625.902 
  393500    301.37596   -1535.6935    502.06586    321.07584    -125.0085    37625.902 
  393600    293.83548   -1548.1823    478.80091    251.42722   -24.352314    37625.902 
  393700    302.78428   -1524.9737    483.99022    320.05047    634.36104    37625.902 
  393800    286.49035   -1573.9676    492.59853    206.42272    722.66487    37625.902 
  393900    301.01086   -1558.4731     508.7614    303.35069     288.6076    37625.902 
  394000    291.52393   -1553.7396    493.74686    250.42531   -88.985245    37625.902 
  394100    303.76933   -1511.4196    493.11877    347.16099    358.49144    37625.902 
  394200    311.88969    -1528.017     504.0039    377.95023   -27.672821    37625.902 
  394300    303.40144   -1547.2986    491.40878    307.91828   -367.29729    37625.902 
  394400    301.99247   -1579.3357    463.98671    242.12578   -322.43529    37625.902 
  394500    306.34095   -1562.6282    490.66564    305.05884   -755.91175    37625.902 
  394600    308.08026   -1555.2236    475.45009    305.06621   -176.67728    37625.902 
  394700    301.71782   -1559.1081    501.63401    298.76604   -302.32745    37625.902 
  394800     296.6754   -1547.7867     490.1489    275.93641   -344.56074    37625.902 
  394900     302.9182   -1527.3707    466.69955    300.96483    230.27779    37625.902 
  395000    294.59693   -1491.3407    503.61641    336.50707    -319.6583    37625.902 
  395100    299.78658   -1517.3742     511.9081    342.09303   -193.71852    37625.902 
  395200    294.94068   -1523.4367    511.45542    313.79526   -286.12712    37625.902 
  395300    299.27139   -1487.7386    491.40863    348.91333    391.72286    37625.902 
  395400    297.98491   -1493.9889    517.08619     362.5578   -324.57776    37625.902 
  395500    290.88497   -1509.2715    511.71061    309.98498   -144.98943    37625.902 
  395600     295.2457    -1507.466    511.20535    330.88693    116.24504    37625.902 
  395700     289.0988   -1528.4428    487.08806    258.16212   -349.35772    37625.902 
  395800    295.37764   -1547.5471    508.85779    289.05142   -427.92206    37625.902 
  395900    302.52464   -1529.6675    491.98048     322.1798   -1300.3591    37625.902 
  396000    291.86897   -1505.4977    492.33879    298.81004   -1051.3995    37625.902 
  396100    299.32033   -1538.1152    528.24656     335.5947   -1047.5434    37625.902 
  396200    296.45579   -1552.9456    489.47552    269.11689   -784.77068    37625.902 
  396300    301.85372   -1547.4221    484.00244    293.43134   -76.351225    37625.902 
  396400    292.72399   -1554.1891      465.337    226.96029   -486.72326    37625.902 
  396500    296.35609   -1527.6852    509.45154    313.90517   -269.88255    37625.902 
  396600    298.96937   -1526.5694    493.06192    310.37823   -91.396584    37625.902 
  396700    303.96325   -1527.7319    496.50898    335.11058   -84.395108    37625.902 
  396800    300.60311   -1516.7596    503.11549    337.58538   -369.93689    37625.902 
  396900    310.64236    -1517.721    513.05262    391.68814   -338.31101    37625.902 
  397000    300.33212   -1518.8216    515.34533    346.53509     31.54101    37625.902 
  397100    300.96624   -1576.7388    505.16624    281.28923    59.442713    37625.902 
  397200    295.71543   -1580.1905    505.70166    254.77025    220.23998    37625.902 
  397300    301.43166   -1575.7454    487.34427    266.55278    -139.3289    37625.902 
  397400    292.19879   -1562.6741    482.95653    233.73399   -325.88334    37625.902 
  397500    306.21031   -1608.5218    520.47301     288.3854    89.419542    37625.902 
  397600    297.77758   -1571.2419    497.93711    265.22373    5.4498116    37625.902 
  397700    303.59781   -1550.9586     525.7645    339.49677   -263.93346    37625.902 
  397800    295.15756    -1561.022    503.04132    268.77077   -182.13304    37625.902 
  397900    302.93475   -1531.8744     531.3806    361.21654   -478.66019    37625.902 
  398000    302.10777   -1545.3229    510.01913    322.68927    459.36479    37625.902 
  398100    292.20112    -1532.582    509.82835    290.70839    640.23897    37625.902 
  398200    308.15656   -1532.6594    487.32606    339.84933    255.05078    37625.902 
  398300    293.72658   -1531.7566    539.25204    327.81452    123.25685    37625.902 
  398400     302.0828   -1535.5269    506.91183    329.26575   -297.70501    37625.902 
  398500    297.26279    -1517.389    516.10288    334.92837   -288.54454    37625.902 
  398600    306.05066   -1522.4143    485.77622    339.07847   -663.64169    37625.902 
  398700    308.06323   -1525.7567    488.61451    347.62096   -318.91072    37625.902 
  398800    308.49161   -1511.2287    473.36129    348.82133   -52.021963    37625.902 
  398900    293.13358   -1494.0864    515.05224    338.61932   -553.28779    37625.902 
  399000    302.15136   -1536.6222    483.03404    304.60085   -729.02994    37625.902 
  399100    303.41498   -1501.0144    516.23682    379.09137   -164.77747    37625.902 
  399200    299.51108   -1499.3078    513.63188    360.64481   -495.62274    37625.902 
  399300      297.018    -1560.531    494.46793     269.0511    -48.69285    37625.902 
  399400    303.19646   -1512.4243    494.82491    345.28742    171.14246    37625.902 
  399500    297.15611   -1503.2563    530.78722    363.26587    409.64046    37625.902 
  399600    298.63749   -1525.4543    489.59427    306.53387    359.62114    37625.902 
  399700     305.0801   -1515.7258    501.28158    356.90959    464.75384    37625.902 
  399800    284.56324   -1488.7072    501.00533    291.42746   -134.42039    37625.902 
  399900    303.72509   -1513.9058    498.67282    350.03001   -233.91473    37625.902 
  400000    308.10243   -1516.5504    477.29246    345.68149   -417.52614    37625.902 
  400100    299.19539    -1555.101    498.02318    287.82388    162.20381    37625.902 
  400200    303.53569   -1569.5844    519.99497    314.82222    -803.4468    37625.902 
  400300    295.74745   -1557.1838    477.14663    249.36587   -245.07557    37625.902 
  400400    305.09623     -1510.68    510.73867    371.48504   -691.37266    37625.902 
  400500    294.31678   -1511.0314     519.0253    330.96597   -702.19391    37625.902 
  400600    301.36698   -1543.8162    496.34293    307.18985   -527.64023    37625.902 
  400700    290.77838   -1525.4488    495.73021    277.34808   -617.44362    37625.902 
  400800    297.09247   -1507.9887    498.32507    325.78529   -143.44823    37625.902 
  400900    305.71348   -1536.9702    493.79184    331.02255   -359.00497    37625.902 
  401000    295.37867   -1535.8108    503.41508    295.34955   -322.55778    37625.902 
  401100    297.93828   -1534.9976    490.44739    294.70074    -69.24307    37625.902 
  401200    305.55328   -1522.7818     514.7299    365.42896    384.86553    37625.902 
  401300    301.54997   -1549.5094     496.2753    302.25154     320.7471    37625.902 
  401400    289.91175   -1516.4762    489.94562    276.64062   -353.53721    37625.902 
  401500    296.81226   -1508.5092    493.32715    319.00729    48.117068    37625.902 
  401600     307.7339    -1518.078    510.68207     375.8869    35.598898    37625.902 
  401700    305.92815   -1515.7736    504.50061    363.89287     555.8268    37625.902 
  401800     301.9084   -1510.2906    484.68306    331.48933    181.21437    37625.902 
  401900    292.19084   -1515.5709    477.70461    275.54948    39.454754    37625.902 
  402000    294.20948   -1545.8385    483.11598    259.76724     72.43071    37625.902 
  402100    301.04174   -1565.7831      515.007    302.42506    335.12343    37625.902 
  402200    288.50266   -1505.5292    493.60444    284.91242    236.27845    37625.902 
  402300     311.5333   -1516.3648    503.92172    387.91832    131.61358    37625.902 
  402400    296.61253   -1536.0369    480.12573    277.38041   -99.485369    37625.902 
  402500    305.20477    -1531.394    498.87354    339.39373   -160.66911    37625.902 
  402600    296.97283   -1532.8202    506.55627    308.64721     138.7976    37625.902 
  402700    293.96693   -1558.6789    511.30653    274.02707     -224.318    37625.902 
  402800    295.95613   -1588.3187     495.7065    237.72879   -695.16169    37625.902 
  402900    300.77695   -1520.9237    493.90657     324.9938   -675.51834    37625.902 
  403000    290.44904   -1521.1915    500.75729    285.15214    -456.2931    37625.902 
  403100    293.86967   -1562.9481    502.36993    260.38404   -515.13656    37625.902 
  403200    303.00811   -1580.5587    491.66145    273.14286    -118.0919    37625.902 
  403300    297.09244   -1552.2007    518.38428    301.63234   -314.31485    37625.902 
  403400    293.73677   -1536.1106    476.89576    261.15006    51.444083    37625.902 
  403500    306.08003    -1580.446    501.80321    297.20579    420.29598    37625.902 
  403600    308.23006   -1561.8326    476.13193     299.8124    552.07437    37625.902 
  403700    312.70677   -1561.2955    497.59848    341.93915    811.94839    37625.902 
  403800    300.05596   -1514.7749    530.51085    364.50597    383.80053    37625.902 
  403900    296.10729    -1527.287    485.64636    289.37982    439.69913    37625.902 
  404000    293.13245   -1516.6988     523.9838    324.93345    71.056454    37625.902 
  404100    302.94182   -1564.6444    512.39289    309.49063    26.357775    37625.902 
  404200    303.84776   -1541.2609    511.65519    336.20873    430.71629    37625.902 
  404300    302.56227   -1592.2002    513.36265    281.19846    97.908204    37625.902 
  404400    310.08569   -1547.6718    504.96476    351.14723    371.65093    37625.902 
  404500    297.52492   -1586.1232    471.56152    222.83112    587.71796    37625.902 
  404600    300.13142   -1548.9258    517.44024    317.62363    1000.5826    37625.902 
  404700    294.32451   -1543.2766    484.53837    264.26859    1182.7935    37625.902 
  404800    298.58022   -1525.3014    518.44984    335.28494    832.34872    37625.902 
  404900    313.84757   -1548.8204    519.87278    381.81656    954.73305    37625.902 
  405000    298.52855   -1549.1946    506.18931    298.89892    770.78127    37625.902 
  405100    300.57026   -1542.8352    532.46126    340.70786    1078.1198    37625.902 
  405200    299.35187   -1546.3643    513.27293     312.5137    375.14384    37625.902 
  405300    301.19752   -1557.7084    501.15543    297.34839    263.57777    37625.902 
  405400    296.31449   -1535.6928    495.03238    291.29142    111.24755    37625.902 
  405500    310.54597   -1546.0474    466.67628    316.55213    219.89949    37625.902 
  405600    300.58635   -1548.5833     526.2592     328.8301    195.71507    37625.902 
  405700    297.36822   -1543.2985    483.66982     277.0598    89.495258    37625.902 
  405800    298.49579   -1519.3626    518.72497    341.11929   -118.18623    37625.902 
  405900    296.91432    -1547.916    519.61748    306.34961    134.35197    37625.902 
  406000    298.01501   -1557.0063    505.02762    287.61711    29.727514    37625.902 
  406100    296.86266   -1582.3641    483.59899    235.65081     34.79519    37625.902 
  406200     299.3206     -1570.52    513.45259    288.39715    42.921999    37625.902 
  406300    302.89438   -1563.0345    509.35755    307.85194   -108.11789    37625.902 
  406400    305.10543   -1558.9752    485.87101    298.36352    171.60245    37625.902 
  406500    310.89727   -1571.7527    496.65122    322.40094    337.55818    37625.902 
  406600     305.5008   -1533.9819    486.36768    325.63071    370.65708    37625.902 
  406700    294.23159   -1558.2056    477.10762    241.49114    234.47659    37625.902 
  406800     299.3451   -1535.5789    532.31522    342.31101    444.86766    37625.902 
  406900    297.41271   -1561.6602    508.44844     283.6767    349.24593    37625.902 
  407000    302.09533   -1520.9441    532.65183    369.64487    133.97086    37625.902 
  407100    304.15538   -1546.7772    504.73335    325.15326    561.53462    37625.902 
  407200    298.87761   -1519.1153    527.65828    352.01619    366.57459    37625.902 
  407300    304.13569   -1569.8767    484.22351    281.45542    -103.0665    37625.902 
  407400    305.36028   -1565.9781    516.56006    323.19523   -532.67967    37625.902 
  407500    307.44686   -1498.0711     492.6754     376.5969   -282.77166    37625.902 
  407600    302.13301   -1508.4981    517.36938    366.97777   -426.17081    37625.902 
  407700    292.26092   -1515.8421    520.94138    318.83007   -260.80453    37625.902 
  407800    298.35955   -1494.2212    486.94885    333.87219   -243.88194    37625.902 
  407900    299.43585    -1509.276    492.28019    328.98676   -462.14317    37625.902 
  408000    307.56988   -1553.8526    473.87137    302.56428   -297.10269    37625.902 
  408100    305.39943   -1496.5374    486.64635    362.89823   -267.54726    37625.902 
  408200    286.77602   -1521.0887     480.5533    248.54043   -359.50451    37625.902 
  408300    292.96607   -1521.3166    528.47369    324.05761   -393.88711    37625.902 
  408400    292.44789   -1568.7176    491.07774    236.93144   -785.73184    37625.902 
  408500    294.61284   -1495.5913    492.88726    321.59881   -782.57028    37625.902 
  408600    299.28612   -1552.5507    506.01561    298.77439     -378.219    37625.902 
  408700    305.49445   -1529.5956    483.49815    327.11892   -175.75981    37625.902 
  408800    303.36091   -1491.9708    515.25639    386.91152   -163.09337    37625.902 
  408900    299.97424   -1528.7679    486.69066    306.32546   -283.92528    37625.902 
  409000    295.65142   -1497.1181    505.99755    337.85075    -667.6438    37625.902 
  409100    300.90654   -1550.4732    510.20424    312.32447   -179.59136    37625.902 
  409200    307.59139   -1519.5868    520.79979    383.85528   -153.98737    37625.902 
  409300    288.00393    -1529.967    503.15618    267.78463   -247.48285    37625.902 
  409400    302.95758   -1545.5738    505.41729    321.65644    -390.6759    37625.902 
  409500     289.2324   -1517.9873    501.39947    283.52964    74.751313    37625.902 
  409600    309.28784   -1519.1681    511.95616    383.05592    488.82456    37625.902 
  409700      294.185   -1502.7839    522.62598    342.22171   -396.67039    37625.902 
  409800    292.76655   -1492.8424     508.2886    331.44982    -502.7605    37625.902 
  409900    308.40973   -1514.5694    514.42205    386.17339    407.15116    37625.902 
  410000    305.34988   -1488.2157    518.67863    403.02947    85.845777    37625.902 
  410100    299.09864   -1488.2247    502.63018    358.87231   -183.74412    37625.902 
  410200    305.47306   -1496.3441    489.36888    366.14499    78.449221    37625.902 
  410300    302.61022   -1493.7773    509.88347    376.35779   -339.22677    37625.902 
  410400    292.37135   -1475.7985    490.56102    328.98973   -836.51577    37625.902 
  410500    308.18968   -1498.3895    511.79606    398.73819   -179.48937    37625.902 
  410600     299.3303   -1497.7904    492.85173    340.56942   -511.20298    37625.902 
  410700    295.84912   -1492.7856    524.13847    361.21288    -160.3186    37625.902 
  410800    312.95416   -1491.4345    496.38215    411.69581    127.01505    37625.902 
  410900    309.76903   -1485.1055    502.09391    409.41923   -107.97868    37625.902 
  411000    294.55047    -1480.095     490.0684    333.99588   -341.05824    37625.902 
  411100    290.98486   -1514.5815     499.7995    293.21279   -65.884332    37625.902 
  411200    301.67015   -1506.2181    538.46015     388.2679     237.5974    37625.902 
  411300    293.62568   -1524.3888    475.87648    271.35321    405.96691    37625.902 
  411400    287.69944    -1525.284    510.77482    278.71749    412.83667    37625.902 
  411500    301.41957   -1532.1488    483.60774    306.35846    582.21448    37625.902 
  411600    300.75825   -1495.4775    484.29074    340.74005    803.93002    37625.902 
  411700    297.20043   -1516.9743    522.57264     341.5326    630.54482    37625.902 
  411800    300.36048   -1557.1215    494.84115    287.85856    826.91483    37625.902 
  411900    295.41757   -1545.1374    473.52465    256.30739    792.57365    37625.902 
  412000    309.98794   -1501.5001    506.18229    398.09701     542.9272    37625.902 
  412100    300.46525   -1509.2794    472.44578    313.77616    1029.9264    37625.902 
  412200    308.88868   -1583.9576    515.92765    320.44364    704.63073    37625.902 
  412300     299.2336   -1573.8017    484.48628    255.75802    514.75255    37625.902 
  412400      304.432   -1533.1923    492.45779    327.70607    72.742215    37625.902 
  412500    298.56447   -1513.0894    504.21375    333.19001    356.01711    37625.902 
  412600    297.18003   -1526.3394    478.65286    288.15598    266.26167    37625.902 
  412700    309.40845    -1512.281    497.38601    375.91505   -225.46258    37625.902 
  412800    300.73035   -1539.6091    511.11142    323.30379   -346.29092    37625.902 
  412900     298.4841   -1491.3648    459.22279    309.56234   -294.47469    37625.902 
  413000    310.19626   -1536.4925    500.47109    358.32987   -224.01448    37625.902 
  413100    302.12376   -1533.2778    494.93264    319.71974    -329.4555    37625.902 
  413200     294.1177   -1530.9066    485.01096    276.18151    113.13989    37625.902 
  413300    308.43643   -1561.1234    493.38183    318.69917    139.95535    37625.902 
  413400    291.99076   -1526.5281    491.34061      277.329    97.156696    37625.902 
  413500     298.3103   -1521.0784    511.89902    331.74378    595.69713    37625.902 
  413600    297.29262   -1531.9282    478.52576    282.94621    257.51626    37625.902 
  413700    296.14137   -1533.4947    508.22376     305.9028   -88.162605    37625.902 
  413800    296.15059   -1512.8989    477.09102    295.40722    58.187664    37625.902 
  413900    295.15963   -1518.9524    502.98614    310.79444    114.15812    37625.902 
  414000    296.97876   -1507.3657    487.12758    314.69966   -56.105366    37625.902 
  414100    289.89157   -1583.7813    489.22531    208.52451    548.74218    37625.902 
  414200      307.786     -1517.77    523.92104    389.66805    650.63799    37625.902 
  414300    312.02806   -1524.4434    489.80282    367.94472    224.67527    37625.902 
  414400    294.36285   -1477.2854    521.43162    367.32538    120.27313    37625.902 
  414500    290.99878   -1500.2891    507.38529    315.15368   -134.73535    37625.902 
  414600    296.79493   -1480.6656    526.24121    379.68704   -424.03226    37625.902 
  414700    295.74928   -1528.5537    492.10692     292.9644   -186.16517    37625.902 
  414800    293.55581   -1534.0792    503.67729    289.14956   -273.23062    37625.902 
  414900    305.83479   -1561.0495    479.41366    293.11039   -463.92555    37625.902 
  415000    314.20188   -1580.1311    474.22296    306.44862   -548.11852    37625.902 
  415100    293.91197   -1498.9554    504.50558    326.70261   -89.506723    37625.902 
  415200    304.63626   -1503.8991    501.01713    366.47679    434.82875    37625.902 
  415300      291.282   -1546.3787    512.00156    274.95345    39.112683    37625.902 
  415400    287.90419   -1560.6437    497.36214    230.86544    727.34228    37625.902 
  415500    292.57478   -1550.1468    506.90892    271.90377   -113.69007    37625.902 
  415600    293.47031   -1532.8651    504.42609    290.72808    317.53858    37625.902 
  415700    316.43902   -1555.7995    478.95745    345.57076    466.49049    37625.902 
  415800    303.08243   -1548.8772    504.84938    318.34636    431.62255    37625.902 
  415900    291.10807   -1587.2451    485.51177    206.81537    373.22568    37625.902 
  416000     301.6469   -1587.6028    483.18602    251.50456    553.73946    37625.902 
  416100    307.54611   -1564.3971     493.1862    311.22782    5.6631116    37625.902 
  416200    299.35676   -1592.1485    496.36326    249.84186     424.9657    37625.902 
  416300    301.15586   -1576.7799    498.14826    275.08251    -119.5319    37625.902 
  416400    298.59598   -1536.7766    495.20485    300.63555    165.36119    37625.902 
  416500    298.75763    -1551.917     486.6393    277.65623   -449.20632    37625.902 
  416600    294.97972   -1523.7843    489.57243     291.7401   -113.41216    37625.902 
  416700    300.84608   -1526.9781    505.76513     331.1087   -470.40058    37625.902 
  416800    286.51685   -1529.8981    480.90616    238.91898   -479.61898    37625.902 
  416900    295.98334   -1488.5275     495.8584    337.79424   -314.88094    37625.902 
  417000    299.47146   -1488.8561    495.24084    352.52739    254.40227    37625.902 
  417100    307.36625   -1482.2244    516.88966     416.2955   -297.66749    37625.902 
  417200    290.73786   -1487.1223    508.74089    328.50319    317.14062    37625.902 
  417300    300.33068   -1525.7738    475.03334    299.26441    457.92707    37625.902 
  417400    302.54533   -1549.6155    505.27571    315.62013    292.74058    37625.902 
  417500    299.77914   -1507.7529    484.32948    324.10224    12.862164    37625.902 
  417600    309.18693   -1512.4041     491.3061    368.71624     311.7307    37625.902 
  417700    307.13967   -1531.8143    486.31405    335.11149    687.38562    37625.902 
  417800    310.97279   -1502.8761    540.60465    435.57042    293.71615    37625.902 
  417900    300.59067   -1491.1447    517.28952    377.31835   -21.790182    37625.902 
  418000    297.38998   -1488.0834     505.6896    354.39242    275.27211    37625.902 
  418100    308.56102   -1546.2292    482.98633    323.75792   -123.85305    37625.902 
  418200    292.45774   -1541.2964    491.15575    264.47494    8.2564819    37625.902 
  418300    300.88643   -1523.9946    506.05888    334.56731   -255.30658    37625.902 
  418400    296.85928   -1530.5555    489.27964    293.12487    250.45685    37625.902 
  418500    288.20494   -1540.8308    470.55607    225.22425    374.91666    37625.902 
  418600     291.4961   -1488.4614    500.87776    322.70928    163.50476    37625.902 
  418700    298.20518   -1500.8622    529.06483    368.65331    598.09581    37625.902 
  418800    307.16952   -1526.9991    467.21717      320.964    421.94225    37625.902 
  418900    306.26052   -1548.6961    502.02227    329.98603    192.52952    37625.902 
  419000    294.98291   -1547.1365    495.71237    274.54219   -131.87595    37625.902 
  419100    299.91558   -1535.0039     520.0992    333.23432    97.793626    37625.902 
  419200     290.9448   -1537.3118    483.88419     254.3872   -256.34518    37625.902 
  419300    292.02542   -1518.5358    498.65185    292.78829   -697.76992    37625.902 
  419400    302.33331    -1548.021    490.99382    301.97971   -51.097455    37625.902 
  419500    300.44606   -1521.9062     501.5557    330.17309   -477.42406    37625.902 
  419600    301.06618   -1563.7421    485.42662     274.9955   -652.91046    37625.902 
  419700    296.54786   -1550.5613    486.47992    268.91955   -244.89239    37625.902 
  419800    291.98258   -1520.4083    494.22852     286.2999   -361.00936    37625.902 
  419900    290.91863   -1543.3303    485.13208    249.49888    263.57355    37625.902 
  420000    302.08688   -1562.1963    536.90285    332.60565    555.83802    37625.902 
  420100    291.37168    -1552.738    509.07046    266.06612     177.3734    37625.902 
  420200    312.79781   -1549.7704    526.67148    382.94646   -50.122791    37625.902 
  420300    298.66909   -1543.7557    487.92549    286.70576    441.60867    37625.902 
  420400    295.80728   -1573.4168    488.38871    244.64387    219.05431    37625.902 
  420500    301.41002   -1546.5906    489.36134    297.62738   -166.43322    37625.902 
  420600    296.61566   -1525.0204    464.34135    272.62656   -279.55014    37625.902 
  420700    303.96312   -1526.8478    498.20117    337.68635   -329.65058    37625.902 
  420800    305.15812   -1508.5157    482.77133    345.96014   -437.54576    37625.902 
  420900    292.28613     -1570.08    508.01416    251.77833   -1035.0781    37625.902 
  421000     302.5127   -1524.6895    491.79656    326.92028   -752.27922    37625.902 
  421100    300.49867   -1556.0287    501.95101     296.6823   -879.17446    37625.902 
  421200     292.5049    -1558.041    491.23335    248.01983    -280.7223    37625.902 
  421300    301.09672   -1547.5288     516.4974    322.41692   -621.65675    37625.902 
  421400    304.70779   -1520.6049    492.94742    342.02275   -27.834156    37625.902 
  421500    295.96515   -1494.8916    521.44213    356.93213   -633.89376    37625.902 
  421600    292.53254   -1506.4405    495.88512    304.39636   -216.01154    37625.902 
  421700    313.34974   -1519.3396    499.39671    388.58344   -70.769772    37625.902 
  421800    302.82579   -1516.2988    505.43517     350.3569   -460.89212    37625.902 
  421900    298.37211   -1561.2063     506.1079    286.10264    84.564277    37625.902 
  422000    289.28345   -1556.7209    480.18337    223.80942   -670.53841    37625.902 
  422100    289.42983   -1529.8855    500.13322    271.25267   -808.26321    37625.902 
  422200    298.69551   -1515.2643    483.41291    310.80338   -173.94977    37625.902 
  422300    281.40128    -1517.812    475.85608    222.96014   -84.177337    37625.902 
  422400    295.51528   -1517.8626    500.29392    310.79065    220.37039    37625.902 
  422500    292.55885   -1575.1913    496.58845    236.46722     525.8544    37625.902 
  422600    297.85239   -1537.6682    471.97582    273.17246    740.61397    37625.902 
  422700    301.11048    -1568.835    475.78102    260.45621    735.33975    37625.902 
  422800    294.79417    -1545.757    478.29991    257.66085    760.61973    37625.902 
  422900    308.19621   -1575.1858    481.93894    292.11411   -38.811652    37625.902 
  423000     303.8156   -1583.7996    477.19031    259.06053   -14.637093    37625.902 
  423100    304.33387   -1614.2326    467.90421    221.67112   -130.42402    37625.902 
  423200    302.19409   -1558.7802    460.01244    259.61332    31.947205    37625.902 
  423300    306.38515   -1573.6911    503.21743     306.7464    -231.3674    37625.902 
  423400    290.68271   -1538.9998    486.07496    253.71178   -120.84846    37625.902 
  423500    299.62677   -1569.6426    468.85577    246.05391   -672.77126    37625.902 
  423600    300.67282    -1594.796    469.48334    226.23021   -423.06242    37625.902 
  423700    303.23453   -1545.0045    505.85256    323.90593   -362.24394    37625.902 
  423800    302.86878   -1544.9479     486.2049    302.67078    -346.3006    37625.902 
  423900    296.57159   -1505.9597    496.57005    323.71794   -181.81345    37625.902 
  424000    297.66675   -1553.1421    500.33873    285.22696    701.19745    37625.902 
  424100    292.81014   -1522.3934    503.06242    296.86864    547.67073    37625.902 
  424200    302.34459   -1503.3077    512.68357    368.43347    533.10944    37625.902 
  424300    305.53076   -1494.8939    481.51797    360.00366    621.72959    37625.902 
  424400    297.11215   -1506.7164    492.52238    321.34337    1020.4809    37625.902 
  424500    298.16035   -1538.2183    495.30677    297.33763    931.17576    37625.902 
  424600    300.60872   -1508.8301     515.4915    357.91606    566.35472    37625.902 
  424700    301.78529   -1479.7289    507.90426    384.71879    555.10878    37625.902 
  424800    305.61382    -1509.821    514.19395    378.12595    617.25077    37625.902 
  424900    296.97534   -1531.0719    517.94615    321.79672    776.89308    37625.902 
  425000    293.81267   -1557.7539    487.99388    250.94603    205.23087    37625.902 
  425100     304.5724   -1520.8545    504.30641    352.52359    92.273327    37625.902 
  425200       303.23   -1509.9353     498.7957    351.89796   -426.86728    37625.902 
  425300    307.20452   -1526.0086     470.6324    325.52701   -304.13392    37625.902 
  425400    300.99307   -1550.0732    488.55857    291.46771    143.84046    37625.902 
  425500    293.19582   -1477.2662     505.3557    346.02275    29.466478    37625.902 
  425600     310.0099   -1486.3601    483.85383    391.00731   -189.91943    37625.902 
  425700    292.46197   -1490.5327    480.62619    304.72803   -1.3134363    37625.902 
  425800    305.75523   -1514.9794    501.40041    360.80956   -11.973777    37625.902 
  425900    303.56502   -1564.5436    497.53276    297.53261    243.34401    37625.902 
  426000    300.50769   -1536.9959    462.28102    276.08569   -12.410531    37625.902 
  426100    307.50251   -1522.7914    490.57025    350.02156    101.02038    37625.902 
  426200    296.12539   -1527.1568    507.66067    311.60574   -164.72034    37625.902 
  426300    294.13646   -1533.9486    476.37308      264.586   -376.49468    37625.902 
  426400    288.61159   -1532.2538    503.10804    268.18115   -482.86435    37625.902 
  426500    294.22938   -1549.2429    473.88475    247.22098   -442.88889    37625.902 
  426600     301.3801   -1558.8167    493.70845    289.61391    332.26278    37625.902 
  426700    302.54847   -1618.5296    474.09346    215.53785   -291.76741    37625.902 
  426800    299.56825   -1570.9724    485.09117    260.69652   -33.784788    37625.902 
  426900    306.23613   -1549.6111    505.83028    332.76946   -423.15632    37625.902 
  427000    306.09469   -1585.4561     452.9312     243.3896   -38.605492    37625.902 
  427100    295.77424   -1566.2331    503.20541    266.49571   -158.50548    37625.902 
  427200    300.54878   -1537.5781    489.64641    303.05355   -96.287238    37625.902 
  427300    299.89857   -1567.9136    482.55754     262.7065   -31.526035    37625.902 
  427400    309.56938   -1570.0658    478.85018    300.31783   -151.54279    37625.902 
  427500    302.85755   -1580.4034    476.03658    256.99646    531.78131    37625.902 
  427600    304.73885   -1590.6961    494.01597    273.13978    678.73024    37625.902 
  427700     297.5629   -1586.9218    475.58881    226.23059    579.48473    37625.902 
  427800    303.68311   -1601.3395     478.5217    242.25644    409.64512    37625.902 
  427900    294.37178   -1594.4788    466.26664     195.0071    182.41369    37625.902 
  428000    307.45883   -1587.8358    475.93977     270.1503   -178.12769    37625.902 
  428100    304.15639   -1562.2495    488.27354    293.22576   -522.31045    37625.902 
  428200    298.69323   -1592.0748    481.30716    231.87681   -150.02982    37625.902 
  428300    303.88332   -1628.4984    481.42846    218.90431    325.63005    37625.902 
  428400    297.22662    -1633.739    498.80016    201.11315   -288.27359    37625.902 
  428500    300.00581   -1637.1052     502.1583    213.59773   -15.410381    37625.902 
  428600    308.23818   -1596.4298    470.99394     260.1137   -152.81937    37625.902 
  428700    299.47133   -1615.4738    471.89528    202.56356      224.816    37625.902 
  428800    304.95769   -1637.0987    446.71474    180.41967     645.5906    37625.902 
  428900    301.90509   -1631.9819    493.81041    218.91049   -77.427934    37625.902 
  429000    306.25686   -1630.5012    456.00196    202.14418    502.98504    37625.902 
  429100    299.17685   -1638.3996    462.97204    169.39081    169.80588    37625.902 
  429200    301.95736   -1652.4949    478.61276    183.43474     97.47942    37625.902 
  429300    299.25102   -1589.0035     469.4577    225.60596    119.55133    37625.902 
  429400    293.19115   -1566.9232    471.13413    222.12323   -84.792753    37625.902 
  429500    304.80384   -1588.2403    478.13031    260.00203   -1163.8869    37625.902 
  429600    302.49787   -1583.1844    471.82036    248.38253   -853.59937    37625.902 
  429700    290.87427   -1553.1091    514.00354    268.39221   -1334.4378    37625.902 
  429800      296.883   -1558.9134    472.76922    248.36315   -605.85454    37625.902 
  429900    293.31664   -1524.5633    478.78265     272.6957   -714.30311    37625.902 
  430000    298.15984   -1510.7224     495.4855    325.00991   -526.40262    37625.902 
  430100    285.10807   -1540.0373    475.71259    217.25363   -86.058903    37625.902 
  430200    297.91848   -1515.9309    508.20066    331.43165    441.72485    37625.902 
  430300    293.78801    -1525.581    504.16795    299.18209    379.14532    37625.902 
  430400    296.63415   -1540.9468    508.91946    301.36145    529.54671    37625.902 
  430500    304.95715   -1533.1623    491.11324    328.75204    918.27224    37625.902 
  430600    301.66876   -1522.7469    491.39764    324.67037    238.98726    37625.902 
  430700    293.09115   -1541.0711    499.13057    275.52229    339.85571    37625.902 
  430800    290.06163   -1531.5371    499.98466    272.29245    40.249421    37625.902 
  430900    306.41573   -1544.3119    513.23388    346.27954    98.232646    37625.902 
  431000    300.04567   -1546.5726    483.01514    285.16631   -29.440743    37625.902 
  431100    296.01954   -1535.9785    459.52378    254.17128   -490.81975    37625.902 
  431200    307.34936   -1533.5517    488.58014    336.58272   -108.84099    37625.902 
  431300    313.12514   -1567.0241    489.46631    329.95894   -354.74481    37625.902 
  431400     296.9577   -1522.7382    491.13667    303.24163    154.67338    37625.902 
  431500     312.9562   -1588.3676     498.2291    316.61891    406.55342    37625.902 
  431600    306.01323   -1510.5904    520.83304    385.79098    514.83965    37625.902 
  431700    290.32755   -1516.0407    495.88571    284.88521    620.21263    37625.902 
  431800    303.47765   -1508.8376    516.02007    371.33321     62.34336    37625.902 
  431900    302.34173    -1549.513    470.56868    280.10032     100.8383    37625.902 
  432000    298.14966   -1510.7448    480.93952    310.39579    685.90412    37625.902 
  432100    303.16368   -1539.3157    505.44848     328.8722   -216.17653    37625.902 
  432200    304.89715   -1517.1046    472.74838    326.17517   -171.88581    37625.902 
  432300    311.62642   -1521.2254    498.39303    377.94761   -241.34368    37625.902 
  432400    303.20423   -1539.0061    487.07193    310.98752   -301.43538    37625.902 
  432500    300.63989   -1504.8007     498.4844    345.07854   -534.10309    37625.902 
  432600    298.45836   -1506.0088    474.89921    310.47909   -346.43123    37625.902 
  432700    300.47042   -1486.7606    525.24018     389.1126    77.090182    37625.902 
  432800    283.99446   -1530.0948    526.33397    272.81173   -351.12325    37625.902 
  432900    306.63908   -1510.5873    485.52599    353.30019   -531.54583    37625.902 
  433000    303.38257   -1527.7944    506.41353    342.34247   -373.67551    37625.902 
  433100    300.23772   -1524.5351    483.62831    308.68027   -561.79289    37625.902 
  433200     296.6292   -1536.8492    478.15709    274.67436    56.117826    37625.902 
  433300    298.18656   -1538.0583    498.30506    300.61367    463.81323    37625.902 
  433400    300.08665    -1561.505    493.63947     281.0424    266.48794    37625.902 
  433500    306.53646   -1517.0291    504.65169    365.52288    393.70045    37625.902 
  433600    302.60403   -1534.1378    487.49815    313.58408     208.9431    37625.902 
  433700    298.58192   -1523.5881    485.68449    304.24048   -62.216603    37625.902 
  433800    296.60697   -1585.1901    486.00331    234.07978    614.84992    37625.902 
  433900    311.20851   -1540.7695    505.71513    363.84701    320.29049    37625.902 
  434000     292.1496   -1586.3688    494.61481    221.47647   -181.28556    37625.902 
  434100    293.95115   -1548.6559     507.7183     280.3909   -198.70261    37625.902 
  434200    299.69606    -1549.068    508.07272    306.15699    165.40992    37625.902 
  434300    306.28193   -1531.2664    513.01349    358.50324   -591.21086    37625.902 
  434400    316.71846    -1521.824    492.87048    394.71549   -238.48245    37625.902 
  434500    297.55379    -1548.758     494.8246    283.58918   -475.81355    37625.902 
  434600    300.12537   -1591.9242    491.51807    248.67584     29.20131    37625.902 
  434700    300.72465   -1597.2673     511.5887    266.09727   -257.71645    37625.902 
  434800    293.38034   -1578.9878    478.23597    218.01088   -54.651949    37625.902 
  434900    303.88416   -1563.0822    500.98286    303.87867   -17.331683    37625.902 
  435000    300.33896   -1568.7248    505.85285    287.17011    458.88759    37625.902 
  435100    296.56405   -1572.9401    462.24382    222.37732   -287.79639    37625.902 
  435200     301.1089   -1558.5785    491.29841    286.22298   -1388.4699    37625.902 
  435300    301.44203   -1553.7459    496.50317    297.75773   -1181.6689    37625.902 
  435400    300.90278   -1541.9537     475.5069    286.12975   -739.15213    37625.902 
  435500    292.04438   -1523.9018    491.62859    280.48425   -903.50456    37625.902 
  435600    294.97746   -1550.9158    468.84062    243.86666   -610.18706    37625.902 
  435700    275.43191   -1526.7969    509.81003    221.09656   -475.55919    37625.902 
  435800      292.492   -1510.3815    491.07415     295.4622   -365.43364    37625.902 
  435900    303.23215   -1499.1694     510.7923    374.67005   -605.68161    37625.902 
  436000    297.77293   -1537.7831    492.20321    292.92773   -432.71906    37625.902 
  436100    294.74899   -1517.3699    478.52092    286.06594    281.13356    37625.902 
  436200    295.83355    -1529.727    505.22091    305.28397   -234.30412    37625.902 
  436300    294.30169   -1567.8717     484.6879    239.72042    157.69205    37625.902 
  436400    291.27232    -1513.955     499.1655    294.49753    50.903025    37625.902 
  436500    300.19952   -1541.7193     489.1608    296.85683    566.72084    37625.902 
  436600     306.6347   -1493.1607    515.39834    400.57945     243.0162    37625.902 
  436700    306.23874   -1510.6862    498.00625    363.88203    363.74084    37625.902 
  436800    301.18401    -1535.347    503.28792    321.78158   -161.76227    37625.902 
  436900    307.94529   -1503.8686    482.74155    363.10596   -510.08339    37625.902 
  437000     292.7678   -1561.4684    503.06603    257.60692   -452.18186    37625.902 
  437100    308.63369   -1498.2123    480.35486    369.46997   -715.87858    37625.902 
  437200    296.55383   -1524.1261    496.13447    305.03604   -439.77987    37625.902 
  437300    292.32584   -1519.0152    483.15712    278.16452   -738.94802    37625.902 
  437400    299.61864   -1507.6932    499.04459    338.15557   -942.08166    37625.902 
  437500    292.18477   -1486.6868    491.45212    318.15384   -570.44709    37625.902 
  437600    299.60012   -1502.5242    522.72287    366.91959    204.19673    37625.902 
  437700     299.8293   -1495.1202    480.82275     333.4537    29.053767    37625.902 
  437800    312.03376   -1526.1136    490.10225    366.59963    143.13323    37625.902 
  437900    306.97887    -1509.335    487.45897    358.01284    227.04417    37625.902 
  438000     304.0276   -1520.9753    497.84374    343.49126    105.62914    37625.902 
  438100    298.57862   -1547.3233    517.73203    312.53802   -53.307642    37625.902 
  438200    299.45399   -1566.2795    487.76914    267.55374   -286.94039    37625.902 
  438300    300.76388   -1568.9867    470.82673    253.79217   -43.689789    37625.902 
  438400     294.8576   -1568.0866    488.21304    245.52945   -567.63148    37625.902 
  438500    301.79505   -1533.5704    490.66498    313.68197    287.25906    37625.902 
  438600    295.45633   -1567.0319    495.77989    256.84243   -1.8479559    37625.902 
  438700    308.66914   -1519.3725    508.93277    377.04706    449.27288    37625.902 
  438800    291.74009    -1537.604    455.16433    228.94997   -69.648741    37625.902 
  438900    300.70118   -1552.7889      508.421    307.30245    112.76881    37625.902 
  439000    298.45449    -1545.511    466.98064     263.0409     75.85973    37625.902 
  439100    304.18721   -1578.9638    487.12871    275.50517    -52.31593    37625.902 
  439200     291.2426   -1515.9565    495.93062    289.12752    521.77369    37625.902 
  439300    302.35735   -1535.4436    525.19881    348.87013    157.52366    37625.902 
  439400    297.53887   -1529.7544    461.35207    269.05316   -171.88173    37625.902 
  439500    297.48168   -1535.5204    500.11259    301.79067   -222.03185    37625.902 
  439600    305.76312   -1482.0775    493.03159    385.37807    211.00202    37625.902 
  439700    290.30959   -1512.4185    520.63409    313.17514     101.6056    37625.902 
  439800    309.82758   -1491.9163    496.79428    397.57196   -18.301931    37625.902 
  439900    298.36616   -1486.7799    514.56743    368.96174    56.560117    37625.902 
  440000    298.18862   -1522.3235    504.31842    322.37109     41.56179    37625.902 
  440100    301.14945   -1543.9954    495.34554    305.03548   -705.22125    37625.902 
  440200    298.05367   -1532.8165    502.75586    309.70899   -354.67609    37625.902 
  440300    300.00196   -1499.2466    479.43363     328.7143   -414.72217    37625.902 
  440400    311.13955   -1503.2529    474.15621    369.49476   -1114.4156    37625.902 
  440500    302.42509   -1453.6868    510.83067    416.56322   -735.82859    37625.902 
  440600    298.50824   -1514.8529    491.13002    318.09002   -1027.8519    37625.902 
  440700      290.975   -1492.2067     508.4442      324.188   -792.90617    37625.902 
  440800    296.38302   -1538.3506    486.42367    280.33299   -381.63188    37625.902 
  440900    299.90782    -1509.409    478.55854    317.25365   -39.437182    37625.902 
  441000    297.40114   -1536.9719    502.23968    302.10422   -408.09146    37625.902 
  441100    298.05127   -1549.1993    493.56461     284.1241   -243.71385    37625.902 
  441200    296.19165   -1566.1898    469.17947    234.38938   -55.670344    37625.902 
  441300    305.23973   -1587.0346    463.29578    248.33249    298.70775    37625.902 
  441400    298.76227   -1536.9806    497.77555    303.74976   -203.00036    37625.902 
  441500    304.62964   -1546.1171    465.51659    288.72846   -262.56419    37625.902 
  441600    298.47053   -1591.7049    480.88732    230.82581    204.62216    37625.902 
  441700    296.98521   -1577.9639    493.96231    250.96524    51.016704    37625.902 
  441800     304.8119   -1537.6262    504.55652    337.07853    158.67031    37625.902 
  441900     295.2772   -1520.7269    469.53871    276.10101   -143.57741    37625.902 
  442000    301.86176   -1525.8347    493.16527    324.21774     444.2001    37625.902 
  442100    292.44047   -1491.9527    479.75083    302.33603    81.796926    37625.902 
  442200    307.49862   -1512.2158     493.7742    363.78366    398.02179    37625.902 
  442300    298.65922   -1481.0683    502.35007    363.77331    186.73059    37625.902 
  442400      295.522   -1502.3667     488.5888    314.61167   -289.41755    37625.902 
  442500    301.06536   -1471.6452    503.03449    384.69658   -317.42201    37625.902 
  442600    298.41494   -1499.1274    496.40883    338.67501   -929.84148    37625.902 
  442700    309.06134   -1486.9048    499.67709    402.02204    118.37037    37625.902 
  442800    306.95873   -1479.3138    494.73215    395.21673   -175.38499    37625.902 
  442900    299.41276   -1473.7646    499.31984    371.43407    421.25486    37625.902 
  443000    290.36072   -1523.0836    486.42524    268.53094    69.707936    37625.902 
  443100    296.26701   -1511.4202    492.82585    313.14412    513.94841    37625.902 
  443200    303.29252   -1473.3021     479.0435    369.05994   -116.01112    37625.902 
  443300    295.03353   -1487.8829    517.33805    355.64902   -180.61478    37625.902 
  443400    308.42481   -1499.6848    482.05013    368.75385   -173.90938    37625.902 
  443500    287.19661   -1517.0722    495.88519    269.77944    154.98842    37625.902 
  443600    298.82394   -1527.1807    504.85968    320.91099    194.89636    37625.902 
  443700    297.27759   -1546.5086    485.27104    275.04351    234.46274    37625.902 
  443800    303.07051   -1548.0793    462.48778    276.72906     364.8854    37625.902 
  443900    291.20939   -1524.7857    470.21917    254.43755    102.37035    37625.902 
  444000    294.09443   -1538.5829    487.89043     271.2801   -130.41853    37625.902 
  444100    304.60639   -1516.8169    491.86482     344.2724    51.953986    37625.902 
  444200    302.29249   -1522.9843    509.06282    344.90189     229.3974    37625.902 
  444300    298.51352   -1494.9747    477.87591    324.73786    909.14417    37625.902 
  444400    303.11864   -1522.1276    501.66857    342.07788    785.49194    37625.902 
  444500    293.34529   -1529.8057     495.2744    284.07379    472.53544    37625.902 
  444600    304.71944   -1491.6715    494.44801    372.50921    672.13787    37625.902 
  444700    294.41585   -1528.2899    483.87604    279.00352    561.37451    37625.902 
  444800       305.58   -1537.0044    505.63772    342.23421    432.48902    37625.902 
  444900    293.05812   -1517.9494    463.04562    262.41046    331.57446    37625.902 
  445000    297.60546   -1525.7023    495.60509    307.65761    806.80945    37625.902 
  445100    296.43041   -1531.5599    486.27789    287.19092    62.464343    37625.902 
  445200    299.50525   -1488.2012    497.30551    355.39883   -100.33211    37625.902 
  445300    294.03583   -1522.0035    487.13933    286.84502    205.25136    37625.902 
  445400     292.3427   -1502.8433    459.03775     270.2929    532.96116    37625.902 
  445500    310.76974    -1528.527    494.81857    363.22071    664.30857    37625.902 
  445600    299.19398   -1531.7351    477.42023     290.5805    240.89552    37625.902 
  445700     291.1959   -1495.4505    472.85607    286.34909   -396.24076    37625.902 
  445800    297.67942   -1536.0089    483.24458      285.323    144.62617    37625.902 
  445900    301.66264   -1532.5691    489.51675    312.93976    255.61607    37625.902 
  446000    292.79055   -1569.6194    494.23187    240.72401    391.17095    37625.902 
  446100    309.01781    -1546.182    470.60062    313.47275    394.17445    37625.902 
  446200    299.15089   -1540.2502    488.50579    292.95721    568.68013    37625.902 
  446300    302.31322   -1538.4669    476.96124    297.41091     132.7334    37625.902 
  446400    289.94446   -1524.2864    507.81459    286.84635    142.16171    37625.902 
  446500    300.86296   -1525.2826    469.56283     296.6778    370.60148    37625.902 
  446600    300.59398   -1538.1597    505.01288    318.04161    242.14815    37625.902 
  446700    307.25729   -1524.3506    489.83496    346.62475    570.40024    37625.902 
  446800    303.15912   -1542.2269    493.74021    314.23219     154.2331    37625.902 
  446900    291.80607   -1515.2211    497.56653    294.03166    52.195775    37625.902 
  447000    297.56497   -1542.3328    473.46316    268.70327    626.23675    37625.902 
  447100    302.14767   -1514.1779    488.24828    332.24277    377.61009    37625.902 
  447200    294.53391   -1515.7326    484.83798    293.05342   -124.01979    37625.902 
  447300    291.02251   -1463.2093    524.86832    369.82313   -161.74523    37625.902 
  447400    300.80049    -1524.129    481.76231    309.75003    -509.3746    37625.902 
  447500    297.09431   -1519.6422    499.44094    315.25599   -711.65987    37625.902 
  447600    306.42918   -1508.0161    476.47979    345.88168   -443.66987    37625.902 
  447700    293.71993    -1511.139    490.64801    299.79812   -674.89876    37625.902 
  447800    307.16141   -1512.9313    470.94615    338.72425   -494.99103    37625.902 
  447900    305.35161   -1554.6973    521.67671    339.55364    410.09064    37625.902 
  448000    303.23291   -1525.2092    453.12653    290.96796    483.27113    37625.902 
  448100    288.61137   -1505.4236    520.07449    311.97673    16.294843    37625.902 
  448200    302.43698   -1561.5176    466.83901    264.79433    162.10497    37625.902 
  448300    308.27088   -1527.8563    501.17093    359.01121    134.27426    37625.902 
  448400    293.23517    -1540.242    515.86667    293.73475    507.24776    37625.902 
  448500    298.48924   -1527.8441    495.41511    309.29851    -156.5459    37625.902 
  448600    298.55772   -1513.6188    466.76634    295.18287    196.26653    37625.902 
  448700    294.20547   -1544.8141    500.15392    277.81149    373.95441    37625.902 
  448800     298.7135   -1546.4659    468.25776    264.52742   -161.20194    37625.902 
  448900    308.80804   -1529.9243    493.37747     351.5643    374.41821    37625.902 
  449000    292.50434   -1515.9422    487.19359    286.07636     463.6176    37625.902 
  449100    296.40423   -1501.1535    489.90212    321.10395    -60.87932    37625.902 
  449200    295.62378   -1536.6504    504.25882     296.4555    22.798175    37625.902 
  449300    302.73148   -1490.8036    486.21389    356.20689    -326.3847    37625.902 
  449400    311.67108   -1499.6914    490.04758    391.33688   -601.75611    37625.902 
  449500    297.69242   -1478.5355    507.55764     367.1679   -714.92244    37625.902 
  449600    301.30948   -1505.2413      462.536     311.6994   -931.16262    37625.902 
  449700    304.98648   -1497.4382    510.60437    384.09917    153.66421    37625.902 
  449800    297.48849   -1488.6226    490.14416    338.75059    335.84226    37625.902 
  449900    305.20059   -1497.0599    511.33098    386.16655   -305.90328    37625.902 
  450000    295.48518   -1514.7443    495.85517    309.33497   -692.39954    37625.902 
  450100    306.37067   -1562.1293    481.66369    296.68939    89.961926    37625.902 
  450200    306.24448   -1534.4899    490.18889    332.28679    288.46257    37625.902 
  450300     297.3401    -1527.171    488.10869    297.49974   -46.209058    37625.902 
  450400     294.5182   -1516.7241    492.10176    299.25512   -144.78019    37625.902 
  450500    306.42114   -1510.8488    495.77059    362.30371   -450.40027    37625.902 
  450600    294.29179   -1519.5261    482.43143    285.76508   -519.98897    37625.902 
  450700     302.1936   -1513.8266    489.40878    333.96107   -325.52929    37625.902 
  450800    303.93048   -1511.5143    463.16973    317.84168    109.37576    37625.902 
  450900    308.76002   -1521.8134    477.13272    343.21464   -563.22211    37625.902 
  451000    292.03928   -1571.0548    483.85744    225.53716   -429.28626    37625.902 
  451100    301.22295   -1498.0503    491.09636    347.06172   -255.39477    37625.902 
  451200    300.48503   -1537.4097    468.89196    282.18097   -56.696037    37625.902 
  451300    303.78936   -1538.9045     467.3768    294.02412    34.921266    37625.902 
  451400    306.86249   -1552.7376    456.62573    283.25392    486.14205    37625.902 
  451500    300.75491   -1515.7426    495.47566    331.64491    774.23079    37625.902 
  451600    298.93741   -1518.7199    512.93778    337.95997     697.2453    37625.902 
  451700    304.03669   -1524.6573    473.87594    315.88227    208.48464    37625.902 
  451800    292.20229   -1550.3295    484.62492    247.76265   -63.955329    37625.902 
  451900    304.61103   -1547.9754    455.51046    276.78036    76.089239    37625.902 
  452000    294.75536   -1611.3401    455.50477    169.10815   -147.42299    37625.902 
  452100     297.0063   -1590.2696    478.93608    223.72809   -428.69634    37625.902 
  452200     303.6048   -1541.1041    473.76612    297.38433    26.731431    37625.902 
  452300    298.77243   -1568.1863    462.45862    237.27277   -42.652996    37625.902 
  452400    300.74759   -1567.7372    456.63891    240.78062     593.7119    37625.902 
  452500    306.99396   -1580.4275    494.83884    294.36804    198.30311    37625.902 
  452600    293.48688   -1536.4583    496.11938     278.9027    21.540665    37625.902 
  452700    297.55859     -1538.77    485.02956    283.80368    81.833335    37625.902 
  452800    310.59424   -1511.1985     465.6429    350.58463   -466.58292    37625.902 
  452900    298.38615   -1493.1616    509.56625     357.6688   -894.17442    37625.902 
  453000    310.73405   -1496.8956    480.95583    380.82894   -194.06263    37625.902 
  453100    298.53796   -1496.7535    475.31432    320.50729   -160.91004    37625.902 
  453200    300.30889   -1443.6855    502.48475    408.70614   -313.82168    37625.902 
  453300    296.51862   -1425.9891    503.51601    410.39636   -282.84347    37625.902 
  453400    286.64474   -1420.7519    469.29523    337.02908   -399.68534    37625.902 
  453500    309.95836   -1441.6176    511.45904    463.12339   -177.16139    37625.902 
  453600    296.59083   -1445.8152    505.87621      393.255   -612.07852    37625.902 
  453700     291.4088   -1443.2761    492.51314     359.1375   -153.94667    37625.902 
  453800    309.58567   -1475.6675    466.53805    382.47717    127.80662    37625.902 
  453900    306.98441   -1525.5707    505.96674    360.30985    524.11571    37625.902 
  454000    311.99593   -1505.7056    471.24295    367.97823    461.24122    37625.902 
  454100    296.42934   -1487.5306    511.45708    356.39458    828.63504    37625.902 
  454200    303.02744   -1495.9214    460.54935    326.75492    608.68477    37625.902 
  454300    295.86525   -1479.2409    457.57246    308.26412    133.69566    37625.902 
  454400    286.52679   -1443.9403    523.46136     367.4766   -460.73424    37625.902 
  454500    312.95638   -1462.1153    489.72706    434.36997   -711.22712    37625.902 
  454600    292.99703   -1460.8441    513.90488    370.10051   -598.27249    37625.902 
  454700    296.04936   -1480.9607    483.19391    332.99332   -378.98503    37625.902 
  454800    313.07259   -1443.1053    497.61417    461.78938     245.8225    37625.902 
  454900    308.97715   -1486.5501    512.37351    414.69469    243.68836    37625.902 
  455000    293.64114   -1445.7847    500.07897    374.22927    194.73076    37625.902 
  455100    289.82745   -1438.1086    488.80074    353.48435    476.22867    37625.902 
  455200    292.92252   -1414.8101    504.59369    406.48833    366.38494    37625.902 
  455300    301.03164     -1450.67    491.64719    394.13298    773.56976    37625.902 
  455400    304.58477   -1467.4513    466.21859    367.89453   -3.3550086    37625.902 
  455500    313.98451   -1485.4063    487.39653    413.36989    14.408285    37625.902 
  455600    302.94889   -1488.2947     476.9435    350.42276    136.82435    37625.902 
  455700    292.58128   -1541.3159    453.06978    226.92472   -343.74767    37625.902 
  455800    308.03206   -1505.6235    473.16121    352.16078   -569.45019    37625.902 
  455900    298.22311   -1502.3135     480.4349    318.65267   -290.46688    37625.902 
  456000    295.66182   -1487.7215     495.4325    336.72904    108.26184    37625.902 
  456100    291.55804   -1486.6066    464.65247    288.61718    42.029574    37625.902 
  456200    291.81681   -1504.0331    509.76866     317.4701    216.12985    37625.902 
  456300    293.61829   -1466.2638    479.36953    332.93798   -147.68036    37625.902 
  456400    310.14872   -1452.9986    495.26175    436.40076    121.54892    37625.902 
  456500    307.35367   -1476.4372    486.31078     391.4472    277.65767    37625.902 
  456600    298.93683   -1481.5604    457.59963    319.77864    328.80301    37625.902 
  456700    300.54697   -1480.3625    484.93065    355.54532    110.94518    37625.902 
  456800    294.76085   -1476.6723    483.53676    331.83259    272.22597    37625.902 
  456900    301.17693   -1516.4407    480.18686    317.55502     125.7418    37625.902 
  457000    292.10937   -1469.3288    488.02331    331.74416    131.05501    37625.902 
  457100    302.12057    -1426.316    496.01369    427.74831    189.02699    37625.902 
  457200    301.26583   -1485.4277    501.66765    370.44843     236.3688    37625.902 
  457300    293.45842   -1482.4341    500.29312    336.97271    187.12991    37625.902 
  457400    307.90318   -1507.5285    490.08753    366.60275    377.96939    37625.902 
  457500    299.57135   -1441.0338     485.8285    391.38633   -48.109256    37625.902 
  457600     299.4293   -1409.2794    521.52766    458.20137   -308.58073    37625.902 
  457700    296.51971   -1442.3017    510.91731    401.48991   -410.70353    37625.902 
  457800     313.6441   -1451.5681    546.83081    505.11232   -172.29072    37625.902 
  457900    312.26304   -1508.0559    508.68049    404.26616    78.757953    37625.902 
  458000    295.15481   -1516.8477    480.83663    290.72797   -193.17362    37625.902 
  458100     303.6367   -1493.0002    484.57396    356.43942   -437.33701    37625.902 
  458200     293.9152   -1528.6579    455.02703    247.53601   -20.472955    37625.902 
  458300    294.15033   -1480.7843    516.18165    357.62116    -543.5545    37625.902 
  458400      307.161   -1466.9143    478.30023    392.09351   -243.73558    37625.902 
  458500    305.00165    -1488.971    491.97442    374.00466   -374.60563    37625.902 
  458600    296.86459   -1441.6867    498.01809    390.75598   -339.67988    37625.902 
  458700    298.84902   -1513.4379    483.32422    313.23105   -837.02728    37625.902 
  458800    293.27427   -1500.4605    477.47213    295.29754   -558.95728    37625.902 
  458900    299.07683   -1479.3961    474.19409    339.16679      134.305    37625.902 
  459000    297.03164   -1519.7094    495.79641    311.26254   -199.89721    37625.902 
  459100    290.27434   -1524.1402      479.722    260.38288   -506.43383    37625.902 
  459200     300.4231   -1446.7538    497.27141    400.93791   -134.84493    37625.902 
  459300    291.30629   -1499.0887     482.4401    292.79111    333.58983    37625.902 
  459400    308.08861   -1549.1362    482.17917    317.92024    127.66492    37625.902 
  459500    298.22781   -1512.0123     461.2249      289.765    695.28856    37625.902 
  459600    301.59423   -1521.9091    492.58426    326.35973    621.66935    37625.902 
  459700    301.93889   -1541.1201    493.77779    309.89162    299.38832    37625.902 
  459800    298.74508   -1558.5005     461.5684    245.94538   -148.10684    37625.902 
  459900    297.30948    -1572.462    465.82015    229.78257    217.14261    37625.902 
  460000    301.67711   -1534.7499    485.15818    306.46547    156.68047    37625.902 
  460100    300.71089   -1554.3015    462.41423    259.82672    26.484301    37625.902 
  460200    290.31567    -1526.119    475.71448    254.58228    291.71682    37625.902 
  460300    302.92104   -1551.8171     478.7133    288.54493   -74.963198    37625.902 
  460400    285.65579   -1554.5479    475.55255      205.045   -156.29918    37625.902 
  460500    293.06061   -1559.1183    473.03676    231.24398    -560.9455    37625.902 
  460600    303.61469   -1503.5465    477.58999    338.81022   -470.98611    37625.902 
  460700    300.01227   -1509.6153    487.43905    326.39737   -377.27172    37625.902 
  460800    303.92654   -1518.5501    481.69248    329.31089   -55.766452    37625.902 
  460900    303.38602   -1519.4829    507.38276    351.63871    -619.6458    37625.902 
  461000    288.99395    -1546.897    505.29138    257.43994    44.597556    37625.902 
  461100    314.28805   -1515.6328    448.33273    345.44411     301.8009    37625.902 
  461200    305.16601   -1528.3958    511.10284    354.44701   -696.48947    37625.902 
  461300     298.1945   -1521.0227    476.80311    296.18304   -164.62052    37625.902 
  461400    302.54847   -1543.6823    492.71858    309.01031   -157.95842    37625.902 
  461500    298.08488    -1522.673    479.97844    297.21527    -130.5717    37625.902 
  461600    293.02436   -1527.2375    489.21426    279.13926   -273.56554    37625.902 
  461700    295.55766   -1547.1316    476.66429    258.08262    147.21804    37625.902 
  461800    301.46618   -1526.3811    464.60282    293.33072   -459.33387    37625.902 
  461900    296.85989    -1559.762    501.74956    276.39102    -160.8616    37625.902 
  462000    294.47658   -1503.6862     505.9897    325.99385    219.97534    37625.902 
  462100    299.24637   -1514.6721    458.62881    289.08754    75.907387    37625.902 
  462200    308.65689   -1539.3388    486.01967    334.11262    314.71866    37625.902 
  462300    296.30074   -1542.0706    467.07088    256.89033   -16.044834    37625.902 
  462400    299.79695   -1513.6888    478.90111    312.81805    694.14299    37625.902 
  462500    304.68819   -1533.9747    482.76593    318.38335    396.06264    37625.902 
  462600    308.92636   -1526.9798    495.19568    356.85893    870.07101    37625.902 
  462700     303.1081   -1535.7994    470.45386    297.14399    632.94295    37625.902 
  462800    297.52388   -1523.8002     501.8128    315.40076    638.21312    37625.902 
  462900    302.78016    -1548.263    499.12335    311.87582    923.11164    37625.902 
  463000    295.38125    -1550.284    476.28449    253.75742     451.5387    37625.902 
  463100    302.86577   -1498.0028    488.90808    352.30558    282.32638    37625.902 
  463200    298.70606   -1542.5787    508.40324    308.52662    108.51812    37625.902 
  463300    289.68278   -1557.5994    460.61892    205.16146   -234.99035    37625.902 
  463400    306.40139   -1562.8294    467.76319    282.22692   -223.11498    37625.902 
  463500    297.85595   -1538.4412    503.36071    303.80032    79.259887    37625.902 
  463600    295.90963   -1548.5845    484.78064    266.32811    52.349939    37625.902 
  463700    291.20866   -1521.6717     489.2467    276.57589    320.23586    37625.902 
  463800    292.07035   -1536.0684    483.12205    259.92784   -17.975261    37625.902 
  463900    305.62989   -1502.3639    491.27111    362.73238   -184.59481    37625.902 
  464000     300.6722   -1534.6507    471.41972     288.3091   -369.39435    37625.902 
  464100    289.33181   -1576.6093    480.88545    204.84047   -385.92722    37625.902 
  464200    288.51906   -1518.7565    483.72634    261.88079   -515.37823    37625.902 
  464300    285.54301   -1549.8494    494.66856    228.35254   -576.45046    37625.902 
  464400    298.10218   -1574.0643     479.7952    245.71858   -731.44243    37625.902 
  464500    298.97246   -1582.8959    467.49263    228.49631   -300.26326    37625.902 
  464600    310.41781   -1610.5339    493.70374    278.51695     243.1037    37625.902 
  464700     302.0732   -1607.0239    467.98761     218.8014    113.83847    37625.902 
  464800    307.02486   -1573.8068    467.79662    274.08545   -164.96649    37625.902 
  464900    297.49381   -1540.7328    508.03701    304.55718    608.46119    37625.902 
  465000    294.45913   -1589.8201    467.95947    201.75129     12.42913    37625.902 
  465100    296.63596   -1569.9892    482.25866    245.66631    92.520356    37625.902 
  465200    302.97402   -1571.6545    499.66275    289.89512    383.62962    37625.902 
  465300    307.96716   -1555.1702    483.50138    312.66253    504.78972    37625.902 
  465400    296.84397   -1557.5142    504.21903    281.03676    285.82928    37625.902 
  465500    289.39032   -1554.5077    498.72331    245.04296    1256.9277    37625.902 
  465600    300.55756   -1528.5133    494.74831     317.2597     862.6457    37625.902 
  465700    310.02228   -1543.7645     499.2488    349.05353    533.68822    37625.902 
  465800    309.62299    -1494.772    528.80778    425.81015    869.41033    37625.902 
  465900    305.20002   -1551.2707    489.85319    310.47534    181.77043    37625.902 
  466000    289.65069   -1563.3072    497.29627     235.9867   -179.55309    37625.902 
  466100    298.08304   -1549.8728    476.71915     266.7479    54.336966    37625.902 
  466200    299.29089   -1557.3459    510.52535    298.51038   -273.95464    37625.902 
  466300    293.03436   -1537.1467    492.89609    272.95684   -84.267742    37625.902 
  466400    308.56964   -1529.1338    470.70632    328.61203   -760.37679    37625.902 
  466500    296.84012   -1534.2285    481.04201    281.12811   -655.12502    37625.902 
  466600    297.81217   -1539.3597    505.91918    305.24349   -766.96623    37625.902 
  466700    289.13705   -1496.5186    514.23194    317.40224   -747.07214    37625.902 
  466800    295.32987   -1513.9927    477.84057    291.37385    -833.5167    37625.902 
  466900    303.01314   -1525.0299     506.1454    343.17824   -432.67991    37625.902 
  467000    288.68749   -1526.0595    455.53799     227.1465    79.393841    37625.902 
  467100     296.7421   -1500.1849    530.62169     364.3108    5.6906496    37625.902 
  467200    302.46113   -1515.5161    488.05839    332.12368    45.615359    37625.902 
  467300    294.48728   -1511.4438     487.4566    299.75123   -495.02572    37625.902 
  467400    296.84858   -1489.1256    520.08953    365.31654    574.77798    37625.902 
  467500    292.71261   -1531.8739    515.75972    299.64701   -312.86742    37625.902 
  467600    303.03649   -1517.2244    491.31185    336.25511    123.21054    37625.902 
  467700    315.43603   -1528.9097    484.40386    373.39849    -87.03107    37625.902 
  467800    295.58025   -1548.6552    471.91979    251.91598   -403.45846    37625.902 
  467900    295.56173    -1585.572    473.88841    216.88456    167.85744    37625.902 
  468000    304.56922    -1530.921    512.47173    350.60817   -267.66056    37625.902 
  468100    296.05793   -1523.9212    476.47704    283.35446   -467.30457    37625.902 
  468200     297.0562   -1560.8456    494.39322    268.83349   -86.998023    37625.902 
  468300    290.73372   -1553.9299    491.53256    244.46867     619.9413    37625.902 
  468400    298.16183   -1543.6986    497.22041    293.77758    562.51307    37625.902 
  468500    290.42014   -1566.0673     518.6762    258.06532    555.48152    37625.902 
  468600    301.46421   -1544.5787    504.87187    315.39335    437.98773    37625.902 
  468700    299.31171    -1513.481    504.79735    336.74084    544.91587    37625.902 
  468800    295.70201   -1534.9366    494.11623    288.37838    500.72002    37625.902 
  468900    297.89545   -1553.3157    506.91103     292.6537    413.26345    37625.902 
  469000    303.00877   -1533.5509    512.33725    340.82939   -515.87799    37625.902 
  469100     294.9338   -1547.4087    489.15202    267.48886   -542.47861    37625.902 
  469200    304.13567   -1577.1835    477.84852    267.77361   -105.37846    37625.902 
  469300    306.85766   -1532.7752    512.06179    358.63071    231.67562    37625.902 
  469400    300.42727   -1509.0706    493.30019    334.66867    146.93703    37625.902 
  469500     295.5441   -1558.7794    495.16422    264.87376    110.94318    37625.902 
  469600    299.35624   -1497.0251    474.05633    322.65598    317.89296    37625.902 
  469700    301.20444   -1510.6768    488.63323    331.88887   -39.035789    37625.902 
  469800    293.61588   -1540.4357    495.67149    275.05726   -126.62152    37625.902 
  469900    303.00616   -1504.6966    484.97048    342.30525   -181.43343    37625.902 
  470000    284.44752   -1497.2883    492.44818    273.76897   -425.52757    37625.902 
  470100    311.73992   -1476.1794     525.5874    450.69817    -37.65468    37625.902 
  470200    304.27028   -1488.1981    485.26408    364.77962   -129.60451    37625.902 
  470300    300.94092   -1510.8867    495.06021    336.92148    327.25002    37625.902 
  470400    306.98363   -1532.3059    474.74881    322.35326   -241.19547    37625.902 
  470500    314.74218   -1536.6833    485.63724    363.73947    222.69219    37625.902 
  470600    303.73788   -1529.4753    487.12367    322.96883   -389.84032    37625.902 
  470700     302.1407   -1528.6076    468.03399    297.56745   -188.01868    37625.902 
  470800    300.77005    -1498.254    494.00419    347.73005    77.262933    37625.902 
  470900    302.82393   -1502.4199    502.27891    361.07125    294.88882    37625.902 
  471000    312.02602    -1547.576      487.376    342.37614    199.44577    37625.902 
  471100    296.43417   -1549.5906    490.21378    273.11301    293.63205    37625.902 
  471200    308.33119   -1544.2053    490.20799    331.97039   -484.56113    37625.902 
  471300    296.45802   -1481.5529    497.22029    348.26446   -404.04647    37625.902 
  471400    311.90206   -1522.9992    492.97048    371.99022   -399.13791    37625.902 
  471500    291.45417   -1510.5054    497.74318    297.34218   -375.75387    37625.902 
  471600    309.23031     -1522.94    490.35598    357.42529   -683.42977    37625.902 
  471700    298.53851   -1518.0328    492.02136    315.93759   -827.63022    37625.902 
  471800    303.77765   -1528.6235    479.54434    316.42008   -170.05033    37625.902 
  471900    304.27352   -1536.5702    472.77232    303.93031   -303.19985    37625.902 
  472000    298.63299   -1542.8895    520.76309    320.24724    73.703798    37625.902 
  472100    306.16088   -1567.5722    474.06698    282.70674    313.76689    37625.902 
  472200    305.67193   -1535.1006    471.85004    310.76357    446.16255    37625.902 
  472300    309.20243   -1547.3453    476.67768    319.21634    277.45833    37625.902 
  472400    310.48107   -1543.6374    488.17683    340.17096    37.009889    37625.902 
  472500    298.53754   -1546.5387    484.39075    279.79665    401.47722    37625.902 
  472600    302.19618   -1581.4268    498.88861     275.8522    377.72672    37625.902 
  472700    304.73777   -1517.6375    494.92432    347.10188   -187.61351    37625.902 
  472800     301.4498    -1514.678     476.5265    316.88393    237.09085    37625.902 
  472900    295.79483   -1506.6375    481.50721    304.48564   -19.422783    37625.902 
  473000    290.98766    -1524.664    504.31354    287.65702   -17.893232    37625.902 
  473100    291.25224   -1572.5136    482.39759    219.08076     344.4182    37625.902 
  473200    293.84718   -1529.1399    499.29761    291.01887    76.681606    37625.902 
  473300    306.06044   -1520.6134    471.50972    326.65681    320.50033    37625.902 
  473400    293.66198   -1499.2962    503.29492    324.02741     152.4776    37625.902 
  473500    294.70647    -1530.928    485.80957    279.60532    359.88327    37625.902 
  473600    291.66885   -1530.2923     486.8379    267.61504    251.47147    37625.902 
  473700    307.67476   -1516.2156    485.58824    352.38957    271.87437    37625.902 
  473800    298.29543   -1551.8658    489.87768    278.86823   -213.25717    37625.902 
  473900    308.99956   -1499.5516    494.71611    384.13653   -475.52766    37625.902 
  474000    293.56091   -1546.6646    485.17581    258.08552   -77.401198    37625.902 
  474100     307.4815   -1496.8163    486.75102    372.08298     537.2892    37625.902 
  474200    299.43109   -1526.0177    493.21786    313.16141     360.4756    37625.902 
  474300    296.81321   -1509.1613    502.14159    327.17397    644.26697    37625.902 
  474400    310.79154   -1565.8772     471.6773    302.82717    445.34072    37625.902 
  474500    294.78948   -1564.3183    457.09957    217.87811   -49.399734    37625.902 
  474600    293.85235   -1542.6835    507.00912       285.21    76.420872    37625.902 
  474700    294.60649   -1538.8491     490.8061    276.23133   -18.853988    37625.902 
  474800      306.975   -1557.9181    473.74119    295.69464     456.3045    37625.902 
  474900    309.35534   -1527.6954    495.85206    358.72797   -82.117785    37625.902 
  475000    296.51722   -1552.8543    496.00913    276.01802      342.548    37625.902 
  475100    292.90275   -1527.9466    510.43317    299.10251   -242.54169    37625.902 
  475200      295.268   -1544.9035    469.38238    251.72672   -398.59194    37625.902 
  475300    295.12263   -1557.7167    464.76744    233.64508   -243.39476    37625.902 
  475400    303.23475   -1573.0549    478.07062    268.07456   -284.64879    37625.902 
  475500    291.13615   -1534.2652    488.81895    263.22869    423.94498    37625.902 
  475600    298.32735   -1534.1202    506.42636    313.30594    559.96787    37625.902 
  475700    297.13094   -1497.9188    488.02447     325.7275    49.446971    37625.902 
  475800     297.2902    -1515.086    501.11068    322.36247    36.440055    37625.902 
  475900    292.59064   -1523.1427    480.65394    272.72416    464.29665    37625.902 
  476000    302.01679    -1529.141    464.84288    293.28597    284.52133    37625.902 
  476100    298.44448   -1524.5443    471.51607    288.49808   -105.06211    37625.902 
  476200    300.22694   -1538.3094    459.21739    270.44651    303.07771    37625.902 
  476300    301.72082   -1557.3128     482.6719    281.61273    6.3551865    37625.902 
  476400    302.09865   -1493.4732    467.97805    332.45686   -559.49287    37625.902 
  476500     295.3421   -1529.7492    478.74751    276.57923   -128.07962    37625.902 
  476600      290.602   -1529.3486     492.9817    269.90691   -60.151489    37625.902 
  476700    297.09248   -1536.1999    460.93959    260.18863   -427.77125    37625.902 
  476800    292.84406   -1553.5471     480.3525    243.15748   -708.91896    37625.902 
  476900    301.08402   -1531.8429    458.32997    279.87825   -569.31001    37625.902 
  477000    297.48838   -1548.1668    484.88878    273.95055   -129.59339    37625.902 
  477100    307.59158   -1562.7507    460.41737    280.30975   -135.37753    37625.902 
  477200    309.26885   -1531.7574    476.13571     334.5608   -41.338601    37625.902 
  477300    293.75483   -1526.6337    486.02342    279.83575   -429.14106    37625.902 
  477400    290.83624   -1564.2009    484.27612    227.40203   -308.24425    37625.902 
  477500    288.34632   -1542.3939     481.0026    234.74317    189.91059    37625.902 
  477600    294.88318   -1556.4816    475.77867    244.81516   -231.20445    37625.902 
  477700    297.46347   -1518.4792    472.54244    291.17985   -59.221237    37625.902 
  477800    301.79397   -1576.0129    469.05066    249.62019    117.83538    37625.902 
  477900    305.87056   -1543.0792    510.12777    341.95554    246.54159    37625.902 
  478000    300.03796   -1526.5426    454.68968    276.83616   -398.74914    37625.902 
  478100    302.27238   -1538.4029    474.68368     295.0137    220.98087    37625.902 
  478200    308.30005   -1544.3308    469.75794    311.25481   -240.88479    37625.902 
  478300    297.37717   -1531.4948    479.12574     284.3596    558.47527    37625.902 
  478400    302.00601   -1561.4916    483.52733    279.57132     305.8753    37625.902 
  478500     306.9824   -1504.3103    474.26695    349.86146      430.517    37625.902 
  478600    303.48688   -1542.7558    457.77701    279.21339    330.66184    37625.902 
  478700     301.2748   -1518.5552    464.41783    300.11143    190.72124    37625.902 
  478800    303.74213    -1525.101    463.15398    303.39258   -115.73889    37625.902 
  478900    293.53556   -1482.5082    473.04046    309.99264   -609.19697    37625.902 
  479000    298.96281   -1457.7589     485.7178    371.81513   -465.65852    37625.902 
  479100    305.76416    -1514.829    482.67134    342.27103   -61.105711    37625.902 
  479200    297.68972   -1504.0873    464.03311    298.07943   -249.66326    37625.902 
  479300    309.59578   -1549.3623    497.78463    340.07443   -311.09734    37625.902 
  479400    290.94478   -1506.9864    443.48679    244.31507    447.06017    37625.902 
  479500     298.9413   -1541.3238     476.5808    279.01655     600.2766    37625.902 
  479600    299.97985   -1519.6141    502.72974    331.54354     429.5504    37625.902 
  479700    301.90468   -1512.3055    472.29267     317.0673    239.61077    37625.902 
  479800    306.74982    -1535.846     451.2876    294.30095    331.18938    37625.902 
  479900    290.64995   -1502.4767    467.16847    271.18117    439.01975    37625.902 
  480000    297.28461   -1491.1336    460.98215    306.16119    499.86653    37625.902 
  480100    307.56255   -1508.2036    497.24359    371.55258    378.75393    37625.902 
  480200    294.30569   -1469.9093    495.42767    348.44063    738.77143    37625.902 
  480300    300.02315    -1477.575    483.81061    354.85819    294.90106    37625.902 
  480400    310.31893   -1513.8141    471.21221    352.30084    626.95018    37625.902 
  480500    295.85387    -1522.645    498.43743    305.67374    352.67296    37625.902 
  480600    293.65331   -1521.4367     465.9183    264.47131    461.69526    37625.902 
  480700    298.48654   -1515.2968    492.12621    318.54475   -435.65286    37625.902 
  480800    305.61917   -1532.4344    495.19407    336.53665   -596.62684    37625.902 
  480900    311.44953   -1508.3098    477.79587     369.4709    148.51122    37625.902 
  481000    292.73215   -1500.1147    487.64599    303.38026     182.0872    37625.902 
  481100    294.78108   -1495.0197    484.54278    314.58218    151.15182    37625.902 
  481200    297.38954   -1497.3156    472.41077    311.87944    118.62576    37625.902 
  481300    296.59532    -1505.436    492.13877    319.91694    105.17142    37625.902 
  481400    297.11591   -1508.0743    489.67164    317.15163    96.846861    37625.902 
  481500    289.90425   -1486.7207    466.28836    282.70516   -2.2166154    37625.902 
  481600    298.75056   -1461.6584    476.88769     358.1315    422.85907    37625.902 
  481700    302.99385    -1483.643    493.19213    371.52509    726.07937    37625.902 
  481800    302.47307   -1514.8465    477.27915    322.06771    1039.2243    37625.902 
  481900     290.7406   -1549.6223    483.53555    240.81009    1302.9466    37625.902 
  482000    301.76543   -1525.6301    495.72756    326.55161    767.99812    37625.902 
  482100    302.75934   -1504.8846    478.24243    334.27974    940.79008    37625.902 
  482200     298.4314   -1476.7848    497.61065    362.29338    287.76832    37625.902 
  482300    300.72913   -1479.3241    468.20239    340.67425   -144.52653    37625.902 
  482400    294.80454   -1511.9455    505.48144    318.70053    155.87171    37625.902 
  482500    309.35205   -1474.0321     483.6542    400.17857     99.75895    37625.902 
  482600    304.39967   -1501.3374    481.27058     348.2285   -68.964155    37625.902 
  482700    297.89635   -1457.9796    474.49548    355.57838    165.35827    37625.902 
  482800    301.41544    -1478.998    504.02273    379.90566    332.35653    37625.902 
  482900    306.05953   -1456.8452    489.60652    408.51775    481.11269    37625.902 
  483000    292.75612   -1495.4279    466.96327    287.49219    174.37423    37625.902 
  483100    295.07311   -1474.8599    494.94767    346.45961    257.14774    37625.902 
  483200    304.80813   -1487.0508    484.25948    367.33993    122.83181    37625.902 
  483300    291.65982   -1524.0549    475.97659    262.95047   -166.10347    37625.902 
  483400     301.0033   -1525.4754    499.35056    326.90349    31.582314    37625.902 
  483500    304.74106   -1507.6712    483.02196    345.18057   -183.35677    37625.902 
  483600    294.30771   -1502.8704      489.192     309.2529   -14.149019    37625.902 
  483700    305.06527   -1557.7877    436.99294    250.49246    281.13357    37625.902 
  483800     298.8813    -1505.745    468.89369    306.63854    640.54836    37625.902 
  483900    305.22126   -1522.3789    494.03127    343.64067    1162.8938    37625.902 
  484000    296.41253    -1559.216    483.61057    256.78712    1288.3572    37625.902 
  484100       298.44   -1515.4872    469.46296    295.48194    790.18403    37625.902 
  484200     291.1284   -1549.0132    451.15155     210.7784    219.83266    37625.902 
  484300    289.91229    -1514.407    513.42766    302.19423    171.85467    37625.902 
  484400    304.18035   -1534.1486    461.65754     294.8184    75.599535    37625.902 
  484500    287.93226    -1524.621    491.78905    261.44127   -344.73563    37625.902 
  484600    293.24802   -1549.2382    480.18764    249.11733   -421.17429    37625.902 
  484700    309.32333    -1538.588    474.65854    326.49793   -166.42481    37625.902 
  484800    304.67172   -1566.4124    456.59585    259.70157   -238.53947    37625.902 
  484900    288.93764   -1534.3506    472.79564    237.23755    135.65255    37625.902 
  485000    300.57201    -1534.394    482.41991    299.11559   -5.9943543    37625.902 
  485100    295.58891   -1540.2743    479.27637    267.69244    211.55873    37625.902 
  485200    297.43175   -1495.8001    511.32361    352.49757    -114.6465    37625.902 
  485300    302.47178   -1530.9975     473.0407    301.67246   -63.145171    37625.902 
  485400    308.36181   -1527.5261    500.00473    358.58399    374.26088    37625.902 
  485500     302.4893   -1573.6811    466.61077    252.63774    22.294364    37625.902 
  485600    291.43198   -1529.7121    505.57756    285.87013    14.572165    37625.902 
  485700    311.62824   -1525.3649    512.20519    387.62835   -120.37977    37625.902 
  485800    307.80946   -1505.1715    473.81249     352.2635   -309.84549    37625.902 
  485900    301.76332   -1521.3793    493.17259    328.23799    -136.8009    37625.902 
  486000    303.77353   -1523.7829    453.72013      295.418     34.30316    37625.902 
  486100    302.43974   -1525.8279    466.42653    300.08387    414.84215    37625.902 
  486200    293.57533   -1486.8669    475.12196    307.89425     645.5137    37625.902 
  486300    290.75416   -1468.1122    505.15841    344.00409    466.09823    37625.902 
  486400    299.29823   -1491.3708    489.35588    343.34904     772.1787    37625.902 
  486500    298.55569   -1554.5485    470.07821     257.5559    169.34066    37625.902 
  486600     307.3515    -1561.984    493.54221    313.12209   -38.685567    37625.902 
  486700    287.78598   -1542.0124    486.81671    238.42006    608.84854    37625.902 
  486800    293.54583   -1528.7718      477.131    267.86583    666.40259    37625.902 
  486900    298.82211   -1550.2206    507.34351    300.34672    910.30661    37625.902 
  487000    288.31688   -1567.7718    510.59785    238.82818    315.14065    37625.902 
  487100    300.37078   -1550.3928    452.77121    252.56357    419.91578    37625.902 
  487200    291.78756   -1544.8984    516.12424    282.82894    977.87633    37625.902 
  487300    299.73417   -1527.4752    496.84261    316.69093    737.71542    37625.902 
  487400    297.98297   -1555.4844    487.03937    271.00671   -47.841273    37625.902 
  487500    299.10746   -1527.1277    468.23096    285.60973    247.34131    37625.902 
  487600    303.39686    -1545.619    461.18504    279.35357   -394.72369    37625.902 
  487700    305.17461   -1543.0583    475.97566    304.69607   -51.708489    37625.902 
  487800    302.79027   -1527.2992    493.41526    327.17699    23.419608    37625.902 
  487900    288.25231   -1502.7232    493.84588     286.8346   -191.12749    37625.902 
  488000     302.6309   -1492.0983    488.92379    357.17004   -399.35361    37625.902 
  488100    311.46186   -1550.5936    486.05332    335.50001   -292.90135    37625.902 
  488200    307.70582   -1525.3882     473.1956    330.96399    32.233341    37625.902 
  488300    307.17308   -1498.3101    505.94604    388.39783    299.80066    37625.902 
  488400    302.65223    -1528.088    466.78844    299.14087    443.36627    37625.902 
  488500    293.83915   -1532.8593    495.68437    283.65012    419.71537    37625.902 
  488600    293.32449   -1545.8369    470.37345    243.04813   -319.53286    37625.902 
  488700    303.80732   -1545.1045    529.23258    349.76066     440.7403    37625.902 
  488800    284.79294   -1536.0996    460.82227    204.88441    654.32254    37625.902 
  488900    298.92636   -1552.3259    528.62251    319.98905   -165.04045    37625.902 
  489000    297.22284   -1527.9692    487.34909    295.41487   -2.2716061    37625.902 
  489100    292.25488   -1532.9556    494.55689    275.30503    136.45918    37625.902 
  489200       296.69   -1531.7205    477.14594    279.06525    429.58987    37625.902 
  489300    305.12366   -1586.2852     511.3968    296.66126    298.08218    37625.902 
  489400    302.12189   -1580.5446    482.28799    259.79995   -533.01655    37625.902 
  489500    311.09612   -1550.7157    511.33916    359.01971    136.88161    37625.902 
  489600    309.32737   -1533.2848    490.45733    347.61809   -417.58232    37625.902 
  489700    294.18067   -1525.1727    469.81761    267.00515   -635.78298    37625.902 
  489800    301.16666   -1525.7805    452.21078    280.19294   -328.41455    37625.902 
  489900    299.51689   -1523.1409    479.22536    302.43133   -406.28338    37625.902 
  490000    299.43149   -1504.8978    506.06484    347.13007   -225.44681    37625.902 
  490100    297.52343   -1546.8266    483.10429    273.66376   -155.70295    37625.902 
  490200    303.26753   -1567.0142    470.87217    267.06415   -188.26838    37625.902 
  490300    296.31965   -1508.4666     492.0616     315.5701    87.437385    37625.902 
  490400    307.51388   -1561.6515    469.81477    290.45709    241.10438    37625.902 
  490500    314.15528   -1551.3098    470.01028    330.84776    20.227083    37625.902 
  490600    298.69001   -1512.2933    499.03595    329.37258    328.42179    37625.902 
  490700    302.95736   -1518.4516    443.78789    287.14826    71.256966    37625.902 
  490800    309.85215   -1470.8227    510.17547    432.15728   -408.59439    37625.902 
  490900    300.33154   -1556.0811    455.91866    249.84628   -599.57057    37625.902 
  491000    312.20423   -1514.2347     501.1084    390.25093   -406.62875    37625.902 
  491100    300.09031   -1503.9426    487.29716      332.279    -559.4513    37625.902 
  491200     291.9865   -1519.9806    491.85911    284.37587   -271.73246    37625.902 
  491300     297.9131   -1528.6124    474.64306    285.16839     296.9779    37625.902 
  491400    296.11536   -1512.9452    497.88241    315.99396    398.83267    37625.902 
  491500    302.60541   -1514.4129    496.56302    342.38005    135.28127    37625.902 
  491600    298.91848   -1515.3884    475.50076    303.76938    571.85193    37625.902 
  491700    292.57292   -1522.6863    503.00482     295.4518   -48.693045    37625.902 
  491800     304.0831   -1520.8586    485.65796    331.67159   -201.43262    37625.902 
  491900     314.2625   -1512.0185     492.6993    393.31007    584.32372    37625.902 
  492000    315.13894   -1497.6562    494.12706    413.03979     115.9898    37625.902 
  492100    294.92908   -1481.1226     503.9137    348.51551   -236.83472    37625.902 
  492200    300.55614   -1511.5351    478.01609    317.49939   -213.28119    37625.902 
  492300    310.04594   -1506.0775    472.81244    360.41058   -639.36157    37625.902 
  492400    303.84104   -1505.6097    476.97246    337.14692   -780.09849    37625.902 
  492500    303.62069   -1469.7059    488.89487    383.98266   -199.66746    37625.902 
  492600    315.95044    -1493.466     502.8806    429.63128   -369.06579    37625.902 
  492700    298.82905   -1507.5037     499.2328    334.98404    -3.401352    37625.902 
  492800     295.1843    -1535.345    483.75132    275.27787    156.43737    37625.902 
  492900    295.60799   -1511.6676    489.49075     306.5993   -247.07555    37625.902 
  493000     292.9119   -1462.9461    517.55546    371.26636   -821.31279    37625.902 
  493100    302.32539   -1466.8727    490.25783    382.35631   -784.75704    37625.902 
  493200    305.22185   -1483.6306    470.57007    358.93046   -926.64048    37625.902 
  493300    302.71223   -1504.1724    467.68648    324.22416   -598.00706    37625.902 
  493400    300.24649   -1495.1315    483.23473    337.72971   -359.39207    37625.902 
  493500    309.62448   -1489.0141    479.06766    381.83466   -347.31681    37625.902 
  493600    301.89657   -1466.0359    481.01306    372.02083   -101.08763    37625.902 
  493700    293.58129   -1461.4095    504.00584    362.26232    -74.18795    37625.902 
  493800    286.39053   -1490.2037    496.18299    293.32237   -318.66853    37625.902 
  493900    294.56814   -1498.9312    484.87731    310.04799   -675.16916    37625.902 
  494000      309.267   -1467.3479    475.66638    398.49267    153.23353    37625.902 
  494100    300.01023   -1512.8363    456.31489    292.04306   -474.96305    37625.902 
  494200     292.4402   -1504.2533    504.42304    314.70645     -369.114    37625.902 
  494300    301.25029   -1548.6372    475.47608    280.97751   -232.76438    37625.902 
  494400     302.6075   -1489.0485    495.00108    366.19189   -25.180783    37625.902 
  494500    297.56611   -1489.2948    488.13525    336.41846    200.40424    37625.902 
  494600    303.82902   -1486.4799    478.80001     358.0503   -139.38706    37625.902 
  494700    294.97749   -1504.1119    484.43747    306.26754   -250.90915    37625.902 
  494800    300.67388   -1503.7823    469.55308    317.31834    36.035965    37625.902 
  494900    298.00181   -1454.8549    494.32132    379.00287   -342.11308    37625.902 
  495000    300.30802   -1501.1532    487.98001    336.72979    20.371524    37625.902 
  495100    306.73445   -1485.7474    468.83247    361.87531    747.42721    37625.902 
  495200    308.80965   -1470.3525    500.65786    418.42375    225.37296    37625.902 
  495300    299.64958   -1504.3507    489.06571     331.6583    203.38086    37625.902 
  495400    295.23781   -1514.7104    475.91177    288.31347   -402.52151    37625.902 
  495500    292.62028   -1475.3192    486.25826    326.28525   -31.789846    37625.902 
  495600    299.58313   -1466.8981    487.12111    366.86765    14.367167    37625.902 
  495700    292.23527   -1489.6872    467.56533    291.49366    11.500751    37625.902 
  495800    299.27368   -1502.3335    507.61891    350.53902    263.85373    37625.902 
  495900    301.40172   -1479.2404    487.21638    362.79523    -449.4721    37625.902 
  496000    304.58037   -1467.4405    458.81217    360.47917   -459.01816    37625.902 
  496100     302.8823   -1498.6013    482.45913    345.33241   -224.92896    37625.902 
  496200    298.01557   -1487.1047    478.60859    331.10223   -167.10748    37625.902 
  496300    298.69251   -1500.3841     471.2139    313.47098   -333.52839    37625.902 
  496400     297.2163   -1501.9153    497.44884    331.53913   -412.93557    37625.902 
  496500    302.86136   -1540.6259    474.99735    295.75195    157.41384    37625.902 
  496600    304.55969   -1509.1631     472.9081    332.75961    523.91338    37625.902 
  496700    302.78022   -1467.7123    492.31114    385.61455    -311.2804    37625.902 
  496800    294.70126   -1481.0553    508.31081     351.9558    869.52384    37625.902 
  496900    302.93771   -1511.8248     502.1383    352.03712    734.01906    37625.902 
  497000    307.72962   -1501.1005    453.71349    335.87651    135.10246    37625.902 
  497100    296.90254   -1476.4862    491.01827    349.12726    244.73304    37625.902 
  497200    301.80482   -1468.4354    473.74904    361.94489   -164.94842    37625.902 
  497300    311.32867   -1476.2561    491.11937    414.30481    319.65163    37625.902 
  497400    301.28454    -1514.107    465.14426    305.32979    467.24756    37625.902 
  497500    299.09834   -1514.5031    455.55703    285.51931    -536.4932    37625.902 
  497600    305.22094   -1489.2193    496.45386    379.22145   -174.19415    37625.902 
  497700    295.79948    -1515.926    485.89287    299.60367   -170.02275    37625.902 
  497800    316.18346   -1473.1763    507.21043    455.29824     308.8209    37625.902 
  497900    300.17972   -1523.4525    470.33059    296.20438    216.19119    37625.902 
  498000    288.28956   -1503.9112     476.3314    268.29952    114.92474    37625.902 
  498100     300.8408   -1491.7765    492.87932    353.40074     402.0979    37625.902 
  498200    308.63714    -1464.556    486.56379    409.35078    533.96355    37625.902 
  498300    304.15706   -1497.0248    466.27701    336.45689   -349.49907    37625.902 
  498400    299.55091   -1488.9708    463.88152    321.41056   -44.886536    37625.902 
  498500    303.22367   -1520.6237    463.45424    305.83964   -239.13789    37625.902 
  498600    300.23884   -1442.3321     483.4243    390.68425   -495.27304    37625.902 
  498700    298.32593   -1530.5885    488.74287    299.14779   -745.31211    37625.902 
  498800    294.75173   -1474.9992    462.79217    312.72019   -616.40107    37625.902 
  498900    296.94462   -1494.3335    485.70704    326.15789   -581.90135    37625.902 
  499000    299.33037   -1496.8083    472.70595    321.40608   -398.20429    37625.902 
  499100     299.2298   -1518.3352    481.78114    308.50231   -171.36474    37625.902 
  499200    301.38944   -1541.6604    455.66796    268.77163   -404.88037    37625.902 
  499300    310.32683   -1525.1521     473.5953    343.38142   -280.27715    37625.902 
  499400    301.36576   -1481.7812    475.51557    348.39205   -537.20782    37625.902 
  499500    300.93496   -1522.7044    466.30175    296.31851   -915.74873    37625.902 
  499600    297.41556   -1575.5044    485.64604    247.04289   -729.87561    37625.902 
  499700    297.81972   -1559.2746     439.2869    218.73027    -775.0721    37625.902 
  499800    283.92482   -1538.7888    476.49986    213.97064   -356.02356    37625.902 
  499900    303.36449   -1536.8003    478.89074    305.73244    183.14241    37625.902 
  500000    306.34547   -1568.1453    453.59384     262.4903   -87.683794    37625.902 
  500100    289.60141   -1491.0619    499.85046    310.56475    377.79117    37625.902 
  500200    293.07715    -1471.856    498.63313    344.17693    544.82391    37625.902 
  500300    299.66696   -1505.2597     488.7085    330.47026    1103.9191    37625.902 
  500400    298.92531   -1482.4005    484.60159    345.88873    410.67515    37625.902 
  500500    302.98784   -1476.7138    461.47786    346.71306    391.72649    37625.902 
  500600    299.97386   -1444.4438    485.21462    389.17173   -136.47135    37625.902 
  500700    294.18599   -1472.0203    488.47158    338.83546  -0.66037113    37625.902 
  500800    302.80339   -1456.3244    492.27784    397.07329   -36.825104    37625.902 
  500900    308.43368   -1509.8666    485.18272    361.74448    385.40088    37625.902 
  501000    307.74396   -1515.5344    492.24418    360.03781    671.01418    37625.902 
  501100    297.08307   -1531.9764    489.01693    292.44717    199.70008    37625.902 
  501200    297.74387   -1488.5169    484.22869     334.0888    282.99864    37625.902 
  501300    290.90516   -1477.7147    502.47867    332.40064    340.71431    37625.902 
  501400    300.31618   -1523.9364       499.93    325.93332    682.57433    37625.902 
  501500    295.18806   -1518.0303    458.39842    267.25663    86.738765    37625.902 
  501600    314.57021   -1545.0855    481.76024     350.6872    248.27392    37625.902 
  501700    289.23179   -1484.9193    498.67142    313.86682    78.808842    37625.902 
  501800    301.52629     -1494.45    481.85989     342.7891   -521.94392    37625.902 
  501900    302.51374   -1524.4721    464.69552    300.04133   -458.28644    37625.902 
  502000    302.83947   -1543.9076    456.22956    273.60396   -545.55446    37625.902 
  502100    290.50782    -1494.481    490.57975    301.94925   -376.26598    37625.902 
  502200    310.58539   -1510.7516     467.0398    352.38867   -692.85304    37625.902 
  502300    294.12049   -1514.2711    468.93768    276.75628   -108.96849    37625.902 
  502400    308.72928    -1478.562    500.90606    410.10116     70.02483    37625.902 
  502500    306.20918   -1490.6532    461.20154    346.97743    767.33087    37625.902 
  502600    296.85426   -1480.2404    482.97887     337.1167    581.02933    37625.902 
  502700     298.4772   -1472.4371    477.62838    346.86472    1011.6584    37625.902 
  502800    293.96857   -1500.8683    489.94483    310.48328    703.46449    37625.902 
  502900    299.40513   -1464.6494    496.35363    377.54868     289.3524    37625.902 
  503000    306.28378   -1471.5705    488.28891    393.48287    754.18712    37625.902 
  503100    304.14911   -1478.3569    470.43364    359.24576     363.8813    37625.902 
  503200    292.26524   -1482.3771    487.05956    318.43265    227.14583    37625.902 
  503300    307.07559   -1461.9783    471.99301    390.33833    287.93967    37625.902 
  503400    297.30272   -1493.6527    479.16288    321.90417   -268.72121    37625.902 
  503500    304.85785   -1500.0369    493.11389    363.43175    276.09026    37625.902 
  503600    288.40164   -1534.3954    477.26635    239.25406    54.386645    37625.902 
  503700     308.6937   -1508.8766    483.20884    361.92938    51.403485    37625.902 
  503800    301.60884   -1537.6662    473.40907    291.49318   -42.136834    37625.902 
  503900    298.21126    -1538.192    474.15872    276.44467    79.844755    37625.902 
  504000    301.03536   -1526.7592    476.67057    303.08387    612.16521    37625.902 
  504100    298.10909   -1545.4872    475.88936     270.4209    465.52259    37625.902 
  504200    303.18691   -1556.2181     454.0138    260.63956   -17.026659    37625.902 
  504300     294.9163   -1553.0524    446.92665     219.5412    401.53562    37625.902 
  504400    307.70016    -1564.234    448.36192    267.25905    554.13871    37625.902 
  504500    317.20964   -1533.6771    472.44474    364.64448    921.72794    37625.902 
  504600    314.08834   -1524.9697    475.65884    362.53557    1361.1086    37625.902 
  504700    299.51182   -1536.5253    480.19784    289.99656    1352.4637    37625.902 
  504800    295.86058   -1519.7334    467.66179    277.83988    1114.6288    37625.902 
  504900    295.48971   -1465.7292    477.15676    339.67196    1661.8321    37625.902 
  505000    294.70458   -1497.2865    497.72812    325.15682    1109.2216    37625.902 
  505100    307.39548   -1488.8995    488.39801    381.26012    938.17098    37625.902 
  505200    301.76318   -1482.0825    487.73488     362.0964    155.31475    37625.902 
  505300    309.50633   -1504.4332    463.77965    350.59646    544.22672    37625.902 
  505400    302.98965   -1517.0424    463.98433    308.89904   -65.366483    37625.902 
  505500    308.67989   -1506.0901    497.99789    379.44292    -199.1468    37625.902 
  505600    315.82252   -1531.9004     466.8479    354.58921   -51.509749    37625.902 
  505700    295.90287   -1533.6343    473.17928    269.64665   -72.832366    37625.902 
  505800    298.36452   -1506.3409    473.40259    308.22857    68.200648    37625.902 
  505900    303.82153   -1520.6233    471.72836    316.80157     218.9877    37625.902 
  506000    310.80306   -1495.5431    488.11287    389.64864    301.63187    37625.902 
  506100    292.64919   -1502.0751    484.07789    297.47892   -247.13488    37625.902 
  506200    291.87298   -1491.2441    473.18756     293.9305   -501.99976    37625.902 
  506300    300.66577   -1479.6897     480.2147    352.03615   -61.171627    37625.902 
  506400     298.9056   -1493.5393    453.93022    303.98996   -8.1073106    37625.902 
  506500    301.57129   -1505.1529    475.51596    325.94456    254.60295    37625.902 
  506600    296.28031    -1509.549    481.50384    303.75305    176.48226    37625.902 
  506700    297.90946   -1443.8453    450.51394    345.79004    521.97587    37625.902 
  506800     296.7622   -1507.1216    464.27193    291.11469   -169.10677    37625.902 
  506900     292.3604   -1446.7878    494.25407    361.64422   -161.21814    37625.902 
  507000    293.57192   -1452.6975    493.84141    360.76773   -656.44222    37625.902 
  507100    291.76025    -1473.972    486.28405    323.79228   -600.19917    37625.902 
  507200    309.53085   -1410.4716    480.83256    461.72115    -110.5846    37625.902 
  507300    312.20284   -1439.5559     484.1338    447.94887   -371.74894    37625.902 
  507400    306.17444   -1460.2827    462.72352    378.71374   -751.46676    37625.902 
  507500    293.38963   -1454.6749     481.3245    345.45412   -695.27605    37625.902 
  507600    299.12337   -1503.0391    459.77262    301.31143   -421.38853    37625.902 
  507700    287.72284   -1510.3599    449.08719    232.05922   -281.90001    37625.902 
  507800    304.27889   -1468.9498    488.00944    386.81195    220.27358    37625.902 
  507900     300.9364   -1486.7158    457.59726    323.60916    428.05755    37625.902 
  508000    296.81172   -1507.9636    502.19417    328.41757     464.1511    37625.902 
  508100     300.5721   -1498.4748    463.47635    316.09164     166.7278    37625.902 
  508200    301.97992   -1475.7909     471.0079    352.63536   -253.40669    37625.902 
  508300    308.42452   -1492.5382    462.95213    356.80119    -279.8913    37625.902 
  508400    299.45065   -1534.7417    438.04804    249.35542     418.4338    37625.902 
  508500    300.95963   -1543.5933    448.55825    257.79705   -1.7282503    37625.902 
  508600     297.9451   -1492.6578    470.91052    317.53426    510.50666    37625.902 
  508700    299.27875   -1491.2728    469.62657    323.63012    148.85835    37625.902 
  508800    291.09853   -1466.9368    469.63079    311.19977    13.731613    37625.902 
  508900    307.35806   -1490.9186    458.18668     348.8615   -6.1291749    37625.902 
  509000     297.7557   -1487.8754    462.09041    312.64518    209.98041    37625.902 
  509100    290.30552   -1492.5012    485.22536    297.66539    578.32077    37625.902 
  509200    308.19818   -1457.1631    480.41202    408.61869    341.71043    37625.902 
  509300    292.77791   -1470.2169    483.53389    329.37167    471.14605    37625.902 
  509400    296.18422    -1489.633    458.63363    300.36695   -159.66979    37625.902 
  509500    295.33452   -1489.2289    462.75755    301.07548    34.714644    37625.902 
  509600    312.15608   -1535.3046    472.98806    340.84428   -5.7040539    37625.902 
  509700    303.94761   -1548.4676    442.95687    260.75249     544.3607    37625.902 
  509800    299.83958   -1509.0486    465.29685    304.04563    699.75272    37625.902 
  509900    294.41614     -1552.14    474.84931    246.12799    610.22188    37625.902 
  510000    291.46511   -1542.1982    475.54195    243.49734    257.59337    37625.902 
  510100    303.80138   -1542.7147    471.28933    294.18052    520.52006    37625.902 
  510200    301.69574   -1522.9223    472.19346    305.41207    205.00598    37625.902 
  510300    297.55824   -1561.0182    480.21318    256.73756   -351.93392    37625.902 
  510400    288.09987   -1550.8969    447.43803     191.5678    182.56118    37625.902 
  510500    297.97065   -1546.2351     470.2128    263.37415     147.3085    37625.902 
  510600    289.04349    -1534.299    462.73528    227.70455    290.86778    37625.902 
  510700    296.98183   -1556.2774    467.85417     246.5284    273.80625    37625.902 
  510800    305.53304   -1559.7749    448.99891    262.61381    176.10821    37625.902 
  510900    298.07636   -1561.6029    498.00985    276.27853   -262.92878    37625.902 
  511000    296.32509   -1521.2225    471.08211    281.85917    -15.63041    37625.902 
  511100    303.38143   -1557.2641    473.47209    279.92617   -385.92405    37625.902 
  511200    288.37774   -1523.9624    466.82981    239.14309   -156.74691    37625.902 
  511300    300.25812   -1522.8244    449.79647    276.65083   -602.50882    37625.902 
  511400    298.60535   -1537.9735    453.07051    257.34642   -155.07267    37625.902 
  511500    297.48296   -1572.6775    459.33807    223.86478   -701.03337    37625.902 
  511600    288.27399   -1530.7172    496.18156    261.27367    144.03944    37625.902 
  511700    299.80849   -1512.1882    455.76049    291.22987    467.28929    37625.902 
  511800    303.26083   -1557.4333    472.18159    277.92436     556.9448    37625.902 
  511900    305.34097   -1513.0766    445.54351    304.99334    627.89247    37625.902 
  512000    298.29517   -1504.1081    457.48222    294.22929    99.638253    37625.902 
  512100    306.21671   -1545.1175    504.25813    335.60361    82.337271    37625.902 
  512200    288.66753   -1569.7845     468.9695    196.76327    113.78225    37625.902 
  512300    292.92234    -1523.642    442.21579    235.27777   -42.787616    37625.902 
  512400    295.68096   -1533.1575    486.76896    282.71558    380.55477    37625.902 
  512500    298.36211   -1567.3534    467.46191    241.26452    362.54864    37625.902 
  512600    309.36115   -1510.0484    452.71178    333.26081    485.84253    37625.902 
  512700    300.02353   -1506.6905    493.36008    335.29385    7.3192391    37625.902 
  512800    282.90634   -1533.0886    447.30421    185.89703     140.5497    37625.902 
  512900    303.93135   -1532.1916    486.71941    320.71794     211.4873    37625.902 
  513000    293.14769   -1547.9813    468.81432    238.54996    94.193103    37625.902 
  513100    299.21256   -1509.0059    470.90325    306.87618    35.686764    37625.902 
  513200    304.54789   -1523.0072    481.62479    327.57917    149.80993    37625.902 
  513300    294.87081   -1521.9924     457.9775    261.44757     43.79812    37625.902 
  513400    297.34556    -1531.601    502.01004    306.99562    79.435486    37625.902 
  513500    304.37338   -1530.3885    483.54315     321.3317    862.91966    37625.902 
  513600    298.59086   -1549.6692    458.99238    251.50749   -77.376723    37625.902 
  513700    288.25242   -1545.4187    482.38486     232.6785   -53.833449    37625.902 
  513800    296.70037   -1550.9583    454.20264    236.93072    48.539628    37625.902 
  513900    294.53764   -1503.8463     474.9758    295.09426   -380.13192    37625.902 
  514000    304.41057   -1513.5388    463.93037    318.73587   -458.42552    37625.902 
  514100    303.49417   -1482.5873    490.16229    371.79991   -227.44196    37625.902 
  514200    304.04648   -1466.5533    491.37266    391.52701   -329.54101    37625.902 
  514300    304.08219   -1522.3646     456.7934    301.29702    -625.3773    37625.902 
  514400    297.98445   -1491.2262    471.13097    319.36326   -2.2405109    37625.902 
  514500    303.51104   -1520.6263    471.13235    314.80687     140.7156    37625.902 
  514600    305.20843   -1493.4825    486.88988    365.33806    485.58073    37625.902 
  514700    308.96473   -1503.9023     470.0183    354.93152    664.45691    37625.902 
  514800    306.40381   -1551.9331     456.4787    281.84961    671.19061    37625.902 
  514900    294.98082   -1568.4369    461.39401    218.91407    1264.3498    37625.902 
  515000    307.37221    -1559.745    491.12263    313.03463    1429.0059    37625.902 
  515100    297.23722   -1542.6248     490.1863    283.66115    662.04282    37625.902 
  515200    304.26153   -1529.2668    461.46032     299.8678    514.22604    37625.902 
  515300    303.82935   -1506.7735    495.00771    353.96591    699.35708    37625.902 
  515400    299.48924   -1502.4654    483.32832    327.08544   -168.50308    37625.902 
  515500    301.24779   -1510.0928    472.59289    316.62749   -350.89794    37625.902 
  515600    294.43887   -1462.3078    478.15753    339.37053    -430.2048    37625.902 
  515700    295.61096   -1495.6328    466.44806     299.6047   -408.08892    37625.902 
  515800    304.68151   -1476.1391    486.42782    379.85083    9.9886947    37625.902 
  515900    297.65463   -1557.1587      461.152    241.96915    398.60366    37625.902 
  516000    304.22629   -1513.5973     486.6552    340.57381   -617.42299    37625.902 
  516100    308.09024   -1509.6311    456.52228    331.77578   -362.29242    37625.902 
  516200    301.26747   -1537.7452    464.83893    281.30961   -246.09991    37625.902 
  516300    302.01785   -1532.2696    447.26598    272.58518    264.49884    37625.902 
  516400     298.1038   -1528.3133    483.11778    294.79943    694.41048    37625.902 
  516500    308.46059   -1509.2315    469.94643    347.26426    160.19729    37625.902 
  516600    309.02897   -1476.4721     480.8236    393.45571     541.5406    37625.902 
  516700    294.42554   -1458.2676    470.60909    335.80247   -213.77904    37625.902 
  516800    309.42084   -1493.6333    476.12018    373.35262    115.01526    37625.902 
  516900    293.74329   -1494.0147    476.94627    303.32575     68.05154    37625.902 
  517000    300.72281   -1508.8175     453.8812    296.83128    283.64679    37625.902 
  517100    294.71158   -1505.1344    475.39413    295.00643   -527.90557    37625.902 
  517200    314.58457   -1536.9527    487.32667    364.45101   -54.717105    37625.902 
  517300    290.22655   -1467.5821    471.68023    308.68431   -586.56071    37625.902 
  517400    304.16004   -1507.1243    460.53541    320.62919    -5.331094    37625.902 
  517500    289.16958   -1516.2292    459.36591    242.97177    493.21484    37625.902 
  517600    302.80137   -1455.5326    498.41671    403.99487    42.687972    37625.902 
  517700    296.79026   -1490.6831    472.83516    316.24252   -179.98523    37625.902 
  517800    298.48003    -1512.958    468.60742    297.33552    290.53035    37625.902 
  517900    308.89862   -1499.8373    472.97463    361.65563    540.65883    37625.902 
  518000    300.85871   -1512.5498    449.61364    289.44226    208.38978    37625.902 
  518100    304.31919   -1519.4796    459.04485    307.49877    80.865296    37625.902 
  518200     289.0552   -1531.0793    471.22651     239.4681   -265.38509    37625.902 
  518300    309.39151   -1494.9761    483.36886    379.12665   -591.49554    37625.902 
  518400    309.44914   -1454.5721    469.88971    406.31054   -847.53479    37625.902 
  518500    310.05201   -1461.1511    487.30725      419.859   -677.43487    37625.902 
  518600    297.92015   -1485.4823    477.70915     331.3963   -491.61501    37625.902 
  518700    301.44943   -1549.5594    472.90283    278.37718    -524.0596    37625.902 
  518800    310.67701   -1552.9186    447.57222    291.16585    38.167482    37625.902 
  518900    297.10952    -1526.027    473.27916    282.77775   -8.0499109    37625.902 
  519000    293.40123   -1480.6442    484.86647    323.07886    147.07058    37625.902 
  519100    315.81146   -1517.7246     472.9376    374.80495   -79.752703    37625.902 
  519200    298.43537   -1497.3966    468.10879    312.19753    31.021578    37625.902 
  519300    305.47446   -1506.8514    484.75593    351.03107     -232.297    37625.902 
  519400    296.72634   -1481.9987    483.50646    335.31093   -105.32109    37625.902 
  519500    299.35521   -1474.9711    471.30813    341.95712    198.66585    37625.902 
  519600    297.29167   -1497.6956    456.22683    294.87562    326.61944    37625.902 
  519700    297.67904   -1482.5264    499.68059     355.2398   -391.19862    37625.902 
  519800    300.57493   -1522.7759    447.82925    276.15616   -589.56619    37625.902 
  519900    294.10295   -1519.4307    462.19004    264.77022   -130.92957    37625.902 
  520000    293.62945   -1528.7235    486.51332    277.67226   -113.62697    37625.902 
  520100    292.09029   -1493.3343    472.54132    292.17087   -319.67559    37625.902 
  520200    307.87857   -1501.8145    492.92881    375.04749   -224.05015    37625.902 
  520300    285.74118   -1461.6336    495.59419    318.38473   -276.26568    37625.902 
  520400    290.06655   -1515.5803    496.96122    285.24789   -196.29216    37625.902 
  520500    291.55957   -1476.4859    457.34019    291.43255    672.99118    37625.902 
  520600    295.80914   -1537.9145    478.81028    270.57602    130.50835    37625.902 
  520700    296.53085    -1531.296    472.94893    274.57732   -85.347355    37625.902 
  520800     300.3804   -1535.4393    465.98821    280.77735    275.56377    37625.902 
  520900    304.03601   -1504.9786    465.15699      326.839    124.18973    37625.902 
  521000    301.50353   -1510.3445     471.0514    315.98383    335.20685    37625.902 
  521100    293.59021   -1445.9039    473.16868    346.97085   -235.01502    37625.902 
  521200    297.82486   -1472.5545    460.96457    327.15109   -643.27787    37625.902 
  521300     307.7812   -1471.6004     483.9377     395.8327   -153.75623    37625.902 
  521400    294.77735   -1485.9562    473.98924    313.07537    -35.31563    37625.902 
  521500    294.06919    -1515.863     468.6263    274.62244   -72.518286    37625.902 
  521600    308.21257   -1491.5882    506.06731    399.91356    33.395516    37625.902 
  521700    294.69589    -1448.776    479.68166    355.58184   -86.941268    37625.902 
  521800    295.92659    -1472.109    491.13479    349.23408   -116.17058    37625.902 
  521900    310.25267   -1532.5017    467.37142    329.47458   -325.40892    37625.902 
  522000    306.60066   -1530.2089      492.677    340.65694   -506.06098    37625.902 
  522100    301.65649   -1490.9299    497.33237    362.36701   -599.43452    37625.902 
  522200     296.3627   -1485.8347    447.83052    294.16438   -783.54875    37625.902 
  522300    298.32015   -1510.4115    479.33423    309.89018   -699.73648    37625.902 
  522400    303.72647   -1493.4874    472.96176    344.74354   -514.71442    37625.902 
  522500    296.12893   -1495.1903    480.01494    315.94235   -338.04129    37625.902 
  522600    291.71898   -1484.2175    469.85905    296.93627    279.58682    37625.902 
  522700    305.27927   -1455.7959    487.93081    404.38398   -71.187457    37625.902 
  522800    294.03279   -1432.6868    506.41232    395.42101    383.20787    37625.902 
  522900    320.31152   -1437.9757    471.48281    473.32707    41.603796    37625.902 
  523000    297.77047   -1440.2075    491.82014    390.10922    -13.61865    37625.902 
  523100    302.40281    -1485.943    482.83796    356.21418   -168.19541    37625.902 
  523200    308.88841   -1484.2135    459.12954    363.38845   -25.706232    37625.902 
  523300    301.97981   -1532.9661    473.65801    298.10974    404.47436    37625.902 
  523400     308.0834   -1519.0486    484.78995     350.5952    745.94727    37625.902 
  523500    295.32619   -1548.7792    477.57117    256.30136    356.38662    37625.902 
  523600    297.32392   -1533.8388    491.46506    294.11555    233.38542    37625.902 
  523700    304.76795   -1519.8269     482.5532      332.677    187.13014    37625.902 
  523800    297.23016    -1521.029     469.2839    284.32279    570.01656    37625.902 
  523900    296.27324   -1539.1253    469.63686    262.27798     315.4229    37625.902 
  524000    299.27043   -1509.5171     455.1725    290.89438    621.26702    37625.902 
  524100    298.86751    -1523.115     464.4346    284.74746    77.295967    37625.902 
  524200    294.93488   -1508.4453    456.28854    273.59362   -41.802914    37625.902 
  524300    309.43321   -1489.4164    462.69341    364.19833   -368.01767    37625.902 
  524400    296.33052   -1497.8928    507.18285    341.31399   -242.26219    37625.902 
  524500     296.5249   -1514.2255    467.71653    286.38874      385.762    37625.902 
  524600    297.01053   -1479.3197    460.69945    316.46039    447.61813    37625.902 
  524700    300.70644   -1491.0847    491.69721    352.30642    873.26534    37625.902 
  524800    298.13123   -1555.3337    472.71008    257.49463    122.93361    37625.902 
  524900    304.45378   -1516.1729    463.60621    315.97174    220.05974    37625.902 
  525000    304.39153   -1548.7858    463.78532    283.25816    299.74495    37625.902 
  525100    305.15228   -1504.2468    445.18644    312.61791   -51.373672    37625.902 
  525200    294.55454   -1489.3821     462.8524    297.51108   -85.531062    37625.902 
  525300    302.10284   -1541.7117    458.97928     275.2384   -222.43598    37625.902 
  525400    287.62386   -1540.5652    449.77158    202.09337   -350.16855    37625.902 
  525500     295.4174   -1514.4656     473.0488    286.50256    254.90632    37625.902 
  525600    309.21757   -1531.9761    455.56383    313.53973    12.847665    37625.902 
  525700    308.64333   -1563.6164    441.92124    265.67565   -297.70649    37625.902 
  525800    292.99931   -1559.7667    464.87916    222.16235   -288.86749    37625.902 
  525900    305.73518   -1525.6426    455.15887    303.81473    -312.6835    37625.902 
  526000    297.18704   -1521.2257    477.88357    292.53195    141.55914    37625.902 
  526100    295.62757   -1486.6047    458.24588    300.50533   -101.97823    37625.902 
  526200    293.35507   -1509.9005    472.89173    281.64034   -177.50344    37625.902 
  526300    291.35013   -1493.5691    455.65011     271.7178   -123.67276    37625.902 
  526400    304.91167   -1516.7795    478.19206    332.00923    276.04633    37625.902 
  526500    297.31887   -1506.3814    496.46386    326.54912    58.665103    37625.902 
  526600    295.08804   -1476.0018    478.52311    328.96021    518.52497    37625.902 
  526700    286.10548   -1495.1387    458.26006    249.18309    461.86662    37625.902 
  526800    310.10459   -1511.4024    485.62418    368.16098     1122.903    37625.902 
  526900    295.25028   -1515.9945    457.86656    269.04024    315.53553    37625.902 
  527000    304.56229    -1528.601    474.14615    314.57137    336.60564    37625.902 
  527100    293.27823   -1482.0858    479.45437    315.67225    13.309651    37625.902 
  527200    294.11013   -1502.2698     485.1135    304.88684    102.74252    37625.902 
  527300    301.51673   -1452.8251    479.52098    382.03212   -353.44255    37625.902 
  527400    308.76295   -1474.9968     470.3051    383.21671   -348.98542    37625.902 
  527500    296.96302   -1489.7801    493.73022    338.81716    180.59294    37625.902 
  527600    299.15811   -1532.6528    484.38053    296.46186   -75.333218    37625.902 
  527700    298.06056   -1561.9758     457.1731    234.99784   -271.28236    37625.902 
  527800    298.12818   -1538.3382     434.6364    236.40272   -173.97705    37625.902 
  527900    298.64192   -1556.5902    469.46517    255.28881   -39.418182    37625.902 
  528000    297.29133   -1507.7441    448.62307    277.22183    713.46974    37625.902 
  528100    297.72308   -1505.8284    505.64214    338.09729   -164.70876    37625.902 
  528200    304.64627   -1526.3463    463.91487    306.97226    207.32003    37625.902 
  528300     303.4176   -1546.6188    482.98192    300.24394     749.1242    37625.902 
  528400    290.08721   -1514.2153    483.85477    273.59933    747.86815    37625.902 
  528500    287.77527    -1528.817    483.99873    248.74933    280.02872    37625.902 
  528600    305.46387    -1560.369    463.02005    275.72996    236.25704    37625.902 
  528700    309.76373   -1528.8914    498.11486    361.63045    336.83126    37625.902 
  528800    306.21047   -1521.6472    481.59322    336.38099    614.48942    37625.902 
  528900     299.4017   -1503.8607    460.07903     302.0474   -15.353311    37625.902 
  529000    299.32057   -1510.5419    471.90838    306.83082   -665.42406    37625.902 
  529100    300.27244   -1514.0643    468.44848    304.12722   -507.46688    37625.902 
  529200    302.24634     -1582.87    451.75171    227.49766   -773.77913    37625.902 
  529300    303.77361   -1550.5741    474.81204    289.71898   -935.67313    37625.902 
  529400    299.06833   -1525.5384    470.83954    289.63171   -707.88919    37625.902 
  529500    294.47145   -1520.0525    479.08067    282.69551   -326.98753    37625.902 
  529600    303.82027    -1503.923    472.34882    334.11666   -22.012704    37625.902 
  529700    299.06283   -1535.2689    460.54989    269.58687   -62.281898    37625.902 
  529800    295.86739   -1498.5281    488.33634    319.75041   -309.52663    37625.902 
  529900    293.37446   -1512.5428     439.2348    245.42822   -121.61179    37625.902 
  530000    304.23246   -1533.5292    479.40811    313.42256   -293.35941    37625.902 
  530100    304.48288   -1532.7007    494.90213    330.87071    12.078344    37625.902 
  530200    300.78068   -1549.3697    491.45458    294.11261    143.40661    37625.902 
  530300     309.4575   -1566.5481    471.17261    295.65506     917.7925    37625.902 
  530400    298.37399   -1540.0231    471.95229    273.13863    90.442773    37625.902 
  530500    292.61478    -1558.093    476.66922    233.89767   -102.56829    37625.902 
  530600    297.37447    -1578.422    492.42592    250.72047    340.61419    37625.902 
  530700      299.555     -1562.66    461.11097    244.96913    196.59133    37625.902 
  530800    302.73178   -1527.5951    503.53898    336.74189   -347.18327    37625.902 
  530900    296.77041   -1531.6854    484.36256    286.67837     -731.971    37625.902 
  531000    297.67767   -1500.5995    480.74644     318.2264   -191.91019    37625.902 
  531100    302.37369   -1544.2343     483.0837    298.03771   -757.04294    37625.902 
  531200    291.73546   -1518.1705    506.29788    299.49625   -647.60777    37625.902 
  531300    308.62363   -1497.4885    502.19898     391.9927   -546.22981    37625.902 
  531400    298.04502   -1506.4537    476.48274    309.75976   -266.93651    37625.902 
  531500     307.5077   -1507.4915    529.18054    403.95507   -5.2978875    37625.902 
  531600    298.43735    -1531.552    465.08026    275.02252    496.08435    37625.902 
  531700    307.49758   -1530.3304    495.81595    347.70613    638.45601    37625.902 
  531800    295.14979   -1519.9038    498.99088    305.80351    487.18701    37625.902 
  531900    298.74618    -1491.646     473.0924     324.3289    49.844758    37625.902 
  532000    303.67338   -1491.9722    455.56141    328.61975    -193.7785    37625.902 
  532100    302.06582   -1497.3484    495.68567    356.14179    -67.66015    37625.902 
  532200    305.85205   -1477.7571    490.28613     387.3528    115.74795    37625.902 
  532300    314.03193   -1485.9666    490.15544    415.78164   -443.36292    37625.902 
  532400    300.43596   -1500.1229    480.97154    331.32675    95.007336    37625.902 
  532500    302.48962   -1512.1888    493.04736    340.56805    124.05525    37625.902 
  532600    297.17603   -1505.5034    484.16302    314.48418   -126.30316    37625.902 
  532700     306.4468   -1509.8775    476.41619    344.03589   -365.27305    37625.902 
  532800     304.2091   -1512.0177    477.10449    332.52544   -88.498308    37625.902 
  532900    297.84154    -1520.688    476.62874    294.75678    14.719439    37625.902 
  533000    300.74636   -1512.7889    485.26258    324.34706    89.097853    37625.902 
  533100    309.95681   -1525.8206    502.37113    369.82548    379.12627    37625.902 
  533200    310.81708   -1561.8428     524.6136    359.91271    971.92241    37625.902 
  533300    301.13806   -1521.0381    478.27209    310.86813    9.4400329    37625.902 
  533400    293.15753   -1526.0141    491.49193    283.23896   -151.63716    37625.902 
  533500    304.57828   -1490.9498    516.35627    394.50458    100.87457    37625.902 
  533600    296.18718   -1526.9916    455.67689    260.06494    391.93454    37625.902 
  533700    305.65901   -1500.9526    468.89167     341.8951    163.22879    37625.902 
  533800    307.96535   -1543.6443    483.75753    324.43648   -14.712376    37625.902 
  533900    296.71885   -1528.5381    496.50083     301.7322    136.33906    37625.902 
  534000    293.75993   -1543.6318    503.41076     280.2479    130.86634    37625.902 
  534100    296.14583   -1517.0334    510.46675    324.62704   -51.614799    37625.902 
  534200    300.58647   -1531.9697      483.249    302.43394    588.90431    37625.902 
  534300    313.06819    -1556.859    478.93628     329.3381    699.41932    37625.902 
  534400    302.86688      -1586.5    456.21355    231.11885    1055.1707    37625.902 
  534500    301.00253     -1532.74    485.39834    305.68327    860.50977    37625.902 
  534600    299.11585   -1534.4006    449.64509    259.78866    489.45458    37625.902 
  534700    311.92413   -1594.4226    478.16661    285.86217    476.20133    37625.902 
  534800    305.56439    -1550.594    499.75147    322.68827     644.8828    37625.902 
  534900    300.46103    -1528.979    471.92736    293.53923    1150.9412    37625.902 
  535000    298.70939   -1550.8416      492.758    284.63347    1444.6617    37625.902 
  535100    297.09106   -1539.5813    496.94947    292.81076     1029.492    37625.902 
  535200    304.18766   -1570.2072    486.72311    283.85815    775.96159    37625.902 
  535300    302.58216   -1585.4229    468.81929    243.52185    499.05118    37625.902 
  535400    305.32541   -1549.7068    481.03881    303.78855    233.19776    37625.902 
  535500    296.64132   -1579.8733    499.75442    253.30216    996.82253    37625.902 
  535600    303.36407    -1548.143     511.3239    326.82112    602.25085    37625.902 
  535700    302.52641   -1544.9871     488.7758    303.66352    903.30614    37625.902 
  535800    303.62811   -1559.8512    469.42383    274.39965    288.23779    37625.902 
  535900    284.87068   -1526.0328    473.60742    228.08582   -151.93268    37625.902 
  536000    298.86945   -1550.9134    485.94825    278.47144     500.9306    37625.902 
  536100     295.5055   -1572.1355    466.22672    222.40669    1.6451245    37625.902 
  536200    309.79722    -1543.807    474.12787    322.87845   -188.03894    37625.902 
  536300    293.68802   -1551.4794    477.35328     246.0196    187.48934    37625.902 
  536400    293.34406   -1585.9371    461.93106    194.59357    5.8087078    37625.902 
  536500    304.94842   -1563.9441    482.19495     289.0128    238.02296    37625.902 
  536600    289.45161   -1536.7878    466.84868    231.16368    765.97567    37625.902 
  536700    300.24624   -1560.4641    504.22979    293.39103    1190.1429    37625.902 
  536800     300.5003   -1552.9434    485.50903    283.33297    486.04454    37625.902 
  536900    305.64871    -1605.232    494.58916    263.26696    662.61817    37625.902 
  537000    298.03882    -1566.408    488.53504    261.82993    161.05172    37625.902 
  537100    299.11278     -1557.78    476.58441    263.33483    111.33062    37625.902 
  537200    303.26822   -1567.1229    486.36631    282.45267    229.23392    37625.902 
  537300    310.82003   -1582.2772     479.8508    294.72874    69.886474    37625.902 
  537400    302.26804    -1563.682    468.93598    263.96743   -150.66176    37625.902 
  537500    297.00353   -1553.5588    465.78727    247.27765   -266.08827    37625.902 
  537600    301.56299   -1575.2014    482.67588    263.01874    19.595936    37625.902 
  537700    297.90004   -1547.4748    445.75551     237.3597   -123.50372    37625.902 
  537800    315.48247   -1528.5679    485.22133    374.76657   -967.30773    37625.902 
  537900    302.42185   -1503.3038    482.65755    338.75856    -826.0599    37625.902 
  538000    315.47969    -1535.276    463.89126    346.71588   -672.26791    37625.902 
  538100    300.49092   -1525.1808    492.39665    317.94102   -315.77385    37625.902 
  538200    307.97908    -1573.225    487.41839     298.5783   -28.409027    37625.902 
  538300    296.01348   -1523.4151    470.80844    277.99214    98.957315    37625.902 
  538400    314.94436   -1543.8368     492.3101    364.16761     448.9966    37625.902 
  538500    293.92863   -1516.3652     493.0548    297.91688       113.28    37625.902 
  538600    308.33432   -1463.8688    482.25665    404.36958     888.2339    37625.902 
  538700    302.16658   -1489.3093    498.55845     367.5065    573.46559    37625.902 
  538800     293.4786   -1537.8989     459.0648    240.37031    299.61608    37625.902 
  538900    290.15189   -1500.1957    459.46703    263.52195    65.162125    37625.902 
  539000    309.48067   -1499.1151    496.36711    388.38669    499.34245    37625.902 
  539100     296.9922   -1471.0241      464.348    328.32217    320.47184    37625.902 
  539200    302.66527   -1400.0362     501.4663     461.9291    192.44774    37625.902 
  539300    291.87592   -1411.8693    501.31062    401.44154    160.61175    37625.902 
  539400    300.48203   -1433.2831    506.75083    424.15296   -94.989164    37625.902 
  539500    300.44614   -1472.0831    483.53657    361.97735   -49.768464    37625.902 
  539600    292.56416   -1517.2068    465.26041     263.1475   -3.4901634    37625.902 
  539700    299.11583   -1501.0256    474.04732    317.56579    277.48576    37625.902 
  539800    307.99719   -1524.1774    482.04201      342.331     122.6442    37625.902 
  539900    293.07476   -1485.6282    492.55146    324.31233    38.855295    37625.902 
  540000    303.29208   -1489.9836    493.25762    366.59061   -260.34753    37625.902 
  540100     292.0061   -1507.8989    481.00431    285.69078   -162.30961    37625.902 
  540200     286.9755   -1493.2354    479.38254     276.1197   -342.17228    37625.902 
  540300     303.6869   -1454.2421    472.16875    383.01799   -13.760927    37625.902 
  540400    293.18417   -1424.5076    491.60525    384.97856   -242.74194    37625.902 
  540500     302.5046    -1425.973    492.36871    426.17253   -174.72145    37625.902 
  540600    298.31348   -1451.2441    485.64356    375.33692   -458.64487    37625.902 
  540700     301.1925   -1441.4017    468.41108    380.88819   -312.90687    37625.902 
  540800    300.38335   -1507.5788    499.25894    341.92173   -392.41508    37625.902 
  540900    290.33035   -1483.4405     495.2724    316.88467    -159.1419    37625.902 
  541000    306.84633   -1483.9251     470.6706    366.03863    178.22284    37625.902 
  541100     300.2622    -1506.713    485.55709    328.54114    15.352265    37625.902 
  541200    293.80934   -1492.0445    464.98119    293.62778     221.5815    37625.902 
  541300    310.60681    -1472.377     505.8992     429.7189   -471.54898    37625.902 
  541400    299.26579   -1494.5856    490.20623    340.83873    30.820755    37625.902 
  541500    303.77556   -1530.4698    477.30645    312.32649   -406.09205    37625.902 
  541600    294.97768   -1476.5703    485.31339    334.68598    327.21797    37625.902 
  541700    295.44263   -1513.9105    468.04329    282.16561    328.52174    37625.902 
  541800    296.28273   -1537.9702    497.12037    290.95926    687.62423    37625.902 
  541900    295.18984   -1503.3987     450.0614    273.55921    369.80877    37625.902 
  542000    296.83851     -1517.79    495.42592    311.94329    213.05935    37625.902 
  542100    296.62465   -1510.0346     497.1388    320.45031   -6.5828095    37625.902 
  542200    305.04015   -1510.2356    498.60072     359.5394    578.81495    37625.902 
  542300     289.4461   -1540.2614    480.33606    241.15267    335.32378    37625.902 
  542400       294.19   -1490.9751    501.46512    332.89216    678.51113    37625.902 
  542500    299.06889   -1502.6324    483.11818    324.81882    312.68173    37625.902 
  542600     294.1744   -1514.4201    478.81897    286.73093    135.46196    37625.902 
  542700    291.24504   -1562.8485    473.58974    219.90564    489.28142    37625.902 
  542800    300.67502   -1540.1768    462.60029    273.97627    780.19094    37625.902 
  542900    304.47743   -1511.4489    465.00248    322.19836    586.01276    37625.902 
  543000    307.74395   -1518.2435    481.96243    347.04695    243.68385    37625.902 
  543100    300.22816   -1510.6583     470.9807    309.86648    209.32972    37625.902 
  543200    299.03132   -1503.5533    484.01554    324.62638   -314.50371    37625.902 
  543300    296.06944   -1505.9245    484.27764    309.20351    418.67002    37625.902 
  543400    294.24835   -1474.8045    498.32885     346.1888    496.75427    37625.902 
  543500     305.1275   -1511.7086    479.33635    339.19467    362.84351    37625.902 
  543600    299.35649   -1560.0564    480.88095     266.4504   -234.73967    37625.902 
  543700    298.60057   -1475.7377    488.91969    355.40999    386.85669    37625.902 
  543800     304.5813   -1546.3806     462.5192    285.25035    295.02301    37625.902 
  543900    299.08421   -1556.8131    472.18219    259.77104   -7.6155701    37625.902 
  544000    304.33507    -1553.268    487.65458    302.39143    135.39456    37625.902 
  544100    291.74076   -1530.1727    449.34396    230.56395    500.76996    37625.902 
  544200     295.1784   -1552.4684    491.40791    265.78458    517.24776    37625.902 
  544300    302.13188   -1565.1571    484.68167      277.626     884.3215    37625.902 
  544400    307.48229   -1529.3562    483.51197    336.30761    1075.0562    37625.902 
  544500    311.58635   -1533.1661    453.63311    321.06682    433.37804    37625.902 
  544600    302.25688   -1526.6413    484.77809     316.8001    146.26576    37625.902 
  544700    308.97409   -1492.3775    482.88304    379.36314    174.45988    37625.902 
  544800    315.00893   -1491.0785    467.79057    392.69657   -104.04229    37625.902 
  544900    301.58183   -1529.8682    467.57003    293.33072   -10.195662    37625.902 
  545000    308.57751   -1481.8314    471.11153      376.355   -554.14402    37625.902 
  545100    297.96932    -1497.319    481.89569    323.96717   -469.79822    37625.902 
  545200    307.92392   -1493.6115    488.38533    378.91076    301.56162    37625.902 
  545300    291.31233   -1497.4573    493.13585    305.14543    193.27918    37625.902 
  545400    299.60911   -1453.4178    488.87255    382.21611   -10.682343    37625.902 
  545500    295.01992    -1451.283    510.64841    385.49816    161.73578    37625.902 
  545600    295.57399   -1461.0388    478.65581    346.24025   -24.796687    37625.902 
  545700    299.28887   -1434.9882    486.34102    396.67474    200.24389    37625.902 
  545800    300.15659   -1446.9922    478.31483    380.54495    104.40401    37625.902 
  545900    304.76898    -1467.115     480.6951    383.53539    843.76686    37625.902 
  546000    296.01302    -1524.096    490.43648    296.93727    259.52048    37625.902 
  546100    305.15795   -1483.4598    485.18087    373.42484    208.56195    37625.902 
  546200    312.99425   -1508.7787    481.03037    379.18011    699.35062    37625.902 
  546300    298.17951    -1483.569    471.06808    327.83433    225.19781    37625.902 
  546400    299.39356   -1488.9582    470.54277    327.37705    190.03864    37625.902 
  546500    305.36146   -1478.4842    514.38448    408.51883   -392.89266    37625.902 
  546600     296.0282   -1478.3412     464.5062    316.82995   -289.51307    37625.902 
  546700    292.47351   -1506.8146    486.45866    294.33051    470.23414    37625.902 
  546800    303.47758   -1529.0891    463.60258    298.66386    510.41626    37625.902 
  546900    288.54927   -1568.7345    506.81716    235.12938    32.611504    37625.902 
  547000    292.00656    -1522.985    463.49765    253.10013   -114.53332    37625.902 
  547100    307.32829   -1498.8994    496.77798    379.33813   -461.73401    37625.902 
  547200    298.73862   -1494.1979    479.71423    328.36483   -140.51505    37625.902 
  547300    303.06469   -1469.2483    474.43543    367.48161   -22.968266    37625.902 
  547400    306.06492   -1531.0105    470.35776    315.12788   -84.816551    37625.902 
  547500    299.50314   -1503.2814    452.69517    295.69884 -0.0053302187    37625.902 
  547600    307.61286   -1476.2554    475.76867    382.25205    106.65975    37625.902 
  547700    294.37484   -1544.0341    457.80524    237.00413   -251.57549    37625.902 
  547800    302.44724   -1527.1823    460.52593    292.86263   -207.57076    37625.902 
  547900    310.60688   -1521.5937    476.06986    350.67323    101.41405    37625.902 
  548000    293.51132   -1535.5174    463.73286    247.56691    278.94761    37625.902 
  548100    294.54775   -1500.1187    493.22731     317.1189    428.78646    37625.902 
  548200    307.20871   -1471.0374    497.25551     407.1402    116.47911    37625.902 
  548300    296.21182   -1499.0168    466.80256    299.27613   -29.969313    37625.902 
  548400    297.22653   -1518.9519    485.47388     302.5735    324.78637    37625.902 
  548500    299.83972    -1502.444    484.80729    330.16133    143.89565    37625.902 
  548600     307.4647   -1472.9003    460.18146     369.3539    258.09006    37625.902 
  548700    302.02976   -1505.8373    485.50312     337.3082    192.52798    37625.902 
  548800    306.61069   -1487.0274    491.50186    382.70841    40.890904    37625.902 
  548900     291.4125   -1520.1685    471.60212    261.35079    -8.912371    37625.902 
  549000    302.12099   -1523.3889    463.13503    297.79862    755.20288    37625.902 
  549100    308.10767   -1476.7606    484.00883    392.21118    163.61438    37625.902 
  549200    296.05043   -1470.9005    485.97495    345.83939    49.836914    37625.902 
  549300    300.94771   -1501.9328    477.95612    328.80178    276.39012    37625.902 
  549400    291.44324   -1503.1978    500.55275    307.41029    240.63913    37625.902 
  549500    294.91303   -1523.5364    479.81015      281.926    178.23394    37625.902 
  549600    297.17958   -1482.4891    493.34611    346.69758    2.3442106    37625.902 
  549700    292.59014   -1526.4983    455.96643    244.67886   -825.86128    37625.902 
  549800    288.40859   -1465.0828    467.25024    298.58178   -724.57547    37625.902 
  549900    305.46738   -1479.4934    475.82284    369.42416   -129.88816    37625.902 
  550000    304.26439   -1518.1135    459.37151    308.94518    596.67583    37625.902 
  550100     299.9789    -1444.133    485.62163    389.91225    287.28679    37625.902 
  550200    297.76394   -1460.4572    485.16936    363.17947   -446.73751    37625.902 
  550300    304.65625   -1445.8907    469.91769    393.47562    50.113488    37625.902 
  550400     294.2138   -1488.4389    477.10294    311.17318    386.96519    37625.902 
  550500    305.86922   -1511.0495    473.53241    337.38385    26.702351    37625.902 
  550600    305.97227   -1491.0464    455.62943    339.94726    602.97928    37625.902 
  550700    306.20828   -1461.8715    457.39056    371.94411    466.58572    37625.902 
  550800    296.61096    -1517.035    474.99375    291.24325    438.44947    37625.902 
  550900    308.46793   -1507.2023    452.10565    331.48565    877.97826    37625.902 
  551000    305.35447   -1504.0357    494.43747    362.98887    752.78597    37625.902 
  551100     313.5276   -1505.2147    476.19971    380.31087    512.69191    37625.902 
  551200    297.72841   -1514.2324    472.53975    296.61488    499.00433    37625.902 
  551300     291.4715   -1559.1234     484.5239    235.58288     21.87479    37625.902 
  551400    296.50545   -1483.6408    489.73558    338.90498    -24.72384    37625.902 
  551500    310.12044   -1495.0806    459.75322    358.68309    28.606012    37625.902 
  551600    303.18333   -1456.6503    472.58076    378.75816    112.25055    37625.902 
  551700    297.97518   -1491.7771    496.07673    343.71638    394.59877    37625.902 
  551800    302.92668   -1517.8643    488.65059     332.4604    903.28828    37625.902 
  551900     313.5025   -1507.6675    524.79154    426.33707    802.91079    37625.902 
  552000    306.79458   -1493.2836    482.77632    368.55324    410.16478    37625.902 
  552100    301.97653   -1477.2445    465.64807    345.80668    125.90909    37625.902 
  552200    319.06945    -1472.273    494.43982    456.40359    264.60809    37625.902 
  552300    295.61099   -1500.6091    491.12175    319.30226   -273.11602    37625.902 
  552400    304.14776    -1495.707    445.92902    317.38497   -8.5968609    37625.902 
  552500    296.88049   -1503.3056    482.82428    314.01476   -152.07943    37625.902 
  552600    289.01914   -1512.0593    491.60714    278.70669   -635.79988    37625.902 
  552700    298.74456   -1516.9703    449.12493     275.0298   -547.75355    37625.902 
  552800    303.43995   -1480.1141    489.42983    373.29691   -918.44297    37625.902 
  552900    299.47172   -1469.8234    482.49723    358.81762    -865.9478    37625.902 
  553000    306.45967   -1483.0087    490.60285    385.14922    39.784523    37625.902 
  553100    290.39212   -1498.6115    457.13577    263.85474    238.24096    37625.902 
  553200    299.43747   -1492.5856    469.83328    323.23751    -389.0686    37625.902 
  553300    300.71391   -1496.5716    458.41081    313.56674    334.05779    37625.902 
  553400    293.85669   -1513.1093     476.3727    284.16731    79.766115    37625.902 
  553500    302.41818   -1530.2031    489.68185    318.86705    620.50332    37625.902 
  553600    301.68362   -1463.9234    502.54434    394.70743    739.69249    37625.902 
  553700    306.31979   -1472.7479     472.7288    376.90716    -90.75752    37625.902 
  553800     303.1366    -1474.646    504.54818    392.51988    273.81546    37625.902 
  553900    299.55812   -1484.0676     489.7138    352.17844    348.92025    37625.902 
  554000     293.1244   -1447.0888    505.26602    375.78945    348.46782    37625.902 
  554100    292.06887   -1445.3586    487.67042    355.17933    323.37704    37625.902 
  554200    286.09684   -1492.9481    523.16055    316.23539    760.79592    37625.902 
  554300     293.9143   -1442.2792    478.76357    357.64723    530.84254    37625.902 
  554400    298.36446    -1472.578    499.80161    368.39022    682.36158    37625.902 
  554500    302.84536   -1519.2033    464.43744    306.54268    889.54561    37625.902 
  554600    300.50181   -1481.3629    485.79744     355.2087    1155.4911    37625.902 
  554700    304.12287   -1515.4567    481.92459    333.51888    744.71139    37625.902 
  554800    291.70817   -1487.9845    496.87914    320.14082     530.1263    37625.902 
  554900    292.18857   -1457.2051    491.57433     347.7748    218.96163    37625.902 
  555000    292.69364   -1478.9094    472.61595    309.38246   -442.42528    37625.902 
  555100    300.61574   -1470.7864     501.6023    382.10221   -88.900818    37625.902 
  555200    298.17224   -1413.6949    513.26739    439.87503   -31.208421    37625.902 
  555300    313.19847   -1452.4527    480.98082    436.37455     501.7475    37625.902 
  555400    301.48836   -1480.4801    512.14971    386.87833    673.20974    37625.902 
  555500    283.23314   -1494.8067    474.82989    253.17363    287.23361    37625.902 
  555600    304.81096   -1534.9863    471.62723    306.78497    212.07428    37625.902 
  555700    317.46664    -1505.086    495.43172     417.3778    526.68243    37625.902 
  555800    295.16078   -1498.3317    461.86263     290.2968    160.90888    37625.902 
  555900    290.95902    -1473.455    481.41445    315.83821    472.12161    37625.902 
  556000    310.79875   -1485.8235    470.08917    381.32514    205.50146    37625.902 
  556100    304.50249   -1489.5189    472.20661    351.44511    243.55539    37625.902 
  556200    306.15924   -1506.5819    488.53756    358.16026    488.10122    37625.902 
  556300    306.57097   -1491.5694    479.40655    365.89252    67.774056    37625.902 
  556400    297.09537   -1470.5316     451.7745    316.70482   -586.76837    37625.902 
  556500    301.81791   -1483.4265    491.13727    364.40086   -498.04706    37625.902 
  556600    293.46075   -1490.3578    448.15404    276.92035   -214.40325    37625.902 
  556700    301.76805    -1496.845    494.01716    353.63813   -29.365636    37625.902 
  556800     305.6165   -1488.1995    482.47713    368.04262    77.515144    37625.902 
  556900    316.11281   -1488.3833    446.21507    378.77833    614.87533    37625.902 
  557000    297.05985   -1483.0479    490.64438    342.89877   -326.20912    37625.902 
  557100    288.66456   -1434.6853    494.49822    357.37793   -485.36337    37625.902 
  557200    300.39329   -1470.1909      472.779    352.87446    93.763579    37625.902 
  557300    292.54874   -1430.6306    471.77886    356.17288   -364.74631    37625.902 
  557400    292.95456   -1463.9582    476.60706     329.4976    128.47213    37625.902 
  557500    295.12679   -1450.9763    487.08059    362.71737   -167.73757    37625.902 
  557600    306.26718   -1439.9355     484.9411    421.69547   -666.45235    37625.902 
  557700    293.00503   -1409.5017    511.81367    419.38758   -715.75055    37625.902 
  557800    296.62989   -1420.7071     506.0171    418.67959   -162.47839    37625.902 
  557900    297.15606   -1439.9985    506.42539     402.1617   -456.83094    37625.902 
  558000    297.41224   -1496.8439    471.95224    311.99466   -73.146692    37625.902 
  558100    297.67306   -1449.0225    486.13345    375.16969    417.80986    37625.902 
  558200    293.79233   -1464.2338    465.07446    321.45524    10.664913    37625.902 
  558300    292.99124   -1443.1653      484.494    358.34236    118.96525    37625.902 
  558400     296.3726   -1413.1948    492.99401    412.01224     179.9148    37625.902 
  558500     300.6887   -1469.2613    515.96171    398.31463    548.66324    37625.902 
  558600    293.64123   -1453.6115    470.34134    336.66521    150.22263    37625.902 
  558700    301.66167   -1437.5914    477.12693    395.52337   -6.0007384    37625.902 
  558800    296.92791   -1456.4458    473.53967    351.80315     492.8202    37625.902 
  558900    303.75843   -1519.0999     479.0246    325.33751    1128.5008    37625.902 
  559000    305.89031   -1534.1378    508.68562    349.54361    1056.1006    37625.902 
  559100    304.08141   -1496.9563     467.4987    337.40703    270.42964    37625.902 
  559200    293.72394   -1497.2557    473.58296    296.63442    779.75934    37625.902 
  559300    308.41609   -1478.8135    498.89378     406.4296    706.84544    37625.902 
  559400    294.34121   -1507.2476    490.70439    306.53866    912.69782    37625.902 
  559500    296.20517   -1498.5856     470.9344    303.80929    856.43687    37625.902 
  559600    307.11708   -1486.8132    478.56251    372.25951    384.00639    37625.902 
  559700    302.70746   -1459.1584     473.9233     375.4536    332.69661    37625.902 
  559800    305.40683   -1436.5936     492.5308    428.75969   -87.760034    37625.902 
  559900    301.26983   -1476.8882     454.8967    332.23488   -17.990349    37625.902 
  560000    292.98553   -1467.4974    477.29945    326.79006   -157.39669    37625.902 
  560100    303.39668   -1455.5114    468.21551    376.49083   -54.737281    37625.902 
  560200    296.50255   -1474.9115     482.7081    340.59387    352.93096    37625.902 
  560300    303.99383    -1471.796    454.69977    349.37477    167.64799    37625.902 
  560400      300.197   -1503.1266     459.8854    306.16279    436.50942    37625.902 
  560500    299.30499   -1499.5786    482.87708    328.69281    136.18706    37625.902 
  560600    290.44246   -1459.2565    494.47395    340.77418    288.03183    37625.902 
  560700    303.70067   -1461.6059    465.60917    369.15647     121.1418    37625.902 
  560800    294.32415   -1482.9115    456.72836    296.82206    -381.6994    37625.902 
  560900    299.50212   -1451.5174    466.35975    361.12284   -252.43632    37625.902 
  561000    299.01308   -1464.4221    470.07732    349.73736     65.37225    37625.902 
  561100    295.60703   -1465.5199    475.47033    338.72218    317.21928    37625.902 
  561200    299.10699   -1466.8205    471.29595    348.97981    -27.09978    37625.902 
  561300    297.96206   -1456.5828    481.66797    364.44299    119.26645    37625.902 
  561400    302.39535     -1481.04    476.96113    355.20679   -392.06874    37625.902 
  561500    305.22811   -1463.0014    474.34737    383.36508   -499.48827    37625.902 
  561600    300.73719   -1439.6012    490.44928    402.68023   -305.32017    37625.902 
  561700    302.45366   -1446.0212     476.7957    390.32233    340.16446    37625.902 
  561800    299.19613   -1457.6534    468.74238    355.99394   -37.883549    37625.902 
  561900    306.49753   -1435.0889    468.62034    411.25668   -63.780096    37625.902 
  562000    290.41247   -1492.4414    467.22885    280.20939   -148.73504    37625.902 
  562100    312.24491   -1500.6666    475.43487    378.32837   -27.294839    37625.902 
  562200    301.66514   -1482.2897    467.44169    341.15531   -87.683188    37625.902 
  562300    299.22865   -1469.9008    489.98967    365.14005   -123.14664    37625.902 
  562400     295.4635   -1457.5625    489.87638    360.44047   -33.548861    37625.902 
  562500    295.24675   -1415.8275    467.50759    378.83234   -302.33872    37625.902 
  562600    313.17609    -1473.056     487.0907    421.78056   -712.00078    37625.902 
  562700    311.60441   -1432.0456    478.95043    447.58586    14.830529    37625.902 
  562800    288.48831   -1443.4794    467.86774    321.16108   -325.44676    37625.902 
  562900    299.23233   -1460.5666    458.14524    342.64642     74.73193    37625.902 
  563000    294.60066   -1436.6656    481.48189     369.0644   -504.50704    37625.902 
  563100    299.80642   -1454.9454    473.11425    365.81721    -341.7682    37625.902 
  563200    288.54183   -1443.4329    479.18205    332.76243   -196.88116    37625.902 
  563300    313.82945   -1435.2385    454.82496    430.26909    143.10005    37625.902 
  563400    294.94094   -1470.9453    469.56415    324.39654    401.14584    37625.902 
  563500    294.45505   -1491.3569    479.02024    311.25695    185.98982    37625.902 
  563600    288.93718   -1457.1906      468.326    309.92574    431.51259    37625.902 
  563700    301.20401   -1467.8119    455.98342    342.10208    266.80186    37625.902 
  563800     292.8368   -1460.5402    477.36602    333.14526    175.36674    37625.902 
  563900      296.687   -1463.3822     474.9094    345.15352    95.730317    37625.902 
  564000     299.4122    -1427.006    490.01894     408.8892   -118.23637    37625.902 
  564100    301.88476   -1445.9318    484.66157    395.72029   -123.90086    37625.902 
  564200    299.36827   -1447.8038    470.08115    367.95612   -483.74258    37625.902 
  564300     294.7623    -1452.095    459.07462    331.95435   -313.13642    37625.902 
  564400    301.98013   -1464.3877    475.20872    368.24026    -173.5832    37625.902 
  564500    285.02384   -1432.7642    467.52548    315.96099   -411.40694    37625.902 
  564600     292.8474   -1469.0368    480.90099    328.23124   -223.43733    37625.902 
  564700    288.56844   -1492.7662    509.81816    314.18482   -365.79764    37625.902 
  564800    292.20252    -1491.646    467.47106    289.29334    359.20622    37625.902 
  564900    296.86303   -1470.2772    477.94609    342.08653    160.22399    37625.902 
  565000    307.29925   -1457.4099    477.43634    401.35552    550.27481    37625.902 
  565100    295.22148   -1489.5037    489.79224    327.32728   -15.926983    37625.902 
  565200    309.50912   -1476.8268    461.03805    375.47384    16.111347    37625.902 
  565300    308.00675   -1470.9919    479.82733    393.34469    866.45253    37625.902 
  565400    305.59438   -1518.4747      478.178    333.36881   -83.990119    37625.902 
  565500    308.11239   -1462.7816    491.36693    413.56951   -177.61842    37625.902 
  565600    298.37926   -1482.8183    465.25901    323.67388   -332.10852    37625.902 
  565700    297.66745   -1462.0318    496.88638    372.88809   -406.20568    37625.902 
  565800    290.36269   -1478.7025    463.88977     290.3855   -328.67437    37625.902 
  565900    306.38167   -1441.3569    476.80384    412.65139   -230.30285    37625.902 
  566000    300.10886   -1452.9778    480.96201    376.99201   -52.597645    37625.902 
  566100    297.09093   -1478.8846     484.9509    341.50834    272.57906    37625.902 
  566200    314.09766   -1466.1527    495.72123    441.45687   -57.371371    37625.902 
  566300    292.44192   -1532.8319    478.35639    260.06894    623.96252    37625.902 
  566400    298.99182   -1512.9044    465.36816    296.45043    491.70077    37625.902 
  566500    303.19986   -1493.8538    483.51299    352.56124    880.11081    37625.902 
  566600    300.09655   -1481.4062    472.73189    340.27812    243.04978    37625.902 
  566700    288.96066   -1511.3562    493.17636    280.71607    250.06798    37625.902 
  566800    303.07271   -1524.3912    471.83894    309.77824    120.86036    37625.902 
  566900    302.79181   -1481.0043    494.97311    375.03665    1165.4391    37625.902 
  567000    300.20585   -1488.9337    477.34467    337.85476    391.60679    37625.902 
  567100    302.39129   -1490.4299    468.66533    337.50292    -3.235365    37625.902 
  567200    294.85178   -1455.8948    478.35665    347.83873   -46.261855    37625.902 
  567300    299.96615   -1478.5716    465.03819    334.83291   -624.91377    37625.902 
  567400    294.07418   -1532.4617    452.34553    241.76533    272.68432    37625.902 
  567500    296.19182   -1510.9085    481.17983     301.6718    344.36189    37625.902 
  567600    295.37281   -1498.4913    482.18003     311.4077    327.33561    37625.902 
  567700    305.46777   -1511.1872    467.88516    329.79437    696.53936    37625.902 
  567800    306.94446   -1479.4415    479.53832    379.83102    73.186244    37625.902 
  567900    316.11355   -1554.0651    483.36091    350.24567    638.03333    37625.902 
  568000    290.22983   -1541.4574    465.20266    228.34625    351.41979    37625.902 
  568100    308.89925   -1468.4406    511.88479    431.96529    753.78883    37625.902 
  568200    308.90771   -1507.4086    476.17733    357.32787    419.09321    37625.902 
  568300    303.42611   -1519.0243    471.68878    316.58353    390.86094    37625.902 
  568400    306.76441   -1505.7855    478.46561    351.60497   -100.11942    37625.902 
  568500    296.40583   -1488.7671    458.88554    302.48089    -155.1461    37625.902 
  568600    296.16591   -1502.1862    456.10937    285.20722    33.179911    37625.902 
  568700    291.94479    -1552.583    476.82393    236.55073    501.54575    37625.902 
  568800    288.42386   -1507.2649    489.20664     278.4248    -319.9073    37625.902 
  568900    297.91952   -1541.0511    466.57413     264.6896    209.44228    37625.902 
  569000     296.2969   -1501.4806    486.53433    316.92657   -260.41983    37625.902 
  569100    291.91026   -1480.6359    482.57376    314.09247   -715.87119    37625.902 
  569200    287.95094   -1494.0678    468.14319    268.43258   -817.85922    37625.902 
  569300    303.68158   -1514.1008    467.72694    318.69351   -350.42931    37625.902 
  569400    292.05814   -1535.9634    487.73667    264.59254   -662.94884    37625.902 
  569500    304.67551   -1547.9192    460.69975    282.31578   -332.57459    37625.902 
  569600    300.34656   -1554.8024    454.76588    250.03976    330.92773    37625.902 
  569700    305.39456   -1521.8121    488.05583    339.01107    404.79963    37625.902 
  569800    294.95871   -1531.0272    473.17164    268.00201    305.56073    37625.902 
  569900     295.3439    -1482.746    478.19999    323.04303    245.03866    37625.902 
  570000    302.00505   -1482.5707    491.22105    366.18165    24.297077    37625.902 
  570100    297.15475   -1488.2984    452.03919    299.46964    203.91861    37625.902 
  570200    300.48333   -1480.5083     477.0992    347.28194     388.6298    37625.902 
  570300    307.45262   -1491.2175    490.36321    381.16416   -99.506171    37625.902 
  570400     300.9854   -1533.2326    463.63383    283.34917    110.78324    37625.902 
  570500    304.33852   -1485.3059    458.08106    340.79553    123.22729    37625.902 
  570600    296.53013   -1488.7314    471.06398    315.25379   -182.06611    37625.902 
  570700    288.88679   -1511.9104    490.80552    277.45907   -611.22345    37625.902 
  570800    292.14623   -1515.6824    469.74598     267.2789   -777.06171    37625.902 
  570900    296.37712   -1500.4196    449.90915    281.72293    527.85944    37625.902 
  571000    303.89257   -1520.6134    512.06015    357.46252    320.16795    37625.902 
  571100    295.39798   -1507.1918    491.04615    311.68644     298.4067    37625.902 
  571200    299.05231   -1508.7673     459.2187    294.70991    506.17464    37625.902 
  571300    315.97497    -1528.457    479.58941    371.45932   -74.065648    37625.902 
  571400    293.98223   -1562.6882    462.06567    220.84572     127.8038    37625.902 
  571500    298.11596   -1566.0282    481.60579    255.62712    430.15857    37625.902 
  571600    298.76792   -1598.7257    481.80453      226.059    263.15609    37625.902 
  571700     297.9538   -1567.3945    443.33058    215.25671   -421.71449    37625.902 
  571800    293.04474   -1547.7712    470.43721    239.92011   -1199.5225    37625.902 
  571900    305.81157   -1575.2497    473.55693    272.94909   -890.04745    37625.902 
  572000    300.86065   -1580.4541    444.50387    216.43687   -869.05922    37625.902 
  572100    297.02356   -1544.7497    492.65216     283.0417   -524.18341    37625.902 
  572200    300.53626   -1561.6289    434.89404    224.19409   -743.56652    37625.902 
  572300     292.1494   -1549.8675     486.1092    249.47128   -640.73739    37625.902 
  572400     300.6763   -1523.9428     473.5586    301.17431   -725.14013    37625.902 
  572500    297.56557   -1593.3854    447.50281    191.69294   -646.37121    37625.902 
  572600    310.14475   -1575.0561    467.66766    286.73137   -238.95381    37625.902 
  572700    292.38315   -1552.7339    449.04976    210.59609   -162.99124    37625.902 
  572800    292.46009   -1527.7816    473.85232    260.69685   -6.7917781    37625.902 
  572900     293.0885   -1548.5417    473.10713    242.01627    700.90918    37625.902 
  573000    303.77491   -1565.9314    477.24311    276.79866    953.31114    37625.902 
  573100    299.89923   -1517.3023    491.33685     322.1001     557.9419    37625.902 
  573200    295.60854    -1511.492    457.08374    274.37027    516.40121    37625.902 
  573300     303.9239   -1549.7403    468.46181    284.87813    274.30505    37625.902 
  573400    302.33699   -1522.3998     473.0544    309.67794    268.00788    37625.902 
  573500     306.3604   -1609.7111    441.34608    208.74384    178.75049    37625.902 
  573600     290.8604   -1595.2203    496.47692    208.69199     394.8984    37625.902 
  573700    290.80155   -1546.6723     490.5392    251.03779    184.62275    37625.902 
  573800    298.51203   -1536.2134    465.34379    270.96037   -743.00124    37625.902 
  573900    305.36204   -1520.9594    457.69853    309.36032   -698.20485    37625.902 
  574000    301.09392   -1534.9605    469.17633    287.65156   -562.60204    37625.902 
  574100    307.80672   -1555.1241    469.77843    298.26447    -238.7956    37625.902 
  574200    306.00367        -1573    475.28366    277.78905   -95.837097    37625.902 
  574300    298.99932   -1557.8696    443.47328    229.62399   -55.170491    37625.902 
  574400    309.06192   -1530.2603    450.54737    309.53945    145.20566    37625.902 
  574500    305.42128   -1526.5922    476.63571      322.931   -136.30515    37625.902 
  574600    291.12709   -1529.5861    469.20115    248.24929   -491.24942    37625.902 
  574700    309.60284    -1546.319    495.90635    341.27112    511.58323    37625.902 
  574800    296.85301   -1546.4688    436.62572    224.52948   -21.204605    37625.902 
  574900    305.13656   -1554.4296    470.90175    288.07978   -121.85605    37625.902 
  575000    299.58741   -1550.7825    492.38666    288.26806   -206.85207    37625.902 
  575100    296.78797   -1530.1999     451.1243    255.00461    400.21315    37625.902 
  575200    306.87344   -1543.4421    482.62519     318.5981    583.14805    37625.902 
  575300    303.39105   -1496.6084    489.61381     356.7669    670.75411    37625.902 
  575400     310.6349   -1528.2646    484.21652     352.2749    1227.3572    37625.902 
  575500    309.17703   -1558.5737    468.61871    299.81481    386.09737    37625.902 
  575600    297.73887   -1525.9578    465.80995    278.20669   -65.776191    37625.902 
  575700    291.26576   -1513.0771    470.52017    266.70057   -182.55205    37625.902 
  575800    294.84536   -1486.2957    476.34122    315.39358    46.004285    37625.902 
  575900    293.93649   -1484.6234    484.13906    320.77831    232.40082    37625.902 
  576000    304.20506   -1497.7206    493.33008    363.02998    30.027068    37625.902 
  576100    289.91375   -1500.6764    473.27025    275.77399    428.88345    37625.902 
  576200    301.70911   -1553.6281    468.87314    271.44608   -130.88505    37625.902 
  576300    295.44152   -1526.4567    493.26785    294.83897    -727.6295    37625.902 
  576400    299.34169   -1546.1005    491.97959    291.43843     161.7769    37625.902 
  576500    298.37298    -1557.216    480.78221    264.77113    284.60343    37625.902 
  576600    300.94423   -1561.9093    478.75319    269.60676    406.60698    37625.902 
  576700    309.79196    -1559.492    461.85035    294.89232    216.86968    37625.902 
  576800    296.97653   -1558.2421    498.94376    275.62941    259.57828    37625.902 
  576900    299.64015   -1482.4229    486.08882     350.5668    14.856688    37625.902 
  577000    300.62188   -1527.2435    480.56056     304.6309   -426.06807    37625.902 
  577100    300.05074   -1468.4222    465.43262    345.75701   -460.56185    37625.902 
  577200    306.92518   -1500.6848    489.95885    368.92164   -339.21323    37625.902 
  577300    298.86691   -1478.7917    487.45306    352.08655   -24.411415    37625.902 
  577400    301.90971   -1503.1577    485.11135    339.05636   -423.55156    37625.902 
  577500    290.68949   -1482.8101    487.42607    311.28318     103.4434    37625.902 
  577600    300.07757   -1475.2922    483.86716    357.44212   -166.59132    37625.902 
  577700    301.73325   -1482.0857    477.68598    351.90982   -387.05966    37625.902 
  577800    298.88016   -1523.6412    512.50413    332.34761   -249.42552    37625.902 
  577900    301.20419    -1489.918     506.8793    370.89262   -535.42901    37625.902 
  578000    299.07564   -1501.3092    497.21511    340.26931   -783.85442    37625.902 
  578100    297.03943   -1502.5293    478.05485    310.73606    -609.0827    37625.902 
  578200    287.11834   -1510.5416    487.97751    268.05055    -699.0666    37625.902 
  578300    290.51152   -1523.3456    457.54486     240.0664    -396.3094    37625.902 
  578400    296.51842   -1531.4454    479.57147     280.9946   -432.21942    37625.902 
  578500     304.2477   -1558.3873    502.13097    311.35578   -11.113491    37625.902 
  578600    294.46509   -1540.8367    495.92706    278.72906   -42.983221    37625.902 
  578700    296.20715   -1503.0537    502.46514    330.88082    432.41958    37625.902 
  578800    303.79102    -1539.536    486.94913    312.97249    248.32406    37625.902 
  578900    310.09432   -1513.2629    503.46704    384.09725    749.30356    37625.902 
  579000    306.87376   -1539.0567    503.70574    344.06554    418.86438    37625.902 
  579100     291.0872    -1550.786    471.28291    228.95176   -40.531847    37625.902 
  579200    311.65799   -1516.5017    486.92895    371.34914    277.36218    37625.902 
  579300    299.24701   -1487.5535    460.18178    317.76202     90.33662    37625.902 
  579400      309.272   -1521.8575    488.65808    356.99729    115.55072    37625.902 
  579500    308.08091   -1534.3405    478.09391    328.59609   -415.48093    37625.902 
  579600    295.63217   -1522.8573    497.79922    303.82669   -297.45039    37625.902 
  579700     296.3404   -1517.8718    479.93067    294.12722   -515.00866    37625.902 
  579800    304.08244   -1528.5375    491.30498    329.63674    -121.9476    37625.902 
  579900    296.49157    -1598.406    455.35999    189.70186   -118.81394    37625.902 
  580000    301.06667    -1534.974    462.79675    281.13597    -300.8063    37625.902 
  580100    301.79748    -1535.262    481.32848    302.66469   -499.07344    37625.902 
  580200    294.96125   -1513.4118    494.12072    306.57789     150.1161    37625.902 
  580300    305.10618   -1502.3154    489.31125    358.46695   -153.38381    37625.902 
  580400    295.56497   -1478.6533    498.10659    348.03605    116.34649    37625.902 
  580500    294.97359   -1469.4291    498.68664    355.18201   -169.34895    37625.902 
  580600    305.99147   -1492.7908    504.82773    387.48739    -628.3838    37625.902 
  580700    292.40755   -1494.1844     484.9815    305.18707     -676.993    37625.902 
  580800    297.35945   -1472.4636    490.02356    354.20899   -563.52448    37625.902 
  580900    296.20158   -1499.0661     478.2182    310.59645   -822.48218    37625.902 
  581000    313.06909   -1498.0122    476.24566    385.49835   -33.592955    37625.902 
  581100    307.42018   -1529.3967    476.34853    328.82447   -608.04321    37625.902 
  581200     301.7752   -1475.8101     482.6239    363.31186   -656.99245    37625.902 
  581300    307.71153   -1474.3563     500.0599    408.88584   -362.05408    37625.902 
  581400    304.69885   -1507.9703    500.67349    362.34325   -280.83572    37625.902 
  581500    297.84313   -1495.9426     462.2296    305.11022    77.325064    37625.902 
  581600    311.76614   -1521.3187     493.8046    373.89387    299.29543    37625.902 
  581700    303.66885   -1534.4688     483.8212    314.36259   -28.438696    37625.902 
  581800    290.81393   -1507.9585    468.91021    268.17821    37.856869    37625.902 
  581900    294.76904    -1491.128    468.67544    302.55241   -330.29094    37625.902 
  582000     299.1105   -1498.7834    474.34214    320.07882   -500.48717    37625.902 
  582100    298.59255   -1481.3485    475.19956    336.04292   -328.31069    37625.902 
  582200     300.5993   -1482.9957    496.99127    365.20799    15.296024    37625.902 
  582300    292.10567   -1509.8168     497.1332    300.34933  -0.75131248    37625.902 
  582400    288.64728   -1493.1855    469.15651    273.45832   -456.51049    37625.902 
  582500    303.35398   -1522.2504    452.60529    293.94966   -52.259753    37625.902 
  582600    307.22371   -1476.5353    477.15159    381.60581    781.71411    37625.902 
  582700    298.98611   -1520.4629     486.2503    309.74836    432.33496    37625.902 
  582800    296.19801   -1503.2574    480.22974    308.40065    558.32708    37625.902 
  582900    297.43053   -1543.3738    460.44497    254.03967    541.72491    37625.902 
  583000    307.09613   -1519.2753    502.93897    364.07971   -45.367911    37625.902 
  583100    300.49081   -1493.1038    485.65741    343.27823    290.37511    37625.902 
  583200    289.64525   -1495.6681    515.95288    322.25804   -190.96431    37625.902 
  583300    299.23262    -1499.284    498.68111    344.46612   -352.68713    37625.902 
  583400    293.25312   -1510.3142    477.49826    285.37485   -208.36076    37625.902 
  583500    302.93339   -1498.9943    502.63253    365.34245   -274.74648    37625.902 
  583600    308.93089    -1513.949    505.45473    380.16907   -211.48345    37625.902 
  583700    294.81661    -1522.268     469.7116    272.66238    49.721736    37625.902 
  583800    292.11605   -1495.7833    530.00291    347.29927   -241.83425    37625.902 
  583900    301.61199     -1485.49    479.33191    349.60641   -245.32608    37625.902 
  584000    299.28368    -1476.525     479.3312    348.10481   -136.97209    37625.902 
  584100    303.50776   -1467.5507    482.11432    378.84972   -193.30616    37625.902 
  584200    300.10409   -1484.3828    479.34811    343.95167   -364.50661    37625.902 
  584300    305.99436   -1456.5525    500.79444    419.70539   -242.79946    37625.902 
  584400    292.86414   -1459.1815    489.22813    346.48898   -443.36236    37625.902 
  584500    308.28438   -1496.2278    476.67319    366.20266   -178.11013    37625.902 
  584600    296.68992   -1491.6371    470.44694    312.44924   -345.33578    37625.902 
  584700    299.73935   -1485.4929    500.07656    361.93045   -811.69091    37625.902 
  584800    297.50566    -1463.414    493.68948    367.58174    -411.8178    37625.902 
  584900    300.08072   -1487.0132    470.12829    331.99642    -465.0642    37625.902 
  585000    307.94725   -1484.2087    479.15488    379.18797    34.767797    37625.902 
  585100    314.14495   -1502.2289    495.30313    405.17514    26.896408    37625.902 
  585200    314.87072   -1509.5199    500.47171    406.31505     482.9595    37625.902 
  585300    299.62988    -1466.899    449.70497    329.66069    577.60197    37625.902 
  585400    305.59037   -1472.8265    512.71065    413.53167    509.57304    37625.902 
  585500     297.9552   -1505.3487    494.87218    328.85043    388.52191    37625.902 
  585600     295.4956   -1492.3478    487.07096    322.99408    -247.7204    37625.902 
  585700    293.42341   -1478.6511    520.35247    360.65767    346.42486    37625.902 
  585800    297.73756   -1478.7477    513.76328    373.36427     350.2042    37625.902 
  585900    303.05365   -1524.7551    485.50256    322.99231    254.15892    37625.902 
  586000    303.89738   -1536.0291    474.61478    304.62314    147.76975    37625.902 
  586100    301.19327   -1543.7206    500.49209    310.65375   -43.454521    37625.902 
  586200    304.75257   -1537.7429    469.68128    301.81994    653.26073    37625.902 
  586300    295.49644   -1541.2502    466.50947    253.53397   -138.07652    37625.902 
  586400     304.4291   -1517.0397    487.98676     339.3746    581.73879    37625.902 
  586500     294.7032   -1518.4528    475.83779    282.09404    58.084117    37625.902 
  586600    298.30806   -1518.4196    505.07108    327.56463    113.55999    37625.902 
  586700     302.2596   -1506.8753     479.2409    331.04107    47.338238    37625.902 
  586800    296.25106   -1528.9938    475.18096    277.85396    76.201023    37625.902 
  586900    307.18998   -1489.5271    492.13529    383.44602   -173.19057    37625.902 
  587000     288.4395   -1480.7986     475.5306    291.28533   -107.92237    37625.902 
  587100     297.1565   -1472.6293    503.43895    366.54643    -548.5988    37625.902 
  587200     291.0701   -1468.6372    490.82323    330.56401   -548.44942    37625.902 
  587300    298.33039   -1483.2144    490.16059    347.95967    79.623707    37625.902 
  587400    307.89086   -1499.3468    505.04426    389.68582   -209.02646    37625.902 
  587500    308.86509   -1479.8969    465.41278    373.88349    30.193041    37625.902 
  587600    295.36908   -1485.7081    475.53605    317.53021   -407.01255    37625.902 
  587700    297.46048   -1491.3554     473.9484    319.69621    -332.5632    37625.902 
  587800    303.94606   -1444.6171    504.37507    426.01429    776.40773    37625.902 
  587900    292.07201   -1486.8584    472.67549    298.69874    535.68124    37625.902 
  588000    293.85626    -1481.099    490.31083    330.11382    637.24147    37625.902 
  588100    298.41123   -1454.9854    500.44348    386.83492    449.34912    37625.902 
  588200    307.18557   -1490.9047    491.07861    380.99196    159.92155    37625.902 
  588300    302.86321   -1501.0486    487.94956    348.28971    477.56621    37625.902 
  588400    295.92206   -1448.3453    477.07664    358.91919  -0.82216282    37625.902 
  588500     297.4473   -1425.6027    514.97912     426.4204   -371.33331    37625.902 
  588600    306.41526    -1472.353    488.05087    393.05331    -757.5546    37625.902 
  588700    289.30448   -1475.9845    468.72864    293.18558   -419.08179    37625.902 
  588800     302.1241   -1466.9566    470.55198     361.6618   -730.08726    37625.902 
  588900    295.08542   -1455.2169     465.9249     337.1351   -120.69185    37625.902 
  589000    300.78324    -1469.013    497.98483      381.011   -1016.2968    37625.902 
  589100    285.86547   -1429.5405    459.10812    314.55045   -444.84129    37625.902 
  589200    304.21362   -1469.3396    489.26759    387.38696   -133.11428    37625.902 
  589300    294.34443    -1444.512    471.02995    349.61433    151.84272    37625.902 
  589400    306.82874   -1444.4657    506.21898    440.96733    115.07773    37625.902 
  589500    293.01026   -1454.9232    477.72962    339.90557    39.537027    37625.902 
  589600    312.46791   -1454.7948     493.2259    442.99362    184.42859    37625.902 
  589700    296.62168   -1444.0447    497.61243    386.90044    189.09067    37625.902 
  589800    291.30476   -1472.0615    492.51163    329.88299    232.22148    37625.902 
  589900    309.96457   -1489.5117    509.14091    412.93908   -166.62108    37625.902 
  590000    294.63691   -1482.7652    480.73179    322.37767   -445.62176    37625.902 
  590100    314.06812   -1435.2007    475.98457    452.53939    93.883431    37625.902 
  590200    296.65101   -1490.2903    489.95848    333.13269     816.1777    37625.902 
  590300    267.91283   -1488.5441    523.57566    239.31619    1019.9023    37625.902 
  590400    295.90235   -1494.0117    488.46397    324.55159    693.71046    37625.902 
  590500    285.78016   -1496.5537    497.89436    285.94005    46.642064    37625.902 
  590600    296.59974   -1476.1738    488.36203    345.42228     184.3802    37625.902 
  590700    296.41623   -1498.3783    487.31465    321.34553    294.67442    37625.902 
  590800    291.40162   -1489.1263    493.69707    314.43903   -357.72909    37625.902 
  590900    288.48041   -1469.6296    493.29009    320.39765   -30.481685    37625.902 
  591000    300.31183   -1440.2509    491.89518    401.56443    -233.1418    37625.902 
  591100    290.05415   -1463.5296     478.8139    319.09555   -327.41577    37625.902 
  591200    308.38562   -1457.0706    486.47405    415.61582   -211.60527    37625.902 
  591300    301.55181   -1460.5967     486.0789    380.97615    -197.4397    37625.902 
  591400    293.80863   -1445.7181    491.60123    366.57107   -405.49235    37625.902 
  591500    304.13379   -1448.6924    485.64195    404.04965     17.03087    37625.902 
  591600    299.38817   -1518.4995     464.8436    292.11239   -354.43914    37625.902 
  591700    294.05089    -1483.966    493.46177    331.27261   -20.738797    37625.902 
  591800     303.5052   -1468.5198    506.16571    401.92049    335.28545    37625.902 
  591900     302.5442    -1469.994    464.05901    354.01981    169.79984    37625.902 
  592000    295.47612   -1478.1443     476.8713    326.91029   -374.64259    37625.902 
  592100     296.5353   -1440.5882    483.55445    375.91071   -376.09649    37625.902 
  592200    297.61284   -1489.0886    486.53544    335.23493   -29.293843    37625.902 
  592300    297.51625   -1462.6199    483.43438    358.16837   -9.7823019    37625.902 
  592400    302.16109   -1462.2038    514.70646    410.73537    214.34757    37625.902 
  592500    292.47203   -1483.2841    481.99975    313.39543   -304.56042    37625.902 
  592600    309.78062   -1468.4556    473.46462    397.49201    15.066718    37625.902 
  592700    285.41518   -1494.5414    507.16976    295.58713   -376.60783    37625.902 
  592800    300.65396   -1473.0495    476.77851    355.18712   -452.92881    37625.902 
  592900    292.70212   -1460.2732    481.65771    337.09859   -84.220039    37625.902 
  593000    295.97261   -1485.1125    492.85165    338.15422    174.89224    37625.902 
  593100    304.53726    -1505.595    505.87673    369.19545    572.17926    37625.902 
  593200    302.16353    -1515.547    489.19856    331.89521    527.30783    37625.902 
  593300    303.90103   -1568.3007    471.66046    269.41362   -207.94179    37625.902 
  593400    296.98018   -1564.4227    477.41679    247.93829    43.127558    37625.902 
  593500    309.71783   -1525.0266    501.45076    368.62488   -106.54841    37625.902 
  593600    304.14875   -1499.5601    479.29041    346.89767    55.710231    37625.902 
  593700    303.44904    -1555.467    473.47213    282.02726    157.41785    37625.902 
  593800    310.32854   -1547.6825    475.82562    323.08899    31.265487    37625.902 
  593900    308.19636   -1554.2152    514.98185    346.12824    329.28837    37625.902 
  594000     293.1104     -1533.64    464.22505    248.13433    25.702235    37625.902 
  594100    302.17755   -1517.9038    484.60348    325.00634    191.74814    37625.902 
  594200    299.18142   -1484.8549    479.82532    339.80934    112.38275    37625.902 
  594300     312.0616   -1514.5534    471.49228    359.67494    200.44628    37625.902 
  594400    304.71475    -1521.293    451.96824     300.3868    114.91505    37625.902 
  594500    298.76742   -1506.0365     481.9785    318.91994    -113.9964    37625.902 
  594600    298.67431   -1491.9908    485.10465     335.6733    467.47093    37625.902 
  594700    298.23755    -1518.857    494.27582    316.01492    519.76508    37625.902 
  594800    295.32639   -1531.7359    489.45132    285.22572    359.91783    37625.902 
  594900    286.35595   -1525.1886    503.70661    265.70568    366.15456    37625.902 
  595000    305.16472   -1489.9487    485.13923    366.92477    173.25408    37625.902 
  595100    299.36693   -1506.3769    497.31134    336.60722   -87.640569    37625.902 
  595200    304.82839   -1498.6428    470.39868    341.97825    181.54508    37625.902 
  595300    295.45577   -1544.9984    471.53891     254.6324    282.55361    37625.902 
  595400    308.54147   -1487.5641    482.03515    381.38398    172.60269    37625.902 
  595500    297.30235   -1500.4578    500.46199    336.39658    7.8781012    37625.902 
  595600     304.8551   -1462.2759      484.862    392.92854   -731.52382    37625.902 
  595700    302.48169   -1493.6552      472.658    338.67665   -198.23585    37625.902 
  595800    297.57148   -1499.6302    487.28401     325.2559   -515.34345    37625.902 
  595900    302.07615   -1457.7022    465.13354     365.2822   -369.85586    37625.902 
  596000    311.04259   -1454.6028    477.90928    421.46206    98.531129    37625.902 
  596100    300.16096    -1489.511    490.79379    350.52477   -476.02925    37625.902 
  596200    293.50296   -1470.9572    494.54076    342.89742   -356.50451    37625.902 
  596300     303.3852   -1523.9609    467.90076    307.67504   -142.27376    37625.902 
  596400    296.48444   -1509.4334    489.95882    313.24125     2.981358    37625.902 
  596500    300.31172   -1535.9937     472.3639    286.28982    -259.9782    37625.902 
  596600     294.1623    -1519.842    479.14348    281.57918   -575.42952    37625.902 
  596700     289.7236   -1526.5562    471.96352    247.73273   -535.00434    37625.902 
  596800    299.65288   -1549.0881    472.19383    270.06383   -92.677955    37625.902 
  596900    295.28052   -1562.9916    483.54205    247.85453     273.1175    37625.902 
  597000    302.57217   -1543.0082    469.82637    286.89873    394.73092    37625.902 
  597100    294.56909   -1532.5009    486.68288    278.28817    324.07599    37625.902 
  597200     291.5021   -1545.2251    500.39442    265.48926     360.7639    37625.902 
  597300     302.0481   -1550.8643    478.97146    285.83192   -84.514989    37625.902 
  597400    295.46161   -1480.6163    484.35926     331.8611   -182.36236    37625.902 
  597500    311.74163   -1522.6481    503.50944     382.1592   -539.35506    37625.902 
  597600    298.53608   -1524.5618    445.90766    263.28395   -271.90937    37625.902 
  597700    304.20678   -1545.2484    506.56214    328.74191    445.54572    37625.902 
  597800    291.71827   -1594.6006    463.04502    179.73605   -73.677386    37625.902 
  597900    300.56985   -1560.7013    480.06185    270.44051    126.92045    37625.902 
  598000    304.55553   -1542.1124    488.63323    315.51675     327.5396    37625.902 
  598100    309.93913   -1549.5746    485.22174    328.84262    941.84603    37625.902 
  598200    293.32659   -1511.4708    475.30209    282.35235    960.17119    37625.902 
  598300    294.13795   -1472.4747    506.49662    356.19015    697.86527    37625.902 
  598400    304.08293   -1508.2494    473.47475     332.0968    383.30409    37625.902 
  598500    301.41029   -1484.0672    469.03011    339.82076    554.72725    37625.902 
  598600    288.89871   -1504.8035    480.61178    274.42575   -94.312435    37625.902 
  598700    309.31074   -1492.1469    485.60119    383.82508    300.97142    37625.902 
  598800    296.42299   -1495.0825    491.17335    328.53047    427.80898    37625.902 
  598900    295.46216   -1524.3043    503.26614    307.08246    307.88081    37625.902 
  599000    298.15307   -1509.0792     482.4817    313.61889    757.78607    37625.902 
  599100    297.11963   -1512.3834    510.54767    333.73525    953.05422    37625.902 
  599200    296.03961   -1534.1892    492.51273     289.0398    716.03909    37625.902 
  599300    310.48071   -1511.6401    492.60859    376.59836    1106.8821    37625.902 
  599400    300.20945   -1521.4471    491.64612    319.65897    631.25204    37625.902 
  599500    306.92463   -1553.4565    494.45323    320.64183    443.87421    37625.902 
  599600    314.26596   -1497.9483    462.08495    376.78154    416.30203    37625.902 
  599700    304.71702   -1530.0569    476.12324    315.78806   -244.04643    37625.902 
  599800    303.96443   -1495.0097    479.55207    350.88122    704.46822    37625.902 
  599900     297.2989   -1566.7666    484.42013    254.03034     381.8474    37625.902 
  600000    295.04529   -1504.9618     504.9577    326.24266    829.31048    37625.902 
  600100    301.82211   -1527.9582    483.18275    311.93346    548.21503    37625.902 
  600200    297.20173   -1539.1003    487.89371    284.73352   -308.07587    37625.902 
  600300    300.05274   -1525.4175    472.04684    295.38485   -212.81935    37625.902 
  600400    290.63676   -1545.3598    483.21715    244.28747   -290.41759    37625.902 
  600500    305.03446    -1516.932    522.80874    377.02547    -858.7886    37625.902 
  600600    305.37861   -1577.1921    462.69113    258.19465    196.64988    37625.902 
  600700    291.44745   -1560.7765    488.46665    237.76434   -113.97647    37625.902 
  600800    296.59553   -1573.2171    488.70015    248.69825   -20.934341    37625.902 
  600900     297.4974   -1542.0281    483.81452    279.05552    174.91333    37625.902 
  601000    305.39916   -1549.8484    466.53754    289.47717     232.3721    37625.902 
  601100    311.27557   -1544.9691     490.5332    344.76692    147.57662    37625.902 
  601200    300.19219   -1569.8216    481.57429     261.1351   -12.352624    37625.902 
  601300    288.60618   -1536.7713     500.5017    261.03291    68.570279    37625.902 
  601400    304.65998   -1492.9072    500.78993    377.34803    100.80395    37625.902 
  601500    306.25891   -1533.8862    476.49856    319.26503   -62.950814    37625.902 
  601600    299.24217   -1531.8266     458.2178    271.50317   -501.67657    37625.902 
  601700    291.31428    -1559.117    486.17937    236.53796   -201.55931    37625.902 
  601800    300.75438   -1573.1517    473.30313    252.06083   -456.33672    37625.902 
  601900    309.09715   -1519.2236    472.92694    343.11404   -510.26813    37625.902 
  602000    310.12488   -1539.9012    458.15708    312.28631   -836.73765    37625.902 
  602100    303.46829   -1547.2801    489.20488    306.03337   -375.57818    37625.902 
  602200    301.56186   -1574.1905    466.97657    248.32519    95.782253    37625.902 
  602300    302.81174   -1583.6631    466.55122    244.04556    -175.7917    37625.902 
  602400    299.51622   -1570.3058    485.48066    261.51872   -72.592313    37625.902 
  602500    293.54731   -1550.2632    485.55433    254.80435   -966.80777    37625.902 
  602600    298.67798   -1543.3791    479.35806    278.55491   -534.90992    37625.902 
  602700    297.29253    -1525.222    468.38763    279.51383   -394.40884    37625.902 
  602800    305.66536   -1496.3091    470.22278    347.89823   -610.87834    37625.902 
  602900    301.95846   -1506.1726    495.42999    346.57928    479.67296    37625.902 
  603000    303.11508   -1476.8017    498.64627    384.36554    325.19471    37625.902 
  603100    291.05093   -1506.9232     532.2506    333.61922    496.72306    37625.902 
  603200    300.59317   -1532.6985    495.22031    313.70658    372.06917    37625.902 
  603300    301.79674   -1522.1974    499.22915    333.62663   -324.95341    37625.902 
  603400    300.51503   -1532.8749    472.93533    290.89396   -436.21617    37625.902 
  603500     296.8414   -1526.9508    479.72661    287.09618   -403.36138    37625.902 
  603600    302.08414   -1528.3193    499.73834    329.30579   -903.40459    37625.902 
  603700    295.18053   -1495.1548    508.52095    340.22086    -589.7955    37625.902 
  603800    311.36892   -1526.0892    467.59576    341.12907   -260.67813    37625.902 
  603900    291.10221   -1536.9041    495.81609    267.43434   -357.87055    37625.902 
  604000    303.29338    -1494.416    520.54157    389.44798   -149.47868    37625.902 
  604100    281.09214   -1512.1511    476.01679    227.39214   -318.84888    37625.902 
  604200    300.17758   -1539.0671     492.6396    302.88922   -115.92289    37625.902 
  604300    308.66412   -1555.6214    489.86122    321.70407     409.8468    37625.902 
  604400    286.38716   -1531.5147    515.95876    271.77197     300.5751    37625.902 
  604500    293.48606    -1528.817    477.21241    267.63334    124.97198    37625.902 
  604600    293.75835   -1537.7876    469.44006    252.11436    300.57155    37625.902 
  604700    301.51471    -1591.126    508.27189    272.47308    553.36957    37625.902 
  604800    300.12252   -1580.3065    499.84083    268.60351    446.64965    37625.902 
  604900    296.80167   -1597.1875    476.78862    213.74287    86.074352    37625.902 
  605000    299.20258   -1530.4697    473.25646     287.7208    641.17873    37625.902 
  605100    291.46862   -1518.5356    495.15716      286.791     261.8037    37625.902 
  605200    299.61553   -1544.8665    482.76058    284.68432     348.5108    37625.902 
  605300    303.35217   -1497.0374    460.89473    327.44405    86.427245    37625.902 
  605400    300.16683   -1527.1011    487.51894    309.68619   -273.44943    37625.902 
  605500    298.86512   -1539.5173    486.94126    290.84107   -284.21892    37625.902 
  605600    293.66737   -1521.7048     469.4506    267.79875    371.70929    37625.902 
  605700    301.58131   -1474.6573    528.88753    409.85679    487.53672    37625.902 
  605800    306.61609   -1504.9183    496.25829    369.59819    519.44613    37625.902 
  605900    300.79235    -1498.261    485.24213    339.06127    490.30986    37625.902 
  606000    297.82125   -1497.2762    500.13296    341.58156     694.6729    37625.902 
  606100    310.11962   -1516.3389    499.77234     377.4402    727.72005    37625.902 
  606200    290.64515   -1540.0317    473.16206    239.59824   -150.93679    37625.902 
  606300    301.17575   -1513.4869    485.23382    325.55044   -274.35654    37625.902 
  606400     295.3126   -1533.2444    489.08298    283.28693     121.1804    37625.902 
  606500    293.96631   -1565.2121    485.23991    241.42447    421.08916    37625.902 
  606600    294.89281   -1517.6798    492.28976    300.17126    942.44204    37625.902 
  606700    298.87058   -1559.4214    492.73915     276.7594    558.15652    37625.902 
  606800    297.98024   -1549.7176     475.7159    265.43779    321.07753    37625.902 
  606900    301.02726   -1495.7868     478.5068    335.85607    216.39758    37625.902 
  607000    303.86107   -1526.6724    487.62159    326.82345     353.2439    37625.902 
  607100    297.12815   -1539.6688    467.07753    263.01805    -83.05362    37625.902 
  607200    306.17406   -1532.9621    485.79477    329.10392   -59.495046    37625.902 
  607300     306.4532   -1537.5792    496.76416    336.71093    -387.7504    37625.902 
  607400    310.52369   -1509.6726    463.69603    349.84655   -435.39581    37625.902 
  607500     301.6335   -1512.0769    493.46948    337.25372   -495.98277    37625.902 
  607600    307.46283   -1527.5412    487.89387    342.41706   -434.14222    37625.902 
  607700    300.85042   -1564.5789    487.32573    275.08802    -641.7706    37625.902 
  607800    290.49833   -1553.5565    490.62458    242.87595   -138.18178    37625.902 
  607900    303.44553    -1556.087    479.14607    287.06547     -300.078    37625.902 
  608000    314.98174   -1490.4164    505.84049    431.28639   -838.04997    37625.902 
  608100    303.82748   -1497.9329    479.94629     347.7366   -515.18963    37625.902 
  608200    301.54875   -1493.6266    484.94365    346.79722    5.8303321    37625.902 
  608300    296.16343   -1516.0201     513.1163    328.36899   -247.07373    37625.902 
  608400    298.85829   -1523.7279    484.64135    304.29986    -60.29684    37625.902 
  608500    300.20636   -1516.9216    465.42473    297.94919   -321.96805    37625.902 
  608600    296.58119    -1517.603    498.42628    313.97397   -573.85713    37625.902 
  608700    291.21711   -1547.8881    485.15502    246.30573   -219.61626    37625.902 
  608800    287.01236   -1496.4069    491.97457    285.70584   -693.82059    37625.902 
  608900    287.01775   -1505.6226    491.18253    275.72235   -323.26462    37625.902 
  609000    306.24749   -1503.6656    476.88921    349.82497    36.319353    37625.902 
  609100    303.68435   -1503.7644    483.15946    344.47491   -87.251662    37625.902 
  609200      296.629    -1533.225    490.65704    290.79768   -181.29216    37625.902 
  609300    309.17207   -1542.4761    485.33956    332.61094     290.0977    37625.902 
  609400    297.32814   -1540.9082    481.68574    277.28584    494.43085    37625.902 
  609500     298.5528   -1563.0178    484.77913    263.77453    598.45614    37625.902 
  609600    292.71968   -1577.7375     494.3106    232.36609    681.46117    37625.902 
  609700    303.23362   -1579.1753    479.19022    263.06864    58.101753    37625.902 
  609800    304.04314   -1586.9507     474.1816    253.92349    103.88344    37625.902 
  609900    310.55012   -1570.9593    448.56759    273.55017   -171.96362    37625.902 
  610000    302.32903   -1520.1754    465.17662    303.98881   -466.18048    37625.902 
  610100     312.5968   -1529.0297    483.02381    359.13599   -397.68923    37625.902 
  610200    302.27916    -1554.654    478.96699    283.07643   -366.35775    37625.902 
  610300    289.20753   -1515.7932    458.64046    242.85287   -570.58057    37625.902 
  610400    296.59526   -1528.5849    463.00875    267.63782   -609.08711    37625.902 
  610500    295.79364   -1523.5811    480.33063    286.36012   -654.66478    37625.902 
  610600    300.68895   -1592.6823    501.42868    260.36173   -105.96935    37625.902 
  610700    297.50951   -1520.6943     490.1315    306.76073    112.19363    37625.902 
  610800     304.8279   -1533.7566    474.26607    310.72967     279.2908    37625.902 
  610900    298.84037   -1547.6572    461.72837    257.37701    28.999881    37625.902 
  611000    300.68896   -1538.5331    503.83568    316.91795    237.41279    37625.902 
  611100    303.34487   -1564.9185    484.86558    283.50097    176.80776    37625.902 
  611200    298.37137   -1570.7516    473.23333    243.67945    34.663827    37625.902 
  611300     285.7076   -1551.0066     481.4552    214.72187     127.5417    37625.902 
  611400    301.46408   -1530.1117    477.12455    302.11241    534.35178    37625.902 
  611500    301.42315   -1565.8155     468.5398    257.63994     446.6784    37625.902 
  611600    296.21749   -1544.1794    500.66751    288.00393    218.40011    37625.902 
  611700    292.82201   -1562.6345    458.14197    211.76038    440.53905    37625.902 
  611800    295.35777   -1538.3375    492.75246    282.06638    16.591151    37625.902 
  611900    294.09309   -1539.8131    460.27113    242.42451   -242.44506    37625.902 
  612000    305.53883   -1507.6441     479.0576    344.82937   -214.16263    37625.902 
  612100    305.15511   -1517.5034     499.9938    354.18136   -277.24548    37625.902 
  612200    291.03719   -1510.2116    482.09303    280.11149   -297.18172    37625.902 
  612300    291.28119   -1491.9308    514.44231    331.83841   -322.19369    37625.902 
  612400    300.63481   -1490.0172     503.1493    364.50406    543.21216    37625.902 
  612500    304.92157   -1502.6063    478.89314    346.92803    654.76677    37625.902 
  612600    294.27658   -1472.6775    486.63507    336.74889    306.72042    37625.902 
  612700    303.44875    -1468.354    479.92078     375.5876   -229.67208    37625.902 
  612800    289.79566    -1480.795    471.43378    293.28816    533.13701    37625.902 
  612900    307.68341   -1496.9976    475.99817    362.05645   -185.12875    37625.902 
  613000    316.83636   -1480.0324    448.12132    392.28785    75.910654    37625.902 
  613100    298.31779   -1462.7913    503.01009    381.17556   -192.98807    37625.902 
  613200    300.27731   -1515.6378    518.61605    352.74326    -103.1208    37625.902 
  613300    296.87939   -1469.7721    487.04669     351.7657    196.98774    37625.902 
  613400    305.18936    -1458.889    513.94141    426.89741     1015.979    37625.902 
  613500    304.64958   -1478.3499    475.80025    366.86895    432.76528    37625.902 
  613600    303.20416   -1504.6742    517.11314     375.3603    823.39153    37625.902 
  613700    291.82631    -1442.875    503.21195    372.11417    495.46775    37625.902 
  613800    302.49237    -1463.761    488.94372    384.90457    161.92061    37625.902 
  613900      292.903    -1464.384    494.10534    346.33834   -108.11223    37625.902 
  614000    295.71984   -1499.1494    481.45721    311.58668   -150.69244    37625.902 
  614100     303.3681   -1521.2502    482.48026    324.88832   -467.44182    37625.902 
  614200    299.76746    -1549.449    500.62311    298.64728   -323.88776    37625.902 
  614300    297.07242   -1551.2162    472.72137    256.86401    170.82553    37625.902 
  614400    292.35728   -1558.7869    499.81782    255.19485    124.98748    37625.902 
  614500    294.44767    -1487.089     478.6888    315.16023   -431.24801    37625.902 
  614600    289.05936   -1500.2259    487.91602    287.02974    193.22145    37625.902 
  614700    289.67078   -1531.2784    499.62436    270.43392   -309.55794    37625.902 
  614800    308.62459    -1508.723    476.61635    355.17983    117.63347    37625.902 
  614900    300.78182   -1506.7855    475.13361    320.38088   -907.63888    37625.902 
  615000    296.33508   -1492.5431    484.20401    323.70531   -178.18871    37625.902 
  615100    298.76936   -1517.0988    488.94446    314.83232   -320.58455    37625.902 
  615200    292.54315   -1519.1345     483.9109    279.77583   -320.15077    37625.902 
  615300    303.22411   -1484.5452    483.35811    361.82392   -359.56171    37625.902 
  615400    303.33222   -1509.4581    493.05029    347.08921   -143.01166    37625.902 
  615500    299.66298   -1520.6091    487.05949    313.45395    370.63981    37625.902 
  615600    302.10507   -1504.4509     485.6491    339.17906    50.824414    37625.902 
  615700    308.65026   -1514.9769      479.902      352.327    223.43959    37625.902 
  615800    291.92262   -1512.7673    489.78334    289.22619   -436.31756    37625.902 
  615900    284.84809   -1533.5161    488.02567    234.91931   -151.69187    37625.902 
  616000    295.18362   -1517.7509     514.1855    323.30314    324.21342    37625.902 
  616100    296.05278   -1526.3949    484.77876    289.15932   -63.300274    37625.902 
  616200    295.77719   -1510.7244    488.32915    307.14145    -135.7243    37625.902 
  616300    297.37698   -1550.0032    469.26957    255.99418    10.815164    37625.902 
  616400    298.64915   -1496.9099    507.92945    353.46588   -202.94061    37625.902 
  616500     294.9103   -1450.5904     484.5962    359.64575   -270.03222    37625.902 
  616600    311.97576   -1526.5186    489.61651    365.44817   -49.541229    37625.902 
  616700    307.56678    -1512.574    506.03899    375.99655    217.56368    37625.902 
  616800    294.98505   -1531.5377    495.93527    290.37355    66.048872    37625.902 
  616900    300.06714   -1543.5076    507.88127     313.1939    415.35386    37625.902 
  617000    298.52609   -1538.5306    491.76494    295.12745    283.20036    37625.902 
  617100    292.80984   -1522.9534    495.20103    288.44594    517.51741    37625.902 
  617200    300.57996   -1485.5834    499.32862    364.87065    615.13293    37625.902 
  617300    305.86779   -1461.7543    492.79072      405.931   -4.0578784    37625.902 
  617400    307.56616   -1447.6853    491.97404    426.81762   -363.59657    37625.902 
  617500    302.55628   -1495.1611    502.47662    367.32464    292.04976    37625.902 
  617600    301.04454    -1467.444    493.98232    379.75212    157.93474    37625.902 
  617700    303.62602   -1468.0384    548.39516    445.17444   -150.32473    37625.902 
  617800    301.01345   -1507.5286    488.96386    334.50921   -210.22981    37625.902 
  617900     302.0849   -1533.5695    507.09725    331.41794   -591.89921    37625.902 
  618000    300.24717    -1539.684    474.03964     283.9851     444.5232    37625.902 
  618100     293.3344   -1520.8931    513.14213    310.80519   -171.73971    37625.902 
  618200    289.38781   -1537.7897    486.77687    249.80319   -384.89739    37625.902 
  618300    300.13336    -1526.037    477.73329    300.81425   -47.208644    37625.902 
  618400    304.49615   -1550.3897    484.78987    303.12906    372.85841    37625.902 
  618500    301.87152   -1492.4132    504.37331    368.89116    224.35911    37625.902 
  618600    301.76238   -1508.3323    517.18484    365.29302    35.046924    37625.902 
  618700    306.55737   -1529.6336    462.78663     311.1473     352.4298    37625.902 
  618800    295.79668   -1525.1781    499.27007     303.7162   -9.2045537    37625.902 
  618900    291.73163   -1526.7594    478.02934    262.62161   -60.950399    37625.902 
  619000    293.41068   -1569.2875    476.93131     226.5429    -90.49341    37625.902 
  619100    310.19096    -1560.702    501.62755      335.253   -101.03725    37625.902 
  619200    310.50859     -1577.15    493.01089     311.6161     233.9946    37625.902 
  619300    295.57208   -1521.8334    491.97704    298.75832    129.04711    37625.902 
  619400    291.19745   -1520.8821    501.60121    289.66956   -148.03327    37625.902 
  619500    308.71185   -1496.2185    499.82309    391.28334   -616.97762    37625.902 
  619600     292.8633   -1555.9098    492.98674     253.5155   -1089.7948    37625.902 
  619700    293.47324   -1484.6859    493.70333    328.19765   -482.58909    37625.902 
  619800    302.04329   -1488.9314    472.66323    341.43505   -374.66563    37625.902 
  619900    298.50841   -1491.6874    500.34627     350.4725   -416.15786    37625.902 
  620000    302.66129   -1524.5792    476.22549    312.12741    96.673378    37625.902 
  620100    293.85835   -1541.1028    511.22501    291.03357   -167.45697    37625.902 
  620200    288.61385   -1537.0056    508.58017    268.91161    8.5811211    37625.902 
  620300    301.61745    -1544.398    498.79076    310.18173    479.55431    37625.902 
  620400    295.70494   -1556.0428    489.91931    263.08843    52.420804    37625.902 
  620500     285.5131   -1591.4384    453.21947    145.18002    130.30071    37625.902 
  620600    290.02551   -1567.8632    478.11665    213.93596   -205.53014    37625.902 
  620700    293.60413   -1563.5859    500.05789    256.24065   -25.441293    37625.902 
  620800    300.29375   -1556.4222    468.02514    261.44187    -148.6519    37625.902 
  620900    300.49761   -1588.3351    497.32244    259.74255    40.077179    37625.902 
  621000    285.40853    -1559.789    479.40239    202.54228   -7.4685228    37625.902 
  621100    289.38841   -1599.2031    522.43745    224.05307      431.179    37625.902 
  621200    301.16248   -1546.2312    487.30684    294.81947    233.48771    37625.902 
  621300    293.83011   -1520.6367    491.64197    291.78965   -54.699219    37625.902 
  621400    298.38462   -1488.3319    486.99264    339.91798   -255.74301    37625.902 
  621500    278.07239   -1515.3214    482.89158    217.52268    127.77523    37625.902 
  621600    305.94346   -1499.0588    502.65809    378.83396   -700.30237    37625.902 
  621700    309.98093   -1510.2308    473.23609    356.38865   -299.23566    37625.902 
  621800    308.06664   -1492.0143    489.79268    382.55689   -141.66888    37625.902 
  621900    292.65638   -1507.7244    491.41221    299.19622   -241.73607    37625.902 
  622000    292.95395   -1509.8034    473.15835    280.20097    300.73484    37625.902 
  622100    303.26419   -1558.0734    507.34661    312.46445   -230.82881    37625.902 
  622200     294.7436   -1514.8611    511.76065    321.79023   -18.093267    37625.902 
  622300    300.12998   -1539.1345     494.9553    304.92359    258.78987    37625.902 
  622400    304.67545   -1535.1159    476.83841    311.25738   -276.67124    37625.902 
  622500    284.30002   -1528.2623    509.59093    259.27474   -216.52039    37625.902 
  622600     305.3185   -1502.2767    488.22299    358.37175   -231.94029    37625.902 
  622700     295.9689   -1495.4537    478.63971     313.5844   -171.97951    37625.902 
  622800    301.08744   -1529.0138    506.83813    331.23088   -148.24466    37625.902 
  622900    296.14151   -1542.3095    480.75321    269.61803   -250.16067    37625.902 
  623000     301.7179   -1516.7032    490.69465      330.232    6.6048491    37625.902 
  623100     297.9504   -1504.7776    466.42431     300.9521    67.171904    37625.902 
  623200    292.32823   -1540.7563    497.21102    270.48808    55.030599    37625.902 
  623300    298.34924   -1558.2755    485.02828    267.85097   -156.70297    37625.902 
  623400    306.61683   -1528.8369    479.17379    328.59837   -34.839498    37625.902 
  623500     303.4724   -1536.0067    463.19426    291.31474   -558.27298    37625.902 
  623600    303.42994    -1535.247    478.55074    307.24001   -342.19811    37625.902 
  623700    307.99907   -1517.6837    490.60053    357.39157   -498.12569    37625.902 
  623800    304.53563   -1510.5995    481.14508    339.45202   -963.84621    37625.902 
  623900    303.73157   -1505.3165     499.5158    359.49146   -503.75934    37625.902 
  624000    289.69619   -1516.6151    497.20521    282.79229   -448.91469    37625.902 
  624100    290.10917   -1549.9025    488.34699     242.5031    -438.3255    37625.902 
  624200    291.15237   -1521.3908      494.869    282.22599    113.30799    37625.902 
  624300    291.80272   -1552.2616    492.65768     252.0673   -62.734375    37625.902 
  624400    292.73253   -1526.7141    501.93324    291.06984   -14.590332    37625.902 
  624500    301.15418    -1525.113    464.74985    293.34342    470.25988    37625.902 
  624600     289.2738   -1521.2872    523.07447    302.09078    298.03507    37625.902 
  624700    291.63041   -1521.6276    479.42923    268.69828    110.64765    37625.902 
  624800    315.42735   -1511.9649    483.27306    389.17347   -253.32623    37625.902 
  624900    300.11738   -1570.6982    499.45781    277.80573   -100.02665    37625.902 
  625000    289.65643   -1573.2475    486.72595    215.50189   -557.08006    37625.902 
  625100    302.33668   -1545.4456      469.581     283.1574   -486.92298    37625.902 
  625200    296.14067   -1524.1196    522.02299    329.07386   -159.28733    37625.902 
  625300    302.65208   -1527.5129    496.79447    329.72127    292.22853    37625.902 
  625400    294.12033   -1493.3853    473.03889    301.74252    198.54467    37625.902 
  625500    299.64753   -1501.5545    472.73302     318.1126    252.01272    37625.902 
  625600    298.61471   -1485.6156    507.72404    364.39996    378.53579    37625.902 
  625700    295.30111   -1481.9954    479.70132    325.10258   -36.313506    37625.902 
  625800     297.7674     -1474.15    497.48736     361.8202    89.836366    37625.902 
  625900    302.08117   -1534.7156    517.10317    340.26104    34.034618    37625.902 
  626000    301.00426   -1584.4971    473.60573    242.14127   -11.302484    37625.902 
  626100    296.18797   -1546.5153    471.12689    255.99475   -1007.6458    37625.902 
  626200    298.66558   -1549.5159    454.95152     247.9558   -402.23844    37625.902 
  626300    285.99658   -1512.6159    461.80007    234.75639   -34.722259    37625.902 
  626400    295.00728   -1501.3245    508.41072    333.16212   -144.79842    37625.902 
  626500    293.90999   -1521.3887    481.98197    281.73672   -286.71283    37625.902 
  626600    296.07056   -1496.6438    480.15482    314.36645   -634.85719    37625.902 
  626700    303.03335   -1525.5547    493.39145     329.9903   -912.93918    37625.902 
  626800    293.76706   -1583.8299    451.98294    188.65407    82.146424    37625.902 
  626900    303.52043   -1556.4283    495.88513    303.79986   -1.9173962    37625.902 
  627000    300.60367   -1540.8746    491.28112    301.63854    353.81747    37625.902 
  627100    298.97382   -1550.9097    482.76573    275.76181    316.09381    37625.902 
  627200    311.92087   -1549.3543    504.52142     357.2706    137.55379    37625.902 
  627300    296.05355   -1510.2703    495.87353    316.38216    156.18493    37625.902 
  627400    298.33849   -1488.9153    492.63909    344.77361   -446.98533    37625.902 
  627500    295.90108   -1529.9577    503.05867    303.19458   -46.705393    37625.902 
  627600    296.64976   -1545.3293     513.7879    301.91758     104.7574    37625.902 
  627700    296.39019   -1569.4596     481.2274    244.05994    238.81255    37625.902 
  627800    302.13529   -1577.6138    486.66797    267.17089   -523.75942    37625.902 
  627900    288.33331   -1596.4449    485.79701    185.42813   -378.58467    37625.902 
  628000    293.13014   -1593.0508    476.84737    201.43455    76.566802    37625.902 
  628100    300.75079   -1576.6432    513.57048    288.82061   -55.033316    37625.902 
  628200    306.96553   -1559.2238    477.33756    297.94265   -520.75825    37625.902 
  628300     287.2342   -1565.1623    474.36466    200.33778   -96.146841    37625.902 
  628400    289.28507   -1550.9151    507.18177    256.62086   -430.81393    37625.902 
  628500    295.33967   -1527.3234    497.12421    297.37078     133.4535    37625.902 
  628600    289.01624   -1503.5951     536.3352    331.88592    320.88129    37625.902 
  628700    293.05815   -1573.7867    521.86199    265.38969    26.305705    37625.902 
  628800    301.27626   -1591.0051     505.8754    269.12561     338.1324    37625.902 
  628900    296.48876    -1578.483     497.8784    252.13064   -75.807347    37625.902 
  629000    297.46011   -1559.1542    512.39393    290.34126   -181.77623    37625.902 
  629100    300.93188   -1539.6403     497.3487    310.41577    -336.0708    37625.902 
  629200     305.2039   -1546.7521    516.50055    341.65878   -670.05498    37625.902 
  629300    296.65736   -1591.0197    471.27625    213.74963   -492.75565    37625.902 
  629400    305.85752   -1630.1374    503.54427    248.25526   -502.39391    37625.902 
  629500    304.94071   -1571.1988    486.12121    285.64969   -19.774007    37625.902 
  629600    302.20545   -1572.4557    483.60708    269.58345   -254.96256    37625.902 
  629700    296.91933    -1583.114    506.10179    257.65844   -232.71317    37625.902 
  629800    300.55656   -1556.4966    498.15706    292.68065    87.001807    37625.902 
  629900    296.61161    -1591.728    508.25613    249.81558    259.03359    37625.902 
  630000    296.47169   -1567.6925    508.46973    273.43571    104.63932    37625.902 
  630100    301.23024   -1557.4814    506.98392    303.55101   -179.18308    37625.902 
  630200    294.03461   -1600.3961    486.59312    207.90067    -357.9693    37625.902 
  630300    297.77307   -1562.2769    490.71858    266.94992     122.3876    37625.902 
  630400    292.65164   -1583.2833    507.18834    239.39216    61.111284    37625.902 
  630500    302.98913   -1568.9982    521.64294    314.59953    286.32758    37625.902 
  630600    297.97472   -1560.1187    494.90183    274.19784    365.99936    37625.902 
  630700    289.26866   -1538.1548    507.33394    269.45961    599.50616    37625.902 
  630800    302.24129   -1537.9159    496.93013     317.6074    311.36646    37625.902 
  630900     296.2338   -1544.7291    487.91996    274.78001    735.24513    37625.902 
  631000    288.69182   -1554.9774    499.49974    242.20987    230.07231    37625.902 
  631100    299.68576   -1558.5713    481.54276    270.07736    852.91495    37625.902 
  631200    287.22867   -1600.6249    480.23733      170.723   -248.03202    37625.902 
  631300    307.08914   -1592.5748    476.57726    264.38702    400.16328    37625.902 
  631400    305.01025   -1547.8442    503.76733    326.96294    588.18772    37625.902 
  631500    298.51682   -1578.0399    511.21167    275.02325    111.08851    37625.902 
  631600    296.48256   -1576.9175    521.22203    277.01192    857.85258    37625.902 
  631700    287.71805   -1598.8185    469.78343    164.27532    243.91686    37625.902 
  631800    303.92091   -1565.7229    488.30585    288.72608   -482.15982    37625.902 
  631900    301.19979   -1546.7503    503.50369    310.66502   -469.52799    37625.902 
  632000    301.03397   -1542.6223    479.19656    289.74043   -793.42608    37625.902 
  632100    300.95402   -1559.4923    476.99429    270.30882   -277.09468    37625.902 
  632200     298.0463   -1562.6072    527.19547    304.32472   -206.63535    37625.902 
  632300    290.93527    -1562.885    488.93993    233.82683   -736.13735    37625.902 
  632400    310.48674   -1557.3269     502.5546    340.88472   -406.45411    37625.902 
  632500    296.21783   -1529.3763    505.22467     307.3657   -289.41274    37625.902 
  632600    299.75301   -1528.6837    485.41669    304.14123    477.44871    37625.902 
  632700    306.38684    -1579.611    488.97615    286.59282    211.62484    37625.902 
  632800    302.03667   -1557.9801    498.87606    298.56939    885.08467    37625.902 
  632900    304.29593    -1545.774    515.96619    338.02112    465.83451    37625.902 
  633000    296.80371   -1564.3749    495.43992    265.21604    422.15971    37625.902 
  633100    293.97933    -1558.933    496.53862    259.06076     445.2565    37625.902 
  633200     294.6143   -1559.0748    486.29485    251.52946   -543.09551    37625.902 
  633300    308.38207   -1570.9622    504.88347    320.11767   -344.23225    37625.902 
  633400    311.07323   -1533.7723    489.59391    354.11489    35.776372    37625.902 
  633500    308.97304   -1576.1193    508.27235    321.00591     441.9571    37625.902 
  633600    295.36292   -1570.5947    512.30331    269.38312    548.43338    37625.902 
  633700     304.2558   -1530.5583    512.20747    349.29775    736.75416    37625.902 
  633800    299.52227   -1565.8778    500.01451    280.50777    580.99525    37625.902 
  633900    296.65291   -1548.8885    502.68989     287.2745    698.84437    37625.902 
  634000    305.08361   -1530.2989    485.08899    326.15969    604.61234    37625.902 
  634100    291.36519   -1558.3739    544.61315    295.94375    777.30683    37625.902 
  634200    287.31321   -1558.5431    476.13723     209.0847    785.20576    37625.902 
  634300    289.98718   -1570.5025    494.51406    227.52181    726.20683    37625.902 
  634400    294.82284   -1560.0955    505.28181    270.43313    200.64286    37625.902 
  634500    304.55965   -1551.9805    482.54407    299.57796   -491.00735    37625.902 
  634600    300.37183   -1516.3527    499.71423    333.55139   -484.24547    37625.902 
  634700    299.75038   -1511.8483    508.05217    343.60025   -291.03444    37625.902 
  634800    297.99872    -1555.063    475.78705    260.24657   -641.34507    37625.902 
  634900    302.20414    -1526.025    504.23575    336.63698   -1127.9327    37625.902 
  635000    305.59252   -1511.9588    497.59628    359.29466    -795.6462    37625.902 
  635100    306.45985   -1521.0656    496.92639    353.41667   -841.50243    37625.902 
  635200    297.42735   -1541.9358    485.52527    280.54376   -540.80009    37625.902 
  635300    314.58181   -1548.0813    482.89587    348.87914   -29.431371    37625.902 
  635400    306.12954   -1570.9839    479.00735    284.09458   -303.10485    37625.902 
  635500    301.25546   -1550.7624    504.99244    308.39184    256.95651    37625.902 
  635600    301.97075   -1537.7778    497.74938    317.34873    354.34918    37625.902 
  635700    310.20129   -1496.5617    503.78293    401.59514    433.05471    37625.902 
  635800    309.90832   -1496.7556    512.29339    408.59473    169.49743    37625.902 
  635900    307.73239   -1517.0657    511.41746    377.62778    336.81887    37625.902 
  636000    293.04171   -1544.8875    491.13464    263.48766   -342.94882    37625.902 
  636100    294.96159   -1544.8685    497.88241     278.8844    76.871623    37625.902 
  636200    288.52231   -1519.1421     510.8316    288.61501    156.24799    37625.902 
  636300     294.8595   -1514.2685    505.44311    316.58619   -38.502063    37625.902 
  636400    288.29392   -1524.0118    501.05727    272.94436   -403.02684    37625.902 
  636500    304.36109    -1506.364    500.99272    362.75051   -64.420414    37625.902 
  636600    290.62777   -1524.2762    503.63403    285.74753   -538.69065    37625.902 
  636700    308.20713   -1532.9987     498.1367      350.548   -624.12211    37625.902 
  636800    293.45318   -1530.6659    499.76445    288.18872   -943.03587    37625.902 
  636900    305.81639   -1537.9434    503.23433    339.95447    -528.1334    37625.902 
  637000    295.59137   -1509.8693    511.03173    329.86382   -524.58749    37625.902 
  637100      301.436   -1552.2944    507.75622    310.43519   -114.86018    37625.902 
  637200    294.01523   -1576.8036    503.96263    248.77557   -77.231095    37625.902 
  637300    308.00689    -1576.276    474.54001    282.77399   -257.23723    37625.902 
  637400    295.00649   -1572.8573    488.13855     241.3536   -405.45105    37625.902 
  637500    292.81178   -1558.0875    500.62043    258.73988   -658.54255    37625.902 
  637600     290.8327   -1613.7075    493.99279    187.59616   -712.84586    37625.902 
  637700    307.21996   -1612.5066    518.38097    286.84698   -302.26303    37625.902 
  637800     306.5508   -1570.7506    521.44787    328.66204    511.05881    37625.902 
  637900    308.35729   -1576.0836    522.12595    332.12737    424.27771    37625.902 
  638000    300.31781   -1582.6978    520.93538     288.1846    510.18646    37625.902 
  638100    297.54208   -1549.5923    482.10356    269.98121     287.3152    37625.902 
  638200    298.05332   -1556.7356    521.75173    304.78421   -179.93609    37625.902 
  638300     302.4016   -1525.6376    512.52668    346.20292   -473.11651    37625.902 
  638400    293.38066    -1535.883    513.46207    296.34322   -602.43649    37625.902 
  638500    299.58571   -1502.2688    497.19953    341.58695   -333.37879    37625.902 
  638600    313.75393   -1525.9677     515.3001    399.67565   -75.431335    37625.902 
  638700    298.16948   -1532.3339     509.3919    317.34821   -219.88496    37625.902 
  638800     293.6051   -1518.1994    520.67789    322.25148    33.370184    37625.902 
  638900    295.14482   -1489.4422    534.18217     371.4341     51.47018    37625.902 
  639000    293.05877   -1527.4935    518.33689    308.16065    190.26089    37625.902 
  639100     297.8569   -1528.8898    517.70194    327.69723    173.06599    37625.902 
  639200    300.70479   -1482.9473     533.7911    402.53037   -168.69921    37625.902 
  639300     296.2938   -1512.1092    522.14714    341.89681    168.34279    37625.902 
  639400    307.00619   -1581.1471    488.46747    287.33211    35.241749    37625.902 
  639500    296.93473   -1552.4258    516.88741    299.20145   -629.03658    37625.902 
  639600    294.72666   -1521.7604    510.85712    313.91123   -557.88323    37625.902 
  639700    299.36252   -1570.4436    504.14254    279.35191     14.61143    37625.902 
  639800    299.81202   -1560.9207    512.27124    299.02407    5.8948938    37625.902 
  639900    302.15204   -1536.9259    510.27805    331.54415   -338.92341    37625.902 
  640000    307.81228   -1582.8604    478.05725    278.83198    111.35599    37625.902 
  640100    292.52308   -1584.1569    501.63565      232.388   -519.44303    37625.902 
  640200    309.96456    -1598.962     491.1185    285.46628   -676.29491    37625.902 
  640300    298.45573   -1582.2905    509.53314    268.81958   -191.09708    37625.902 
  640400    296.37535   -1535.4122    502.56695    299.38022   -322.41978    37625.902 
  640500    305.78188   -1538.8523    500.14838    335.80446   -422.50743    37625.902 
  640600    305.56379    -1547.675    504.00577    329.85879    97.807399    37625.902 
  640700    296.08027   -1550.4851     516.6075    297.02143   -301.98742    37625.902 
  640800    300.03964   -1553.2017    539.48543    334.98038    132.84067    37625.902 
  640900    294.37431   -1576.0772      498.896    246.04944    219.56372    37625.902 
  641000    307.50878   -1614.2336    518.27736    286.31468    262.41055    37625.902 
  641100    294.19193   -1646.2223    497.17019    173.35878   -101.74697    37625.902 
  641200    300.13577    -1565.572    491.25189    274.80864   -281.69894    37625.902 
  641300    307.98598   -1585.0792    518.15385    317.49062   -338.40862    37625.902 
  641400    300.57453   -1602.4118    494.27254    242.96176   -189.96634    37625.902 
  641500    299.44633   -1611.4556    482.31335    216.88744   -421.20442    37625.902 
  641600    304.87146   -1588.6606     505.7838    287.53919    -246.4634    37625.902 
  641700    301.24204   -1590.9857     487.8914    251.00726   -172.25557    37625.902 
  641800    297.09505   -1579.0637    498.18059    254.57744   -72.245613    37625.902 
  641900    305.81861   -1571.1894    491.45963    294.94371   -465.29066    37625.902 
  642000    303.28726   -1594.3623    482.00714    250.93973   -127.57159    37625.902 
  642100    309.46903   -1577.0934    478.30166    292.29063   -235.48368    37625.902 
  642200    303.43129   -1561.5446    487.79613    290.19385    155.01768    37625.902 
  642300    301.61149    -1573.079    503.92245     286.6057   -563.04854    37625.902 
  642400    297.82926   -1581.8142    468.27975    225.22641   -560.19914    37625.902 
  642500    305.88588   -1584.0098    490.91345    281.87946   -49.221822    37625.902 
  642600    295.36886   -1528.2348    503.72806    303.19446   -99.998489    37625.902 
  642700    301.93492   -1557.5934    479.63822    279.26085     675.8707    37625.902 
  642800    310.78535   -1631.6948    482.27885    247.58332   -12.753813    37625.902 
  642900    298.01393   -1601.2849    491.70743    230.01347   -279.87561    37625.902 
  643000    299.75312   -1597.8799    493.87602    243.40478    548.50223    37625.902 
  643100    309.88055   -1576.4623    486.36599    302.83586    376.72595    37625.902 
  643200    304.81384    -1575.066     486.0184    281.10937    81.100544    37625.902 
  643300     305.4723   -1534.9269    494.09503    332.28491     868.0894    37625.902 
  643400    306.22221    -1542.223    521.77486    356.03952    429.32478    37625.902 
  643500    298.12127   -1522.1114    480.60036    298.56236   -36.607052    37625.902 
  643600    306.81886   -1567.2806    522.94768    334.83679       14.324    37625.902 
  643700    297.24727   -1614.1271    484.02486    206.04254    -113.2969    37625.902 
  643800      299.343   -1660.6554    490.59413    175.50391    225.12721    37625.902 
  643900     299.2471   -1615.1112    504.84294    234.86593     299.8708    37625.902 
  644000    298.59429   -1597.7925    484.03766    228.44493    452.05822    37625.902 
  644100    300.28184   -1569.3237    512.73225    293.19389    370.63707    37625.902 
  644200    291.05916   -1606.0101    515.39812    217.71693   -3.0268308    37625.902 
  644300    297.35814   -1579.0788    500.48256    258.04688   -17.795741    37625.902 
  644400    304.60692   -1572.1635    508.14328    305.20658   -302.14823    37625.902 
  644500    313.00694   -1568.8777    512.99018      351.098  -0.94578818    37625.902 
  644600    295.78759   -1538.2817    495.27615    286.57784   -327.70297    37625.902 
  644700    306.58522    -1541.839    505.32895    341.60935   -349.92766    37625.902 
  644800    300.76495   -1602.3241    500.97811    250.61102   -290.16182    37625.902 
  644900    292.23931   -1595.5437    504.94304    223.03306    360.61634    37625.902 
  645000    295.80198   -1628.5558     489.6483    190.74061   -451.18204    37625.902 
  645100    306.97576   -1634.7747    485.00905    230.10929   -576.57585    37625.902 
  645200    303.44825   -1623.2564    472.90004    213.66224   -759.96998    37625.902 
  645300    310.10757   -1633.2781    483.86738    244.54184   -1079.0929    37625.902 
  645400    297.10022   -1595.0335    488.91197    229.36225   -1068.1366    37625.902 
  645500    292.08184   -1558.5009     503.3744    257.79934   -638.95579    37625.902 
  645600    304.48194    -1519.459    498.22197    347.42799   -568.22356    37625.902 
  645700    311.67714   -1545.1256    498.44558    354.32788    180.87668    37625.902 
  645800      291.448   -1563.5513    517.35095    263.87635    122.84524    37625.902 
  645900    302.72395   -1566.3734    506.84274     301.2321    113.03537    37625.902 
  646000    304.92562   -1578.5431    498.01643    290.13279    667.87552    37625.902 
  646100    300.08916   -1607.1102    518.98326    260.79227    234.61924    37625.902 
  646200    298.95332   -1600.5882    518.65731    261.88274   -187.07434    37625.902 
  646300    302.23243   -1565.2263    501.96532    295.29243     357.5783    37625.902 
  646400    298.52042   -1621.6036    483.36564    203.62966    219.41499    37625.902 
  646500    302.22175    -1598.554    533.37784    293.32923     139.3556    37625.902 
  646600    300.25706   -1594.4064    491.42893    246.69653     539.7812    37625.902 
  646700     296.1886   -1565.5658    519.38504    285.20526   -103.39756    37625.902 
  646800    303.11178   -1618.3542    494.61542    238.76738   -51.195518    37625.902 
  646900     290.3115   -1607.1834    482.82469    180.60935    445.27992    37625.902 
  647000    306.96077   -1602.0431    514.82762    292.59207    318.75239    37625.902 
  647100    324.15026   -1645.5169    475.50271    287.06123    310.15136    37625.902 
  647200    293.09948   -1621.4206    502.57332    198.65292   -10.049382    37625.902 
  647300    305.19573   -1585.1889    520.17837    306.86303   -12.867708    37625.902 
  647400    301.18554    -1619.226    517.98552    252.60703    176.15906    37625.902 
  647500     294.1856   -1606.3933    505.87649     221.8656    107.94867    37625.902 
  647600    290.48338   -1651.2949    522.18269    176.62847    258.21206    37625.902 
  647700    303.41684   -1666.7791    486.46109    183.55933    209.73999    37625.902 
  647800    301.87853   -1629.8981    522.52622    249.59069   -127.42957    37625.902 
  647900     306.9946   -1646.1355    491.96655    225.79064   -111.28367    37625.902 
  648000    303.01521   -1630.7241    465.62726     196.9752   -387.16294    37625.902 
  648100     307.6564   -1637.6648    498.21822    243.48788   -144.75197    37625.902 
  648200     295.4568   -1632.6731    497.95912     193.3825    135.81427    37625.902 
  648300    305.34229    -1628.334    501.10942    245.30778    378.38988    37625.902 
  648400    302.30692   -1624.5011    498.83557     233.2227    245.74795    37625.902 
  648500    291.25338    -1588.448    508.41367    229.16753    157.09071    37625.902 
  648600    309.36473   -1632.5577    496.71537    254.77115   -423.83633    37625.902 
  648700    287.73952   -1631.5809    508.53546    170.36144    -362.1019    37625.902 
  648800    311.41657   -1619.6796    498.20626    278.36334    202.40934    37625.902 
  648900    302.03663   -1563.7961     490.3174    284.19458    556.36773    37625.902 
  649000    298.67192    -1555.578    538.00841    324.97907    659.41065    37625.902 
  649100    308.97696   -1568.5071    484.60081    304.96421    93.555744    37625.902 
  649200    302.78401   -1567.6433    478.55052    271.94001   -756.71241    37625.902 
  649300    291.93255   -1585.3796    502.93239    229.80753    -649.5143    37625.902 
  649400    312.06382    -1565.901    524.73319    361.57826   -407.76673    37625.902 
  649500    307.31655   -1536.5099    516.31972     361.2166   -977.08786    37625.902 
  649600    294.62326   -1516.1376      513.268    321.48014   -964.57304    37625.902 
  649700    307.17739   -1550.7474    505.88579    335.91965    72.241247    37625.902 
  649800    300.53531   -1540.8245    514.30451    324.40476   -355.85387    37625.902 
  649900    298.72287   -1527.9233    513.06699    327.92141   -458.07905    37625.902 
  650000    294.73357   -1548.0793    515.43257    292.19884   -630.58349    37625.902 
  650100    300.74936    -1560.922    509.28054     300.2454   -552.73974    37625.902 
  650200    292.15589   -1579.0428    496.10765    230.32356    54.544392    37625.902 
  650300    306.03984   -1624.1784    518.47064     269.9602    4.1443639    37625.902 
  650400    301.00383    -1583.552    495.07032    264.54903    300.22936    37625.902 
  650500    305.06002   -1556.4208    533.86729    348.71008    135.96548    37625.902 
  650600    295.97578   -1569.1394    492.50685    253.79673   -359.69425    37625.902 
  650700    302.16633   -1561.5919    482.16828    278.83267   -857.41694    37625.902 
  650800    309.00067   -1559.9815     506.7385    335.73403   -181.41926    37625.902 
  650900     303.7495   -1567.0537    509.43568    307.75472    -154.3237    37625.902 
  651000    295.29895   -1576.4384    498.83211    249.78069    34.562407    37625.902 
  651100    304.16604   -1575.1892    518.28141    310.33724    72.239607    37625.902 
  651200    297.55988    -1588.584    493.79998    242.76595    7.2521097    37625.902 
  651300    297.30208   -1593.6543    517.83039    260.56724    303.70756    37625.902 
  651400    300.87452   -1575.6482    488.80627    265.60758   0.46111286    37625.902 
  651500    294.53925   -1568.8666     485.5506    240.65602   -409.40064    37625.902 
  651600    310.47499   -1600.1157    478.73693    274.22542   -175.11206    37625.902 
  651700    299.23229   -1633.6119    508.47494    219.93062   -547.50163    37625.902 
  651800    294.39795   -1578.9523    475.53884    219.92343    -233.4635    37625.902 
  651900    296.24465    -1544.176     516.1951    303.65706    429.43327    37625.902 
  652000    297.49201   -1566.7469    518.16583    288.66387    -451.5485    37625.902 
  652100    303.37373   -1562.0519    502.20401    303.83569    -462.0285    37625.902 
  652200     283.3641   -1559.2206    501.66798    216.18646   -774.17355    37625.902 
  652300    302.01665   -1546.0502    523.56659    335.09985   -433.09946    37625.902 
  652400    304.19605   -1560.7414    507.60318    314.24177    341.45769    37625.902 
  652500    297.61424   -1592.2719    505.15933    250.68177    50.600758    37625.902 
  652600    299.25244   -1526.8002     531.0045    349.36246    -99.46377    37625.902 
  652700    306.77543   -1544.4748    500.73673    335.23637    -247.3995    37625.902 
  652800    300.68783   -1572.6675    498.02249    276.96534    202.64333    37625.902 
  652900    301.74352   -1560.9857    495.70925    291.07929   -105.49086    37625.902 
  653000    291.47266   -1554.6886    511.89455    267.39345    -120.6067    37625.902 
  653100    302.74219   -1574.9361    504.14561    290.05434    -311.3212    37625.902 
  653200    293.46571    -1536.529    504.70925    287.32664    -257.1358    37625.902 
  653300    290.14037   -1622.1027    487.26514    169.36123   -268.64055    37625.902 
  653400    304.84175   -1607.3835    502.72385    265.62277   -222.28954    37625.902 
  653500    286.53139   -1566.2056    478.34957     200.1202    77.257182    37625.902 
  653600    290.66858   -1594.0515    510.33513    222.85677    448.64952    37625.902 
  653700    296.90708   -1574.0039    497.78939    258.40106    428.81696    37625.902 
  653800    300.60498    -1606.295    498.92563    243.86855     82.14991    37625.902 
  653900    307.25798   -1602.9551    483.91418    262.10258   -344.20014    37625.902 
  654000    302.33492   -1602.1008    475.31075    232.22402    326.74825    37625.902 
  654100    296.55859    -1628.226    479.85818    184.68132   -60.638448    37625.902 
  654200    308.09439   -1567.1866    506.51572    324.23242   -405.61138    37625.902 
  654300    303.42195   -1617.1652     517.2481    263.98331   -406.98286    37625.902 
  654400    303.39728   -1585.4357      487.007    265.36074   -184.81867    37625.902 
  654500    299.69359   -1586.6845    524.01912    284.47576   -89.515899    37625.902 
  654600    294.34096   -1623.5368    491.75932    191.30329   -346.29315    37625.902 
  654700    301.54209   -1538.3539    523.07529    340.17164   -430.65163    37625.902 
  654800    297.16299    -1602.019    504.64233    238.38922    121.99215    37625.902 
  654900    300.63634   -1624.3764    484.65713    211.65963    258.90406    37625.902 
  655000    301.18489   -1595.8113    513.32761    271.36095   -318.12716    37625.902 
  655100    300.28477   -1569.1631    486.13464    266.77008   -484.76927    37625.902 
  655200    294.01854   -1593.4737    517.94536     246.1031   -588.88825    37625.902 
  655300    297.99196   -1608.3448    468.02506    199.17247    81.146663    37625.902 
  655400    305.78208    -1601.962    505.84114    278.38846    593.75725    37625.902 
  655500    304.50855   -1607.9135    488.95933    249.83049    508.29169    37625.902 
  655600     300.8594   -1590.6712    505.79514    267.50544    785.98392    37625.902 
  655700    300.53628   -1580.5068    501.70834    272.13064    390.16377    37625.902 
  655800    300.65239   -1594.7221    496.98264    253.71148   -33.689469    37625.902 
  655900    299.92299   -1587.4704    521.41375     282.1157   -25.813118    37625.902 
  656000     309.1044     -1612.05    503.92152    281.31476    134.83572    37625.902 
  656100    296.46113   -1630.6437     489.6501    191.61741    79.300887    37625.902 
  656200    295.41609   -1607.3891     494.1072    214.63166    221.49329    37625.902 
  656300    300.25398   -1602.6416    475.94498    222.96348    113.62043    37625.902 
  656400    310.12224   -1570.8936    487.30866    310.43362   -11.934059    37625.902 
  656500    293.04462   -1612.8469    506.29919    210.70591    583.10643    37625.902 
  656600    301.02872   -1626.4121    515.86108    242.59157    583.06639    37625.902 
  656700    295.15528   -1586.2473    493.98919    234.48305    659.29233    37625.902 
  656800    306.36472   -1603.0999    501.52466    275.55309    544.41256    37625.902 
  656900    304.37676   -1595.6071    507.86521    280.45043    451.23144    37625.902 
  657000    301.22554   -1555.3233    500.33453    299.03861    449.68368    37625.902 
  657100    300.18204   -1597.5104    512.99011    264.81644    115.64018    37625.902 
  657200    289.38875   -1562.3501    515.31892    253.78905    348.27259    37625.902 
  657300    293.94601   -1552.2202    491.90589    260.99111   -420.60726    37625.902 
  657400    293.05413   -1530.0545    504.65002    291.89189   -543.55265    37625.902 
  657500     302.1687   -1513.9538    520.15304    364.46618   -531.81543    37625.902 
  657600    310.42905   -1536.0522    509.52436    368.86985   -675.15693    37625.902 
  657700     295.9258   -1564.4555    505.74247    271.49163   -471.76044    37625.902 
  657800    285.31483   -1518.9194    535.13084    298.71918   -483.33788    37625.902 
  657900    299.27954   -1531.1411    517.45948    331.59834    339.11883    37625.902 
  658000    295.55533    -1533.092    485.89378    281.34117     480.1071    37625.902 
  658100    303.66388   -1582.4232    496.61408    279.17871   -6.7286422    37625.902 
  658200    300.34028   -1553.7831    532.77795    329.04292    315.06103    37625.902 
  658300    296.70962   -1541.0472    493.91123    286.59202     148.1232    37625.902 
  658400    298.23854   -1571.5476    504.10802    273.16101   -13.056551    37625.902 
  658500    296.62592   -1539.4988    506.16316    300.01609   -81.282744    37625.902 
  658600    300.98785    -1509.415    518.55132    362.09525    229.84222    37625.902 
  658700    298.62708   -1538.3199     493.9972    298.02434    549.09657    37625.902 
  658800    297.64877   -1490.3984    513.23656     360.7877    206.11228    37625.902 
  658900    305.85621   -1480.8089    516.99918    411.03274    140.04179    37625.902 
  659000    292.49085   -1527.5014    506.00577    293.26877   -96.006295    37625.902 
  659100    302.12142   -1505.7865    524.31594    376.58379   -396.59328    37625.902 
  659200    291.72204   -1500.0148    506.29076    317.58451   -713.98898    37625.902 
  659300    287.31866   -1497.5648    521.23557    315.18579   -420.12197    37625.902 
  659400    307.34011   -1529.5747    505.25622     357.1942   -87.212412    37625.902 
  659500    296.47639   -1485.7477    491.02406    337.95605    134.34354    37625.902 
  659600     302.8286    -1530.116    520.79488    351.91204    38.910464    37625.902 
  659700    315.27535   -1516.6861    490.27503    390.77105    83.714605    37625.902 
  659800    293.98483   -1542.1516    488.37083    267.69912    367.25328    37625.902 
  659900     296.7277   -1524.0519    531.06753    340.82488    559.01587    37625.902 
  660000    301.05667   -1533.1859    481.50621    301.58858    584.66567    37625.902 
  660100    313.69522    -1578.725    503.18077     334.5351     529.0852    37625.902 
  660200    319.28343   -1511.4024     494.9843    418.78055    883.24915    37625.902 
  660300    306.92148   -1521.3926     504.7208    362.95917    762.84029    37625.902 
  660400    298.01122   -1570.6158    502.96302    271.92599    -127.4611    37625.902 
  660500     303.0906   -1532.6137    499.87925    329.67651   -77.151848    37625.902 
  660600    292.10927   -1503.4649    502.29903    311.88329    208.54225    37625.902 
  660700    298.27636    -1511.395      528.414    357.78962    394.71288    37625.902 
  660800    301.71314   -1541.0659    482.33218    297.48542     727.1236    37625.902 
  660900    288.76831   -1560.4545    508.57717    246.15402    608.76081    37625.902 
  661000     302.5262   -1546.3743    485.35495    298.85457     199.4743    37625.902 
  661100    293.24141   -1519.7682     499.0348     297.4048   -452.74483    37625.902 
  661200    306.41235    -1466.949     506.9029    417.29629   -660.62461    37625.902 
  661300    292.20259   -1499.9646    502.18447    315.68851   -599.97213    37625.902 
  661400    302.28157   -1582.2445    467.50279    244.03249    66.343432    37625.902 
  661500    302.34994   -1560.4348    506.01865    304.66542    296.64541    37625.902 
  661600    298.02938   -1564.7052    504.87993     279.8351   -235.56408    37625.902 
  661700    288.76831   -1608.4966    489.39064    178.92531    -16.97913    37625.902 
  661800    298.73427   -1555.0422    488.27221    276.05894   -17.136471    37625.902 
  661900    294.51718   -1537.3447    502.11713    288.64534   -184.22927    37625.902 
  662000    309.38818   -1559.6489    514.69204    345.76198    347.94938    37625.902 
  662100    305.57968   -1541.4038    514.18497    346.38062    459.94829    37625.902 
  662200    293.43801   -1535.5592    509.22378     292.6865     278.9175    37625.902 
  662300    302.76428   -1532.2683    505.07403    333.74979    59.475098    37625.902 
  662400      300.222   -1527.3646    523.71153    345.86336    524.61229    37625.902 
  662500    298.10015   -1555.2363    523.18226    307.92447    373.03079    37625.902 
  662600     289.1484   -1542.7083     511.1492    268.18078    417.48596    37625.902 
  662700    297.31654   -1541.8541    522.91417    317.51621    353.56362    37625.902 
  662800    299.47832   -1524.3065    474.56967    296.43665    128.97982    37625.902 
  662900    297.82574    -1531.564    507.58061    314.76163   -651.57222    37625.902 
  663000    301.04592   -1546.9272    496.86505    303.15783   -391.54276    37625.902 
  663100    300.00052   -1509.3398    478.55874    317.73973   -863.67573    37625.902 
  663200    293.41922   -1552.9317    507.52774    273.53345   -615.22313    37625.902 
  663300    296.50333   -1565.3489    508.34226    275.79408   -688.10103    37625.902 
  663400    298.72515   -1551.5237    499.11909    290.38331   -388.09478    37625.902 
  663500    314.45363   -1578.1675    513.24943    348.57039   -6.0783511    37625.902 
  663600      290.793   -1553.4074    501.54523    255.27021    113.07156    37625.902 
  663700    303.19363   -1567.3787    528.10377    323.59912    156.58839    37625.902 
  663800    290.14304   -1561.0791    524.07527    267.20701    87.760152    37625.902 
  663900    308.23639   -1541.9785    498.22997    341.79298   -55.162663    37625.902 
  664000    298.97065    -1491.653    495.01314    347.25161   -294.56978    37625.902 
  664100    297.14915   -1529.8136    517.57919    323.46928    47.242576    37625.902 
  664200    300.97323   -1542.0682    525.05384    335.87884   -88.555911    37625.902 
  664300    302.70601   -1567.8469    497.77938    290.61459   -280.88182    37625.902 
  664400    303.89826   -1517.4736    521.19268    369.76049   -198.00578    37625.902 
  664500    299.11155   -1511.0281    489.65414    323.15083   -163.94074    37625.902 
  664600    296.88264   -1566.6533    506.20469    274.05712   -19.619397    37625.902 
  664700    300.49777   -1511.5448    523.80164    363.01281   -147.00148    37625.902 
  664800    296.99771   -1545.9475    493.22062    282.29614   -186.38445    37625.902 
  664900    304.25503   -1517.8449    497.98403    347.78424   -365.31917    37625.902 
  665000    295.39635   -1525.2728    502.64905    305.20103    129.17208    37625.902 
  665100    297.32626   -1559.2261    494.32881    271.60249    459.65743    37625.902 
  665200    308.90262   -1580.5157    498.71215     306.7328    108.33616    37625.902 
  665300    309.08842   -1535.6865    502.63002    356.31498     374.8586    37625.902 
  665400    298.00528   -1565.1829    501.04699    275.41618    392.59202    37625.902 
  665500    299.16956   -1528.0065    494.55747    311.33652   -228.23317    37625.902 
  665600    298.12841   -1575.0811    495.50654    260.53102    135.03386    37625.902 
  665700    292.42009   -1555.7628     500.8894    259.57288   -235.35885    37625.902 
  665800    310.39331    -1544.726    479.13447    329.64549   -198.32526    37625.902 
  665900    302.47769   -1604.8077    481.39909    236.24716    463.03511    37625.902 
  666000    305.57139    -1552.577     493.1211    314.10629    -55.40698    37625.902 
  666100    301.27941   -1564.4033    506.23999    296.10612   -632.17566    37625.902 
  666200    301.11433   -1566.5511    475.70336    262.67972   -550.47816    37625.902 
  666300    309.91952   -1552.2538    495.33504    336.18856   -107.96264    37625.902 
  666400    304.81685   -1587.2963    470.45711    253.33132    186.63194    37625.902 
  666500    303.94248   -1569.3182    462.79567    259.71763      181.119    37625.902 
  666600    295.93469   -1561.6669    499.73814    268.31589   -303.43125    37625.902 
  666700     285.3065   -1599.2951    502.99654    186.17169   -165.73954    37625.902 
  666800    298.32097   -1591.6418    488.54198    237.87129   -210.71722    37625.902 
  666900    308.60759   -1589.0594    483.22201    281.37273   -230.05716    37625.902 
  667000    298.82811   -1545.8474    503.54851    300.95188     1.007894    37625.902 
  667100    292.47931    -1556.786     497.5556    255.48209    92.304575    37625.902 
  667200    307.10366   -1506.0484     481.2807    355.68213   -56.215502    37625.902 
  667300    306.70873   -1532.1443    497.49026    344.02063     274.6572    37625.902 
  667400    303.23087   -1503.9591     494.8737      353.956     232.5772    37625.902 
  667500    308.72697    -1548.477    498.07607    337.34583   -230.58387    37625.902 
  667600    301.86564   -1565.1601    468.25078     259.9953   -597.79289    37625.902 
  667700    306.69049   -1570.5228    490.18055    298.25042    226.78565    37625.902 
  667800    309.72254   -1542.2815    487.41078    337.35122    7.5824358    37625.902 
  667900    306.07578   -1549.6796    477.84301    303.99287    146.94441    37625.902 
  668000    309.73151   -1566.2834    490.58864     316.5675    718.03009    37625.902 
  668100    312.19642   -1580.0334    492.81895    316.12767    1010.0305    37625.902 
  668200    291.72452   -1531.4541    489.89816    269.76372    91.249562    37625.902 
  668300    302.77064   -1575.1244    501.52387    287.37211   -327.55963    37625.902 
  668400    308.17946   -1516.5408    474.64944    343.39426   -236.11344    37625.902 
  668500    308.73414   -1561.1832      489.391    315.98682   -746.23648    37625.902 
  668600    306.01765   -1567.6444    476.53817    284.46196   -117.45309    37625.902 
  668700    297.88318   -1561.7568    501.56992     278.8164   -61.056445    37625.902 
  668800    295.22162   -1569.0931    464.98734    222.93362    267.22253    37625.902 
  668900    289.85842   -1537.0134    496.76769    262.68568    97.810065    37625.902 
  669000    299.49382    -1548.218    499.01931    297.04445    190.26714    37625.902 
  669100    303.17562   -1577.6179    488.36418    273.53936    398.03818    37625.902 
  669200     310.7654   -1579.3149    494.74496    312.33966    1039.3334    37625.902 
  669300    298.18115   -1590.3255    481.94258    231.95976    813.40996    37625.902 
  669400     308.4469   -1601.3596    477.88455    263.01272    420.50631    37625.902 
  669500    293.00085   -1568.1748     472.9718    221.85386   -139.94933    37625.902 
  669600    303.66181   -1553.1481    498.70901    310.53946   -511.05582    37625.902 
  669700    303.78889    -1590.572    482.55931    257.53714   -417.71287    37625.902 
  669800    301.73062   -1614.8624    456.11602    197.55132   -186.08429    37625.902 
  669900    293.84027   -1603.0215    467.74871    185.55732   -364.10657    37625.902 
  670000    291.23139   -1582.4117    492.90146    219.59277   -934.07342    37625.902 
  670100    306.97411   -1570.3467    505.29966    314.82049   -807.41596    37625.902 
  670200    288.62246   -1570.8207    486.14103     212.6961   -695.22673    37625.902 
  670300    295.07746   -1544.4668    492.61626    274.54084   -276.46924    37625.902 
  670400    301.58447   -1508.2761    473.57248    320.93708    130.26389    37625.902 
  670500    301.48313   -1511.8486    510.04559    353.38227   -215.39683    37625.902 
  670600    292.44887   -1540.1957    502.83033    277.21036    366.09188    37625.902 
  670700    287.24234   -1548.1846    473.78507    216.77251    433.15947    37625.902 
  670800    290.93752    -1535.516    505.11829    277.38439     466.4935    37625.902 
  670900    304.11356   -1519.2831     499.6369    347.36301    284.88095    37625.902 
  671000    296.27955   -1545.4024    482.42577    268.81819    348.66531    37625.902 
  671100    294.07069   -1525.3131    500.10041    296.65312    319.83772    37625.902 
  671200    296.78817   -1538.8128    493.83294    289.10126    231.17343    37625.902 
  671300    292.87177    -1536.044    495.70312    276.13577    355.26559    37625.902 
  671400    295.81456   -1517.7195    484.38632    296.37148    410.52784    37625.902 
  671500    301.71332   -1559.3774    472.71124    269.55374    125.87549    37625.902 
  671600    302.21811   -1556.2013    474.95457    277.24223     -7.95036    37625.902 
  671700    292.34673    -1564.852     484.0275    233.29205     816.1155    37625.902 
  671800    298.97615   -1551.5699    513.71121    306.05754    547.16196    37625.902 
  671900    302.11209   -1537.4221    501.84078    322.43115    624.48086    37625.902 
  672000     293.8592   -1582.3544    495.58675    234.14753    611.10307    37625.902 
  672100    298.07876   -1557.8533    458.55434    240.58337    150.53322    37625.902 
  672200    303.98031   -1536.6968    482.22299     311.9364   -117.00301    37625.902 
  672300    289.63888   -1541.4099    495.12159    255.65625   -243.29861    37625.902 
  672400    297.91884    -1524.953    484.56053    298.77106   -474.97896    37625.902 
  672500     298.9387   -1539.4111    479.67477    284.01147    -123.7539    37625.902 
  672600     292.4159   -1540.3723    488.64117    262.69628    68.032473    37625.902 
  672700    307.91113   -1573.1872     503.9612     314.8535    617.49482    37625.902 
  672800     293.2593   -1596.6781    498.74426    220.28481    145.84998    37625.902 
  672900    299.58144   -1568.9782    481.25133    258.91014    410.49178    37625.902 
  673000    293.66572   -1607.7189    497.89997    210.22655   -197.92453    37625.902 
  673100    298.28084   -1578.7298    503.72347    265.78439    248.15104    37625.902 
  673200    299.57515   -1579.7639    460.34698    227.19181    309.22847    37625.902 
  673300    309.36572   -1567.7664    484.84085    307.69243    35.310523    37625.902 
  673400    299.26228   -1587.5058    477.16727    234.86382    331.50584    37625.902 
  673500    287.45007   -1573.6799    482.11652    200.54233    64.193514    37625.902 
  673600     295.4035   -1587.4436     474.5168    214.93009   -308.17221    37625.902 
  673700    298.41856   -1611.1526    459.62485    189.88206    41.119618    37625.902 
  673800    294.98772   -1582.6237    506.74247    250.10671    108.72202    37625.902 
  673900     313.7486   -1563.4542    511.34686     358.2119   -176.29344    37625.902 
  674000    301.09465   -1586.9871    451.19914    217.65106   -67.006726    37625.902 
  674100    298.50898   -1538.7369    488.39424    291.47358   -291.68504    37625.902 
  674200    312.03042   -1564.8782      507.098    344.81575    -346.5036    37625.902 
  674300    292.07473   -1572.2204    488.04675    228.72025   -70.742055    37625.902 
  674400    304.69883   -1550.4985    490.38257     309.5241    262.90646    37625.902 
  674500    292.04838   -1593.7514    482.53734    201.56132    58.291851    37625.902 
  674600    301.18838   -1569.7831     500.5771    284.65433    811.78861    37625.902 
  674700    290.38339   -1590.9495    449.70474    164.04643    587.53925    37625.902 
  674800     299.3115   -1593.4238    499.44966    251.44947    726.06396    37625.902 
  674900    300.04879   -1583.7432    478.80348    243.79807   -351.74284    37625.902 
  675000    296.21335   -1563.4119    481.24323    249.32859    109.84724    37625.902 
  675100    297.10525   -1576.7726    454.74818    213.48192   -507.12105    37625.902 
  675200    294.76061   -1595.3477     466.4637    196.08305   -649.92184    37625.902 
  675300    300.40311   -1585.9101    497.49168      261.912    394.15566    37625.902 
  675400    301.98662    -1595.595    492.12924    253.98268    -129.3367    37625.902 
  675500    305.35452   -1599.2602    493.20923    266.53637   -142.13578    37625.902 
  675600    291.74477   -1598.8561    490.69481     203.2494    161.32727    37625.902 
  675700    303.93034   -1535.9025    486.54722     316.8303    234.37492    37625.902 
  675800     291.9892   -1538.6004    509.54934    283.45833    109.36707    37625.902 
  675900    306.72046    -1560.472    486.76749    305.02283    439.02852    37625.902 
  676000    294.30979   -1598.5995    481.68691    206.02807    277.42815    37625.902 
  676100    305.63809   -1551.9581     488.9666    310.87055     105.4835    37625.902 
  676200    297.77804   -1571.2285    466.97275    234.27485   -435.18559    37625.902 
  676300    298.64187   -1596.2324    482.73306    228.91428   -675.64323    37625.902 
  676400    301.47863    -1545.218    463.42026    273.36729   -950.52733    37625.902 
  676500    306.33263   -1514.4014    488.13337    350.71597   -745.29865    37625.902 
  676600    314.64594   -1526.7946    508.35385     395.9121   -461.15925    37625.902 
  676700    292.50227   -1533.7001    511.77572    292.89133   -120.14938    37625.902 
  676800    298.50498   -1519.9374    483.48283    305.34364    32.662871    37625.902 
  676900    304.29213   -1530.4581    511.76496    349.11868    68.522153    37625.902 
  677000     302.7797    -1530.368     486.8493    317.49469    120.02555    37625.902 
  677100    295.58638   -1539.0703    490.27336    279.88207    193.01819    37625.902 
  677200    305.20985    -1508.996    495.44775    358.38884   -168.72025    37625.902 
  677300    305.32158   -1521.2163    469.28402    320.50706    59.778108    37625.902 
  677400    306.46849   -1523.1184    520.03022    374.50653   -155.35825    37625.902 
  677500    299.84572   -1533.9942    480.22747    294.05818   -763.75996    37625.902 
  677600    305.41318    -1519.054    513.33876    367.13577   -62.702068    37625.902 
  677700    314.57294   -1492.0179    510.68892    432.69578    20.351016    37625.902 
  677800     295.0638   -1531.4336    511.38475    306.28108   -986.37267    37625.902 
  677900    291.86975    -1527.604     515.1592    299.52771   -851.30175    37625.902 
  678000    298.74936   -1566.3263      471.577    248.14744   -625.52605    37625.902 
  678100    305.41739   -1525.9091    518.02556    364.98638   -340.18203    37625.902 
  678200    291.81379   -1555.9194    470.11795    225.91953   -565.49707    37625.902 
  678300     307.0003   -1579.6902    497.76695    298.06204   -141.05729    37625.902 
  678400    291.86037   -1564.7721    519.18542    266.34367    207.18844    37625.902 
  678500    299.34949   -1570.3985    520.43189     295.6278    390.49041    37625.902 
  678600    294.84798   -1555.5583    491.17403    260.97552    665.06758    37625.902 
  678700    294.72194   -1582.1666    501.91834    244.54496   -533.12396    37625.902 
  678800    302.25481    -1572.041    498.65818    285.27113   -9.0493391    37625.902 
  678900    303.14871   -1518.2944    487.52671    331.90445   -24.226032    37625.902 
  679000    304.02829   -1523.8473    525.66294    368.44157    35.342879    37625.902 
  679100    306.44256   -1548.1233    500.57013    329.92502    664.02144    37625.902 
  679200    298.67053   -1534.7921    514.57098    322.32131    837.75652    37625.902 
  679300    307.38354   -1575.0076    505.05024    311.75058    599.81484    37625.902 
  679400    294.56572   -1588.4196    508.26544    243.93687     398.8323    37625.902 
  679500    307.49433   -1545.0111    493.98727    331.18208    160.24594    37625.902 
  679600    298.17309   -1527.2334    483.27586     296.3489   -9.6747167    37625.902 
  679700    298.54629   -1572.7403    478.24728    247.49097    169.83647    37625.902 
  679800    290.24344   -1563.2748     508.4481    249.83542   -100.98007    37625.902 
  679900    296.80136   -1584.2495    501.82788    251.71878    554.37054    37625.902 
  680000    306.17117   -1606.7515    508.74159    278.24838     631.9246    37625.902 
  680100    292.94564   -1590.9185    505.98852    231.87871   -211.68353    37625.902 
  680200    297.57167   -1580.7079     506.6021    263.49723    825.86378    37625.902 
  680300    293.09784   -1560.8901    527.67727    284.27999    663.53934    37625.902 
  680400    294.71234   -1599.3201    502.30589    227.73593    330.21736    37625.902 
  680500    298.35251   -1611.5453    514.11255    243.68014     351.2507    37625.902 
  680600    300.42182   -1561.9431    519.11134    307.58283    307.45578    37625.902 
  680700    306.67853   -1540.9653    528.07948    365.65302    271.61877    37625.902 
  680800    297.55428   -1574.9875    506.20628    268.74358    587.14598    37625.902 
  680900    291.45033   -1596.2657    528.58756    242.40898   -33.161373    37625.902 
  681000    299.37249   -1530.0073    521.02271    336.71323    9.9558942    37625.902 
  681100    299.12243   -1574.7179    503.50566    273.36156    383.32749    37625.902 
  681200    295.24499   -1583.2759    517.02024    260.88875    989.02063    37625.902 
  681300    307.75644   -1588.2811    516.96915    312.07222    1110.1567    37625.902 
  681400    295.87431   -1558.7092    519.75866    291.02275     836.2475    37625.902 
  681500    297.01695    -1561.009    523.07125    297.17178    941.44073    37625.902 
  681600    303.75109   -1581.7039    507.77292    291.44886     794.4324    37625.902 
  681700    300.41922   -1584.7479    519.51626    285.17125    5.9870445    37625.902 
  681800    293.50079   -1598.2211    538.60024    259.68325    973.88308    37625.902 
  681900    303.50161   -1619.8026    532.07881    276.53458    759.14072    37625.902 
  682000    299.69839   -1607.4078    508.27945    248.03435    249.15258    37625.902 
  682100    297.55255    -1588.296    537.21866    286.43971    3.7620871    37625.902 
  682200    302.72564   -1582.1103    485.98255    264.64265    157.50967    37625.902 
  682300    292.44044   -1580.4212    538.43915    272.55575   -316.75884    37625.902 
  682400    293.96721   -1549.0066     521.0564    293.45052   -160.45932    37625.902 
  682500    291.83622   -1585.1291    504.09806    230.79073    392.03548    37625.902 
  682600    301.32536   -1598.1427    488.29239    244.62567     631.4842    37625.902 
  682700    301.36385   -1586.9971    508.17118    275.82313    352.50167    37625.902 
  682800    299.28632   -1579.3203    512.66244    278.65261    433.07429    37625.902 
  682900    304.65072   -1601.0111    484.92648    253.33914   -200.97735    37625.902 
  683000    301.07741   -1576.7879    523.87605    300.44965    100.72529    37625.902 
  683100     301.3552   -1597.1691    484.95503    242.39608   -205.19562    37625.902 
  683200    296.35004   -1560.9055    531.20729    302.41348    122.72795    37625.902 
  683300    309.11039     -1553.97    517.21231    352.71253    605.90639    37625.902 
  683400    312.21645    -1594.096    512.80478    322.14094     810.4868    37625.902 
  683500    294.67696   -1595.9648    514.24429     242.8706    472.87328    37625.902 
  683600    291.27315   -1571.2451    514.70746    252.75306    458.47157    37625.902 
  683700    296.13577   -1580.4728    501.62417    252.29986    318.57454    37625.902 
  683800    299.59817    -1636.982    495.94574    205.67596    145.11495    37625.902 
  683900    296.44478   -1609.3721    507.29638     230.4618    2.0032132    37625.902 
  684000    303.90599   -1581.7767    528.34717    312.64657    -360.4135    37625.902 
  684100    295.91843   -1590.7662    489.73799    229.14335   -571.21398    37625.902 
  684200     307.4186   -1569.0117    507.33124    320.18509   -520.35816    37625.902 
  684300    304.92103   -1578.7802    486.43863     278.2972   -892.68457    37625.902 
  684400     296.6897   -1599.7876    503.30605    237.15693   -13.189681    37625.902 
  684500    310.20322   -1561.3357    509.53913    342.58599    328.71923    37625.902 
  684600    310.27056   -1599.9811    507.08871    301.79285    574.95045    37625.902 
  684700    288.02087   -1548.2875    510.66661    257.05071    481.50032    37625.902 
  684800    303.18933   -1621.5845    502.35735    243.62754    497.31242    37625.902 
  684900    298.47745   -1615.2958     497.2806     223.6593    139.40062    37625.902 
  685000    303.57337   -1621.1524    475.12234    218.55096   -346.82884    37625.902 
  685100    300.90692   -1549.6609    493.28824    296.22245   -129.58242    37625.902 
  685200    301.63111     -1543.74    509.13715    321.24762   -541.23696    37625.902 
  685300    285.93585   -1548.6344     486.1543    222.81911    -610.4029    37625.902 
  685400    293.02262   -1531.2506    534.42583       320.33   -270.45726    37625.902 
  685500    304.65283   -1523.9546     518.7629     364.2415    232.94693    37625.902 
  685600    305.58997   -1527.4734    487.63275    333.80513   -460.20562    37625.902 
  685700    293.96873   -1533.9494    516.38607    303.84423    125.19633    37625.902 
  685800    298.30974    -1541.928    531.95634    330.94896      148.929    37625.902 
  685900    308.42615   -1543.7091    512.48976     355.1752    487.41655    37625.902 
  686000     294.7287   -1531.8571    523.49912    316.46565     453.7431    37625.902 
  686100    303.38433   -1570.1459    507.72679    301.31218    194.48669    37625.902 
  686200    299.37657   -1527.0567    509.42924     328.0886    482.16962    37625.902 
  686300    300.00167   -1577.0157    532.76541    304.27573   -318.12595    37625.902 
  686400    294.18296   -1580.7446    515.56922    257.19513   -432.86108    37625.902 
  686500    294.97242   -1603.5624    497.21958    219.57633   -191.18611    37625.902 
  686600    287.96102    -1588.594     490.2362    196.04477    393.67845    37625.902 
  686700    303.67578   -1587.8156    520.03965    297.26544    539.87963    37625.902 
  686800    302.49778   -1612.8514    503.74805    250.64282    1325.3574    37625.902 
  686900     298.0684   -1584.1634    505.47728    261.14967    172.25969    37625.902 
  687000    307.46524   -1616.7029    501.47758    266.84984   -110.70101    37625.902 
  687100    295.86126   -1613.9257    475.28754    191.27639   -335.57746    37625.902 
  687200     315.3305   -1564.4477    488.40536    341.38768    429.05121    37625.902 
  687300    300.80579   -1596.4122    495.60779    251.33613    216.38092    37625.902 
  687400     298.5084    -1616.785    511.40472    236.43334   -162.61657    37625.902 
  687500    294.83609   -1638.0305    470.44317    157.71908    91.514543    37625.902 
  687600    304.07151   -1630.5102     483.8396    220.14957    512.67811    37625.902 
  687700    309.71841   -1622.8791    503.46167     272.7859    605.77167    37625.902 
  687800    312.14028   -1619.4122    502.72752    286.40508    620.11451    37625.902 
  687900    298.51728   -1608.2119    502.33643    235.97811    1030.7278    37625.902 
  688000    302.26253   -1572.1007    467.83593    254.42394    1139.0156    37625.902 
  688100    290.35433    -1561.488    533.72227     277.3949    571.30524    37625.902 
  688200    300.23709   -1579.8715    512.29989    282.01257     1173.596    37625.902 
  688300    301.44967   -1570.7324    519.46961    303.77206    1119.7543    37625.902 
  688400    293.77532    -1594.162    506.44791    232.82405    536.23049    37625.902 
  688500    304.65472   -1591.2006    482.68751    260.92867    193.40453    37625.902 
  688600    296.89827   -1582.8458    506.63832    258.36847   -224.00305    37625.902 
  688700    301.23693    -1590.264     491.6298    255.44432   -277.96964    37625.902 
  688800    300.08156   -1606.2756    475.29066    217.90013   -442.57272    37625.902 
  688900    297.23099   -1573.6599    497.26869    259.68037   -566.83138    37625.902 
  689000    294.36496   -1568.6495    504.11961    258.65867   -629.44866    37625.902 
  689100    305.21243   -1575.5765    498.66026    295.03245   -390.06317    37625.902 
  689200    289.21099   -1615.6263    487.55958    171.95447    -812.9457    37625.902 
  689300    299.84311   -1583.5078     507.3512    271.65668   -475.50491    37625.902 
  689400    302.36222   -1579.7695    493.63058    272.99785   -654.80692    37625.902 
  689500    298.51268   -1600.5874    495.83847     237.0839   -445.36762    37625.902 
  689600    301.15245   -1582.1566    498.46815    270.01032   -13.318945    37625.902 
  689700    307.58039   -1567.1225    521.91567    337.38601      676.675    37625.902 
  689800    301.93657    -1638.413    482.12526    200.93568    811.70589    37625.902 
  689900    301.12216   -1626.4345    509.04119    236.16933     1022.562    37625.902 
  690000    312.83562   -1683.3138    503.20957    226.11118    724.56527    37625.902 
  690100    300.09256   -1628.8638    473.24517     193.3159      205.463    37625.902 
  690200    301.98897   -1622.7871    501.12204    235.79402    123.78387    37625.902 
  690300    292.54818   -1629.0032    483.53978    169.55867   -146.46608    37625.902 
  690400    302.03739    -1560.251    505.49307    302.91877    552.15876    37625.902 
  690500    293.46719   -1575.9608    498.77333    241.96562    186.24664    37625.902 
  690600    309.39164   -1596.5941     515.6558    309.79616    201.39058    37625.902 
  690700    295.24438   -1594.1867    500.72183    233.67677    432.96358    37625.902 
  690800    301.87179   -1614.5023    505.84499    248.27493    268.54035    37625.902 
  690900    303.49336   -1564.8335    518.77475    318.16258    109.59594    37625.902 
  691000    307.65213   -1540.4056    497.27153    339.78123    382.61322    37625.902 
  691100    299.99014   -1536.8171    506.83038    318.48745    -360.3341    37625.902 
  691200    293.36702   -1555.5598    513.65693    276.79989   -59.462449    37625.902 
  691300    291.47938   -1538.7379    517.69575    289.17559   -136.60916    37625.902 
  691400    295.14697   -1527.8495    481.69229    280.54655   -726.18155    37625.902 
  691500    304.50296   -1514.2688      508.419    362.90977     104.8682    37625.902 
  691600    296.01428   -1496.1352    505.17469    339.64187    18.826774    37625.902 
  691700    308.81681   -1567.7771    479.34533    299.71884    -20.54185    37625.902 
  691800    305.15696   -1594.9387    494.12006    270.88067    26.751788    37625.902 
  691900    302.08362   -1541.3933    495.69382    312.18502   -15.971094    37625.902 
  692000    299.52613   -1541.4039    510.06483    315.04928   -373.45824    37625.902 
  692100    289.40619   -1511.3226     505.9807    295.55675   -178.33025    37625.902 
  692200    302.82965   -1555.7959    498.04625    303.48824   -805.67239    37625.902 
  692300    298.69011   -1534.8953    512.64077    320.37588   -1218.9399    37625.902 
  692400    286.87649   -1529.8153    497.66166    257.37391   -1522.7148    37625.902 
  692500    300.06549   -1501.0104    484.71517    332.51766    -324.6736    37625.902 
  692600    304.05081   -1544.7501     513.0394     335.0164   -220.56902    37625.902 
  692700    307.64877   -1561.6266    502.96024    324.23377   -322.12306    37625.902 
  692800    299.09369    -1554.689    499.68717    289.44269    146.71191    37625.902 
  692900    289.00022   -1578.7633    497.52856    217.83903   -158.42296    37625.902 
  693000    300.74185   -1563.1773    527.60988    316.28567   -105.28849    37625.902 
  693100    294.42111   -1559.2361    480.56397    244.76888    93.368389    37625.902 
  693200    306.67316   -1559.6729     516.8551    335.69695    284.20977    37625.902 
  693300    292.63168   -1571.9362    462.23992    205.70117   -635.14518    37625.902 
  693400    311.40708   -1558.8197    508.70795     349.6822   -329.83808    37625.902 
  693500    310.57787   -1553.2282     479.6895    322.52792   -281.04492    37625.902 
  693600    301.92666   -1573.2093    487.62072    271.59036     45.99424    37625.902 
  693700    306.09749   -1590.6848    487.81326    273.05548    -220.7965    37625.902 
  693800    298.98499   -1587.4511    471.73089    228.23574   -733.12308    37625.902 
  693900    296.54872   -1531.6453    514.71859    316.07803   -437.50312    37625.902 
  694000    299.53668   -1549.4954    508.74222    305.68265    402.99879    37625.902 
  694100    298.19306   -1533.7714     517.7417    324.36646    495.26895    37625.902 
  694200    296.53493    -1544.029    510.67577    299.58956    421.18177    37625.902 
  694300    291.72581    -1543.699    536.26267    303.88914   -285.84027    37625.902 
  694400    294.88441   -1549.0251     498.6945    275.19296    705.05203    37625.902 
  694500    302.13566   -1525.7646    510.80311    343.15694   -204.43333    37625.902 
  694600    295.69385   -1541.0024    504.83352    292.99318    -156.8681    37625.902 
  694700    298.20869   -1525.6033    520.33429    335.19743    30.631246    37625.902 
  694800    313.56575    -1567.685     505.0409    346.85326    558.05797    37625.902 
  694900    307.86945    -1544.496    493.82491    333.22105    635.61816    37625.902 
  695000    302.73974   -1597.1832    488.02938    251.67987    853.22841    37625.902 
  695100     307.4105   -1558.5679    504.13732    327.39858    707.46293    37625.902 
  695200    295.83525   -1555.4735    506.68792    281.01205     268.3929    37625.902 
  695300    297.28764   -1603.7306    479.39402    211.98962    319.97231    37625.902 
  695400    302.07281   -1631.2636    484.11026    210.68249   -233.72519    37625.902 
  695500    296.21108   -1629.3536    470.65546    172.78892   -500.48204    37625.902 
  695600    301.77678   -1663.1208    480.30419    173.68861   -850.21067    37625.902 
  695700     295.8919     -1588.49     472.1613    213.72355   -431.88235    37625.902 
  695800     295.8932   -1617.7611    500.42486    212.72187   -631.32268    37625.902 
  695900     303.5925   -1583.6575    467.55086    248.56037   -838.25238    37625.902 
  696000    305.32226   -1576.5196     503.3728    299.29559   -616.23835    37625.902 
  696100    294.93761   -1577.4187    460.68599    209.02998   -814.26464    37625.902 
  696200    302.93718   -1604.5232    509.38097    266.57898   -471.79444    37625.902 
  696300    300.71326   -1567.1498    501.81289    286.38774   -230.92275    37625.902 
  696400    297.88117   -1633.3233    470.20244    175.87334    167.22609    37625.902 
  696500    291.34027   -1616.3705    508.70698    201.92897   -288.83838    37625.902 
  696600    295.88048   -1636.9984    487.42811    180.43065    67.528163    37625.902 
  696700    302.22942   -1604.4509      502.629    256.71797   -10.022271    37625.902 
  696800    298.68574   -1584.4717     490.3667    248.50578   -604.99998    37625.902 
  696900    305.62656   -1596.9572    489.09881     265.9518   -379.28924    37625.902 
  697000    310.86963    -1528.019    480.04496     349.4041    126.39611    37625.902 
  697100    291.06361   -1585.7724    502.46587    225.04231   -431.25073    37625.902 
  697200    305.07411   -1560.6124    502.82802    313.54258    118.12479    37625.902 
  697300    297.72504   -1544.9619    482.46562    275.79609    113.32377    37625.902 
  697400     307.4599   -1584.7907    503.72373    300.98419    380.21839    37625.902 
  697500    295.72565   -1567.1105    478.25239    240.44689   -13.744712    37625.902 
  697600    292.11541   -1571.1865    465.82347    207.71371     159.8818    37625.902 
  697700    297.41027    -1576.655    478.83026    239.05271   -215.53669    37625.902 
  697800       307.33   -1568.1291     499.3282    312.66637   0.11298228    37625.902 
  697900    299.57372   -1595.3835    494.34962    245.56841   -231.33922    37625.902 
  698000    305.12787    -1595.001    489.24578    265.81328   -399.60973    37625.902 
  698100    293.65918   -1539.1161    471.75048    252.65047   -248.03955    37625.902 
  698200    302.21717   -1556.0488    478.52595    280.96195   -76.562642    37625.902 
  698300    306.41332   -1559.5505    468.66656    286.46277    39.547987    37625.902 
  698400    297.55125   -1572.3882    496.32165    261.44459   -58.789527    37625.902 
  698500    291.99338    -1525.457    504.79887    291.87009    14.946952    37625.902 
  698600    294.37068   -1527.1985    486.99475    283.01054   -276.95963    37625.902 
  698700    297.55273   -1501.8433    513.99384    349.66838   -168.69379    37625.902 
  698800    299.61438   -1515.1591    482.64543    314.27143   -326.03313    37625.902 
  698900    296.31119   -1507.3894     468.8729    293.42051    744.34562    37625.902 
  699000    299.66385   -1539.6253    491.02206    298.40419    380.39851    37625.902 
  699100     293.4515   -1576.5338    502.93938    245.48817    505.58313    37625.902 
  699200    298.64773   -1541.8543    499.22876    299.81436    105.07482    37625.902 
  699300    299.07018   -1536.6081    493.25276    300.98351   -49.514476    37625.902 
  699400    302.82243   -1575.8802    471.59275    256.91799    73.440315    37625.902 
  699500    300.29292   -1570.3701    489.98865    269.45365   -418.94039    37625.902 
  699600    297.37587   -1596.5091    486.69697    226.91068   -462.27567    37625.902 
  699700    295.65245   -1601.8567    487.40738    214.52664    599.55793    37625.902 
  699800    304.84637   -1603.4106    508.46775    275.36032    495.14294    37625.902 
  699900    296.20915   -1619.2852     482.7157    194.90886   -9.6027237    37625.902 
  700000    305.70428   -1613.7258    476.75406    237.18776    376.24444    37625.902 
  700100    303.34694   -1605.3707    469.50667    227.69917    448.27146    37625.902 
  700200    294.23874   -1564.0435    478.86186    237.43966    143.54555    37625.902 
  700300    295.32851     -1578.98     499.3015    247.84136    347.45309    37625.902 
  700400    300.27677   -1582.3793     463.5339    230.91717    -27.13813    37625.902 
  700500    281.83458   -1571.2268    497.25741    192.89443    451.91985    37625.902 
  700600    298.25533   -1571.2023    510.90641    280.38017   -81.116676    37625.902 
  700700    295.42548   -1566.3644    452.07468    213.66593    191.65898    37625.902 
  700800    302.02694   -1561.2514     497.4835    293.86179   -124.77941    37625.902 
  700900    312.10973   -1567.1869    469.75426    305.51986   -427.03485    37625.902 
  701000    304.92348   -1551.7391    479.05978    297.97045   -120.21672    37625.902 
  701100     299.8044   -1541.0258    486.85843    293.47189    203.35455    37625.902 
  701200    295.83454   -1540.2123    494.35422    283.93635     -75.0161    37625.902 
  701300    286.88355   -1592.1827    443.65662    141.03316   -185.74139    37625.902 
  701400    296.96571    -1524.606    496.86027    307.13343    58.374279    37625.902 
  701500    299.26749   -1566.7457    493.82144    272.30148   -263.64681    37625.902 
  701600    295.91618   -1596.9575    465.58145    198.78544   -171.39837    37625.902 
  701700    291.94651   -1600.2252    488.07339    200.16571    490.73225    37625.902 
  701800    287.73163   -1562.0986    478.07817    209.35095    551.66974    37625.902 
  701900    305.88402   -1536.8943    483.84979    321.92302    370.80814    37625.902 
  702000    310.24606    -1552.539    489.65932     331.6954    319.08243    37625.902 
  702100    306.52036   -1584.8603    480.28713    273.25469    528.64384    37625.902 
  702200     301.1261   -1567.1039    470.59759      257.074    263.50943    37625.902 
  702300    298.09572   -1557.6048    503.47202    285.82586    32.206375    37625.902 
  702400     288.2977   -1522.3473    487.44057    261.00915   -289.21693    37625.902 
  702500    297.61608   -1551.7098    477.81203     263.9048    43.181323    37625.902 
  702600     303.1093   -1554.3487    466.55794    274.70423   -578.04789    37625.902 
  702700    299.18036    -1567.517    466.70431    244.02142   -400.55069    37625.902 
  702800    301.37149   -1529.2977    488.17977    313.56542   -381.39147    37625.902 
  702900    298.44921   -1532.6312    492.74421     301.6606   -1020.5203    37625.902 
  703000    299.25921    -1515.316    500.82264    330.69516   -128.16842    37625.902 
  703100    300.60397   -1526.1707      502.215    327.27766   -245.92764    37625.902 
  703200    301.47573   -1514.2775    461.31502    302.18948    45.806111    37625.902 
  703300    300.28405   -1500.3673    528.54998    377.97797    414.22759    37625.902 
  703400    301.79738    -1500.338    479.48091     335.7407    634.10025    37625.902 
  703500    309.70264   -1568.4041     502.4073    326.13564    950.10643    37625.902 
  703600    296.03953   -1571.7637    467.87437    226.82656    646.27971    37625.902 
  703700    295.15003   -1570.4297    494.37787    250.66569    672.19356    37625.902 
  703800    290.74514   -1597.4342    491.35255    200.83565    741.05256    37625.902 
  703900    303.93468   -1583.3101    481.96897    264.86395    438.70531    37625.902 
  704000    303.59938   -1584.1371    475.97389    256.53474    281.38129    37625.902 
  704100    310.68531   -1550.0346     479.3456    325.86054    501.82711    37625.902 
  704200    286.61461   -1552.5535    487.34855    223.14541    1102.1149    37625.902 
  704300    300.53852    -1557.572    486.20876    279.57592    738.30054    37625.902 
  704400    305.02037   -1547.8995    480.03039    303.21617    420.79909    37625.902 
  704500    308.46998   -1546.0457     462.1865    302.73233    157.19287    37625.902 
  704600    289.38972   -1574.8082    476.19777     202.2142    98.825876    37625.902 
  704700    290.40777   -1576.3236     460.3881    189.46525   -159.97496    37625.902 
  704800    300.91177   -1527.2669    478.80924    304.15928     -742.337    37625.902 
  704900     312.3246   -1537.6213     457.2785    323.57544   -822.60669    37625.902 
  705000     299.2713   -1561.1952    457.34606    241.39375   -1116.2374    37625.902 
  705100    297.90529   -1566.4094    496.84321    269.53643   -158.82947    37625.902 
  705200    295.32088   -1551.8995    486.68393       262.27    32.557804    37625.902 
  705300    295.95479   -1488.1405    486.27914    328.47369    771.06689    37625.902 
  705400     297.0426   -1525.0258    493.07193    303.27094    892.75411    37625.902 
  705500    299.93691   -1557.8217     469.7959    260.20909    456.34823    37625.902 
  705600    298.73219   -1526.9704    476.07207    291.92127    188.39763    37625.902 
  705700    304.24916   -1541.8367    495.24151    321.02352    551.16822    37625.902 
  705800    298.10287   -1545.4308    471.55585     266.1158    39.245557    37625.902 
  705900    296.54389   -1510.7801    497.90016    320.10306    292.40396    37625.902 
  706000    305.04875   -1533.9604    463.15779    300.41029   -397.82914    37625.902 
  706100    296.96609   -1520.8164    490.44844    304.51292    -192.2544    37625.902 
  706200     301.8455   -1522.5283    479.10166    313.38751   -576.64543    37625.902 
  706300    292.72224   -1513.9472    488.50487     290.3621   -888.15352    37625.902 
  706400    297.44998   -1528.9125    481.89433    290.03785   -333.71444    37625.902 
  706500    301.22354   -1541.5113    465.39795    277.90499   -225.74737    37625.902 
  706600    301.90878   -1512.3703     466.8359    311.56416    497.16739    37625.902 
  706700    287.84345   -1504.6587    503.80483     293.0202    279.22245    37625.902 
  706800    295.28934   -1490.7843     459.5391     296.0985   -266.68569    37625.902 
  706900    305.24956   -1515.2203    459.58914    316.48444    263.14545    37625.902 
  707000    296.39296   -1498.7986    481.71156    315.21754    399.19677    37625.902 
  707100    301.76212   -1496.3435    479.41615    339.51199    213.06907    37625.902 
  707200    287.91561   -1481.4036    482.94699    295.74175    128.21435    37625.902 
  707300    300.59921    -1469.399    469.00761    350.82052     21.09659    37625.902 
  707400    299.46692   -1521.9678    484.53574    308.69021    56.081133    37625.902 
  707500    303.00535   -1492.8491    475.20644      344.385   -174.22296    37625.902 
  707600    302.01205    -1538.025    484.89872    304.43648   -171.19735    37625.902 
  707700    299.59218    -1481.434    478.65038    343.90171      374.962    37625.902 
  707800    312.41109   -1539.6685     474.6972    339.33582    115.33972    37625.902 
  707900    296.51127   -1547.0321    463.13266    248.93694    805.03827    37625.902 
  708000    299.66554   -1552.1698    500.55144    295.39664      109.839    37625.902 
  708100    302.51072   -1530.4145    471.82161    301.21141      18.4311    37625.902 
  708200    301.80597   -1522.9968     466.7195    300.35912    375.61337    37625.902 
  708300     294.1072   -1500.7584    488.11888    309.39042    255.66847    37625.902 
  708400     298.8102   -1536.2371    463.30772    270.24087   -315.80776    37625.902 
  708500    310.20131   -1493.5822    458.60256     359.3944   -307.36318    37625.902 
  708600     296.1563   -1508.5639    478.48804    301.16492    27.911462    37625.902 
  708700    306.49131   -1557.7761     477.0038    296.92496     332.6852    37625.902 
  708800    293.02043   -1540.1519     455.6909    232.68384     9.265281    37625.902 
  708900    308.88668   -1529.0683    499.94138    359.33774   -247.00831    37625.902 
  709000    302.25025   -1525.0708     472.6003    306.16299    13.454009    37625.902 
  709100    288.81349   -1515.4807    486.19037    268.94409    217.92277    37625.902 
  709200    293.12952    -1449.316    478.16926    346.48853    51.703457    37625.902 
  709300    299.79614   -1501.4717     448.4658    294.59616   -441.26046    37625.902 
  709400    307.36647   -1511.9032    463.97718    333.70514   -79.210036    37625.902 
  709500    306.53285   -1512.3993    490.53951    356.02426    256.85745    37625.902 
  709600    320.11271   -1481.0713    484.68923    442.54429    262.62783    37625.902 
  709700    302.95615   -1511.0275    469.39264    320.17171   -177.57279    37625.902 
  709800    292.88117   -1474.3524     492.5936     334.7601    120.66133    37625.902 
  709900    301.36372   -1482.1212    486.99283    359.52014     229.7576    37625.902 
  710000    302.20811   -1543.2643      468.956    284.13578   -251.15601    37625.902 
  710100     291.9312   -1541.3468    456.71167    227.61356   -501.81459    37625.902 
  710200    295.79313   -1514.9928    464.22991    278.84544   -533.63518    37625.902 
  710300    290.53926   -1499.2274    475.42083    282.18531   -419.83268    37625.902 
  710400    287.85936   -1495.8788    489.72165    287.78834   -229.69002    37625.902 
  710500    294.83559   -1462.6302    473.14697    335.82092   -264.36628    37625.902 
  710600    295.48628   -1505.4877    440.81085    263.55216   -589.52837    37625.902 
  710700    295.42826   -1494.1252    465.90142    299.74443   -269.91868    37625.902 
  710800    289.49332   -1524.1272    464.68903    241.85217   -224.55922    37625.902 
  710900    303.12747    -1515.909    477.83825    324.50588    197.66642    37625.902 
  711000    305.88052   -1539.7892    472.02279    307.18534    166.13064    37625.902 
  711100    294.49052   -1501.0575    479.28914    301.98465    42.156526    37625.902 
  711200    294.22382   -1480.1595    463.87875    306.27344   -212.59731    37625.902 
  711300    299.05235   -1510.1977    484.07052    318.13156    110.70234    37625.902 
  711400    292.35575   -1497.4204    479.82898    296.56572    342.18178    37625.902 
  711500    302.99237   -1486.5958    480.60367    355.97727    472.71836    37625.902 
  711600    298.68558    -1507.378     462.0201    297.25217   -258.76901    37625.902 
  711700    307.13014   -1515.9343    478.18091    342.81554    224.95032    37625.902 
  711800     296.9353   -1527.3129    461.51057    268.94016   -216.92021    37625.902 
  711900    296.64707   -1513.8171    446.12284    265.75259   -150.17233    37625.902 
  712000     298.7853   -1525.1549    485.79643     303.6998   -141.65373    37625.902 
  712100    293.25731   -1526.0374    490.44655    282.61882    91.580866    37625.902 
  712200    313.31444   -1496.6918    482.41235    394.08827    853.75975    37625.902 
  712300    301.57959   -1517.8576    452.35164     290.1128    139.14221    37625.902 
  712400    311.15214   -1528.3096      451.939    322.27741    480.13823    37625.902 
  712500    297.59004   -1508.6163    453.52319    282.59249     254.7026    37625.902 
  712600    306.80978   -1535.9696    484.17773    327.33695    20.478826    37625.902 
  712700    290.89771   -1522.3582    443.57115     228.8161    496.33389    37625.902 
  712800    290.02841   -1588.0318    471.60639    187.27013    263.64681    37625.902 
  712900    303.73631   -1581.5041    473.50726    257.31655    1024.9573    37625.902 
  713000    295.21728    -1564.644    481.15987    243.53569    768.03866    37625.902 
  713100    305.96298   -1518.6496    496.60968    353.28245    473.22441    37625.902 
  713200    293.61665   -1510.4337    468.68272    278.07392    759.53214    37625.902 
  713300    299.49854   -1530.4123    472.80473    288.65678    727.37284    37625.902 
  713400    297.65575   -1543.3625    483.12149    277.73995    153.64591    37625.902 
  713500    291.46209   -1537.6954    464.87195    237.31657    222.30146    37625.902 
  713600    299.23813   -1544.6073    479.97079    280.45734    147.06541    37625.902 
  713700    300.44984   -1539.5847    456.11118    267.06696   -245.46418    37625.902 
  713800    309.59351   -1535.8252     450.1735     305.9902   -376.92828    37625.902 
  713900    293.70962     -1532.63    461.00328    248.61609   -449.86438    37625.902 
  714000    304.47459   -1536.5593    461.44139    293.51412   -988.47608    37625.902 
  714100    297.61687   -1520.5121    483.06431    300.35841   -451.80039    37625.902 
  714200    292.18486   -1521.9085    463.40373    254.88421   -221.88038    37625.902 
  714300    302.36841   -1517.9705    494.23943    335.43351   -118.96055    37625.902 
  714400    289.87717   -1508.0156    465.12208    260.12216   -543.59841    37625.902 
  714500    302.66248   -1513.7212    482.69336    329.45863   -354.41627    37625.902 
  714600     293.4691   -1534.3758    483.11311    267.89901   -656.50822    37625.902 
  714700    299.85342   -1539.1594    476.03179    284.73193   -88.640934    37625.902 
  714800    301.58665    -1529.202    467.20287    293.65143   -119.65647    37625.902 
  714900    300.15101   -1532.7507    466.98888    283.43549    -447.2016    37625.902 
  715000    299.05076   -1533.4646    469.73854    280.52547   -92.800423    37625.902 
  715100    297.36334   -1508.0534    486.18739    314.80054   -235.04568    37625.902 
  715200    309.26684   -1539.0024    475.57914    326.75028    135.30978    37625.902 
  715300    290.56302   -1505.7624    476.20892    276.54519   -4.8939482    37625.902 
  715400    290.67125   -1521.3687     464.8366    250.05306   -281.41254    37625.902 
  715500    310.21832   -1488.6246    488.21526    394.04106    428.41985    37625.902 
  715600    303.59132   -1482.1173    495.35856    377.90292    346.67017    37625.902 
  715700     311.9747   -1495.5314    468.53634    375.35039    75.146012    37625.902 
  715800    310.82816   -1486.0747    475.66098    386.77803   -287.47157    37625.902 
  715900    296.55727   -1501.0015    488.16975     320.2114    -629.8706    37625.902 
  716000    305.36252   -1497.3342    488.29829    363.58741    -364.7582    37625.902 
  716100    299.12599   -1518.3104    455.15711    281.43641     208.3954    37625.902 
  716200    309.40858   -1564.4691    464.75948    291.10097    414.05533    37625.902 
  716300    309.28515   -1515.3181    486.74966    361.68738    589.73904    37625.902 
  716400    298.82747   -1552.6359    472.62614    263.23809    451.35248    37625.902 
  716500    305.90959   -1540.3452    475.37189    310.10912   -82.123094    37625.902 
  716600    296.13272   -1525.4507    458.74697    264.43108    103.81095    37625.902 
  716700    295.78874    -1537.824    483.89482     275.6594    -327.4999    37625.902 
  716800    299.88109   -1533.1205    458.94172    273.80523   -544.86231    37625.902 
  716900    312.01769   -1496.6741    452.97442    358.83903    345.22221    37625.902 
  717000    311.61316   -1511.9101    467.32093    356.13111   -792.33714    37625.902 
  717100    291.31438    -1501.388    473.92435    282.01241   -577.97339    37625.902 
  717200    305.16457   -1538.9398    449.55135    282.34507    94.318351    37625.902 
  717300    283.24042    -1549.726    475.26352    198.72065   -236.17336    37625.902 
  717400    308.76416   -1502.8845    479.22826    364.25763    -131.0223    37625.902 
  717500    300.51756   -1494.9494    455.42395    311.31947     -73.6064    37625.902 
  717600    308.44281   -1477.2214    465.20638    374.45437   -155.15276    37625.902 
  717700    293.69716   -1474.2443    498.01279    343.95535   -112.81258    37625.902 
  717800    293.29687   -1519.0544    478.60258    277.93571    -345.4152    37625.902 
  717900    294.87886   -1504.9304    463.80661    284.37487    172.40263    37625.902 
  718000    300.64432   -1505.4057    465.01166    311.02069    424.50093    37625.902 
  718100    293.30052     -1502.89    481.01386    296.52777   -102.17819    37625.902 
  718200     297.3552   -1544.6475    467.30941    259.29186     486.9164    37625.902 
  718300    301.99724   -1558.4537    459.11193    258.15443    814.19603    37625.902 
  718400    301.81045   -1513.2595    495.16081    338.55782    874.84744    37625.902 
  718500    297.45908   -1499.7918    469.78784    307.09293    405.71247    37625.902 
  718600    307.27979   -1504.3396    471.46488    348.36687   -163.38775    37625.902 
  718700    291.40014   -1470.7202    449.56421    288.70554   -795.17179    37625.902 
  718800    285.86766   -1482.2039    488.20076    290.98963    -575.6271    37625.902 
  718900    301.81537    -1481.481    471.21915    346.41681     293.0434    37625.902 
  719000    298.84802   -1481.8612    470.72777     332.2068   -19.661888    37625.902 
  719100    300.09836   -1453.5689    498.43837    393.83014    1041.8194    37625.902 
  719200    305.30007   -1490.2681    479.07709    361.15161    444.28203    37625.902 
  719300     306.6178   -1483.6353     490.2361    384.86667    395.52907    37625.902 
  719400    294.71211   -1472.5043    486.32678    338.57155    745.71476    37625.902 
  719500    305.69161   -1490.6649    503.00238    386.44005    1016.6262    37625.902 
  719600    304.18216   -1538.1309     480.6727    309.85927    557.39081    37625.902 
  719700    298.70281   -1530.8443    485.96707    297.81029    106.11213    37625.902 
  719800    314.55532   -1522.4151    470.01003    361.54046    471.25872    37625.902 
  719900    292.94408   -1512.3093    463.69973    268.19211     149.8234    37625.902 
  720000    296.49751   -1543.8113    455.31901    244.28231    681.55613    37625.902 
  720100    302.15619   -1522.5094    497.47096    333.17228    989.33393    37625.902 
  720200    297.71443   -1574.7455    451.17372    214.67286    1040.9393    37625.902 
  720300    300.15502   -1552.6893    473.83587    270.36187    873.64659    37625.902 
  720400    294.99701   -1573.4353    477.59719    230.19156    679.50707    37625.902 
  720500    309.93053     -1538.79    442.16938    296.53619    413.26045    37625.902 
  720600    314.29179   -1491.9087    467.04629    387.89847    135.47319    37625.902 
  720700    294.20174   -1499.1645    455.94991    279.24036    41.393071    37625.902 
  720800      301.636   -1484.9825    452.41898    323.30885   -217.28588    37625.902 
  720900    306.49196   -1493.8149    471.40676    355.29211   -730.58987    37625.902 
  721000    285.60474   -1495.2984    462.72074    251.23324   -832.95624    37625.902 
  721100    289.04848   -1566.3031    439.80397    172.79156   -620.68957    37625.902 
  721200      306.596   -1501.6092     483.2918    359.85053   -557.92621    37625.902 
  721300    292.73266   -1488.9788    463.48231    290.35487   -1039.9266    37625.902 
  721400     297.7082   -1523.0449    421.56791    236.73974   -320.70575    37625.902 
  721500    295.04197   -1479.6555    452.32418     298.9005   -821.52941    37625.902 
  721600    300.80177   -1479.8703    456.07496    328.32715    -269.2217    37625.902 
  721700    305.43085   -1487.3364     483.4182    369.01223   -246.88591    37625.902 
  721800    302.03535   -1524.9267     487.9527    320.69343   -202.05764    37625.902 
  721900    293.45864   -1485.6311    489.33846    322.82197    91.736551    37625.902 
  722000    303.21243   -1505.3946    481.27303    338.83695    232.09731    37625.902 
  722100    304.80757   -1500.4951    463.19276    332.82646    113.90557    37625.902 
  722200    292.18963   -1473.8627    452.32862     291.8763    418.62757    37625.902 
  722300    295.10241   -1471.1896    453.40271    308.71663    224.23423    37625.902 
  722400    295.70634    -1501.931    498.14834    325.43558    -158.4608    37625.902 
  722500    302.77193   -1458.8735    463.47191    365.57683   -512.32098    37625.902 
  722600    305.81224   -1530.3758    457.12833    301.39736   -1209.2961    37625.902 
  722700     300.4966   -1519.4884    452.47151    283.73385   -413.64303    37625.902 
  722800    300.78014   -1548.8846    438.29078    241.43138   -203.57625    37625.902 
  722900    306.11946   -1521.1979    456.79535    311.62324   -107.73497    37625.902 
  723000    290.44237   -1524.7788    472.93479    253.71233   -180.36685    37625.902 
  723100    302.87121   -1505.7402    461.05789    316.74245   -44.530601    37625.902 
  723200    297.58858   -1478.5551    472.10567    331.22957    289.00136    37625.902 
  723300    296.28823    -1518.715    486.99785    300.11665    134.24508    37625.902 
  723400    298.41244   -1484.8939    479.45141     335.9398    290.28453    37625.902 
  723500    299.17247   -1481.5691    464.05933     327.2889   -79.616692    37625.902 
  723600    297.10051   -1477.3152    487.90603     346.0759    243.20201    37625.902 
  723700    288.76873   -1441.3129    489.21532    345.93569    24.588979    37625.902 
  723800    302.87595   -1457.7626    474.01296    377.69643    436.57712    37625.902 
  723900    291.56317    -1483.908    480.61223    307.29858   -124.89943    37625.902 
  724000    302.68435   -1425.3164    453.87056    389.13894    39.026732    37625.902 
  724100    306.13847   -1457.6544    466.85063    385.30747   -76.976696    37625.902 
  724200    299.76035    -1488.508    490.94901    349.88224    6.0860792    37625.902 
  724300    293.47534   -1489.5662    488.85582    318.47931   -52.249078    37625.902 
  724400    299.57387   -1459.4033    476.42406    363.62378    4.8527429    37625.902 
  724500    290.23803   -1454.0028    482.48037    333.11532   -483.99522    37625.902 
  724600    309.64073    -1490.532    476.79109    378.11324   -120.74939    37625.902 
  724700    305.73474   -1440.6101    484.96984    418.65616    -687.4154    37625.902 
  724800     302.4085   -1450.6623    459.76687    368.44938   -479.61743    37625.902 
  724900    302.75401   -1423.0402    482.63664    420.49429   -61.550802    37625.902 
  725000    303.49372   -1439.3166    489.27056    414.17687    57.575388    37625.902 
  725100    300.03686   -1471.7029    468.79173    345.77296   -369.95572    37625.902 
  725200    310.55135   -1538.8925    449.75176    306.80672   -354.21735    37625.902 
  725300    307.75829   -1491.1315    471.58421    363.84524   -338.81437    37625.902 
  725400    307.70916   -1485.5165    467.11471    364.76988    317.53271    37625.902 
  725500    300.46393   -1489.0653    470.06616    331.60467    423.59199    37625.902 
  725600     304.4977   -1497.1068    471.38236    343.01144    160.40627    37625.902 
  725700    304.16126   -1520.0726     480.9027    328.05366    519.44026    37625.902 
  725800    297.49808   -1475.1268     462.7125    324.85785    706.63994    37625.902 
  725900    303.79449   -1478.4978    507.85799    394.93513    767.64692    37625.902 
  726000    300.87711    -1480.762     458.6022    330.30129    817.68953    37625.902 
  726100    301.51003   -1481.7747    491.74683     365.2783    439.05793    37625.902 
  726200    303.89506   -1473.9281    480.20305    372.30198    398.68709    37625.902 
  726300    295.70744   -1469.7856    465.25897    324.69656   -21.126694    37625.902 
  726400    294.50785   -1423.3143    465.09098    365.60758   -315.67673    37625.902 
  726500    301.28651   -1459.3125     484.1769    379.16581   -114.37687    37625.902 
  726600     298.4141   -1428.3557    474.68697    387.72102   -168.08481    37625.902 
  726700    299.71027   -1481.0345    471.53626    337.71784   -182.64062    37625.902 
  726800    300.68256   -1423.6493    479.77054    407.70783   -243.37561    37625.902 
  726900    303.19498   -1418.9013    486.27006    430.24889   -547.52118    37625.902 
  727000     294.9181   -1433.7767    497.50994    389.40821   -73.478317    37625.902 
  727100    302.18731   -1454.4104    472.25522    376.19533    30.947041    37625.902 
  727200    293.96354   -1445.5248    480.33878    356.19818   -241.55308    37625.902 
  727300    305.12408   -1453.7806    496.96458    414.73554    763.76917    37625.902 
  727400    297.21746   -1471.5211    472.47413    336.96381    47.263894    37625.902 
  727500    307.65361   -1430.1703    482.67582    435.42743   -327.70189    37625.902 
  727600    309.45445   -1431.8576     491.9044    451.06364   -94.165634    37625.902 
  727700    299.09531   -1499.6065    451.10375    295.94912   -27.190595    37625.902 
  727800    297.17193   -1496.8706    461.38683     300.3224   -79.321398    37625.902 
  727900    297.13226   -1462.7087    467.82589    340.74493   -375.86014    37625.902 
  728000    302.13708   -1480.8122    479.20597     356.5185    600.06087    37625.902 
  728100     288.9265   -1488.7379    492.99026    302.99475    78.864592    37625.902 
  728200    302.91534   -1511.6751    472.20306    322.15102   -395.62328    37625.902 
  728300    297.31518    -1464.952    476.13912     347.6371   -44.746407    37625.902 
  728400    303.62804   -1431.3459    476.58018    410.06098    798.89968    37625.902 
  728500     306.4462   -1471.4995    488.51869    394.51372    306.16936    37625.902 
  728600     287.7672   -1458.7941    462.21159    296.94879   -108.90029    37625.902 
  728700    295.23436   -1483.7414    495.09521    338.45044   -106.14017    37625.902 
  728800    311.27465   -1470.3628    449.72185    378.55775   -132.92227    37625.902 
  728900    299.55497   -1440.7746    483.92007    389.66345     144.8102    37625.902 
  729000    309.27274    -1453.333    474.88476    411.75179   -407.82975    37625.902 
  729100    295.36937   -1495.6633     473.5801    305.62034   -473.36664    37625.902 
  729200    294.30105   -1439.5958    480.40467    363.71019   -439.25535    37625.902 
  729300    306.84272    -1473.215     475.8341    381.89603   -243.63665    37625.902 
  729400    294.21434   -1432.8517    475.84763    365.50745   -236.64958    37625.902 
  729500    293.33167   -1465.8672    483.49753    336.17421    -132.9057    37625.902 
  729600    299.08872   -1439.5672    469.19632    374.05136   -842.26644    37625.902 
  729700    297.06923   -1473.6089    496.54345      358.279   -178.26372    37625.902 
  729800    302.99119    -1465.667    491.38781    387.68484    173.78118    37625.902 
  729900    301.47818   -1484.9054    485.22172    355.47926   -24.303553    37625.902 
  730000    288.18815   -1500.1627    452.94852    248.20923   -234.42468    37625.902 
  730100    304.38884   -1505.2425     450.0059       313.01   -51.087123    37625.902 
  730200    299.94536   -1467.7778    467.46764    347.96275    45.957176    37625.902 
  730300    300.40467    -1489.018    492.02704    353.34649    9.2747735    37625.902 
  730400    304.11115   -1486.4575    427.59679    308.13765    100.18047    37625.902 
  730500    305.20993   -1475.6476    483.15916    379.44896    381.05998    37625.902 
  730600    305.47467   -1477.5162    489.39457    385.00587    21.575051    37625.902 
  730700    296.12879   -1484.8035    455.01181    301.32546   -85.016958    37625.902 
  730800    291.15583   -1512.0062    477.89243     274.6496   -130.03913    37625.902 
  730900    298.94864   -1510.2696    463.47027    296.99318    469.03442    37625.902 
  731000    297.46086   -1514.7068    459.15768    281.55574    180.30258    37625.902 
  731100    308.00415   -1450.2787    466.98707    401.20602    49.477556    37625.902 
  731200    307.04711    -1478.541    450.41594    352.07064    609.25765    37625.902 
  731300    292.06263   -1488.4538    482.38014    306.76582    274.13217    37625.902 
  731400     289.7306   -1486.3355    451.77964    267.80099   -299.04617    37625.902 
  731500    299.11249    -1516.074    463.41368    291.86871    288.42167    37625.902 
  731600    296.50047   -1488.5354    479.94336    324.19579   -75.256552    37625.902 
  731700    298.14246    -1509.258     482.1487    313.05945    111.62085    37625.902 
  731800    297.02834   -1506.2522    458.72101    287.62951   -134.06534    37625.902 
  731900    297.83117   -1526.4373    474.51149    286.84358   -276.05566    37625.902 
  732000    301.00364   -1483.1943    462.72958     332.5652    -199.2356    37625.902 
  732100    304.77546   -1516.3701    439.53675    293.15106    251.00299    37625.902 
  732200    296.96376   -1548.3346    454.64077    241.17658     310.3978    37625.902 
  732300    301.26287   -1532.2087    473.23956    295.22596    520.99145    37625.902 
  732400    296.22752   -1487.1573    498.57504    342.97869    71.201172    37625.902 
  732500    297.37348   -1491.9847    462.25816    306.98556   -308.93984    37625.902 
  732600     299.3421   -1470.3301    450.46428     325.6954   -152.78331    37625.902 
  732700    306.23221   -1441.1201    447.23148    382.64403    233.17005    37625.902 
  732800    299.90446   -1506.7142    501.40051    342.77533    453.43304    37625.902 
  732900    296.40151   -1511.1335    463.82148    285.03106     326.0665    37625.902 
  733000     297.9712   -1521.7006    472.77678    290.47511    276.84589    37625.902 
  733100    310.17609    -1496.048    462.02767    360.24026    258.76782    37625.902 
  733200    298.09895   -1498.7818     478.2168    319.40809   -119.29776    37625.902 
  733300    294.09949   -1501.5904    450.42618    270.83111    240.75449    37625.902 
  733400      288.693   -1525.9508     496.7778    268.51986   -307.38977    37625.902 
  733500    302.32781   -1527.5067    489.23118     320.7066   -482.63339    37625.902 
  733600    294.56305    -1500.558    478.87145    302.39252   -564.77197    37625.902 
  733700    305.62242   -1480.7732    473.25256    366.27096   -680.90898    37625.902 
  733800    307.44901   -1436.5625    469.60761    415.04734   -189.49443    37625.902 
  733900    307.13692   -1516.6268    462.07997    326.05256    -249.6632    37625.902 
  734000    301.81703   -1485.0957    485.80679    357.39724   -67.999717    37625.902 
  734100    303.30134   -1454.7358    479.23409    387.85648   -152.10995    37625.902 
  734200    292.58064   -1458.3039    490.55545    347.41956    568.09561    37625.902 
  734300    299.90045    -1479.181    489.20288    358.09288    218.55704    37625.902 
  734400    303.19196   -1524.5492    494.66811    332.98549    611.09405    37625.902 
  734500    300.83607   -1491.4866    480.77648    341.56648   -69.366948    37625.902 
  734600    303.08552   -1514.8481    483.84737    331.38739   -435.26062    37625.902 
  734700    303.52235   -1508.1001    454.57872    310.83027   -196.48346    37625.902 
  734800    307.10511   -1500.2675    463.29357    343.48246    -136.2995    37625.902 
  734900    302.68419   -1502.6333    488.74076    346.69151    -225.0519    37625.902 
  735000    312.14026   -1481.8939    482.35869    403.55449    4.3425617    37625.902 
  735100    301.39306   -1532.7947    462.37929    284.36494    180.02525    37625.902 
  735200    301.26012    -1496.505    484.31823    341.99603   -127.86622    37625.902 
  735300    299.67028   -1522.0674    464.51632    289.48522    260.82869    37625.902 
  735400    301.60597   -1581.7789    464.75356    238.71201    668.18458    37625.902 
  735500    298.32943   -1577.0561    484.90857    248.86163    433.05475    37625.902 
  735600    302.79268    -1577.871    457.98932    241.19003    588.60427    37625.902 
  735700    308.43997   -1527.4658    445.96078    304.95169    356.39529    37625.902 
  735800    301.27453   -1538.9493     491.9588    307.25708    404.76356    37625.902 
  735900    311.13427   -1502.6632    503.75947    399.66398    284.96031    37625.902 
  736000    290.12524   -1484.0556    502.68017    322.75543   -337.08748    37625.902 
  736100    290.52719   -1498.5002    518.21917    325.65654    133.33773    37625.902 
  736200    299.74111   -1503.4436    487.81574    331.72691    257.49886    37625.902 
  736300    296.10737   -1490.6354    458.15963    298.54511   -89.732415    37625.902 
  736400    293.22189   -1518.3673    477.86696    277.55007   -162.43194    37625.902 
  736500    303.55991    -1487.882    471.78379    348.42227    52.960138    37625.902 
  736600    298.03551   -1537.1588    461.61897    264.14814   -531.01224    37625.902 
  736700    307.92687   -1512.4084    507.87779    379.61959    143.33005    37625.902 
  736800    303.28629   -1534.6308    450.06057    278.72033    321.83692    37625.902 
  736900    310.39608   -1545.1535    492.70261    342.79859    119.91763    37625.902 
  737000    304.64857   -1494.0666    471.91366    347.26118    44.885163    37625.902 
  737100    307.03161   -1492.2845    476.22322     364.0647   -207.87539    37625.902 
  737200     291.8783   -1472.4729    476.31988    315.85793   -187.26597    37625.902 
  737300    297.55504   -1479.2244    469.84803     328.1518   -507.37808    37625.902 
  737400      306.395   -1506.8092    486.13315     356.5883   -433.44089    37625.902 
  737500    301.83971   -1481.8319    487.61343     362.5696    -836.4163    37625.902 
  737600    300.18807   -1465.7575    478.74443    362.35077    -511.4413    37625.902 
  737700    295.83406   -1468.8441    490.56993    351.51815   -58.052582    37625.902 
  737800    308.57595   -1483.0425    497.06534    401.09071   -109.91891    37625.902 
  737900    297.30741   -1465.2788    489.59126    360.72752   -580.14303    37625.902 
  738000    293.04339   -1500.9418    444.99928    261.30555    -711.2306    37625.902 
  738100    309.69296   -1463.4668    502.30033    430.92245   -200.71096    37625.902 
  738200    300.06504   -1493.2268    452.34297    307.92704    -117.5506    37625.902 
  738300    296.57638   -1454.7908    493.26266     371.6009   -550.93968    37625.902 
  738400     291.6554   -1453.4975    492.07903    349.59054    68.321082    37625.902 
  738500    298.40095   -1450.6563    463.27468    353.94898   -203.37663    37625.902 
  738600    310.71538   -1466.1631    499.31834    429.84001   -450.12078    37625.902 
  738700    297.98385   -1471.1592    471.91173    340.20824   -176.56765    37625.902 
  738800    289.86356   -1483.9919    471.76655    290.72922   -155.62387    37625.902 
  738900    289.19427   -1505.7829    469.76347    263.92659    89.528508    37625.902 
  739000    299.21673   -1450.1913    482.61613    377.42246     58.94798    37625.902 
  739100    306.34165   -1445.3957    466.26999     397.8989    194.47258    37625.902 
  739200    298.58211   -1494.8532    461.76874    309.06051   -204.03068    37625.902 
  739300    293.93944   -1489.2603     458.5992    290.61479   -172.90197    37625.902 
  739400    300.14134     -1451.67    443.77536    341.25914    349.36581    37625.902 
  739500    295.61517   -1536.0421    476.67477    269.44101   -314.79691    37625.902 
  739600    300.68221   -1497.3411     483.9863    338.23028    103.13887    37625.902 
  739700    297.73393   -1505.4489    459.42498     292.3084    372.10863    37625.902 
  739800    291.40302   -1507.9115    505.58078    307.54382    231.17813    37625.902 
  739900    301.62447    -1514.549    483.71589    324.98747    522.11197    37625.902 
  740000    295.62877   -1497.0809    476.96024    308.74886    567.43093    37625.902 
  740100    300.51199   -1479.3044    473.84653    345.36206   -51.019116    37625.902 
  740200    312.63042   -1448.3309    486.18422    443.14631     97.75837    37625.902 
  740300    296.04073   -1456.1224    503.82446    378.42333   -37.506507    37625.902 
  740400    292.07035   -1496.8336    465.19418    281.23479    179.21669    37625.902 
  740500    293.43076   -1508.8237    475.02749    285.19307    148.19224    37625.902 
  740600    296.45926   -1476.1639    487.03798    343.47673    328.78632    37625.902 
  740700    308.03126   -1466.7659    481.08754    398.94106    281.87297    37625.902 
  740800    301.90663   -1504.4191     464.4243    317.09414    280.08291    37625.902 
  740900    298.60364   -1514.5758    464.41388    292.07979    29.778885    37625.902 
  741000    303.94034   -1512.0977    476.34286     330.4757    191.17048    37625.902 
  741100    280.77097   -1522.2839    473.59057     213.3895   -348.44225    37625.902 
  741200    303.17856   -1494.9723    483.87542    351.70943    314.36633    37625.902 
  741300    304.49278   -1499.6423     469.6152    338.68665    193.38208    37625.902 
  741400    292.65832   -1464.6177    475.54861    326.44807   -103.39208    37625.902 
  741500     296.9303   -1502.0427    485.42317     318.1004    307.24174    37625.902 
  741600    299.99483   -1478.6871    489.18828     358.9964    281.00057    37625.902 
  741700    300.46491   -1526.6238    475.78035    299.76476    146.56593    37625.902 
  741800    300.06951    -1510.416    465.85192    304.26679   -555.18604    37625.902 
  741900    314.82869   -1519.7616     459.1083    354.52103   -647.23998    37625.902 
  742000    298.99249   -1504.0927    472.71707    312.61405   -512.76456    37625.902 
  742100    307.99502   -1527.6607    443.57246    300.36835    146.75842    37625.902 
  742200    292.66731   -1514.8142     464.4776    265.22095   -69.491859    37625.902 
  742300    302.04162   -1466.9105    511.07129    401.85644   -563.17322    37625.902 
  742400    293.64913   -1514.7535    455.59174    260.80913   -860.09865    37625.902 
  742500    305.94387   -1500.3601    462.09282    336.96923   -912.84809    37625.902 
  742600    302.70586   -1499.4643     492.9501    354.16726   -188.22439    37625.902 
  742700    298.94446   -1532.5334    462.59361    273.83401   -181.79874    37625.902 
  742800    299.54638   -1516.6338    471.55881    301.40443    179.74154    37625.902 
  742900    297.80285   -1546.3481    468.02746    260.32148    381.08955    37625.902 
  743000    286.95472   -1570.0927    497.02915    216.81561    108.01135    37625.902 
  743100    296.64312   -1503.4646    460.73497    290.69947   -160.38063    37625.902 
  743200    308.24572   -1460.9843    502.57243    427.17157    137.75466    37625.902 
  743300    310.17321   -1435.7412    481.44733    439.95377    377.06314    37625.902 
  743400    310.53184   -1487.0895    468.45617    377.22642    236.14432    37625.902 
  743500    304.84366   -1471.2054     492.6617    391.74735    560.43571    37625.902 
  743600    307.91648   -1534.8835    480.01431    329.23435     484.7246    37625.902 
  743700    309.65295   -1524.3033    486.93018    354.53592    387.82416    37625.902 
  743800     290.4307   -1485.2766    482.72924    302.95647    529.40356    37625.902 
  743900    291.21408   -1458.0029    489.88754    340.90981    202.19896    37625.902 
  744000    307.43671    -1507.308    475.30755    349.94643    13.816012    37625.902 
  744100    291.74165   -1513.5418    452.48616    250.34104   -33.052992    37625.902 
  744200    292.36446   -1548.4718    472.40285    238.12729   -209.32541    37625.902 
  744300    305.34143   -1529.0645    477.76081    321.22481   -157.32921    37625.902 
  744400    298.36536    -1512.322    461.36315    290.21183   -15.636582    37625.902 
  744500    302.23012   -1516.9936    481.50056    323.04993    507.35341    37625.902 
  744600    289.72719   -1521.6835    472.69521    253.35327   -146.68541    37625.902 
  744700     307.9919   -1463.8735    483.20469    403.77378    68.736868    37625.902 
  744800    305.15331   -1496.3027    495.30078    370.68101    202.62288    37625.902 
  744900    301.10528   -1483.3167    467.67502    337.84506    464.79534    37625.902 
  745000     292.8238   -1503.8337      476.877    289.30433    203.84253    37625.902 
  745100    307.04493   -1451.1123    487.89454    416.96805   -8.9187602    37625.902 
  745200    294.51429   -1461.0965    495.70371    358.46707     179.6357    37625.902 
  745300     311.4325   -1480.6386    479.74826    399.01796  -0.40195494    37625.902 
  745400    304.52017    -1525.665    470.08199    313.25383    553.65386    37625.902 
  745500    305.47078    -1509.028    477.69357    341.77554   -211.48511    37625.902 
  745600    304.67889   -1496.2728    481.89031    355.16791   -154.82069    37625.902 
  745700    309.68732   -1536.3502    474.21699    329.93039    106.95937    37625.902 
  745800    301.49491   -1486.9919    486.59421    354.84054    563.87963    37625.902 
  745900    305.68352   -1527.8476    484.79845     331.0171    139.53621    37625.902 
  746000    298.71539   -1448.7808    499.85974    393.82303   -6.3368611    37625.902 
  746100    320.85345   -1532.4817    482.13196    391.90622   -120.99755    37625.902 
  746200    300.03015   -1520.1999    474.17378     302.6279   -998.66046    37625.902 
  746300    295.55231   -1517.6482    471.16613    282.04375   -1077.2924    37625.902 
  746400    301.81869   -1468.0211    478.31107    366.98357   -645.60478    37625.902 
  746500    299.70572   -1465.8924    478.27571    359.57899   -346.18046    37625.902 
  746600    285.88689   -1532.3286    472.17021    224.92072   -487.18818    37625.902 
  746700     304.2627   -1517.9463     467.5755    317.30878   -87.817499    37625.902 
  746800    308.48679   -1537.2472     477.4103    326.83021   -212.82987    37625.902 
  746900    298.11988   -1563.4571    468.60862    245.21872    296.74002    37625.902 
  747000    299.54505   -1532.0274    473.09976    287.54581    455.71886    37625.902 
  747100    294.21453   -1521.6799    476.19059    277.02313    355.21532    37625.902 
  747200    303.90835   -1564.7941    457.97159    259.26427     177.2688    37625.902 
  747300    300.55027   -1569.7857     479.7954    261.00166   -268.39591    37625.902 
  747400     305.0402    -1522.262    453.67976    302.59221   -269.34856    37625.902 
  747500    299.01084   -1475.8511     478.7767    346.99768   -684.56249    37625.902 
  747600    290.39095   -1520.5491    470.67192    255.44807   -331.88657    37625.902 
  747700    296.64198   -1517.7822    465.28518    280.92693   -379.08386    37625.902 
  747800    300.68636   -1527.0871    444.35606    268.87269   -579.31087    37625.902 
  747900     302.6755   -1517.0503    461.67643    305.17117    95.160336    37625.902 
  748000    306.12279   -1528.6102    487.44614    334.87671   -484.82286    37625.902 
  748100    295.58487    -1497.346    494.17621    325.50242   -601.68134    37625.902 
  748200    293.15042   -1483.0539    463.97144     298.6467   -337.31338    37625.902 
  748300    306.47578   -1507.2036    480.93013    351.35409    242.06197    37625.902 
  748400    306.85899   -1533.5137     461.4574    307.29381    422.33626    37625.902 
  748500    294.10015   -1498.3724    480.30044    303.92635    206.02786    37625.902 
  748600    293.85857   -1479.5785    465.60573    306.93964   -452.03402    37625.902 
  748700    305.65418   -1488.7411    471.58799    356.78123   -673.35947    37625.902 
  748800    315.95923   -1510.3596     468.3873     378.2839   -289.34994    37625.902 
  748900    299.91471    -1481.324    467.98899    334.80004     85.81383    37625.902 
  749000    306.10499   -1524.7222    458.94825    310.18687   -431.70359    37625.902 
  749100    311.95548   -1529.1796    455.64888     328.7283   -2.5807959    37625.902 
  749200    294.84256   -1559.2682    471.53738    237.60467    32.256275    37625.902 
  749300    289.90569   -1561.9599    472.74515    213.92917    587.74746    37625.902 
  749400     292.0511   -1544.2815    461.76375    230.26991   -15.538252    37625.902 
  749500    307.11146   -1510.8959    509.61997    379.20896   -240.96382    37625.902 
  749600    301.60648   -1508.8922    467.32002    314.16751   -465.93212    37625.902 
  749700    309.90585   -1499.3394    493.13881    386.84528     90.79274    37625.902 
  749800    295.67525   -1523.1968    477.11666    282.99827   -286.05847    37625.902 
  749900    297.76931    -1457.956    509.95406    390.48943   -76.405031    37625.902 
  750000     300.6657   -1501.8893    499.21842    348.83993   -157.74615    37625.902 
  750100    299.97528   -1477.6913    470.39285    341.10887   -302.85223    37625.902 
  750200    306.00115   -1502.1529    480.14827    353.48933   -718.71532    37625.902 
  750300    296.37062   -1483.2998     483.5495    332.45385   -389.94644    37625.902 
  750400    295.42822   -1450.5017    467.36352    344.82985    238.21388    37625.902 
  750500    299.67802   -1484.9444    482.29782    344.42462    153.60664    37625.902 
  750600    299.46053    -1493.719    490.11418    342.48868    784.74785    37625.902 
  750700    305.26218   -1502.2958    472.25903    342.13547    779.90031    37625.902 
  750800    303.32887   -1496.8926    455.56004    322.14943    1142.6901    37625.902 
  750900    304.13633   -1513.9369    484.77076    337.94541    823.28154    37625.902 
  751000    299.55901   -1490.3601    470.41583    326.59195     1164.545    37625.902 
  751100    295.61095   -1538.5662     493.8236    284.04686    481.90621    37625.902 
  751200    298.64764   -1537.6393    463.96207     268.7623    404.81571    37625.902 
  751300    297.65655   -1491.8297     488.9702    335.12507    62.139813    37625.902 
  751400    294.96779   -1514.9632    481.92023    292.85542    314.53038    37625.902 
  751500    293.52843   -1571.5561    456.01045    203.88272   -259.97713    37625.902 
  751600    303.61836   -1558.9388    480.83616    286.68055    184.21175    37625.902 
  751700     301.2498   -1566.0021    499.06813    287.20242    537.39983    37625.902 
  751800    302.72816   -1535.6432    485.56158    310.70013     349.8598    37625.902 
  751900    295.18664   -1525.1595    468.20868    269.93131   -210.78135    37625.902 
  752000    294.74781   -1552.4173    488.64153    261.13374    7.0691975    37625.902 
  752100      308.704   -1506.4785    466.89197    348.05696   -392.21007    37625.902 
  752200    300.18437   -1475.7689    484.45669    358.03496    266.42079    37625.902 
  752300    302.84802   -1475.7017    487.06879     372.6876    256.56555    37625.902 
  752400    292.15948   -1492.3176    483.63152    304.58878     135.3712    37625.902 
  752500    308.91841   -1512.6875    472.44544    348.36521    442.86418    37625.902 
  752600    301.10561   -1523.9778    481.23239    310.74281    144.84494    37625.902 
  752700    288.86086   -1503.8113    482.62426    277.26027    241.19089    37625.902 
  752800    301.83254   -1492.8696    487.03348    350.91969    695.02939    37625.902 
  752900    307.08175     -1500.09    466.02537    346.28676    384.62757    37625.902 
  753000    295.24756    -1482.658    491.65417    336.15212    886.56529    37625.902 
  753100    304.67743   -1537.3603    474.34996    306.53346    766.73496    37625.902 
  753200      295.765   -1528.6381    486.92078    287.76457    542.78719    37625.902 
  753300    299.56732   -1506.7219    459.82016    299.67185    612.14683    37625.902 
  753400      305.667   -1491.5806    494.88921    377.30062    447.50518    37625.902 
  753500    300.94585   -1507.0755    492.93587     338.6305   -223.02578    37625.902 
  753600    295.73561   -1487.6121     487.3313    329.06894   -122.55722    37625.902 
  753700    303.65213   -1486.0349    510.22284    389.12297   -207.79769    37625.902 
  753800    297.38892   -1512.7179     478.6866    302.75022   -401.87216    37625.902 
  753900    297.34426    -1550.765    469.54439    255.36012   -148.21354    37625.902 
  754000    297.79188   -1543.3854    456.00824    251.21568   -751.62588    37625.902 
  754100    308.77941   -1510.3285    493.17972    370.83369   -780.48238    37625.902 
  754200     286.5649   -1495.4808    458.12695    250.77299    -191.5047    37625.902 
  754300    305.42877   -1497.0369    492.77831    368.66256    -562.0704    37625.902 
  754400    310.99528   -1528.2646    496.61732    366.29568    461.93276    37625.902 
  754500    294.47713   -1501.8396      460.466    282.31919   -204.74845    37625.902 
  754600     301.5069    -1512.401    497.30874    340.19984   -564.97396    37625.902 
  754700    299.90976   -1500.3149    494.53351    342.33145   -454.84618    37625.902 
  754800    298.25389   -1470.2825    464.57017    334.95733   -434.43543    37625.902 
  754900    294.30251   -1454.1669    497.24992    365.99095   -1015.2787    37625.902 
  755000      296.676   -1494.1164    466.04722     305.5077   -294.26706    37625.902 
  755100    295.63596   -1485.1163    480.04597     323.8315    -424.9664    37625.902 
  755200    306.33389   -1485.2437    507.65495    399.40098   -202.47933    37625.902 
  755300    302.08837   -1478.6785     489.7566    368.98391   -100.48394    37625.902 
  755400    289.17097   -1480.4001    489.16754    308.60874   -393.22792    37625.902 
  755500    305.18542   -1492.7676    486.38315    365.44281   -166.02931    37625.902 
  755600    308.99008   -1478.0559    494.18406    405.05758    95.893654    37625.902 
  755700    294.12286   -1450.7827    504.02881     375.3465    48.315658    37625.902 
  755800    301.76519   -1481.6383    491.71493     366.5297    112.96052    37625.902 
  755900    312.00455   -1468.3048    503.73248    437.90735    353.46444    37625.902 
  756000    299.57539   -1462.0836    501.02533    385.55151   -238.64074    37625.902 
  756100    298.47481   -1499.4831    485.15859    327.33814    160.19732    37625.902 
  756200    309.89931   -1477.1029    491.81003    407.72358    27.848851    37625.902 
  756300    306.37287   -1503.5411    480.15021    353.77403   -190.96837    37625.902 
  756400    288.92034   -1464.8421    487.92702    321.79959   -36.513467    37625.902 
  756500    305.35112    -1505.443    491.51772    358.64683   -99.567336    37625.902 
  756600    303.33449   -1462.3715    497.82896    398.96465    32.449235    37625.902 
  756700    306.57065    -1490.992    506.31116    393.37303    -89.18733    37625.902 
  756800    298.58921    -1494.191    468.41089    316.39673    261.84495    37625.902 
  756900    297.42312   -1468.4386    479.52246    348.01908   -1062.4692    37625.902 
  757000    297.60516    -1504.913     491.1491    323.98966   -663.50562    37625.902 
  757100    300.85795   -1520.2816    490.56191    322.65527   -740.66259    37625.902 
  757200    293.03579   -1524.1444    468.47543    261.54493   -1029.2978    37625.902 
  757300    296.60014   -1548.8462    459.20051    243.59014   -613.95598    37625.902 
  757400    297.25639   -1514.0579    468.42177    290.54961   -1117.6166    37625.902 
  757500     304.9845    -1494.054    468.90071    345.77078   -686.71124    37625.902 
  757600    294.27847   -1508.5868    478.95142    293.16443   -110.95618    37625.902 
  757700    310.07189   -1567.1925    487.98775    314.58744   -128.32856    37625.902 
  757800    303.33476   -1505.2856    490.99415    349.21697    714.96243    37625.902 
  757900     293.4567   -1526.6342    493.73163    286.20339    298.65688    37625.902 
  758000    311.92773   -1544.7552    463.87788    321.25701    226.09682    37625.902 
  758100    305.93063   -1550.1002     495.3638    320.44062    480.93471    37625.902 
  758200    291.96348   -1549.0176    472.64832    236.02455   -241.40041    37625.902 
  758300    299.38802   -1508.5864    489.96686      327.148    489.00434    37625.902 
  758400    295.05696   -1532.0916    495.96079    290.16843   -128.91437    37625.902 
  758500    297.67933   -1571.2991    476.46939    243.25716    147.86102    37625.902 
  758600    297.36846   -1550.1997    493.47088    279.96072    -359.3843    37625.902 
  758700    291.34312   -1542.0284    482.21636    249.79325   -410.22894    37625.902 
  758800    307.58189   -1536.8989    478.19685    323.89747    231.12482    37625.902 
  758900    298.30466   -1537.0662    474.22022    278.05178   -632.65484    37625.902 
  759000    294.11412   -1516.2688    494.91217    300.70441   -612.62415    37625.902 
  759100    297.80066   -1516.5086    482.05616     304.1799   -263.93191    37625.902 
  759200    303.17525   -1490.8827    473.96585    345.87454   -1004.3392    37625.902 
  759300    293.34738   -1550.9833    498.50567    266.13687    134.19812    37625.902 
  759400    297.58018   -1505.2667    461.02684    293.40143   -371.60474    37625.902 
  759500    303.86976   -1489.0281    508.08454    384.96973    221.12646    37625.902 
  759600    301.07356   -1520.7106    490.26606     322.8996    229.65317    37625.902 
  759700    296.41002   -1479.7912    500.50719    353.09728    478.05078    37625.902 
  759800     305.0483   -1539.9653    454.39059    285.63612    180.40472    37625.902 
  759900    307.93641   -1472.6472    489.79979     401.3457    440.69262    37625.902 
  760000    293.76161   -1487.6929    512.07419    344.85778    224.24648    37625.902 
  760100    297.25143   -1466.1179    499.35439    369.40002    46.262164    37625.902 
  760200    295.04524   -1471.5814    507.32727    361.99238     -214.179    37625.902 
  760300    296.27249    -1517.939    482.45768     296.2818   -235.49988    37625.902 
  760400    297.85811   -1503.0772    474.44907     310.2624    69.299623    37625.902 
  760500    300.73798   -1479.2687    477.77224    350.33923    -703.5029    37625.902 
  760600    287.99333   -1475.1415    500.71842    320.12471   -93.629809    37625.902 
  760700    303.59077   -1495.6572    468.21019    337.21222   -193.71033    37625.902 
  760800    306.57501   -1514.1924    476.33739     340.2185   -89.588208    37625.902 
  760900    302.61708   -1506.1637    489.09966    343.21833   -450.59742    37625.902 
  761000    308.26311   -1517.5267    491.26482    359.39978   -156.59997    37625.902 
  761100    305.92738   -1513.5727     487.6982     349.2879    -418.8974    37625.902 
  761200    295.16195   -1509.8919    480.08416     296.9634   -904.71639    37625.902 
  761300    304.04046   -1468.8255    493.32348    391.17856   -596.27817    37625.902 
  761400    299.14632   -1504.8609    459.80314    299.62335   -292.65817    37625.902 
  761500    296.55102   -1537.3919    458.94837     254.5715    -756.4331    37625.902 
  761600    294.36825   -1526.3381     504.8476     301.7129   -284.58285    37625.902 
  761700    305.22663   -1571.5157    480.14738    280.64419    336.46148    37625.902 
  761800    310.23564   -1570.9088    470.21626    293.83578    246.81283    37625.902 
  761900    304.91794   -1554.9886     480.2939    295.93019    76.251203    37625.902 
  762000    297.12376   -1580.3575    482.49774    237.72978    159.09147    37625.902 
  762100    306.58899   -1600.7453    469.46883    246.85996    616.73479    37625.902 
  762200    300.96687   -1551.1603     471.8741    273.57839    151.83222    37625.902 
  762300    304.97694   -1536.4643    459.67898    294.10483    6.8972153    37625.902 
  762400    296.06761   -1494.0222    473.80288    310.62278   -373.29947    37625.902 
  762500    308.30371   -1487.1152    480.40388    379.13283   -115.59083    37625.902 
  762600    305.18935   -1509.1232    500.04116    362.76291    55.662986    37625.902 
  762700    297.54822   -1506.6447     484.2137    315.06655   -598.96559    37625.902 
  762800     307.3388   -1502.9253    503.21379    381.79526    283.83586    37625.902 
  762900    290.81154   -1542.8093    479.75901    244.16542    398.01553    37625.902 
  763000    299.04904    -1526.022    497.00179    315.22368    979.10817    37625.902 
  763100    305.61807   -1501.0043    468.74346    341.51126    499.37674    37625.902 
  763200    296.89531   -1487.4991    472.02758    319.09119     704.0184    37625.902 
  763300    298.59018   -1494.3232    476.32054    324.17855    982.35478    37625.902 
  763400    299.22035   -1520.0365    487.13485    312.11231    745.50929    37625.902 
  763500    301.72815   -1514.6138    472.32503    313.99783    134.97729    37625.902 
  763600     298.4256   -1567.5795    487.70486    261.56681   -134.75717    37625.902 
  763700    292.56115   -1566.1767     470.0833    218.98699   -356.24475    37625.902 
  763800    293.83785   -1490.9429    471.51562    301.39198   -87.110106    37625.902 
  763900    301.35759   -1503.2876    485.15325    336.48655   -269.31543    37625.902 
  764000    307.53027   -1528.2345    473.64301    327.77596   -500.88351    37625.902 
  764100    303.69377   -1555.1852    466.87323    276.81023    10.236993    37625.902 
  764200     293.8443   -1518.6982    474.51347    276.66349   -653.65926    37625.902 
  764300    303.06661   -1493.3966    478.52357    347.43004   -91.665311    37625.902 
  764400    308.50558   -1478.2331    483.09512    391.61359    121.71928    37625.902 
  764500    298.40079   -1485.3745     495.3912    351.34662   -245.21627    37625.902 
  764600    291.87405   -1507.6609    484.37649    288.70744   -415.73352    37625.902 
  764700    314.30102   -1502.9265    474.13928    384.01523   -36.612151    37625.902 
  764800    311.34746   -1500.9024    480.11051    378.73413   -212.52302    37625.902 
  764900    304.82585   -1544.9335    460.32376     285.6012   -54.619923    37625.902 
  765000     306.7948   -1561.3317    497.08414    314.81399   -268.85597    37625.902 
  765100    307.49182   -1530.8309    480.90914    332.27287   -558.62065    37625.902 
  765200    294.19097    -1516.899    476.51082    282.01836   -769.38725    37625.902 
  765300     309.5369   -1542.0366    455.19927    304.55011    32.567514    37625.902 
  765400    297.19977   -1531.4032    477.74506    282.27308    282.44887    37625.902 
  765500    309.21435   -1539.3153    465.69667    316.31888    842.20381    37625.902 
  765600    304.21419   -1564.1971    509.83086    313.09523    1006.5444    37625.902 
  765700    303.10531   -1575.4939    482.40641    269.38952    212.91317    37625.902 
  765800    304.43231   -1522.9026    458.13484    303.67426    204.25334    37625.902 
  765900    294.31235   -1502.8744    477.40651    297.48428   -186.34026    37625.902 
  766000    300.24523   -1570.0898    463.73074     243.2617    114.34486    37625.902 
  766100    292.59958   -1559.5479    458.46927     214.1745   -86.639992    37625.902 
  766200     305.1942   -1608.0109    459.91394    223.76976   -199.05574    37625.902 
  766300    293.74576   -1599.4448    440.47256    161.43304   -411.45556    37625.902 
  766400    308.55658   -1574.6323    465.48872    277.83728   -586.18657    37625.902 
  766500    298.53839   -1597.0095    478.71033    223.64931   -760.75324    37625.902 
  766600      304.626   -1564.2041    468.24969    273.35826   -621.66484    37625.902 
  766700    299.60683   -1544.0249    478.89632    281.62259   -341.84634    37625.902 
  766800    302.32218   -1516.4335    473.43206    315.95533   -744.13798    37625.902 
  766900    309.69019   -1502.8343    493.79243    383.03461    66.208567    37625.902 
  767000     309.4853   -1493.1788     472.4669    370.44358    301.31578    37625.902 
  767100    307.96786   -1510.3212    477.13152    351.14476    367.64047    37625.902 
  767200    288.95849   -1497.3934    477.45501    278.94781   -931.80709    37625.902 
  767300    304.13285   -1503.1362    478.70435    342.66403   -308.20204    37625.902 
  767400    307.34721   -1495.3333    488.99507    375.20642   -314.81487    37625.902 
  767500    305.57648   -1510.5279    481.73267    344.78988   -463.41853    37625.902 
  767600    292.22854   -1494.4954    487.90353    306.99342   -305.97423    37625.902 
  767700    303.95752    -1535.979    459.25326    289.58204   -694.93241    37625.902 
  767800    297.34539   -1534.6514    475.40376    277.33821   -579.46065    37625.902 
  767900    305.45598   -1531.0352    471.23282    313.24102    -564.3959    37625.902 
  768000    297.00433   -1522.7361    475.72781    288.04444    -15.47449    37625.902 
  768100    303.13374   -1542.6136     487.3962    307.38736    439.00086    37625.902 
  768200    301.27098   -1577.3583    479.52601    256.39927    528.69936    37625.902 
  768300    300.38313   -1547.0661    488.12649    291.30108    266.85654    37625.902 
  768400     303.5557    -1549.999    512.62892    327.13146    798.31751    37625.902 
  768500    298.80408   -1559.6579    465.25084     248.7357    358.80947    37625.902 
  768600    302.49047   -1562.1091    488.56267    286.16689     467.0801    37625.902 
  768700    297.61631     -1549.66    489.93732    278.08094     229.5236    37625.902 
  768800    296.26855   -1519.8352    450.01277    261.92298   -407.73081    37625.902 
  768900    301.15554   -1519.4811    491.23989    325.47146   -189.98599    37625.902 
  769000    294.95496   -1541.1658    453.07047    237.74536   -239.64313    37625.902 
  769100    304.55895   -1552.3812    493.65754    310.28762    1.8634854    37625.902 
  769200    303.51309   -1552.4306    480.75594    292.63539    584.82324    37625.902 
  769300    297.67563   -1594.8848    459.36618    202.55169    530.73896    37625.902 
  769400    289.49121   -1590.7834    494.79544    205.29285    285.88716    37625.902 
  769500    290.54466   -1566.9543    490.01574    229.07756    429.21487    37625.902 
  769600    298.54387   -1536.5184    458.50269    263.95732    315.71158    37625.902 
  769700    305.37273   -1489.0597    488.34378    371.95332    22.295051    37625.902 
  769800    299.73273   -1510.0495    484.76285     322.0304   -392.74021    37625.902 
  769900    296.72637   -1499.3369    494.14591    328.61232    -748.6796    37625.902 
  770000     298.7307   -1515.5648    496.10825     323.3563   -501.41141    37625.902 
  770100     298.3051    -1490.146     486.6728     337.4266   -251.40418    37625.902 
  770200    295.12008    -1494.075    500.39191    332.89979    171.48684    37625.902 
  770300    296.54515   -1514.7229    502.72568    320.99148    155.65733    37625.902 
  770400    299.12702   -1532.0131    479.51318    292.09447   -100.93328    37625.902 
  770500    298.95809   -1517.0762    485.60693    312.36571   -552.11095    37625.902 
  770600    287.62086   -1538.6759    492.27876    246.47635    96.504089    37625.902 
  770700    305.66664   -1523.9212    460.24137    310.31058    172.43505    37625.902 
  770800     303.3114    -1563.856    456.77152    256.31895    239.19138    37625.902 
  770900    304.77904   -1568.7961    457.48861    258.69304     495.2883    37625.902 
  771000    297.77041   -1570.6489    458.15457      226.002    207.43965    37625.902 
  771100    306.14943   -1533.0039    499.93616    343.09281    569.12127    37625.902 
  771200    291.33901   -1537.3142     464.1881    236.46069   -250.25542    37625.902 
  771300    294.67313   -1512.8953    469.47435     281.1529   -361.83985    37625.902 
  771400    299.40879   -1521.4445    475.73866    300.15511   -934.57353    37625.902 
  771500    304.39984   -1494.7425    459.18259    332.73613   -486.87562    37625.902 
  771600    298.20635   -1513.7901    469.11957    295.78536   -182.99292    37625.902 
  771700    301.15689   -1527.2872    495.93042    322.36199    181.14642    37625.902 
  771800    305.37275   -1531.8541    493.71929    334.53447    220.56499    37625.902 
  771900     298.0407   -1532.2491    460.73601     268.1982    74.201069    37625.902 
  772000    304.95195   -1535.8801    477.97713    312.87478   -191.43421    37625.902 
  772100    298.54477   -1503.4977    467.08563    305.56508    -547.2928    37625.902 
  772200    294.46195   -1505.2453    486.79794    305.17721   -548.86526    37625.902 
  772300    299.73139   -1512.4561    492.51065    327.36561   -542.02983    37625.902 
  772400    291.10664   -1533.1877    475.16795    250.52251   -543.82924    37625.902 
  772500    293.83531   -1501.9915    475.37367       294.19   -689.41616    37625.902 
  772600    293.87942   -1546.2458    476.09805    250.85833   -237.99357    37625.902 
  772700     302.5285   -1532.1796    468.69139    296.39597   -42.522003    37625.902 
  772800    307.54051   -1521.3389    495.90844    356.98312    160.64741    37625.902 
  772900    302.67023   -1512.3764    473.85476    321.99966    195.05975    37625.902 
  773000    292.13085   -1508.4972    480.51826    285.16726   -544.37002    37625.902 
  773100    301.26722   -1532.6701    481.80214    303.34675     -611.597    37625.902 
  773200    291.93347   -1546.2853    477.42673    243.40035    145.14787    37625.902 
  773300    298.84907   -1549.2917    492.94408    286.99734   -71.341682    37625.902 
  773400    301.66665   -1537.2612      470.219    288.96794    108.85858    37625.902 
  773500    297.58002   -1547.8875    454.87867    244.63168     156.6705    37625.902 
  773600    304.97655   -1513.1661    497.95725    355.67952    30.698098    37625.902 
  773700    301.63507   -1509.1504    470.93855    317.65632     383.0675    37625.902 
  773800    295.34856   -1483.5639    490.80478    334.85083    157.73972    37625.902 
  773900    302.11497   -1511.5236     484.5134    331.01519    331.27128    37625.902 
  774000    300.01177   -1484.8985      470.859    334.53185    687.73189    37625.902 
  774100    304.77087   -1486.4845    494.92144    378.40077    496.54725    37625.902 
  774200    311.51969    -1489.584    490.98434    401.70057    462.33218    37625.902 
  774300    302.19648   -1519.8121    480.39137    318.97102    638.86202    37625.902 
  774400    304.10557   -1514.6744    481.52308    333.82196    544.26162    37625.902 
  774500    298.11449   -1509.0863    478.65548    309.61218   -215.75171    37625.902 
  774600    310.37978   -1509.5888    480.52138    366.10881   -205.32226    37625.902 
  774700    299.03927   -1510.2908    492.07571     325.9848   -95.164484    37625.902 
  774800    303.05338   -1509.8399    496.56253    348.96624    103.96569    37625.902 
  774900    300.61096   -1476.0954    490.85905    366.02836    540.74431    37625.902 
  775000    310.86201   -1493.2012    472.61826    376.76088     152.0261    37625.902 
  775100    292.82634   -1477.5566    488.16317    326.87901   -132.74045    37625.902 
  775200    296.88832   -1474.6714    469.35156    329.21142   -100.05522    37625.902 
  775300     300.0355   -1474.8555    450.61775    324.44029    50.164171    37625.902 
  775400    301.04566   -1489.1118    467.88968    331.99663    138.48719    37625.902 
  775500    307.64739   -1465.6227    465.36715    382.63835    330.90197    37625.902 
  775600     297.3744   -1488.4814    467.39765     315.6325    467.00626    37625.902 
  775700    287.73809   -1501.5185    475.10165     266.9836   -815.81688    37625.902 
  775800    303.28071   -1523.8833      474.577     313.9592   -624.60448    37625.902 
  775900    297.75354    -1546.919    458.37457    249.87603   -459.45668    37625.902 
  776000     299.5079   -1541.3401    471.61264    276.57896   -779.96051    37625.902 
  776100    292.58284    -1542.009    470.70183    243.87066   -403.75752    37625.902 
  776200    301.36811    -1491.472    485.47243     348.6686   -121.04494    37625.902 
  776300    302.96512   -1484.6137    479.68513    356.91825    164.46288    37625.902 
  776400    302.30235   -1506.3585    464.83804    317.34717    35.436381    37625.902 
  776500    292.27266   -1483.9557     488.1361    317.96402     15.47843    37625.902 
  776600    290.89458   -1460.9726    468.93237    315.54877    269.53766    37625.902 
  776700      301.617   -1491.5407    468.59053    332.83677    238.36186    37625.902 
  776800    304.60311   -1525.1822    475.05679    319.08426    82.525486    37625.902 
  776900    307.74847   -1499.8432    472.33054    355.83564    17.401523    37625.902 
  777000    292.76219   -1514.0915    498.12062    300.01318   -169.30177    37625.902 
  777100    305.18914   -1502.9157    455.38307    324.31128    524.76018    37625.902 
  777200    304.82887   -1488.8815    480.11802    361.46111   -111.93378    37625.902 
  777300    296.33594   -1505.5149    463.83372     290.3671    76.773211    37625.902 
  777400    304.17167   -1459.3501    482.49022     390.4105   -72.980052    37625.902 
  777500     291.2712   -1493.9587    494.45854    309.78183    106.66323    37625.902 
  777600    292.71919   -1522.3304     462.3621    255.82251   -469.90832    37625.902 
  777700     305.1929   -1499.0321    487.64591    360.47469   -369.11698    37625.902 
  777800    291.11492   -1514.2635    459.51645    253.83239   -513.50299    37625.902 
  777900    295.32362   -1500.4877      444.921    271.93113   -276.16714    37625.902 
  778000    307.19191   -1490.1926    470.54138    361.19531   -355.51629    37625.902 
  778100    313.43765    -1479.628    460.43258    389.72613    -346.3697    37625.902 
  778200    291.76665   -1495.0356    472.73927    289.21266    64.815859    37625.902 
  778300    303.02108   -1479.6648    488.84296    371.27658   -55.046879    37625.902 
  778400    299.64812   -1468.2117     465.2796    344.00459    433.02275    37625.902 
  778500    303.32241   -1463.6272    480.36597    380.19164    564.82171    37625.902 
  778600    302.90323   -1450.2132    487.85998    399.21549    91.733423    37625.902 
  778700    307.14263   -1429.2377    472.42146    423.80879   -119.76147    37625.902 
  778800    314.70572   -1450.7478    475.38821    439.26197   -46.013671    37625.902 
  778900    292.14031    -1499.673    489.62536    303.14106   -113.87104    37625.902 
  779000    296.04931   -1512.1471    455.86011    274.47292   -891.88136    37625.902 
  779100    294.93988   -1482.5162    454.84241    298.09911   -427.28592    37625.902 
  779200    290.54305   -1485.9813    464.71136    284.73901   -290.58777    37625.902 
  779300    299.47154   -1448.7008    493.73837    391.18058    69.858641    37625.902 
  779400    294.93169   -1460.2473    477.13622      342.625    591.75419    37625.902 
  779500      308.803    -1492.404    459.37253    355.05705    381.57133    37625.902 
  779600    301.56505   -1449.0881    470.60364    377.06904    60.361318    37625.902 
  779700    284.95884   -1444.6336    495.42662    331.70054   -15.267186    37625.902 
  779800    293.82676   -1486.3522    483.88421    318.30143    439.65755    37625.902 
  779900    295.69577   -1503.8973    486.04006    311.31348    107.11739    37625.902 
  780000    306.49295   -1495.3323    458.96172    341.33405    422.82253    37625.902 
  780100    291.41143   -1476.5314    496.41468     329.7956    393.38465    37625.902 
  780200    299.17669   -1491.5274    476.40982    329.70001    667.56637    37625.902 
  780300    292.33695   -1486.2513    454.72254    282.54376    219.72039    37625.902 
  780400     303.2941   -1498.1138    470.33402    335.54588     283.9192    37625.902 
  780500    301.35659   -1505.3352    463.55732    312.83855   -233.87804    37625.902 
  780600    305.03992   -1490.1543    475.22431     356.2432    380.97428    37625.902 
  780700    318.37796   -1495.8124    481.64209    416.95824    426.32884    37625.902 
  780800    291.93634   -1514.1059    487.99339    286.15934   -37.375511    37625.902 
  780900    295.27307   -1558.5961    469.94904    238.62353    -135.8302    37625.902 
  781000    305.09689   -1516.7155    467.10549    321.81933    247.20497    37625.902 
  781100    308.34944   -1554.0201    469.60227    301.63192    680.22932    37625.902 
  781200    307.66358   -1533.8331    480.80501    329.93861    1038.6433    37625.902 
  781300    305.01644      -1612.1    464.88408    223.85172    561.45998    37625.902 
  781400    303.74916   -1553.0482    478.21921    290.54215    1197.5499    37625.902 
  781500    300.76489   -1498.6918     463.2537     316.5186    1003.0369    37625.902 
  781600    303.95659   -1502.5393    479.23488    342.99917    324.49645    37625.902 
  781700    297.19042   -1473.1599    484.92087    347.65019   -346.75008    37625.902 
  781800    306.12378   -1494.5223    486.24939    367.77229    229.86888    37625.902 
  781900    305.96233   -1488.7378    497.45351    384.03519    47.345111    37625.902 
  782000    303.65855   -1474.4836    467.21713    357.69735   -123.40011    37625.902 
  782100    308.64153   -1435.9111    481.52635    432.97793   -217.75477    37625.902 
  782200    293.24052   -1479.8656    508.93321    347.20176   -375.07871    37625.902 
  782300    296.21588   -1482.6236    467.42741    316.31241   -272.43144    37625.902 
  782400    296.57091   -1463.6381    499.06871    368.53506   -431.38855    37625.902 
  782500    315.29995   -1458.2223    512.53075     471.6011    -237.0828    37625.902 
  782600     299.3293   -1429.8208    491.46573    407.14856    793.85959    37625.902 
  782700    295.48738   -1475.3607    494.02059    346.89386    185.87557    37625.902 
  782800    297.06621   -1460.3096     511.6507    386.67195    243.55149    37625.902 
  782900    308.48202   -1470.6689    458.94302    374.91977    109.05097    37625.902 
  783000    305.01119   -1476.2477    479.98401    374.78038    -277.7805    37625.902 
  783100    305.17244   -1480.7734     446.2443    337.23978   -74.175467    37625.902 
  783200    302.25451   -1509.9623    478.44802    327.13837   -213.08675    37625.902 
  783300    290.43391   -1489.0301    485.91515    302.40336    24.664788    37625.902 
  783400    303.79819   -1520.1639    447.86107    293.28872   -345.83358    37625.902 
  783500    296.51854   -1506.2144    465.38404    292.03866   -175.62159    37625.902 
  783600    299.81233   -1492.7274    467.16015    322.10764   -143.04916    37625.902 
  783700    297.20075   -1498.9448    481.02129    318.01213    -341.9643    37625.902 
  783800    302.29399   -1448.7337    465.16374    375.26011    -251.8794    37625.902 
  783900    290.98252    -1477.366    442.42131    273.03966   -61.504055    37625.902 
  784000    302.77554   -1500.7858    467.71247    327.92141    197.41698    37625.902 
  784100    299.92294   -1467.5288    485.92262     366.5659    172.24195    37625.902 
  784200     300.3177   -1509.6614    478.18118    318.46631    30.497359    37625.902 
  784300    290.92313   -1553.4173    450.80672     205.1068   -185.47857    37625.902 
  784400    294.21319   -1543.6967     469.1528    247.96249    120.40667    37625.902 
  784500    303.37957   -1537.7333    446.17507    272.15159    45.617234    37625.902 
  784600    298.19031    -1539.932    456.87305    257.32489     30.09913    37625.902 
  784700    300.75529   -1510.3705    453.20073    294.74376   -423.51829    37625.902 
  784800    284.62697   -1543.0244    479.34476    215.73612    301.51237    37625.902 
  784900    309.26056   -1525.2315    446.48484    311.39862    243.91577    37625.902 
  785000    305.01866   -1537.4249    460.54636    294.19911    61.284947    37625.902 
  785100    294.81127   -1518.0278    471.93173    279.09867    270.72489    37625.902 
  785200    299.46614   -1504.0267    475.55058    317.64261    193.05654    37625.902 
  785300    294.77682   -1506.6315    461.77493    280.18335     627.6222    37625.902 
  785400    298.99807   -1492.6751    499.34855    350.68816     178.5208    37625.902 
  785500    300.89177   -1487.5983    461.72228    326.65098     163.3888    37625.902 
  785600    299.06872   -1456.9316    500.11614    387.51684     125.5754    37625.902 
  785700    298.50945   -1493.7386    452.79736    300.87711    300.14781    37625.902 
  785800    297.45521   -1546.9677    441.98922    232.10103    156.97471    37625.902 
  785900    304.23878   -1558.0663     438.4113    247.91708     411.8792    37625.902 
  786000    287.84792   -1541.2765    472.47476    225.09239     1029.517    37625.902 
  786100    303.12264   -1534.5082    466.20766    294.25443    736.90311    37625.902 
  786200    293.96997   -1559.4383     460.6211    222.59591      564.133    37625.902 
  786300    307.89656   -1562.6239    468.69935    290.08942    12.689161    37625.902 
  786400    293.42535   -1581.6007    486.54126    223.90554    310.33941    37625.902 
  786500    293.10683   -1565.2878    475.46582    227.71124   -219.03344    37625.902 
  786600    298.96788    -1550.265    484.06276    277.67678   -168.43509    37625.902 
  786700    303.61019   -1515.5661    474.29666    323.47705   -168.94613    37625.902 
  786800    301.92844   -1508.2314    463.93702    312.89257    181.19894    37625.902 
  786900    308.39589   -1523.2897     487.8338    350.80265    199.83216    37625.902 
  787000    301.47286    -1521.156    479.88585    313.86894    319.49294    37625.902 
  787100    299.91634   -1479.4931    472.26229    340.91157    -229.8755    37625.902 
  787200    295.65537   -1504.5321    480.08059    304.53757    83.191753    37625.902 
  787300    304.60926   -1506.6067    490.17413    352.80477     136.2157    37625.902 
  787400    307.07376   -1507.6065    464.38383    337.09281    316.13161    37625.902 
  787500    309.79111   -1444.8883    499.70715    447.34898    602.67699    37625.902 
  787600    305.11439   -1484.2011    457.28055    344.58739    -190.8367    37625.902 
  787700    309.36981   -1472.4592    459.07949    377.25658   -207.53667    37625.902 
  787800    298.55942   -1460.8847    508.12112    389.27943    522.39961    37625.902 
  787900    292.38444   -1496.1473    467.30121    285.43993   -205.50969    37625.902 
  788000    306.39366   -1460.3358    480.31059    397.23318   -174.05455    37625.902 
  788100    310.12202   -1516.5973     460.9461    338.36637    103.21394    37625.902 
  788200    298.97237   -1480.0356    475.64561    339.50921   -91.956383    37625.902 
  788300    297.51633   -1480.9873     481.7283    338.09524    307.58238    37625.902 
  788400    303.67493   -1508.9436    462.90328    318.99715    321.78737    37625.902 
  788500    295.20871   -1512.5283    467.02175    281.47472   -436.52939    37625.902 
  788600    305.27546   -1528.0064    460.18393    304.40947   -91.804637    37625.902 
  788700    295.50677   -1511.4861    453.56063    270.39568   -102.48589    37625.902 
  788800    307.08634   -1493.8188    496.87497    383.42815    95.795726    37625.902 
  788900    302.27522   -1516.7511     479.0143    321.00891   -178.85772    37625.902 
  789000    298.30593   -1489.8823    482.15159    333.17284    157.94385    37625.902 
  789100    300.45469   -1498.2084    485.07749    337.43137   -187.64091    37625.902 
  789200    300.80073   -1502.5701    479.82843    329.37615   -89.483006    37625.902 
  789300     296.9431   -1505.5804    460.60869     289.8058    168.10779    37625.902 
  789400    299.95608   -1479.4732    464.86869    333.71651   -158.74011    37625.902 
  789500    306.06729   -1463.8913    469.08963    380.98964   -347.16155    37625.902 
  789600    301.07653   -1513.7363    463.75543    303.37662    165.56766    37625.902 
  789700    308.10787   -1477.4218     509.0535    416.59559     468.1392    37625.902 
  789800    286.53994   -1493.1611    446.73453    241.58815    96.571663    37625.902 
  789900    297.89284    -1461.886    492.20422    369.36485    410.67762    37625.902 
  790000    303.59669   -1497.0875    466.94598    334.54427     160.9056    37625.902 
  790100    312.59596     -1469.17     511.9521    447.92021    392.69207    37625.902 
  790200    311.71489   -1460.5047    463.45245    404.12535    544.50474    37625.902 
  790300    306.40307   -1496.5468    488.80887    369.56277    146.15206    37625.902 
  790400    298.09862   -1479.9664    479.26487    339.27012    203.32327    37625.902 
  790500    306.43557   -1472.4277    470.48133    375.50036    205.80705    37625.902 
  790600    291.28854   -1489.9239    476.56365    295.99969   -188.34429    37625.902 
  790700    307.61243   -1441.7301      480.969    421.97571    239.87112    37625.902 
  790800    303.83527   -1496.0732    491.86981    361.55486    -322.9448    37625.902 
  790900    299.74463   -1412.0943    467.39682    402.67305   -602.15132    37625.902 
  791000     306.3146   -1446.4437    496.27706    426.73634   -405.12165    37625.902 
  791100    296.83231   -1406.5386    471.80985    399.55072   -398.52274    37625.902 
  791200    304.60543   -1469.8192    493.87099    393.27198   -617.68429    37625.902 
  791300    304.03282   -1413.0009    483.67489    437.32024   -454.28712    37625.902 
  791400    298.69161   -1465.8096    445.42979    322.25734   -538.51458    37625.902 
  791500     308.8287     -1449.36    495.66049    434.50449   -867.52694    37625.902 
  791600    315.62251   -1440.4929    475.63789    453.88758   -82.090655    37625.902 
  791700     287.1803   -1467.4825    467.22831    290.63891   -783.47654    37625.902 
  791800     316.0101    -1492.654    463.53369    391.36454    177.40208    37625.902 
  791900    296.45413   -1452.8101    490.20975    369.97924   -1109.8652    37625.902 
  792000    305.50626   -1451.0117    486.06481    408.32254    77.831341    37625.902 
  792100    310.60928   -1375.2523    508.08878    529.04429    233.43421    37625.902 
  792200    299.96502   -1454.7487    477.53162    371.14412    250.76074    37625.902 
  792300    296.32782   -1429.2135     502.0175    404.81582     90.73166    37625.902 
  792400    287.39894   -1481.1761    489.63793    300.33771    -76.28958    37625.902 
  792500    296.19229   -1466.7584     472.9692    337.61343   -308.34677    37625.902 
  792600    302.09606   -1510.5721    494.04665    341.41494    442.78018    37625.902 
  792700    304.78447   -1479.8163    464.07787    354.28649    -26.81041    37625.902 
  792800    301.95075   -1497.2826    476.78616    336.79073    132.72119    37625.902 
  792900    309.16132    -1502.954     485.8273     372.5724   -4.4728729    37625.902 
  793000    295.05031   -1503.8853    451.16354    273.54754    503.71783    37625.902 
  793100    303.95152   -1484.9516    476.11047    357.43965    115.54207    37625.902 
  793200    299.30965   -1495.4511    471.27137    321.23558   -439.57858    37625.902 
  793300    308.71425   -1505.1393    441.28198    323.83226   -212.06637    37625.902 
  793400    294.35087   -1480.4715    488.17643     330.8302   -181.72562    37625.902 
  793500    304.60581   -1552.9125    467.21043    283.51981     46.23352    37625.902 
  793600    296.55908   -1477.8083    498.32361    353.56668    214.30858    37625.902 
  793700    305.98789   -1478.8614    475.00875     371.5818    92.930744    37625.902 
  793800    296.99431   -1481.0078    478.86822    332.86816    294.28903    37625.902 
  793900     289.8791   -1453.7687    467.45749    316.71322     258.1048    37625.902 
  794000    293.27671   -1484.7962    493.04652    326.54713    363.06997    37625.902 
  794100    290.44849   -1479.9282    502.20817    327.86377    261.27567    37625.902 
  794200    304.07549   -1505.9622    461.51301    322.38887   -426.11977    37625.902 
  794300    301.52701   -1496.0211    474.47901    333.84038    10.144793    37625.902 
  794400    293.66643   -1513.2861    493.53149    300.29405   -81.051823    37625.902 
  794500    302.97305   -1493.0703    493.09129    361.90354    99.365236    37625.902 
  794600    301.44088   -1504.6794    478.74508    329.06098   -470.34274    37625.902 
  794700    308.93405   -1540.8249    463.15407    311.00674   -276.24047    37625.902 
  794800    266.77843   -1555.6136    459.53265     103.1045   -640.54948    37625.902 
  794900    369.13456   -1570.0406    443.85377    533.09575    460.10607    37625.902 
  795000    297.74922   -1512.4432    472.76552    298.72341   -106.82022    37625.902 
  795100     247.5312   -1499.8821    549.79017    162.57604    109.68575    37625.902 
  795200    313.57275   -1533.4647    454.39099    330.45508    433.91985    37625.902 
  795300    302.47654   -1513.8167     491.6227    337.45668     449.6906    37625.902 
  795400    305.73043   -1507.6784    467.09627    333.69497   -303.27999    37625.902 
  795500    300.10769   -1523.2575    462.44235    288.18735   -157.40819    37625.902 
  795600    304.34539   -1509.5203    480.78784    339.31877   -179.91242    37625.902 
  795700    304.43989   -1497.9864    487.81108    358.30073     442.5335    37625.902 
  795800    307.69919   -1506.5228    447.97862    324.58263    279.79685    37625.902 
  795900    301.35586   -1491.8483    489.31613    352.08098    110.52705    37625.902 
  796000      284.272   -1533.5058    484.55562    228.87001    464.79891    37625.902 
  796100    293.74158   -1485.4577    474.21346    309.14222    64.971795    37625.902 
  796200    300.94296   -1486.5282    485.25912      351.488    467.77336    37625.902 
  796300    290.34231   -1473.5456    481.82962    313.39059    524.60083    37625.902 
  796400    296.57154    -1520.168    474.79825     287.7376    20.025037    37625.902 
  796500    298.13084   -1491.1658    460.71665    309.66733   -199.97824    37625.902 
  796600    297.08332   -1487.4219    486.15683    334.14271  -0.68519019    37625.902 
  796700    307.15966   -1482.1726    470.61563    369.14468    73.938868    37625.902 
  796800    302.73353   -1482.9056    492.94351    370.84374    175.21106    37625.902 
  796900    292.52486   -1518.8211    467.50902    263.60519    623.24153    37625.902 
  797000    300.13891   -1524.3851    487.02385    311.78164    146.91469    37625.902 
  797100    294.89077   -1464.3473     472.6529    333.85776    103.76357    37625.902 
  797200    295.67364   -1500.0746    480.11917    309.11582    219.93342    37625.902 
  797300    294.09327   -1487.6604    503.78909    338.09608     149.8567    37625.902 
  797400    293.87134   -1488.0924    494.42919    327.30651    154.44297    37625.902 
  797500    295.08967   -1503.5158    494.36763    317.29807    198.05793    37625.902 
  797600    299.69673   -1484.8057    499.32977     361.6793     280.5951    37625.902 
  797700    303.03982   -1508.4778    475.82235    329.52717    423.72739    37625.902 
  797800    303.73651   -1522.4889     500.7477    343.57315     147.0486    37625.902 
  797900     299.4435   -1484.8863      486.043     347.1737    288.79599    37625.902 
  798000    294.52609   -1529.1751    475.69618    270.43403    480.72827    37625.902 
  798100    304.03095   -1513.8216    471.97729    324.79356    749.58522    37625.902 
  798200    305.12668    -1544.683    454.42754    281.30779    339.27583    37625.902 
  798300    306.94577   -1497.5056    488.78631    371.02083     335.4255    37625.902 
  798400    302.79486   -1479.4839    478.73022    360.32789     442.5936    37625.902 
  798500    304.22607   -1474.4628      486.711    379.76313    698.09051    37625.902 
  798600    295.65377   -1481.7707    472.89023    320.10144    1103.2954    37625.902 
  798700    297.13742   -1481.1566    473.17625    327.67058    674.63375    37625.902 
  798800    289.83918   -1502.7664    484.33238    284.41092    571.19123    37625.902 
  798900    293.99707   -1535.7568     464.5907    250.36882    390.49089    37625.902 
  799000    306.01675    -1477.403    479.14934    377.31044    881.17998    37625.902 
  799100    301.91459   -1504.0283    482.00034    335.09675     511.8584    37625.902 
  799200    302.44564   -1487.9171    495.25052    366.84516    480.52949    37625.902 
  799300    304.36763   -1519.1637    489.40175    338.38933    934.86592    37625.902 
  799400    289.69042    -1514.574    485.53905    273.14129   -248.94797    37625.902 
  799500    295.97361   -1480.0541    474.76441    325.12991    36.173541    37625.902 
  799600    296.14858   -1503.5665    478.63776    306.27734   -179.65697    37625.902 
  799700     305.9509   -1469.1984    484.32512    390.39486   -395.34541    37625.902 
  799800    306.61114   -1450.6764    455.76674    383.32626    -680.7628    37625.902 
  799900    303.61115   -1465.9702    489.06712    387.84771   -381.17427    37625.902 
  800000    304.68265   -1491.4373    483.22015    361.35006   -379.64547    37625.902 
  800100    302.32018   -1470.7599    488.87313    377.06106   -80.815581    37625.902 
  800200    295.23999   -1481.4244    467.76492    313.46241   -466.49217    37625.902 
  800300    300.03306   -1468.4537    476.47742    356.69083   -283.68811    37625.902 
  800400    305.09355   -1470.0198    463.49679    364.89131    219.98609    37625.902 
  800500    293.05495   -1462.2235    481.25822    336.33474    349.87735    37625.902 
  800600    295.61009   -1425.9531    469.65218    372.48462    221.00223    37625.902 
  800700    294.21734   -1490.6766    488.48158    320.33007     10.82238    37625.902 
  800800     303.5117   -1489.8966    476.70765    351.11486   -439.09411    37625.902 
  800900    285.02522   -1489.0539    492.05853    284.21054    22.961427    37625.902 
  801000    294.22065   -1520.2109    463.99595    266.32492   -263.20678    37625.902 
  801100    300.37419    -1480.237    470.17978    340.14324   -237.34704    37625.902 
  801200    311.55625   -1481.6079    465.01404    383.87068    376.76482    37625.902 
  801300    299.50326   -1496.3063     467.6623    317.64162    1041.5526    37625.902 
  801400    289.60779   -1457.5272    483.83896    328.11654     540.0135    37625.902 
  801500    306.97545   -1516.5105      484.735      348.098     468.8177    37625.902 
  801600    295.62399   -1487.9173    461.95584    302.88654    414.23507    37625.902 
  801700     308.8611   -1451.7607    488.06946    424.65839    661.79383    37625.902 
  801800    294.52814   -1499.5136    498.17684    322.58538     533.7319    37625.902 
  801900    300.27336   -1454.2025     469.5865    365.13124    645.42416    37625.902 
  802000    297.51621   -1419.6932    487.52969    405.19016   -155.40107    37625.902 
  802100    309.86477   -1472.4715    471.62358    392.01328     65.41255    37625.902 
  802200    296.81323   -1518.4997    478.11256    293.80664    262.98665    37625.902 
  802300    300.12147   -1516.7976    460.31839    292.58534    93.817837    37625.902 
  802400    300.53102   -1488.7998    478.46419    340.56979    189.40024    37625.902 
  802500    304.65614   -1440.0255    484.99279    414.41541    566.76368    37625.902 
  802600    293.77529   -1512.6683    472.41789    280.28763     656.4744    37625.902 
  802700    308.44691   -1477.0342    498.32337    407.77704    470.91114    37625.902 
  802800    297.23372   -1493.3125    456.97177    299.74318    448.29417    37625.902 
  802900    292.50657   -1507.8958    457.40179    264.34099    -382.1525    37625.902 
  803000    307.54762   -1525.5067     492.4831    349.42186    421.79022    37625.902 
  803100    287.05505   -1477.0632    475.76149    289.02843   -199.41687    37625.902 
  803200    298.14822    -1473.148     489.6402    356.68677   -129.90907    37625.902 
  803300     303.9079   -1478.0673    474.69075    362.70817    197.27771    37625.902 
  803400    307.86035   -1477.7398    473.95635    380.06776    238.91585    37625.902 
  803500    301.44754   -1473.2854    488.51634    370.25624    163.63238    37625.902 
  803600     299.1916   -1462.1174    476.44865    359.21591   -297.04412    37625.902 
  803700    301.43916   -1444.6613    491.13274    401.45902   -589.46775    37625.902 
  803800    307.75865   -1470.9582    472.54696     384.9828   -540.29633    37625.902 
  803900    300.37004   -1499.4574    480.09023    330.81469    -744.3153    37625.902 
  804000    298.13697   -1515.7711    487.64773    312.02067   -434.35846    37625.902 
  804100    310.81892   -1484.0024    493.60742    406.75518   -640.38386    37625.902 
  804200     293.1943   -1483.8461    484.55729    318.63766   -619.31942    37625.902 
  804300    301.11212   -1474.1109    475.25605    354.66265   -651.32363    37625.902 
  804400    302.87792   -1476.3832    496.78244    381.85411   -524.91046    37625.902 
  804500    293.48571   -1464.6556    478.43118    333.01191   -1261.5306    37625.902 
  804600     302.3455   -1503.7587    484.08503    339.38797   -1139.4252    37625.902 
  804700    300.47663   -1477.6544    487.94756    360.95412    -1180.548    37625.902 
  804800    311.08834   -1479.4388    470.00131    388.92375   -1032.6948    37625.902 
  804900    305.37821   -1483.5272    476.51819    365.68483   -714.44096    37625.902 
  805000    292.60232   -1477.5966    496.98774    334.65659   -245.69504    37625.902 
  805100     299.5431   -1514.6284    494.27069    326.10698   -288.90312    37625.902 
  805200    305.81815   -1484.3328    485.98016    376.31873   -436.81405    37625.902 
  805300    286.93287   -1532.6133    496.70476    253.87238      238.306    37625.902 
  805400    299.66981   -1469.6616    479.83846     357.2111    914.09098    37625.902 
  805500    302.32182   -1448.7973    517.87378    428.03165     527.9989    37625.902 
  805600    292.06096    -1452.576    489.89759    350.15361      365.831    37625.902 
  805700    296.93073   -1537.7008     506.8461    303.86716    104.24561    37625.902 
  805800    306.30353   -1471.7853    485.38171    390.44961   -95.850128    37625.902 
  805900     294.5752   -1482.5655     472.1009    313.66908   -152.34416    37625.902 
  806000    302.02157   -1475.3736    497.17814    379.41006    151.14464    37625.902 
  806100    316.16684    -1465.444    458.07401    413.81943    160.60798    37625.902 
  806200    303.98721   -1503.4434    471.80823    334.80602     194.8427    37625.902 
  806300     297.4011   -1493.9338    489.30335    332.20584    306.07212    37625.902 
  806400    300.54563   -1509.2499    460.53085    302.25206   -189.88769    37625.902 
  806500     305.4448   -1496.3932    483.87242    360.47243   -3.3490934    37625.902 
  806600    298.14984   -1457.9991    488.00701    370.20977    312.36447    37625.902 
  806700    298.12006   -1509.7497    449.09172    279.41002   -119.36547    37625.902 
  806800    295.90311   -1508.0824    493.49635    315.51664   -208.14104    37625.902 
  806900    293.76469   -1508.5026    484.10581    296.09355   -368.31267    37625.902 
  807000    299.25848   -1523.1385    466.79538    288.84219   -262.72545    37625.902 
  807100    304.26163   -1495.9514    482.55904     354.2824   -106.97382    37625.902 
  807200    298.13068    -1507.692    458.54298    290.96672   -770.01878    37625.902 
  807300    293.67637    -1485.119    479.61584    314.59016   -534.63164    37625.902 
  807400    304.10534   -1512.2619    503.29669      358.007    -630.5484    37625.902 
  807500    299.77852   -1499.4467    480.06589    328.14208   -1074.4352    37625.902 
  807600    305.53907   -1481.8631    517.47177     409.0256    32.824535    37625.902 
  807700    304.00743   -1498.5091     455.0766    323.09958    -429.5097    37625.902 
  807800    303.05656   -1532.6742    480.55744    310.14114    29.740803    37625.902 
  807900    299.59215   -1514.8732    455.48677    287.29874   -206.46693    37625.902 
  808000    298.60226   -1518.7563    461.94786    285.42713   -317.00007    37625.902 
  808100    298.61681   -1499.5154    459.60413    302.38972   -519.19976    37625.902 
  808200    299.08729   -1503.6698    470.01811    310.76413    -26.80457    37625.902 
  808300    290.65019   -1543.7054    468.64199    231.42707   -141.04732    37625.902 
  808400    299.92781   -1503.5975    484.42338    329.01986    214.92944    37625.902 
  808500    299.60926   -1503.4291    492.48893    335.82191    -134.7915    37625.902 
  808600    289.21934   -1492.9837    460.74484    267.81987   -545.71843    37625.902 
  808700    295.84609   -1506.5289    462.10111    285.41867   -174.93378    37625.902 
  808800    300.95167   -1506.6104    494.95449    341.14038    -212.4852    37625.902 
  808900    289.04433   -1498.9083    473.41029    273.77401    -515.5207    37625.902 
  809000    297.08529   -1505.2086    473.51296    303.72105   -949.85109    37625.902 
  809100    308.58016   -1536.7198    466.92548    317.29253   -416.31314    37625.902 
  809200    313.40226   -1559.9666    475.71326    324.50908   -225.79946    37625.902 
  809300    306.36597   -1521.0946    474.34315    330.38246   -10.787247    37625.902 
  809400    300.62485   -1538.9702    459.87913    272.23609   -64.208052    37625.902 
  809500     298.2354   -1499.4033    507.07992    348.26306    315.40028    37625.902 
  809600    311.93105   -1517.6306    475.64949    360.16819    695.78976    37625.902 
  809700    301.34273    -1548.019    467.30828    273.84342    330.38718    37625.902 
  809800    306.58727   -1539.5794    472.79927    311.34851    474.68035    37625.902 
  809900    308.74839   -1504.3405    480.10951    363.61205    420.37642    37625.902 
  810000    310.67091    -1579.613    456.93323    273.80513     357.6857    37625.902 
  810100    302.76257   -1523.1854    459.95169    297.70266    663.11597    37625.902 
  810200    298.02414   -1520.3145    476.59385    295.91618    381.46604    37625.902 
  810300     308.9113   -1529.1835    470.15102    329.54285    14.088415    37625.902 
  810400    310.27121   -1487.2136    467.44527     374.9198    340.17048    37625.902 
  810500    299.67911   -1523.0971    470.35717    294.33606      100.526    37625.902 
  810600     286.5362   -1481.1549    484.48465    291.32764    286.88276    37625.902 
  810700    297.33985   -1495.5459     467.1558    308.17083    299.38871    37625.902 
  810800     309.5201   -1473.6337    473.36394    391.04212    2.4808471    37625.902 
  810900    298.56941   -1470.6205    492.20226    363.66964    542.89072    37625.902 
  811000    303.20602   -1496.0923     466.2404    333.07785     362.3937    37625.902 
  811100    306.06845   -1511.1448    465.80823    330.45992     470.8372    37625.902 
  811200      298.461   -1502.7267    479.40317    318.27706    102.59407    37625.902 
  811300    292.59919    -1524.962    484.57228    274.86165   -120.96076    37625.902 
  811400     310.5443   -1496.0046    489.34538    389.25657    127.64625    37625.902 
  811500    297.44987     -1519.39    468.93994    286.60541       545.46    37625.902 
  811600     300.0017   -1542.9241     455.9285    261.53052    206.80508    37625.902 
  811700    307.36973   -1553.9181    437.90855    265.63636    475.69684    37625.902 
  811800    296.60753   -1532.6831    497.83728    298.42323    641.11742    37625.902 
  811900    299.94586   -1551.6644    443.44062    240.05127    547.72019    37625.902 
  812000    300.90649   -1533.1246    468.97584    288.44445     403.8028    37625.902 
  812100    296.82354   -1527.6375    461.69155    268.29412    133.53193    37625.902 
  812200     301.3736   -1461.0516    467.83087    361.47211   -389.55838    37625.902 
  812300    305.98684   -1515.6223    451.45214    311.25948   -299.86583    37625.902 
  812400    298.34844   -1460.4017    473.65384    354.34679   -352.52017    37625.902 
  812500    301.88031   -1501.8688    462.57586    317.67764   -198.54856    37625.902 
  812600    306.22987   -1497.2954    510.55112    389.77783   -16.018718    37625.902 
  812700      307.295   -1490.4414    487.59852    378.46707    220.65995    37625.902 
  812800    299.67634   -1496.3928    480.55162    331.22238     7.725871    37625.902 
  812900    310.04889   -1479.4809    457.11284    371.32078    466.57944    37625.902 
  813000    299.92275   -1501.3397    485.30363    332.13517    548.38562    37625.902 
  813100    297.45996   -1506.1783    470.11907    301.04165    38.130601    37625.902 
  813200    301.66961   -1510.3236    455.49146    301.19137    496.82197    37625.902 
  813300    304.97221   -1498.4263    516.12516    388.56773    641.94432    37625.902 
  813400    298.92336   -1499.6532    457.24769    301.27337    273.79515    37625.902 
  813500    296.69815   -1503.0835    468.05417    298.64708    358.99011    37625.902 
  813600    306.47871   -1481.5953     488.0389    384.08422    35.921994    37625.902 
  813700     305.3115   -1501.1739    486.79266     358.0127    100.83453    37625.902 
  813800    310.92729   -1474.7311    461.02451    383.93066   -117.04672    37625.902 
  813900    306.22404   -1459.6085    472.03988    388.92723    48.438667    37625.902 
  814000     310.9476   -1466.9402    499.83121    430.61962    569.98453    37625.902 
  814100     319.5564    -1481.585    456.77068    411.61139    159.94911    37625.902 
  814200    292.26578    -1446.436    479.88036    347.19703   -273.20485    37625.902 
  814300    301.28768   -1422.5953    496.41603    428.12741   -277.67068    37625.902 
  814400    293.95427   -1408.1457     501.4828    414.67968   -412.78719    37625.902 
  814500    304.49612   -1479.9008    469.67026    358.49826   -388.77677    37625.902 
  814600    306.72583   -1446.7994     485.5177    417.46977   -443.68971    37625.902 
  814700    301.10847   -1441.4082    483.96929    396.06217   -262.85951    37625.902 
  814800    287.90762   -1475.5577    468.62503    287.22978   -339.01693    37625.902 
  814900    297.72161   -1503.9868    475.68936    309.97948    211.22082    37625.902 
  815000    291.07224   -1516.3424    502.35963    294.40491    154.09515    37625.902 
  815100    303.23172   -1500.1587    476.04817    338.93474    221.63093    37625.902 
  815200    294.45565   -1490.9968    483.21281    315.81234    144.76026    37625.902 
  815300    293.30855   -1511.5862    486.17472    293.02844    600.24422    37625.902 
  815400    300.89125   -1510.9453    494.75312    336.33246      95.6876    37625.902 
  815500    297.66095   -1474.2844    466.48302    330.20289    -368.1912    37625.902 
  815600    308.33636   -1504.0552    482.41122    364.34691   -607.67453    37625.902 
  815700    293.80683   -1500.2001    470.36154    290.84123   -112.89372    37625.902 
  815800    300.89529   -1505.7586    482.54887    329.33315   -364.29201    37625.902 
  815900    301.31066   -1499.8885    491.79665    346.31811    -109.4911    37625.902 
  816000    298.33411   -1496.4338    464.27401    308.87034   -436.05442    37625.902 
  816100    306.09803   -1486.7007    523.18302    412.41177   -36.547193    37625.902 
  816200    299.82394   -1525.0101    472.04423    294.76114    -587.9436    37625.902 
  816300    294.69144    -1471.415    504.99017     358.2313    56.009788    37625.902 
  816400    309.02587   -1505.5177    491.91865    375.49121    123.21057    37625.902 
  816500    301.83315   -1495.4658    481.25638    342.54919    548.64172    37625.902 
  816600    294.28614   -1487.2903    512.80148    348.34544    207.05191    37625.902 
  816700    292.18843   -1517.6232    487.25284     283.0346    523.68625    37625.902 
  816800    289.92607   -1506.5756    479.60312    276.26301    284.63542    37625.902 
  816900    306.59248   -1509.1901    473.00706    341.96903    710.04249    37625.902 
  817000    301.41465   -1525.1887    481.60604    311.29479    262.01183    37625.902 
  817100    290.09441   -1528.7147    463.74985     239.0274     -304.731    37625.902 
  817200    288.37075   -1523.8079    482.36994    254.80629     36.93987    37625.902 
  817300    304.15954   -1499.4531    461.41363    329.17637   -80.664032    37625.902 
  817400    295.26257   -1555.3613    483.88621    255.74827   -600.41323    37625.902 
  817500    301.04347   -1548.3336    478.24847     283.1238    103.31751    37625.902 
  817600    296.74065   -1537.3024    470.39569    266.96078   -187.97255    37625.902 
  817700    289.67275     -1525.06    466.95135    243.98823   -199.36091    37625.902 
  817800    300.22616    -1531.412    485.47147     303.5945    408.62476    37625.902 
  817900    293.23326   -1575.9754    464.17925    206.30538   -459.01658    37625.902 
  818000    301.26353   -1498.7967    484.68918    340.09059   -1019.6364    37625.902 
  818100    301.98756   -1530.0639    503.45617    330.84496    182.26536    37625.902 
  818200    296.55459   -1527.2577    487.55466    293.32807    498.66038    37625.902 
  818300    308.54617   -1529.9977    469.25199    326.18834    785.92203    37625.902 
  818400    312.73493   -1514.8904     500.1587    391.03108    815.74069    37625.902 
  818500    303.88696   -1512.6494    472.06126    325.40243    748.16197    37625.902 
  818600    307.41968    -1537.956    494.76692    338.68126    668.04968    37625.902 
  818700    296.94507   -1564.6054    485.37167    255.55262    1029.8088    37625.902 
  818800    292.94533   -1539.5711    460.03698    237.27319    -181.5092    37625.902 
  818900    309.68335   -1553.5178    488.84311    327.37106    329.39243    37625.902 
  819000    297.27433   -1559.1167    452.57206    229.72178    364.02981    37625.902 
  819100     294.9623     -1564.66    489.40239     250.6161    189.61953    37625.902 
  819200    307.22678   -1570.4789    478.82561    289.35003    255.01946    37625.902 
  819300    297.79289   -1525.0366    494.53243    308.09315   -499.16444    37625.902 
  819400    307.41579   -1480.9306    496.63832    397.56066   -448.84602    37625.902 
  819500    304.56308   -1501.5951    463.84063    331.27533    183.98909    37625.902 
  819600    301.57229   -1530.1862    476.45734    301.85717    53.550025    37625.902 
  819700    308.41305     -1557.03    482.86711    312.17274    151.42907    37625.902 
  819800    307.22288   -1544.7745    491.11958    327.33085    139.70425    37625.902 
  819900    294.83098   -1531.2313    468.80262    262.85468   -27.896504    37625.902 
  820000     300.0025   -1523.2014    479.29638    304.62472    35.834289    37625.902 
  820100    297.74473   -1532.8684    482.61444    288.12688     68.27317    37625.902 
  820200     291.5839   -1533.8056      472.632    249.51397    117.92833    37625.902 
  820300    311.04107   -1505.7704    462.18384    354.56218   -473.85369    37625.902 
  820400    286.19059   -1533.3176    494.21039     247.3371   -523.66287    37625.902 
  820500     290.9146   -1584.7348    439.99806    162.94233   -312.85098    37625.902 
  820600    291.95974   -1523.0421    479.01354    268.34847    309.87796    37625.902 
  820700    299.72668   -1525.7864    466.72867     288.2322      564.946    37625.902 
  820800     303.4722   -1521.2579    468.57662      311.445    509.87017    37625.902 
  820900    295.63125   -1528.1071    483.02384    283.79742    676.77413    37625.902 
  821000    299.00247   -1550.5573    476.73626    270.21344    531.99856    37625.902 
  821100    302.09458   -1530.1616    480.17799    307.95008    462.97229    37625.902 
  821200    293.93276   -1504.9793    461.46644    277.73301    180.19771    37625.902 
  821300      302.818   -1499.1199    477.12342    339.18906    158.91461    37625.902 
  821400    303.15246    -1544.152    465.96532    284.50234    187.05229    37625.902 
  821500    301.33789   -1507.5505    458.67228    305.65419    -107.9551    37625.902 
  821600    286.46004   -1512.3919    461.02678    236.29044   -278.30233    37625.902 
  821700    290.49531   -1483.4155    474.87989    297.25871    -756.2329    37625.902 
  821800    301.22234   -1540.3472     476.7065    290.37226   -539.26678    37625.902 
  821900    305.16962   -1527.1264    465.70147    310.33125    441.75522    37625.902 
  822000    295.12978   -1542.4491    473.51526    257.69273    28.174389    37625.902 
  822100    292.32573   -1520.7302    482.00769     275.2996    195.35984    37625.902 
  822200    293.50286   -1506.6375    481.44688    294.12283    327.75435    37625.902 
  822300    292.10719   -1513.6097    469.14302    268.57315   -106.69911    37625.902 
  822400    293.16902   -1482.0968    498.14269    333.85863     19.22787    37625.902 
  822500    303.71266   -1508.7012    479.45996    335.96588   -240.54929    37625.902 
  822600    294.82654   -1482.2503     462.7315    305.74466    -203.3723    37625.902 
  822700    315.49864   -1489.5293    477.38785    406.04441   -322.11621    37625.902 
  822800    294.47989   -1522.1641     473.1841    274.72527   -381.44859    37625.902 
  822900    307.72288   -1529.8444    459.49134    312.88019   -92.357827    37625.902 
  823000     295.3656    -1469.832    482.39111    340.24562   -660.89764    37625.902 
  823100     302.5378   -1490.5487    478.42503    347.80235   -321.55582    37625.902 
  823200    307.01589   -1517.7016    506.51398    368.86772    -618.0317    37625.902 
  823300     309.9334   -1505.1431    452.83229    340.85892    50.459173    37625.902 
  823400    306.00588   -1518.8462    521.12396    377.79297    153.17558    37625.902 
  823500    305.17071   -1531.9019    492.41928    332.27848    503.00756    37625.902 
  823600    298.99764   -1531.1628    469.86718    282.71719    311.59248    37625.902 
  823700    303.54821   -1536.7242    504.73726    332.48094    201.35848    37625.902 
  823800    300.07487   -1527.5995    478.09707    299.35257    -312.7591    37625.902 
  823900    309.02837   -1521.1828    470.82134    338.74012     160.2794    37625.902 
  824000    293.79887   -1509.6895    484.44304     295.3975    213.56339    37625.902 
  824100    304.05422   -1484.0272    484.64175      367.357   -156.12594    37625.902 
  824200    298.97357   -1485.0906     475.7574     334.5714   -916.38519    37625.902 
  824300    297.52766   -1458.7378    502.33056    380.99787   -484.35636    37625.902 
  824400    293.53091   -1490.2597    461.80245    290.98225   -327.72826    37625.902 
  824500    286.14142   -1496.0378    510.09546    300.28093   -47.637863    37625.902 
  824600    302.35949   -1507.0279    471.40102    323.49768    174.07502    37625.902 
  824700     295.1725   -1555.5418    494.75948    266.03622    392.54833    37625.902 
  824800    303.58408   -1561.8689     477.7158    280.47596    132.59698    37625.902 
  824900    314.67076   -1504.5789    465.18633    375.07189   -79.159181    37625.902 
  825000    309.61378   -1529.1131    481.76467    344.38454   -270.42543    37625.902 
  825100    294.94721   -1516.5825    476.18284     285.4062   -275.11121    37625.902 
  825200    317.67765   -1452.2278    480.45354    456.20631   -356.05848    37625.902 
  825300    294.33323   -1442.2527    465.05218    345.84544   -958.77784    37625.902 
  825400    298.96286   -1441.5449    492.16185    394.47341   -413.50873    37625.902 
  825500    297.39472   -1467.6011    480.58907    349.79551    109.49413    37625.902 
  825600    316.80084   -1519.7712    459.84467    364.11272    508.68376    37625.902 
  825700    295.40405   -1498.7133    476.09414    305.24023    352.64623    37625.902 
  825800    302.81901    -1499.714    459.97435    321.45041   -175.71589    37625.902 
  825900    310.51731   -1461.2782    476.89154    411.40774    544.47248    37625.902 
  826000     297.9398   -1469.2137     487.6483    357.69234   -330.14342    37625.902 
  826100      301.566   -1502.7311    469.08019    321.90679    179.93588    37625.902 
  826200    308.11938   -1503.1551    461.15359    343.01404    -259.5239    37625.902 
  826300     304.2336   -1525.9394    479.77352    321.38284   -54.209995    37625.902 
  826400    305.09651    -1502.288    468.89304    338.03262    110.85963    37625.902 
  826500    296.13871   -1535.9743    474.09783    269.28521    167.60582    37625.902 
  826600    302.94577   -1551.9873    442.27703    252.04965    22.349747    37625.902 
  826700     290.2226   -1529.4734    469.37005    244.46511   -207.88743    37625.902 
  826800    304.94004   -1559.0856    455.52801    267.16664   -80.362932    37625.902 
  826900    299.78696   -1511.0162    456.55171    293.09636    -41.45242    37625.902 
  827000    304.68238   -1559.0436    450.46961    260.99209   -485.70478    37625.902 
  827100    292.98994   -1553.8587    468.21488    231.36404    121.97531    37625.902 
  827200    293.64939   -1534.6729     456.3239    241.62312    276.42043    37625.902 
  827300    291.97157   -1513.4492    464.26453     263.2455    353.27834    37625.902 
  827400    293.34729   -1533.2801    468.59496    253.92902    386.24861    37625.902 
  827500    303.26986   -1504.7582     471.6439    330.10237    42.677537    37625.902 
  827600    290.89539   -1486.4381    490.97061    312.12516    241.73736    37625.902 
  827700     301.2295   -1478.9076    467.79721    342.93473   -63.231076    37625.902 
  827800    309.84023   -1511.1376    489.57701    371.19032   -45.058547    37625.902 
  827900     313.1659   -1529.4164    456.11997    334.40359   -235.54615    37625.902 
  828000    297.94502   -1499.0243    458.00915    298.26603   -753.13763    37625.902 
  828100    294.61325    -1542.432    450.51878    232.39148   -505.36867    37625.902 
  828200    306.36049   -1487.6714    509.42719    398.86498   -361.38747    37625.902 
  828300    294.63163   -1505.8095    474.95699    293.53483   -638.27879    37625.902 
  828400    299.52497     -1497.49    477.61574    326.50889   -217.65809    37625.902 
  828500    296.01718   -1550.6479    479.00813    258.97567   -878.43997    37625.902 
  828600     287.9901   -1528.8016    451.94539    217.67705   -422.72255    37625.902 
  828700    303.95015   -1459.7605    459.63173    366.14585    454.78137    37625.902 
  828800     294.3973   -1493.8176    493.75903    323.27542    28.839287    37625.902 
  828900     296.8126   -1473.7685    468.80403    329.22648   -196.73096    37625.902 
  829000    289.00362   -1450.2426    495.40048     344.2469    200.48161    37625.902 
  829100    299.76615   -1476.6696    476.57127    347.36897   -106.48039    37625.902 
  829200    293.28977   -1482.4586    488.21669    324.11366   -284.24417    37625.902 
  829300    302.89832   -1497.1662    481.06852    345.44894   -181.36365    37625.902 
  829400    308.41166   -1468.9188    468.55751    385.96812     132.4824    37625.902 
  829500    299.95883   -1489.0897    468.73987    327.98354   -334.17946    37625.902 
  829600    306.89155   -1492.7595      458.947    345.68391   -686.80014    37625.902 
  829700    307.24084   -1500.9968     474.0776    354.14728   -207.94713    37625.902 
  829800    301.78435   -1508.3912    465.35109    313.49914   -208.97538    37625.902 
  829900    293.55408   -1534.8446    444.20015    228.89918   -747.08738    37625.902 
  830000    300.29736   -1493.4349    479.56635     335.9866   -687.17714    37625.902 
  830100     295.2512   -1492.7382    485.31684    319.75099   -835.23891    37625.902 
  830200    302.16254   -1521.9989    462.52359    298.76393   -937.34901    37625.902 
  830300    296.15156   -1503.1415    459.75227     287.8303   -560.82659    37625.902 
  830400    294.42784   -1536.8851    477.88649    264.47267   -483.14941    37625.902 
  830500    303.37081   -1496.5886    485.13447    352.21636   -670.19249    37625.902 
  830600     299.6843   -1493.8697    485.69783    338.92747    21.455354    37625.902 
  830700    302.10603   -1494.3735    456.78558    320.39733   -299.09303    37625.902 
  830800    295.72495   -1500.2747    468.93042    297.95762   -352.58891    37625.902 
  830900    296.30196   -1480.5045    470.24307    321.63414   -531.47731    37625.902 
  831000    293.55362   -1502.0853    467.69509    285.15136   -257.74059    37625.902 
  831100    296.95604   -1522.9621    483.68692     295.5605    400.34091    37625.902 
  831200    304.96633   -1536.9994    472.21181    306.05489    341.22678    37625.902 
  831300    297.21114   -1492.4961    476.86749    320.35371    246.03523    37625.902 
  831400    311.37579   -1478.9579     467.5609    388.25635    274.46879    37625.902 
  831500    302.49649   -1470.4888     472.2835    361.53508   -21.167101    37625.902 
  831600    295.98933   -1472.5135    480.07555     338.0523    38.316025    37625.902 
  831700    294.92551   -1532.0805    460.87177    254.49957    385.27114    37625.902 
  831800      298.434   -1522.7639    472.21718    290.93248    222.42526    37625.902 
  831900    300.11827   -1506.5081    462.30587    304.84784    571.41348    37625.902 
  832000    296.81973   -1474.5086    484.07234    343.78673    19.277353    37625.902 
  832100    297.76034   -1500.5963    488.34692    326.20167    557.97658    37625.902 
  832200    304.94422   -1479.6127     463.9362    355.06657    683.86261    37625.902 
  832300    298.85327   -1488.3588    487.09245    342.09747    327.05423    37625.902 
  832400    300.92265   -1526.9995    476.40981    302.07613   -426.09031    37625.902 
  832500    293.12601   -1511.4733    492.85763    299.00379   -307.41307    37625.902 
  832600    309.81835   -1523.9826    478.14756    346.81752    105.46523    37625.902 
  832700    308.83946    -1546.125    481.16157    323.28896   -244.24992    37625.902 
  832800    293.30305   -1552.5912    469.14391    234.96794   -151.74303    37625.902 
  832900    299.18734    -1525.645    452.03922    271.25975   -648.78628    37625.902 
  833000    306.67151   -1550.8579    470.06051     297.7099   -419.77299    37625.902 
  833100    280.20096   -1549.5359    481.91456    191.89926   -90.969376    37625.902 
  833200     307.1389   -1550.8556     447.7943    277.54701    89.660785    37625.902 
  833300    302.42799   -1585.4653     474.7939    248.76105    446.72836    37625.902 
  833400    290.83846   -1541.7154    449.23402    214.85539    340.03473    37625.902 
  833500     297.9655   -1586.2964    469.17158    222.24841   -633.88328    37625.902 
  833600    297.71962   -1536.8758    472.62187    274.01411   -177.45233    37625.902 
  833700    297.22958   -1493.0116     476.6833    319.73691   -46.065357    37625.902 
  833800    310.61954   -1508.3877    490.17505    378.04135   -439.02409    37625.902 
  833900    310.38807    -1527.967     479.5171    346.76359   -203.35634    37625.902 
  834000    299.22094   -1524.0742    483.02236     303.9647   -367.73762    37625.902 
  834100    310.13285   -1519.7558    463.61084     337.9213    22.223319    37625.902 
  834200    301.74525   -1512.6508     481.8171    325.52975    821.32984    37625.902 
  834300    312.55995   -1495.2785    472.42052    382.11822    249.60752    37625.902 
  834400    305.06699   -1476.5065    470.70353    365.49198   -360.96764    37625.902 
  834500    303.34189   -1448.0924    496.89987    412.34791   -434.26814    37625.902 
  834600     296.2304   -1459.6905    488.95333     360.8367   -530.02435    37625.902 
  834700    305.76182   -1499.4332    461.05932    336.04433   -383.85164    37625.902 
  834800    299.30406   -1497.8343    480.42286    327.97869    -389.1958    37625.902 
  834900    294.55412   -1489.0851    460.67784    295.63169   -576.90095    37625.902 
  835000    295.67251   -1533.7479    473.22575    268.54395   -338.80494    37625.902 
  835100    300.47697   -1500.7717    491.90999    341.80078   -421.40494    37625.902 
  835200    291.19154   -1509.4823    469.99683    269.43847   -133.97657    37625.902 
  835300    311.07431   -1493.3574    483.83092    388.77167    594.08711    37625.902 
  835400    297.28017   -1492.0122     476.9966    321.27702    631.41724    37625.902 
  835500    300.08431   -1489.8164    475.49695    334.57796    340.65265    37625.902 
  835600    293.46247    -1481.239    492.48605    330.37897    189.58902    37625.902 
  835700    297.50293   -1485.2134    483.60681    335.68736   -208.35919    37625.902 
  835800    304.97427   -1512.9382    473.90932    331.84921    508.70795    37625.902 
  835900    292.75272   -1514.5416    488.80377    290.20362    669.61807    37625.902 
  836000    305.13981   -1529.2994    480.92488    323.24773    676.59274    37625.902 
  836100    301.79365   -1497.2366    454.60337    313.94779    466.93443    37625.902 
  836200    298.74473    -1483.295    473.19234    332.77326   -153.37033    37625.902 
  836300    303.73312   -1490.4983    471.36552    346.16633    -123.0194    37625.902 
  836400    296.71226   -1476.2091    488.46709    345.99785   -397.24099    37625.902 
  836500    308.04835   -1484.8349    473.83909     373.7005   -371.46087    37625.902 
  836600    295.17808   -1503.5743    470.05878     293.3281   -168.11348    37625.902 
  836700    301.30132   -1539.9792    459.97124    274.36001      142.709    37625.902 
  836800    295.98263   -1482.8081    460.26942    307.92143    182.86657    37625.902 
  836900    299.61257    -1477.904    472.90708    341.78002    47.112533    37625.902 
  837000    300.93108   -1502.5291      485.032    335.20665   -482.76609    37625.902 
  837100    308.91426   -1533.6304    483.17285    338.13108   -3.6254595    37625.902 
  837200    296.17815   -1519.5066    465.27945    277.11183   -164.09152    37625.902 
  837300    298.51359   -1569.6903     454.7398    226.88649   -484.74531    37625.902 
  837400    299.64676   -1481.3131    469.99794    335.61545   -53.572425    37625.902 
  837500    303.55671   -1517.3493    472.11569    319.27255    146.02694    37625.902 
  837600    307.72311    -1535.923    488.21847    335.52981    86.761637    37625.902 
  837700    301.74482   -1504.6959     493.4695    345.13516    159.98744    37625.902 
  837800    298.85511   -1484.5795    485.35231    344.14487     316.4095    37625.902 
  837900    290.79768   -1485.5483    447.92421    269.52939     44.60598    37625.902 
  838000      292.829   -1488.0763    474.16381    302.37193    -27.87696    37625.902 
  838100    296.15111    -1488.329    472.66359    315.55201   -73.533248    37625.902 
  838200    302.22021   -1517.0533    470.90125    312.34639   -199.25895    37625.902 
  838300    305.04888   -1524.2895    472.25832    319.18231   -316.35121    37625.902 
  838400    290.45329   -1532.6653    478.86398    251.80406   -468.99692    37625.902 
  838500    298.31638    -1510.328    468.82262    299.44508   -57.159283    37625.902 
  838600    310.21008   -1472.3446    478.25652     400.3253   -60.674345    37625.902 
  838700    296.76763    -1488.573    490.96776     336.3835    -60.33284    37625.902 
  838800    297.71488    -1519.432    463.89988    282.71461    491.58348    37625.902 
  838900     287.7184   -1542.7672    455.73845    206.28322   -479.60549    37625.902 
  839000    302.72754   -1550.7478    443.90342    253.93456    34.130861    37625.902 
  839100    303.34521   -1519.6141    483.07047    327.01175    233.73677    37625.902 
  839200    300.28818    -1518.817    480.49141    311.48824   -459.01924    37625.902 
  839300    305.17054    -1523.607    472.45585    320.60923   -9.7576555    37625.902 
  839400    295.46564   -1492.2197    463.99307    299.90963   -97.845289    37625.902 
  839500     308.2273    -1482.386    480.59787    383.71252   -386.08205    37625.902 
  839600    295.43915   -1492.1968    456.38385     292.2042   -142.67586    37625.902 
  839700    300.99949   -1451.8352    487.95007    389.12611     310.9484    37625.902 
  839800    289.77176   -1458.7157    456.75581      300.582   -152.93543    37625.902 
  839900    298.91613   -1512.0848    448.46862    280.03023   -611.35619    37625.902 
  840000    308.53773   -1481.8913    476.87382     381.8786   -196.56005    37625.902 
  840100    309.61393   -1520.2292    488.54588    360.05039    24.011895    37625.902 
  840200    302.34043   -1487.5596    464.48189    335.96114    52.048987    37625.902 
  840300    295.52712   -1519.4851    468.38101    277.30855    36.598447    37625.902 
  840400    297.36253   -1500.2294    480.50779    316.94121   -158.79782    37625.902 
  840500    302.39235    -1501.417    482.85094    340.70615   -253.55444    37625.902 
  840600    309.19086   -1476.5362    476.39496     389.6907   -459.62717    37625.902 
  840700    294.12598   -1501.3708    481.55601    302.29958   -475.40018    37625.902 
  840800    304.85649   -1513.2434    494.54553    351.65086   -158.41665    37625.902 
  840900    301.80727   -1517.0484    457.58126    297.17515   -221.01535    37625.902 
  841000    309.73672   -1481.2821    475.14872    386.15221   -510.65166    37625.902 
  841100    304.38005   -1500.6403    490.65899    358.22578   -574.80322    37625.902 
  841200    298.82647   -1499.0933    480.45518    324.60524    22.033465    37625.902 
  841300    301.07793     -1533.08    482.45545    302.73923    1235.3779    37625.902 
  841400    300.90291   -1517.7436    505.08679     339.9203    681.81804    37625.902 
  841500    307.59014   -1543.5322    507.15709    346.26147     776.9406    37625.902 
  841600    290.67567   -1520.6261     476.4067    262.38567    524.80944    37625.902 
  841700    306.88217   -1510.5428     507.3263    376.23778    577.16414    37625.902 
  841800    294.91773   -1570.6222    468.34068    223.39186    593.71354    37625.902 
  841900    301.74364   -1540.0268    464.42992    280.75934    -346.9342    37625.902 
  842000    305.88528   -1528.0351    481.98791    328.92594    159.96279    37625.902 
  842100    303.35979   -1500.1813    470.93626    334.37592   -96.610179    37625.902 
  842200    291.12455   -1507.5497    492.51704    293.59011   -202.00999    37625.902 
  842300    296.55191   -1551.3303    505.08158    286.77035    188.46652    37625.902 
  842400    308.87149   -1548.6943     477.9832    317.68529    97.559676    37625.902 
  842500    301.63021   -1487.9371    512.37634     380.2856    95.216226    37625.902 
  842600    313.79272   -1502.2335    483.81035     392.0945    24.106572    37625.902 
  842700    297.07598   -1507.7912    503.20547     330.7891   -492.54368    37625.902 
  842800    299.26977    -1527.115    482.79059    300.91161    170.73343    37625.902 
  842900    302.85046   -1521.2922    470.83351    310.87273    67.527037    37625.902 
  843000    295.34061   -1546.5917    467.18817    248.17073   -76.746937    37625.902 
  843100    301.84928   -1490.0991    481.46381    348.19577   -262.29571    37625.902 
  843200    294.96067   -1524.8191    477.79959     278.8468   -78.092046    37625.902 
  843300    297.76004   -1525.5751    478.46733     291.3419    352.65824    37625.902 
  843400    281.41529   -1505.8743    465.64759    224.75233    336.44657    37625.902 
  843500    296.54706   -1532.7057    497.20985    297.50148    614.25018    37625.902 
  843600    300.35456   -1493.2199    471.09194    327.98426    138.47636    37625.902 
  843700    302.58239     -1492.04    490.87072    358.95718   -412.26969    37625.902 
  843800    305.19131   -1478.3074    461.22632    354.77264   -348.76602    37625.902 
  843900    304.96856   -1488.7055    470.85719    353.00411    -432.6174    37625.902 
  844000    296.70279   -1515.4296    464.89635    283.16405    233.01919    37625.902 
  844100    299.64196   -1586.6545    466.09728    226.35186   -148.73815    37625.902 
  844200    308.35212   -1586.9849    453.92405    253.00086   -4.8330382    37625.902 
  844300    303.45694   -1539.8361    474.18971    298.41121    27.791014    37625.902 
  844400    291.36082   -1582.3774      462.259    189.56644   -251.83342    37625.902 
  844500    297.20402   -1551.2757    472.24121    256.91582   -147.51008    37625.902 
  844600    296.70216   -1504.0766    461.05332    290.67122    226.25437    37625.902 
  844700     296.0125   -1496.4018    477.26213    311.45475    271.21957    37625.902 
  844800    289.52777   -1545.4725    479.13223    235.10487   -344.44734    37625.902 
  844900    290.48544   -1531.3604    472.13104    246.52053   -393.08749    37625.902 
  845000    301.19393   -1495.5073    478.89823    337.27623    -461.7668    37625.902 
  845100    304.32021    -1526.707    471.85695    313.08801     201.1038    37625.902 
  845200    311.16277   -1476.6796    457.00812    379.02427   -47.928868    37625.902 
  845300    309.75212    -1531.891    455.39055    315.85438   -51.956741    37625.902 
  845400    303.95287   -1519.6056    465.12993    311.81114    104.02819    37625.902 
  845500    298.27798   -1518.2265    475.00164    297.55306   -32.996543    37625.902 
  845600    295.42355   -1476.2561    491.42269    343.11366    68.778726    37625.902 
  845700    304.71196    -1556.383    460.84358    274.15962    345.59356    37625.902 
  845800    306.21253   -1541.5372    507.12915    342.03611   -28.070077    37625.902 
  845900    295.81721   -1493.6328    486.37784    322.46163   -19.781691    37625.902 
  846000    298.23232    -1506.679    469.53323    303.42689    492.00823    37625.902 
  846100    302.60296   -1459.1431    496.21798    397.29384    421.77046    37625.902 
  846200    299.98298    -1491.872    489.80088    346.37086    914.39597    37625.902 
  846300    312.23159   -1515.6452    479.21101    367.06597     275.9472    37625.902 
  846400     305.2248   -1536.5697    477.97424    313.40882    413.32958    37625.902 
  846500    301.52674   -1519.5722    464.23941    300.04846   -298.58581    37625.902 
  846600    300.02188   -1511.8229    470.65825     307.4522   -635.66121    37625.902 
  846700    301.56207   -1527.4919    479.38363     307.4318   -690.07648    37625.902 
  846800    297.10219   -1533.3072     472.0576    274.24306   -203.82632    37625.902 
  846900    298.33213   -1521.9599    472.80859    291.86993   -493.22642    37625.902 
  847000    300.06165   -1501.9487    496.01587    342.86278    180.30582    37625.902 
  847100    292.93438   -1502.9978    481.26191    295.02221    262.94253    37625.902 
  847200    296.78631    -1534.427    467.78621    267.43194    512.75757    37625.902 
  847300     291.4082   -1493.3592    508.77873     325.3173    310.93768    37625.902 
  847400    304.49023   -1542.4827    485.90019    312.11977   -18.328926    37625.902 
  847500    297.75937   -1524.8574    490.80214    304.39144    248.38441    37625.902 
  847600    294.92066    -1493.591    507.34543      339.441   -156.70034    37625.902 
  847700    307.44969   -1531.3867    480.12956    330.74817   -504.73188    37625.902 
  847800    297.59721   -1548.3138    455.75547    245.15946   -445.69781    37625.902 
  847900     301.1318   -1528.2431    490.22463    315.58749   -50.359988    37625.902 
  848000     306.0931   -1523.4358    496.06583     348.5374    286.35189    37625.902 
  848100     300.0303   -1555.0229     481.5702    275.20199   -94.315809    37625.902 
  848200    312.43109   -1554.8106    467.55652    317.14288   -316.96128    37625.902 
  848300    299.16273   -1536.9386     482.2926    290.10885   -485.79909    37625.902 
  848400    293.03226   -1525.3755    494.49293    286.31548   -169.70487    37625.902 
  848500    296.98711   -1515.0391    487.38434    307.32054   -358.09974    37625.902 
  848600     302.4461   -1521.2034     488.0672    326.37766    219.87144    37625.902 
  848700    296.33141   -1543.7784    478.88556    267.13512    32.763355    37625.902 
  848800    301.86949   -1478.4834     478.8046    357.24313    878.09884    37625.902 
  848900    300.72415   -1476.7468    483.80069    358.82741    513.28876    37625.902 
  849000    293.04009   -1447.9278     519.6592    388.96466    959.13688    37625.902 
  849100    294.30039   -1466.0956    523.67569    380.47851    880.95374    37625.902 
  849200    290.69643   -1492.9376    509.61714     323.3779   -74.716464    37625.902 
  849300    295.92668   -1481.4222    476.51427    325.30077   -346.90052    37625.902 
  849400    300.75448   -1504.6686    512.45889    359.70018    -140.4235    37625.902 
  849500    310.41861   -1541.1068    485.23274    339.47668   -198.39106    37625.902 
  849600    299.69812   -1544.4943    492.16842    294.83561      591.151    37625.902 
  849700      305.433   -1534.1755    475.77473    314.53939    815.62117    37625.902 
  849800    293.86492   -1547.4448    504.35932     277.8554    938.57866    37625.902 
  849900    297.15507   -1568.5346    483.35362     250.5493    165.87376    37625.902 
  850000     300.8177    -1527.029     498.6443    323.80933   -62.976595    37625.902 
  850100    292.12392   -1499.1262    467.95776    281.94657    523.67992    37625.902 
  850200    290.76333   -1513.3322    496.52661    290.19353    212.90411    37625.902 
  850300    307.10918   -1490.0388     513.4543     403.8901    317.34745    37625.902 
  850400    302.05504   -1465.2566    506.72229    399.22169    89.031616    37625.902 
  850500    298.65027   -1483.1413    497.50474     356.8148     296.5844    37625.902 
  850600    306.00477   -1526.6269     484.4132    333.29658    359.83205    37625.902 
  850700    290.70585   -1544.6484    497.26202    259.35437   -7.1925237    37625.902 
  850800    297.08718   -1547.8509     468.5712    256.14545   -228.32648    37625.902 
  850900    295.11269   -1539.0979    475.84946    263.30123   -856.88728    37625.902 
  851000    296.99615   -1558.5932    475.36113    251.78394   -1395.9866    37625.902 
  851100    305.91164   -1520.8282     505.6759    359.93941    -755.9711    37625.902 
  851200    296.78483   -1556.0228    464.13415    242.17743   -790.86294    37625.902 
  851300     303.0576   -1557.2659     512.3219    317.31862   -37.483367    37625.902 
  851400    301.19343   -1551.0079    466.34801    269.22313   -47.221775    37625.902 
  851500    307.19527    -1543.788     511.2434    348.31708    863.58078    37625.902 
  851600    293.67287   -1572.4592     483.5701    231.18855    569.34726    37625.902 
  851700    296.18069   -1540.5794    455.74824    246.51928    214.72112    37625.902 
  851800    307.10435   -1524.1242    474.27885    330.60756    227.56395    37625.902 
  851900    291.86148   -1553.9706    470.67824     228.6429    228.75561    37625.902 
  852000    294.95633   -1558.5736    469.92961    237.20282    292.53478    37625.902 
  852100    303.63858    -1530.463    496.82401    331.23513   -190.36778    37625.902 
  852200    293.99539   -1529.5729    488.48728    280.44175   -238.71176    37625.902 
  852300    300.04289   -1544.8051    487.11482    291.02104    221.67976    37625.902 
  852400    309.91705   -1566.6807    469.54348    295.95903    71.328387    37625.902 
  852500    288.65696   -1612.9487    485.94585    170.52795   -436.87091    37625.902 
  852600    307.29907   -1548.1596    484.05381    317.22243   -132.70548    37625.902 
  852700    300.81289   -1561.3084    493.77527    284.63931    351.89149    37625.902 
  852800    304.94673   -1582.7859    470.18571    258.15409    -374.5304    37625.902 
  852900    295.89972   -1595.7287    476.82323    211.18201    337.61025    37625.902 
  853000    300.75878   -1599.9935    489.42011     241.3558   -187.69878    37625.902 
  853100    294.68969   -1600.4203    464.34741     188.5754    1.9049529    37625.902 
  853200    300.44025   -1553.9381    466.73311    263.29244    91.756106    37625.902 
  853300    296.27034   -1537.1611    502.62291    297.21524   -811.47968    37625.902 
  853400    297.38777    -1539.464    480.70939    278.02176   -290.00025    37625.902 
  853500     297.2535   -1588.0701    496.88934    244.99204   -117.92281    37625.902 
  853600    313.22263   -1623.4574    498.42279    282.92043   -475.98325    37625.902 
  853700    307.61856   -1597.7649    477.27108    262.27055    788.06329    37625.902 
  853800    295.53298   -1561.5531    476.04144    242.92731   -75.036916    37625.902 
  853900    308.00181   -1534.6386    508.65853    358.50697    590.05825    37625.902 
  854000    303.19712   -1519.9437    493.21993    336.16595    368.67412    37625.902 
  854100    304.72792   -1541.4879    487.60942    315.89228    217.10929    37625.902 
  854200    299.81049   -1499.8292    496.85905    344.69648   -50.647071    37625.902 
  854300     290.9096   -1530.2864    512.18687    289.55703   -286.74459    37625.902 
  854400    291.03367    -1542.681    482.70761    248.24089    171.51441    37625.902 
  854500    300.59333   -1561.2205     480.3607    270.32568    75.156635    37625.902 
  854600    305.77046   -1545.7417    487.61182    316.32718    119.27637    37625.902 
  854700    301.29314   -1589.4543    476.38216    241.25905   -30.508539    37625.902 
  854800    311.50732   -1502.4448    492.09044    389.89024   -528.59479    37625.902 
  854900    296.39983   -1524.0746    502.00152    310.26242   -536.68722    37625.902 
  855000    300.80758   -1541.3075    467.53912    278.38016    -724.4543    37625.902 
  855100    303.65483   -1571.2618    480.29135    273.97673    -176.2965    37625.902 
  855200    300.65974   -1562.3357    484.69128    273.83958    77.427936    37625.902 
  855300    296.44509   -1537.5578    491.51446    286.49561    246.73864    37625.902 
  855400    301.31975   -1567.8807    524.47559    311.04575    240.14305    37625.902 
  855500    304.35709    -1576.895      501.338    292.54686    116.16324    37625.902 
  855600    286.79642   -1552.5215    503.69985    240.34592    189.87497    37625.902 
  855700    297.03865   -1533.4566    508.71528    310.46568    126.65895    37625.902 
  855800    288.18261    -1521.105    504.10715    278.40069    725.73294    37625.902 
  855900    306.34121   -1519.3405    513.98912    371.67123    612.79222    37625.902 
  856000     304.3428   -1529.5366    467.41115    305.91421    24.096598    37625.902 
  856100    302.69276   -1607.9485    483.95515    236.62923   -70.927471    37625.902 
  856200    301.22742   -1605.0963    493.07274    242.01226   -198.08424    37625.902 
  856300    311.27072   -1615.3958    473.26251    257.04779    251.11462    37625.902 
  856400    305.35576   -1595.6508    477.73676    254.67896    511.50024    37625.902 
  856500    300.18772   -1570.8246     512.6656    291.20326    707.20349    37625.902 
  856600    306.25371   -1583.8637    469.64262    262.40821    244.57281    37625.902 
  856700     308.0825    -1589.548    497.49748    292.79929    480.01996    37625.902 
  856800    296.04775   -1588.4467    505.62228    247.92837    90.534279    37625.902 
  856900    300.71547   -1578.5243    492.90508    266.11532   -176.30928    37625.902 
  857000    292.52874    -1558.828    503.35785    259.46449     301.3759    37625.902 
  857100    300.82359   -1564.9743    503.49633    290.74255    625.68067    37625.902 
  857200    291.37549    -1558.102    487.67076    239.31952    387.74554    37625.902 
  857300     305.0723   -1544.1827    507.04436    334.18042   -188.08996    37625.902 
  857400    298.80338    -1553.288    519.64423    309.49585    594.90226    37625.902 
  857500    308.79482    -1554.394    504.92373    338.58145    352.65644    37625.902 
  857600     294.8238   -1534.0221    495.27181    286.50088     7.810044    37625.902 
  857700    294.70363   -1531.8276    498.63855    291.52189    296.36307    37625.902 
  857800    310.30291   -1551.2889    487.62762    331.16939    146.98738    37625.902 
  857900    304.79839   -1520.3045    480.55124    330.33431    64.083771    37625.902 
  858000    297.87541   -1530.2578     479.0332    287.74368    524.08945    37625.902 
  858100    296.50985   -1512.3112    484.81512     305.3339    541.14304    37625.902 
  858200    287.12807   -1541.7519    501.55964     250.4661    305.95075    37625.902 
  858300    297.26707   -1562.2498    473.99931    247.98328   -527.29448    37625.902 
  858400    301.40521    -1501.679    482.73177    335.88779   -313.06462    37625.902 
  858500    287.86606   -1548.8748    504.27112    249.37194   -316.90025    37625.902 
  858600    303.52697   -1544.8507    483.05228    302.57406    79.086326    37625.902 
  858700    295.77128   -1554.1523    478.84472     254.2025   -671.37693    37625.902 
  858800    301.63557   -1562.6373    486.13255    279.36572     -181.271    37625.902 
  858900    297.61924     -1518.53    481.95723    301.24399   -90.165075    37625.902 
  859000    304.14112   -1545.7727    475.07524    296.43566    113.21743    37625.902 
  859100    308.14608   -1506.9735    491.77846    369.94059   -303.32064    37625.902 
  859200    311.51774   -1520.5418    467.05446    346.80406   -329.79168    37625.902 
  859300    295.62248    -1496.387    479.42513    311.87932   -1.9003788    37625.902 
  859400    295.08353   -1540.9832    485.05542    270.49082   -82.677474    37625.902 
  859500     307.1442    -1541.645    488.89005    327.87718    588.84177    37625.902 
  859600    295.93813   -1550.9452    484.44487    263.75982    286.53457    37625.902 
  859700    301.21569   -1548.6732    480.65697    285.96682   -294.65916    37625.902 
  859800    297.18239   -1546.7986    481.03121    270.08575    297.77399    37625.902 
  859900    297.28394    -1540.903    461.64225    257.04891    101.20304    37625.902 
  860000    306.66503   -1537.2667    489.21955    330.43106    171.48186    37625.902 
  860100    308.17761   -1521.0543    461.29752    325.52058    31.174073    37625.902 
  860200    298.08375   -1566.5511    475.48409    248.83779   -540.96465    37625.902 
  860300    297.58282   -1575.4033    466.48608    228.73588   -33.872145    37625.902 
  860400    296.91642   -1576.0858    487.83206    246.40383   -70.045764    37625.902 
  860500    292.78537   -1527.1269    457.30038    246.26171   -100.69078    37625.902 
  860600    304.48067    -1558.205    463.79088    274.24522   -133.43422    37625.902 
  860700    297.93006   -1539.8362    509.46208    308.83988    151.00799    37625.902 
  860800    303.77204   -1521.6006    465.78639     309.6598   -354.05234    37625.902 
  860900    301.93671   -1524.6056    500.02641     332.6449   -188.00218    37625.902 
  861000    306.17206   -1526.4229     462.4426    312.28199    51.003394    37625.902 
  861100    316.68479   -1591.2236    511.39741    343.69144    1204.5659    37625.902 
  861200    301.08467   -1554.6519     468.5447     267.2869    971.15141    37625.902 
  861300    308.67764   -1557.8966    465.25783     294.8862   -203.58485    37625.902 
  861400    304.87343   -1526.4561    473.33465    317.30344   -723.49327    37625.902 
  861500    306.88215    -1524.386    503.76366    358.83184    8.5020329    37625.902 
  861600    296.84356   -1505.3966    484.39122    313.32472   -5.1344301    37625.902 
  861700    299.75797   -1529.3961    494.23629    312.27072    -516.7791    37625.902 
  861800    310.56407   -1519.0337    469.77444     346.7453    -93.76533    37625.902 
  861900    300.79594   -1518.3168    498.80824     332.5877    210.74199    37625.902 
  862000      306.289   -1524.1993    460.89855    313.48716    361.46619    37625.902 
  862100    284.17838   -1542.5831    493.45722    228.27348   -238.19958    37625.902 
  862200     303.4381   -1568.7801     468.3068    263.49964   -51.468707    37625.902 
  862300     304.1526   -1532.9956    471.24415    305.43327   -184.00651    37625.902 
  862400    304.81537   -1548.4462    476.10641    297.82401    -673.0143    37625.902 
  862500    289.24932   -1505.0099    474.42472    269.60829   -738.49496    37625.902 
  862600    297.18364   -1525.2052    458.34774    269.00135     -1477.44    37625.902 
  862700    301.79145   -1554.9712    457.04203    258.64196   -1215.4635    37625.902 
  862800    309.17522   -1525.9841    463.68404    327.46157   -979.54182    37625.902 
  862900    293.89681   -1568.5466    458.42122    210.95883   -707.73949    37625.902 
  863000    305.76697   -1551.7693    459.74408    282.41616    -262.8058    37625.902 
  863100    289.74139   -1498.2983    509.75885    313.86593   -109.46444    37625.902 
  863200    292.49382   -1530.2857    478.42974    262.92175   -78.688859    37625.902 
  863300    300.26406   -1525.5035    473.87315    298.07505    -613.7708    37625.902 
  863400    291.64255   -1542.7669    481.92236    250.10671   -1168.4613    37625.902 
  863500    301.22809   -1526.9906    472.46405    299.51229    -521.1807    37625.902 
  863600    295.81332   -1515.0313    461.43301    276.10085   -808.08265    37625.902 
  863700    299.64166   -1481.5619     484.0502    349.39605   -323.11213    37625.902 
  863800    305.85774    -1530.826    472.08209     316.1055   -869.29751    37625.902 
  863900    311.98901   -1530.8434     456.8861    328.45253     -346.244    37625.902 
  864000    304.85433   -1538.0042    481.44494    313.77965   -194.50675    37625.902 
  864100    288.05482   -1522.2243     491.9679    264.56775    28.145529    37625.902 
  864200    289.90539   -1504.6072    488.53835    287.07372   -456.37649    37625.902 
  864300    294.25877   -1519.7524    490.41136    293.37025    155.65847    37625.902 
  864400    302.85858   -1569.7489    491.38734    283.00641    464.05137    37625.902 
  864500    293.35511    -1557.977    488.21475    248.88698   -8.7893886    37625.902 
  864600    301.90919   -1594.0439    457.80998    220.86647   -246.36463    37625.902 
  864700     298.7617   -1524.9766    482.71434    300.68997    -19.37331    37625.902 
  864800    304.13304   -1568.1637    471.69831     270.6314    179.93719    37625.902 
  864900    300.58172   -1530.3774    453.98446    274.74043    197.95477    37625.902 
  865000    300.88806   -1526.5049     511.1111    337.11653   -68.016793    37625.902 
  865100    302.49452   -1560.7338    468.31573    267.31341    12.821481    37625.902 
  865200    297.61703   -1551.7654    461.22189    247.26335   -188.85524    37625.902 
  865300    303.61751    -1516.016    495.16443    343.92783   -115.01254    37625.902 
  865400    295.85895   -1499.1407    456.09657    286.86002   -574.88386    37625.902 
  865500    294.10826   -1534.4357    453.63452    241.23359   -318.15849    37625.902 
  865600    296.56258   -1493.1556     501.6287    341.54018   -366.98184    37625.902 
  865700    297.40661   -1537.4226    492.82927    292.26763   -9.0285049    37625.902 
  865800    298.81497   -1512.8108    488.07884    318.45974    249.22938    37625.902 
  865900    295.62552   -1529.0986    485.60917    285.36552  -0.87822714    37625.902 
  866000    285.75745   -1496.2176    481.81501    270.09475    106.89947    37625.902 
  866100    296.03902   -1449.9601    498.12089    378.87442     403.0445    37625.902 
  866200    303.41224   -1474.2634    484.85893    374.45219    330.45426    37625.902 
  866300    308.79065   -1505.2506     470.9854    353.76775    427.56512    37625.902 
  866400    312.51804   -1486.9902     482.3132    400.11079    258.28956    37625.902 
  866500    299.09732   -1495.8812    494.67837    343.25803    260.76196    37625.902 
  866600    305.31985   -1527.7177    463.46987    308.18366    203.44103    37625.902 
  866700    299.12148   -1522.4684    477.98404    300.08512   -91.409841    37625.902 
  866800    303.55164    -1508.986    485.22917    340.72643   -186.69141    37625.902 
  866900    291.41856   -1532.7285     458.5737    235.78955    236.99016    37625.902 
  867000    302.59236   -1543.6504     500.7552     317.2761    57.007843    37625.902 
  867100    302.44341   -1537.6722    468.48448    290.31399    40.403546    37625.902 
  867200    312.96493   -1513.5237    475.80178    369.07468    427.79043    37625.902 
  867300    303.33241   -1510.2433    478.88559    332.14008    491.00445    37625.902 
  867400    309.53854   -1540.0626    470.43604    321.76823    779.27621    37625.902 
  867500    296.98482   -1588.1333    444.74095    191.57266    497.21787    37625.902 
  867600    312.74072   -1559.7129    476.60552    322.68137    145.96896    37625.902 
  867700    303.31486   -1490.8004    527.59858    400.21711    194.83459    37625.902 
  867800    300.25723   -1503.1598    461.11503    307.62996    660.08216    37625.902 
  867900    288.06626   -1516.5198    494.79095    273.14676    838.08247    37625.902 
  868000    294.95506   -1468.8582    477.35397    334.33688    418.05672    37625.902 
  868100    301.26601   -1490.2357    467.67179    331.64532    579.88823    37625.902 
  868200    299.15413   -1512.0193    476.70361    309.40053    507.63086    37625.902 
  868300    293.60932     -1495.66    494.74819    318.88019    191.66586    37625.902 
  868400     297.4703    -1536.283     475.4902    276.35453   -286.37995    37625.902 
  868500    304.39651   -1498.0015    493.74464    364.02415       99.165    37625.902 
  868600    302.27912   -1482.7075    457.25953    333.31526   -55.517322    37625.902 
  868700    302.77644   -1469.4008    499.31142    390.90937   -178.35197    37625.902 
  868800     308.1816    -1485.953    519.28429    418.62657   -586.76943    37625.902 
  868900    295.97711   -1528.7873    461.75912    263.40712   -947.92523    37625.902 
  869000    308.01432   -1487.1861     518.3388      415.696   -1111.7501    37625.902 
  869100    297.31442   -1500.0882    451.14277     287.5012   -577.28089    37625.902 
  869200    305.50232   -1510.8026    514.58453    377.03362   -468.10234    37625.902 
  869300    294.40471   -1504.6018    516.48959    335.25506   -681.26666    37625.902 
  869400    303.05191   -1506.7544    472.44631    327.92891    124.24808    37625.902 
  869500    288.19594    -1514.972    474.53657    255.02312   -279.80925    37625.902 
  869600    296.96391   -1505.8106    490.80385    319.86436    276.91601    37625.902 
  869700    303.40877   -1504.2195    470.69091    330.31249   -492.41578    37625.902 
  869800    299.61272    -1496.472     485.5058    335.81142   -643.90741    37625.902 
  869900     307.0722   -1547.7871     466.6827      299.204   -981.35897    37625.902 
  870000    293.78214   -1517.3579    470.48925    273.70021   -873.19889    37625.902 
  870100    289.95182   -1516.7744    480.20907    266.78596    -93.69731    37625.902 
  870200    296.79975   -1506.6497    494.08263    321.56604    159.81602    37625.902 
  870300    299.75935   -1498.8522    496.55759    345.14208    -384.9035    37625.902 
  870400    310.53001   -1513.2955    509.03615    391.59217   -478.74257    37625.902 
  870500    295.15782   -1502.8865    479.82702     303.6931    28.155149    37625.902 
  870600    300.95491   -1509.5371    507.53348    350.80726    733.05771    37625.902 
  870700    301.80853   -1504.3646    476.50816    328.79151    193.25052    37625.902 
  870800    310.33881   -1568.0181     497.4622    324.43612    85.107231    37625.902 
  870900    291.06094     -1528.63    470.26712    249.97399    246.50233    37625.902 
  871000    288.61506   -1510.4694    487.90753    274.78062    178.99763    37625.902 
  871100    299.40613   -1499.2737    504.30575    350.88104   -359.64747    37625.902 
  871200     294.1665     -1490.35    474.06259    306.00906   -146.67112    37625.902 
  871300    295.38764   -1497.3825    478.88162    309.28473    50.838954    37625.902 
  871400    294.80649   -1525.7159    503.82414    303.28159    391.19387    37625.902 
  871500    298.39615   -1517.6116    475.03311    298.73059    897.27594    37625.902 
  871600    304.54588   -1461.0754    501.85462    409.73168    427.11537    37625.902 
  871700    305.02722   -1465.5787    508.84651    414.38394   -197.70263    37625.902 
  871800    294.00423   -1506.6643    472.77034    287.67318    -358.5968    37625.902 
  871900    297.17279   -1493.0949    496.48783    339.20289   -12.532801    37625.902 
  872000    293.40108   -1544.6869     461.3401     235.5091    711.88681    37625.902 
  872100    295.46036    -1552.682    462.47145    237.90198    287.35773    37625.902 
  872200    294.94883   -1537.6656    481.28693    269.43451    63.773111    37625.902 
  872300    301.96666    -1519.965    497.79879    335.19254    832.80496    37625.902 
  872400    297.42096   -1545.4761    483.97139     275.4208    233.65226    37625.902 
  872500    310.92654    -1541.993    489.35878    344.99972    490.99346    37625.902 
  872600    307.52271   -1531.6975    476.46362    327.09965    71.970285    37625.902 
  872700    303.45042   -1504.5758    476.06989     335.5224   -124.05302    37625.902 
  872800     301.5151   -1571.4116    483.16217     267.0795    18.470845    37625.902 
  872900    306.51836     -1563.02    463.52715    278.32605   -81.759165    37625.902 
  873000    301.56827   -1540.3881    476.73003    291.90986   -516.48542    37625.902 
  873100    291.89478   -1530.6017    485.13651    266.61976   -898.20243    37625.902 
  873200     296.7308   -1497.0534    477.70739    314.47723    154.19629    37625.902 
  873300    291.06766   -1503.1352    498.23718      303.469   -100.67673    37625.902 
  873400    297.64938   -1514.0342    474.72945    298.64748   -1002.1222    37625.902 
  873500    302.64338   -1510.8884    459.82623    309.33845   -683.55765    37625.902 
  873600    289.59094   -1499.5238    517.86135    320.06668   -950.54833    37625.902 
  873700    302.66128   -1518.8912    479.22637    320.81622   -706.76282    37625.902 
  873800     308.3625   -1521.4675    466.76975    331.41062   -418.90841    37625.902 
  873900    303.31052   -1505.8429     489.0778    346.63438   -397.48608    37625.902 
  874000    292.05049    -1544.291    484.47502    252.96895   -786.84391    37625.902 
  874100    292.77226   -1514.3961    518.98339    320.61664   -431.03059    37625.902 
  874200    298.99488   -1493.8597    477.08284    327.22351   -455.33628    37625.902 
  874300    299.63536    -1535.135    478.72862    290.47306    434.82588    37625.902 
  874400    301.73725    -1516.123      479.228    319.43251    392.00346    37625.902 
  874500    294.96575   -1539.4676    492.92354     279.3451   -658.89435    37625.902 
  874600    309.25292   -1531.0155    489.62356    348.71903   -406.72038    37625.902 
  874700    309.97029   -1515.6121    488.33617    366.05959   -403.57704    37625.902 
  874800    302.97998   -1516.4131    486.62324    332.12384   -432.25255    37625.902 
  874900    291.42752    -1538.894    491.98779    263.07847    46.114307    37625.902 
  875000    302.70679   -1514.0875    494.18526    340.78345    223.10181    37625.902 
  875100     301.8458   -1516.3148    468.79995    309.30059   -316.81373    37625.902 
  875200    298.75392   -1516.1035    464.37186     291.1856   -81.413113    37625.902 
  875300    302.99857   -1516.5508    493.40054    338.84691   -349.44882    37625.902 
  875400    303.93674   -1496.9331    473.80873    343.09002    408.38692    37625.902 
  875500    312.14042   -1481.0536    470.91617    392.95299     304.0866    37625.902 
  875600    291.79084   -1514.1072    468.67602    266.18666   -284.04562    37625.902 
  875700    307.03515    -1521.857    476.77049    335.05536    110.73587    37625.902 
  875800    296.63743   -1488.4778    493.74089    338.66659    54.844557    37625.902 
  875900    297.49818   -1482.2273    485.32932     340.3746    243.88654    37625.902 
  876000    294.90261   -1540.7032    479.74431    264.64652    349.53783    37625.902 
  876100    300.02414   -1496.4324    482.54364     334.7382    54.447803    37625.902 
  876200    305.27755   -1512.3759    467.04617    326.91161   -172.69896    37625.902 
  876300    306.17535   -1524.8339    480.40314    331.84633   -145.54005    37625.902 
  876400    300.66815   -1532.8787    461.75179    280.39496    234.43203    37625.902 
  876500    295.05004   -1553.4838    448.47889    221.26319    81.346316    37625.902 
  876600    303.84166   -1524.7188    497.83711    338.90526    475.10581    37625.902 
  876700    304.87823   -1527.2116    480.47402    323.70888    774.29609    37625.902 
  876800    294.51176   -1568.3547    452.08966    207.58348    880.57611    37625.902 
  876900    304.83884   -1596.5034    488.94527    262.71124    1072.2802    37625.902 
  877000    298.16424   -1582.4041    472.93805    230.80062    1263.7306    37625.902 
  877100    301.65814   -1544.5586    461.92724    273.34056    507.33374    37625.902 
  877200    305.28932   -1526.7463    480.20607    325.75402    -363.3619    37625.902 
  877300    315.79807   -1539.3356    467.09739    347.29358   -67.668498    37625.902 
  877400    300.08343   -1511.8349    488.46435    325.52294   -867.81523    37625.902 
  877500    299.41341   -1493.8346    467.84465    319.89174   -505.49035    37625.902 
  877600    300.96949   -1494.7946    494.29763    352.37938   -18.210839    37625.902 
  877700     302.6136   -1491.7482    484.54193    353.06047   -783.16668    37625.902 
  877800      296.361   -1487.9505    478.58755    322.79794    -317.2891    37625.902 
  877900    300.67944   -1464.7575    492.24662    379.06174    34.303764    37625.902 
  878000    304.08165   -1512.0358    482.21458    337.04455   -258.79824    37625.902 
  878100    303.63327   -1522.8527    491.52024    333.51777    188.94428    37625.902 
  878200    292.08447    -1527.651    455.99573    241.28238   -695.97308    37625.902 
  878300    292.10248   -1509.6382    469.26254    272.64299   -321.92395    37625.902 
  878400    311.39303   -1503.4948    475.87376    372.10977    -803.2679    37625.902 
  878500    298.95478   -1486.1683     495.5956    353.24743   -385.08403    37625.902 
  878600    305.37797   -1493.4922    495.32446    374.52502   -324.20781    37625.902 
  878700    300.10066   -1509.1523    484.41516    324.23378   -225.74245    37625.902 
  878800    304.89733   -1501.9001    497.28561    365.91773   -213.79994    37625.902 
  878900    302.53426   -1529.5474    501.06129    331.42397   -217.44271    37625.902 
  879000    303.91652   -1553.3181    468.70855    281.51392    59.652665    37625.902 
  879100    302.03866   -1522.0365    485.93897    321.58481    55.203758    37625.902 
  879200    312.50982   -1477.7514    496.80141    423.80087    138.49064    37625.902 
  879300    302.06331   -1461.1021    485.09235    381.78342   -793.05523    37625.902 
  879400    299.65083   -1512.6808    509.55147    343.81956   -859.74973    37625.902 
  879500    292.12206   -1480.7942     477.4994    309.81185    -381.5607    37625.902 
  879600     299.7691    -1498.498    483.66719     332.6498   -728.50124    37625.902 
  879700    306.77861     -1499.45    480.74359    360.28238    203.60166    37625.902 
  879800    304.81116   -1480.0451    478.39837    368.49825    354.67346    37625.902 
  879900    296.40266   -1554.3497    499.26459    277.26307     500.4362    37625.902 
  880000    300.21409    -1540.785    492.86503    301.56083    339.35529    37625.902 
  880100    304.92202   -1505.1732    489.17148    354.64149    80.722738    37625.902 
  880200    303.40158   -1538.8548    486.43104    311.38504    106.70938    37625.902 
  880300    309.57299   -1511.3057    472.75964    353.00356    768.78454    37625.902 
  880400    294.08472   -1532.7342    472.72343    261.91812     743.4664    37625.902 
  880500    295.85966   -1500.1728    475.10385     304.8384     713.5525    37625.902 
  880600    311.32497   -1531.3406    465.37025    333.45451    555.72311    37625.902 
  880700    302.03412   -1522.4333    483.93727    319.16595    321.61303    37625.902 
  880800     303.9387   -1536.8078    448.90096    278.31628    196.62529    37625.902 
  880900    298.91937   -1513.0444     472.7973    303.41385   -173.28284    37625.902 
  881000    294.07957   -1530.7949    459.72237    250.83325   -56.588088    37625.902 
  881100    308.46988   -1554.3056    480.37138    312.65683    903.28283    37625.902 
  881200    305.57152   -1528.5586    503.32834    348.33251    834.51009    37625.902 
  881300    291.08246   -1539.4882     489.4034    258.34882    848.01187    37625.902 
  881400    295.36149    -1532.842    473.45936     268.2854    656.16405    37625.902 
  881500    294.30013    -1559.803    473.11744    236.21165    757.59613    37625.902 
  881600    298.24885   -1561.4169    483.31144     262.5415    497.79824    37625.902 
  881700    290.08596   -1565.7635    459.36297    197.55377    598.78523    37625.902 
  881800    300.92855   -1491.1522    485.29407    346.83421     377.9564    37625.902 
  881900    292.95218   -1474.5773    465.15271    307.41349    550.12515    37625.902 
  882000    299.94586   -1537.1131    430.88351    242.04554    568.00461    37625.902 
  882100    306.51671   -1541.6987    491.08601    327.19883    179.67199    37625.902 
  882200    306.53639     -1511.77    464.56106    330.69098   -189.02701    37625.902 
  882300     302.5886   -1499.3459    495.15214    355.96066    237.52186    37625.902 
  882400    300.47341   -1494.5094    499.56414    355.70116   -581.79071    37625.902 
  882500    302.04805   -1547.7696    484.88487    294.83986    -70.88196    37625.902 
  882600    306.67714    -1549.275    472.00729    301.26493   -338.94383    37625.902 
  882700     298.0193   -1514.6653    457.77049    282.72029   -232.88298    37625.902 
  882800    306.95284   -1549.1435    462.86698    293.49536   -797.53724    37625.902 
  882900    303.71715   -1548.2877    481.80615    298.74575   -62.917591    37625.902 
  883000    296.78403   -1548.0485    474.11111    260.12511    251.84639    37625.902 
  883100    297.04281   -1549.7517    454.25962    239.73369    481.71896    37625.902 
  883200    290.98882   -1538.5461    471.65662    241.12314    125.02497    37625.902 
  883300    301.32944   -1536.7887    469.15829    286.86396    456.29383    37625.902 
  883400    295.79356    -1551.698    466.11624    244.02848   -111.57766    37625.902 
  883500    300.30177   -1515.9874     484.5534    318.44092    150.27827    37625.902 
  883600     308.7091   -1491.5019    485.04765     381.2122    364.77208    37625.902 
  883700    310.97429    -1477.516    495.95672    416.28928   -204.39384    37625.902 
  883800    290.77577   -1497.6402    480.09992    289.51472    163.33946    37625.902 
  883900    308.17015   -1496.8157    473.23576    361.66383    215.25998    37625.902 
  884000    303.25052   -1535.6987    470.16387    297.59494    17.552303    37625.902 
  884100      288.498     -1569.66    445.89456     173.0508   -215.99192    37625.902 
  884200    293.86252   -1507.3304    519.05896    332.65863   -258.67448    37625.902 
  884300    285.94929   -1554.6673    458.26244    188.95486   -49.633381    37625.902 
  884400    293.27827   -1520.6634    472.97231    270.61277   -67.712111    37625.902 
  884500    307.25012   -1470.9396    499.29757    409.46618    189.52775    37625.902 
  884600    310.47803   -1522.5836    461.19479      334.229    58.109727    37625.902 
  884700    306.71939   -1517.6667     477.2387    338.29456    58.995695    37625.902 
  884800    300.86209   -1489.2857    483.99001    347.09792    434.19238    37625.902 
  884900    314.16383   -1519.5924    473.28466    365.87802    469.66788    37625.902 
  885000    293.94013   -1559.8126     464.9296    226.39599    36.280322    37625.902 
  885100      289.419   -1508.9859    472.08973    264.06008    179.36227    37625.902 
  885200    300.13356   -1519.3468     482.4488    312.22079    483.28018    37625.902 
  885300    294.66649   -1474.5771    475.62317    325.59006    421.81673    37625.902 
  885400    294.36756   -1496.2547    476.02541    302.97102    245.16143    37625.902 
  885500    297.59973   -1536.6076    491.37862     292.5001   -164.95722    37625.902 
  885600    305.80916   -1566.2341    449.56459    257.96153    385.55888    37625.902 
  885700    309.57647   -1541.0985    465.47521      315.942    565.92909    37625.902 
  885800    301.00361   -1506.2896    484.00521    330.74538     743.6313    37625.902 
  885900     299.4583   -1543.2874    474.19123    276.98731    1038.0244    37625.902 
  886000    296.35059   -1531.1586    497.66183    298.61739    688.76643    37625.902 
  886100    296.65235   -1537.3313    477.54053    273.67982    671.36867    37625.902 
  886200    294.85158   -1483.9745    485.15654    326.55805    133.31111    37625.902 
  886300    293.15449   -1508.0787    466.48007    276.14882    101.80147    37625.902 
  886400    293.42771   -1499.8154    450.56131    269.72156    263.24182    37625.902 
  886500    304.63099   -1490.5769    469.99617    348.75428   -211.70545    37625.902 
  886600    300.90086    -1491.624    486.66628    347.61013    -304.2116    37625.902 
  886700    311.13262   -1508.0781    468.42343    358.90558   -486.81867    37625.902 
  886800    308.97877   -1555.0199    483.97287    317.83152   -169.38967    37625.902 
  886900    293.71817   -1544.3286    461.09172    237.04442   -313.02411    37625.902 
  887000    296.22553   -1558.7847    463.27531    236.04259    -149.7636    37625.902 
  887100    306.21993   -1556.8747    457.41239    277.01509   -41.663511    37625.902 
  887200    298.80002   -1535.3531    466.72286     274.4942    382.78348    37625.902 
  887300    296.37675   -1552.5928    452.66901    232.30793    243.55558    37625.902 
  887400    300.49287   -1458.2299    480.14794      372.652    314.91517    37625.902 
  887500    295.41651   -1517.0216    475.27078    286.16456   -545.64345    37625.902 
  887600    309.69774   -1542.6513    471.72077    321.17989   -173.83997    37625.902 
  887700    289.85135   -1541.6621    450.58124    211.81881   -689.47313    37625.902 
  887800    296.49909   -1510.8109    464.94473    286.91548   -646.61913    37625.902 
  887900    307.43234   -1533.8868    474.66915    322.70967    1.1113991    37625.902 
  888000    290.07735   -1514.2896    478.65174    268.27767   -243.07032    37625.902 
  888100     300.5577   -1527.6327    475.25961     298.6523   -255.64493    37625.902 
  888200    299.61968   -1520.2148    472.69083    299.28495   -304.83029    37625.902 
  888300    307.36022   -1527.7822    461.65795    315.47883   -179.80558    37625.902 
  888400    311.77197   -1524.2674    460.17432     337.3411   -332.40639    37625.902 
  888500    308.81507   -1517.0721    477.04622    348.11691    -87.95548    37625.902 
  888600     296.2644   -1535.9311    459.46864    255.26428   -176.86221    37625.902 
  888700    290.90195    -1516.011    491.88056    283.49172   -311.47221    37625.902 
  888800    294.53082   -1514.2194    480.75849    290.47322    -94.88594    37625.902 
  888900    289.73219   -1512.7109    479.31686       268.97   -145.65477    37625.902 
  889000    303.46139    -1535.346    471.06176    299.79339    230.24739    37625.902 
  889100    296.15063   -1534.9264    468.02017    264.30904    194.33604    37625.902 
  889200    299.87347   -1504.2058    487.76191    331.50579    4.7376783    37625.902 
  889300    303.19257   -1476.1168    479.46886    366.22135   -344.97324    37625.902 
  889400    303.25049   -1512.1413    440.24913    291.23749   -66.200769    37625.902 
  889500    289.55925   -1488.4538    474.62561    287.75849     298.8394    37625.902 
  889600    294.93344   -1471.0934    483.15939    337.80991    47.195879    37625.902 
  889700    299.79992   -1537.5366    465.82299     275.9055   -308.09576    37625.902 
  889800    300.06411   -1509.8091    477.22276    316.22035   -233.55971    37625.902 
  889900     304.1428   -1481.3749    472.03103    357.79676    303.48967    37625.902 
  890000    307.43062   -1481.7309    479.62827    379.81698    536.47655    37625.902 
  890100    305.65266   -1462.5094    481.08518    392.50329    286.82432    37625.902 
  890200    288.75424   -1485.3372    492.54203    305.17288   -185.66711    37625.902 
  890300    297.97443    -1464.479    481.62943     356.5638   -183.84628    37625.902 
  890400    308.70765   -1443.9663    485.98907    429.68269   -11.518892    37625.902 
  890500    300.49413    -1464.383    466.71816    353.07474   -360.81507    37625.902 
  890600    293.45568   -1463.3756    470.96692    326.69269    316.01754    37625.902 
  890700    307.17687    -1460.525    479.46882    399.72277   -167.69302    37625.902 
  890800    302.62322    -1436.947    465.92046    389.28344   -572.00452    37625.902 
  890900    286.19401   -1432.8047    464.07811    317.73312   -579.52587    37625.902 
  891000    297.68002   -1489.5259    477.65839    326.22247   -315.36599    37625.902 
  891100     302.2426   -1455.1333    499.42224    402.88805   -451.79222    37625.902 
  891200    303.98459   -1426.9231    468.76319    408.26949   -544.74584    37625.902 
  891300     298.6317   -1464.9261    471.31069    348.75252   -1173.0781    37625.902 
  891400    292.69456   -1428.6044    470.35419    357.42983   -882.28428    37625.902 
  891500    296.04225   -1422.3458    475.61343    383.99578    84.368304    37625.902 
  891600    296.82446   -1443.7004    481.95337    372.49722   -187.69919    37625.902 
  891700    301.67638   -1421.1795    466.62912    401.50357     199.5114    37625.902 
  891800    296.11704   -1465.7195    452.38072    317.72558    175.30568    37625.902 
  891900    303.37661   -1455.4144     461.6307    369.91284    53.866235    37625.902 
  892000    292.71842   -1445.7487    479.73935    349.77803    220.39079    37625.902 
  892100    301.07041   -1447.6522    494.38367    400.06152    132.21609    37625.902 
  892200    308.91731   -1442.5252    455.89141    401.96851     42.55798    37625.902 
  892300    294.78466   -1401.1594    448.89162    372.80744   -70.902447    37625.902 
  892400    299.27284   -1418.9665    474.52328    400.80666    113.71018    37625.902 
  892500    294.85084   -1420.0676      450.167    355.47207    178.17622    37625.902 
  892600    296.35685   -1439.4229    462.96447    355.68384   -153.05304    37625.902 
  892700    306.64487   -1452.5616    439.95586    365.78185    129.66582    37625.902 
  892800    309.31311    -1400.934    484.77279    474.22028   -101.55071    37625.902 
  892900    296.72794   -1423.4428    464.30937     374.6769   -370.23066    37625.902 
  893000    313.26169   -1433.8705    453.87062    428.13071   -57.251706    37625.902 
  893100    305.16185    -1433.123    458.41971    397.01794    883.66544    37625.902 
  893200    308.29711   -1457.2329    474.67952    403.26108    278.09223    37625.902 
  893300    289.86117   -1460.2641    461.90196    304.58171    639.60493    37625.902 
  893400    300.15895   -1447.1539    473.11345    375.19254    99.968561    37625.902 
  893500    311.06669   -1423.5081    436.26538    411.02117    258.64156    37625.902 
  893600    300.07902    -1421.269    444.90142    372.50609    208.05011    37625.902 
  893700    289.65405   -1407.3447    464.67813     359.3462    6.5764458    37625.902 
  893800    299.23024   -1413.2619    480.70536    412.50184   -22.405422    37625.902 
  893900    312.22865   -1442.9699     469.8125    430.32955   -385.36403    37625.902 
  894000    297.12219   -1467.4925    455.19581    323.28579    183.02329    37625.902 
  894100    298.74097   -1445.7817    472.04781    369.12513    134.57192    37625.902 
  894200     301.0947   -1440.6332    451.80837    364.61434     538.5958    37625.902 
  894300    306.59798   -1466.3575    469.41348    381.23272     60.78685    37625.902 
  894400      295.638   -1479.2788     465.7518    315.38395    232.39127    37625.902 
  894500    294.35775   -1464.0225     438.0874    297.22105    377.10456    37625.902 
  894600    295.63983   -1473.7017    470.93399    326.15157    319.09181    37625.902 
  894700     304.3597   -1452.8465     480.9373    396.20642    32.620262    37625.902 
  894800    289.16086   -1510.2283    462.74021    252.30776    226.81053    37625.902 
  894900    304.59447   -1467.1943    450.94734    352.92389   -64.349739    37625.902 
  895000    292.88585   -1484.7266    470.50424     302.3175    314.77919    37625.902 
  895100    297.02995   -1510.2852    430.24358    255.12626    777.82913    37625.902 
  895200    299.64984   -1487.9113    456.15604    315.18925    739.51089    37625.902 
  895300    299.56779   -1461.7062    459.84145    344.71085    150.38415    37625.902 
  895400    299.78271   -1455.8057    483.49409    375.23009   -125.38696    37625.902 
  895500    303.84928   -1417.5409    480.14767    428.42801   -162.77045    37625.902 
  895600    303.03532   -1473.0883    457.33643    346.41052     271.3164    37625.902 
  895700    306.61123   -1456.9021    474.27217    395.60637   -161.04108    37625.902 
  895800    307.48848   -1431.4552     460.9296    411.65403   -332.67029    37625.902 
  895900    303.69646    -1454.626    498.44009    408.94842   -35.783394    37625.902 
  896000     296.4383   -1457.5654    460.53237    335.47533   -110.46023    37625.902 
  896100    296.20859    -1459.373    439.22327    311.32608   -338.64378    37625.902 
  896200    305.40085   -1458.4224      484.393    398.76623    122.36838    37625.902 
  896300    301.85778   -1435.7983    431.07171    352.14269    633.13512    37625.902 
  896400    298.92656   -1443.4599    446.87708    347.11049   -458.09296    37625.902 
  896500    309.83539   -1451.1415    449.72708    391.31468   -210.24197    37625.902 
  896600    304.20294   -1468.0876    457.23451    356.55789   -70.160196    37625.902 
  896700    303.22769   -1451.1579    456.87363    368.74288   -34.602894    37625.902 
  896800    299.02191    -1472.568    433.76057    305.31443   -156.65717    37625.902 
  896900    305.13656   -1434.7143    458.77206    395.66539    570.98241    37625.902 
  897000    301.00483   -1430.5629    458.18956     380.6619    424.26632    37625.902 
  897100    294.98465   -1420.8594    445.85904    350.97378    622.75409    37625.902 
  897200    306.57942   -1484.7952    489.36977    382.66798    629.62769    37625.902 
  897300    300.47141   -1479.1971    443.21377    314.65416    434.38726    37625.902 
  897400    300.84696   -1452.1943    473.88469    374.01604   -74.407599    37625.902 
  897500    316.38506   -1478.3908     418.5936    362.37317   -78.438901    37625.902 
  897600    296.47826   -1501.1325    430.88916    262.44466   -109.90692    37625.902 
  897700    304.26896   -1477.4231    428.02436    318.30901   -73.014935    37625.902 
  897800     299.7969   -1470.7597    464.91843    341.76419   -186.73499    37625.902 
  897900    298.81425   -1480.0395    465.38607    328.53501   -324.18171    37625.902 
  898000    306.31647   -1510.2747    445.91187    312.54861    166.23373    37625.902 
  898100    297.66967   -1500.0338    470.35984     308.3695    3.0004297    37625.902 
  898200    300.67665   -1534.4302    459.64301    276.77291   -256.98536    37625.902 
  898300    306.16217   -1508.9745    446.30635    313.54967    225.53045    37625.902 
  898400    300.41804   -1533.2452    472.88623     290.0386   -162.21787    37625.902 
  898500    295.36461   -1500.0436     474.3152    301.95372    47.762316    37625.902 
  898600    288.98142    -1470.601    464.07005    292.45834   -77.148084    37625.902 
  898700    293.70031   -1429.1567    478.08432    369.12853   -224.28308    37625.902 
  898800    294.79933   -1512.1478    434.53829    247.53159    12.959022    37625.902 
  898900    303.56056    -1510.185    473.32125    327.65961    181.80204    37625.902 
  899000    301.24018    -1480.935    458.25632    331.41449    487.76799    37625.902 
  899100    299.93507   -1498.6504    465.56444    315.14066   -17.113306    37625.902 
  899200    299.21194   -1489.1685    453.77637    309.58392   -503.79127    37625.902 
  899300    311.94972   -1453.7173    455.79206    404.30791   -354.58258    37625.902 
  899400    284.13278   -1446.4246    447.15194    277.92169   -276.59312    37625.902 
  899500    298.76937   -1442.2486    486.69502    387.43314   -192.27441    37625.902 
  899600      294.842   -1483.3205    461.00017    303.01261   -111.09662    37625.902 
  899700    301.32182   -1445.8224    476.26937    384.90706   -2.4835921    37625.902 
  899800    291.04646   -1432.3817    476.26405    352.15413   -543.89798    37625.902 
  899900    295.52593   -1475.1177    462.91159    316.20114   -183.88792    37625.902 
  900000    299.80005   -1452.4714    459.63822    354.78651   -524.72494    37625.902 
  900100    311.07773   -1470.1603    449.90257    378.05581    -47.26051    37625.902 
  900200    292.02484   -1507.8869    454.15676    258.93949    -210.1595    37625.902 
  900300    293.74096   -1524.1139    489.73119    286.00102    56.211096    37625.902 
  900400    302.53392   -1513.6512    469.32037    315.57775    9.7070464    37625.902 
  900500    291.98854   -1497.2529    449.23344      264.487    -100.2958    37625.902 
  900600    295.40715   -1504.2801    471.09151    294.68479   -459.02177    37625.902 
  900700     301.1383   -1526.0651    467.97165     295.5417   -143.04842    37625.902 
  900800    297.10897   -1494.6936    460.84721    301.67679    66.934049    37625.902 
  900900    300.28102   -1497.0131    449.59198    302.36051   -239.55102    37625.902 
  901000    292.61308   -1467.7126    457.03165    304.63287   -601.87154    37625.902 
  901100    300.25712   -1457.9357     470.8191    362.55759   -21.844127    37625.902 
  901200    294.13312   -1495.1292    470.27622    297.29346   -421.32863    37625.902 
  901300    297.29726    -1556.395    460.81564    240.79008    -389.3296    37625.902 
  901400    293.26902   -1532.4413    448.05344    233.87446    107.63417    37625.902 
  901500    309.10789   -1459.8765    463.87252    393.45499    92.795616    37625.902 
  901600    302.26319   -1451.4439    460.74615    367.99387    468.84049    37625.902 
  901700    297.78689   -1492.8441    486.65488    332.38125    484.66956    37625.902 
  901800     301.9821    -1495.108    449.93926    312.25943    315.78186    37625.902 
  901900    297.68859   -1449.0454    466.93388    356.01706    244.29206    37625.902 
  902000    308.27291   -1486.7575    472.07741    371.02555    111.24209    37625.902 
  902100      296.163   -1467.9031    462.12205    325.48988   -6.2742518    37625.902 
  902200    297.20499   -1446.6061    458.36366    347.71227   -77.656767    37625.902 
  902300    304.49167    -1481.617    447.44355    334.53529    193.81114    37625.902 
  902400    296.28319   -1463.4539    472.24644    340.60374   -132.86051    37625.902 
  902500    308.39103    -1474.406    465.18867    377.01933    518.88932    37625.902 
  902600    310.66723   -1479.9653    459.88623     376.3892    1161.1305    37625.902 
  902700    291.81922   -1473.3789       469.36    307.72649    667.87203    37625.902 
  902800    294.57929   -1476.1767    471.93411    319.90941    585.74475    37625.902 
  902900    295.47382   -1519.4232    454.57779    263.32758    193.77001    37625.902 
  903000    311.24874   -1454.7414    466.54326    410.88411    73.477419    37625.902 
  903100    303.63737    -1490.156    453.44233    328.15506   -10.062588    37625.902 
  903200    309.68905   -1452.0092    445.49986    385.56203    25.525028    37625.902 
  903300    291.54452   -1461.3583    493.03847    342.19078    425.91882    37625.902 
  903400    301.52322   -1461.8232    461.77587     355.3181   -53.692932    37625.902 
  903500    291.79974   -1434.6556    494.36306    371.36527    4.2805388    37625.902 
  903600    303.27919   -1434.6073    457.35454    386.00587    81.902191    37625.902 
  903700    298.82488   -1467.2248    479.12261    355.13404    461.20444    37625.902 
  903800     304.5155   -1451.1099    465.98151    383.68757    161.26392    37625.902 
  903900    306.52697   -1438.7211     463.0017    402.13822    34.561044    37625.902 
  904000    300.92413   -1441.1176    463.41273    374.96764   -9.9422589    37625.902 
  904100    301.68491     -1445.81    442.67422    352.95647   -966.69871    37625.902 
  904200    299.18291    -1436.558    455.90975    364.19734   -695.35713    37625.902 
  904300    307.23149   -1422.0933    485.54995    444.48107   -663.30473    37625.902 
  904400    302.63799   -1441.5056    471.76792     390.6387   -313.03275    37625.902 
  904500    292.57716   -1439.4297    477.40933    353.13197    96.993232    37625.902 
  904600    307.27193   -1462.4165    469.54865    388.33839    210.93712    37625.902 
  904700    301.27155   -1419.7503     477.3049    411.78877   -266.92956    37625.902 
  904800    308.35118   -1444.4001    451.42693    393.08441    203.18261    37625.902 
  904900    301.35578   -1441.6096    480.23592    393.23907    337.92673    37625.902 
  905000    300.00811   -1431.2062    464.22016    381.56889    163.08198    37625.902 
  905100    297.89683   -1444.1648      460.635    355.53478    246.99193    37625.902 
  905200    296.42223    -1464.435    470.65478    338.65595   -15.908467    37625.902 
  905300    294.33372   -1429.0691    467.59329    361.57236    549.87456    37625.902 
  905400    292.71287   -1416.5002    485.99601    385.25824    822.37295    37625.902 
  905500    299.76942   -1442.8368    484.74586    389.39109    203.08391    37625.902 
  905600     308.0365   -1454.2952    472.30048    402.64835    258.95895    37625.902 
  905700    302.08203   -1436.0351    455.43313     377.2753   -206.90345    37625.902 
  905800    290.35016   -1374.8099    480.97798    411.30995   -297.27835    37625.902 
  905900     304.9551   -1434.5915    480.25362    416.45408   -353.69365    37625.902 
  906000     298.5686   -1439.8281    482.98439    385.24047   -385.26427    37625.902 
  906100    293.84737   -1425.7481    465.27403    360.38798    -273.5118    37625.902 
  906200    299.14616   -1391.8244    499.21326    452.06925   -341.65722    37625.902 
  906300     296.9743   -1411.5683     475.4231    398.77256   -23.385357    37625.902 
  906400    291.75068   -1401.8934    473.94076    383.48462   -140.15151    37625.902 
  906500      293.034   -1441.2584    476.99813    352.94558   -340.47797    37625.902 
  906600    298.10366   -1458.8337    474.59854    355.75918    206.93417    37625.902 
  906700    294.43456   -1429.2303    476.79083    371.06197    606.81533    37625.902 
  906800    301.94274   -1457.7232    483.83182    383.35981     263.9373    37625.902 
  906900    301.01242   -1423.4064    487.30165    416.96457    187.14659    37625.902 
  907000    298.85791   -1468.0595    468.89596    344.22112   -273.63017    37625.902 
  907100    303.72217   -1479.3561     469.8876    355.78131    199.89911    37625.902 
  907200    292.54687   -1441.2338    469.21897    343.00136    38.266441    37625.902 
  907300    311.89607   -1451.2225     461.5602    412.32968    518.61182    37625.902 
  907400    296.64027   -1485.6336    475.88575    323.66841    316.74876    37625.902 
  907500    300.22466   -1469.5909    475.47987     355.4173   -110.44151    37625.902 
  907600     297.8724    -1443.859     473.0864    368.18217    267.70571    37625.902 
  907700    302.62265   -1431.7389    477.43232    406.00085   -144.77412    37625.902 
  907800    303.70481   -1438.3563    480.26937    407.08489   -626.89384    37625.902 
  907900    304.16948   -1450.9253    427.19162    343.52686   -826.72399    37625.902 
  908000    309.99687   -1471.0029    467.79067     390.2428   -944.93949    37625.902 
  908100    303.83466   -1463.9572    468.68917    370.48748   -153.83108    37625.902 
  908200    293.48306   -1473.3439    471.18907    317.06959    423.44117    37625.902 
  908300    295.89042   -1517.1587    453.43044    266.31739   -228.27804    37625.902 
  908400    307.11616   -1521.6295    455.66521    314.54174    79.192989    37625.902 
  908500    307.14651   -1476.6302    460.15641    364.16869   -572.07353    37625.902 
  908600    297.38933   -1458.2441     471.6821    350.22133   -8.0400332    37625.902 
  908700    292.80761    -1452.519    459.06203    322.73124    88.345073    37625.902 
  908800    300.65631   -1475.9156     480.6857    356.23869    154.78059    37625.902 
  908900    308.63631   -1481.6022    470.07365    375.81073   -407.44658    37625.902 
  909000    292.01434   -1478.6069    444.12896    278.14447   -230.33816    37625.902 
  909100    292.52197   -1490.1099    463.37558    288.16998   -159.36868    37625.902 
  909200    305.74647   -1456.4154     452.7661     370.6999   -350.57063    37625.902 
  909300    289.10537    -1468.042    456.79159    288.29606   -44.114355    37625.902 
  909400     296.3216   -1471.3413    471.22693    331.86944   -237.39454    37625.902 
  909500    308.21783   -1522.7622    489.06127    351.75722   -44.293992    37625.902 
  909600    298.40307   -1487.9354    455.30602    308.71085   -308.21686    37625.902 
  909700     299.7315   -1478.1261    466.81751    336.00292   -267.30294    37625.902 
  909800    306.94009   -1474.4927    485.16892     390.3908   -221.51567    37625.902 
  909900    304.69895   -1429.0063     473.4862    414.12042   -377.19469    37625.902 
  910000    309.86593   -1456.2548    468.10905    404.72071   -616.25337    37625.902 
  910100    302.77917   -1436.4631     458.7761    383.32398    125.58585    37625.902 
  910200    293.80616    -1427.013    472.92499     366.5888    79.630282    37625.902 
  910300    303.94535   -1398.3959    480.11661    447.97373    209.69374    37625.902 
  910400    295.48822     -1501.83    447.47221    273.87989   -83.354167    37625.902 
  910500    299.47657   -1451.0193     479.0305    374.17678    424.95404    37625.902 
  910600     291.2492   -1488.9629      455.641    275.86116   -320.85151    37625.902 
  910700    302.24898   -1489.8464    471.88094    340.66232    507.05662    37625.902 
  910800    300.24706   -1534.3939    445.65588    260.89103    508.09165    37625.902 
  910900    291.99214   -1505.1287    462.29005    269.68399    204.01059    37625.902 
  911000    295.43091   -1458.5203    438.09038    307.55016   -132.41427    37625.902 
  911100    297.06012   -1506.7085    439.40024    267.99529    552.20547    37625.902 
  911200    300.20505   -1525.5566    465.46312    289.34668    257.91182    37625.902 
  911300    290.86737   -1484.2083    487.01087    310.26927    373.43152    37625.902 
  911400    285.61944   -1515.3731    472.39157    240.89541    891.54456    37625.902 
  911500    303.74499   -1512.6129    459.05268     311.7922    1264.1568    37625.902 
  911600    303.25304   -1480.7319    461.40259    343.81173     628.8875    37625.902 
  911700    304.62824   -1460.1766    477.86994    387.01605    1162.1589    37625.902 
  911800    299.07952   -1510.8421    418.06925    251.60794    492.72924    37625.902 
  911900    297.06695   -1492.0732    484.59133    327.85234    367.19147    37625.902 
  912000    298.51565   -1499.6237    476.04634    318.26891     295.6736    37625.902 
  912100    295.58155   -1523.8721    466.13978    270.92492   -190.69062    37625.902 
  912200    294.39407   -1500.2174    468.90831    292.01041    166.24047    37625.902 
  912300    300.73919   -1519.3829    471.66279    304.12107   -103.55039    37625.902 
  912400    301.67482    -1464.045    454.87477    346.87667    66.575359    37625.902 
  912500     296.7754   -1443.8131    473.40725    363.61779    420.76954    37625.902 
  912600    291.97711    -1470.582    450.57504    292.44814    -201.0151    37625.902 
  912700     289.5385   -1457.5002    470.19868    314.19185   -4.0269588    37625.902 
  912800    310.25557   -1460.8582    473.95806    407.71772    310.25794    37625.902 
  912900    304.09263   -1479.6263    450.17598    337.46477    786.47145    37625.902 
  913000    306.55353   -1464.9295    480.86751    393.91496   -16.213708    37625.902 
  913100    301.72397   -1440.5958    470.90601      386.578    469.93824    37625.902 
  913200    294.08971   -1468.0237     473.2435    327.17115    797.70813    37625.902 
  913300    298.32615   -1491.6466    485.71895    335.06672    762.97695    37625.902 
  913400    295.53076   -1519.0104    471.70049    281.11905    766.92393    37625.902 
  913500    301.41261   -1484.8912    480.78786    350.76494    134.82197    37625.902 
  913600    296.88328   -1463.1265    469.15291    340.53498    854.39796    37625.902 
  913700    303.32417   -1460.0135    473.09644    376.54374    117.46546    37625.902 
  913800    300.62626   -1471.3419    469.73531    349.72694    252.89935    37625.902 
  913900    299.35966   -1484.8478    468.42939    329.22173    277.57932    37625.902 
  914000    295.25779    -1505.722    476.26217    297.74214    521.53957    37625.902 
  914100    295.49207   -1493.4307    473.58694    308.41132    280.62589    37625.902 
  914200     295.3749   -1489.7784    458.69167    296.64159   -24.254749    37625.902 
  914300    295.72953   -1466.0516      474.598    337.86887   -371.03475    37625.902 
  914400    301.14711   -1454.1817    487.21079    386.70391    51.344508    37625.902 
  914500    297.48659   -1474.5225    472.47492    335.17299   -288.25759    37625.902 
  914600    299.83946   -1472.0113    451.91831     327.7038    258.49154    37625.902 
  914700    304.06264   -1477.6951    481.17579    370.26095    392.28872    37625.902 
  914800    306.10088   -1467.1352    454.23331    363.04042    505.08776    37625.902 
  914900    296.13845   -1500.5203    484.75829    315.39852    322.68622    37625.902 
  915000    297.89692   -1488.9008    448.71952    298.88377    461.65383    37625.902 
  915100    309.08034   -1525.7658    465.77779    329.34714   -16.786324    37625.902 
  915200    312.77211   -1507.6248    452.98807    351.29311   -203.26896    37625.902 
  915300    303.09314   -1500.0864    475.53474    337.87071   -132.80905    37625.902 
  915400    294.11702   -1480.3649    493.52011    335.22929    -260.1908    37625.902 
  915500    304.73172   -1501.6698    448.65993      316.778   -315.09216    37625.902 
  915600    313.95393   -1505.4347    471.56628    377.37381    -600.7122    37625.902 
  915700    297.98691   -1503.2448    483.85742    320.08209   -178.03712    37625.902 
  915800    310.07519   -1526.2647    462.21021    329.75258     564.2574    37625.902 
  915900    300.71108   -1493.6758    452.92577    310.96477    962.51927    37625.902 
  916000    303.91082   -1519.2093    442.54003    289.42854    296.85774    37625.902 
  916100    294.33536    -1531.778    460.83019    252.10778    36.859768    37625.902 
  916200    287.41706    -1485.714    465.69546    271.93879   -168.19903    37625.902 
  916300     307.5557   -1468.5699       478.58    392.49195    204.86502    37625.902 
  916400     296.9118   -1473.9622    453.43569    314.11029    207.26812    37625.902 
  916500    309.23815   -1470.9176    478.63594    397.76285    644.80748    37625.902 
  916600    304.84792   -1461.6966    470.67803    379.29163    448.35639    37625.902 
  916700     296.5343    -1461.079    438.30176    310.16267    327.86494    37625.902 
  916800     310.5657   -1493.1102    510.32079    413.22257    455.57678    37625.902 
  916900    298.99586   -1487.4459    426.82385     283.3828   -447.64377    37625.902 
  917000    297.26632   -1482.1622    477.54544    331.61363    237.21797    37625.902 
  917100    288.92827   -1434.9265    463.18109    327.00494    156.31252    37625.902 
  917200    306.76164   -1460.0897    513.86198    432.68474    770.63196    37625.902 
  917300    296.81037   -1462.2013     479.4477    351.42727    800.56427    37625.902 
  917400    295.24261   -1459.7537    476.00222    343.38221    365.80827    37625.902 
  917500     300.2628   -1464.9475    497.20721    381.95945    273.55116    37625.902 
  917600    301.01272   -1474.7409    464.76424    343.09409   -221.42973    37625.902 
  917700     289.7381    -1448.669    477.28114    331.00274   -796.60643    37625.902 
  917800    304.48299   -1471.4975    463.04873    360.22102   -110.69914    37625.902 
  917900    291.97402   -1477.3114    470.86792    305.99774      52.9979    37625.902 
  918000    301.31805   -1451.8832    475.06856    377.62856    742.74984    37625.902 
  918100    296.73247   -1407.7679    465.56193     391.6247    334.83365    37625.902 
  918200    300.18719   -1468.9549     463.7981    344.20311   -107.19502    37625.902 
  918300    307.55863   -1422.9933    493.70868    453.21029   -124.17323    37625.902 
  918400    291.35928   -1474.7524    491.57341    326.49892   -23.257175    37625.902 
  918500    303.37883   -1480.4125     475.1642    358.45825    108.78072    37625.902 
  918600    299.17333   -1475.5191    471.02227    340.30566    143.34367    37625.902 
  918700    295.86774   -1495.9522    468.98562    302.97714   -145.79038    37625.902 
  918800    297.17688   -1474.4869    473.81535    335.15681   -75.404704    37625.902 
  918900    303.13201   -1526.4642    465.41807    301.55097   -114.18033    37625.902 
  919000    310.56254   -1486.1278     455.6919    365.56186     315.4891    37625.902 
  919100    296.67602   -1491.2405    460.31929    302.65579    54.490277    37625.902 
  919200    311.33368   -1498.8222    451.81934     352.4612    126.75913    37625.902 
  919300    304.55603   -1512.0285    449.28757    306.25714    530.64819    37625.902 
  919400    304.17922   -1502.1147    458.68413    323.87376    456.15365    37625.902 
  919500    294.04194   -1499.0142    481.98258      304.705    349.81013    37625.902 
  919600    283.07777   -1477.8416    481.25059    275.86097    241.28424    37625.902 
  919700    297.22581   -1516.7857    498.41302    317.67563    639.37581    37625.902 
  919800    301.46529   -1472.4171    462.98223    345.67019    615.25218    37625.902 
  919900    308.35551   -1513.8339    483.11001    355.35315    494.23926    37625.902 
  920000    305.70426   -1493.7961    501.36216    381.72549    51.797427    37625.902 
  920100    297.57439   -1444.9193    476.16201    368.85785   -89.650125    37625.902 
  920200     304.7226   -1451.4467    471.77597    390.07616   -250.69137    37625.902 
  920300    310.34038   -1458.0162    467.65983    404.64276   -391.50925    37625.902 
  920400    312.54003   -1474.7603    466.06542    396.19184   -300.86675    37625.902 
  920500    283.55783   -1468.6101    492.90855    298.90834   -227.48238    37625.902 
  920600    299.23522   -1528.3943    453.70155    270.38796     160.8722    37625.902 
  920700    305.85042   -1496.1225    457.28363    335.97761    485.81727    37625.902 
  920800    298.24739    -1466.458    482.87905    357.06144   -88.294446    37625.902 
  920900    302.35012   -1500.1845    460.30181    319.19968    555.49127    37625.902 
  921000    302.32607   -1472.4548    449.74271     336.2622    126.13039    37625.902 
  921100    301.91621   -1422.5592    472.18655    406.75929    39.462173    37625.902 
  921200    308.57543   -1444.2014    458.82432    401.68851   -251.17671    37625.902 
  921300    288.96257   -1530.8534    427.04958     195.1007    270.39592    37625.902 
  921400    301.28222   -1486.9427    479.21148    346.55092    253.65099    37625.902 
  921500     303.5809    -1450.842    475.30731     389.0802    104.69546    37625.902 
  921600    308.52258   -1458.3783    457.15323     385.6029   -418.61802    37625.902 
  921700     298.5214   -1500.1197    457.26752    299.01986    -948.7573    37625.902 
  921800    301.87289   -1498.5537    440.99742    299.38092   -245.89865    37625.902 
  921900     295.9684   -1452.1524    485.95838    364.20216    36.176622    37625.902 
  922000    301.81756   -1472.2974    475.41473    359.80589    454.20298    37625.902 
  922100    307.16255   -1455.5286    487.94272     413.1287    573.44492    37625.902 
  922200    298.29622    -1463.468    457.12054    334.51237    390.42529    37625.902 
  922300    264.11546   -1493.8486    490.80459    184.17129    669.17158    37625.902 
  922400    293.92454   -1449.5787    461.46227    333.09247     254.1618    37625.902 
  922500     289.5211   -1494.0358    489.45777    296.83714   -400.66673    37625.902 
  922600    299.93802    -1521.865    438.73554    265.11041   -172.14823    37625.902 
  922700    309.68613   -1509.8258    467.10293    349.33534   -934.89192    37625.902 
  922800    304.27635   -1492.8756    476.67989    351.54517    -453.9927    37625.902 
  922900    307.27755   -1495.8712     453.8481    339.20835   -567.00406    37625.902 
  923000    296.03691   -1507.3068    459.30172    282.69904   -525.21347    37625.902 
  923100    297.20161   -1536.2096    454.56802    254.29798   -176.25334    37625.902 
  923200    301.71634   -1497.5144    477.86968    336.58881    22.407216    37625.902 
  923300    304.15528   -1516.7395    475.06774     325.5249    504.42544    37625.902 
  923400    291.96754   -1508.9277    457.80001    261.28439    783.59559    37625.902 
  923500    305.59608   -1481.7321    485.01425    376.95539    130.40976    37625.902 
  923600    299.46839   -1447.6782    478.86393    377.31452    349.88708    37625.902 
  923700    300.23826   -1465.2238    494.00022     378.3659    -138.5951    37625.902 
  923800    304.62107   -1473.2349    466.37014    362.42572   -280.73519    37625.902 
  923900    300.50298   -1440.1203    484.02343    394.68252   -31.939265    37625.902 
  924000    292.26495   -1469.7501    460.70462    304.70349    134.62356    37625.902 
  924100    293.82537   -1472.7134     486.4894    334.53912   -95.102671    37625.902 
  924200    290.76381   -1455.2814    464.55341    316.27326   -136.79616    37625.902 
  924300    295.81555   -1465.5849    470.29581    334.42007    178.40157    37625.902 
  924400    300.70196   -1473.2586    454.10981    332.52502    614.97594    37625.902 
  924500    290.49298   -1463.3773    473.58497    315.99145     551.9326    37625.902 
  924600     304.4248   -1458.1746    483.93189    394.16551   -309.29281    37625.902 
  924700    290.71625   -1475.3025    469.83325    301.31818    131.59583    37625.902 
  924800     299.4348   -1449.6134    455.80351    352.16801    643.22855    37625.902 
  924900    299.53005   -1442.7807    468.43919     372.0645    396.70974    37625.902 
  925000    305.15235   -1470.0357    476.79561    378.43855    573.70531    37625.902 
  925100    295.79737   -1506.5198    442.90549    266.01308    378.47418    37625.902 
  925200    298.32448   -1448.4572    464.49006    357.01974    488.08101    37625.902 
  925300    309.64424   -1426.1494    459.94285    425.66339    327.03967    37625.902 
  925400    306.93234   -1406.4892      487.011     460.2016    96.986819    37625.902 
  925500    288.04989   -1392.4271    461.14863    363.52351   -210.44892    37625.902 
  925600    299.83118   -1392.0338    490.10929    445.83507    -508.7354    37625.902 
  925700    297.21437   -1425.6436    456.41375    366.76702   -166.77919    37625.902 
  925800    298.25757   -1413.1806     476.4375    403.94307    164.71167    37625.902 
  925900    302.03145   -1441.8287    475.39395    391.21519    372.98865    37625.902 
  926000    296.06053   -1420.0743    454.23072    364.96672    217.05065    37625.902 
  926100    290.54666   -1402.0618    470.15552    374.11884   -304.43362    37625.902 
  926200    301.03519   -1445.6485    466.49123     374.0145    -324.6034    37625.902 
  926300    291.43327   -1447.4332    459.40765    321.98493   -48.876881    37625.902 
  926400    298.71788   -1453.1929    424.59514    314.15752   -106.34687    37625.902 
  926500    306.62681   -1431.9966    444.94617    391.25598    224.63714    37625.902 
  926600    306.55636   -1456.0228    432.53948    354.50636    393.05501    37625.902 
  926700    292.99401   -1443.0783     452.2569    326.20466   -78.210374    37625.902 
  926800    298.59263   -1500.8942    441.79389    283.09193   -41.273001    37625.902 
  926900    297.22802   -1458.9307    453.87082    330.99835    123.81323    37625.902 
  927000     303.2807   -1479.0819    466.47857    350.66212    361.20732    37625.902 
  927100    284.48198   -1408.1405    482.09808    352.72162    668.04521    37625.902 
  927200    298.04101   -1415.1111    498.87216     423.4738    539.30674    37625.902 
  927300    307.14265   -1452.3585    468.33236      396.599       103.97    37625.902 
  927400    301.72157   -1463.0738    460.06831    353.25155    188.51776    37625.902 
  927500    296.26872   -1478.1188    456.78382     310.4112    507.06978    37625.902 
  927600    309.60037   -1503.0912    469.87741    358.45894    783.86625    37625.902 
  927700     295.3443    -1491.919    470.26578    305.93761    887.04588    37625.902 
  927800    300.51416   -1473.5653    443.72222    320.98657    187.91597    37625.902 
  927900    298.44556   -1495.4962    471.85966    317.89467    127.81553    37625.902 
  928000    297.03756   -1485.6298    454.70515    304.27748     296.1855    37625.902 
  928100    299.67376    -1513.129    460.47516    294.39814    251.95069    37625.902 
  928200    310.62324   -1469.6957    474.37878    400.95368    534.58946    37625.902 
  928300    303.93741   -1463.8829    462.20525    364.53973   -117.68588    37625.902 
  928400    303.04973   -1476.3564    440.47475    326.34558    86.022854    37625.902 
  928500    295.33836   -1478.2413     486.3975    335.72029   -322.86232    37625.902 
  928600     302.6446   -1456.4062    439.51012    343.51003   -261.32627    37625.902 
  928700    301.50791   -1505.4101     458.8777    308.76426    179.20742    37625.902 
  928800    297.75881   -1487.9943    470.66518     321.1151   -338.20546    37625.902 
  928900    303.78069   -1464.1309    473.13557    374.51754    130.92414    37625.902 
  929000    307.08219   -1462.5992    454.88037    372.63454   -47.550806    37625.902 
  929100    303.12619   -1482.0594    451.26301     331.7745   -18.282333    37625.902 
  929200    295.85876   -1474.9731    481.78941    336.71969   -41.844252    37625.902 
  929300    314.42677   -1438.3435    459.62854    434.65275    581.13787    37625.902 
  929400    295.83374   -1455.2122    480.75852    355.33715    627.71849    37625.902 
  929500    298.52417   -1473.2998    455.28032    323.86506    251.16997    37625.902 
  929600    288.71505   -1472.5086    462.51883    287.80216    413.09072    37625.902 
  929700    300.98236   -1484.6705    474.42601    342.68975    145.59018    37625.902 
  929800    301.42485   -1511.4928    475.70266    319.13315   -76.130283    37625.902 
  929900    305.83422   -1471.8419    463.27109    366.17282    378.87399    37625.902 
  930000    295.30216   -1467.5086    449.19965    309.09244   -376.36879    37625.902 
  930100    303.97029   -1482.4966    474.58301    358.45157    60.586495    37625.902 
  930200     293.4165   -1476.6895    458.07554    300.31131   -32.632731    37625.902 
  930300    295.76372   -1492.7136    463.14066    299.90315    100.98606    37625.902 
  930400    300.01936   -1475.4934    462.07366    335.18573    213.44687    37625.902 
  930500    303.13497   -1500.9974    467.21648    328.82946   -288.19698    37625.902 
  930600    302.70666   -1471.4386    462.38791    351.63441   -350.16482    37625.902 
  930700    300.26644   -1498.0737    478.26103    329.90347   -78.756472    37625.902 
  930800    295.56854   -1486.2916    479.99245    322.29966    47.486112    37625.902 
  930900    296.33812   -1480.8566    468.72711    319.92863    169.15453    37625.902 
  931000    312.87145   -1496.5716    481.36571    391.17056    760.69897    37625.902 
  931100    303.89211   -1458.8122    470.95705    378.15853    293.76796    37625.902 
  931200    294.23749    -1435.824     466.0297    352.82135    466.16327    37625.902 
  931300    300.13358   -1489.4222    481.44676    341.14352   -83.258451    37625.902 
  931400    296.54211   -1472.6726    454.65483    314.95723    125.55761    37625.902 
  931500    291.10178    -1476.276    461.94835    294.19276    369.69647    37625.902 
  931600    309.58061   -1463.5208    509.61363    437.67677    94.540224    37625.902 
  931700    300.87699   -1473.7921    451.46172    330.13024    13.967037    37625.902 
  931800    296.88721   -1479.4027    472.88184    328.00543   -442.11321    37625.902 
  931900    294.43863   -1476.3607     442.9834    290.14242   -886.74073    37625.902 
  932000    298.10552   -1453.9573     482.0092    368.05453   -446.88956    37625.902 
  932100    311.95791   -1438.0572    465.65907    429.87193   -64.047276    37625.902 
  932200     289.0479   -1479.4759    464.14967    283.96188   -416.76502    37625.902 
  932300    302.94945   -1459.5155    457.93262     360.1935    40.010645    37625.902 
  932400    309.73681   -1452.2487    474.22161    414.25897    -58.78761    37625.902 
  932500    289.92187   -1474.4936     478.3703    307.09339    405.82945    37625.902 
  932600    293.53476   -1501.5519    459.20155    277.10648   -421.69252    37625.902 
  932700    300.73704   -1442.6692    479.59272    388.75503   -518.22624    37625.902 
  932800    291.65364   -1473.8951    469.54129    306.64723   -313.51479    37625.902 
  932900    308.66044   -1397.6212    501.48457    491.31111   -206.65724    37625.902 
  933000    304.71668   -1460.1993    476.31249    385.83343   -381.18848    37625.902 
  933100    308.86586   -1481.5292    485.56628    392.40818    43.301893    37625.902 
  933200    298.75718   -1503.9536    506.06437    345.04272   -132.73484    37625.902 
  933300     293.9571   -1476.3608    463.44014    308.43463    31.795528    37625.902 
  933400    295.30849   -1461.9302    504.64898    370.14856   -441.51606    37625.902 
  933500    289.96474   -1450.8741    503.04746    355.58267   -546.08665    37625.902 
  933600    293.82146   -1443.0122     474.7192    352.45261   -117.67143    37625.902 
  933700    304.90996   -1462.2166    454.21506    362.58748   -156.05695    37625.902 
  933800    309.64633   -1452.9545    494.88945    433.81432   -408.84834    37625.902 
  933900    288.81316   -1455.5005    483.64055    326.37303   -58.787917    37625.902 
  934000    294.76039   -1516.6375    452.16972    260.49829   -466.05156    37625.902 
  934100    298.31593   -1499.4872    505.19968    346.66096    307.90393    37625.902 
  934200    296.87688   -1475.7043    483.64599    342.42156    29.747163    37625.902 
  934300    301.13765   -1440.9394    473.94038    386.63325    514.27806    37625.902 
  934400    307.06639    -1457.286    493.19125     416.1876    681.77661    37625.902 
  934500    288.82338   -1475.9531     491.2756     313.6014   -158.58962    37625.902 
  934600    307.14941   -1482.0061    472.44802    371.09739   -679.28618    37625.902 
  934700    301.75082   -1498.2578     485.3663    343.49707   -528.82122    37625.902 
  934800    291.58495   -1471.6308    494.61438    333.67584   -607.37147    37625.902 
  934900    289.13553   -1462.6522    480.26533    317.29516   -1022.9111    37625.902 
  935000    309.73172   -1443.6237    473.57306    422.21255   -730.09932    37625.902 
  935100    305.09869   -1453.8402    477.30852    394.90577   -786.96347    37625.902 
  935200    303.64739   -1475.1207    492.72905      382.522   -462.77898    37625.902 
  935300     299.0086   -1440.2222    486.78239    390.62231    67.613956    37625.902 
  935400    307.33999   -1506.5738    442.13504    317.07345    192.23618    37625.902 
  935500    300.64116   -1491.4225    492.89283    352.87083    89.274135    37625.902 
  935600    300.90153   -1459.2491    476.38632    369.70813    172.35349    37625.902 
  935700    301.22761   -1492.7343    487.77018     349.0725    250.05678    37625.902 
  935800    301.53882   -1496.5295    485.48984    344.39588    598.84811    37625.902 
  935900    289.48901   -1491.7235      470.996    280.54344    775.19931    37625.902 
  936000    308.27563   -1500.3805    479.04078    364.37822    687.49594    37625.902 
  936100    299.73037   -1539.4728    460.14498    267.97861   -33.575706    37625.902 
  936200    305.83364   -1476.5491    495.67183    393.86373    245.10673    37625.902 
  936300    309.00056   -1508.1754    457.19713    337.99825   -140.22971    37625.902 
  936400    295.71272   -1485.0217    492.79835    337.02354   -56.023873    37625.902 
  936500    292.91694   -1464.3984    500.75319    353.03442   -201.03609    37625.902 
  936600    295.53947   -1466.1729    497.92422    360.21948   -242.05183    37625.902 
  936700    297.16903   -1498.8125    478.95667    315.93725   -363.02867    37625.902 
  936800    316.12916   -1506.3918    475.82839    390.45661   -339.75684    37625.902 
  936900    294.17051    -1498.664    453.99427    277.64485    14.377537    37625.902 
  937000    298.16558   -1537.5205    469.68184    272.43399    215.46306    37625.902 
  937100     304.5456   -1514.1811    478.27566    333.04574   -187.37101    37625.902 
  937200    302.11954   -1548.8627    468.66771    277.85088   -680.41741    37625.902 
  937300    291.54594   -1507.9558    466.06872     268.6299   -541.24321    37625.902 
  937400     305.6492   -1494.7697    479.07157    358.21385   -695.76088    37625.902 
  937500    296.21849   -1493.7392    456.97868    294.75984   -491.64041    37625.902 
  937600    291.57526   -1497.8944    498.81332    311.56762   -211.30831    37625.902 
  937700    298.73357    -1488.034    487.83375    342.62554   -39.764859    37625.902 
  937800     300.0808   -1515.8742    469.41285    302.42033   -160.85564    37625.902 
  937900    299.67027   -1518.1042     473.6863    302.61844    -176.2453    37625.902 
  938000     301.5466    -1506.828    460.61521    309.25775    238.25652    37625.902 
  938100    297.36985   -1506.8658    456.50576    286.33572   -623.08946    37625.902 
  938200    290.16814   -1490.6433    473.80167    287.48208   -393.85414    37625.902 
  938300    298.58339   -1538.3864    466.00198    269.76633   0.97705335    37625.902 
  938400    299.24433   -1560.9035    457.48978      241.708    42.371056    37625.902 
  938500    309.04497   -1502.7257    456.33712     342.7876    569.50398    37625.902 
  938600    295.05163    -1517.434    472.46522    281.30643   -96.657851    37625.902 
  938700    296.29981   -1521.1879    459.10392    269.80189    -22.85843    37625.902 
  938800    298.83185     -1522.36    474.58257    295.49018    62.215068    37625.902 
  938900    301.08503   -1509.9585    500.78593    344.22321    512.32138    37625.902 
  939000    305.88285   -1540.8256    445.44107    279.57773    409.55458    37625.902 
  939100    295.84967   -1550.4756    483.91841    263.30525    352.76883    37625.902 
  939200    303.62358    -1490.106    486.81488    361.51561   -23.987242    37625.902 
  939300    290.51387   -1487.3746    471.91937    290.42252   -160.89967    37625.902 
  939400    291.69684   -1516.9522    491.75949    286.00252   -2.7216204    37625.902 
  939500    310.33945   -1501.5915     483.3377    376.74118   -392.56556    37625.902 
  939600    290.26216   -1530.3061    450.82847    225.26868   -550.37379    37625.902 
  939700    307.07443   -1526.1782    487.79174    341.93196   -327.90223    37625.902 
  939800    296.87638   -1496.5906    465.82744    303.71445   -351.49803    37625.902 
  939900    295.30504   -1532.8938    456.52548    251.04599    -362.4667    37625.902 
  940000    296.62002   -1572.0133    447.93006    209.24196   -265.42561    37625.902 
  940100     291.8615   -1543.5453    483.92723    252.31727     210.2002    37625.902 
  940200    297.99226   -1602.2181    425.43932     162.7147    -422.0198    37625.902 
  940300    298.68681   -1569.7132    472.11295    245.01534   -188.43514    37625.902 
  940400    290.03358    -1548.422    431.33425    186.63106    69.477656    37625.902 
  940500    293.63113   -1515.6156     483.9352    288.20962      303.988    37625.902 
  940600    295.92572    -1509.358    475.56606    296.41237    400.86975    37625.902 
  940700     306.3591   -1579.5082    454.15215    251.74702    607.31827    37625.902 
  940800    299.08037   -1545.8234    462.13856    260.69983    327.16866    37625.902 
  940900    291.29185   -1516.4379    487.30822    280.24513    425.01201    37625.902 
  941000    296.11285   -1540.7732     474.2697    264.54204   -199.99876    37625.902 
  941100    296.83835   -1527.3259    458.85866    265.83936   -109.03088    37625.902 
  941200    299.94487    -1557.967    435.94474    226.24841   -63.721563    37625.902 
  941300     295.2278   -1546.2776    448.25981    229.04932   -345.94239    37625.902 
  941400    297.49759   -1516.9649    452.41473    272.71982    -658.2271    37625.902 
  941500    291.33574   -1493.4409    458.74303    274.87418   -234.76966    37625.902 
  941600    304.51988    -1519.462    473.38281    322.75636   -319.39012    37625.902 
  941700    296.61599   -1560.0444    455.23314    228.49591   -71.715012    37625.902 
  941800    295.50658     -1522.69    469.02912    274.65941    372.55465    37625.902 
  941900    304.55538   -1535.7404    447.20076    280.45553    429.69021    37625.902 
  942000    292.59573   -1553.9061    475.58832    236.91806    356.76201    37625.902 
  942100    306.45355   -1515.8578     463.6836    325.35339    727.10417    37625.902 
  942200    308.39873   -1517.4651    466.45343    335.25959   -350.33444    37625.902 
  942300    298.48882   -1531.0099    470.42738    281.14313   -767.01996    37625.902 
  942400    294.27817   -1506.0738    446.01586    262.74052   -157.58938    37625.902 
  942500    298.62106   -1557.2875    455.81535    240.84789   -629.11972    37625.902 
  942600    289.10156   -1599.5368    469.76496    169.75743   -51.917122    37625.902 
  942700    310.14375   -1529.6097    454.72237    319.22791    324.91985    37625.902 
  942800     301.3431   -1470.9284    477.06123    360.68863   -150.86874    37625.902 
  942900    293.80537   -1491.5621     466.8924    296.00352   -129.59942    37625.902 
  943000    300.92343   -1457.0884    475.67982    371.26072     742.2175    37625.902 
  943100    301.87538   -1435.0404     482.0401     403.9481    742.90536    37625.902 
  943200    303.27466   -1430.7529    480.66563    413.15104    936.84914    37625.902 
  943300    300.37728   -1484.0593    461.17566    327.33072    797.15774    37625.902 
  943400    305.70028   -1474.7934    477.95511    377.30327     647.0879    37625.902 
  943500    293.73356   -1509.9976    474.46895    284.82175    160.91834    37625.902 
  943600    291.77077   -1454.6107    496.82433    353.74119    192.91818    37625.902 
  943700    293.08716    -1459.333    474.80395    332.91573   -64.303447    37625.902 
  943800    285.57204   -1501.4625    489.93163    272.13301   -782.55342    37625.902 
  943900    295.97011   -1468.2268    489.09963    351.27667   -317.22618    37625.902 
  944000     295.8763   -1482.8843    448.73121    295.82907   -78.983395    37625.902 
  944100    302.58429   -1510.8445    485.57831    334.86884   -610.62562    37625.902 
  944200    298.73149   -1502.8241      466.129    306.12137    56.764403    37625.902 
  944300    307.63166   -1511.6829    460.99001    332.13033    407.27011    37625.902 
  944400    315.00205   -1433.6872    450.54791     432.8143    643.61051    37625.902 
  944500    295.61429   -1466.5761    466.42149    328.64979     124.1589    37625.902 
  944600     309.2877   -1479.4045    462.59235    373.45509    635.34205    37625.902 
  944700    303.65522   -1459.9999    504.03341    408.98242     566.9845    37625.902 
  944800    290.52398   -1464.0061    489.47607    331.39317    415.31868    37625.902 
  944900    303.07031   -1428.9708    470.52996    403.87888    765.90992    37625.902 
  945000    291.43673   -1453.1222    478.72839    335.63217    357.30076    37625.902 
  945100    310.54365   -1529.0507    448.18429    315.04642    78.156648    37625.902 
  945200    290.28968   -1482.9035    464.74733    286.71379    316.69393    37625.902 
  945300     307.3899   -1510.3962    463.03643    334.37678    61.429914    37625.902 
  945400    304.71286   -1490.0851    478.75531    358.37331    306.79116    37625.902 
  945500    291.49672   -1490.5062    479.42507    299.21455    304.51101    37625.902 
  945600    303.38249   -1449.5311    482.32429    396.51616     24.95599    37625.902 
  945700    290.71288   -1450.5732    489.68291    345.88198   -313.50924    37625.902 
  945800    308.16456   -1458.4531    469.51717    396.28274   -401.56987    37625.902 
  945900     303.7029   -1493.9504    473.22154    344.43433   -545.63799    37625.902 
  946000    301.48765   -1488.3516    483.34435    350.19834   -489.98282    37625.902 
  946100    291.99837   -1466.7613    474.67376    320.46312   -363.43261    37625.902 
  946200    299.91934   -1504.6741    503.10251    346.58428   -493.77925    37625.902 
  946300    313.37037   -1483.0748    460.13851    385.68277     118.3903    37625.902 
  946400    303.21264   -1513.7991    474.77253    323.93295   -135.55857    37625.902 
  946500    300.39455   -1525.7916    478.82539    303.32574   -419.07983    37625.902 
  946600    289.69405   -1514.5083    434.12204    221.80635    68.570318    37625.902 
  946700    297.35199   -1502.9957    500.20342    333.82321   0.20985066    37625.902 
  946800    311.40743   -1518.5068    427.30998    308.59868   -270.29407    37625.902 
  946900    306.67808   -1508.1233     472.6665       343.08   -203.46111    37625.902 
  947000    296.54055   -1507.1243    464.22694    290.07067   -19.753779    37625.902 
  947100    301.01107   -1500.1694    486.20669    339.10059    192.92732    37625.902 
  947200    306.74817   -1481.0425     454.4349    352.24426    193.88342    37625.902 
  947300    298.09296   -1481.3226    453.49387    312.11752    374.83667    37625.902 
  947400    308.23148   -1440.9672    496.73972    441.29199    151.66304    37625.902 
  947500    302.96776   -1470.5985    477.62425    368.88454    342.70759    37625.902 
  947600    296.59027   -1483.2187    464.57276     314.5456     487.0955    37625.902 
  947700    304.59923   -1484.4834    455.10677    339.81562   -22.246669    37625.902 
  947800    302.93068   -1493.8646     504.6048     372.4323    368.68052    37625.902 
  947900    293.28495   -1478.0807    486.03045    326.28371   -189.88103    37625.902 
  948000    301.45493   -1453.6748    457.70205    359.08571   -111.00817    37625.902 
  948100     300.9512   -1468.5953    482.84827    367.04719    -196.1484    37625.902 
  948200    304.61473   -1464.8997     493.3856    397.74791   -166.44943    37625.902 
  948300    294.13552   -1481.8453    465.93408    306.24604    128.51766    37625.902 
  948400    287.36295    -1472.043    461.43668    281.10788    75.875942    37625.902 
  948500    288.04286   -1494.1233    495.03243    295.67951     4.620117    37625.902 
  948600    299.74086   -1516.1026    434.89586    266.14686    144.91732    37625.902 
  948700    303.03946   -1507.0917    490.99885    346.08815    44.533481    37625.902 
  948800    298.57378   -1485.5964    480.40519    336.91628   -131.89827    37625.902 
  948900    297.43589   -1560.0924    440.76718    217.66742   -547.42682    37625.902 
  949000    308.57707   -1504.0526    485.30995    368.33032   -19.798379    37625.902 
  949100    299.09651   -1475.8802    478.11002    346.68701    -255.3533    37625.902 
  949200    309.11307   -1486.1267     471.9955    375.35109    639.47479    37625.902 
  949300    298.25282   -1481.4694      480.363    339.55838    329.18296    37625.902 
  949400    309.57042    -1488.071    456.02324    359.49033     181.3493    37625.902 
  949500    294.92654    -1479.746    462.07228    308.03925    643.91761    37625.902 
  949600    302.04796    -1490.386    466.09702    333.43522    796.94464    37625.902 
  949700     291.5414   -1450.7089    483.31792    343.10551    704.89953    37625.902 
  949800    296.28797   -1475.0411     486.8815    343.67306    229.75611    37625.902 
  949900    311.42281   -1503.0182    466.29452    363.14107    182.65298    37625.902 
  950000    308.45258   -1497.7468    471.16856    359.93507   -355.41413    37625.902 
  950100    300.22061   -1470.0882    489.97423    369.39615   -429.58083    37625.902 
  950200    305.99255   -1442.1731    471.73627     405.0185   -216.67424    37625.902 
  950300    284.79753   -1422.3819    471.14768    328.94824    454.91596    37625.902 
  950400    293.06493   -1460.0015    468.88448    326.22786    222.27575    37625.902 
  950500    299.32557   -1474.4459    476.89815    347.93909   -105.64418    37625.902 
  950600    297.53727   -1474.4601    475.32546    338.31366     -658.121    37625.902 
  950700    312.40745   -1479.5912    459.07114    383.77065   -11.854206    37625.902 
  950800    294.71136   -1502.6234     454.8606    276.98285    299.89544    37625.902 
  950900    298.21048   -1470.3026     465.9735     336.1454   -6.4225864    37625.902 
  951000    303.76951   -1443.1176     488.3882    410.73321    139.91033    37625.902 
  951100    302.75978   -1474.9041    479.86309     365.8828    469.13607    37625.902 
  951200    298.71043   -1467.3403    454.10809    329.48962    177.93267    37625.902 
  951300    296.62348   -1445.4998    503.71205    391.55305   -206.61308    37625.902 
  951400    306.42915   -1438.3272    467.79977    406.89046   -79.872925    37625.902 
  951500    313.86265   -1457.7639    472.56248    425.63053   -149.13295    37625.902 
  951600    305.76081   -1513.9421    468.08306    328.55459    221.00038    37625.902 
  951700    297.96572   -1495.7519    481.41682    325.03912    113.49023    37625.902 
  951800    306.36205   -1481.5948    489.83589    385.35734    742.77998    37625.902 
  951900    307.84359   -1501.1433    459.52766    342.16025    271.91874    37625.902 
  952000     296.1067   -1463.2272    466.63785    334.42852    175.29284    37625.902 
  952100    306.91378   -1453.7225    499.15389    425.02769   -104.73707    37625.902 
  952200    300.03469   -1472.5331    478.07991    354.22117     -1.21144    37625.902 
  952300    295.00912   -1444.4669    466.26605    347.88332   -637.40925    37625.902 
  952400    302.59534   -1494.1627     465.3332    331.35514   -142.88776    37625.902 
  952500    296.94085    -1505.159    473.16933    302.77771    37.582895    37625.902 
  952600    307.13604   -1510.1444    465.47466    335.92564    105.25535    37625.902 
  952700    295.74816   -1514.7832    462.12335    276.74635    378.64035    37625.902 
  952800    305.65896   -1487.5856     491.5487      377.919    446.42413    37625.902 
  952900    307.67038   -1452.3957    468.98826    399.58983    43.267778    37625.902 
  953000    297.57739   -1467.6389    478.86095    348.85077   -466.77435    37625.902 
  953100    311.61631   -1468.1969    486.32909    418.86673   -438.85116    37625.902 
  953200    293.48657   -1435.0872    466.71566    350.86863    -582.9863    37625.902 
  953300     303.2099   -1508.0735    475.62988    330.50355   -492.81784    37625.902 
  953400     301.0529   -1482.7806    455.00184    325.47259   -544.28566    37625.902 
  953500    295.65726   -1491.5871    467.83746     305.2479    357.58372    37625.902 
  953600    316.48928   -1461.2368    484.84239    446.24445     113.2228    37625.902 
  953700    295.85889   -1449.7088    494.91944    375.11456     2.541858    37625.902 
  953800    289.81864    -1464.468     487.6285    325.91312    27.587425    37625.902 
  953900    301.46986    -1460.757     486.1069    380.47549    286.56544    37625.902 
  954000    305.77751   -1443.8489    460.07522    390.71504    257.96081    37625.902 
  954100    283.55417   -1488.1336    459.25327    245.71315    383.71299    37625.902 
  954200    302.58788   -1489.7156    478.48622    348.92177    282.68474    37625.902 
  954300    303.77892   -1486.2205    482.08289    361.36735   -336.36331    37625.902 
  954400    302.18064   -1469.4508    455.04981    343.91956   -406.53847    37625.902 
  954500     306.6865   -1487.5427    472.32502    363.35707    277.12652    37625.902 
  954600    304.60305   -1498.0414    447.61254    318.78057    -178.5697    37625.902 
  954700    285.34663   -1447.2323    493.68869    329.10705    427.81979    37625.902 
  954800    301.80742   -1466.0966    493.09191    383.63828    220.16904    37625.902 
  954900    295.79272   -1471.0897     463.2849    321.80166   -392.89548    37625.902 
  955000    292.35709   -1422.2471    493.19947    385.11546   -429.54799    37625.902 
  955100    296.61835   -1478.2697    462.57758    317.62556    -500.9349    37625.902 
  955200    306.32286   -1487.2804    488.73471     378.3944   -929.92519    37625.902 
  955300    300.85195   -1495.5317    479.62559    336.44195   -843.32594    37625.902 
  955400    294.92368   -1461.5126    468.17174    332.35924    -1140.335    37625.902 
  955500     292.8058   -1459.4895    485.31196    342.00258   -693.55924    37625.902 
  955600    297.53415   -1479.6516    468.33251    326.11522   -317.61639    37625.902 
  955700    290.14087   -1483.2146    466.16021    287.14666    171.34201    37625.902 
  955800    303.25121   -1507.2592    477.00138    332.87505    464.11805    37625.902 
  955900    297.65412   -1495.9464    477.00147    319.02864    379.62968    37625.902 
  956000    298.55696   -1486.3299    465.82833    321.53037    255.82445    37625.902 
  956100    303.32416   -1513.7386    488.70191    338.42407    107.25073    37625.902 
  956200    298.20331   -1520.2156    474.50909    294.73571    62.527822    37625.902 
  956300    300.22792   -1512.7305    454.01488    290.82733    8.7122736    37625.902 
  956400    299.01869   -1512.6213    463.44312    294.92923    236.28289    37625.902 
  956500    304.68336   -1511.2981    509.67378     367.9461    464.48284    37625.902 
  956600    300.64022   -1514.9215    448.57377    285.04851    114.14997    37625.902 
  956700    305.45042   -1496.6904    475.09833    351.42637    411.02969    37625.902 
  956800    312.68831   -1489.3979    477.36954    393.52483  -0.73597178    37625.902 
  956900        302.5   -1450.6929    482.56318     391.6264   -511.51431    37625.902 
  957000    304.42004   -1480.7506    483.22684    370.86304   -569.76466    37625.902 
  957100    304.47277   -1478.4353    491.11003    381.29854   -571.39635    37625.902 
  957200    298.45566   -1485.4728     454.1864    310.29011   -54.316049    37625.902 
  957300    298.54839   -1493.6473    491.71223    340.05832   -436.46594    37625.902 
  957400    308.64004   -1465.8714    459.79686    381.28145    58.714363    37625.902 
  957500    305.78854   -1500.5542    464.39972    338.38382    221.80833    37625.902 
  957600    297.69968   -1464.9288    486.59688    359.84647    532.04503    37625.902 
  957700    297.66644   -1505.4297    479.17191     311.7712    595.82537    37625.902 
  957800     301.9747   -1473.4332    504.74018    388.70181    268.30912    37625.902 
  957900    297.54698    -1503.483    478.97791    312.98688   -110.96605    37625.902 
  958000    297.93742   -1487.1883    459.49705    311.55576   -364.73118    37625.902 
  958100    304.01075   -1468.2433    490.38143    388.68518   -453.30791    37625.902 
  958200    304.81971   -1494.9135    502.13978    377.40965    94.322623    37625.902 
  958300    293.69305   -1486.3746    460.74729    294.54102    181.15199    37625.902 
  958400     307.2363    -1495.345    490.77402    376.47516    409.63986    37625.902 
  958500    290.27281   -1493.7922    463.81996     274.8219    258.00195    37625.902 
  958600    284.77036   -1528.0677    454.62967    206.62231    585.31257    37625.902 
  958700    306.63966   -1515.3855    460.37542    323.35404    610.17387    37625.902 
  958800    298.53195   -1508.7329    470.92785    304.11443    379.69304    37625.902 
  958900    288.12372   -1493.8608    463.70809    264.98112    -33.99798    37625.902 
  959000    306.75006   -1527.0487    467.89987    319.71157   -221.57217    37625.902 
  959100    295.22425    -1544.802    491.56862    273.81776   -107.22111    37625.902 
  959200    297.62862   -1528.4238    467.15647     276.5916    92.337075    37625.902 
  959300    306.52719   -1484.5032    486.17531    379.53071    336.88315    37625.902 
  959400     312.7751   -1485.1423    477.40157     398.2026    210.13754    37625.902 
  959500    289.65458   -1507.8184     462.1953    256.39209    382.52946    37625.902 
  959600    294.67137   -1501.8998     494.6933    317.35943     404.0099    37625.902 
  959700    295.91285   -1492.3157    508.27224    346.10301    3.4884666    37625.902 
  959800    302.22115   -1488.4811    483.42363     353.4452   -21.623165    37625.902 
  959900    306.25057    -1489.923    491.49503    378.18724   -42.076524    37625.902 
  960000    288.58245   -1527.1046    479.95768    250.04897   -265.92997    37625.902 
  960100    296.05892    -1493.553    479.08328    316.33329   -173.02452    37625.902 
  960200    302.67027   -1473.5748    503.24101    390.18771    301.88656    37625.902 
  960300    306.99486   -1503.0926    467.59925    344.46748    364.35883    37625.902 
  960400     297.1464   -1511.8513    460.88479    284.72488    674.36005    37625.902 
  960500    300.32965   -1488.9255    478.71175     339.7865    1023.4648    37625.902 
  960600    313.07454   -1489.7742    495.02177    412.53692    1219.4564    37625.902 
  960700    300.01954   -1508.0947    491.33739    331.84901    983.83756    37625.902 
  960800    295.33015   -1502.0552    484.11791    309.58993    3.9718089    37625.902 
  960900     305.6889   -1504.2304    458.70071    328.56068   -63.183568    37625.902 
  961000    289.95162   -1470.6905    481.62963    314.28951    89.385111    37625.902 
  961100    301.18241   -1558.4163    494.24116    289.65837   -60.530239    37625.902 
  961200    296.60623   -1533.0707    476.09018    276.28269    469.54087    37625.902 
  961300    299.38403   -1493.0937    470.99053    323.64652   -208.82261    37625.902 
  961400    299.83622   -1489.6206    497.89626    356.05788   -75.844584    37625.902 
  961500    304.83858   -1487.4929    473.91414    356.68945    391.46136    37625.902 
  961600    290.97766   -1482.1876    461.45537    287.23023   -406.73098    37625.902 
  961700    305.39447   -1520.4925    483.97084     336.2453   -370.85098    37625.902 
  961800     296.1043   -1510.8437    463.61651    283.77984    104.65617    37625.902 
  961900    296.59216   -1498.1236    507.31934    342.39573    -83.91446    37625.902 
  962000      296.847   -1525.9899    469.33503     277.6907    86.547657    37625.902 
  962100    292.76208   -1500.7945    492.38716    307.57623     75.26855    37625.902 
  962200    305.58732    -1498.243    471.39454    346.78534   -261.32953    37625.902 
  962300    302.84941   -1517.2255    477.32147    321.42267   -278.58844    37625.902 
  962400    286.79574    -1489.977    482.64671     281.8342   -15.753811    37625.902 
  962500    304.61682   -1516.6878    488.29893     340.8825   -417.13116    37625.902 
  962600    302.87027   -1508.8504    459.68967    312.25974   -360.68418    37625.902 
  962700    307.02322   -1521.8511    460.30178      318.539    -486.4987    37625.902 
  962800    295.96505   -1479.2759    484.80035    335.90558   -524.52636    37625.902 
  962900    291.10567   -1506.4732    479.79177    281.85649   -54.344694    37625.902 
  963000    308.69447   -1492.6714    493.30668    388.23598   -214.42264    37625.902 
  963100    295.07418   -1490.7148    490.03294    325.69468   -149.69942    37625.902 
  963200    312.73947   -1484.7931    493.67257     414.6626   -29.482596    37625.902 
  963300    301.57526   -1454.8547    467.63723    368.38192   -105.23499    37625.902 
  963400    307.81989   -1495.9333    478.63712    366.37311   -382.80338    37625.902 
  963500    302.90999    -1459.035    484.70427    387.26829    220.51713    37625.902 
  963600      297.712   -1511.5005    501.32124    328.05449    345.63355    37625.902 
  963700    300.17472   -1491.6556    475.59036    333.23859    455.70544    37625.902 
  963800    310.38791   -1468.4437    477.99979    404.76881    307.86968    37625.902 
  963900    310.19999   -1481.2543    484.94779    398.06152    660.17773    37625.902 
  964000    294.58064   -1501.8209    481.83186    304.16904    388.00323    37625.902 
  964100    305.48637   -1488.3273    474.29301    359.14576    446.18191    37625.902 
  964200    296.94437   -1455.3479     513.0297    392.46502    -346.4901    37625.902 
  964300    296.94833   -1461.1154    468.26298    341.94864   -592.76325    37625.902 
  964400    304.31098   -1509.5859    473.35978    331.67042   -564.80787    37625.902 
  964500    296.17326   -1456.7084     491.2811     365.8897   -418.71253    37625.902 
  964600    302.91371   -1492.8202    471.27833    340.07387   -209.74487    37625.902 
  964700    308.15086   -1461.9748    473.75622    396.93852   -612.93944    37625.902 
  964800    301.37405   -1418.6405    497.89534    433.94975   -411.31252    37625.902 
  964900    289.83761   -1453.2821    481.38718    330.94294    -776.1398    37625.902 
  965000    308.66671   -1467.2756    459.51827    379.71848   -123.19304    37625.902 
  965100    302.42963   -1470.6988    479.24735    367.98831   -79.639088    37625.902 
  965200    305.96074   -1517.6095    475.60836     333.3112   -627.26716    37625.902 
  965300    302.57556   -1536.4631    464.16959    287.80228   -488.73038    37625.902 
  965400    297.68903   -1484.7442    478.59095    331.97728   -848.25686    37625.902 
  965500    288.24839   -1497.5946    479.38995     277.4896   -781.00284    37625.902 
  965600    298.42645   -1508.5587    494.46929    327.35586     -416.147    37625.902 
  965700    303.83962   -1510.6626    497.61753     352.7327   -547.08123    37625.902 
  965800    302.40023   -1494.3955    471.32546    336.23761   -579.66248    37625.902 
  965900    296.62957   -1484.9489    470.36775    318.78709    87.054915    37625.902 
  966000    303.84238   -1468.7113    520.55504    417.63391    274.34295    37625.902 
  966100    295.30267   -1488.3139    450.74093    289.83075   -325.63335    37625.902 
  966200    290.53512   -1493.6242    492.21273     304.5618    45.580202    37625.902 
  966300    309.42902   -1543.3466    478.50365    326.05953    539.38912    37625.902 
  966400    296.59332   -1519.8809    475.33884    288.66316    554.36121    37625.902 
  966500    298.51938   -1538.2824    487.87678    291.45736    541.56083    37625.902 
  966600    300.44605   -1528.7711    475.16917    296.92154    -235.6621    37625.902 
  966700    300.54941   -1478.2864    447.47886    320.18058    154.74365    37625.902 
  966800    296.64478   -1493.8584    507.59943    347.17756    -532.5152    37625.902 
  966900    298.69621   -1545.1081    466.92596    264.47576    -582.0163    37625.902 
  967000    299.55893   -1513.8628    480.56741    313.24044   -513.30343    37625.902 
  967100    306.89911   -1527.3025    476.30931    328.53719   -611.74343    37625.902 
  967200    300.92937   -1522.8254    463.84917    293.71978    -384.5547    37625.902 
  967300    293.37231   -1504.5187    461.80194     276.0099   -738.14357    37625.902 
  967400    297.68255   -1481.0952    481.10937    338.11554   -140.94413    37625.902 
  967500    295.10616   -1529.7579    493.53433    290.29673   -49.797773    37625.902 
  967600    304.61755   -1539.4122    460.48919    290.35159    280.32229    37625.902 
  967700    294.11068   -1530.9512    453.93047    245.02484   -171.10356    37625.902 
  967800    296.24912   -1502.1942    469.69976    299.16362   -677.08421    37625.902 
  967900    306.34623   -1546.7753    460.62656    290.89643   -323.09319    37625.902 
  968000    298.65884   -1516.3535    475.95753    302.09391   -170.62799    37625.902 
  968100    297.19802   -1525.6182    452.86242    263.16765   -323.23873    37625.902 
  968200    291.94517   -1508.3182    460.38848    264.38176   -184.56108    37625.902 
  968300    299.52903   -1512.8151     477.5025    311.08885    88.379097    37625.902 
  968400    299.58337   -1529.8531    483.30617     300.0988    282.04935    37625.902 
  968500    291.15953   -1474.0629    485.06469    319.78182    675.08949    37625.902 
  968600    293.29334   -1454.6208    475.43849    339.18934   -7.2477247    37625.902 
  968700    298.53565   -1457.9325    470.17487    354.17843   -399.63507    37625.902 
  968800    308.46962   -1531.3174     450.3325    305.60505   -302.42112    37625.902 
  968900    299.28151   -1488.3971    495.30385    352.19551   -514.95103    37625.902 
  969000     291.3635   -1456.4137    484.03832    337.32148   -100.90413    37625.902 
  969100     307.8644   -1445.3671    488.39106    426.89341     233.1314    37625.902 
  969200    288.66464     -1450.58    500.90137    347.88669    629.84247    37625.902 
  969300    302.60639   -1484.6989    456.67343    332.20889     302.0053    37625.902 
  969400    301.16908    -1515.601    470.34796    308.52055   -332.18144    37625.902 
  969500    297.46603   -1486.5064    507.13297    357.75473    45.509888    37625.902 
  969600    305.06958   -1473.6775    462.91409    360.54315    18.041361    37625.902 
  969700    301.24271   -1491.4086    470.06829    332.76428   -91.046183    37625.902 
  969800    292.19891   -1497.7641    495.90215    311.59014    85.239475    37625.902 
  969900    289.14295   -1458.1705    470.98023    312.52508   -305.56127    37625.902 
  970000    289.18958    -1524.785    492.62274    267.76274    147.86391    37625.902 
  970100     298.6239   -1531.9995     458.6686    269.00192    158.44193    37625.902 
  970200    302.92707   -1497.4672    476.57075    340.77937   -94.234534    37625.902 
  970300    301.39225   -1514.0908    483.28839    323.97428   -815.70403    37625.902 
  970400    312.48808   -1506.0121    459.13861    357.77968   -664.94833    37625.902 
  970500    310.33424    -1495.222    465.82458    365.57413   -512.79561    37625.902 
  970600    301.18007   -1481.2157    482.90702    355.51426    -550.8098    37625.902 
  970700    312.38148   -1489.4451    468.08398    382.81285   -471.88046    37625.902 
  970800    308.47726   -1424.6674    472.23149    434.18841   -670.13136    37625.902 
  970900    306.56272   -1436.2743    482.52169    424.26569   -512.96875    37625.902 
  971000    305.98051   -1457.6608    492.83718    410.57757   -182.41272    37625.902 
  971100     309.3173   -1417.2453    491.09179    464.24678   -265.98495    37625.902 
  971200    292.80976   -1479.2055    496.73542    333.72779    56.012821    37625.902 
  971300    303.79004   -1501.3373    476.71871     340.9363     325.8512    37625.902 
  971400    292.06292   -1512.3996    466.87554    267.31679    242.49025    37625.902 
  971500    293.17053   -1475.2955    496.25482    338.77892   -257.25797    37625.902 
  971600    301.76708    -1491.386    459.46615    324.54169   -60.394484    37625.902 
  971700    294.25536   -1492.8644    506.45986    336.29143   -128.34538    37625.902 
  971800    307.88416   -1475.0471     483.2617    392.17283    236.01195    37625.902 
  971900    296.53723   -1487.1246    461.13066    306.95911    35.016264    37625.902 
  972000    300.12499   -1430.9182    493.47042    411.63253   -357.12718    37625.902 
  972100    302.28598   -1428.8236     471.8488    401.81926    91.352797    37625.902 
  972200     305.9519   -1426.0611    473.58962    422.80118    146.27182    37625.902 
  972300    305.71566   -1467.0514    470.27447     377.4338    246.45298    37625.902 
  972400    307.77239   -1461.1883    477.75676    400.02432    -85.09332    37625.902 
  972500     305.4754    -1446.131    477.70931    404.70908   -482.07131    37625.902 
  972600    293.59068   -1457.5601    472.25646    334.40457   -204.00794    37625.902 
  972700     312.4783   -1510.9864    480.33972    373.96249    23.082001    37625.902 
  972800    305.53283   -1478.9404    484.08675    378.53529    237.53374    37625.902 
  972900    303.62738   -1482.7919    460.33276    342.36463   -133.43368    37625.902 
  973000    308.94448   -1511.2034    462.93933    340.46043    275.19095    37625.902 
  973100    308.71109   -1490.6155    479.67132    376.73123    395.72578    37625.902 
  973200    308.19252   -1469.9111    452.27718    367.71043   -201.21672    37625.902 
  973300    295.19317   -1484.3717    451.33692    293.87668   -695.19614    37625.902 
  973400    301.67675   -1488.4284    467.67712    335.30432     -534.032    37625.902 
  973500    308.69842    -1494.068    473.12059    366.67094   -132.16779    37625.902 
  973600    294.81931   -1457.6725    499.68137    367.23978     292.8455    37625.902 
  973700    316.45935   -1455.2628    470.29027    437.53174   -380.78385    37625.902 
  973800    301.87482   -1462.7222     463.6161    357.83978   -83.674697    37625.902 
  973900    292.18865   -1426.0083    509.67949    397.07719    308.12969    37625.902 
  974000    297.69599   -1442.2917    463.96613    359.83618   -356.26308    37625.902 
  974100    306.79489   -1460.0209    476.27588    395.31691    212.88087    37625.902 
  974200    290.47294   -1464.6397    475.15031    316.20433    91.678861    37625.902 
  974300    300.83448   -1495.5728    457.71975    314.41648    131.80776    37625.902 
  974400    299.42508   -1512.3542    485.71279    319.29272     284.0329    37625.902 
  974500    294.73665   -1462.3796    475.30739    337.78722   -602.07482    37625.902 
  974600    307.33418   -1463.2373    441.49237    359.74109    -289.8667    37625.902 
  974700     302.2447   -1429.8012    490.57636     419.3837   -900.78807    37625.902 
  974800    304.72814   -1473.1135    462.33578    358.99398   -519.87016    37625.902 
  974900    299.01077   -1499.2274    461.74172    306.58618   -646.95988    37625.902 
  975000    294.79078   -1482.8507    466.95505      309.207    63.329261    37625.902 
  975100    306.60831   -1461.2731    465.76614    382.71627   -69.700249    37625.902 
  975200    312.71065   -1485.1713    479.26928    399.75159   -4.4496418    37625.902 
  975300    306.71771   -1469.7822    482.06657     390.9993   -76.297069    37625.902 
  975400    304.27203   -1474.4378    468.81988    362.10356    7.8797499    37625.902 
  975500    303.13532   -1465.8568    472.66374    369.41884    177.13621    37625.902 
  975600    297.60771   -1474.4295    462.23668    325.57219   -210.67692    37625.902 
  975700    294.70112   -1435.3591    480.02078    369.36132    -395.1922    37625.902 
  975800    297.99892   -1503.3647    458.49438    294.65313   -126.82522    37625.902 
  975900    307.53031   -1442.5388     474.5207    414.34952    -60.14687    37625.902 
  976000    302.12782   -1481.3159    487.73145    364.49868   -218.58932    37625.902 
  976100     293.6455   -1476.8649    474.55778    317.64748    487.33507    37625.902 
  976200    314.76292   -1512.8593    456.97679    358.99615    488.86168    37625.902 
  976300    298.85106   -1474.8555    507.30611    375.80451    605.10756    37625.902 
  976400    293.03677   -1455.9109    476.67273    337.98019    401.45972    37625.902 
  976500    302.12223   -1501.0661    484.99979    341.99172    345.38365    37625.902 
  976600    311.39837   -1493.6476       487.48    393.58727    594.60998    37625.902 
  976700    295.67128   -1449.0418    469.61199    349.63076     44.05731    37625.902 
  976800    292.12971   -1452.2098    490.34642    351.27761   -498.21121    37625.902 
  976900    293.65416   -1415.3704    511.07928    415.70237   -114.77937    37625.902 
  977000      301.477   -1431.6719    473.30211    396.78792   -534.88033    37625.902 
  977100    292.44645   -1466.1978    478.19628     326.5633   -421.91339    37625.902 
  977200     298.3014    -1462.627    475.63821    353.89439   -104.76641    37625.902 
  977300    304.76656   -1487.1726    478.53319    361.30504    -222.8329    37625.902 
  977400    307.53807   -1480.3523    482.44832    384.49858   -441.86011    37625.902 
  977500    297.62291   -1466.5337    484.46681    355.76643   -573.84755    37625.902 
  977600    300.25673   -1486.2989    473.78326    337.15681    111.22811    37625.902 
  977700    291.40529   -1504.8703    466.22974    271.24418   -276.53381    37625.902 
  977800    289.19244   -1551.2134    457.16254    205.88698   -268.38025    37625.902 
  977900    307.00967   -1529.5083    474.36447    324.88357    18.614877    37625.902 
  978000    292.85236   -1533.5644    429.64197    212.46694    69.169811    37625.902 
  978100     298.9683   -1491.4852    483.17398    335.56969   -362.86324    37625.902 
  978200    292.68931   -1502.5251    473.29995    286.43132   -255.30878    37625.902 
  978300    296.26064   -1495.7865    459.99449    295.91784   -404.46539    37625.902 
  978400    307.23389   -1513.2144    481.83701     349.6579   -725.57481    37625.902 
  978500    296.45656   -1494.2161    470.13758    308.51198   -722.44797    37625.902 
  978600    296.30372   -1486.4069    470.29202    315.78863   -985.91101    37625.902 
  978700    299.33035   -1522.4655    475.08829    298.13118   -638.04004    37625.902 
  978800    295.81562   -1503.6777    479.13322    305.16495   -416.09084    37625.902 
  978900    303.68455   -1508.6655     472.6761    329.09132    -541.0167    37625.902 
  979000    308.67569   -1473.9656    475.59896    389.14957   -25.159323    37625.902 
  979100    300.49143   -1477.0281    484.52993    358.22928   -981.08016    37625.902 
  979200    307.02266   -1479.8562    470.93243    371.16199   -617.92086    37625.902 
  979300    311.96996   -1457.6965    473.65837    418.28607   -804.14388    37625.902 
  979400    304.03633    -1462.508    488.81514     392.9692   -647.30731    37625.902 
  979500    297.28071   -1474.4901    469.46612    331.27114   -424.18222    37625.902 
  979600    287.76454   -1512.1583    473.12521    254.48617   -261.96213    37625.902 
  979700    303.45763   -1486.2446    467.26194    345.07805   -287.03156    37625.902 
  979800    305.33002   -1507.5889    468.08455    332.97284    -27.06531    37625.902 
  979900    302.38541   -1477.5311    503.15089    384.86085   -619.78104    37625.902 
  980000    298.11474   -1498.4218    456.25324    297.87553    -669.6404    37625.902 
  980100    300.94206   -1503.5515    456.27879    305.48034   -706.21073    37625.902 
  980200    289.55883   -1511.0024    476.59968    267.18203   -670.64488    37625.902 
  980300    304.26588   -1513.5602    460.56382    314.69745    -394.6599    37625.902 
  980400    292.22705   -1529.6193    459.38161    243.34092     308.2279    37625.902 
  980500    300.79781   -1482.0846    485.36204    355.38212    636.80465    37625.902 
  980600    295.51525   -1510.4343     455.7178    273.64276   -46.103142    37625.902 
  980700    299.83231   -1513.4707    473.79866    308.09264    171.61252    37625.902 
  980800    310.82501   -1505.9936    481.60834    372.79231   -35.817251    37625.902 
  980900    312.38163   -1547.0869    452.80836    309.89611   -419.00434    37625.902 
  981000    302.05141   -1548.4897    474.34369    283.59368   -188.20612    37625.902 
  981100    301.01766    -1496.819     464.3471      320.621   -156.71671    37625.902 
  981200    305.05438   -1511.7168    441.54303    301.06441   -212.53612    37625.902 
  981300    304.38938   -1491.3867    499.31977    376.18212   -860.05827    37625.902 
  981400    296.30211   -1510.7316     437.4169    258.58154   -389.87158    37625.902 
  981500    292.57641   -1512.8615    491.71457    294.00202   -510.72308    37625.902 
  981600    292.39234   -1503.4691    487.13197     297.9844    193.25398    37625.902 
  981700    311.16773   -1511.8786     472.9026    359.74204   -54.238872    37625.902 
  981800    299.04338   -1557.8673    471.93543    258.28657   -301.88791    37625.902 
  981900     287.8607   -1512.4458    478.38222      259.888   -391.83747    37625.902 
  982000    298.40076   -1552.8082    475.77978    264.30139   -308.48138    37625.902 
  982100    308.31761   -1499.0199    468.85196    355.73871    49.563376    37625.902 
  982200    296.78658   -1501.2322    474.11067     306.9524    -124.0245    37625.902 
  982300     302.3749   -1504.9606     469.8101    324.04327   -37.449607    37625.902 
  982400    295.45469   -1528.2813    478.94995    278.75571    -156.6381    37625.902 
  982500    305.03399   -1524.5978    474.30288    320.85168   -493.34942    37625.902 
  982600    302.71643   -1509.8157    446.46048    297.37373   -420.42651    37625.902 
  982700    298.87009    -1543.811    455.40304    255.03147   -802.38644    37625.902 
  982800    297.90152    -1511.393    471.18946    298.88215   -231.03882    37625.902 
  982900    299.60822   -1544.7421    474.25942    276.27472     187.8913    37625.902 
  983000    298.95647   -1534.3696    478.10753    287.56565   -77.418989    37625.902 
  983100       298.64   -1552.2893    469.91021    260.02611    60.690729    37625.902 
  983200    308.48524   -1511.0565    490.07497    365.67867    489.80191    37625.902 
  983300     306.2535    -1517.491    457.75739    316.89471    863.69571    37625.902 
  983400    298.60359    -1542.485    462.60953     262.3661    1072.4514    37625.902 
  983500    305.68424   -1548.1701    456.16819    282.06753    864.28939    37625.902 
  983600    293.49053   -1530.5682    461.72835    250.41813    709.24895    37625.902 
  983700     303.5372   -1534.2173    482.91774    313.11877    619.44063    37625.902 
  983800    301.57486   -1510.8528    497.51711    342.26183     475.1061    37625.902 
  983900    295.68905   -1463.2616    482.98218    348.86107    464.72312    37625.902 
  984000    298.22887   -1534.5202    450.46358    256.50052    429.33795    37625.902 
  984100    299.15619   -1513.4537    499.07223    330.34404    581.74056    37625.902 
  984200    300.97709    -1519.328    472.74993    306.33251   -50.035798    37625.902 
  984300    288.35935   -1503.3125    480.19617    273.07671   -330.75546    37625.902 
  984400    294.84633   -1525.5045    461.51358    261.36149   -346.03292    37625.902 
  984500    295.39099   -1505.3504    478.09881    300.54906     169.7288    37625.902 
  984600    304.73019   -1531.1991    482.14964    320.73149   -159.99381    37625.902 
  984700    297.46557   -1520.1796    469.45388    286.40034   -486.53959    37625.902 
  984800     287.6988   -1522.0674    486.34942     257.5058    175.53727    37625.902 
  984900    295.44133   -1487.9372    457.08629    297.17607   -261.54005    37625.902 
  985000    298.04246   -1536.2344    467.08662    270.57142    51.378039    37625.902 
  985100    299.82867   -1492.3286    480.43232    335.85202   -287.22042    37625.902 
  985200    291.52081   -1499.8952    495.08631    305.59506   -601.89803    37625.902 
  985300    307.70304   -1516.9485    470.68648    336.88205   -451.20309    37625.902 
  985400    297.71832   -1488.0297    479.95038    330.18287   -204.23501    37625.902 
  985500    306.09314   -1514.2338    484.07347     345.7472     171.1819    37625.902 
  985600    312.54639   -1525.2169    463.86178    343.56014    88.260061    37625.902 
  985700     300.3719   -1535.4248    473.78797    288.55332    754.06472    37625.902 
  985800    302.94432    -1540.866    477.01199    297.89934    395.62189    37625.902 
  985900    301.66653   -1483.5636    510.34438    382.79034    186.58751    37625.902 
  986000    311.05521    -1484.215    469.53983    383.53715    487.55989    37625.902 
  986100    292.21029   -1481.6748    506.30113     338.1296    179.13114    37625.902 
  986200    300.87758   -1481.0552    484.56723    355.97525   -61.196221    37625.902 
  986300      300.209   -1493.2793    487.89012    344.06878   -258.32606    37625.902 
  986400     301.9476    -1473.189    481.66382    365.74782   -260.88831    37625.902 
  986500    297.12571    -1460.523    501.14604    376.22141    111.46813    37625.902 
  986600    308.48338    -1454.924    472.10787    403.83568    17.365012    37625.902 
  986700    291.37814   -1462.3753    500.69593    348.08333    58.502026    37625.902 
  986800    299.37911   -1478.4586    510.35222    377.62111    52.458508    37625.902 
  986900    297.12911   -1517.4679    465.01711    283.16289    245.05288    37625.902 
  987000    312.10574   -1481.4772     476.3282    397.78551   -56.770606    37625.902 
  987100     303.1695   -1468.4512    456.05673    350.37106   -482.33806    37625.902 
  987200    296.02288   -1456.6459    481.62491    355.62002    78.493786    37625.902 
  987300    304.27095   -1491.1712    468.16339    344.70885   -8.5577994    37625.902 
  987400    288.82214   -1465.8503    485.23177    317.65476   -122.67688    37625.902 
  987500    304.10702    -1492.151    469.62601    344.45481   -280.34958    37625.902 
  987600     289.1291   -1482.4318    470.14569    287.36695   -352.56762    37625.902 
  987700     308.0629   -1473.8393     497.9827    408.90506    20.016296    37625.902 
  987800    299.18198   -1524.7128    482.59003    302.71868    413.07956    37625.902 
  987900      299.785   -1469.6611    497.37537    375.26628    436.16248    37625.902 
  988000    305.55952   -1485.3097    490.75131    378.95049    63.281179    37625.902 
  988100    297.84941   -1521.0043    456.72093    274.56804    135.96626    37625.902 
  988200    289.71376   -1498.1844    532.09821    336.19499     88.04414    37625.902 
  988300    296.80799   -1521.0211    467.38429    280.53339    138.24971    37625.902 
  988400    299.99022   -1527.8516    492.97273    313.59569   -94.306334    37625.902 
  988500    303.52162   -1523.1714    484.90118    326.07818   -452.13233    37625.902 
  988600    299.20672   -1515.0389    458.78307    288.69678   -415.06545    37625.902 
  988700    301.51895   -1487.6796    490.68829     358.3549   -353.79101    37625.902 
  988800    297.84111   -1495.1361    488.50606    332.18411   -155.26128    37625.902 
  988900    294.21787   -1502.6322    490.90286    310.79813   -362.38035    37625.902 
  989000    302.61894   -1486.9797    494.94519    368.25623    -77.35375    37625.902 
  989100    302.62964   -1504.0446    478.86393    335.15817   -267.56881    37625.902 
  989200    302.15321   -1482.2326    514.08196    390.04662   -414.53354    37625.902 
  989300    299.36609   -1450.2652    489.34664    384.75047   -595.91885    37625.902 
  989400    297.53744   -1499.1222    477.83976    316.16669   -512.89798    37625.902 
  989500    298.28559   -1491.9558    484.17744    333.03369   -504.09862    37625.902 
  989600    309.37807   -1476.7943    458.90381    372.78299    167.99866    37625.902 
  989700    296.36253   -1462.9954    494.47415    363.64652    460.80456    37625.902 
  989800    307.75044   -1452.8717    480.18956    410.67499   -110.70391    37625.902 
  989900    308.56143   -1441.7126    479.14294    424.43296    488.92998    37625.902 
  990000    308.59177   -1483.2433    472.30476    376.20045    278.42116    37625.902 
  990100    306.99976   -1495.7701    489.86206    374.07474     424.2401    37625.902 
  990200    305.65548   -1482.8002    475.09586    366.23579    681.35194    37625.902 
  990300    299.32224    -1479.479    480.54465    346.53752    474.05965    37625.902 
  990400    302.32849   -1516.1317    487.90291    330.75633     812.0008    37625.902 
  990500    291.89143   -1471.9535    458.98392     299.1003    270.09942    37625.902 
  990600    299.64346   -1519.9224    480.42386    307.41728     292.8726    37625.902 
  990700    313.13532   -1527.7651    465.56186    345.35937    634.42196    37625.902 
  990800    311.31179   -1524.8656    484.03732    358.53738     1158.921    37625.902 
  990900    302.63194   -1555.6206    464.24207     268.9707    1093.0111    37625.902 
  991000    305.76981    -1509.433    476.65939    341.68051    526.45918    37625.902 
  991100    309.18008   -1561.5377    467.52135    295.76712    356.54238    37625.902 
  991200    291.55159   -1522.8886    479.42464    267.07834     30.36136    37625.902 
  991300    298.05583   -1532.5819    483.17978    290.37718    129.14028    37625.902 
  991400    291.72396   -1512.4089    468.29549    267.20379     19.40853    37625.902 
  991500    309.69736   -1470.0462    469.99154    392.05406    46.298516    37625.902 
  991600    302.48202   -1503.8193    502.71138    358.56734    534.51002    37625.902 
  991700    294.66806   -1499.6407    466.68321    291.59356    271.19609    37625.902 
  991800    291.34827   -1522.4109    472.46673    259.68428   -35.295778    37625.902 
  991900    287.12004   -1496.7766     461.9857    255.83141    297.03603    37625.902 
  992000    293.51835   -1513.5565    461.42386    267.25045   -298.14072    37625.902 
  992100    297.64239   -1514.6545    469.95544    293.22182   -389.61094    37625.902 
  992200    301.98045   -1541.2133    475.84458    292.05203   -396.59604    37625.902 
  992300     296.7467   -1552.4916    455.75895    237.16209   -102.26115    37625.902 
  992400     287.9255   -1569.7537    476.26724    200.75645   -284.96108    37625.902 
  992500    302.78181   -1542.3722    451.17415    269.82484    -62.29913    37625.902 
  992600    300.62298   -1563.4744    485.59228    273.43672   -415.55674    37625.902 
  992700    288.01841    -1532.672    478.60218    240.59066   -152.24602    37625.902 
  992800     300.8313   -1525.3613     501.6071    328.50102    144.48973    37625.902 
  992900    311.42324   -1543.4226    459.32092    315.76496    129.88049    37625.902 
  993000    297.24323   -1547.5884    458.81484    247.35303   -7.2839911    37625.902 
  993100    299.93765   -1577.3315    479.52125    250.42801    410.75048    37625.902 
  993200    285.67735   -1544.8378    481.30649    220.60595    143.28889    37625.902 
  993300    305.47745   -1511.4137     472.8106    334.53689    438.36959    37625.902 
  993400    306.51614   -1502.5936    472.67038     347.8857    164.56824    37625.902 
  993500    299.58303   -1542.8722    470.61876    274.39074    155.65497    37625.902 
  993600    299.26878   -1512.5652    483.72641    316.39285   -180.26803    37625.902 
  993700     306.6847   -1519.8211    484.72046      343.466    80.080262    37625.902 
  993800    297.72754   -1570.3068    485.90472    253.90159   -667.68111    37625.902 
  993900    295.75501   -1517.2455    488.01122    300.20267   -296.65257    37625.902 
  994000     290.8919   -1514.1399    456.12465    249.56179   -205.36467    37625.902 
  994100    288.21116   -1514.7945    486.01547    266.74785   -122.58844    37625.902 
  994200    298.34861   -1543.8312    488.55329    285.81746    219.84283    37625.902 
  994300    297.79466   -1542.2489    481.28456    277.64093   -162.22908    37625.902 
  994400    297.23342   -1543.3408     487.3895    280.13117   -147.32738    37625.902 
  994500    297.00207   -1521.9464    472.82501    285.92115   -520.45859    37625.902 
  994600    304.00951   -1483.1758    483.29662    366.66233   -469.01268    37625.902 
  994700    295.96424    -1504.579    486.50264    312.30113    36.456091    37625.902 
  994800    300.57173   -1499.0045    496.38022    348.46414   -463.12343    37625.902 
  994900    299.61382   -1529.9191     476.8312    293.69461   -229.05776    37625.902 
  995000    305.69665   -1536.9347    491.73124    328.92179    1037.2689    37625.902 
  995100    288.09729   -1483.9819     490.0079    301.04111    1165.7838    37625.902 
  995200    300.01918   -1466.2436    495.24055    377.60165    617.12771    37625.902 
  995300    298.74153   -1501.9369    470.16101    311.08565    520.53578    37625.902 
  995400     294.1337   -1531.6101    488.15811    278.69715    119.00318    37625.902 
  995500    302.54265   -1520.5295    482.27885    321.69722   -21.629481    37625.902 
  995600    288.74638   -1570.9319    495.07989    222.08071   -99.205553    37625.902 
  995700    298.79829   -1537.2344    459.30996    265.19229    147.49467    37625.902 
  995800    298.51867   -1556.6878    473.55813    258.73009    321.90669    37625.902 
  995900    295.55335   -1513.6156     453.0072    267.92207    477.54223    37625.902 
  996000    300.08172   -1569.2217    494.93834    274.60245    562.29354    37625.902 
  996100    302.70683   -1528.4309    466.00088    298.25578    666.33899    37625.902 
  996200    297.17234   -1547.4568    496.36424    284.71541    12.069641    37625.902 
  996300    305.95386    -1521.431    469.52065    323.37111   -128.53839    37625.902 
  996400    302.73453   -1532.6534    465.57862    293.73555     170.5112    37625.902 
  996500    297.81945   -1512.1595    512.56641    339.12367     -121.841    37625.902 
  996600    306.40427   -1520.0433    480.88662    338.14937   -76.365955    37625.902 
  996700    302.30886   -1553.8941    471.02138    276.02417    240.42286    37625.902 
  996800    295.22976   -1548.3198     507.0202    285.77639    341.80807    37625.902 
  996900    298.50247    -1493.615    480.70757    328.87956    28.347333    37625.902 
  997000    305.70843   -1529.3948    467.55389    312.33732    88.253918    37625.902 
  997100    297.02133   -1526.4583    487.81316    296.48398   -332.20423    37625.902 
  997200    306.62097   -1539.0546    489.89082     329.1163   -278.43295    37625.902 
  997300    298.46273   -1515.8218    487.27873     313.0653   -499.89361    37625.902 
  997400    301.04917   -1517.5284    481.66651    317.37266    -949.7188    37625.902 
  997500    303.41348   -1549.2974    457.81218    272.37702   -709.67984    37625.902 
  997600    299.06982   -1517.2464    475.83431    302.92512   -1038.8041    37625.902 
  997700    298.95988   -1493.2699    491.42605    341.99922   -691.52504    37625.902 
  997800    303.66341   -1518.2714    498.28845    345.00277   -533.51237    37625.902 
  997900    298.31286   -1536.4629    499.97198    304.44375   -550.41496    37625.902 
  998000    296.13936    -1512.741    498.55891    316.98257    78.652201    37625.902 
  998100    295.66958   -1544.7105    499.58741    283.92991    251.58027    37625.902 
  998200      296.163   -1539.7212     471.4584    263.00812    262.57236    37625.902 
  998300    294.40599    -1555.243    449.84438    217.97441    -738.5643    37625.902 
  998400    297.02403   -1522.4979    472.26574    284.90915   -216.11986    37625.902 
  998500    300.93783    -1524.642    473.06678    301.15885   -46.701022    37625.902 
  998600    296.87473   -1554.5876     481.0967    260.97924    358.82207    37625.902 
  998700    298.46783   -1545.6184    483.70814    279.72105    575.31277    37625.902 
  998800    293.40468   -1560.1984    478.43233    237.10606   -2.6398023    37625.902 
  998900     291.5162   -1508.1894    479.37158    281.56546    583.22825    37625.902 
  999000    299.24308   -1574.0094    470.25866    241.36529    233.99284    37625.902 
  999100    303.15563   -1538.7264    480.63957    304.61641    29.923309    37625.902 
  999200    299.77834   -1501.4019    496.37728    342.49749   -11.198981    37625.902 
  999300    299.20583   -1542.7599    481.67126    283.85995    -209.9911    37625.902 
  999400    289.28933   -1528.3719    494.27156    266.27304   -52.344843    37625.902 
  999500    292.57024   -1517.7903    471.56305    268.89402    48.989015    37625.902 
  999600     299.2237   -1498.1222    447.62177    294.52853    47.555873    37625.902 
  999700    303.42832   -1512.4663    504.68814    356.15079    422.11742    37625.902 
  999800    288.25321   -1540.7291    460.30728    215.29407    462.99643    37625.902 
  999900    292.09596    -1503.488    479.55061     289.0519    69.739732    37625.902 
 1000000    300.77772   -1501.5715    477.61407    328.05695    293.11076    37625.902 
 1000100    291.15643    -1500.918      491.604    299.45206   -61.498777    37625.902 
 1000200    306.67516   -1495.2891    472.97599    356.21059    -44.18862    37625.902 
 1000300    302.91989   -1489.4425    473.99463    346.19569    276.95964    37625.902 
 1000400    300.69178   -1481.0858    483.97532    354.51759     50.79005    37625.902 
 1000500    291.26877   -1497.5158    460.91596    272.67121    -752.2874    37625.902 
 1000600    301.15478     -1495.58    479.40969    337.53892   -601.53908    37625.902 
 1000700     309.2701   -1464.6976    491.98064    417.47112   -26.817634    37625.902 
 1000800     289.8589   -1518.0287    497.08756    281.99243     18.09803    37625.902 
 1000900    301.49354   -1536.6654    494.88594    313.45258    134.58937    37625.902 
 1001000    295.25967   -1506.7848    485.16787    305.59341    253.34058    37625.902 
 1001100    299.71082   -1523.8607    493.95813    317.31605     141.6764    37625.902 
 1001200    294.07505   -1559.2604    470.33506    232.96011    52.950548    37625.902 
 1001300    296.96562   -1535.9073    467.05718     266.0286   -182.94947    37625.902 
 1001400    301.50445   -1549.6466    472.60171     278.2362    142.65672    37625.902 
 1001500    305.32846   -1554.6986    486.39424    304.16581    88.417675    37625.902 
 1001600    288.89551   -1512.1378    476.36158    262.82689    212.27817    37625.902 
 1001700    306.54865   -1527.1157    482.89099    333.73029    -229.2965    37625.902 
 1001800    299.38797   -1546.1679    470.01171    269.61118    87.846301    37625.902 
 1001900    304.21841   -1541.3903    480.29314    306.38328    77.464209    37625.902 
 1002000     295.9291   -1538.3578    478.64324    270.50494    92.607813    37625.902 
 1002100    301.43292   -1513.4446    520.54526    362.06022   -7.6963112    37625.902 
 1002200    304.51498   -1488.7126    486.25546    366.35645   -306.41082    37625.902 
 1002300      301.285   -1513.9075    469.25171    309.63884   -314.41131    37625.902 
 1002400    306.78681   -1566.3595    478.50233    291.16847   -426.51242    37625.902 
 1002500    314.62427    -1559.665     467.7047    322.29512    57.611251    37625.902 
 1002600    306.76708   -1545.7105    474.71316    307.93957    -376.3336    37625.902 
 1002700    298.61689   -1567.3272    452.84147    227.81558    -3.952088    37625.902 
 1002800    301.25274   -1540.3307    492.97134    306.79025    -216.6242    37625.902 
 1002900    302.43854   -1523.5604    451.24878     287.1682    21.674833    37625.902 
 1003000     305.1119   -1535.3984    466.63185    302.73025    281.74084    37625.902 
 1003100    298.87472   -1548.1456    478.85943    274.17403   -115.67118    37625.902 
 1003200    294.88615   -1578.9062    460.47005    207.09522    260.16279    37625.902 
 1003300    300.55484   -1565.9128    479.28324    264.38293    348.20849    37625.902 
 1003400    299.09743   -1545.0516    472.81595    272.22571    257.11405    37625.902 
 1003500    300.40432   -1540.9816    489.55264    298.90692    457.26458    37625.902 
 1003600    298.62128   -1497.3796    489.81444     334.7559    262.70581    37625.902 
 1003700      302.122   -1544.2973    485.30299    299.06266    289.32447    37625.902 
 1003800    306.89879   -1562.2359    481.57965    298.87269   -340.76984    37625.902 
 1003900     306.0169   -1507.4677    504.15881    372.25595   -276.41726    37625.902 
 1004000    295.28693   -1499.4509    498.71888    326.60086   -551.76067    37625.902 
 1004100    301.08876   -1513.8791    476.46601    315.99938   -366.47502    37625.902 
 1004200    297.26021   -1500.4716    515.14521    350.87657   -200.78227    37625.902 
 1004300    297.60063   -1574.5081    479.65687    242.88191   -409.20407    37625.902 
 1004400    305.41921   -1525.6579    503.83708    351.05732   -219.97509    37625.902 
 1004500    300.65985   -1535.7073    464.48974      280.267   -201.81622    37625.902 
 1004600    304.62217   -1545.0686     508.1945    332.42131    370.71179    37625.902 
 1004700    301.50137   -1559.4667    462.32386    258.12441    69.431459    37625.902 
 1004800    304.09281   -1527.1182    508.08474    347.88245     59.66444    37625.902 
 1004900    309.93546   -1522.3643    485.03289    355.84753    240.16952    37625.902 
 1005000    300.17197   -1528.8615    481.70381     302.1338   -669.97107    37625.902 
 1005100    299.17162   -1533.3768    477.28266     288.7007   -469.49772    37625.902 
 1005200    304.00366   -1526.6458     499.0663    338.93563   -730.76325    37625.902 
 1005300    302.74256   -1503.6364    504.18986    361.39993   -307.75111    37625.902 
 1005302    293.43203    -1496.174    500.95828    323.77936    126.97307    37625.902 
Loop time of 599.312 on 32 procs for 1000000 steps with 1509 atoms

Performance: 144.165 ns/day, 0.166 hours/ns, 1668.580 timesteps/s
100.0% CPU use with 32 MPI tasks x no OpenMP threads

MPI task timing breakdown:
Section |  min time  |  avg time  |  max time  |%varavg| %total
---------------------------------------------------------------
Pair    | 252.38     | 274.43     | 304.74     |  78.7 | 45.79
Bond    | 1.4222     | 1.5249     | 1.6222     |   4.0 |  0.25
Neigh   | 38.872     | 38.963     | 39.043     |   1.0 |  6.50
Comm    | 241.9      | 272.23     | 293.67     |  78.7 | 45.42
Output  | 0.38705    | 0.4048     | 0.88554    |  13.6 |  0.07
Modify  | 8.7593     | 8.9997     | 9.2587     |   4.7 |  1.50
Other   |            | 2.762      |            |       |  0.46

Nlocal:        47.1562 ave          76 max          14 min
Histogram: 3 0 3 4 3 5 3 7 3 1
Nghost:        1954.38 ave        2019 max        1885 min
Histogram: 1 2 0 7 5 6 5 3 1 2
Neighs:        5209.97 ave        8789 max        1305 min
Histogram: 2 2 4 5 3 1 5 4 2 4

Total # of neighbors = 166719
Ave neighs/atom = 110.48310
Ave special neighs/atom = 2.0145792
Neighbor list builds = 49764
Dangerous builds = 0

# Output the system volume
variable v equal vol
print 'The system volume is $v'
The system volume is 37625.9024568352

# Outputs
variable A equal xhi-xlo
variable B equal yhi-ylo
variable C equal zhi-zlo
variable D equal xy
variable E equal xz
variable F equal yz
print 'Lattice vectors'
Lattice vectors
print '$A 0 0'
33.5090648838768 0 0
print '$D $B 0'
0 33.5090648838768 0
print '$E $F $C'
0 0 33.5090648838768
Total wall time: 0:10:03
