LAMMPS (29 Sep 2021 - Update 1)
# Test LAMMPS input file for single DeFDe

# Initialize simulation

clear

units real
atom_style full
boundary p p p
dielectric 1
special_bonds dreiding

bond_style harmonic
angle_style harmonic
dihedral_style harmonic
improper_style umbrella
pair_style hybrid/overlay hbond/dreiding/lj 4 9.0 11.0 90 lj/cut 8.50000

# Read data file
read_data frag5.dat
Reading data file ...
  triclinic box = (0.0000000 0.0000000 0.0000000) to (15.000000 15.000000 15.000000) with tilt (0.0000000 0.0000000 0.0000000)
  2 by 4 by 4 MPI processor grid
  reading atoms ...
  1514 atoms
  scanning bonds ...
  3 = max bonds/atom
  scanning angles ...
  3 = max angles/atom
  scanning dihedrals ...
  8 = max dihedrals/atom
  scanning impropers ...
  2 = max impropers/atom
  reading bonds ...
  1015 bonds
  reading angles ...
  523 angles
  reading dihedrals ...
  32 dihedrals
  reading impropers ...
  7 impropers
Finding 1-2 1-3 1-4 neighbors ...
  special bond factors lj:    0        0        1       
  special bond factors coul:  0        0        1       
     3 = max # of 1-2 neighbors
     5 = max # of 1-3 neighbors
     8 = max # of special neighbors
  special bonds CPU = 0.002 seconds
  read_data CPU = 0.017 seconds

# Dreiding potential information

bond_coeff 1 525 1.39
bond_coeff 2 350 1.305
bond_coeff 3 350 1.73
bond_coeff 4 700 1.275
bond_coeff 5 350 1.7
bond_coeff 6 350 1.02
bond_coeff 7 350 0.99
bond_coeff 8 350 0.98

angle_coeff 1 50 120
angle_coeff 2 50 120
angle_coeff 3 50 92.1
angle_coeff 4 50 120
angle_coeff 5 50 104.51

dihedral_coeff 1 3.125 -1 2
dihedral_coeff 2 1.25 -1 2
dihedral_coeff 3 0.5 -1 2
dihedral_coeff 4 11.25 -1 2

improper_coeff 1 40 0

pair_coeff 1 1 lj/cut 0.0951 3.8983
pair_coeff 1 2 lj/cut 0.0857947550844456 3.77835472527395
pair_coeff 1 3 lj/cut 0.180871224908773 3.96360303259547
pair_coeff 1 4 lj/cut 0.0951 3.8983
pair_coeff 1 5 lj/cut 0.0380199947396104 3.52917391183829
pair_coeff 1 6 lj/cut 0.00308382878902186 3.52806914614779
pair_coeff 1 7 lj/cut 0.0953995283007206 3.64309650983885
pair_coeff 2 2 lj/cut 0.0774 3.6621
pair_coeff 2 3 lj/cut 0.163173527264688 3.84164847428809
pair_coeff 2 4 lj/cut 0.0857947550844456 3.77835472527395
pair_coeff 2 5 lj/cut 0.0342998542270955 3.42058613398347
pair_coeff 2 6 lj/cut 0.00278208554864871 3.41951536039831
pair_coeff 2 7 lj/cut 0.0860649754545948 3.53100349192691
pair_coeff 3 3 lj/cut 0.344 4.03
pair_coeff 3 4 lj/cut 0.180871224908773 3.96360303259547
pair_coeff 3 5 lj/cut 0.0723104418462507 3.58829346625941
pair_coeff 3 6 lj/cut 0.00586515131944607 3.58717019389936
pair_coeff 3 7 lj/cut 0.18144089946867 3.70412445795224
pair_coeff 4 4 lj/cut 0.0951 3.8983
pair_coeff 4 5 lj/cut 0.0380199947396104 3.52917391183829
pair_coeff 4 6 lj/cut 0.00308382878902186 3.52806914614779
pair_coeff 4 7 lj/cut 0.0953995283007206 3.64309650983885
pair_coeff 5 5 lj/cut 0.0152 3.195
pair_coeff 5 6 lj/cut 0.0012328828005938 3.19399984345648
pair_coeff 5 7 lj/cut 0.0381397430510485 3.29813538230316
pair_coeff 6 6 lj/cut 1e-04 3.193
pair_coeff 6 7 lj/cut 0.0030935416596516 3.29710294046152
pair_coeff 7 7 lj/cut 0.0957 3.4046
pair_coeff 2 2 hbond/dreiding/lj 6 j 9.50 2.75 4 9.0 11.0 90
pair_coeff 2 7 hbond/dreiding/lj 6 i 9.50 2.75 4 9.0 11.0 90
pair_coeff 2 7 hbond/dreiding/lj 6 j 9.50 2.75 4 9.0 11.0 90
pair_coeff 7 7 hbond/dreiding/lj 6 j 9.50 2.75 4 9.0 11.0 90

neighbor 2 bin
neigh_modify every 2 one 10000

# Gemoetric relaxation
fix 1 all box/relax iso 1.0 vmax 0.001
minimize 1.0e-4 1.0e-6 10000 10000
WARNING: Using 'neigh_modify every 1 delay 0 check yes' setting during minimization (../min.cpp:188)
Neighbor list info ...
  update every 1 steps, delay 0 steps, check yes
  max neighbors/atom: 10000, page size: 100000
  master list distance cutoff = 13
  ghost atom cutoff = 13
  binsize = 6.5, bins = 3 3 3
  3 neighbor lists, perpetual/occasional/extra = 3 0 0
  (1) pair hbond/dreiding/lj, perpetual, skip from (3)
      attributes: full, newton on
      pair build: skip
      stencil: none
      bin: none
  (2) pair lj/cut, perpetual, half/full from (3)
      attributes: half, newton on
      pair build: halffull/newton
      stencil: none
      bin: none
  (3) neighbor class addition, perpetual
      attributes: full, newton on
      pair build: full/bin
      stencil: full/bin/3d
      bin: standard
Per MPI rank memory allocation (min/avg/max) = 13.46 | 13.81 | 14.26 Mbytes
Step Temp E_pair E_mol TotEng Press Volume 
       0            0 3.1351783e+16    237.04811 3.1351783e+16 2.5478424e+18         3375 
    4984            0   -912.45993    29.850073   -882.60986   -142.38463    37401.237 
Loop time of 4.13775 on 32 procs for 4984 steps with 1514 atoms

100.0% CPU use with 32 MPI tasks x no OpenMP threads

Minimization stats:
  Stopping criterion = energy tolerance
  Energy initial, next-to-last, final = 
    3.13517826632386e+16   -882.04677571619  -882.113622351822
  Force two-norm initial, final = 3.2467234e+18 129.20773
  Force max component initial, final = 1.8076323e+18 105.24019
  Final line search alpha, max atom move = 2.0267877e-05 0.0021329953
  Iterations, force evaluations = 4984 4984

MPI task timing breakdown:
Section |  min time  |  avg time  |  max time  |%varavg| %total
---------------------------------------------------------------
Pair    | 1.4354     | 2.4923     | 3.4188     |  35.6 | 60.23
Bond    | 0.0062378  | 0.010649   | 0.020958   |   2.6 |  0.26
Neigh   | 0.090907   | 0.091167   | 0.091412   |   0.1 |  2.20
Comm    | 0.29308    | 1.2179     | 2.2738     |  51.0 | 29.43
Output  | 0          | 0          | 0          |   0.0 |  0.00
Modify  | 0          | 0          | 0          |   0.0 |  0.00
Other   |            | 0.3257     |            |       |  7.87

Nlocal:        47.3125 ave          65 max          28 min
Histogram: 2 2 4 1 6 4 4 5 3 1
Nghost:        2000.47 ave        2060 max        1953 min
Histogram: 3 4 3 7 1 2 6 2 2 2
Neighs:        5011.09 ave        6972 max        2765 min
Histogram: 2 3 3 1 4 7 2 2 5 3

Total # of neighbors = 160355
Ave neighs/atom = 105.91480
Ave special neighs/atom = 2.0317041
Neighbor list builds = 92
Dangerous builds = 0

# MD simulation
velocity all create 300.0 12345 rot yes dist gaussian
timestep 1.0
fix 2 all nvt temp 300.0 300.0 1

# Compute interaction energy
group WAT molecule <> 2 501
1500 atoms in group WAT
group MOL molecule 1
14 atoms in group MOL

compute w WAT group/group MOL pair yes
fix 3 all ave/time 10 5 100 c_w file outa

# Outputs
thermo 100 # Output thermodynamic data every nth step
#dump mf1 all xyz 10000 mol_*.xyz

# Run
run 1000000
Neighbor list info ...
  update every 2 steps, delay 10 steps, check yes
  max neighbors/atom: 10000, page size: 100000
  master list distance cutoff = 13
  ghost atom cutoff = 13
  binsize = 6.5, bins = 6 6 6
  4 neighbor lists, perpetual/occasional/extra = 3 1 0
  (1) pair hbond/dreiding/lj, perpetual, skip from (4)
      attributes: full, newton on
      pair build: skip
      stencil: none
      bin: none
  (2) pair lj/cut, perpetual, half/full from (4)
      attributes: half, newton on
      pair build: halffull/newton
      stencil: none
      bin: none
  (3) compute group/group, occasional, copy from (2)
      attributes: half, newton on
      pair build: copy
      stencil: none
      bin: none
  (4) neighbor class addition, perpetual
      attributes: full, newton on
      pair build: full/bin
      stencil: full/bin/3d
      bin: standard
Per MPI rank memory allocation (min/avg/max) = 12.31 | 12.37 | 12.86 Mbytes
Step Temp E_pair E_mol TotEng Press Volume 
    4984          300   -912.45993    29.850073    470.37982    1511.2569    37401.237 
    5000    329.48963   -884.13437    298.41407    900.26659    739.90546    37401.237 
    5100    299.24828   -1032.5144    205.35254    522.43755    -299.1548    37401.237 
    5200    295.71991   -1000.3316    156.08709    489.44215    259.90841    37401.237 
    5300    313.18383   -1052.5999    220.74554      580.594    147.31021    37401.237 
    5400    299.47659   -1011.4642    203.13857    542.30348    378.56279    37401.237 
    5500    292.26625   -1025.3564    200.09298    492.84729     1012.059    37401.237 
    5600    299.36048   -1056.5183    183.41928    477.00648    1002.5301    37401.237 
    5700    302.12638   -1096.8104    195.61651    461.38566    181.97339    37401.237 
    5800    303.92361   -1086.5424    202.05675    486.19934    725.91829    37401.237 
    5900    281.05429   -1085.1016    208.32661    390.77022    301.86167    37401.237 
    6000    304.71821   -1093.5386    210.39405    491.12409    275.55409    37401.237 
    6100    306.34051   -1048.1348    201.98649    535.43685     432.3303    37401.237 
    6200    300.89379   -1084.7243    199.15521    471.45152    252.09731    37401.237 
    6300    292.91784   -1070.5876    217.73935    468.20109     166.1002    37401.237 
    6400    304.74953    -1056.314     209.6664    527.76233    506.49544    37401.237 
    6500    300.49174   -1077.2225    214.52202    492.50692    74.632072    37401.237 
    6600    300.14796   -1073.9404    216.82516    496.54171   -97.939704    37401.237 
    6700    302.35114   -1063.0585    215.78851    516.32329    72.192132    37401.237 
    6800     313.2097   -1064.9556    208.78636    556.39576    104.20072    37401.237 
    6900    301.59253   -1064.3993    226.80329    522.57594    609.36003    37401.237 
    7000    292.49981   -1090.0614    217.43137    446.53404    389.68365    37401.237 
    7100    298.66679   -1081.1552    218.08421    483.90593    154.86053    37401.237 
    7200      301.107    -1094.109    232.18725    496.06042    654.96298    37401.237 
    7300    286.13423   -1091.3691    219.26323    418.34964    426.16581    37401.237 
    7400    299.29245   -1055.0176    217.64989    512.43099    245.71082    37401.237 
    7500     287.7089   -1086.5216    237.69439    448.73009    305.32473    37401.237 
    7600    300.28064   -1074.4789    249.63117     529.4076    635.22229    37401.237 
    7700    298.87472   -1082.4015    229.96243    495.47568    272.70043    37401.237 
    7800    307.16398   -1091.2228     226.7999    520.87606    336.19136    37401.237 
    7900    299.13586   -1061.7413     233.6562    521.00739    491.66768    37401.237 
    8000    303.73902   -1065.6812    226.74488     530.9162    678.91875    37401.237 
    8100    301.69339   -1095.8669    239.25599    504.01595    533.05837    37401.237 
    8200    302.10128   -1057.6531    231.95332    536.76664    961.21909    37401.237 
    8300    296.62443   -1138.7677    231.30031    430.29863    365.59801    37401.237 
    8400    308.99013    -1100.113    236.52648    529.94831    443.42351    37401.237 
    8500    291.33111   -1113.5632    229.20589    429.53594    578.04956    37401.237 
    8600    296.64162    -1117.584    247.65771    467.91721    26.416715    37401.237 
    8700    293.99993    -1127.717    242.96376    441.17634    604.13159    37401.237 
    8800    307.42386   -1128.5324    239.84073    497.77938    398.64806    37401.237 
    8900    303.56323   -1131.1182    244.66683    482.60837     404.9745    37401.237 
    9000    298.73791   -1117.8233    247.94397    477.41835    318.07228    37401.237 
    9100    289.48276   -1112.0018    247.04996    440.60543    64.421974    37401.237 
    9200    299.70962   -1090.2204    250.08982    511.54952    411.83442    37401.237 
    9300    292.65347    -1109.324    244.45687    454.98996    597.37118    37401.237 
    9400    296.99368   -1112.3755    257.02329    484.07904    802.05728    37401.237 
    9500    290.72747   -1102.3905    262.09264    470.87303    705.60749    37401.237 
    9600    294.41038   -1088.2507    264.90442     504.4344    463.14318    37401.237 
    9700    306.94814   -1088.3293    256.24069    552.23696    640.14466    37401.237 
    9800    300.40096   -1068.5531    255.81503    542.05996    463.30563    37401.237 
    9900    296.73419    -1072.259    257.79405    523.79602   -133.25209    37401.237 
   10000    297.42448   -1079.9989    255.82902    517.20428     -11.5634    37401.237 
   10100    293.26094    -1139.919    249.78416    432.46189    97.068187    37401.237 
   10200    295.59656   -1102.5181    263.53686    494.14913    229.23341    37401.237 
   10300    309.78046   -1115.4419    243.77557    525.43295     321.7912    37401.237 
   10400    303.27214   -1113.6823    260.81277    514.87736    579.71304    37401.237 
   10500     306.1392   -1092.4598    253.45491    541.67241    439.85804    37401.237 
   10600     301.5942   -1093.0976    268.75279    535.83464    712.88343    37401.237 
   10700    311.69947   -1153.9257    261.13472    512.96296     103.7342    37401.237 
   10800     305.2396   -1158.1187    262.21212    480.71347    495.85812    37401.237 
   10900     301.3905   -1149.9858    272.19756    481.47253      307.986    37401.237 
   11000    298.96139   -1136.7066    264.25113    475.85016    232.60333    37401.237 
   11100    310.40137   -1166.9983     250.2691    483.17028    257.27782    37401.237 
   11200    305.80861   -1141.8354    269.21614    506.56701    429.13291    37401.237 
   11300    307.76883   -1127.7675    276.03191    536.29122    478.10179    37401.237 
   11400    302.98662   -1136.7619    259.14098    488.83832    151.33027    37401.237 
   11500    312.03072   -1140.2572    280.86847    547.85907   -191.80356    37401.237 
   11600    295.20004   -1170.6343    259.02557    419.73336   -123.56148    37401.237 
   11700    292.06952   -1171.7448    272.12409    417.60278   -175.60595    37401.237 
   11800    295.26028   -1172.0079     264.9058    424.51165    171.34824    37401.237 
   11900    288.63641   -1165.4029    255.89275    392.23016    143.58335    37401.237 
   12000    302.26386   -1157.5696    283.00418    488.63418   -147.19718    37401.237 
   12100    289.44193   -1168.4281    284.20879    421.15389    371.52839    37401.237 
   12200    293.89056   -1151.2413    271.04161    445.23663    472.65876    37401.237 
   12300    296.32983   -1180.6565    286.89609    442.67692    527.90995    37401.237 
   12400    296.95612   -1194.3178    274.51588    419.45998   -160.12781    37401.237 
   12500    309.08575   -1180.0136    282.39316    496.34564     -86.3934    37401.237 
   12600    306.11066   -1203.7082    281.15986    458.00018    54.590782    37401.237 
   12700    310.88102   -1175.9911    290.01065    516.08225    19.118367    37401.237 
   12800    288.61029   -1105.5815    292.96381    489.00475    155.40837    37401.237 
   12900    301.42644   -1131.9686    300.72697    528.18128    589.63955    37401.237 
   13000    303.81321   -1127.0462    296.98571    540.12659    700.20031    37401.237 
   13100    302.02302   -1140.7882    285.89897    507.22416     283.6075    37401.237 
   13200    310.95309   -1107.7575     306.7118    601.34206    738.51327    37401.237 
   13300    306.29961    -1083.551     282.3511    580.20082    615.30162    37401.237 
   13400    311.05546   -1128.4256    315.74645    590.17026    551.75226    37401.237 
   13500    296.44811   -1129.0112    316.97254    524.93209    473.22944    37401.237 
   13600    304.43916   -1135.2925    288.24848    525.96608    350.23863    37401.237 
   13700    294.32049   -1153.9755     299.1236    472.52333   -43.626851    37401.237 
   13800    302.57036   -1099.4513    304.14285    569.27344     326.8894    37401.237 
   13900    302.04521   -1078.5688    294.33946    577.98416    119.87831    37401.237 
   14000    302.92414   -1145.8416    317.62334    537.95917    303.02563    37401.237 
   14100    290.26894   -1186.7746     289.4399    411.76823   -377.35937    37401.237 
   14200    297.95619   -1162.0158    280.17945    461.93579    132.42685    37401.237 
   14300    302.74226   -1177.8909    314.67472    502.14098    128.84343    37401.237 
   14400    346.46268   -1167.5753     290.9211    685.88059     800.4633    37401.237 
   14500    298.67891   -1139.8859    303.75686    510.90254    498.86115    37401.237 
   14600    292.29266   -1162.3872    307.06792    462.91059    92.600365    37401.237 
   14700    297.02358   -1213.2333    289.85491    416.18776    415.41179    37401.237 
   14800    284.02057   -1141.9766    300.92517     439.8716    75.928016    37401.237 
   14900    292.71359   -1141.4104    304.74558    483.46342   -138.43427    37401.237 
   15000    311.93186   -1163.8216    296.30145    539.28182   -201.63008    37401.237 
   15100    290.69446   -1136.0454    303.22857    478.20518    96.631029    37401.237 
   15200    290.89894   -1155.6221    317.78134    474.10342   -205.37025    37401.237 
   15300    307.88739   -1164.8473    298.09333    521.80759    233.94886    37401.237 
   15400    305.30049   -1162.3214    308.35306    522.92633    378.41258    37401.237 
   15500    303.50077   -1191.4831    311.95593    489.25083    209.48316    37401.237 
   15600    284.07446   -1142.7593    308.48627    446.89304    631.96633    37401.237 
   15700    295.53025   -1178.9803    298.83058    452.68154    297.85214    37401.237 
   15800    308.42149   -1157.2299     304.3204    538.06078     11.02481    37401.237 
   15900    303.02451   -1156.8438     297.6407    507.42698    595.22955    37401.237 
   16000    299.34792   -1169.7373    293.27879    473.59035    308.13507    37401.237 
   16100    297.21546   -1155.4066    304.15011    489.17501    284.59136    37401.237 
   16200    297.93591   -1174.9972    303.39422    472.07772    488.37039    37401.237 
   16300    299.80957   -1178.1207    299.22439    473.23455    407.55083    37401.237 
   16400     296.7969   -1198.8401    306.35975     446.0634    120.89982    37401.237 
   16500    300.90656    -1193.453     304.6202    468.24539   -81.834377    37401.237 
   16600    305.83139   -1181.3286    313.77431    511.73471    227.66882    37401.237 
   16700    294.59713   -1153.8679    300.70796      475.463    75.697757    37401.237 
   16800    300.69974   -1162.1566    325.81035    519.79923    87.600069    37401.237 
   16900    306.25408   -1145.8659    305.86235    541.19182    541.84839    37401.237 
   17000    313.46644   -1176.0134    296.76737    534.47687     337.6842    37401.237 
   17100    310.62344   -1160.0911    330.25758    571.06751    324.69952    37401.237 
   17200    292.90321   -1186.7636    320.46856    454.68837    224.22374    37401.237 
   17300    288.70952   -1180.8179    304.39041     425.6425    319.71441    37401.237 
   17400      304.269   -1179.3237    319.79201    512.71103   -10.755489    37401.237 
   17500    303.03108   -1122.4436    310.75124    554.96739   -17.679261    37401.237 
   17600    295.82053   -1162.2521     316.3057    488.19397    69.955916    37401.237 
   17700    298.34664   -1149.2826    309.14018    505.39073   -76.601093    37401.237 
   17800    309.00515   -1188.5876    329.16457    534.17953   -328.52638    37401.237 
   17900    303.87486   -1205.8582     305.7219     470.3289   -586.77044    37401.237 
   18000    299.90525   -1197.8553    313.45902     468.1661   -71.415662    37401.237 
   18100    304.18525   -1222.6836    338.76275    487.94414    8.8233999    37401.237 
   18200    291.86263   -1172.2391    319.83317    463.88454   -61.003933    37401.237 
   18300    292.52845   -1177.0998    316.89298    459.08638    186.58222    37401.237 
   18400    299.63649   -1196.1907    332.33838    487.49788    205.05027    37401.237 
   18500    301.99355   -1186.3313    330.17223    505.82147    547.64316    37401.237 
   18600    309.03219   -1187.4363     308.8374    515.12566    292.05359    37401.237 
   18700    299.28345   -1212.6912    315.35397    452.42082    469.28281    37401.237 
   18800    300.35426   -1192.5402    345.27872    507.32587    690.26308    37401.237 
   18900    306.36506   -1183.0037    325.19509    523.88733    744.71196    37401.237 
   19000    298.70105   -1189.2718    317.36425    475.22391    784.31444    37401.237 
   19100    300.93359   -1194.3801    327.57216    490.39216    276.52667    37401.237 
   19200    299.30694   -1214.5629    323.17416    458.47531    372.50341    37401.237 
   19300    306.00663   -1201.7534    320.83778     499.1638    118.76224    37401.237 
   19400    303.22414   -1181.5989    318.22603    504.15754    300.94392    37401.237 
   19500    298.79608    -1179.034    327.38201      495.908    137.17236    37401.237 
   19600    287.61254   -1198.2139    333.51835    432.42718    292.81526    37401.237 
   19700    297.75914   -1189.1269    305.09996    458.85657    732.87738    37401.237 
   19800    309.58878   -1230.7885    317.30448    482.75069    512.13069    37401.237 
   19900     301.2545    -1206.245    327.10641    479.50888    538.11536    37401.237 
   20000    302.03739   -1187.6059    323.32502    497.89738    329.68196    37401.237 
   20100    299.28764   -1185.1823    326.43185     491.0265    750.70219    37401.237 
   20200    287.54712   -1196.5348     334.4193    434.71211   -99.322728    37401.237 
   20300    295.61554   -1183.7165    326.21266    475.71205    266.11566    37401.237 
   20400    292.42967   -1200.9084    346.86215    464.80147   0.31321038    37401.237 
   20500    291.24458   -1235.0559    355.95517    434.40227    190.66725    37401.237 
   20600    287.52107   -1200.7133    317.93175    413.92856    271.61182    37401.237 
   20700    301.54518   -1218.2132    321.63347     463.3787    138.28354    37401.237 
   20800    304.11148   -1190.8159    359.90428    540.62065    214.68957    37401.237 
   20900    292.36297   -1214.1201    333.33504    437.76184    -62.12718    37401.237 
   21000    303.26835   -1222.1503    327.44272    473.02222     212.4822    37401.237 
   21100    297.34914   -1168.8473    328.43823    500.62529    365.68352    37401.237 
   21200    312.72151   -1215.7659     346.9018    541.49915    439.65238    37401.237 
   21300    310.84162   -1218.9923    333.17799    516.07064    60.290815    37401.237 
   21400    314.56588   -1185.4856    339.40234    572.59804    154.60953    37401.237 
   21500    293.66409   -1218.9819    357.65992    463.09291   -16.496901    37401.237 
   21600    297.17785   -1213.9407     333.6944     460.0156    -273.2421    37401.237 
   21700     303.1261   -1203.4058      319.443    483.12546   -119.69071    37401.237 
   21800    299.94733   -1233.2747    344.77183     464.2493   -280.54859    37401.237 
   21900    293.00523   -1246.5354    335.15405    410.06218   -141.80424    37401.237 
   22000    305.65116   -1211.9935    318.25891     484.7416   -222.95024    37401.237 
   22100    299.45666   -1180.9983    338.46224    508.00318    511.82334    37401.237 
   22200    319.93045   -1227.1075    338.18113    553.94899    1028.7423    37401.237 
   22300    301.72888   -1228.9428    332.66186    464.50591    415.13434    37401.237 
   22400     306.7575   -1144.5956    349.81161    588.68179    478.32329    37401.237 
   22500    288.92842   -1162.7349    345.20047     485.5228    111.12975    37401.237 
   22600    298.77263   -1149.8197    352.95369    550.58829    234.19419    37401.237 
   22700    291.76687   -1168.0647    339.63019    487.42407    191.91738    37401.237 
   22800    303.10012   -1167.0931    346.65862    546.53662    322.99477    37401.237 
   22900    302.31194   -1195.0459    345.81612    514.18666    484.74139    37401.237 
   23000    300.45584   -1251.3628    338.68327    442.36593    29.308889    37401.237 
   23100    294.53699   -1193.5029    345.70704    480.55578    596.68683    37401.237 
   23200    303.39305   -1175.8205    349.52567    541.99733    811.88705    37401.237 
   23300    307.55044   -1223.0492    328.01929    492.01197      266.718    37401.237 
   23400    304.00176    -1230.001    333.49158    474.52804    479.11041    37401.237 
   23500    298.73067   -1196.0678    344.47428    495.67156     331.2728    37401.237 
   23600    306.13078   -1221.3437    334.03575    493.33139    341.95205    37401.237 
   23700    306.62535    -1276.465    337.26277    443.66752    233.37706    37401.237 
   23800    303.92511   -1277.0421    314.94802    408.59772    234.97003    37401.237 
   23900    296.05899   -1232.3184    339.14643    442.04384    279.09385    37401.237 
   24000    305.85185   -1255.4047    328.10796    452.08462    -26.76971    37401.237 
   24100    299.88001   -1241.0536    374.35608      485.751    357.57892    37401.237 
   24200    304.21313   -1266.2245    345.52144    451.28772   -6.9743017    37401.237 
   24300    300.20191   -1220.9237    349.56543    482.54198    99.152079    37401.237 
   24400    302.81354   -1218.8137    347.13863    494.00357    107.11032    37401.237 
   24500     299.2883   -1262.0191    331.96806     419.7289    483.55532    37401.237 
   24600    292.46555   -1254.0761    345.66766    410.60115    257.39481    37401.237 
   24700    305.26401   -1250.9643    345.46885    471.23472     650.3771    37401.237 
   24800    294.16145   -1272.2066    342.79491    397.24631   -33.614389    37401.237 
   24900    299.97785   -1231.7692    340.05209    461.17268    581.97457    37401.237 
   25000    291.19022   -1229.8862     341.9844    425.35607    626.26613    37401.237 
   25100    277.89436   -1251.2755    355.12793    357.14644   -135.86296    37401.237 
   25200    308.45572   -1230.2885    349.39476    510.23099    284.78015    37401.237 
   25300    299.11901   -1277.8795    344.12116    415.25807    243.84579    37401.237 
   25400    296.83775    -1289.296    357.39007     406.8221    355.52635    37401.237 
   25500    304.60148   -1286.8209    327.08495    414.00623       325.14    37401.237 
   25600    293.89656   -1247.6904    342.18286    419.95588    511.99952    37401.237 
   25700    303.20088   -1261.0828    340.14974    446.49244    169.05574    37401.237 
   25800    301.52027   -1271.0068    344.07144     432.9107   -205.98163    37401.237 
   25900    304.41472   -1262.7395    342.09159    452.25195   -308.30104    37401.237 
   26000    301.03162   -1257.8159    334.53766    434.36404    616.70669    37401.237 
   26100    292.10833   -1245.1544    356.98906    429.23321    692.07424    37401.237 
   26200    299.15975   -1222.1805     359.8061     486.8258    736.78423    37401.237 
   26300      301.521   -1248.9932    347.29653    458.15271    368.09979    37401.237 
   26400    297.95224   -1276.3459     358.6067     426.0152   -71.302079    37401.237 
   26500    291.86089   -1226.4202    355.80833    445.67073    99.118787    37401.237 
   26600    304.72047   -1258.8767     340.4502    455.85232    47.531374    37401.237 
   26700    305.67148   -1235.2346    353.59625     496.9295    871.78044    37401.237 
   26800     302.7031   -1239.5042    347.45082    473.12718    423.78396    37401.237 
   26900    297.76753   -1233.4087    362.53615    472.04873    40.088303    37401.237 
   27000    302.12218   -1240.2022    347.48417     469.8426    379.68171    37401.237 
   27100    306.32162   -1228.8292    367.55051    520.22124    160.52408    37401.237 
   27200    301.10455   -1239.9265    343.34701    461.39162    28.533993    37401.237 
   27300    299.08552   -1240.0417    360.30018     469.1239    282.05734    37401.237 
   27400    301.51683    -1229.411    354.84788    485.26741    87.061457    37401.237 
   27500    306.77724   -1214.5525      365.514    534.51626      322.708    37401.237 
   27600    311.10038   -1212.7845    374.25453    564.52203    181.85273    37401.237 
   27700    311.48461   -1211.7697    368.96886    561.98405  -0.82975736    37401.237 
   27800    310.31898   -1243.9598    350.26296    505.83107    431.74742    37401.237 
   27900    304.57259   -1267.3504    349.46752    455.72908    174.09453    37401.237 
   28000    310.94659   -1250.8368    365.79177    517.31336   -182.41998    37401.237 
   28100     297.3986   -1280.3929     346.7797    407.64419   -178.73666    37401.237 
   28200    298.15125   -1283.1547    360.13262    421.62982    334.67547    37401.237 
   28300    292.22705   -1228.5824    382.57081     471.9224    45.324636    37401.237 
   28400    291.88112   -1262.5279    356.80544    410.65132   -58.256622    37401.237 
   28500     295.2246   -1291.9986    354.55256     394.0068    469.87337    37401.237 
   28600    296.21568    -1316.934    349.45488    368.44339    26.802608    37401.237 
   28700    303.49695   -1296.1389    371.18228    443.80418    66.251406    37401.237 
   28800    304.12894   -1247.7461    369.55369    493.41862    408.81792    37401.237 
   28900    298.31264    -1220.067    364.24242    489.55521    142.04669    37401.237 
   29000    293.21064   -1196.7708    364.90477    490.50387    336.63143    37401.237 
   29100      291.986   -1179.6839     397.3046    534.46752    805.82379    37401.237 
   29200     293.8359   -1214.0304    377.21582    488.37525    567.21388    37401.237 
   29300    295.38024   -1186.9679    371.72749    516.91432    276.46895    37401.237 
   29400     298.7139   -1154.1077    387.71406    580.79578     386.3155    37401.237 
   29500    301.27134   -1186.8821    370.55485    542.39617    373.76986    37401.237 
   29600    301.22999   -1187.8072    364.92778    535.65747    942.98205    37401.237 
   29700     293.2889   -1186.8655    371.51664    507.37397    259.62957    37401.237 
   29800     297.1137    -1210.688    370.37916    499.66374    212.99617    37401.237 
   29900    299.77093   -1227.2865    365.89496    490.56504     523.7276    37401.237 
   30000     306.3528   -1204.9911    382.57301     559.2225    158.53108    37401.237 
   30100     309.1853   -1210.4184    368.50855    552.50518    627.46695    37401.237 
   30200    302.89088   -1277.2389    364.43901    453.22763    268.08198    37401.237 
   30300    295.29025   -1276.9173    383.06512    437.89673    219.66303    37401.237 
   30400    310.97489   -1292.7659    368.46295    478.18309   -153.43604    37401.237 
   30500    299.78017   -1208.5404    373.28027    516.73811    530.40546    37401.237 
   30600      298.158   -1266.4502    378.86993    457.10211    361.59717    37401.237 
   30700    312.37694    -1251.838    346.03688    503.00811    623.89301    37401.237 
   30800    293.91887    -1228.421    347.29428    444.43724    437.44371    37401.237 
   30900    299.69672    -1213.065    370.32417    508.88108   -21.530265    37401.237 
   31000    303.43823   -1212.3145    369.07513    525.25658    224.28854    37401.237 
   31100    299.14616   -1221.8823     354.4247    481.68127     422.3405    37401.237 
   31200    302.88957   -1214.9636    362.67983    513.73782    291.26172    37401.237 
   31300    308.65621   -1230.5558    373.43956    534.91262    770.87099    37401.237 
   31400    313.06375   -1243.8208    381.54038    549.62636    347.14968    37401.237 
   31500    298.72988    -1207.229    373.52395    513.55641    566.73238    37401.237 
   31600    293.32533   -1227.1657    380.71708    476.43851    860.72269    37401.237 
   31700    296.35939   -1211.9444      379.888    504.51423    481.49369    37401.237 
   31800    309.75749   -1264.8979    362.93479    495.03252    905.52241    37401.237 
   31900    300.02972   -1204.5034    366.96778    515.58808    896.33412    37401.237 
   32000    288.80452   -1229.1038    362.66372    436.05839    878.74332    37401.237 
   32100    299.54537   -1199.8216    374.44699    525.56474    617.38391    37401.237 
   32200    307.35435   -1175.8977    375.83833    586.09811    615.34953    37401.237 
   32300    303.88323   -1226.2438    364.95492    509.21406    20.218465    37401.237 
   32400    307.96573   -1243.4715    394.01885    539.46224    587.48258    37401.237 
   32500    302.58167   -1217.1198    377.74264    525.25576    571.31496    37401.237 
   32600    308.45998   -1199.0696    391.58233    583.65662    337.01706    37401.237 
   32700    300.76655   -1250.1503    381.97743    488.27394    377.56839    37401.237 
   32800    286.03917   -1218.0224    433.33665    505.34103    417.38425    37401.237 
   32900    303.28217   -1279.0117    384.85648     473.6369    480.44412    37401.237 
   33000    295.83419   -1250.0011    399.19411    483.39506    808.38044    37401.237 
   33100     310.6599   -1234.9318    385.29974    551.43345    827.86549    37401.237 
   33200    309.44408   -1280.8906    381.92669    496.61823    1054.6516    37401.237 
   33300    298.12643   -1264.5948    404.60862    484.55376    508.77779    37401.237 
   33400    293.59161   -1266.3053    385.86109    443.64383    563.82933    37401.237 
   33500    299.79993   -1275.7589    372.31265    448.64115   -244.67714    37401.237 
   33600    304.62837   -1287.5181    378.14483    464.49024   -223.51049    37401.237 
   33700    301.03362   -1277.2322    379.99562    460.41464   -65.846395    37401.237 
   33800    301.65433   -1268.0868    399.25599    491.61989     -748.379    37401.237 
   33900    307.84854   -1271.2589     368.4262    485.55367   -415.25766    37401.237 
   34000    300.64106   -1273.6608    357.21258     439.4326   -263.30408    37401.237 
   34100    292.14651   -1275.0711    383.08079    425.58038   -394.88047    37401.237 
   34200    293.93414   -1235.9752    357.95157     447.6092    202.72718    37401.237 
   34300    298.13804   -1239.7634    392.20333    497.03229    505.12872    37401.237 
   34400    289.86056    -1230.992    396.09992    472.36913    569.77073    37401.237 
   34500    294.79962    -1201.882    392.61783      520.272    992.60772    37401.237 
   34600    300.95126   -1235.2588    382.84721     504.8682    733.34272    37401.237 
   34700    298.87649   -1188.0693    382.27137    542.12477   -131.66161    37401.237 
   34800    307.00891   -1205.3666    378.76981    558.00279    771.71589    37401.237 
   34900    302.72431   -1244.5078    387.62196    508.39041    230.81334    37401.237 
   35000    289.21797   -1230.5208    388.19959    462.04192   -219.48024    37401.237 
   35100     309.1251   -1233.4674    376.58041    537.25661    446.88624    37401.237 
   35200    307.97817   -1192.1763    393.24719    590.04184    14.151094    37401.237 
   35300    310.26593   -1230.3381    382.46265    551.41327    137.87124    37401.237 
   35400    305.77918   -1275.9509    391.53644     494.6391    604.79523    37401.237 
   35500    303.91134   -1260.4941    384.04309    494.17869    23.718332    37401.237 
   35600    307.88398   -1286.6568    394.53487    496.42418    40.119849    37401.237 
   35700    301.42414   -1265.8975    374.30506    467.82003     452.9768    37401.237 
   35800    296.59318   -1231.5149    365.17207    471.28221    59.456888    37401.237 
   35900    295.41768   -1266.7489    371.70483    437.27946   -195.16926    37401.237 
   36000     307.5879   -1229.0762      393.799    551.93366    475.26566    37401.237 
   36100    292.56821   -1263.8348    379.77863    435.41643   -260.49896    37401.237 
   36200    291.23612   -1247.7125    378.87393    444.62629    534.48132    37401.237 
   36300    299.79912    -1243.761    390.52605    498.84881     124.3485    37401.237 
   36400    298.50024   -1283.6065    385.46549    448.08484    602.09514    37401.237 
   36500    295.66236   -1249.7705    388.63736     472.2939      104.508    37401.237 
   36600    297.29118   -1279.9887    391.26673    452.05103    137.14708    37401.237 
   36700    301.77143   -1257.0067    387.60094      491.573    279.88571    37401.237 
   36800    297.28853   -1252.3326    376.09076    464.51916    710.83729    37401.237 
   36900    297.84764   -1256.5411    382.54035    469.28189    455.36181    37401.237 
   37000    296.62715   -1271.1172    393.42736    460.08837    1210.4501    37401.237 
   37100    307.79555   -1288.3485    381.37385    481.17267    625.98184    37401.237 
   37200    303.95513   -1293.5376    364.81658    442.10615    498.23032    37401.237 
   37300    299.29459   -1323.0034    377.83358    404.63851    419.80052    37401.237 
   37400    294.75274   -1274.3746    385.67463    440.62475    142.01898    37401.237 
   37500    296.63049   -1273.5874    366.70255    430.90847    1069.7698    37401.237 
   37600    296.63399    -1236.465    368.28057    469.62467     19.94244    37401.237 
   37700    310.62598    -1252.175    394.55632    543.29382    224.63601    37401.237 
   37800     288.4284     -1283.87    399.27805    416.21026    337.20723    37401.237 
   37900    295.73102   -1277.2969    398.77217    455.21194    332.23453    37401.237 
   38000      305.357   -1246.9173    385.04899    515.28127    193.34194    37401.237 
   38100    294.04924   -1286.1406    399.23153    439.24291    22.873654    37401.237 
   38200    294.16062   -1235.7261    402.96128    493.88947    455.20018    37401.237 
   38300    296.35928   -1256.0951    408.36402     488.8391    332.84308    37401.237 
   38400    297.27645   -1268.0304     373.8693     446.5455    848.18828    37401.237 
   38500     296.9099   -1218.6024    390.42271    510.87369    223.49684    37401.237 
   38600    309.74871   -1296.6075    383.54836     483.8969    177.79802    37401.237 
   38700    291.30724   -1222.1917    392.72381    484.31769   -202.14709    37401.237 
   38800     296.4134   -1184.3131     381.8515     534.3526   -176.49502    37401.237 
   38900    289.46869   -1220.1103    385.14641    470.52992   -575.93316    37401.237 
   39000     287.2061    -1267.045    404.96584    433.21049   -343.43664    37401.237 
   39100    302.77854   -1251.4285    399.82523    513.91759   -137.87767    37401.237 
   39200    288.22739      -1285.5    392.15446    406.55002    196.39958    37401.237 
   39300    292.38082   -1312.2304    375.51977    381.91686    271.65071    37401.237 
   39400    299.49656   -1257.3432    406.45595    499.83196   -412.88193    37401.237 
   39500    294.15554   -1284.5188    402.71439    444.82692   -15.319844    37401.237 
   39600    304.08696   -1276.5725    405.64943    500.49861    40.739479    37401.237 
   39700    305.63879   -1300.2813    390.08303    468.22217    187.39375    37401.237 
   39800     309.5584   -1236.9565     392.4383    551.57952    246.63301    37401.237 
   39900    310.73854   -1259.7746    399.89335    541.53891     470.7525    37401.237 
   40000    308.84944   -1298.0383     423.1985    518.06055   -9.3768548    37401.237 
   40100    297.12264   -1260.1511    402.86658    482.72839    160.56457    37401.237 
   40200    305.44799   -1250.9343    394.48809    521.11379    96.029065    37401.237 
   40300    294.53591    -1244.419    408.69909    492.62697   -290.83265    37401.237 
   40400    304.70266   -1229.9906    390.41063    534.61851   -18.367998    37401.237 
   40500    298.54398   -1226.1144    377.59473    497.90342   -29.666601    37401.237 
   40600    301.79017   -1247.7901     388.0654    501.33859   -476.05346    37401.237 
   40700    301.82778   -1231.7436    391.21872    520.70804    249.01467    37401.237 
   40800     304.5748   -1213.5409    391.42368    551.50468    51.845595    37401.237 
   40900    306.71755   -1259.6864    405.32305    528.92221    16.604222    37401.237 
   41000    320.71989   -1239.6965    427.55578    634.29492    448.61005    37401.237 
   41100    305.99893   -1273.5829    394.38363    500.84535    251.64306    37401.237 
   41200    292.55166   -1244.9708    409.17463    483.60178    47.212239    37401.237 
   41300    302.62805   -1259.5116    390.37516    495.70569   -139.36892    37401.237 
   41400    301.47553   -1204.7302    414.45811    569.37214   -434.46103    37401.237 
   41500     301.8906   -1241.3561    406.97171    527.13182    -210.7845    37401.237 
   41600    299.91265   -1269.8575    412.43414    495.17241   -339.07663    37401.237 
   41700      299.233    -1214.118     399.9704    535.38287    326.56774    37401.237 
   41800    299.48307   -1251.5983    419.20255    518.26263    225.06268    37401.237 
   41900    305.76314   -1250.1783    390.95854    519.76143     708.3656    37401.237 
   42000    301.51388   -1263.9414    415.18079    511.05661    241.38592    37401.237 
   42100    295.65113    -1266.593    397.03371    463.81718    130.85682    37401.237 
   42200    303.38941   -1275.6747    392.53843     485.1395   -30.379501    37401.237 
   42300    303.29477   -1240.1208    405.25147    532.97969    383.01808    37401.237 
   42400    303.78758   -1252.7574    414.28287    531.59699    756.24147    37401.237 
   42500    296.42717   -1263.2749    405.82572    479.42715    722.39141    37401.237 
   42600    288.94891   -1250.5747    405.12668    457.70161    290.51668    37401.237 
   42700    299.74216   -1295.8644    397.54912    453.51156    315.11978    37401.237 
   42800    300.14032   -1247.0369    404.39738    510.98304     60.18384    37401.237 
   42900    304.12367   -1309.9681     438.2473    499.86652    971.89544    37401.237 
   43000     303.6525    -1268.513    410.35761    511.30691    477.90067    37401.237 
   43100    297.03189   -1291.7433    426.72625     474.5866    671.29906    37401.237 
   43200    287.34087   -1355.5136    412.46299    352.84683    460.29648    37401.237 
   43300    293.92254   -1314.9032    417.11524     427.7926    934.85743    37401.237 
   43400    302.64486   -1286.6404    422.21042    500.48789    990.39227    37401.237 
   43500    293.52386     -1283.44    432.95013    473.29262    944.81902    37401.237 
   43600    293.50495   -1268.9709    423.31754    478.04386    843.10885    37401.237 
   43700    295.46462   -1293.7983     415.8309    454.56789    377.24986    37401.237 
   43800    290.20343   -1294.8708    423.67667    437.61333     699.6264    37401.237 
   43900    301.34897   -1281.0792    396.13931    474.13365    157.96649    37401.237 
   44000    299.90769   -1296.4926    420.93098    477.01179   -154.93784    37401.237 
   44100    296.00888   -1301.4182    404.62911    438.20077    79.764983    37401.237 
   44200    299.45041   -1259.0084    407.96356    499.46627    497.98441    37401.237 
   44300     295.9036    -1295.024     426.4715    465.96253    733.53788    37401.237 
   44400     300.4486   -1331.1724    409.13415    432.97464    720.36104    37401.237 
   44500    300.48894   -1350.5697    413.67648    418.30158    753.85637    37401.237 
   44600    294.52121   -1355.9598    426.87538    399.19611      485.121    37401.237 
   44700    306.32697   -1271.4129    444.86754    554.97876    1232.8822    37401.237 
   44800    310.03189   -1263.5121    444.73486    579.45596    808.42864    37401.237 
   44900    298.66643   -1273.6716    425.12997    498.43366    199.41149    37401.237 
   45000    293.47092   -1284.3661    407.38841    446.56606    133.69226    37401.237 
   45100    294.43369    -1333.168    415.55228    410.27014   -232.05965    37401.237 
   45200    307.31483   -1333.4273    418.47024    471.02226    137.91106    37401.237 
   45300    311.47974    -1341.732    421.04839    484.07932    27.485826    37401.237 
   45400    294.98914   -1351.8261    388.33999    366.90482    -500.8046    37401.237 
   45500    294.16323   -1318.4294    396.38544    404.62208   -364.76262    37401.237 
   45600     303.7121   -1289.3448    431.25563    511.64192   -99.827576    37401.237 
   45700    290.77694   -1297.9166    419.97413    433.45159   -117.98087    37401.237 
   45800    316.79912   -1329.7446    423.26576    522.27426    743.98808    37401.237 
   45900    305.55043   -1294.8951    417.26206    500.38893    364.16607    37401.237 
   46000     299.9043   -1310.9657    407.72882    449.32121    82.697639    37401.237 
   46100    307.74748   -1294.6923    406.85069    500.08895    817.71417    37401.237 
   46200    292.72362   -1322.8323    419.33107    416.67221     596.5805    37401.237 
   46300    290.09994   -1301.9827    415.82632    422.18432    600.76018    37401.237 
   46400    303.60133   -1331.9743     419.6098    456.86708   -2.7838865    37401.237 
   46500    299.99748   -1305.2973    405.90931     453.5903    553.17449    37401.237 
   46600    293.68175   -1330.0464    420.18415    414.63232   -41.376217    37401.237 
   46700    305.61389   -1277.1707    422.78892     523.9263    30.783546    37401.237 
   46800     300.5679   -1301.8437    421.89199    475.59918   -77.308346    37401.237 
   46900    302.19248   -1336.9503    404.63266    430.56006   -4.9612376    37401.237 
   47000    299.75207   -1323.3514    422.22517    450.74535     515.2122    37401.237 
   47100    290.47572    -1307.185    385.74645    388.59697    194.78138    37401.237 
   47200    304.93803   -1342.5093    429.82695    462.57768    439.28876    37401.237 
   47300    302.15675   -1317.1918    418.92125    464.44602    608.21965    37401.237 
   47400    304.91085    -1313.877     417.5622    478.82264    403.56203    37401.237 
   47500    301.02212   -1272.6952    441.18695    526.09115    230.63232    37401.237 
   47600    299.58214   -1334.1487    403.38871    420.34518    106.73606    37401.237 
   47700    300.41391    -1331.163    427.56943    451.26283    408.35902    37401.237 
   47800     300.2596   -1332.4134    426.25828    448.00532     485.1586    37401.237 
   47900    294.85646      -1364.4    422.89599    388.28844    986.31857    37401.237 
   48000    313.67853   -1334.2588    407.34589    487.76643    488.18684    37401.237 
   48100    292.61185   -1327.8053     416.9862    408.85025     144.9322    37401.237 
   48200    304.40987   -1340.2367    429.53378    462.17515    628.79538    37401.237 
   48300    302.80155    -1299.439    409.86156    476.04709    88.738069    37401.237 
   48400    295.15145   -1347.9986    416.37152    399.49582    221.90044    37401.237 
   48500     296.3813    -1334.908    408.12154    409.88301     493.9721    37401.237 
   48600    292.59926   -1318.1311    415.01662    416.49811    337.96755    37401.237 
   48700    294.01576   -1363.8143    414.68269    376.86931    280.23132    37401.237 
   48800    298.24103   -1371.8398    417.49589    390.71285    91.883168    37401.237 
   48900    295.61992    -1348.053    407.39974    392.58242     174.3211    37401.237 
   49000    296.10902   -1321.5013    432.07201    446.01225    373.35624    37401.237 
   49100    296.39721   -1299.7443       421.93    458.92697    508.65973    37401.237 
   49200    301.35302   -1325.8042    415.00586    448.29343     307.6433    37401.237 
   49300    298.85388   -1370.3579    406.62313    384.08598    470.17927    37401.237 
   49400    303.66361    -1364.628    401.49023    406.37464    143.88441    37401.237 
   49500    300.20428   -1321.8189    413.53723    445.62928    139.02392    37401.237 
   49600    295.00557   -1341.4612    421.09671    410.10053   -13.625881    37401.237 
   49700    296.44651   -1350.5866    438.74217    425.11908    259.09003    37401.237 
   49800    291.82996    -1325.342    421.88305    412.68407   -207.61361    37401.237 
   49900    295.94313   -1330.0187    434.61013    439.28474   -31.262147    37401.237 
   50000    303.47213   -1335.3213    437.75832    471.08589   -487.26198    37401.237 
   50100    303.40718   -1335.7961      431.914    464.47382   -404.28911    37401.237 
   50200     304.6858   -1336.8216    424.53061    461.83143    286.28329    37401.237 
   50300    308.85629   -1373.4649    427.37743    446.84375   -81.404659    37401.237 
   50400    303.63371   -1318.9372    428.02531    478.46568    557.24384    37401.237 
   50500    286.69938    -1344.239     424.4332    373.19855    74.361197    37401.237 
   50600    303.94836   -1384.8346    397.07917    383.04126   -174.02206    37401.237 
   50700    306.41219   -1358.7771    419.28941    442.42071   -151.53876    37401.237 
   50800     290.3772   -1391.1598    427.07659    345.50802     112.6991    37401.237 
   50900    306.37525   -1382.9367    411.86208    410.66719    465.77389    37401.237 
   51000    300.91104   -1407.1626    410.22655    360.16244    506.87001    37401.237 
   51100    290.62084   -1402.5995     448.4506    356.54109    49.201307    37401.237 
   51200     304.7864   -1398.5331    450.73924    426.78229    837.84509    37401.237 
   51300    293.83133   -1394.8559    401.00662    331.31991    220.02771    37401.237 
   51400    297.51355   -1372.5096     410.2504    379.51673    173.65227    37401.237 
   51500    316.87212   -1363.7952    406.90869    472.19585    212.64928    37401.237 
   51600    309.66105   -1382.1591    420.43316    434.83469   -575.77384    37401.237 
   51700    290.88153   -1327.9937    414.24095    398.11295    -671.6504    37401.237 
   51800    288.91185    -1319.906    418.90412    401.98061   -135.14737    37401.237 
   51900    306.64727   -1335.0971    441.90036    489.77193   -226.02137    37401.237 
   52000    295.11968   -1322.8213    417.38228    425.54054    17.102712    37401.237 
   52100    298.60646   -1324.6906    435.86132    457.87561   -472.85329    37401.237 
   52200    296.56062   -1334.6186    451.74383    454.60347    -157.4614    37401.237 
   52300    303.43022   -1315.8489    444.26248    496.87339    407.97484    37401.237 
   52400    303.22754    -1342.765    445.92208    470.70284   -24.909655    37401.237 
   52500    301.09866   -1331.2689    442.58537    469.26105    547.87098    37401.237 
   52600    314.47852   -1339.9695    437.72672    516.04457    680.14719    37401.237 
   52700    288.81855   -1388.7383    414.11443    327.93781    500.44431    37401.237 
   52800    300.31257   -1364.5642    408.25882    398.09404    567.65755    37401.237 
   52900    299.89595   -1342.6599    426.05078     435.9113    606.79566    37401.237 
   53000    298.57013   -1307.3504     424.2369    463.42749    472.64914    37401.237 
   53100    303.30187   -1311.1087    430.14087    486.91314     138.3838    37401.237 
   53200     304.2325   -1269.4753    416.66179     519.2646   -4.8102995    37401.237 
   53300    298.25265   -1319.6943    394.38587    419.80077   -740.37051    37401.237 
   53400    295.10204   -1340.1438    410.15676    400.91302    195.30253    37401.237 
   53500    297.80152   -1342.5337    403.61201    404.15295   -350.98272    37401.237 
   53600    299.21222   -1322.3825    457.32245    484.37675   -540.29783    37401.237 
   53700    297.40834   -1341.1624    452.44177    452.58077    205.07416    37401.237 
   53800    297.37965   -1339.4119    449.22865    450.98872    654.66638    37401.237 
   53900    297.86335   -1341.8946    420.28461    421.74348    292.82665    37401.237 
   54000     290.7908   -1359.3972    432.76218     384.8215    33.178146    37401.237 
   54100    305.61772   -1328.5081     415.6028    465.42014    630.54768    37401.237 
   54200    294.32162   -1325.3818    419.00011    420.99867    224.66226    37401.237 
   54300     293.8263   -1303.7068    430.09591    451.53558    141.60048    37401.237 
   54400    296.96844   -1311.4317    407.57553    435.46125   -42.523521    37401.237 
   54500    293.69622    -1369.351    396.25845    351.46736     324.7323    37401.237 
   54600    294.65339   -1348.7568    417.70546    397.82529    49.728307    37401.237 
   54700    296.02244   -1321.8668    415.97685    429.16111   -201.35135    37401.237 
   54800    296.23044   -1316.6435    407.47695    426.82254    145.69475    37401.237 
   54900    293.83147   -1359.2568    420.91751     386.8305   -234.94995    37401.237 
   55000    307.18094   -1337.5158    443.56897     491.4286    129.19649    37401.237 
   55100    303.60343   -1317.7656    438.31112    489.78659   -437.61695    37401.237 
   55200    304.82147   -1324.2081    436.92535    487.45162    166.42621    37401.237 
   55300    297.30141   -1319.1894    422.28299    443.91274    152.74052    37401.237 
   55400    306.94857   -1310.6451    433.66763    507.35001    660.55683    37401.237 
   55500    302.85366   -1316.9998    426.00012    474.85989    191.43727    37401.237 
   55600    285.29141   -1281.8096    433.93108    438.77596   -610.44116    37401.237 
   55700    304.21843   -1277.6292    423.94266    518.32809      162.416    37401.237 
   55800    303.85976   -1289.1283     417.3887    498.65745    254.72094    37401.237 
   55900    293.68851   -1326.6081    424.92614    422.84313    41.791605    37401.237 
   56000    291.80581   -1357.9736    413.15899    371.21951   -145.13706    37401.237 
   56100    310.80277   -1383.2861    418.75701    437.18076   -381.52238    37401.237 
   56200    296.06728   -1342.9556    413.03715    405.33475   -311.87068    37401.237 
   56300    291.47744   -1337.0142    442.89989    420.43891   -383.85744    37401.237 
   56400    291.81171   -1318.6486    421.74802    419.16016   -427.03541    37401.237 
   56500    313.20154   -1316.3406    436.50301    532.69058   -107.23794    37401.237 
   56600    309.72702   -1317.5598    424.55956    503.85795    54.161095    37401.237 
   56700    295.20089   -1335.9047    419.33966    414.78082   -107.17316    37401.237 
   56800    290.34872   -1361.0735    423.18809    371.57732    436.10218    37401.237 
   56900    302.81058   -1338.6308     426.2456    453.28012    28.721281    37401.237 
   57000    307.81719   -1369.4164    426.46672     445.2952    238.98618    37401.237 
   57100    300.79206   -1386.9242     419.5735    389.21109    648.81209    37401.237 
   57200    293.53731   -1356.0101    431.12645    398.95957    471.62218    37401.237 
   57300    292.03852   -1335.2028    405.08782    386.96873    292.92996    37401.237 
   57400    302.87821   -1351.7969    422.54833    436.72178    593.36115    37401.237 
   57500    301.53247   -1339.4937      423.714    444.12131    138.10015    37401.237 
   57600    306.77846   -1355.1065    441.69459    470.14845    147.32072    37401.237 
   57700    301.99849   -1347.3148    413.38872    428.07669   -464.26805    37401.237 
   57800     309.2791   -1336.3605    425.56348    484.04112    115.09564    37401.237 
   57900    310.29912   -1350.4281    412.49315     461.5034   -203.10539    37401.237 
   58000     292.5066   -1327.3688    428.29882    420.12477    71.384953    37401.237 
   58100    307.66682   -1297.2494    427.53277    517.85017    473.43025    37401.237 
   58200    297.19543   -1323.5269    418.36944    435.18371    225.74527    37401.237 
   58300    293.72312   -1296.5304    418.69361    446.84439   -170.57533    37401.237 
   58400    299.68993   -1340.1678    430.51268     441.9362    301.05396    37401.237 
   58500    301.64953   -1326.6633    430.28387    464.04958   -107.69163    37401.237 
   58600    292.55689   -1354.2043    421.60148    386.81876   -345.91207    37401.237 
   58700    286.27914   -1388.9643    413.66049    315.80524    122.93656    37401.237 
   58800      300.307    -1373.656     417.6189    398.33718    302.16414    37401.237 
   58900    302.76711   -1333.4271    423.02573    455.06786    455.98377    37401.237 
   59000    309.10839   -1292.7748    415.24968    516.54309     377.6948    37401.237 
   59100    294.78892   -1326.0488    436.78147    440.22061    958.54337    37401.237 
   59200    309.66764   -1356.6759    441.10862    481.02309    1232.2398    37401.237 
   59300    289.06076   -1323.3936    443.05796    423.31851    29.532767    37401.237 
   59400    302.31348   -1337.5082     449.0983    475.01354   -80.526586    37401.237 
   59500    295.27856   -1319.8617    431.64529    443.47972    163.04876    37401.237 
   59600    306.94439   -1351.2125     418.5161    451.61228     185.0259    37401.237 
   59700    308.71365   -1309.7936    431.83128    514.32566    253.45919    37401.237 
   59800    296.92328   -1370.3082    444.02918    412.83477   -123.42316    37401.237 
   59900    300.74244   -1365.6214       427.16    417.87666   -374.74703    37401.237 
   60000    301.76859   -1350.3053    424.20482    434.86543   -183.07115    37401.237 
   60100    301.86772   -1375.1854    411.65597    397.88362    172.17326    37401.237 
   60200    307.10388   -1363.8761    432.73986    453.89173    521.01036    37401.237 
   60300    296.14497   -1383.3321    416.78231    369.05385   -131.35503    37401.237 
   60400    291.91251   -1373.5297    426.01809     369.0038    189.77333    37401.237 
   60500    283.07453   -1394.8345    424.15416    305.97607   -670.43444    37401.237 
   60600     301.9732   -1346.4975    425.04109    440.43239   -711.65557    37401.237 
   60700    290.19876   -1342.1323    452.31887    418.97303   -443.07269    37401.237 
   60800    305.49755   -1356.8086    405.28562    426.26052    -261.3919    37401.237 
   60900    305.85351   -1333.4141    410.08209     456.0568    24.003206    37401.237 
   61000     295.7084   -1351.1493    416.43676    398.92215    432.19889    37401.237 
   61100    296.80065   -1341.9138    444.28942    440.93633    87.801402    37401.237 
   61200    296.34051   -1346.0443     410.3355    400.77669    1079.2121    37401.237 
   61300    296.08212   -1317.4388     433.2851    451.16652    618.30011    37401.237 
   61400    300.33755   -1287.6068    422.65443    489.55962     127.4891    37401.237 
   61500    305.53239   -1330.4828    446.73092    494.18873     332.6298    37401.237 
   61600      298.471   -1346.4879    452.24734    451.85335     93.48899    37401.237 
   61700    296.14037   -1326.3813    411.11347    420.31501   -26.995067    37401.237 
   61800    302.60673   -1315.5588    427.91043    477.09757    33.504482    37401.237 
   61900    303.95128   -1343.3247    429.77373    457.25883    491.32742    37401.237 
   62000    296.99626   -1389.9737    441.97897     391.4482     276.2075    37401.237 
   62100    301.71029   -1360.5135    442.81383     443.0033    213.75631    37401.237 
   62200    307.78494   -1389.9546    438.58219    436.72706   -56.881878    37401.237 
   62300    299.22304   -1331.9666    450.04097       467.56    318.22388    37401.237 
   62400    302.57802   -1349.4485    431.29225    446.46025    197.85886    37401.237 
   62500    301.55723   -1372.5726    456.79864    444.23879    148.41497    37401.237 
   62600    301.50766   -1342.0034    439.74343    457.52925   -308.29424    37401.237 
   62700     298.8123    -1335.624    446.98763     458.9968   -132.95808    37401.237 
   62800    319.27964   -1342.3058    455.70309     553.3375   -168.81771    37401.237 
   62900    304.30145   -1299.4141    434.76938    507.74438    492.44196    37401.237 
   63000    293.71362   -1333.3757    437.36369    428.62628   -108.06941    37401.237 
   63100    291.90461   -1338.0321    469.46042    447.90802    539.56283    37401.237 
   63200    307.25337    -1364.909    427.75974    448.55291    188.28492    37401.237 
   63300    294.94589   -1339.0916    415.02643    406.13064    219.41488    37401.237 
   63400    296.87528   -1358.8755     454.7948    434.81661    299.58552    37401.237 
   63500    296.41886   -1340.4884    455.84323    452.19373    1100.9719    37401.237 
   63600    313.45232   -1380.2598    434.15487    467.55428    794.35517    37401.237 
   63700     303.1822   -1378.1098    450.19805     439.4296    690.60726    37401.237 
   63800    298.38983   -1335.1152    442.95488    453.56758    718.80696    37401.237 
   63900    295.30739   -1377.8619    428.58448     382.5488    222.24726    37401.237 
   64000    294.37471   -1380.7898    433.54471    380.37473    297.99059    37401.237 
   64100    303.34326   -1364.8059       437.26    440.52175     530.6261    37401.237 
   64200    301.72054   -1339.5707    437.13408    458.31261    -295.3402    37401.237 
   64300    307.85943    -1284.763    452.34362    556.01602   -878.54563    37401.237 
   64400    297.93863   -1349.7715    443.98745    437.90897   -647.81147    37401.237 
   64500    293.55633    -1330.142    452.18242    445.96938   -743.56286    37401.237 
   64600    303.86746   -1288.1173    462.99215    545.30666   -155.27715    37401.237 
   64700    303.50964   -1323.2168    438.47476    484.07603   -367.13605    37401.237 
   64800    305.56306    -1350.571    442.15335    469.66121   -284.79468    37401.237 
   64900    289.17057   -1385.4351    422.09945    340.81372    170.00414    37401.237 
   65000    305.47057   -1382.3722    414.26518    409.55477    125.66055    37401.237 
   65100     297.9348   -1356.8305    438.19583    425.04107    240.94462    37401.237 
   65200    297.68692   -1335.1946    452.81779    460.18099     400.3141    37401.237 
   65300    296.94701   -1348.4891    447.30417    438.03588     569.3718    37401.237 
   65400    293.49205   -1296.9028    439.07448    465.81076     806.6779    37401.237 
   65500    298.91036   -1311.4549    437.24454    473.86508    416.73231    37401.237 
   65600     300.8577   -1349.9448    443.96277    450.87587    28.405593    37401.237 
   65700    293.65478   -1365.4419    455.68485    414.61594    92.548699    37401.237 
   65800    302.48591   -1341.6177    449.73982    472.32315   -295.04042    37401.237 
   65900    293.46332   -1335.3963     451.4208    439.53398   -426.77975    37401.237 
   66000    308.06945    -1301.297    444.73731      532.823    286.68072    37401.237 
   66100    298.03519   -1324.2478    448.66902    468.54972   -288.09567    37401.237 
   66200    293.44261   -1330.1311    457.60703    450.89199    15.938916    37401.237 
   66300    310.64051   -1338.4926    445.94798    508.43336   -146.80193    37401.237 
   66400    292.69748   -1309.7509    424.38858    434.69329    200.20611    37401.237 
   66500    296.19939   -1364.3047    445.59229    417.13659    52.547906    37401.237 
   66600     304.7712   -1366.1401    452.50677    460.87426    225.13296    37401.237 
   66700    315.53328   -1321.2901    452.34356     554.0977    365.15365    37401.237 
   66800    288.58917   -1355.4495    472.32197    418.39968   -213.64304    37401.237 
   66900    305.13099   -1327.6709    444.85499    493.31439    186.49342    37401.237 
   67000    302.85827   -1325.9955    447.38366    487.26852    645.22899    37401.237 
   67100    297.82049   -1308.5737    479.61613     514.2026   0.53455367    37401.237 
   67200     295.2085   -1228.7654    441.86977    544.48458    83.909236    37401.237 
   67300    304.38584   -1285.3545    434.67837    522.09353   -376.15556    37401.237 
   67400    300.91718   -1333.9629     460.6802    483.84339   -71.038697    37401.237 
   67500    294.81938   -1325.7681    450.91627    454.77339    250.12188    37401.237 
   67600    294.15576   -1298.7509    475.86896    503.75039   -110.75216    37401.237 
   67700    298.33697   -1336.1135    466.25064    475.62657   -202.39898    37401.237 
   67800    292.78744   -1318.6903    435.46096    437.23192   -764.39463    37401.237 
   67900    298.24183   -1312.2573     478.6601     511.4632   -110.61614    37401.237 
   68000    298.63933   -1289.5094    463.34642    520.69016    442.05723    37401.237 
   68100    300.76872   -1311.6431    431.74198     476.5554    542.96694    37401.237 
   68200    296.04785   -1345.8331    463.83913    453.17167    449.85927    37401.237 
   68300      299.167   -1354.1486    458.23132    453.31563    182.63418    37401.237 
   68400    286.80631   -1336.3319    444.54753    401.70219     323.8473    37401.237 
   68500    311.61718   -1332.7272    455.94443    528.59999    237.08893    37401.237 
   68600    304.37233   -1339.1339    443.18527    476.76016    179.43659    37401.237 
   68700    305.42645   -1325.6989    463.39231    515.15619    -187.2068    37401.237 
   68800    295.15558   -1292.4631    451.54221    490.22062   -637.05015    37401.237 
   68900    295.94625   -1322.8129    460.41856    472.31306    -380.2429    37401.237 
   69000    297.45374   -1357.4339    446.90473    430.97694    122.00844    37401.237 
   69100    299.95891   -1342.4235    470.84614    481.22704    210.64524    37401.237 
   69200    304.26466   -1380.7914     468.5683    460.00001   -30.030166    37401.237 
   69300    296.46183   -1376.6718    430.83557    391.19643    293.01592    37401.237 
   69400     312.3506   -1375.4518    444.95895    478.19763   -90.528358    37401.237 
   69500    307.62602   -1381.5451    469.45072    475.28837    593.62756    37401.237 
   69600    308.17584   -1365.7341    454.56764    478.69598    197.54553    37401.237 
   69700    295.38841   -1371.8233    434.73187    395.10015    -220.2193    37401.237 
   69800    294.63479   -1395.9795    449.40655    382.21982   -688.55832    37401.237 
   69900    301.90272   -1387.9794    453.31493    426.90639   -33.066192    37401.237 
   70000      297.217   -1384.0765    462.05692    418.41882    751.19631    37401.237 
   70100    299.68814   -1415.7315     435.1076    370.95935    271.29889    37401.237 
   70200    286.75101    -1372.873    456.79866    377.16288    106.11474    37401.237 
   70300    295.56155   -1424.0776     441.0494    349.94422     659.7668    37401.237 
   70400    293.81404   -1369.9629    449.92659    405.05491    292.26448    37401.237 
   70500    301.95631   -1383.6117    447.32207    425.52289   0.87196717    37401.237 
   70600    295.28316   -1400.5076    437.36915    368.57842    739.48112    37401.237 
   70700    300.07762   -1357.1011    465.27842    461.51705    315.97909    37401.237 
   70800    303.08457   -1352.1488     436.3632    451.11538    722.96565    37401.237 
   70900    302.95345   -1340.0895    458.16799    484.38813   -49.229063    37401.237 
   71000      298.951   -1340.5271    461.85828     469.5899   -131.88992    37401.237 
   71100    298.75001   -1364.8578    448.67282    431.16728   -9.6307962    37401.237 
   71200    299.06259   -1354.8842    432.79627    426.67406   -426.00781    37401.237 
   71300     301.0721    -1350.999    482.26632    489.09215   -280.22029    37401.237 
   71400     289.6461   -1353.4056    429.67535    382.56367   -144.71611    37401.237 
   71500     299.7477   -1348.6414    447.00068    450.21106   -250.51439    37401.237 
   71600    288.34995    -1377.598    457.74796    380.59825    201.03221    37401.237 
   71700    291.10338   -1325.0368    466.40586    454.23526   -132.64551    37401.237 
   71800    299.39444   -1360.6635    446.91097    436.50608    770.58002    37401.237 
   71900    296.86413   -1426.0407    457.90785     370.7142    333.14324    37401.237 
   72000    301.10958    -1407.064    453.91381    404.84367   -4.3981897    37401.237 
   72100    301.84831   -1400.8255     425.9015    386.40149   -59.588328    37401.237 
   72200    295.88981   -1355.1754     443.3925    422.66992   -139.40647    37401.237 
   72300    303.94616   -1414.1498    450.92401     407.5609   -242.43229    37401.237 
   72400    292.02441   -1401.5665    429.21489    344.66843    4.6593054    37401.237 
   72500    304.14608   -1388.7766    461.37639    444.28814   -61.424831    37401.237 
   72600    309.92236   -1414.9735    459.35272    442.11842    702.33936    37401.237 
   72700    296.82197   -1380.5585    477.03235    435.13076    149.12817    37401.237 
   72800    304.18305   -1415.0701    461.98537    418.77036    508.07031    37401.237 
   72900    300.35781   -1379.0194    443.23515     418.8191    567.43439    37401.237 
   73000     289.2449   -1376.3708    476.86221    404.97594    487.07877    37401.237 
   73100      300.544   -1403.2115    434.82556    387.05717    -345.7483    37401.237 
   73200    284.51114   -1375.6503    472.96369     380.4489   -46.025315    37401.237 
   73300    290.47524   -1367.0018    469.04195    412.07352    201.88729    37401.237 
   73400     304.0232   -1392.9288    448.98156    427.18695     44.94856    37401.237 
   73500    300.31623    -1374.098    435.29083    415.60875    125.98222    37401.237 
   73600    294.97971   -1383.6388    453.73332    400.44288    668.91784    37401.237 
   73700    303.35826   -1374.9163    453.82384    447.04291    116.50228    37401.237 
   73800    311.22835   -1318.8441    463.39008    548.17514    140.34521    37401.237 
   73900    302.72143   -1384.8426    474.34286    454.76353   -89.137787    37401.237 
   74000    305.57766   -1372.5201    459.77737    465.40199    147.94193    37401.237 
   74100     302.8767   -1371.0187    479.49884    474.44362    10.105755    37401.237 
   74200    293.06468   -1392.2991    449.24504    378.65754    175.84433    37401.237 
   74300    293.70215   -1398.0446    445.46977    372.01177    278.83263    37401.237 
   74400    296.63364   -1360.2593    459.76919     437.3174    440.11479    37401.237 
   74500    288.92527   -1346.3535    448.13745    404.82697    597.63638    37401.237 
   74600    298.52173   -1315.4785    469.33687    500.18108    480.69051    37401.237 
   74700    286.76296    -1357.775    459.22471    394.74085    779.22571    37401.237 
   74800     303.9409   -1347.3874    446.32833    469.70393    128.85547    37401.237 
   74900    305.61538   -1358.3487    459.35517    479.32137    237.98507    37401.237 
   75000     295.8231   -1359.8171     448.1246    422.45947   -26.892493    37401.237 
   75100    287.19249   -1322.6821    440.57477    413.12087    113.75149    37401.237 
   75200    292.47484   -1376.3844    454.70606    397.37315   -250.69072    37401.237 
   75300    289.86408   -1373.1039    462.70991    396.88306    137.51201    37401.237 
   75400     313.8053   -1330.9142     455.8918    540.22877   -210.85759    37401.237 
   75500    317.05311   -1369.4307    454.06484    514.53281   -25.847817    37401.237 
   75600    296.58089   -1386.6022     454.7702    405.73763    269.23365    37401.237 
   75700    306.78491   -1350.0908       455.11     488.6086    523.96861    37401.237 
   75800    296.86574   -1370.6559     470.9504    439.14881      367.071    37401.237 
   75900    290.06587   -1349.5002    465.70033     424.3872   -39.285466    37401.237 
   76000    302.64391   -1376.5964    473.76823    462.08544    465.39317    37401.237 
   76100     305.3745   -1379.9352    468.96162     466.2549    -160.9925    37401.237 
   76200    291.95271   -1392.8982    442.69372    366.49218    80.781871    37401.237 
   76300    295.38211   -1350.3073     437.8915    419.74734    443.62482    37401.237 
   76400    298.91467   -1376.6793    456.52493    427.94054    85.644926    37401.237 
   76500    291.53308   -1396.2807    471.25236    389.77586    421.44253    37401.237 
   76600    296.20416   -1402.0575    456.78929    390.60231    149.75289    37401.237 
   76700    296.08449   -1411.2869    444.40201      368.446   -96.372571    37401.237 
   76800    294.30858   -1400.6227    467.34097    394.03983   -162.73205    37401.237 
   76900    308.36132    -1380.427     482.8965    493.16847    -84.54108    37401.237 
   77000    304.74167    -1321.695    465.31932    517.99878    399.90038    37401.237 
   77100    307.10402   -1364.3235    428.05223    448.75731    44.562173    37401.237 
   77200    295.77065   -1341.7088    458.07053    450.27721    175.66095    37401.237 
   77300    306.71231    -1347.692    470.60117    506.17113    141.45837    37401.237 
   77400    305.89222   -1357.3272    458.51604    480.75223    546.11144    37401.237 
   77500    300.09447   -1354.2892    468.30955     467.4361    681.85595    37401.237 
   77600    297.96001   -1322.5815    455.50913      476.717    306.50602    37401.237 
   77700    286.15472   -1389.5876    449.92161      350.882    236.78664    37401.237 
   77800    308.85748   -1386.8782    466.03591    472.09431   -44.147805    37401.237 
   77900    308.62735   -1430.0325    446.28834    408.15456    557.44341    37401.237 
   78000    292.77706   -1416.6146    461.60497    365.40486    589.06501    37401.237 
   78100    299.00829   -1392.6063    454.46493     410.3757    706.13988    37401.237 
   78200    288.59522   -1476.3162    452.55996    277.79831    572.12745    37401.237 
   78300    304.68739   -1439.6927    471.19482    405.63177    419.21905    37401.237 
   78400    313.75572    -1408.941    476.54265    482.62919   0.79419201    37401.237 
   78500    297.95849    -1421.551    445.87954    368.11106    321.41033    37401.237 
   78600    302.50697   -1431.6777    448.72613    381.34449    77.634478    37401.237 
   78700    294.71473   -1402.4823      443.674    370.34494   -108.25102    37401.237 
   78800    295.78841   -1446.6687    452.14679    339.47367   -408.33204    37401.237 
   78900    294.38067   -1390.3021    443.91287    381.25746    281.47886    37401.237 
   79000    300.28539    -1452.515    440.28849    342.05021    71.197313    37401.237 
   79100    290.80492   -1404.3327    470.35517     377.5426   -136.36386    37401.237 
   79200    299.64777   -1393.0262    473.57769    431.95262    394.31739    37401.237 
   79300    292.85958   -1418.2219    463.72339    366.28807    185.53643    37401.237 
   79400    301.72476   -1423.0451     458.5002    396.22337   -104.95713    37401.237 
   79500    304.03534   -1411.6477    453.52624    413.06749    213.75226    37401.237 
   79600    293.69335   -1447.3975    471.66995    348.81936   -399.36914    37401.237 
   79700    303.32838   -1432.1989    461.72031    397.52192    161.55118    37401.237 
   79800     294.3871   -1475.3663    436.46085    288.77018   -146.88729    37401.237 
   79900    299.25228   -1443.3321      456.396    362.68136    281.01053    37401.237 
   80000    312.85876   -1419.4442    458.52801    450.06605    83.660158    37401.237 
   80100    300.43987   -1403.6177    454.00488    405.36066    -445.6693    37401.237 
   80200    302.56995   -1402.6951    463.72075    425.60575   -73.578686    37401.237 
   80300     287.4916   -1388.4184    476.75065    384.90947    186.20723    37401.237 
   80400    296.97519   -1439.0186    445.19846    345.52772   -299.30589    37401.237 
   80500    297.70202   -1406.7061    426.56599    362.48577   -71.353356    37401.237 
   80600    294.17262    -1443.523    450.26603    333.45141   -761.54536    37401.237 
   80700    302.51935   -1444.7398    443.30186    362.91395   -620.74754    37401.237 
   80800    308.06139   -1449.3521    468.55998    408.55416   -1023.9596    37401.237 
   80900    297.51904   -1456.1693    473.78538    359.41673    9.4252626    37401.237 
   81000    291.33176    -1448.287    475.14655    340.75578   -191.48189    37401.237 
   81100    299.90596   -1435.8347    487.75211    404.48298   -493.20318    37401.237 
   81200    315.32876   -1418.9456    457.72098     460.8972     474.8285    37401.237 
   81300    295.81583   -1433.7922     449.3881    349.71509    96.048198    37401.237 
   81400    302.34246   -1459.8171    468.18306    371.92009   -57.427755    37401.237 
   81500    298.92091   -1442.0979    458.00948     364.0346   -372.73699    37401.237 
   81600    304.31307   -1447.6422    446.87627    371.67554    60.288661    37401.237 
   81700    312.78968   -1440.3392    448.08063    418.41217     463.2133    37401.237 
   81800     303.3593   -1422.0874    440.68686    386.73951     12.15153    37401.237 
   81900    299.63522   -1397.1614    473.88949    428.07264    7.5439179    37401.237 
   82000    300.61103   -1444.1153    492.39892    404.02899    262.97111    37401.237 
   82100    294.85508   -1437.2017    457.67007    350.25462     385.4762    37401.237 
   82200    296.63125   -1419.3523    488.46658    406.91099    69.010682    37401.237 
   82300    297.59866   -1406.5608    448.84239    384.44127    526.31401    37401.237 
   82400    300.70729   -1432.9887    436.24867    359.43947    -230.0719    37401.237 
   82500    303.03239   -1412.6099    444.70124      398.757    93.789858    37401.237 
   82600    311.69528   -1421.1011    439.86754    424.50149   -36.167334    37401.237 
   82700    301.86039   -1452.3294    469.65155    378.70211   -318.30652    37401.237 
   82800    297.22834   -1424.7624    474.52861    390.25581   -77.640578    37401.237 
   82900    309.14275   -1406.3422    473.39272    461.27375    246.95482    37401.237 
   83000    304.09058   -1403.3314     467.5753    435.68198    171.57009    37401.237 
   83100    307.58321   -1445.0633    457.10809    399.23448   -420.29304    37401.237 
   83200    300.16998   -1451.2338    463.48079    366.00328   -602.91279    37401.237 
   83300    300.51891   -1462.5502    469.89975    362.67954   -208.44901    37401.237 
   83400    300.03469   -1435.7118    477.85957    395.29392   -368.03987    37401.237 
   83500    306.88269   -1446.9664    481.51084    418.57481   -16.557096    37401.237 
   83600    297.28618   -1420.7017    462.73354    382.78234    -659.2901    37401.237 
   83700    307.56332   -1397.0159    453.10466    443.18869   -760.21782    37401.237 
   83800    298.46291   -1382.7328    462.42649    425.75113   -714.32217    37401.237 
   83900    299.95625   -1376.4799    464.66385    440.97634   -861.72525    37401.237 
   84000    300.18982   -1372.6586    464.63076    445.81797   -951.07218    37401.237 
   84100    306.96484   -1354.4556    468.12244    498.06771   -95.713605    37401.237 
   84200    301.23799    -1398.004    485.22748    445.79643   -172.21647    37401.237 
   84300    293.77075   -1364.2394     480.9998    441.65643   -381.48922    37401.237 
   84400    304.79607   -1387.6753    455.73396     442.6785   -269.18283    37401.237 
   84500    299.12291   -1422.9903    459.53487    385.57859   -443.39209    37401.237 
   84600    302.20311   -1438.7832    448.74099    372.88345   -278.27607    37401.237 
   84700    295.92581   -1442.5634    443.23989    335.29175    296.54041    37401.237 
   84800    295.10159   -1415.7809    458.42382    373.54091      63.2761    37401.237 
   84900    319.46458   -1405.2606    473.08497    508.59863    199.12732    37401.237 
   85000    306.17481   -1458.9682    451.37826    373.24789    126.86758    37401.237 
   85100    304.78982   -1452.9784    462.33923     383.9524   -237.88072    37401.237 
   85200    307.86172   -1424.9026    441.29815    404.84132   -34.777819    37401.237 
   85300     302.7859   -1389.9519     488.1481    463.75017    60.339897    37401.237 
   85400    301.97705   -1354.1712     491.1606    498.89555   -417.49556    37401.237 
   85500    313.13511   -1403.5523    472.45923    481.13547    395.66902    37401.237 
   85600     290.8053   -1402.3475    503.54374    412.71816    582.01477    37401.237 
   85700    296.75448   -1432.4572     459.8604    365.75572    482.09351    37401.237 
   85800    303.19958   -1433.0875    436.64604    370.97825    289.51756    37401.237 
   85900    312.47296   -1452.0865    436.90842    394.06416   -98.402036    37401.237 
   86000    300.83488   -1401.8181    447.50651    402.44337   -245.86644    37401.237 
   86100    318.03835   -1404.2352    465.57265    495.67949    585.44538    37401.237 
   86200     308.5834   -1420.4735      472.257    443.48404     63.16042    37401.237 
   86300    299.07093     -1441.86    468.15717    375.09677   -519.29315    37401.237 
   86400    290.04884   -1368.1961    468.58751    408.50172   -473.46809    37401.237 
   86500    297.91109   -1402.6059    468.85828     409.8212   -302.94466    37401.237 
   86600    295.89581    -1393.351    462.63449    403.76346   -530.79481    37401.237 
   86700    302.66783   -1397.8756    449.85364    416.99953    532.05715    37401.237 
   86800    294.79159    -1407.434    453.75232    375.81826   -711.86409    37401.237 
   86900    301.11623   -1474.3372    499.40475    383.09143    627.93408    37401.237 
   87000     285.2693    -1480.338    472.63985    278.85662    855.83014    37401.237 
   87100    298.42599   -1446.6349    460.54191    359.79796    446.80422    37401.237 
   87200    295.15883   -1445.5426    465.36224    350.97586    80.905714    37401.237 
   87300    305.19214   -1424.3047    466.02606    418.12741    379.93036    37401.237 
   87400    294.57601   -1468.6552     440.1137    299.98617   -167.16662    37401.237 
   87500    297.82116   -1459.7183    467.52697    350.97191   -491.79765    37401.237 
   87600    292.78934   -1420.1565    437.75438    338.06771   -710.73017    37401.237 
   87700    300.06596    -1421.814    473.90256    405.37577   -231.77939    37401.237 
   87800    306.67435   -1439.1111    460.23047    404.21018   -75.828318    37401.237 
   87900    290.72619   -1432.5859    440.49593    319.07514   -481.11745    37401.237 
   88000    299.17458   -1435.1458    454.74595    368.86721   -412.79308    37401.237 
   88100    297.87249   -1438.7866    450.39603     355.0041   -353.98216    37401.237 
   88200    302.44529   -1404.5763    451.58038    411.02192   -415.71165    37401.237 
   88300    307.28566   -1399.7101    461.90993    448.04759   -256.80763    37401.237 
   88400    301.03569    -1387.184    464.53229     435.0089    475.91577    37401.237 
   88500    311.86827   -1406.6071    451.98325    451.89127    518.80355    37401.237 
   88600    304.90422    -1394.758    474.20476    454.55429    -285.1507    37401.237 
   88700    293.88967    -1380.533    460.06405    404.96339   -642.94536    37401.237 
   88800    303.43134   -1390.4551    457.07489    435.08466   -231.21623    37401.237 
   88900    298.78422   -1364.8634    470.28714    452.93026   -253.04466    37401.237 
   89000    304.91526   -1409.8425    447.86166    413.17651   -69.018026    37401.237 
   89100    293.26204    -1392.245    457.82459    388.18134    239.64403    37401.237 
   89200    299.77696    -1402.825    471.27191    420.43075    190.43369    37401.237 
   89300     293.7852   -1373.3823    465.22416    416.80299   -163.51273    37401.237 
   89400    301.08199   -1403.0756    457.49951    412.29336    106.60054    37401.237 
   89500    303.39124   -1428.5756    451.67009     391.3785    499.08043    37401.237 
   89600    291.62055   -1402.6511    458.67009    371.21759    332.20987    37401.237 
   89700     300.9067   -1435.5185    470.39816    391.95853   -52.987908    37401.237 
   89800     288.4927   -1391.0289    459.11504    369.17829   -145.41142    37401.237 
   89900    302.11944   -1369.2347    486.90515    480.21872    18.105979    37401.237 
   90000    291.70387   -1454.9213    451.47694    312.13001   -613.97181    37401.237 
   90100    298.83304   -1408.1079    474.90241    414.52121   -774.39209    37401.237 
   90200    292.81944   -1423.6196    492.64597    389.63191   -766.46384    37401.237 
   90300    300.74127   -1443.7436    466.59939    379.18858    6.5684444    37401.237 
   90400    297.45807   -1476.8746    438.05565    302.70674   -203.92917    37401.237 
   90500    296.28442   -1414.5433    506.90206    428.59127   -583.26756    37401.237 
   90600    308.51204   -1443.2629    461.81796    409.93371   -486.62942    37401.237 
   90700    302.12917   -1487.3928    454.47716    329.67657   -568.06063    37401.237 
   90800    294.42269   -1465.5296    453.54339    315.84995   -627.31646    37401.237 
   90900    297.74574   -1466.6027    465.60138    341.82172   -55.249524    37401.237 
   91000    301.97678   -1429.3197    483.42858    416.01377    807.69901    37401.237 
   91100    304.57347   -1432.4639    472.11339    413.26539     604.8251    37401.237 
   91200    298.03904   -1431.8693    475.81835    388.09482    460.35371    37401.237 
   91300    308.09902   -1436.4125    483.04182    436.14533    223.91284    37401.237 
   91400    303.13835   -1504.7426    454.70546    317.10632    294.25048    37401.237 
   91500    298.88925   -1440.7367    473.38593    380.62949    518.25836    37401.237 
   91600    298.87952   -1432.9467    464.69692    379.68659    858.03006    37401.237 
   91700    295.99481   -1433.2368     484.5639    386.25348    161.97412    37401.237 
   91800    297.19284   -1444.3966    456.95632    352.88925   -163.29886    37401.237 
   91900    299.89611   -1434.2015    463.18805    381.50768    131.38085    37401.237 
   92000    298.46197   -1401.8067    501.31867    445.56518   -569.37807    37401.237 
   92100    301.54829   -1448.6373    454.87624    366.21133   -343.75005    37401.237 
   92200    300.71434   -1417.3702    463.46117    402.30234   -187.43346    37401.237 
   92300    305.86038   -1423.1011    475.89395    432.21261    286.03143    37401.237 
   92400    300.68687    -1450.691    470.67325    376.06968    313.75666    37401.237 
   92500    306.39727   -1447.4892    482.45223    416.80415    268.29197    37401.237 
   92600    295.80309    -1380.374    493.56058    447.24832    135.46971    37401.237 
   92700    301.90161   -1374.1329    472.08887    459.52183   -266.22452    37401.237 
   92800    307.69504   -1384.5583    476.15357    479.28933   -578.20152    37401.237 
   92900    306.99263   -1385.2982     486.9605    486.18851   -434.53392    37401.237 
   93000    297.74071   -1400.5921    483.63926    425.84749   -46.675242    37401.237 
   93100    300.43416   -1388.6937    471.86501    438.11907   -401.36843    37401.237 
   93200    301.77247    -1427.382    493.18213    426.78358   -273.88491    37401.237 
   93300    300.22658   -1413.7295    488.01561    428.29761    578.27423    37401.237 
   93400    291.53901   -1399.4777    433.11866    348.47185    -74.85742    37401.237 
   93500     312.6394   -1406.3184    481.82803    485.50263    49.421066    37401.237 
   93600    305.21549   -1409.7564    458.10366    424.85861     945.4417    37401.237 
   93700    296.64075   -1425.6595     463.9208    376.10089    578.18197    37401.237 
   93800    295.68395    -1402.834    474.35191    405.04241    915.82863    37401.237 
   93900    305.96539   -1382.5044    479.15372    476.54272    537.21995    37401.237 
   94000    294.79904   -1382.5995    451.89672    398.83073    23.204012    37401.237 
   94100    298.49977   -1406.4665    465.20625    404.96344   -575.18575    37401.237 
   94200    305.42384   -1406.5634     481.0433    451.93092   -4.2209961    37401.237 
   94300    306.02066   -1426.7124    497.96342    451.39364    -417.6777    37401.237 
   94400    298.86829   -1395.4005    455.38743     407.8726    531.16184    37401.237 
   94500    308.66585   -1406.8774    474.91311    460.10812   -630.41574    37401.237 
   94600    298.43398   -1419.7224    453.98286    380.18742   -181.69297    37401.237 
   94700    299.39937   -1436.1539    448.83071    362.95766    61.800762    37401.237 
   94800    300.84629   -1412.5256     500.1976    444.47847   -115.35242    37401.237 
   94900    304.34516   -1430.1217    444.99711    387.46161    346.59425    37401.237 
   95000    306.51733   -1427.9674    476.41226    430.82748    39.107639    37401.237 
   95100     303.8995   -1437.9901    489.19003    421.77617    209.13134    37401.237 
   95200    298.98506   -1419.6031    444.16769     372.9769   -264.25811    37401.237 
   95300    310.37961   -1430.6286      460.995    430.16779   -524.48631    37401.237 
   95400    297.07835   -1443.5823    453.29858    349.52943   -672.46872    37401.237 
   95500    299.18254   -1412.1218    477.20372    414.38486    -424.9084    37401.237 
   95600    308.73307   -1416.5423    474.79634    450.62955    62.147671    37401.237 
   95700    301.99713   -1410.4379    474.86078    426.41959   -52.864676    37401.237 
   95800    297.37444   -1432.0195    476.83072    385.95975   -397.92726    37401.237 
   95900    290.82242   -1431.8886    441.56755    321.27811   -485.04398    37401.237 
   96000     294.2184   -1418.6892    464.63385    372.85952   -29.529075    37401.237 
   96100    273.17682   -1407.6953    521.84892    346.17166   -255.62854    37401.237 
   96200    294.26716   -1392.6542    433.76588    368.24639   -583.66551    37401.237 
   96300    299.75607   -1435.5875    470.24906    386.55111   -925.38862    37401.237 
   96400      289.369   -1423.3365    464.22973    345.93748   -635.82293    37401.237 
   96500    299.89645   -1459.9037    452.67009    345.28908    8.9883041    37401.237 
   96600    296.74427   -1436.2986    464.11427    366.12218   -717.45396    37401.237 
   96700    305.60016   -1393.2699    470.60028    455.57657    35.018559    37401.237 
   96800    301.66469   -1407.4419    469.34176    422.39721   -380.85101    37401.237 
   96900    300.10455   -1396.0341    488.14993    445.57703   -596.00635    37401.237 
   97000    305.11296   -1408.2335    478.51219    446.32763   -8.0176843    37401.237 
   97100    290.04808   -1405.9547    482.60566    384.75787   -461.71909    37401.237 
   97200    303.65494   -1442.0562    489.52523    416.94231   -83.214906    37401.237 
   97300     296.3693   -1445.0744    457.71928    349.26026    -213.1384    37401.237 
   97400    297.60566   -1453.0032    480.84155    370.02964    474.55341    37401.237 
   97500    304.22448   -1489.1405    487.29606     370.1975    270.01364    37401.237 
   97600    288.00039    -1459.256    474.19492    313.81081    128.78764    37401.237 
   97700    294.45834   -1458.4417    490.22053    359.77583    398.20631    37401.237 
   97800    303.26442   -1450.2072    481.14705    398.65195    253.87368    37401.237 
   97900     303.5634   -1455.0712    487.80805    401.79738    67.024535    37401.237 
   98000    303.32042   -1464.5906    473.32296    376.69706   -204.64139    37401.237 
   98100    283.39319   -1476.9858    463.77262    264.88036   -113.15058    37401.237 
   98200    293.25838    -1448.928    472.60658    346.26381    -47.46185    37401.237 
   98300    308.78057   -1449.6945    460.52378    403.41899   -54.190081    37401.237 
   98400    292.83303   -1460.8881    471.17491    330.95369   -64.206612    37401.237 
   98500    299.73376   -1480.9528    490.64401    361.48018    594.11867    37401.237 
   98600    301.86377   -1449.6067    512.18092    423.96942    147.47218    37401.237 
   98700    290.84044   -1517.3255    465.76299    260.11785   -262.68167    37401.237 
   98800    297.02397   -1503.6897    445.13962    281.01778   -258.12953    37401.237 
   98900    296.03061   -1469.9541    485.23905    350.37287   -219.39214    37401.237 
   99000    306.15728   -1468.0709     483.3048    395.99264   -117.57264    37401.237 
   99100    306.66534   -1483.5898    474.36288    373.82316    564.95164    37401.237 
   99200    299.15984   -1461.9935     468.1145    355.32162     1008.966    37401.237 
   99300    304.41981   -1463.6892    495.31088    404.54452   -94.908819    37401.237 
   99400    294.86171   -1388.5936    475.74299    416.96556   -168.36127    37401.237 
   99500    298.57994   -1442.8848    510.02822    413.72873   -232.47773    37401.237 
   99600    296.73953   -1472.0658    483.44425    349.66359   -499.04682    37401.237 
   99700    295.63911   -1478.7575    479.00894    333.57362   -220.76599    37401.237 
   99800    303.78773   -1459.8972    458.93926    369.11424    -45.82661    37401.237 
   99900    297.62848   -1442.3948     479.2267     379.1261    601.45962    37401.237 
  100000    305.96966   -1435.6237    483.03367    427.32261    408.59408    37401.237 
  100100    288.62294   -1406.9106    491.13903    385.90792   -385.73428    37401.237 
  100200    290.92105   -1428.6657    475.71292    359.09119   -218.06836    37401.237 
  100300    303.70254   -1430.9329    480.30495    419.06008   -58.395242    37401.237 
  100400    298.28861   -1439.5013    495.84738    401.61741   -358.19201    37401.237 
  100500    298.54342   -1453.8451    477.46123    370.03666    -80.24522    37401.237 
  100600    292.65556   -1462.0543    506.58235    364.39452    376.04212    37401.237 
  100700    301.50966   -1421.8208    490.88985    428.86728    384.94113    37401.237 
  100800    297.59044   -1474.9949    502.14958    369.27739    467.51943    37401.237 
  100900     295.5152   -1426.0137    492.84301    399.59269    217.93381    37401.237 
  101000     307.2145    -1440.593    494.52051    439.45438   -27.486829    37401.237 
  101100    305.23634   -1393.3477    534.28033    517.53803   -417.41458    37401.237 
  101200    296.84013   -1379.1512    531.88932    491.47691   -227.04871    37401.237 
  101300    297.31764    -1392.338    482.07193    430.62626     283.2904    37401.237 
  101400    311.34092   -1428.1596    508.73642     484.7136    271.90568    37401.237 
  101500    302.70995   -1382.6342    534.72875      517.306    38.102177    37401.237 
  101600    313.76532   -1404.3362    518.49822    529.23278    446.04098    37401.237 
  101700    306.32158   -1423.9896    521.72879    479.23896    568.24981    37401.237 
  101800    300.37928   -1364.7572    529.95179    519.89478    512.18156    37401.237 
  101900    292.99128    -1394.776    488.10768    414.71229    787.25175    37401.237 
  102000     299.3094   -1394.6674    521.96024    477.16788    446.47734    37401.237 
  102100    306.75446   -1458.1075     500.5864    425.93089   -157.18441    37401.237 
  102200     297.8154   -1445.9137    492.22266    389.44622     218.7322    37401.237 
  102300    301.23275   -1460.6265    488.52711    386.44992    162.82226    37401.237 
  102400    298.21013   -1466.0157     498.0596    376.96139    8.1764474    37401.237 
  102500    304.27474   -1474.2315    486.73672    384.77386   -119.77109    37401.237 
  102600    300.27647    -1492.662     484.8608    346.43533     439.6365    37401.237 
  102700    306.54692   -1442.0934    487.08777    427.51045    102.09818    37401.237 
  102800    294.43879   -1441.2585    500.71922    387.36951    15.876007    37401.237 
  102900    303.08928   -1440.1446    494.27677    421.05441   -426.09187    37401.237 
  103000    300.94583   -1406.0849     489.0416    440.21201   -329.11166    37401.237 
  103100    300.94677   -1451.1098    526.19269    432.34248   -139.47363    37401.237 
  103200     298.5239   -1469.4257    487.39173    364.29854   -247.63736    37401.237 
  103300    293.05604   -1489.3684    457.44365    289.74792   -214.31863    37401.237 
  103400    296.87486   -1494.2287    484.67477    329.34151   -5.8045912    37401.237 
  103500    305.79097   -1468.9183    487.07245     397.2609   -39.632196    37401.237 
  103600    294.71637   -1482.4745    489.22794    335.91413    127.34547    37401.237 
  103700    301.59933   -1505.5358    482.63942    337.30626    182.38176    37401.237 
  103800    305.83998   -1481.5431    467.46499    365.24973    49.532148    37401.237 
  103900    300.66609   -1493.5791    482.64739    345.06204   -72.385768    37401.237 
  104000    298.33127   -1487.0973    476.56089    334.92736   -41.368035    37401.237 
  104100    302.67747   -1507.3143    464.77482    322.52553    107.14576    37401.237 
  104200    298.78883   -1504.0161    520.03337    363.54462   -194.45797    37401.237 
  104300    299.42311    -1491.565    496.20606    355.02904    446.46957    37401.237 
  104400    301.51113   -1472.8236    493.62059    380.60179    174.66632    37401.237 
  104500    301.11308   -1449.5588    481.70243    390.15331    110.93918    37401.237 
  104600    297.24406   -1482.4858    499.97487    358.04957    19.428202    37401.237 
  104700     314.8173   -1468.0437    471.14771    422.91919    129.93579    37401.237 
  104800    290.83171   -1447.1337    509.65341    374.16072    -135.0699    37401.237 
  104900    294.38586   -1473.8024    488.80753    342.67526    982.91661    37401.237 
  105000    303.06323   -1476.2356    504.51044    395.07962    533.31353    37401.237 
  105100    299.75734    -1448.925    475.54742    378.51766    959.70232    37401.237 
  105200    303.05006   -1421.6284    493.55154    438.66848    903.57211    37401.237 
  105300    305.58459    -1456.836    502.68563    424.02567    232.00989    37401.237 
  105400    300.40369   -1439.6183    494.69258    409.88461    574.65387    37401.237 
  105500    301.10402   -1430.2768    499.48958    427.18152   -294.52896    37401.237 
  105600    302.79748   -1417.0967    514.42263    462.93216   -367.49995    37401.237 
  105700    304.05286   -1433.3154    469.00115    406.95369     271.3579    37401.237 
  105800    293.58137   -1429.9342    512.09497    406.20267   -181.20494    37401.237 
  105900    284.19923   -1462.2968    491.44651     310.8784   -319.65573    37401.237 
  106000     311.8581   -1443.1598    492.43022    455.73972   -11.569966    37401.237 
  106100    294.33105   -1440.1784    493.19479     380.4393   -268.63036    37401.237 
  106200    293.72565   -1436.4493    475.68173      363.925   -1067.2464    37401.237 
  106300    303.16097   -1448.7198    467.58392    386.10973   -1056.4521    37401.237 
  106400    303.88261   -1465.1811    508.70469     414.0237   -304.53637    37401.237 
  106500    297.31335   -1460.9123    469.99612    349.95686   -85.490968    37401.237 
  106600    296.71332   -1459.2455    495.70134    374.62268    241.21434    37401.237 
  106700    300.75513   -1472.0194    498.14763    382.52355    649.62405    37401.237 
  106800    301.54147   -1451.6379     504.2243     412.5281    1222.9718    37401.237 
  106900    286.95013   -1478.8455    496.67899    311.96871     505.4542    37401.237 
  107000    300.81084   -1451.1507    510.20028    415.69615    631.30989    37401.237 
  107100    291.13579   -1443.5582    480.42145    349.87568    553.79585    37401.237 
  107200     299.8316   -1448.0884     488.9919    393.13374    387.71684    37401.237 
  107300    295.84311   -1479.6644    497.70825    352.28606    288.88413    37401.237 
  107400     296.0982   -1501.2837    481.33139    315.44038   -255.15654    37401.237 
  107500    302.31154    -1508.441    475.55552    330.52917   -138.86962    37401.237 
  107600    299.21133   -1486.3098     487.9821    351.10511    -333.0355    37401.237 
  107700    294.88481   -1493.5323    478.76694    315.15498    -82.89066    37401.237 
  107800    301.67261   -1519.1786    479.71526     321.0698    642.50373    37401.237 
  107900    304.57912   -1504.2924    481.37217    350.72117    1050.6879    37401.237 
  108000    300.23735   -1540.3427    513.42843    327.14584    1187.8337    37401.237 
  108100    304.53306   -1542.7805    514.10906    344.76212    1334.6223    37401.237 
  108200    313.25477   -1484.3414    474.76799    403.19481    312.54959    37401.237 
  108300    302.94488    -1466.582     452.3871    352.07605    -280.9038    37401.237 
  108400    299.49802   -1485.5075    469.16994    334.38823   -290.71418    37401.237 
  108500    294.23356   -1474.6165    501.83557    354.20233   -7.5174136    37401.237 
  108600    295.15199   -1467.9774    508.88378    372.03174    174.93521    37401.237 
  108700    293.65567    -1537.131    491.44068    278.68661    87.438329    37401.237 
  108800    293.26034   -1517.2291    475.54665    280.91159     375.3113    37401.237 
  108900    303.87514   -1492.2254    464.49117    342.73222    796.25896    37401.237 
  109000    303.85199   -1453.1155    490.06435    407.31092    388.85873    37401.237 
  109100     294.5451   -1501.3831    486.18341    313.18854    78.430504    37401.237 
  109200    304.52791   -1496.3249    471.40052      348.486    284.18018    37401.237 
  109300    306.69136   -1515.5875     487.7863    355.36628    12.037905    37401.237 
  109400    301.18506   -1524.1684    472.75865    306.92451    596.35081    37401.237 
  109500    298.95182   -1489.9628    468.15713    326.45674    414.83158    37401.237 
  109600    312.64269   -1478.4089     495.3651    426.96396    1042.1846    37401.237 
  109700    288.81164   -1527.1578    473.95208    249.32483    152.43591    37401.237 
  109800    305.40334   -1503.0488    479.22388    353.53366   -335.18518    37401.237 
  109900    308.51163   -1468.2741    495.24698    418.34968   -566.88825    37401.237 
  110000    291.58402   -1513.8866    485.96424    287.11148    -197.2015    37401.237 
  110100    291.59943   -1498.9741    479.76069    295.89003   -407.00852    37401.237 
  110200     292.7626   -1470.0266    465.25016    315.57279    19.788716    37401.237 
  110300    309.23456    -1464.867    507.42696    437.19721    29.343362    37401.237 
  110400    302.21588   -1481.4074    465.80796     347.3838  0.039347975    37401.237 
  110500    295.69279    -1477.874    469.72222    325.41254   -39.735801    37401.237 
  110600    299.86125   -1461.9293    495.83881    386.27347    35.431618    37401.237 
  110700    311.81509   -1444.9493    487.13662    448.46261    14.556368    37401.237 
  110800    297.29452   -1455.4924    491.27855    376.57422   -258.76613    37401.237 
  110900    295.50173   -1430.0833    496.01003     398.6294   -513.67132    37401.237 
  111000    298.55694   -1434.3937    474.39058     386.4784   -108.90138    37401.237 
  111100    297.24863   -1477.0644    478.46547    341.98217   -486.83565    37401.237 
  111200    308.18278   -1484.4057    459.43915     364.9272   -138.29945    37401.237 
  111300    303.60187   -1479.3718    501.38347    391.24561    500.29445    37401.237 
  111400    293.64199    -1516.215    490.43896    298.53923    399.81382    37401.237 
  111500    309.89053   -1482.4229    463.90765     379.0804    1079.3833    37401.237 
  111600    299.13337   -1447.4486    468.83193    370.46459    1018.4245    37401.237 
  111700     293.4362   -1485.2863    484.43565    322.53649    665.34412    37401.237 
  111800       301.82   -1469.8748    494.63682    385.95982    1033.5429    37401.237 
  111900       291.18   -1436.0957    486.30707    363.42311    851.05952    37401.237 
  112000    304.55777   -1467.1593    466.19001    372.57575     1035.252    37401.237 
  112100    300.28612   -1467.3071    491.11841    378.09143    795.46468    37401.237 
  112200     297.8619   -1443.6217    488.67053    388.39574    364.75811    37401.237 
  112300    304.50663   -1455.8316    482.42537     399.9082   -6.4331043    37401.237 
  112400    299.24877   -1426.4394    478.15371    401.31593   -148.30939    37401.237 
  112500    298.43306   -1435.7824    491.01051    401.15091   -676.85335    37401.237 
  112600    284.55307   -1468.9387    458.74963    273.13548   -419.37888    37401.237 
  112700    310.78821   -1463.7323    460.96454    398.87641   -574.77199    37401.237 
  112800    299.20677   -1459.9507    479.52129    368.98281   -61.579144    37401.237 
  112900    305.68819   -1459.5669    472.52551    391.60187   -117.58045    37401.237 
  113000    290.01341   -1453.9472    480.73426    334.73755   -312.28207    37401.237 
  113100    300.94111   -1485.1581    490.18602    362.26199    121.18744    37401.237 
  113200    304.86948   -1488.6701     449.0012    335.28193    180.34733    37401.237 
  113300    305.01101   -1461.6646    486.78282    400.70739    594.87256    37401.237 
  113400    298.91957   -1483.3483    459.40945    324.17812    586.30593    37401.237 
  113500    300.72463    -1488.258    511.82683    379.82655    734.56834    37401.237 
  113600    297.52188   -1446.3424    494.80013    390.27121    859.02256    37401.237 
  113700    310.38327   -1476.9097    477.98631    400.89445    133.41026    37401.237 
  113800    305.83606    -1476.151    463.26654    366.42563    82.118786    37401.237 
  113900     307.9646   -1502.4929    478.36382    364.78064    367.09283    37401.237 
  114000    298.36163   -1498.7089     501.0581    347.94987    333.16713    37401.237 
  114100    298.22914   -1485.1577    483.96133    343.80674   -357.00041    37401.237 
  114200    305.51451   -1452.6733     479.6462    404.83285    -400.5856    37401.237 
  114300    292.05835   -1455.3384    493.90484    355.73959   -219.06357    37401.237 
  114400    305.52164   -1473.9661     468.8161    372.74209    139.09412    37401.237 
  114500    311.92374   -1469.8182    490.10506    427.05223    341.94217    37401.237 
  114600    307.54398   -1517.2634     490.2316    359.98099     52.46821    37401.237 
  114700    298.42763   -1439.1405    497.73175    404.48957    562.53112    37401.237 
  114800    302.10344   -1477.2801    492.16486    377.36083    23.350515    37401.237 
  114900    296.25746   -1425.4651    519.18041    429.82628    193.72408    37401.237 
  115000    288.97517   -1466.5597    498.85213    335.56051   -209.03814    37401.237 
  115100    296.63984   -1485.6319    467.51621    319.71975    95.731236    37401.237 
  115200    299.43159   -1414.9134     491.8312      427.344   -939.82703    37401.237 
  115300    301.89192   -1357.9171    488.21472    491.81977   -449.56735    37401.237 
  115400    299.27572   -1379.0391    496.68774    467.37184     45.87496    37401.237 
  115500    306.97016   -1376.4161    477.45417    485.46293    148.74645    37401.237 
  115600    289.11896   -1398.3645    486.02472    391.57681    -377.1675    37401.237 
  115700    307.93189   -1381.8695     497.6739    504.56664    341.36536    37401.237 
  115800    297.10878   -1370.7467    512.37076    481.57443    6.0005845    37401.237 
  115900    312.97228   -1380.9183    473.24686     503.8228    144.04071    37401.237 
  116000    305.96727   -1368.1067    500.32215    512.11726    104.14134    37401.237 
  116100    287.83374   -1401.0453      497.395    394.46994   -601.24345    37401.237 
  116200    304.61514   -1346.8984    509.20374    536.10917   -67.191267    37401.237 
  116300    296.42835   -1380.9753    506.83681    462.74314    380.79063    37401.237 
  116400    302.46627   -1389.5675    498.00508     472.5501    166.23249    37401.237 
  116500     300.7443   -1364.0182    476.51919    468.84744    341.50979    37401.237 
  116600    290.57986   -1348.5432     476.6828    438.64477   -489.55311    37401.237 
  116700     305.0167   -1323.9957    494.61611     546.2352   -276.91099    37401.237 
  116800    298.00594   -1374.8244     474.5215    443.69362   -700.71715    37401.237 
  116900    291.87201   -1406.5464    499.33249    409.11881   -659.97562    37401.237 
  117000    309.76123   -1439.0883    472.87557    430.79971    21.595458    37401.237 
  117100    303.68995   -1462.4395    475.97727    383.16906   -394.54996    37401.237 
  117200    296.11177    -1466.475    462.67277    331.65166   -999.74379    37401.237 
  117300    297.25971   -1393.1087    512.97036    460.49272   -479.71536    37401.237 
  117400    300.78289   -1431.0316    488.26596    413.75485   -328.18363    37401.237 
  117500    307.27251    -1394.511    504.60407    495.88158   -345.97046    37401.237 
  117600    304.92484   -1395.6227    478.63323    458.21111   -289.51399    37401.237 
  117700     303.4345   -1443.3733    480.98625    406.09205   -460.73087    37401.237 
  117800    292.98043   -1433.7375    479.94908    367.54326     88.46341    37401.237 
  117900    302.90457   -1425.5065    476.89466    417.47733    235.43836    37401.237 
  118000    294.24679   -1442.1147    481.01201    365.94023   -56.851076    37401.237 
  118100    306.17239   -1450.7105    456.80479    386.92121    212.29545    37401.237 
  118200    290.46526   -1477.7383    489.54928    321.79931     316.7002    37401.237 
  118300    298.62186   -1452.0509    487.92694    382.65038   -12.232721    37401.237 
  118400    307.62111   -1453.0914    510.05264    444.32188   -193.21056    37401.237 
  118500    294.33779   -1445.0662    462.38181    344.76895   -485.31056    37401.237 
  118600    299.44246   -1467.6181    478.92848    361.78557   -359.36413    37401.237 
  118700     309.0924   -1428.4923    474.23781    439.74161   -278.00828    37401.237 
  118800    300.60507   -1414.2379    516.13635    457.61697   -562.61504    37401.237 
  118900     293.8727   -1469.2781     465.2956    321.37328   -717.57252    37401.237 
  119000    303.55933   -1461.1033     461.4476    369.38646    63.155098    37401.237 
  119100    299.01651   -1479.0324    482.40424      351.926    40.143542    37401.237 
  119200     291.1155   -1441.2655    477.68397    349.33939     237.7032    37401.237 
  119300     308.1108   -1428.6841     459.9357    420.82072    383.21087    37401.237 
  119400     292.4294   -1450.1314    488.44619    357.16127   -373.15297    37401.237 
  119500    303.51575   -1451.8679    464.70401     381.6817    162.89406    37401.237 
  119600    300.72051   -1403.7087     510.3826     462.9131    897.00115    37401.237 
  119700    293.29359   -1443.4465    472.07059    351.36803    898.87426    37401.237 
  119800     303.2146   -1458.5783    475.77493    384.68402    109.12202    37401.237 
  119900     312.0359   -1461.0052    492.30072     438.5667    294.10103    37401.237 
  120000    305.21125    -1456.239    487.29544    407.54871     393.6241    37401.237 
  120100    298.96038   -1439.2164    456.36332    365.44796    192.61694    37401.237 
  120200    295.22875   -1464.0446    458.92614    326.35308   -188.14335    37401.237 
  120300    297.02011   -1459.6441      477.422    357.32838    447.00931    37401.237 
  120400    313.38453   -1489.5258    465.37844    389.20613    531.93454    37401.237 
  120500    302.22272    -1493.319    475.13979    344.83488    218.45904    37401.237 
  120600    296.51464   -1482.0653    480.73961    335.94515   -225.10092    37401.237 
  120700    304.44885   -1479.5068    461.34129    354.88828   -452.88952    37401.237 
  120800    296.19748    -1461.169    483.38177    358.05319    11.782622    37401.237 
  120900    305.99476   -1465.4262     477.4486    392.04826   -51.364825    37401.237 
  121000    302.82102   -1489.2771    451.82801    328.26335    41.850263    37401.237 
  121100    283.11103   -1489.1229    481.16695    268.86505    159.07463    37401.237 
  121200    294.83376   -1473.1102    484.10848    340.68835    83.158836    37401.237 
  121300    300.25762   -1466.3385    494.25817    382.07118   -266.36097    37401.237 
  121400    297.46566   -1462.1185     453.5447    332.98615   -622.49205    37401.237 
  121500     304.2839   -1420.1103     466.5157    418.71533    413.55696    37401.237 
  121600    308.77464   -1475.6426    483.37351     400.2939   -457.56203    37401.237 
  121700    312.02221   -1444.9669     467.1931    429.43563   -159.75263    37401.237 
  121800    303.01264   -1506.1086    455.62178    316.08981    137.01832    37401.237 
  121900    303.25814   -1468.4881    479.09902    378.29467   0.79191762    37401.237 
  122000    294.00195   -1423.8343    486.58432    388.68871   -230.86857    37401.237 
  122100    308.71606   -1406.2308    496.82342    482.89148    195.53433    37401.237 
  122200    301.78507   -1475.9412    479.85996    364.95904    234.76039    37401.237 
  122300    297.73941   -1463.7763    490.87883    369.89703   -59.185945    37401.237 
  122400      307.445   -1469.6518    453.64769    370.56222    10.570072    37401.237 
  122500    294.61931   -1460.3291    466.77417    335.16804   -516.23262    37401.237 
  122600    303.94751   -1495.1943    473.16807    348.76656   -647.89807    37401.237 
  122700     304.8991   -1467.8185    477.33618    384.60213    274.24789    37401.237 
  122800    308.25618   -1443.9273     472.5011     418.7986    484.15101    37401.237 
  122900    288.07867    -1461.034    479.14846    317.33937     257.9521    37401.237 
  123000    291.70078   -1484.2298    467.76753    299.09824    123.18139    37401.237 
  123100    282.41433   -1478.2781    487.96068    283.36142     17.14835    37401.237 
  123200    295.31515   -1494.7972    474.86208    311.92605   -129.01108    37401.237 
  123300    293.11411   -1493.7823    469.84101    297.99325   -26.709338    37401.237 
  123400    296.52346   -1409.8127    507.52765    435.02555    59.616521    37401.237 
  123500    299.36667   -1461.6675    474.77131    363.23721   -214.74586    37401.237 
  123600    301.82774   -1463.4267    482.94277    380.74883   -301.80391    37401.237 
  123700    293.18117    -1539.147     488.8865    271.97654   -547.75714    37401.237 
  123800    298.95665    -1475.903    472.45093    344.83219   -422.99306    37401.237 
  123900    312.45932   -1471.1394    466.08978    404.13119   -230.88279    37401.237 
  124000    302.95599   -1475.2317    491.46449    382.55389   -192.53223    37401.237 
  124100    300.95049    -1472.825    456.08473    340.53609   -505.82606    37401.237 
  124200    302.99583   -1477.8868     489.5354    378.14934   -397.17874    37401.237 
  124300    302.03125   -1467.6872    454.94277    349.40617   -130.73971    37401.237 
  124400    293.17801   -1441.8595    482.10971    362.47294   -86.714172    37401.237 
  124500    302.43492   -1460.0774    476.02065    379.91431   -289.61274    37401.237 
  124600    301.35583   -1490.4107    460.94405    329.63782    184.75948    37401.237 
  124700    309.86064   -1496.4383    474.22683    375.24937   -869.19123    37401.237 
  124800    308.57752   -1490.6748    479.28733    380.28651   -1397.7869    37401.237 
  124900    300.78863   -1418.9125    454.27075    391.90468   -856.65429    37401.237 
  125000    304.83036   -1438.3907    500.57066     436.9544     -899.227    37401.237 
  125100    298.47828   -1439.7221    459.26373    365.66838   -224.70489    37401.237 
  125200    297.99538   -1429.1209    496.21374    411.04181    7.4347412    37401.237 
  125300    294.66682   -1411.9652     483.4805    400.45256   -405.40456    37401.237 
  125400    298.59129   -1401.1888    494.72819    440.17587   -529.56595    37401.237 
  125500    302.03601   -1374.2289    477.65386    465.59692   -604.19105    37401.237 
  125600    303.52017   -1358.3897    496.96947    507.44527   -382.58837    37401.237 
  125700    305.91669   -1365.4622    493.11629    507.32784    283.48654    37401.237 
  125800    307.56537   -1367.2111    501.78152     521.6797    38.220172    37401.237 
  125900    290.33242   -1366.1797    487.73926    430.94874   -192.37146    37401.237 
  126000    303.18497   -1375.3923    505.26153    497.22304   -235.87367    37401.237 
  126100    304.38397   -1364.4874    491.79314    500.06694    106.91324    37401.237 
  126200    302.70343   -1440.3403    458.81563    383.65738   -516.99351    37401.237 
  126300    314.90331   -1412.7645    477.50414    484.94278   -93.907727    37401.237 
  126400     300.0687   -1443.0828    506.18237    416.39906    117.05346    37401.237 
  126500    310.99501   -1449.0163    467.60395    421.16448    214.94382    37401.237 
  126600    288.72692    -1445.209    479.32645    336.26591    730.30467    37401.237 
  126700    298.03765   -1467.4857      490.515    367.16879    896.01726    37401.237 
  126800    312.88314   -1461.8705    470.57514    419.79687   -205.89132    37401.237 
  126900    296.47414   -1443.3722    481.58214    375.29815    85.816098    37401.237 
  127000    294.86097   -1435.2976    476.14519    370.66045    613.82959    37401.237 
  127100    292.05413   -1455.7282    471.86791    333.29376    118.50258    37401.237 
  127200    290.97785   -1412.5349    478.66377      378.429    121.49216    37401.237 
  127300    304.70155   -1459.3107    480.57227    395.45503   -159.29397    37401.237 
  127400    301.20914   -1450.8436    446.78348    354.38275   -748.76886    37401.237 
  127500    307.84568   -1490.2483    475.78231    373.90743   -96.249613    37401.237 
  127600    300.72208   -1450.2204    481.74821    387.77404   -341.63463    37401.237 
  127700     300.1368   -1419.7704    464.16126    397.99754    313.44577    37401.237 
  127800    301.65682   -1442.0696    463.14566    381.53796   -134.28405    37401.237 
  127900     304.5787   -1462.6361    493.06784    404.07123   -358.62777    37401.237 
  128000    295.79207   -1463.3588    458.51705    329.17027    -330.7696    37401.237 
  128100    296.42785   -1455.8606    471.51661     352.5354    29.094438    37401.237 
  128200    294.94944   -1458.0585    486.62501    358.77835   -278.87925    37401.237 
  128300    293.20509   -1466.4419    457.26922    313.17212    64.222492    37401.237 
  128400    289.25572   -1461.8376    472.78918    315.48493   -106.93526    37401.237 
  128500    296.81027   -1454.0906    487.15278    371.66627   -309.64027    37401.237 
  128600     300.5654   -1458.1014     493.5959    391.03411    -331.1027    37401.237 
  128700    310.64784   -1474.0088    472.28109    399.28338    92.071171    37401.237 
  128800     304.1942   -1456.4053     471.6818    387.18185   -279.56842    37401.237 
  128900    300.43333   -1447.5951    483.78797    391.13685    -22.08374    37401.237 
  129000    303.22593   -1434.2996     479.1963    412.43522   -670.38396    37401.237 
  129100    293.66008   -1402.6277    480.88362    402.65282   -599.94012    37401.237 
  129200    300.99527   -1423.3451    481.37698     415.5102   -885.09324    37401.237 
  129300    292.68361   -1419.1278    488.93655    389.80179    214.64202    37401.237 
  129400    303.20843   -1413.7533    498.74857    452.45484    66.711055    37401.237 
  129500    307.56702   -1452.2807    506.05675    440.89274   -63.286484    37401.237 
  129600    291.30614   -1445.1741    497.46756    366.07407   -97.510451    37401.237 
  129700    316.64695   -1436.9091      484.944    476.10177    198.10518    37401.237 
  129800    302.14906   -1447.6262    472.10533    387.16101   -194.06776    37401.237 
  129900    302.71747   -1451.9243    475.08434    388.40543   -761.32416    37401.237 
  130000    293.19474   -1435.2398    459.84485    346.90328   -266.38467    37401.237 
  130100    291.55458   -1474.8848    480.65483    320.67112   -510.57376    37401.237 
  130200    295.19224   -1465.1536    468.75885    334.91204    369.76709    37401.237 
  130300    310.51498   -1461.1849    494.39022    433.61721     80.10731    37401.237 
  130400    312.30117   -1424.6079    461.92899    445.78858     163.5552    37401.237 
  130500    298.60542   -1424.7978    471.13475    393.03714   -240.87407    37401.237 
  130600    299.29055   -1462.6237    489.81416    376.98049   -319.83787    37401.237 
  130700    312.33742   -1461.1799    478.59633     426.0475   -188.76139    37401.237 
  130800    293.59017   -1425.4058    519.00662    417.68243     245.2926    37401.237 
  130900    296.95886   -1432.1779    485.37706    392.47339    70.876435    37401.237 
  131000    303.63783     -1436.62    491.13889    423.91506    637.71422    37401.237 
  131100    289.49104   -1417.5101    473.18508    361.26959    661.69286    37401.237 
  131200    294.03099   -1433.6463    491.08426    383.50764    484.02897    37401.237 
  131300    302.15806   -1426.9074      521.743    457.55809     673.5153    37401.237 
  131400    306.29731   -1396.5863    507.80928    492.61328    466.26988    37401.237 
  131500    301.47089   -1400.5015    468.65144    427.77327     106.6441    37401.237 
  131600    294.05311   -1410.2561    497.31116     413.2245    223.08001    37401.237 
  131700    303.47571   -1422.2177    502.77928    449.22655    376.75783    37401.237 
  131800    300.64749   -1418.1731    477.31897    415.05571    478.34993    37401.237 
  131900     300.9545   -1441.5823    498.26945    413.98156    228.55706    37401.237 
  132000    309.48554   -1411.6218    495.54202    479.68937    302.31933    37401.237 
  132100    293.45076   -1421.9434    483.38754    384.89692    674.97968    37401.237 
  132200     292.2339   -1488.9799    481.98737    310.97228    269.93463    37401.237 
  132300    307.04089   -1443.2079    478.12422    419.66013    587.95965    37401.237 
  132400    294.18891   -1438.2926     502.0414    390.53069    153.18875    37401.237 
  132500    293.55881   -1430.2565    487.20959    380.89323    405.64822    37401.237 
  132600    304.17288   -1474.8849    475.21675    372.14106    548.23926    37401.237 
  132700    311.94092   -1403.9325    497.21644    500.12673    623.17528    37401.237 
  132800    298.23851   -1439.2781    498.14597    403.91327    38.846646    37401.237 
  132900    303.89931   -1420.9581    467.65142    417.26872    596.61508    37401.237 
  133000    293.46781   -1465.1074    499.25807    357.68044    706.31281    37401.237 
  133100    299.89939   -1452.8467    478.96733    378.65657    790.65651    37401.237 
  133200     306.6682    -1425.661    476.40465    433.80672    593.12626    37401.237 
  133300    297.76373    -1447.185    436.85528    332.57451   -172.18255    37401.237 
  133400    304.16748   -1448.0676    504.40552    428.12277   -334.06262    37401.237 
  133500    311.83147   -1485.3655    469.79355    390.77726     -41.9129    37401.237 
  133600    295.96981   -1444.7126    473.91195    364.01306   -431.74199    37401.237 
  133700    295.52581    -1452.488    482.84811    363.17135    213.74799    37401.237 
  133800    308.37378   -1484.1849    467.03975    373.60999   -100.14467    37401.237 
  133900    295.01985   -1440.6211    507.00756     396.9158    171.98738    37401.237 
  134000    292.26759   -1436.6162    471.04824    352.54886    318.71444    37401.237 
  134100    300.01608   -1457.7232    500.19641    395.53538    735.25549    37401.237 
  134200    302.22618   -1429.7959    455.93666    389.17041    872.52353    37401.237 
  134300    294.57376   -1387.6058    472.16056     413.0723    955.69603    37401.237 
  134400    311.05444   -1412.2969    476.20632     466.7542    174.03247    37401.237 
  134500    303.16351   -1388.9319    485.67878    464.00388   -210.44057    37401.237 
  134600    301.50308   -1423.8836    491.82581    427.71068    176.58945    37401.237 
  134700     301.8327   -1412.2087     462.3527    411.39908    65.489609    37401.237 
  134800    307.25556   -1440.4313    489.88845     435.1691   -496.89508    37401.237 
  134900    303.51435   -1436.8815    481.93572    413.89353    78.416569    37401.237 
  135000    303.85025    -1471.289    467.41303     366.4782   -94.651284    37401.237 
  135100    304.29373   -1456.0583    474.56217    390.85813    512.86743    37401.237 
  135200    290.01531   -1397.5771    484.65097    395.03296    465.25274    37401.237 
  135300    312.60039   -1399.4428    476.55319    486.92739    36.170177    37401.237 
  135400    302.11895   -1391.3114    465.28148    436.51621   -140.37041    37401.237 
  135500    293.60482    -1361.088    459.68627    422.74595   -106.34305    37401.237 
  135600    307.60036   -1374.4178     471.3293    484.17854   -495.68451    37401.237 
  135700    300.37001     -1416.33    495.34116     433.6696   -99.194755    37401.237 
  135800    303.82048   -1388.4222    480.89228    462.69002    231.36644    37401.237 
  135900    303.07151   -1395.8024    469.82426    440.86395    203.32271    37401.237 
  136000     305.8676   -1374.4857     471.1326     476.0992    299.77514    37401.237 
  136100    297.80344   -1348.4335    486.12558    480.77539    593.34065    37401.237 
  136200    301.59096   -1397.3246    472.72839    435.56866    375.59918    37401.237 
  136300    304.23532   -1434.2607    494.53621    432.36635    339.32594    37401.237 
  136400    307.82553   -1414.7425    475.87896    449.41904    400.75612    37401.237 
  136500    300.81546    -1441.214    453.96391    369.41731   -234.13913    37401.237 
  136600    300.60965   -1393.5016    500.90564    463.14318    101.36093    37401.237 
  136700    299.95245    -1401.213    467.36159    418.92383    699.53944    37401.237 
  136800    302.69002   -1442.9005    492.81073     415.0318     -2.58991    37401.237 
  136900    288.49834   -1411.9236    482.86636    372.06038    401.65172    37401.237 
  137000    302.56997   -1387.3718    478.38997    455.59832    542.35909    37401.237 
  137100     299.3316    -1428.212    477.05067    398.81384    373.46285    37401.237 
  137200    299.39068   -1405.8009    476.75452    421.19533    428.29718    37401.237 
  137300    305.34723    -1418.124    498.99746    457.97896    463.97647    37401.237 
  137400    305.69953   -1445.0051    465.66479    399.35404    281.73817    37401.237 
  137500     290.8745   -1447.9931    471.49169    335.33254    374.82015    37401.237 
  137600    293.13718   -1445.5624    514.27259    390.74876    5.5309111    37401.237 
  137700    292.82946   -1451.0673    492.62357    362.20702   -495.56864    37401.237 
  137800    290.55664   -1426.7311    441.21591    324.88525   -614.46624    37401.237 
  137900    294.80728   -1436.5984    482.59904    375.57133   -681.70228    37401.237 
  138000    306.21708   -1436.2184    465.68141    410.49154   -273.74147    37401.237 
  138100    299.89481   -1465.4173    469.81593    356.91392    239.02961    37401.237 
  138200    303.50636    -1449.942    469.60378    388.46505    29.283239    37401.237 
  138300    304.89135   -1456.8491    494.21566    412.41605    187.48787    37401.237 
  138400    300.72974   -1415.7643    451.76444    392.28097    273.54904    37401.237 
  138500    301.29806    -1437.622    510.79975    432.02162   -171.90717    37401.237 
  138600    306.14278   -1469.4765    488.46784    399.68474   -280.86113    37401.237 
  138700    300.61281   -1431.3296    476.77546     401.1993    136.69459    37401.237 
  138800    298.20528   -1416.0814     474.5599    403.37406    241.64543    37401.237 
  138900    297.62198   -1420.9492    502.73614    424.05185   -62.833534    37401.237 
  139000    296.53486   -1455.7194    502.05698    383.69958      1085.04    37401.237 
  139100    292.70746   -1465.4917    470.63898    325.24783    832.95845    37401.237 
  139200    301.03745   -1451.5032     481.7868    387.95214    544.62046    37401.237 
  139300    303.83261   -1459.8709    487.43306    397.83674    649.34066    37401.237 
  139400     309.1384   -1404.8526    495.08087    484.43176    345.80491    37401.237 
  139500    295.74775   -1457.0349    462.94791     339.7252     159.7723    37401.237 
  139600    317.75207   -1415.3355    502.92451    520.63992    231.85034    37401.237 
  139700     304.0166   -1450.1427    484.29114    405.25282    130.93902    37401.237 
  139800    296.95314   -1485.3272    472.18439    326.10567    136.90557    37401.237 
  139900    302.50703   -1466.6492    482.42473    380.07177   -499.16875    37401.237 
  140000    305.52666   -1450.8484    471.37163    398.43797   -476.27401    37401.237 
  140100    306.97526   -1467.5719    484.13567    401.01167    171.12686    37401.237 
  140200    298.86924   -1467.3382    491.83399    372.38577    641.88051    37401.237 
  140300    308.16627   -1466.3244    481.07527    404.57018    844.92024    37401.237 
  140400    308.62555   -1478.1022    477.18403     390.9725    818.59839    37401.237 
  140500    306.02872   -1478.3333    475.30105    377.14682    558.62544    37401.237 
  140600     291.7393   -1497.7202    476.88429    294.89831    -264.7438    37401.237 
  140700    295.30565   -1474.9714     479.9683    336.81527    129.12558    37401.237 
  140800    292.28579   -1511.8918    506.29917    312.60624   -713.97331    37401.237 
  140900    303.44182   -1478.9739    468.35149    357.88975   -363.34203    37401.237 
  141000    299.25259   -1456.5601    487.06025    380.11901   -788.03642    37401.237 
  141100     294.7337   -1439.0952    479.50845    369.65206   -475.54841    37401.237 
  141200    289.03583   -1432.3102     484.7284    355.95982   -493.32944    37401.237 
  141300    294.42683   -1465.9602    483.93958    345.83423   -781.81387    37401.237 
  141400     301.6757   -1472.7996    495.54352    383.29098   -556.71886    37401.237 
  141500    302.47853   -1460.3366    483.87371    387.70486   -122.28208    37401.237 
  141600    298.36801   -1477.5652    494.15164    362.21594    251.42825    37401.237 
  141700    301.39289   -1419.1212    472.85464      413.005    765.50787    37401.237 
  141800    307.65943   -1436.9846    495.47363    446.02248    734.98279    37401.237 
  141900    308.07558   -1396.8494    464.89342    457.45434    470.82988    37401.237 
  142000    300.31677   -1443.0686    471.57891    382.92862   -208.67657    37401.237 
  142100    313.88695   -1428.1546    487.53004    474.99476   -687.20012    37401.237 
  142200    297.11562   -1461.3093    475.14121     353.8131   -410.81383    37401.237 
  142300    292.88135   -1422.7153    465.56624     363.7357   -612.52246    37401.237 
  142400    308.13645   -1451.9608    491.31743    429.04148    30.970663    37401.237 
  142500    291.91346    -1457.663    504.36758    363.22431    42.939084    37401.237 
  142600    309.45673   -1447.6318    468.49668    416.50409    474.74717    37401.237 
  142700    287.62532    -1455.954    458.07728    299.30354    86.553078    37401.237 
  142800    309.73663   -1427.0685    513.83514    483.66813   -99.115808    37401.237 
  142900    307.50022   -1428.2275    510.46757    469.05551    66.281061    37401.237 
  143000    301.16527    -1438.275    461.68952    381.65952   -38.766179    37401.237 
  143100    307.35526   -1448.5269    461.18718    398.82196   -37.620001    37401.237 
  143200    299.89018   -1436.4927      499.435    415.43673    712.86861    37401.237 
  143300    297.71418   -1443.7205    497.92226    396.88249     310.3659    37401.237 
  143400    294.23595   -1461.8567    468.67914    333.81645   -175.54711    37401.237 
  143500     300.0882   -1389.8064    528.27325    491.85434   -144.28929    37401.237 
  143600    301.50764   -1418.2689    465.69826    407.21846    268.99335    37401.237 
  143700    302.74756   -1430.5923    473.22999    408.01875   -160.21113    37401.237 
  143800    288.20491   -1400.5956    533.66344    432.86206    97.886177    37401.237 
  143900    307.16068   -1442.2556    495.21443    438.24299    219.98397    37401.237 
  144000    296.05957   -1421.7984    479.94443     393.3645     97.76945    37401.237 
  144100    297.54441   -1430.6373    501.61508    412.89283   -449.99978    37401.237 
  144200    293.34767   -1419.1483    448.21229    352.05188   -106.59233    37401.237 
  144300    306.46565   -1418.2564    507.92354    471.81667     299.0292    37401.237 
  144400    310.39192   -1462.6364    476.48775    413.70827   -436.35931    37401.237 
  144500    294.01924   -1430.5061    476.56099    372.07159   -174.32342    37401.237 
  144600    307.56371   -1477.0952    480.01162    390.01814   -438.31711    37401.237 
  144700       299.96   -1480.5208     485.4247    357.71319    100.50108    37401.237 
  144800    300.57328   -1465.0527    445.82221    336.34465    43.080932    37401.237 
  144900    288.65881   -1477.0637    481.38171    306.15937    669.48653    37401.237 
  145000    294.60405    -1495.647    498.08948    331.09659    590.39422    37401.237 
  145100    299.52968   -1485.7412    505.58465    370.71197    40.161192    37401.237 
  145200    291.63527   -1484.1607    470.89847    302.00281      371.257    37401.237 
  145300     298.2273   -1472.0152    473.08216    346.06185    24.841628    37401.237 
  145400    304.54357    -1482.896    474.82979    365.41477    148.65355    37401.237 
  145500    297.57023   -1420.6795    495.29203    416.64399    -718.1874    37401.237 
  145600    297.03124   -1426.0184    475.24708    388.82938    18.888257    37401.237 
  145700    293.30961   -1445.2058     472.5188     350.1293   -159.20229    37401.237 
  145800    298.77201   -1391.2195     503.2835     459.5155    63.677923    37401.237 
  145900    298.83416   -1391.9089    484.77831    440.60124   -118.38544    37401.237 
  146000    302.14872   -1427.3899    483.67261     418.9631    646.70014    37401.237 
  146100    303.97364   -1422.0481     493.9505     442.8131    182.65966    37401.237 
  146200    304.57187   -1434.8176    509.10017    447.89126   -163.65665    37401.237 
  146300    298.75065   -1459.0058    470.80847    359.15777    289.19278    37401.237 
  146400    303.98576   -1454.1232    490.98169    407.82385    -3.965258    37401.237 
  146500    293.04742   -1457.9731    485.57818    349.23885   -96.010372    37401.237 
  146600    302.35875   -1472.4444    477.89566    369.07882    481.33307    37401.237 
  146700    292.69096   -1454.3615    473.56481    339.22944    -355.2567    37401.237 
  146800     305.2527   -1418.8938    501.98782    459.77319    72.957834    37401.237 
  146900    296.10126   -1460.9074    495.55177    370.05089   -385.32182    37401.237 
  147000     289.5808   -1445.8336    491.65884    351.82471    172.41872    37401.237 
  147100     304.8315    -1476.473    485.21104    383.51759    172.93668    37401.237 
  147200    300.88459   -1418.0581    503.22213    442.14324    175.61581    37401.237 
  147300    292.42963   -1407.7553    498.90068    409.99295   -635.24744    37401.237 
  147400    299.50636   -1435.5658    478.18625    393.38378   -318.84689    37401.237 
  147500    304.02971   -1450.9218    477.71159    397.95337     338.3579    37401.237 
  147600    293.28789   -1446.3996    491.69286    368.01157    310.16215    37401.237 
  147700    306.66655   -1458.3491    503.47076    428.17721    1027.0003    37401.237 
  147800    288.38146   -1435.7422    487.70258    352.55084     423.4076    37401.237 
  147900    302.68764    -1405.774    501.42188     460.7587    567.06077    37401.237 
  148000    301.96821   -1470.1674     480.5142    372.21301    146.22141    37401.237 
  148100    303.49886   -1357.4813    481.11501     492.4031   -72.570423    37401.237 
  148200    298.69895   -1392.8151    509.09701    463.40386    90.839197    37401.237 
  148300    298.99288   -1423.2217    486.00687    411.23275   -116.03019    37401.237 
  148400    292.38531    -1424.418    473.66242    367.89209   -405.28222    37401.237 
  148500    310.13108   -1380.0756    520.38905    538.99398   -97.804442    37401.237 
  148600    287.58632   -1412.3931     504.9907    389.60202   -272.71769    37401.237 
  148700    301.43881   -1428.6087    489.09468    419.96461    13.919631    37401.237 
  148800    296.21979   -1402.7184    496.53308    429.75573     346.9793    37401.237 
  148900    297.76585   -1383.1037    507.42034    467.23043   -421.66179    37401.237 
  149000    309.59797   -1384.3152    498.05514     510.0162    -243.2858    37401.237 
  149100    303.16406   -1437.2401    490.70173    420.72109    22.099118    37401.237 
  149200    306.23901   -1422.5657    487.88676    446.44842   -10.734647    37401.237 
  149300    295.96122   -1404.4498    494.47151    424.79657   -413.76409    37401.237 
  149400    301.62034   -1402.6732    485.10807    442.73229   -508.26839    37401.237 
  149500    305.44083   -1425.8403    465.06226    416.74959   -343.83463    37401.237 
  149600    303.08687    -1397.023    494.29412    464.18248   -37.497604    37401.237 
  149700    298.67603   -1391.5906    492.41352    447.84151   -214.68965    37401.237 
  149800    306.85264   -1369.0126    505.46591    520.34812    456.49622    37401.237 
  149900    296.15275   -1402.6113    504.62219    437.64959   -579.18465    37401.237 
  150000    294.63873   -1431.0784    489.03358    386.76573   -540.71076    37401.237 
  150100    307.56175   -1419.2692     482.9109    450.73461   -74.199715    37401.237 
  150200    308.83909   -1410.4648    488.30302    470.69188    402.81144    37401.237 
  150300    301.23191   -1419.6243    496.07011    434.99129   -538.49728    37401.237 
  150400    291.68812   -1393.1497    497.67775    420.03146    -430.6196    37401.237 
  150500    305.67773   -1404.1788    508.19988    482.61718   -106.51046    37401.237 
  150600    290.89039   -1421.1357    458.05364    348.82359   -60.831846    37401.237 
  150700    295.53192   -1384.0488    496.11975    444.90971    881.70336    37401.237 
  150800    302.61896   -1437.8196    496.20075    423.18222    826.37332    37401.237 
  150900    288.94011   -1444.3017    488.92612    347.73441    768.53577    37401.237 
  151000    310.46686   -1429.2145    478.97943    449.95973    627.11938    37401.237 
  151100    289.82995   -1387.1238    494.56309    414.56237    142.73818    37401.237 
  151200    299.98839   -1417.6267    508.31664    443.62728    100.85856    37401.237 
  151300    296.78338   -1446.6523    465.53711    357.36764    17.868514    37401.237 
  151400    305.75099   -1421.1403    474.38129     432.1674   -219.01269    37401.237 
  151500    298.23805   -1415.2029     482.5225    412.36299   -590.88287    37401.237 
  151600    309.77293   -1410.8348    486.89719    473.12762   -49.616557    37401.237 
  151700    294.95378   -1443.4921    508.38484    395.12418   -360.57328    37401.237 
  151800    306.88362    -1469.436    499.75538    414.35391   -566.65321    37401.237 
  151900    298.72716   -1456.9762    473.43579    363.70881    286.48833    37401.237 
  152000    305.42871   -1413.7488    499.29704    463.02127    149.03962    37401.237 
  152100    304.39851   -1448.9731    486.52736    410.38102   -103.12883    37401.237 
  152200    297.59777   -1452.2903    480.06129    369.92674    48.609771    37401.237 
  152300     303.9346   -1469.6365    469.81367    370.91176   -219.12965    37401.237 
  152400    293.92663   -1442.0812     448.2851    331.80292   -92.395627    37401.237 
  152500    300.78916   -1476.8744     488.4373    368.11164   -389.82817    37401.237 
  152600    302.57624   -1451.5314    474.52628    387.60337    123.80436    37401.237 
  152700    296.51093   -1396.3182    511.87338    452.80925    153.78855    37401.237 
  152800    310.28739   -1408.0535    493.42518    484.75716    651.90092    37401.237 
  152900    297.03377   -1433.5785    503.87165    409.90526    216.99734    37401.237 
  153000    292.80015   -1469.5471    487.11162    338.08311    218.13073    37401.237 
  153100    288.42908   -1447.3573    503.78564    357.23363   -75.400493    37401.237 
  153200    303.51879   -1458.8894    486.16218    396.13204   -311.75123    37401.237 
  153300    296.24703   -1471.8647    502.20936    366.40855    105.15879    37401.237 
  153400    303.85154   -1451.3539    504.13809    423.14418    311.08888    37401.237 
  153500    303.31222   -1452.6043    493.08139    408.40473    478.31276    37401.237 
  153600    297.93315   -1426.5277    483.92078    401.06135    582.86348    37401.237 
  153700    299.65285    -1472.623    474.75388    353.55494    187.12278    37401.237 
  153800    305.80658   -1474.3186    488.45108    393.30962    134.73349    37401.237 
  153900    301.38453   -1469.1918    480.11606     370.1581    704.73492    37401.237 
  154000    302.53179      -1463.4    495.36928    396.37723    141.86516    37401.237 
  154100    300.24587   -1492.8371    495.54185     356.8033    400.78352    37401.237 
  154200      302.636    -1461.736    482.37135    385.51329     286.2832    37401.237 
  154300    300.19827   -1486.7918    489.59168    356.68374   -1078.6169    37401.237 
  154400    294.03433   -1433.5492    478.62499    371.16051   -1186.0605    37401.237 
  154500     307.2864   -1442.1039    477.64966    421.39683   -1052.9606    37401.237 
  154600    291.44924   -1491.4322    488.51661     311.5105    -991.6506    37401.237 
  154700    293.38432   -1422.6731    508.65561    409.13569    8.2864658    37401.237 
  154800    288.52064   -1486.4848    477.14929    291.88265   -285.40092    37401.237 
  154900    313.43343   -1447.0976    473.40827    439.88473    167.83104    37401.237 
  155000     295.2354   -1444.0291    501.23815    388.71052   -267.77231    37401.237 
  155100    299.86016   -1466.1821    500.76206    386.93896    81.782518    37401.237 
  155200    317.02951   -1428.8832    487.73767    488.64663    251.58273    37401.237 
  155300    302.76722   -1476.2384    480.50316    369.73448   -65.253421    37401.237 
  155400    294.53095   -1442.8136    496.41646    381.92732   -228.04502    37401.237 
  155500    306.06558   -1453.3368     471.2317     398.2402   -143.19651    37401.237 
  155600    298.53656    -1486.651    475.87747    335.61612   -902.24378    37401.237 
  155700    295.39284   -1408.7004     502.8409    426.35203   -821.48161    37401.237 
  155800     306.9446   -1423.2064    493.25986    454.36301   -545.62467    37401.237 
  155900    304.67834   -1427.3408    483.81044    430.55852   -711.83679    37401.237 
  156000    298.52463    -1370.987     513.6478    488.99666   -193.30047    37401.237 
  156100    293.12953    -1421.434    478.19414     378.7643   -722.80893    37401.237 
  156200    299.82377   -1423.8501    501.72622    430.07106   -595.72308    37401.237 
  156300    296.76017   -1389.6311     474.7813    423.52831   -109.99008    37401.237 
  156400    303.52253   -1396.2664     512.3329    484.94272   -156.81826    37401.237 
  156500    306.52572     -1421.86     505.4378    465.99829   -76.376819    37401.237 
  156600    297.93552   -1415.9211    469.91159    397.66941    153.53465    37401.237 
  156700    297.89136   -1374.0546    500.43148    469.85669    136.00757    37401.237 
  156800    296.23287   -1364.4917    501.64598    473.15431   -222.20644    37401.237 
  156900    305.00995   -1368.7878    518.39685    525.19346   -208.03434    37401.237 
  157000     290.0166   -1347.6939    491.62509    451.89605   -205.79249    37401.237 
  157100    298.89444   -1365.6555    504.27397     486.6221   -174.93304    37401.237 
  157200    296.05492   -1389.0292    476.50193    422.67021    261.84841    37401.237 
  157300    301.90083   -1376.8329    487.98004    472.70955    753.90068    37401.237 
  157400    307.65133   -1371.1283     481.2906    497.65916    112.25424    37401.237 
  157500    302.72431   -1366.5745    473.67659    472.37829    371.36426    37401.237 
  157600     291.2579   -1338.0901    502.67895    478.15191    -206.8665    37401.237 
  157700     305.5836   -1376.4315    490.45441    492.19438   -377.07243    37401.237 
  157800    300.21212   -1416.3583    482.57182     420.1599    -360.1948    37401.237 
  157900    296.87024    -1414.748    477.96653    402.09313    442.84281    37401.237 
  158000      292.677    -1406.696     466.7191    379.98625    373.27409    37401.237 
  158100    303.00812   -1396.7374    530.56554    500.38433   -51.728449    37401.237 
  158200    300.75439   -1423.5728    492.14084    424.96005   -756.02979    37401.237 
  158300    311.60405   -1387.6231    500.12773     517.8282   -337.38845    37401.237 
  158400    296.83926   -1419.2029     480.2597    399.79164   -700.24522    37401.237 
  158500    306.92819   -1444.8897     502.4565    441.80236   -549.42219    37401.237 
  158600    299.21056   -1431.9885    478.93662    396.37751    -256.5518    37401.237 
  158700    300.34874   -1433.1746    464.74718    386.13502   -31.648665    37401.237 
  158800    296.88491   -1459.6182    503.77239    383.09493   -12.224918    37401.237 
  158900     301.2505   -1442.2828    500.07246    416.41904     61.74017    37401.237 
  159000    300.18141   -1443.3245    464.31348    374.79683    245.99706    37401.237 
  159100    294.91103   -1462.9961    491.80523    358.84767    173.28348    37401.237 
  159200    305.88619   -1466.8276    509.90998    422.61853    95.997927    37401.237 
  159300    293.34091   -1446.8191    495.72918    371.86752   -265.80195    37401.237 
  159400    299.10211    -1447.354     503.8807    405.46698    -101.3663    37401.237 
  159500    299.04855    -1448.241    509.25109    409.70874   -337.91718    37401.237 
  159600    300.17016   -1434.9566    478.90521    397.70573   -179.72559    37401.237 
  159700    309.10395   -1441.4312    496.61245    449.22938   -358.24764    37401.237 
  159800    305.41434   -1451.0111    504.46403    430.86111   -1085.9016    37401.237 
  159900    299.00401   -1416.3905    484.23032    416.33763   -412.99381    37401.237 
  160000    311.54318    -1479.091    470.08426    396.04223   -411.69219    37401.237 
  160100    308.54446   -1411.0679    465.94431    446.40131   -319.45393    37401.237 
  160200    289.77908   -1442.5753    480.61151     344.9299   -555.18279    37401.237 
  160300     301.0757   -1421.0362    481.67011    418.47502   -334.64984    37401.237 
  160400    295.56545   -1429.6965    498.09185    401.38534   -302.20874    37401.237 
  160500    304.64295   -1410.3465    481.87906    445.46182   -188.34692    37401.237 
  160600    297.35595   -1434.9873    496.14017    402.21795    31.998779    37401.237 
  160700    293.15657   -1443.4737    487.65424    366.30657     377.2032    37401.237 
  160800    295.83627    -1450.659    495.27533    378.82769   -84.904846    37401.237 
  160900    303.43584   -1479.7376    491.47367    380.22123    202.92872    37401.237 
  161000    294.20583   -1455.4247     471.6844    343.11785    -448.7765    37401.237 
  161100    294.78777   -1427.5937     494.0772     395.9662   -250.37779    37401.237 
  161200    310.82093   -1487.7571    480.67198    394.70657   -477.80364    37401.237 
  161300    294.96622   -1464.4975    496.94898    362.73902   -223.57194    37401.237 
  161400    289.29671   -1494.9727    471.03145    280.77691   -179.28942    37401.237 
  161500    306.60562   -1442.6513     505.8123    445.94179     140.7501    37401.237 
  161600    307.63435   -1457.7581     520.1917    449.85395    273.19926    37401.237 
  161700    293.42736   -1464.2587    466.94355    326.03217    518.60192    37401.237 
  161800    290.28569   -1455.4896    483.83654    337.52542    166.74324    37401.237 
  161900     298.0495   -1489.0574    491.17585    346.31145    906.77959    37401.237 
  162000    304.77595   -1448.0453    460.15115     386.6349    342.09874    37401.237 
  162100    309.43231   -1460.3761    484.45088    419.60389    148.27194    37401.237 
  162200    303.56042   -1487.1527    482.35872    364.25311    -131.2022    37401.237 
  162300    303.74885   -1491.0765    497.41233    376.23266    -138.0118    37401.237 
  162400    300.53705   -1462.1881    481.09508     374.3188   -952.22686    37401.237 
  162500    304.00846   -1463.0804    492.95491    400.94218   -721.75273    37401.237 
  162600    312.11965   -1448.1355    494.94431    454.45769   -578.74354    37401.237 
  162700    297.95955   -1430.6128    469.55804    382.73251   -515.14578    37401.237 
  162800    303.81499   -1461.3291    486.65558    395.52162    -422.6299    37401.237 
  162900    303.19979    -1431.093    472.49813    408.82573     255.5078    37401.237 
  163000     292.1411   -1459.0204    480.89055    339.41645   -194.72447    37401.237 
  163100    307.66281    -1425.436    512.38747    474.50017   -621.69078    37401.237 
  163200    301.19241   -1446.7346    473.89045     385.5232   -765.96089    37401.237 
  163300    299.05666   -1424.3067    493.44794    417.87653   -110.78281    37401.237 
  163400    306.02773    -1408.822    492.74817    464.10071   -346.98885    37401.237 
  163500    312.37518    -1417.152    482.96708    474.61639   -505.62311    37401.237 
  163600    310.18248   -1451.0163    503.18365    451.07969   -811.25207    37401.237 
  163700    298.74581   -1426.5804    478.84696    399.59988     -357.522    37401.237 
  163800    293.52724   -1440.4864    472.80479    356.11619   -241.13068    37401.237 
  163900    304.00841   -1430.0263    488.14689    429.18809   -273.02828    37401.237 
  164000    299.06533   -1469.3678    495.87018    375.27674   -313.83897    37401.237 
  164100    303.43042    -1466.189    510.08768    412.35948   -230.67621    37401.237 
  164200     288.8389   -1492.6865    515.19559    325.16259   -521.45808    37401.237 
  164300    307.69558   -1482.1448    487.20929    392.76095   -45.013436    37401.237 
  164400    291.21405   -1491.2981    509.06256    331.12983    -234.3166    37401.237 
  164500    296.48304   -1487.7286    471.96341    321.36316    78.271494    37401.237 
  164600    307.05932   -1467.2079    480.96896    398.58798   -574.58696    37401.237 
  164700    305.29532   -1501.7728    490.83959    365.93815   -342.78325    37401.237 
  164800    313.01548   -1500.5453    480.76519    391.90888    -290.5361    37401.237 
  164900    288.39123   -1454.2517    476.11805    322.50087   -578.26018    37401.237 
  165000    295.89787   -1516.4135    488.89446    306.97016    -655.8508    37401.237 
  165100    312.43877   -1512.1337     490.6935    387.64796   -639.89709    37401.237 
  165200    299.35945   -1487.8636    496.65736    358.89458   -647.01407    37401.237 
  165300    291.57324   -1493.0581    489.97926    311.90643   -693.74761    37401.237 
  165400    295.48408   -1479.4147    492.70847    345.91676   -398.98456    37401.237 
  165500    294.30951   -1494.5371     511.5333     344.3219  -0.49213546    37401.237 
  165600    301.46443   -1472.0545    485.25677    372.79645    427.92665    37401.237 
  165700    308.82632   -1454.6228    498.24995    436.42325   -143.18127    37401.237 
  165800    294.76273   -1515.0978    491.63428    305.90624   -541.84434    37401.237 
  165900     294.1247   -1528.3995    490.07757    288.17039   -486.29496    37401.237 
  166000    291.73199   -1504.7089    475.72003     286.7124   -795.98733    37401.237 
  166100    308.56842   -1529.7657    491.99843    353.86567   -1056.9959    37401.237 
  166200    293.07958   -1500.7005    483.73906    304.81737   -424.67398    37401.237 
  166300    298.78962   -1531.2401    482.97405    299.26479   -516.01919    37401.237 
  166400    308.54879   -1527.5191    514.93081    378.95608   -529.46622    37401.237 
  166500    294.70569   -1489.6327    500.88974    340.36958     686.4668    37401.237 
  166600    296.73661   -1485.7336    484.76052     337.2988    411.24258    37401.237 
  166700    298.12237   -1464.4975    501.92895    381.95305    221.91383    37401.237 
  166800    296.21703   -1437.5972    513.57456    411.90595    245.72742    37401.237 
  166900    299.28819   -1455.5763    491.59566    385.79876    682.37249    37401.237 
  167000    304.94782    -1464.757    501.43091    411.97812    180.76132    37401.237 
  167100    304.72525   -1502.0203     495.7409    368.02097    -10.06278    37401.237 
  167200    299.38708   -1492.8707    500.70828    358.06302    192.31973    37401.237 
  167300    301.28701   -1458.5502    495.34868    395.59251    205.97925    37401.237 
  167400    309.68624   -1456.0675    529.76962    470.37643   -281.87652    37401.237 
  167500    300.41928   -1469.0829    497.15702    382.95475   -278.75735    37401.237 
  167600    300.27149   -1451.6189    521.99657    424.59174    329.94676    37401.237 
  167700    299.19298   -1430.3293     497.6132    416.63396    175.44144    37401.237 
  167800    301.23336   -1446.0488    523.62862    436.13188    63.474145    37401.237 
  167900    310.39667   -1478.1634    504.73645    426.45132   -200.82369    37401.237 
  168000     303.1273   -1491.6432    497.57467    373.02512    380.67979    37401.237 
  168100      298.747   -1477.2617    505.14728    375.22433    -350.2225    37401.237 
  168200    294.63302   -1499.9759      500.771    329.57987   -311.47344    37401.237 
  168300    294.61866   -1444.3256    507.66167    392.05609    267.07297    37401.237 
  168400    308.83211   -1447.6504    505.89245    451.06422    -629.8475    37401.237 
  168500    294.53871   -1452.6324    507.98737    383.71445   -79.101948    37401.237 
  168600    300.15548   -1458.3851     513.9192    409.22498    173.80003    37401.237 
  168700    301.61899   -1466.6411    505.25431    398.90449    502.63904    37401.237 
  168800    294.22181   -1462.7568    489.42532    353.59877   -237.66677    37401.237 
  168900    298.81076   -1528.2458    497.78844    317.16894   -109.81572    37401.237 
  169000    295.74567   -1474.5849    509.11473    368.33267   -555.70196    37401.237 
  169100     297.0324   -1463.8554    518.41946    394.16993    -741.6945    37401.237 
  169200    302.93749   -1484.1775    491.58449     373.6446   -395.23942    37401.237 
  169300    293.58731   -1443.8351    515.21142    395.44496   -171.10294    37401.237 
  169400    311.20228   -1460.2102    501.45907    444.76045   -44.382232    37401.237 
  169500    315.96525   -1456.9345    485.99918    454.05707   -225.76679    37401.237 
  169600    299.30328    -1448.996    498.78481    399.63634   -449.95932    37401.237 
  169700     301.5999   -1450.4474    494.04832    403.80613   -209.81676    37401.237 
  169800    303.87673   -1419.0425    502.17526    453.60638    468.43907    37401.237 
  169900    299.50809     -1447.38    500.64684    404.03805     673.0753    37401.237 
  170000    293.99812   -1532.1187    479.56008    273.36285    294.90905    37401.237 
  170100    309.35601    -1493.896    509.49001    410.77899    211.91575    37401.237 
  170200    291.07868   -1458.8577    501.68276    355.57994    101.10945    37401.237 
  170300    302.86807   -1492.3058    503.91665     377.5354   -176.28581    37401.237 
  170400     303.5516   -1489.0971    502.82988    382.74006   -36.780508    37401.237 
  170500    302.72166     -1457.04    511.66383    419.88806     224.2891    37401.237 
  170600     303.1922   -1499.7526    514.78416      382.418   0.19181328    37401.237 
  170700     301.6357   -1445.6478    510.46517    425.18402    306.42472    37401.237 
  170800    296.38029   -1465.3933    511.72485    382.99649    664.03636    37401.237 
  170900    301.93323   -1468.4827     489.4824    382.70822   -206.22892    37401.237 
  171000    292.41665   -1465.2247    503.91702    357.48138   -120.71637    37401.237 
  171100    303.65757   -1427.7539    512.15521    453.88656   -400.87818    37401.237 
  171200    311.20966   -1446.9237    484.52502    441.14617    -897.7697    37401.237 
  171300    302.38805   -1473.4785    527.53747    417.81872   -1121.0311    37401.237 
  171400    294.84784   -1451.4728    481.94277    360.22355    123.15323    37401.237 
  171500    298.66807   -1437.3417    498.86863    408.50965    16.449819    37401.237 
  171600    301.24971   -1458.5561     504.2815     404.3512    93.387096    37401.237 
  171700    299.05794    -1469.134    502.72218    382.32917   -219.19848    37401.237 
  171800    287.12299   -1440.3008    512.80162     367.4156   -347.98108    37401.237 
  171900    298.39301   -1436.3079    500.06887    409.50318   -505.29566    37401.237 
  172000    294.17289   -1459.5927    521.63079     388.7477     45.77564    37401.237 
  172100    289.86186   -1446.4617    498.92518    359.73048   -99.725457    37401.237 
  172200    298.37698   -1415.3297    490.78691    421.12709   -133.13031    37401.237 
  172300    300.20571    -1409.126    531.56968    476.36107     37.95264    37401.237 
  172400    301.34032   -1449.1865    505.54178    415.38973    577.23919    37401.237 
  172500     295.5795   -1444.4369     497.0662    385.68268    125.57158    37401.237 
  172600    290.27545   -1452.4609    502.67227    359.34368    85.444256    37401.237 
  172700    301.79637   -1442.8838    521.20927    439.41675    98.273722    37401.237 
  172800    298.55053   -1465.5792    489.09537    369.96878    28.133485    37401.237 
  172900     298.4214   -1460.6531    473.53157    358.74871    -37.50579    37401.237 
  173000     295.9006   -1447.7251    488.99788    375.77431    8.2200592    37401.237 
  173100    310.35614   -1490.8439    501.43694    410.28857    100.20083    37401.237 
  173200    290.41923   -1502.9402    492.18468    299.02521    673.06727    37401.237 
  173300     298.1298   -1534.5293    496.96901    306.99491    557.77989    37401.237 
  173400    299.40885   -1543.1333    476.80505    283.99533    322.23353    37401.237 
  173500    301.32071   -1493.8671    484.64362    349.72261    232.57886    37401.237 
  173600    306.79816    -1514.276    497.98815    367.36131   -129.00998    37401.237 
  173700    293.77052   -1544.3382    478.99694    259.55372    357.98879    37401.237 
  173800    302.87174   -1538.2755    473.98592    301.65154    371.86037    37401.237 
  173900    303.81791   -1511.2716    499.58015    358.51685    336.73909    37401.237 
  174000    306.52499   -1489.3899    488.24079    381.26804   -189.35794    37401.237 
  174100     302.3987   -1465.3539    507.48287    405.93673    358.24242    37401.237 
  174200    294.37193    -1474.771    493.74786    346.58413    370.06377    37401.237 
  174300    300.30955   -1490.0356    491.27629    355.62641    97.329976    37401.237 
  174400    303.84044   -1500.8102    481.06051    350.56024    176.50303    37401.237 
  174500    299.29028   -1483.1293    505.55495    372.21446    1115.7987    37401.237 
  174600    301.72971   -1494.3208     485.0084    351.47821    321.34032    37401.237 
  174700    301.85797   -1499.1845    506.98342    369.16794     395.3444    37401.237 
  174800     312.3487   -1520.5092    463.90337    352.07603   -212.44219    37401.237 
  174900    297.43275    -1476.436    483.51752    348.49297    176.34332    37401.237 
  175000    298.45791    -1456.919    486.93831    376.05426   -212.52121    37401.237 
  175100       302.67   -1495.6919    515.42383    384.76325    87.646815    37401.237 
  175200    288.43491   -1536.3411    494.03219    258.52258   -146.47063    37401.237 
  175300    302.62442   -1492.1258     480.2338    352.93375   -177.90606    37401.237 
  175400    299.26743   -1502.8414    502.38723     349.2317    268.41952    37401.237 
  175500     300.6083   -1476.1869    484.58792    364.13412    442.74356    37401.237 
  175600    301.25287   -1497.1076    475.92056    337.45306   -212.68404    37401.237 
  175700     303.1797   -1438.0985    503.98257    433.21412   -255.38587    37401.237 
  175800     299.4719   -1460.2654    498.39483    388.73742   -572.20594    37401.237 
  175900    300.29129   -1479.6867    493.22573    367.84244   -367.07206    37401.237 
  176000    295.70178   -1494.5078    497.80087    336.89791   -611.15611    37401.237 
  176100    289.87226   -1435.1539    513.31312     385.4732   -786.95234    37401.237 
  176200    301.35961   -1449.0368    486.52656    396.61129   -714.71004    37401.237 
  176300    302.51585   -1490.0608    480.26083    354.53616   -597.76999    37401.237 
  176400    306.71001   -1529.8559    501.42801    354.82369   -865.57536    37401.237 
  176500    296.95166   -1498.5606    470.26225    310.94344   -277.65746    37401.237 
  176600    300.46262   -1479.8636    483.83205    359.04455   -306.96056    37401.237 
  176700     292.5097   -1476.0915    473.50052    316.61775   -106.12286    37401.237 
  176800    304.96622   -1462.7655    516.70969    429.33133   -251.51504    37401.237 
  176900    306.33139   -1494.6094    506.42586    393.36049    135.27227    37401.237 
  177000     294.4777   -1512.0114    483.83807    299.91092    690.41032    37401.237 
  177100    300.02019    -1521.368    485.95649    317.66923    250.82088    37401.237 
  177200    305.72944   -1471.6288    490.01289    397.21332   -117.49232    37401.237 
  177300    295.81492   -1417.7678    495.97985    412.32713    178.94961    37401.237 
  177400    306.31897   -1475.1827    479.74924    386.05455   -513.93185    37401.237 
  177500    298.98734   -1438.4061    483.37306    393.38962   -321.27769    37401.237 
  177600    302.89415   -1432.7253    501.24097    434.55785    153.19499    37401.237 
  177700    302.69413   -1441.2227    495.28344     419.2009    138.82633    37401.237 
  177800    304.12996    -1448.193    476.29863    399.72131   -73.875252    37401.237 
  177900    300.65223   -1488.4489    483.14576    350.62809   -155.03856    37401.237 
  178000     301.5555   -1463.9576    500.23751    396.28484   -57.166483    37401.237 
  178100    306.57604    -1481.996    496.97114    397.62255    13.960608    37401.237 
  178200    300.57815   -1504.6298    490.63372    341.60103   -2.7192173    37401.237 
  178300    294.99207   -1504.0002    472.57499    298.97885    388.66641    37401.237 
  178400    301.48581   -1523.1093    470.05999    306.64131    -97.24841    37401.237 
  178500    296.37308   -1459.2555    467.38397    344.76088    294.50971    37401.237 
  178600     299.0221    -1460.344    489.16241    377.39784   -82.135393    37401.237 
  178700    294.77219   -1448.6362    489.49907    370.27535    462.58577    37401.237 
  178800    293.77596   -1436.5893    495.62173    383.95185    623.10197    37401.237 
  178900    303.47191   -1493.6214    492.41922    367.44568    325.19344    37401.237 
  179000    297.92743   -1480.8927    503.11117    365.86094    211.25074    37401.237 
  179100    300.61066   -1442.4754    496.22746    409.49581    276.70444    37401.237 
  179200    303.35263   -1398.2718    509.75155    479.58969   -570.17355    37401.237 
  179300    298.93674   -1439.2306    485.82227    394.78612   -672.35835    37401.237 
  179400    308.54466   -1450.0196    496.16415    437.67038    -348.1431    37401.237 
  179500    293.32573   -1441.4271    488.89449    370.35638   -495.81474    37401.237 
  179600    305.93123   -1458.5449    506.09606    427.29044    24.232022    37401.237 
  179700    316.03272   -1497.4638    501.68938    429.52227   -176.71582    37401.237 
  179800    298.66369   -1492.3081    497.09162    351.74652   -392.62858    37401.237 
  179900    295.45789   -1436.8511    514.19214    409.84601   -268.65879    37401.237 
  180000    306.93605   -1429.3108    507.66421    462.62445   -39.509194    37401.237 
  180100    299.33932   -1459.2821    497.12742    387.85538    8.9365336    37401.237 
  180200    310.53591   -1451.8537    473.27711    421.92969     -260.371    37401.237 
  180300    299.03745   -1494.5642    466.63418    320.71859   -754.93141    37401.237 
  180400    294.86473   -1459.6781    513.44242     383.5941   -779.41659    37401.237 
  180500    299.07474   -1449.2532    467.83127    367.39485   -140.55741    37401.237 
  180600    296.61966   -1508.7902    478.75866    307.71294    29.595866    37401.237 
  180700    298.94545   -1505.9865    508.56303    350.81018   -54.809377    37401.237 
  180800     297.0887   -1458.2048    490.54465    372.19961     582.0439    37401.237 
  180900    287.95832    -1464.484    513.75201     347.9501    444.88005    37401.237 
  181000    291.63792    -1428.143    485.58166    372.71561    162.79886    37401.237 
  181100     301.3106   -1373.7159    490.15245    475.33698    68.180441    37401.237 
  181200    297.78347   -1408.9823    506.42652    440.43742   -60.648396    37401.237 
  181300    301.33159   -1425.3205    525.35052    459.02508   -326.09777    37401.237 
  181400    297.20543   -1428.8387    521.26232    432.80989   -300.62148    37401.237 
  181500    295.93843   -1419.6251    517.07711    432.12415   -578.47641    37401.237 
  181600    289.95417   -1441.7865    511.59062    377.48748   -586.32728    37401.237 
  181700    290.67505   -1458.4827    483.40433    335.85611   -433.82495    37401.237 
  181800    294.05719   -1439.5799    473.16054    359.76848   -592.23557    37401.237 
  181900    300.27559   -1465.9084    538.17202    426.49623    409.08766    37401.237 
  182000    308.25032   -1470.9434    477.94824    397.20314    440.14128    37401.237 
  182100    301.89185   -1460.3773     496.7591    397.90366    64.340938    37401.237 
  182200     310.3714   -1481.9504    497.43212    415.24601     367.5497    37401.237 
  182300     288.6252   -1497.5879    503.30146    307.40324    42.314946    37401.237 
  182400    297.12567   -1448.8455    495.27686    386.45794   -509.95871    37401.237 
  182500    296.54487   -1481.4123    495.81602    351.81093   -41.935674    37401.237 
  182600    295.77844   -1432.5047    507.12735    408.57327    129.40504    37401.237 
  182700    295.41303   -1430.1003    502.86073    405.06306    627.34744    37401.237 
  182800    311.21431   -1490.0413    507.77545    421.29992    506.63897    37401.237 
  182900    308.75184   -1478.5093    467.02587    380.97676    718.12026    37401.237 
  183000    301.86618   -1419.3446    513.24465     455.3061    48.208901    37401.237 
  183100    294.59848    -1459.823     493.5183    362.32432   -744.20105    37401.237 
  183200    294.78398   -1526.0937    470.91796    274.28983    450.57539    37401.237 
  183300    299.63356    -1495.952    506.55605    361.94112    10.875221    37401.237 
  183400    297.10062   -1525.8507    485.91263     299.9755   -509.51244    37401.237 
  183500    296.05907   -1432.6067    478.55864    381.16814   -857.85088    37401.237 
  183600    299.51885   -1432.6831    515.47007    433.60673    369.04777    37401.237 
  183700    287.41113    -1468.469    506.43834    334.18363    389.80765    37401.237 
  183800    306.56537   -1448.7606    503.90896    437.74761    -385.8682    37401.237 
  183900    288.37868   -1414.2672    482.75675    369.06744   -564.88869    37401.237 
  184000    307.15692   -1451.4004    491.06655    424.93325    200.32849    37401.237 
  184100    292.24769   -1482.2775    519.25272    355.00226   -171.92382    37401.237 
  184200    297.43773   -1445.7431    499.69206    395.38289    193.18448    37401.237 
  184300    312.95527   -1446.1769    495.37443    460.61508    477.44294    37401.237 
  184400    291.90973   -1469.3433      489.539    336.69857    571.12807    37401.237 
  184500      300.992   -1489.6306     509.0008    376.83373    450.52346    37401.237 
  184600    295.18851   -1454.3928    473.05897    349.95621    74.758815    37401.237 
  184700    288.30885   -1450.1382    520.83876    370.96357     187.4798    37401.237 
  184800    299.24857    -1454.098    499.32027    394.82304    158.31108    37401.237 
  184900    290.79594   -1483.7594    482.81274    310.53302    -443.7336    37401.237 
  185000    305.85422   -1502.3294    495.96518    373.02781   -477.20548    37401.237 
  185100     293.3404   -1462.2732      498.086    358.76787   -328.54462    37401.237 
  185200     295.0719   -1500.3873    490.67371    321.05058   -844.56674    37401.237 
  185300     307.1988   -1472.0452    488.91449    402.32528   -261.27829    37401.237 
  185400    301.14573   -1459.4012     492.5831    391.33881   -130.07588    37401.237 
  185500    294.25561   -1448.0832    498.63999    377.63946    51.293714    37401.237 
  185600     298.8363   -1469.7402    484.91195    362.91318   -61.590037    37401.237 
  185700    302.65869   -1491.2632    506.67717    380.39427   -296.91381    37401.237 
  185800    300.39019   -1473.0659    485.16484    366.84839   -290.88551    37401.237 
  185900    292.43926   -1418.2758    482.68932    383.30454    153.77244    37401.237 
  186000    313.07554   -1428.8782    467.34805    450.42979   -402.42049    37401.237 
  186100     300.9099   -1436.3686    493.02626    413.75102   -199.95504    37401.237 
  186200    299.37393   -1427.0101    515.36693    438.52297    -238.6383    37401.237 
  186300    299.18763   -1406.5794    517.83187    460.57836   -294.13258    37401.237 
  186400    310.46528   -1397.5018    495.49941     498.1853    219.62134    37401.237 
  186500    302.84832    -1386.882    502.67521    481.62869    164.38874    37401.237 
  186600      296.643   -1410.0259    479.56416    407.38799   -73.638174    37401.237 
  186700    292.22841   -1472.0513     471.5419    317.43067   -792.03278    37401.237 
  186800    296.15775   -1435.7972    487.30856    387.17261   -983.62816    37401.237 
  186900    305.04206   -1423.0411     487.5931    440.28114   -943.54176    37401.237 
  187000    302.15219   -1432.6858    472.87635    402.88654   -519.19528    37401.237 
  187100    292.70673   -1461.7888    492.35788     350.6664    214.31646    37401.237 
  187200    300.89057   -1412.6598    502.20912    446.55541     378.8191    37401.237 
  187300    301.46942   -1435.3054    518.32229    442.63362   -175.24055    37401.237 
  187400     292.4263   -1482.0996    469.61606    306.34902   -263.27113    37401.237 
  187500     294.8197   -1420.3789    491.83875    401.08659    502.04508    37401.237 
  187600    304.05013   -1478.0563    464.70872    357.90802    367.67763    37401.237 
  187700    307.14341   -1418.4829    480.26604    446.98931    6.1858215    37401.237 
  187800    298.25321    -1451.621    495.82964     389.3204    230.87216    37401.237 
  187900    294.20434   -1469.3062    481.89261    339.43792    141.95849    37401.237 
  188000    299.09269   -1434.4368    491.77428    406.23526    543.79894    37401.237 
  188100    297.89123   -1454.3127    493.14301    382.30954    321.98448    37401.237 
  188200    305.55494   -1437.2321    472.23352     413.0437    65.514886    37401.237 
  188300    307.14474   -1432.1733    480.93114    433.97004   -47.072803    37401.237 
  188400    296.01179   -1390.3521    520.66588    465.31672   -164.11973    37401.237 
  188500    303.57276   -1410.7666     506.5578    464.89392   -76.031875    37401.237 
  188600     303.1307   -1408.1623    498.12748    457.07423     149.8907    37401.237 
  188700    300.77333   -1389.4685      518.478    485.48687   -301.03955    37401.237 
  188800     295.1814   -1443.6671    495.90722    383.49807   -541.66724    37401.237 
  188900    299.02144   -1454.6301    496.89562    390.84198    275.12518    37401.237 
  189000     294.2437   -1470.7407    520.89171    377.17991   -17.460526    37401.237 
  189100    294.29137   -1401.7873    486.29539    411.75206    1031.4475    37401.237 
  189200    299.10377   -1440.0861    490.16446     399.0261    384.08209    37401.237 
  189300     294.4897   -1429.8699     507.3032    405.57172   -148.30701    37401.237 
  189400    300.89707   -1452.2926    484.53248    389.27532    399.65805    37401.237 
  189500    302.24886   -1454.9021    506.14854     414.3784    369.50198    37401.237 
  189600      291.612   -1435.0851    478.58521    358.66023   -449.05689    37401.237 
  189700    301.24484    -1409.698    484.42045    433.32634   -556.91802    37401.237 
  189800    311.25801   -1436.3922    497.89217    465.26294   -396.49782    37401.237 
  189900    303.16085   -1462.2618    484.34352    389.32671   -490.06173    37401.237 
  190000     289.8187   -1447.1691    516.74057    376.64388   -384.41581    37401.237 
  190100    290.95733    -1445.287    500.75487    367.67547    217.50961    37401.237 
  190200    294.83392   -1437.4722    491.01497    383.23358    308.03292    37401.237 
  190300     294.3514   -1457.8804    488.82848    358.46277   -140.54968    37401.237 
  190400    302.20835   -1507.6951    478.78125    334.03538   -293.90312    37401.237 
  190500    299.59517   -1489.6473     487.3404      348.857    787.41437    37401.237 
  190600    296.37401     -1507.04    500.77777    330.37431    148.76701    37401.237 
  190700    297.19285   -1471.8041    486.06419    354.58962   -146.14682    37401.237 
  190800    299.76928   -1460.1669     469.4237    361.20594   -293.53817    37401.237 
  190900    298.42075   -1475.8722    457.57303    327.56817   -267.23831    37401.237 
  191000    302.22029   -1477.1761    505.67398    391.50096   -730.93995    37401.237 
  191100    305.82344   -1434.5933    484.88149    429.54143   -272.19155    37401.237 
  191200    293.48242   -1420.6306    484.05486    387.01994   -264.33196    37401.237 
  191300    296.43409   -1465.3938    512.91985    384.43354   -507.52524    37401.237 
  191400    295.61239   -1463.9217    457.67152    326.95148   -381.44972    37401.237 
  191500     300.9686   -1452.1632    501.83248    407.02732   -63.042211    37401.237 
  191600    287.48896   -1463.7935    464.56622    297.33802    273.28664    37401.237 
  191700      300.204   -1476.2931    512.40552     390.0221    529.55892    37401.237 
  191800    300.44024   -1463.7788    471.62682    362.82319    492.07417    37401.237 
  191900    303.49847   -1485.4475    471.53641    354.85657   -43.336888    37401.237 
  192000    290.49395   -1463.1003    507.59396    354.61143    252.62085    37401.237 
  192100    307.47617   -1459.9044     480.2252    407.02779    463.60388    37401.237 
  192200     300.6713   -1463.2153    495.69259    388.49457    221.29871    37401.237 
  192300    274.91709   -1459.6907    478.01212    258.18799   -51.207042    37401.237 
  192400    301.77138   -1454.0542    485.28098    392.20537   -226.62772    37401.237 
  192500    300.39588   -1488.2178    496.49454     363.0518    176.98425    37401.237 
  192600    303.03939   -1468.6117    470.32035    368.40582    -181.1752    37401.237 
  192700     300.0399    -1463.232    491.38041      381.318   -238.99404    37401.237 
  192800    304.17419   -1485.5938    474.45653    360.67787   -700.56765    37401.237 
  192900    297.16786   -1474.5364    478.03372    343.71417   -347.33285    37401.237 
  193000    294.93812   -1470.7214    478.63784    338.07724   -408.90299    37401.237 
  193100    302.29496   -1456.6524     492.4897    399.17715   -102.51781    37401.237 
  193200    307.03359   -1459.7643    482.63702    407.58371    284.77555    37401.237 
  193300    295.69397   -1450.8643    486.15432    368.85965    -189.7296    37401.237 
  193400    293.21012   -1439.7736    479.89774    362.49167    97.988826    37401.237 
  193500    312.52088   -1459.8953    481.82654    431.38966    186.52346    37401.237 
  193600     291.7526   -1475.6672    481.02879    321.15572    297.70134    37401.237 
  193700    304.83129    -1489.261    470.15299    355.67066    126.47439    37401.237 
  193800     297.3543   -1455.9787    497.57978    382.65875   -354.44587    37401.237 
  193900      306.245   -1496.7404    494.85419    379.26825   -219.06688    37401.237 
  194000    290.50491   -1478.9221     489.1496    320.39463   -152.99454    37401.237 
  194100     300.6217   -1456.0092    472.77006     372.5544   -301.33993    37401.237 
  194200     294.8882   -1418.0494    497.52133    409.40758    578.38425    37401.237 
  194300    288.04957   -1468.6007    456.79932    287.29227    482.05658    37401.237 
  194400    296.61838   -1493.9445    492.06401    335.85816     286.8462    37401.237 
  194500    296.25614   -1495.2203    486.10731    326.99196      208.459    37401.237 
  194600    304.59684    -1463.738    474.97377    384.95707    156.54639    37401.237 
  194700    302.05539   -1448.7678     478.4982    391.98983    504.80959    37401.237 
  194800    297.25132   -1428.8145    479.77553    391.55427    270.27386    37401.237 
  194900    298.16214   -1474.9082    483.00024    352.79307    4.4294023    37401.237 
  195000    308.03238   -1454.7299      493.421    427.90651   -45.516836    37401.237 
  195100    293.48932   -1462.0571    487.99554    349.56516   -32.571362    37401.237 
  195200    291.59354    -1488.993    461.26567    287.34953    125.10985    37401.237 
  195300    299.60099   -1463.0959    487.72248    375.81668    544.40619    37401.237 
  195400    295.19756   -1479.8238    463.45184    314.95887    246.71762    37401.237 
  195500    308.14417   -1433.8153    462.77429    418.67858   -131.53177    37401.237 
  195600    299.89832   -1458.7259    484.38522    378.19046   -119.56384    37401.237 
  195700    296.21817   -1459.2744    472.87802    349.53739   -64.034665    37401.237 
  195800    296.86392   -1457.5664    470.74556     352.0252    146.26965    37401.237 
  195900    303.06057   -1414.7269    487.67871    439.74451    528.93152    37401.237 
  196000    304.68407   -1442.5991    506.14676    437.66239    675.41997    37401.237 
  196100    310.56596   -1463.8862    466.92281    403.67844    442.44788    37401.237 
  196200    293.64863    -1487.527    496.34178    333.15997   -35.537075    37401.237 
  196300    300.35021   -1475.0812    486.90268    366.39059    192.97081    37401.237 
  196400     303.7495   -1410.5652      449.596    408.93058   -67.884493    37401.237 
  196500    306.86522   -1462.2834    456.39722    378.06538    201.98008    37401.237 
  196600    304.02126   -1475.0061    480.18566    376.30501   -371.41824    37401.237 
  196700    303.73818   -1439.8515    484.85912    414.85634   -212.13084    37401.237 
  196800    312.05765   -1436.4174    489.10528    460.05712   -172.62053    37401.237 
  196900    296.41888   -1446.2943    494.59849    385.14316   -451.94516    37401.237 
  197000    293.61287   -1452.5164    464.06145    335.72902   -566.20895    37401.237 
  197100    302.22858   -1399.7884    482.36776    445.61988   -62.546511    37401.237 
  197200    289.78744   -1423.4637    482.09772    365.56538   -562.14016    37401.237 
  197300    302.80103   -1379.2369    486.76673    473.15204   -481.99638    37401.237 
  197400    302.86119   -1421.2378    466.59231    411.24808    93.679484    37401.237 
  197500    296.17892   -1440.5735    499.33111    394.51436   -208.31945    37401.237 
  197600    299.90455   -1432.2988    496.64708    416.90749    616.39664    37401.237 
  197700    297.99452   -1446.8665    486.69742    383.77596    541.36573    37401.237 
  197800    307.89421    -1452.923    482.11925    417.78856    514.23082    37401.237 
  197900    295.20683   -1423.3888    479.07626    387.06011    358.04732    37401.237 
  198000    291.53302   -1409.4316    512.10779    417.48007   -61.987425    37401.237 
  198100    297.52082   -1414.2599    483.95724    411.50597    193.41453    37401.237 
  198200     296.5396   -1426.0767    482.27365    393.58038    572.82087    37401.237 
  198300    299.58247   -1444.9931    473.96607    380.07963    254.29734    37401.237 
  198400     300.9798   -1417.3918     503.1056    443.12231    275.03901    37401.237 
  198500    292.01165   -1395.1157    470.72666    392.57349   -60.058713    37401.237 
  198600    308.92299    -1423.605    461.57393    431.20096   -113.25605    37401.237 
  198700    300.76719   -1445.0776    469.36946    380.74153     156.7369    37401.237 
  198800    305.69724   -1450.8542    497.45646    425.28625     285.5938    37401.237 
  198900    288.17493   -1401.8177    504.50541     402.3467    57.922255    37401.237 
  199000    301.63888   -1411.8886    452.00779    400.50017    2.5391095    37401.237 
  199100    288.82543   -1462.8852    478.16394    317.87148    -86.32754    37401.237 
  199200    308.51738   -1486.5322    450.63731    355.50791     196.2355    37401.237 
  199300    288.56837   -1461.0606    479.48406    319.85688    306.43141    37401.237 
  199400    296.31451   -1461.2851    494.28009     369.3632   -167.69508    37401.237 
  199500    293.93255   -1423.3489    475.21258     377.4894    209.82436    37401.237 
  199600    308.67064   -1443.8465    492.46628    440.71371   -359.68051    37401.237 
  199700    297.96489   -1388.4738    457.84881    413.18639   -862.05414    37401.237 
  199800    294.33878   -1395.8509    479.77909    411.38593   -101.65516    37401.237 
  199900    322.70206   -1370.3175    508.86332    593.92107    237.42577    37401.237 
  200000    307.46721    -1387.618    470.09245    469.14102    490.75035    37401.237 
  200100    299.64894    -1464.527    492.42194    379.30135    752.65386    37401.237 
  200200    296.21537     -1451.37    482.20987    366.76099    675.53901    37401.237 
  200300     300.5546   -1451.7664     470.0118    373.73629    913.18462    37401.237 
  200400    296.55101   -1480.8885    463.14665    319.69303    842.22496    37401.237 
  200500    298.95816   -1436.4914     479.1994    390.99907    581.31339    37401.237 
  200600    296.22848   -1427.9138    490.86289     398.9293    838.81136    37401.237 
  200700    298.24985   -1484.8411    459.73103     319.9865    277.01797    37401.237 
  200800    301.60118   -1444.0305    481.39643    397.57694    445.15821    37401.237 
  200900    295.46743   -1460.3422    474.52824      346.734   -51.966164    37401.237 
  201000    297.97708   -1492.3005    470.45138    322.01723    103.86002    37401.237 
  201100    290.77719   -1505.5529    499.31806    305.16034    114.67804    37401.237 
  201200    306.91196    -1497.584    496.60626    383.18464    474.51449    37401.237 
  201300    309.94106   -1470.6352    461.03054    388.21886   -232.56944    37401.237 
  201400    288.00894   -1463.3684     483.6091    319.15115   -496.85594    37401.237 
  201500    308.15124   -1468.8069    451.45258    372.39715   -616.22386    37401.237 
  201600    296.44058   -1469.7532    479.10456     346.2882   -259.66095    37401.237 
  201700    293.03259   -1457.8758    486.94824    350.63929   -278.49276    37401.237 
  201800    295.93989   -1453.4662     460.8053    342.01782    229.34274    37401.237 
  201900     304.8228    -1463.182    474.63199    386.19033     -30.8207    37401.237 
  202000     311.4037    -1440.919    475.19538    438.69634   -103.11498    37401.237 
  202100    299.56397   -1466.3825    491.93471    376.57535   -372.01048    37401.237 
  202200    296.43752   -1463.8626    487.10611    360.16656   -269.11351    37401.237 
  202300     308.9722   -1497.9373    486.13068    381.64732   -515.39689    37401.237 
  202400    299.45612   -1490.4469    475.54501    335.63488   -324.73291    37401.237 
  202500    299.59205   -1473.4709    464.79881    342.47772   -494.69891    37401.237 
  202600    290.50054   -1490.5708    503.45274     323.0294    89.320868    37401.237 
  202700     298.2877   -1444.3395    483.85112    384.77886     210.3904    37401.237 
  202800    291.09687   -1475.5548    489.14389    326.42591    288.27765    37401.237 
  202900    303.50985   -1464.2734    471.54753    376.09315    230.99894    37401.237 
  203000    298.83478   -1477.2831    494.15021    364.60174    201.90101    37401.237 
  203100    304.51538   -1452.3094    504.72253    425.76702   -105.27427    37401.237 
  203200    298.69204   -1438.1637    489.50972    398.43686   -133.62633    37401.237 
  203300     299.5326   -1420.0522    491.31192    422.14142    33.580045    37401.237 
  203400    313.28674   -1448.6219    469.34182    433.63232   -588.21652    37401.237 
  203500    288.67873   -1489.1044    464.41896    277.24574   -488.18518    37401.237 
  203600     301.6961   -1474.4006    485.05727    371.29572   -607.04299    37401.237 
  203700    294.38918   -1412.6707    491.98305     406.9974   -401.53781    37401.237 
  203800     296.8545   -1412.2659    472.30451    398.84212   -539.89886    37401.237 
  203900    307.98591   -1424.5194    514.06051    478.54695   -242.23089    37401.237 
  204000    303.60111   -1469.9182    478.69588    378.00822   -51.356683    37401.237 
  204100    295.59622   -1411.4731    507.51273     429.1684   -336.93841    37401.237 
  204200    300.14208    -1443.464    478.58888    388.75531    232.20551    37401.237 
  204300     294.5217   -1458.1368    486.33745    356.48336   -45.958005    37401.237 
  204400    291.80782   -1427.0445     498.5776    387.57636   -28.769734    37401.237 
  204500    303.46897   -1500.2636    477.82206    346.19306    194.14458    37401.237 
  204600    294.51032   -1437.1334    472.26881    363.36687    498.34644    37401.237 
  204700     298.4965   -1454.7939    484.28849     375.7036    61.244259    37401.237 
  204800     298.7805   -1414.5943    489.01248     421.9079    351.23694    37401.237 
  204900    296.00956   -1449.7145    480.62915    365.90763    228.27431    37401.237 
  205000    299.87907   -1462.6294    464.58168    354.39661    390.74967    37401.237 
  205100     301.4956    -1438.447     510.6733    431.96109    635.66031    37401.237 
  205200    292.68491   -1436.9506    508.19763    391.24595    524.23202    37401.237 
  205300    292.38735    -1486.318    480.66283    313.00167    695.09727    37401.237 
  205400    311.10645   -1433.7617    497.83992    467.15766    1241.1126    37401.237 
  205500    298.31101   -1474.2132    498.92363     370.0828    675.87405    37401.237 
  205600    296.15921   -1412.4744    485.50404    408.69745    639.77823    37401.237 
  205700    298.59547   -1394.1471    498.38631    450.89451     426.2475    37401.237 
  205800    298.60728   -1452.1285    492.53843    387.11845    424.39888    37401.237 
  205900     303.9392   -1438.4799    496.67192    428.94735    503.91984    37401.237 
  206000    297.41061   -1445.4053    475.75521    371.66152   -178.84363    37401.237 
  206100    295.35926    -1432.723    471.89022    371.22736   -407.32449    37401.237 
  206200    295.99864   -1466.5583    483.53437    351.91973     -1066.72    37401.237 
  206300    289.03568   -1428.3079    494.14852    369.38157    -142.5887    37401.237 
  206400    303.63007   -1437.4175    484.80222    416.74593   -57.954659    37401.237 
  206500    299.90105    -1426.847    471.05425    396.75064    495.09903    37401.237 
  206600    293.17782   -1450.7584    469.82169    341.28521    237.18392    37401.237 
  206700    296.92344   -1445.2381     461.3697    355.24605    484.65852    37401.237 
  206800    303.58625   -1470.6261    508.56963    407.10705    482.22578    37401.237 
  206900    306.24329   -1466.7474    494.40546     408.8047    449.38552    37401.237 
  207000    312.88993   -1468.1073    468.18445        411.2    640.47885    37401.237 
  207100    291.25567   -1475.3635    470.05326    308.24279   -162.64142    37401.237 
  207200    297.92854   -1468.1277    481.68391    357.20374    777.69574    37401.237 
  207300    294.99068   -1497.3163    484.57102    317.65254    169.22882    37401.237 
  207400    301.43824   -1499.1694    459.26826    319.57492    71.432082    37401.237 
  207500    308.78954    -1452.751    478.95192    418.83112   -143.51405    37401.237 
  207600    303.00624   -1469.5678    479.08454    376.06449   -594.55342    37401.237 
  207700    304.77675   -1431.7614    458.26547    401.03671   -456.01294    37401.237 
  207800    314.65198   -1465.1612    445.91035    399.81878   -499.03497    37401.237 
  207900    310.62676   -1425.1197    480.20591    456.00215   -117.39877    37401.237 
  208000    297.21332   -1467.6528    505.99735    378.76637   -356.33834    37401.237 
  208100    292.82745   -1460.0427    471.54494    332.14401   -220.33213    37401.237 
  208200    298.83629   -1505.5201    474.12768    316.34891   -164.40331    37401.237 
  208300    298.97852   -1473.3293    462.92236    337.97592    793.03752    37401.237 
  208400     292.3555   -1457.2022    469.17774    330.48881    1013.3694    37401.237 
  208500    294.92418    -1512.906    501.48868     318.6806    1041.4435    37401.237 
  208600    306.32078   -1450.4913    489.44333    420.44826    223.05197    37401.237 
  208700    299.75439   -1413.0754    446.39161    385.19818    386.96629    37401.237 
  208800    295.66786    -1439.052    470.39744    364.79732    54.354498    37401.237 
  208900    303.25052   -1410.3926    481.82565    439.08251    127.74485    37401.237 
  209000     300.6649   -1469.2727    484.90909     371.6247    283.92011    37401.237 
  209100    300.83859   -1486.8267    460.45933    330.40432    166.55055    37401.237 
  209200     294.7691   -1502.6606    447.82434    274.56227    -86.73788    37401.237 
  209300    308.94748   -1470.8134    480.96244    403.49156   -108.33488    37401.237 
  209400    300.37005   -1424.8997    481.30659    411.06553     134.9005    37401.237 
  209500    308.02867   -1434.2174    475.46884    430.45017   -180.66559    37401.237 
  209600    304.92934   -1424.6308    494.60271    445.19278     134.6042    37401.237 
  209700    310.56431   -1443.3198    474.05604    431.37055    734.22142    37401.237 
  209800    300.92004   -1446.4267    484.07735    394.78973    179.85395    37401.237 
  209900    291.93025   -1453.9657    471.45344    334.08316   -205.86748    37401.237 
  210000    296.41515   -1440.4092    505.49554    401.90846   -120.76185    37401.237 
  210100    298.29073   -1461.6561     472.9094    356.53426     24.72578    37401.237 
  210200    295.19144   -1452.2946    475.16361    354.17229    335.57327    37401.237 
  210300    295.98771   -1490.0351    460.64461    305.50384   -334.82997    37401.237 
  210400    293.60725   -1453.1059    462.22199    333.27466    310.05083    37401.237 
  210500    299.02743   -1425.0615    477.37773    400.91964    245.10497    37401.237 
  210600    303.47569   -1466.8858    510.01672    411.79585    -413.0243    37401.237 
  210700    297.04733   -1446.2202    454.33904    347.79213   -166.23077    37401.237 
  210800    295.93577   -1421.0492     487.6816    401.29258    772.41994    37401.237 
  210900    294.59468   -1438.9501    483.63888    373.30068    186.69502    37401.237 
  211000    285.83088   -1471.6161     469.6896    287.16093    127.14746    37401.237 
  211100    296.16345   -1444.3932     477.0924    368.38613   -136.20251    37401.237 
  211200    291.45283   -1430.1848    480.60561    364.86302   -707.23453    37401.237 
  211300    309.61848   -1454.7019    494.07449    435.74126    -390.8603    37401.237 
  211400    300.33087   -1489.4661    471.23113     336.2469   -384.70648    37401.237 
  211500    307.47639   -1491.5116    473.89849    369.09477    327.13956    37401.237 
  211600    304.04984   -1476.2842    471.93544    366.90555   -541.03672    37401.237 
  211700    306.43352   -1428.7079    503.99056    457.28734   -297.70454    37401.237 
  211800    298.66255   -1450.4482    495.84662    392.35621    221.92748    37401.237 
  211900    298.34156   -1466.8009    474.82441    353.53365    146.94373    37401.237 
  212000    291.33995   -1430.1439    465.44793    349.23713   -88.662599    37401.237 
  212100    310.97512   -1374.4206     486.3014    514.36786     109.2599    37401.237 
  212200    309.94458   -1450.9253    471.81435    418.72847     203.5652    37401.237 
  212300    302.29445   -1457.0127    510.73362    417.05848    256.97206    37401.237 
  212400    296.34932    -1456.663    472.43157    352.29377   -392.14241    37401.237 
  212500    309.20567    -1424.645     510.0638    479.92569    269.06174    37401.237 
  212600    293.10438   -1430.5367    504.85299    396.20696   -244.62356    37401.237 
  212700    301.41676   -1454.8857    492.76873    397.26222    144.63521    37401.237 
  212800    300.91501   -1462.3952    474.51379    369.23496   -102.35315    37401.237 
  212900    298.92803   -1459.7638    489.59549    377.98683    186.10727    37401.237 
  213000    292.49176   -1530.6622    484.66268    273.12826   -28.110152    37401.237 
  213100    302.68814   -1487.4121    470.36588     348.0669   -401.93543    37401.237 
  213200    308.30978   -1471.5518    499.17107    418.08577   -78.100286    37401.237 
  213300    306.06616   -1453.7107    478.31455    404.95174   -307.86141    37401.237 
  213400    299.95705   -1465.4543    496.18453    383.52616    37.692829    37401.237 
  213500    302.17895   -1469.3188    487.85899    381.35686     78.40292    37401.237 
  213600    304.69413   -1464.9253    495.40083    404.63557   -362.86527    37401.237 
  213700    301.83071   -1428.7527    485.38654    417.87998    106.19679    37401.237 
  213800     294.2271    -1474.843    462.44311    314.55419   -192.31823    37401.237 
  213900    304.25485   -1443.6062    486.28165     414.8544   -280.47788    37401.237 
  214000     304.8366   -1515.1937    492.68244    352.29129   -940.89783    37401.237 
  214100    299.54456   -1503.3532    516.18588    363.76837   -617.23813    37401.237 
  214200    304.70317   -1492.0738    453.93921    336.06626   -499.70556    37401.237 
  214300    296.45539   -1477.6482    473.70374    333.05916   -18.500428    37401.237 
  214400    299.18121   -1484.1326    509.57035    374.73472    8.2225443    37401.237 
  214500    295.12794   -1448.9526    505.41862     387.4829   -258.85379    37401.237 
  214600    304.10292   -1467.7229    507.28772    411.05851   -86.622922    37401.237 
  214700    308.00572   -1467.4195    473.35948    395.03516     285.3198    37401.237 
  214800    298.46535    -1495.512    480.89986    331.45634     35.98783    37401.237 
  214900    299.48034   -1401.6218    489.43118    438.45544    -659.9208    37401.237 
  215000    293.11833   -1395.4216    486.58545     413.1174   -16.559979    37401.237 
  215100    302.90922    -1457.007    494.00298    403.10619   -393.21007    37401.237 
  215200    298.04057   -1489.6558    486.81053    341.30739   -276.35279    37401.237 
  215300    299.25682   -1436.7837    490.47923    403.33354    69.048518    37401.237 
  215400     303.7406   -1438.5479    495.63778    426.94958   -438.08692    37401.237 
  215500    302.38729   -1402.4029    478.24227    439.59563    -322.4543    37401.237 
  215600    303.07168   -1439.1167    488.96901    416.69514   -338.51889    37401.237 
  215700    305.45811   -1433.8094     484.9316    428.72772   -297.14431    37401.237 
  215800    299.30282   -1444.3737    506.22692     411.6986   -173.25783    37401.237 
  215900    292.28833   -1447.3096    459.82041     330.7211   -86.580053    37401.237 
  216000    300.39696   -1460.2644    470.02929    364.54489   -387.39568    37401.237 
  216100     297.0162    -1469.956    480.90756    350.48442   -337.62368    37401.237 
  216200    297.68789    -1497.351    496.28116    341.49232   -55.728689    37401.237 
  216300    304.61308   -1522.9456     494.7374    345.58634   -131.54183    37401.237 
  216400    295.64197   -1483.1141    489.12738    339.34838    590.62376    37401.237 
  216500    309.04545   -1475.8737    484.68421    402.59484    758.25305    37401.237 
  216600    298.48124   -1456.9009    492.60795    381.84713    789.16174    37401.237 
  216700    296.08869   -1504.8518    491.71224    322.21023    1020.5954    37401.237 
  216800    292.80767   -1501.3317    505.65962    324.88043    441.16586    37401.237 
  216900    304.24646   -1474.6789     482.8245    380.28669    258.12947    37401.237 
  217000    302.04354   -1501.7559    458.49646    318.94655    256.76749    37401.237 
  217100    297.94435   -1501.8176    482.67917    324.58037    146.31314    37401.237 
  217200    303.63154   -1482.8674    484.18637    370.68681    487.55294    37401.237 
  217300    301.10749   -1507.9925    485.35728    335.34925    381.71339    37401.237 
  217400    297.09596   -1498.5853    484.17725    325.48451    323.50861    37401.237 
  217500    296.08022   -1500.5115    490.27791    325.07804    461.20088    37401.237 
  217600    298.18152   -1477.1473    477.42153     345.0626   -213.77386    37401.237 
  217700    302.57776   -1499.4841    454.17099    319.30215   -10.607757    37401.237 
  217800    298.11508   -1514.6853    476.95468    306.75811   -112.88174    37401.237 
  217900    299.13517   -1520.6419    446.12722    274.57466   -418.58352    37401.237 
  218000    316.42558   -1477.9008    471.94843    421.11615   -103.67508    37401.237 
  218100    295.85378   -1504.3416    480.44361    310.39234   -118.75041    37401.237 
  218200    305.92005   -1439.7135    480.65124    420.62659   -432.50536    37401.237 
  218300    302.33413   -1488.7845    469.17195    343.90397   -12.821996    37401.237 
  218400    298.66221   -1460.2569    455.61025     342.3096    442.41973    37401.237 
  218500    299.81122   -1464.1081    485.01212    373.04231   -178.52334    37401.237 
  218600    304.90773   -1467.7094    459.36304    366.77706   -8.1935401    37401.237 
  218700    309.33666   -1480.8947    451.51029    365.71326    353.12361    37401.237 
  218800    295.09613   -1507.8869    477.03517     300.0217    191.05214    37401.237 
  218900    294.69648   -1497.2692    509.66945    341.47122    235.09169    37401.237 
  219000    306.36165   -1513.2064    486.71921    355.19328    182.66929    37401.237 
  219100    301.68045   -1525.7131    478.21028    313.06564    644.15306    37401.237 
  219200    305.95162   -1517.3995    491.87889    354.31068    486.77334    37401.237 
  219300     301.0363   -1550.9871    458.02665     264.7029    81.612465    37401.237 
  219400    292.23836   -1551.7794    483.40757    249.61309    169.52308    37401.237 
  219500    305.37732   -1482.8229    493.40015    387.81845    328.96514    37401.237 
  219600    306.15291   -1482.2751    507.52031    405.98429    1045.7164    37401.237 
  219700    290.93933   -1484.5237    479.20679     306.8095    980.27279    37401.237 
  219800    306.51916   -1482.9347    485.71658    385.17272    1222.0102    37401.237 
  219900    303.80416   -1453.1577    478.78975    395.77839    81.190419    37401.237 
  220000    300.58036   -1481.8883    487.21497    360.93378     590.1837    37401.237 
  220100    305.76254   -1428.1976    516.53514    467.31603   -83.627069    37401.237 
  220200    306.11651   -1461.3419    497.20053    416.43351    340.48358    37401.237 
  220300    311.08614   -1501.9671    500.13206    401.15279    674.63547    37401.237 
  220400    309.12152    -1457.128    478.99815    415.99758   -87.967979    37401.237 
  220500     301.9896   -1472.6032    453.44064    342.80011   -541.62255    37401.237 
  220600    288.79533   -1472.8293    502.45054    332.07823    115.47903    37401.237 
  220700    297.65089   -1429.8971     510.5171    423.01529   -412.66838    37401.237 
  220800    303.46857   -1449.2605    475.11206    394.48444   -326.48272    37401.237 
  220900     298.9677    -1431.545    500.39782    417.18685   -167.78038    37401.237 
  221000    299.36522   -1442.7671    507.56634    414.92603   -80.699411    37401.237 
  221100    288.74346   -1499.1662    485.18139    288.23824   -722.09684    37401.237 
  221200    306.25682   -1465.2806    489.79738    405.72452    268.29383    37401.237 
  221300    292.90943   -1429.1243    474.44507    366.33224      82.2865    37401.237 
  221400     303.8784   -1474.8954    499.10601    394.69171   -991.32954    37401.237 
  221500    297.93984   -1422.5605    470.34759    391.48555   -354.97958    37401.237 
  221600    291.24254   -1396.9588    508.24736    424.78237   -160.50337    37401.237 
  221700    300.43464   -1452.4171    504.97213    407.50493   -505.13238    37401.237 
  221800     305.0356   -1414.0113    504.79247    466.48118    423.47051    37401.237 
  221900     302.4692   -1444.5404    514.20722    433.79251   -71.361623    37401.237 
  222000    295.13257   -1441.3031    516.47158     406.2062    920.34044    37401.237 
  222100    301.06598    -1459.881    487.06952    384.98577    649.80963    37401.237 
  222200    290.46038    -1449.087    529.16255    390.04186    699.42587    37401.237 
  222300    298.41178    -1447.411    490.77299    389.18883    471.81591    37401.237 
  222400    306.51282   -1485.7449    483.86062    380.47797    369.13926    37401.237 
  222500      300.544   -1472.5503    512.47061    395.36341   -75.663157    37401.237 
  222600    306.61424   -1473.1224     472.4866    382.18382    614.17746    37401.237 
  222700    296.63323   -1474.1598    485.01649     348.6624    335.16206    37401.237 
  222800    295.85094   -1450.2046    493.39109      377.464    17.965255    37401.237 
  222900    307.19065   -1479.2722    473.71912    379.86623   -112.06179    37401.237 
  223000    308.65622   -1483.6632     506.9902    415.35598    304.12957    37401.237 
  223100    297.28262   -1485.8714    500.45645    355.31947    -227.5567    37401.237 
  223200    301.52075   -1468.1336    502.74835    394.46296   -392.95131    37401.237 
  223300    294.15626   -1456.5777     509.7117    379.76862    -1113.743    37401.237 
  223400    302.09213   -1453.7783    495.22453     403.8714   -471.51954    37401.237 
  223500    298.44403   -1435.2049    498.46368    409.23112   -273.28546    37401.237 
  223600    303.49852   -1475.9768    506.70471    399.49582    178.15421    37401.237 
  223700    298.66915   -1450.2749    530.71351    427.42623    350.01166    37401.237 
  223800    294.32863   -1399.8615    514.57039    442.12092     3.133047    37401.237 
  223900    296.30188   -1430.7789    497.89372    403.42608   -164.04664    37401.237 
  224000    306.99641   -1428.0808    519.03787    475.50033    379.12954    37401.237 
  224100    307.32776   -1418.5804    502.51302    469.97027    311.27551    37401.237 
  224200    303.65491    -1437.293    519.60408    451.78426     398.2659    37401.237 
  224300    289.94423   -1469.0233    513.81854    352.43367    791.82495    37401.237 
  224400    295.10604   -1461.3886    507.85809    377.38761    1138.9297    37401.237 
  224500    306.95155    -1447.197    472.23095    409.37493    595.68943    37401.237 
  224600    293.40006   -1452.0412    510.19856    381.38152    341.30619    37401.237 
  224700    290.87864   -1473.2146    493.20564    331.84369    694.58221    37401.237 
  224800    303.72058   -1459.0367    542.55478    453.28751    763.68313    37401.237 
  224900    302.38126    -1456.212    501.26611    408.78321   -77.464446    37401.237 
  225000    293.00651   -1444.1106    497.35724    374.69588    358.13208    37401.237 
  225100    298.38771   -1422.2465    510.04852    433.52038    462.29699    37401.237 
  225200    292.99024   -1478.5581    513.47841    356.29625    279.10755    37401.237 
  225300    305.43289   -1477.7978    506.32217    406.01621    681.66902    37401.237 
  225400    305.02835   -1442.0357    501.13625    434.76791   -277.43972    37401.237 
  225500    306.17629   -1474.5297    481.48361    387.79847    38.252459    37401.237 
  225600    299.44708   -1463.9178    475.65203    362.23031   -27.236791    37401.237 
  225700    300.83021    -1528.846    508.08102    335.96891    32.695413    37401.237 
  225800    306.14395   -1507.5122    497.46794    370.65438     572.2849    37401.237 
  225900    287.74808   -1498.1932    486.88024    286.42093    76.128518    37401.237 
  226000    297.18959   -1472.1411    501.26296    369.43672   -214.38305    37401.237 
  226100    298.33809   -1455.2396    520.32951    410.58441    365.89237    37401.237 
  226200    305.85088   -1511.1351    491.09217    359.33398    114.90611    37401.237 
  226300    299.15852   -1539.3011     497.0306    306.92412   -14.047102    37401.237 
  226400    296.90939   -1485.1432    476.01519    329.92312     289.8042    37401.237 
  226500    306.76353   -1477.4823    490.92445    396.93513    242.49781    37401.237 
  226600    301.45591   -1481.9547    480.65914    358.26026     232.9695    37401.237 
  226700     306.2891   -1477.0116    495.82165    400.16336    23.002417    37401.237 
  226800    291.33344   -1508.6377    504.40478    309.67088   -45.908477    37401.237 
  226900    304.11818    -1487.368    496.60806    380.80259   -388.02306    37401.237 
  227000    306.02776   -1511.9078    504.69825    372.96516   -97.237476    37401.237 
  227100    300.17631   -1526.9889    482.50954    309.30544   -449.47646    37401.237 
  227200    300.71403   -1508.3986    484.93389    332.74526   -105.04806    37401.237 
  227300    295.65048    -1503.609    492.03322     321.7977   -462.04159    37401.237 
  227400    284.00272   -1545.7663    489.85422    224.93043   -261.20894    37401.237 
  227500    294.43384   -1523.1735    482.34365    287.05662    423.77943    37401.237 
  227600    304.82982   -1556.5477    492.86313    311.08749    132.30172    37401.237 
  227700    297.31703   -1541.9939    459.33139    258.22712    408.32606    37401.237 
  227800    289.42222   -1526.0816    484.60377    263.80646    374.88751    37401.237 
  227900     295.5185   -1565.3787    485.82303    253.22263    405.73293    37401.237 
  228000    298.92551   -1520.5456    487.35096    314.94914    385.30755    37401.237 
  228100    312.24724   -1511.8745    477.61075    373.96061   -87.654514    37401.237 
  228200    294.80207   -1538.8422    482.66133    273.36628    282.97714    37401.237 
  228300    297.92963   -1505.7783    498.38709    336.26123    283.53241    37401.237 
  228400    299.71762   -1539.8946    511.21172    323.03329   -215.68029    37401.237 
  228500    299.41414   -1501.2175    484.50454    333.63455   -69.848103    37401.237 
  228600    300.61466   -1477.2366    511.50571    390.03091     306.3341    37401.237 
  228700    297.85384   -1492.4615    527.43676    378.28586    482.84752    37401.237 
  228800    297.80279   -1511.0917    513.27414    345.26275     663.1392    37401.237 
  228900    301.14524   -1507.4989    490.06444    340.72022    447.19177    37401.237 
  229000    298.18101   -1508.7677    505.74101     341.7594    21.043748    37401.237 
  229100    296.64882   -1510.1328    489.31015    317.05334     321.6823    37401.237 
  229200    299.16989    -1554.593    477.09372    271.74662    289.52369    37401.237 
  229300     286.9256   -1529.9768    490.14668    254.19441    476.36264    37401.237 
  229400    293.13307   -1489.7342     489.7647    322.05052    221.06863    37401.237 
  229500    306.43079   -1535.2727    498.67093    345.39058    215.24399    37401.237 
  229600    310.83486   -1515.0623     504.9234    391.71562   -378.55485    37401.237 
  229700    302.91409   -1490.8508    488.61215    363.89346      264.104    37401.237 
  229800    303.19311   -1524.2781    487.26047    330.37291    126.99891    37401.237 
  229900    299.51108   -1493.5241    454.98729    312.24786   -192.25551    37401.237 
  230000    296.61164   -1486.5765    504.95262    356.08439   0.23968376    37401.237 
  230100    309.27785   -1496.0277     502.5038    401.30859    251.89663    37401.237 
  230200    297.05793   -1480.3655    499.25067    358.60626    815.34107    37401.237 
  230300    303.37984   -1525.2927    519.86598    362.80592    1237.0843    37401.237 
  230400    300.39704   -1539.0002    494.11034    309.89041    1092.3519    37401.237 
  230500    302.26785    -1527.174    504.03468    340.07826    715.11526    37401.237 
  230600      305.563   -1522.2392    484.97251    340.81195    475.92301    37401.237 
  230700     308.6192   -1502.3339    484.23569    373.76381   -23.831888    37401.237 
  230800    302.87933    -1497.717    476.18435    344.44272   -72.521034    37401.237 
  230900    303.61625   -1501.7645    472.15905    339.69344   -725.08895    37401.237 
  231000    296.52917   -1456.9841     477.1093    357.46151   -518.47861    37401.237 
  231100    300.13615   -1486.7269    513.19938    380.07617    71.552284    37401.237 
  231200    290.97343   -1463.6423    506.00638    354.64421    46.364294    37401.237 
  231300      303.631   -1477.5204    507.45929    399.30429    129.23401    37401.237 
  231400    310.66777   -1472.4614    490.45691    419.09652    434.49987    37401.237 
  231500    300.40917   -1486.4919    502.81815    371.16122    359.59465    37401.237 
  231600      296.993   -1456.9208    533.39543    415.90279    106.47818    37401.237 
  231700    309.12705   -1444.4019    507.02296    456.77341    72.943143    37401.237 
  231800    304.93399   -1514.3588    509.20913    370.09214   -448.26857    37401.237 
  231900    305.12082   -1486.9275    492.43352    381.59042   -164.95364    37401.237 
  232000    294.32182   -1516.3313    495.25638    306.30641    273.82609    37401.237 
  232100    293.20502   -1552.2425    485.40092    255.50293   -76.798635    37401.237 
  232200    304.19366   -1510.4005    519.57832    381.08072    -532.5981    37401.237 
  232300    298.34337   -1444.1477    532.77276    434.14337   -269.13157    37401.237 
  232400    301.04382   -1483.9184    499.99951    373.77841   -638.60767    37401.237 
  232500     293.4414   -1512.0942    519.12707    330.44349   -374.31633    37401.237 
  232600    307.33396   -1483.7757    480.11267    382.40257   -235.80324    37401.237 
  232700    305.48107   -1470.6232    504.43098    411.51692    160.53227    37401.237 
  232800    300.70175   -1484.1233    519.93208    391.96334    315.59102    37401.237 
  232900    296.47134   -1514.6021    493.86218    316.33559    651.18765    37401.237 
  233000    300.23696   -1533.1451    491.24482    312.15806    352.01536    37401.237 
  233100    301.07153   -1509.2139    505.76153    354.36988    869.56747    37401.237 
  233200    301.97567   -1556.7829     492.6117    297.72868    455.55003    37401.237 
  233300    301.57089   -1525.7308    486.63855     320.9821    876.32092    37401.237 
  233400    305.19558   -1512.2845    492.33247    356.46955    684.52157    37401.237 
  233500    304.60263   -1529.5086    520.03587    364.27462    455.67231    37401.237 
  233600    308.62485   -1508.8115    489.62012    372.69611    262.01747    37401.237 
  233700    300.26765   -1486.0838    503.91127    372.02424     325.6765    37401.237 
  233800    297.40962   -1460.6626    527.58055     408.2251   -88.965742    37401.237 
  233900    291.66721   -1471.6681    483.22363    326.96462   -248.21657    37401.237 
  234000    290.71214   -1492.0957    499.61359     318.6196   -176.22313    37401.237 
  234100    302.85594   -1485.4737    514.08862    394.48482    69.018674    37401.237 
  234200    298.45891   -1506.6778    501.96704    341.32866    104.55961    37401.237 
  234300    289.27397    -1503.592    495.52638    296.55001    205.65955    37401.237 
  234400    294.82735    -1470.198     475.2607    334.72389      30.1445    37401.237 
  234500    308.39027   -1496.6449    494.62916    388.81376    257.58202    37401.237 
  234600    307.43875   -1484.9089    521.56832    423.19765    631.42024    37401.237 
  234700    303.21065    -1519.784    469.00736    316.69292    489.10118    37401.237 
  234800    289.82412   -1507.3306    496.71265    296.47882    147.15417    37401.237 
  234900    300.22411   -1526.8798     511.6627    338.78332   -187.05547    37401.237 
  235000    302.05881   -1494.3072    496.40751     364.3751   -566.19832    37401.237 
  235100     308.0889   -1481.3455    503.42975     411.5546    622.94244    37401.237 
  235200    304.84581   -1480.1162    505.63995    400.36785   -108.87252    37401.237 
  235300    290.14109   -1525.7264    474.03237    256.83232   -614.92402    37401.237 
  235400    292.35335   -1477.6582    488.37574    329.22107   -57.077791    37401.237 
  235500    291.18331   -1514.5181    518.70861    317.41722     859.9778    37401.237 
  235600    290.09286   -1490.3387    500.97405    318.94418   -56.684943    37401.237 
  235700    312.20814   -1503.9604    487.29291    391.38051    294.27342    37401.237 
  235800    298.78139   -1489.8393     491.1372    348.79171    14.853284    37401.237 
  235900    304.15541   -1490.8501    500.78487    381.66519     682.8608    37401.237 
  236000    302.14168   -1492.0178    499.21138    369.84217    224.67725    37401.237 
  236100    300.42841   -1489.6939    482.20264    347.43056    543.71871    37401.237 
  236200    293.16442   -1528.7446    487.63182    281.04867    32.453413    37401.237 
  236300     312.7006   -1507.1893    500.35158    403.43124    259.10356    37401.237 
  236400    314.81267   -1475.7683    468.16901    412.19501   -98.298023    37401.237 
  236500     306.4757   -1486.7519    519.92328    415.36624    71.187571    37401.237 
  236600    309.51309   -1490.4694    504.84818    410.27217    514.93618    37401.237 
  236700    305.28422   -1494.1911    497.25135     379.8816   -354.66909    37401.237 
  236800    306.96278   -1471.2469    504.67133    417.81599   -22.708027    37401.237 
  236900    304.29619   -1511.6597     474.0112    334.71687    322.71349    37401.237 
  237000    306.22784   -1499.5811    521.11507      402.611    285.14591    37401.237 
  237100    303.00572   -1495.7249    521.63136     392.4518      811.143    37401.237 
  237200    295.76082   -1564.0094    488.87361    258.73536    914.18357    37401.237 
  237300    298.29137   -1515.3573    521.40478    351.33129     372.3462    37401.237 
  237400    300.81998   -1509.3243    468.34695    315.71044    470.86993    37401.237 
  237500    291.69317    -1497.426    495.96513     314.0653   -202.23198    37401.237 
  237600    289.27738   -1491.3305    481.37941    294.67995   -455.87771    37401.237 
  237700     294.0097   -1506.0107    512.08002    332.04291    648.72712    37401.237 
  237800    291.85044   -1528.7767    503.70458    291.16329    623.34489    37401.237 
  237900    303.28647   -1509.0134    491.32652    350.12464   -157.11718    37401.237 
  238000    294.62918   -1528.7197    482.27727    282.32501    263.89232    37401.237 
  238100    304.35016   -1494.9645    479.37672    357.02095    35.268334    37401.237 
  238200    300.89656   -1488.4465    489.30269    357.88938   -91.325005    37401.237 
  238300    305.16246    -1504.172     472.0455    344.14568   -271.58936    37401.237 
  238400     312.3838   -1510.2259    511.83002    410.44436   -160.07342    37401.237 
  238500     305.4908   -1498.1022    475.96668    355.61748   -266.58909    37401.237 
  238600    298.06108   -1446.5676    525.49502     423.1726    674.97525    37401.237 
  238700    299.75013   -1463.7587    496.99269    385.09678    772.43181    37401.237 
  238800    299.36141   -1470.3537    487.43863    367.19456    213.57375    37401.237 
  238900    298.20665   -1468.4215    507.37041    383.85061    321.82706    37401.237 
  239000    292.66255   -1468.6166    511.45601     362.7374   -16.386554    37401.237 
  239100     303.4336   -1452.3415    497.42012    413.55371   -335.22466    37401.237 
  239200    292.59781   -1463.9294    471.29282    326.96953   -701.19171    37401.237 
  239300    307.08121   -1477.3975     473.1783    380.70653   -910.50111    37401.237 
  239400    295.02845   -1465.5316    507.41474    372.45135   -407.48405    37401.237 
  239500    304.66123   -1468.0904    473.95192    379.87321   -179.98404    37401.237 
  239600    305.12703   -1474.0258    500.82122    402.90783   -61.087945    37401.237 
  239700    300.08832   -1493.8544    502.20194    361.73553     400.5812    37401.237 
  239800     298.2889   -1515.6295    487.59742    317.24064    1026.8304    37401.237 
  239900    301.11586   -1491.3434    507.18521    373.86398    156.10338    37401.237 
  240000    304.01855   -1495.3998    525.19556    400.90901    514.87572    37401.237 
  240100     296.7028   -1525.8132    504.88097    317.18718    130.22684    37401.237 
  240200    305.07428   -1537.2664     495.6828    334.29094    939.19624    37401.237 
  240300    257.48878   -1553.4137    495.22188    103.07367    316.97933    37401.237 
  240400    303.51802   -1508.0618    487.03379    347.82779    359.13511    37401.237 
  240500    303.19622   -1483.5863    515.12544    398.94363     360.5627    37401.237 
  240600    303.96353   -1493.7537    509.32931    386.44069    748.90062    37401.237 
  240700    300.55903   -1471.9747    482.18533    365.72149    584.73651    37401.237 
  240800    293.20563   -1473.9173    537.39881    385.82883    344.70056    37401.237 
  240900    301.85452   -1472.0748    518.11835    407.39706    4.2608455    37401.237 
  241000    298.30758   -1452.8024    479.70653    372.26102    420.30523    37401.237 
  241100    298.99989   -1463.6101    524.82939     409.6985    386.28431    37401.237 
  241200    303.04606   -1466.9477    490.95486    390.73442   -261.33841    37401.237 
  241300    306.21497   -1432.6726    490.50821    438.85462   -19.478977    37401.237 
  241400    298.83665   -1484.0839    528.49351     392.1526   -63.850624    37401.237 
  241500    293.41227   -1507.4708    499.56775    315.37622   -128.04152    37401.237 
  241600    307.08324   -1520.6946     502.7467    366.98697    295.74188    37401.237 
  241700    305.44124   -1496.8333    520.09889    400.79513    373.34479    37401.237 
  241800    306.96382   -1487.0865    506.53908     403.8488    320.25018    37401.237 
  241900    306.91903   -1514.4491    498.82706    368.57222    469.03662    37401.237 
  242000    299.41388   -1517.6524    495.63522    328.32915    185.77003    37401.237 
  242100    292.70329   -1555.7485     500.8571    265.19038    515.76623    37401.237 
  242200    296.25745    -1499.177    480.48675    317.42063       686.06    37401.237 
  242300    299.21599   -1477.4589    524.00448     395.9994    443.82366    37401.237 
  242400    300.31733   -1447.4964     510.3694    417.29382    422.18901    37401.237 
  242500    301.87604   -1496.0961    463.49259    328.84705        86.82    37401.237 
  242600    291.07796   -1543.8129    505.29429    274.23301   -214.44593    37401.237 
  242700    306.34533   -1533.4433    471.12196    319.28562    -595.7309    37401.237 
  242800    306.27313   -1504.3278    502.60475    379.55821   -481.53549    37401.237 
  242900    291.91626   -1555.2658    506.71588    267.98235   -1227.2681    37401.237 
  243000    286.40827   -1524.9452    487.53276    254.27898   -635.42639    37401.237 
  243100     305.7341    -1515.659    498.25275    361.44407     331.3755    37401.237 
  243200    299.40508   -1478.1207    490.53882    362.72471    364.09602    37401.237 
  243300    272.97183   -1487.4261    535.47488    279.14237    36.003401    37401.237 
  243400    297.41614   -1514.6667    508.80773    335.47757    339.39741    37401.237 
  243500    303.21746   -1485.2678    506.00913    388.24166    347.01327    37401.237 
  243600    310.62855   -1479.6864    495.73129      416.969    75.235386    37401.237 
  243700    297.96178   -1504.8995    486.64288    325.54073   -388.26783    37401.237 
  243800    300.88057   -1488.2084      495.055    363.80761   -197.23859    37401.237 
  243900    293.92751   -1483.4904    509.79164    351.90418     27.43495    37401.237 
  244000    294.08838   -1478.5471    493.10778    340.88917   -495.58748    37401.237 
  244100    296.47625    -1464.084    493.37811    366.39177   -439.60367    37401.237 
  244200    298.39669   -1473.1908    470.19108    342.75907   -281.96935    37401.237 
  244300    300.31029   -1485.8916    508.54923    377.04669   -542.15669    37401.237 
  244400    296.89069   -1452.4918    500.97031    387.44534    -572.2616    37401.237 
  244500    304.54243   -1426.1786    495.79594    443.09321   -148.70824    37401.237 
  244600     299.3332   -1494.0298    491.28056    347.23324   -19.115003    37401.237 
  244700    305.28891   -1500.7508    492.15886    368.25059    790.33387    37401.237 
  244800    300.85321   -1524.1987    497.06755     329.7065    98.348479    37401.237 
  244900    294.28665     -1488.79    518.89703    357.32966    103.91106    37401.237 
  245000    302.36305   -1483.2976    504.51324     384.8626   -323.18949    37401.237 
  245100    297.54096   -1457.7513    503.10586    387.25405    23.767866    37401.237 
  245200    308.32743   -1526.1588    491.14039    355.52768    -169.6776    37401.237 
  245300    288.22724   -1533.4258    512.54811    279.01721   -629.17744    37401.237 
  245400    308.28171   -1520.0588    452.19816    322.47928    -516.6318    37401.237 
  245500    303.53394   -1534.5343    481.87756    316.27091   -193.26413    37401.237 
  245600    297.20525   -1501.2501    491.23618    330.37149   -489.42146    37401.237 
  245700    317.64622   -1469.9741     501.0009     463.6003   -94.188887    37401.237 
  245800    293.76788   -1506.6935    479.72691    297.91645   -11.406458    37401.237 
  245900    299.80636   -1483.2516    476.85105    345.71584    357.79057    37401.237 
  246000    298.08584   -1483.5197    513.18657    374.02372   -647.98515    37401.237 
  246100    302.19563   -1529.4814    457.79468    291.20513    19.249161    37401.237 
  246200    299.90213   -1492.4515    496.68489    356.78172    515.76804    37401.237 
  246300    288.53576    -1499.127    512.79513    314.95452    205.19159    37401.237 
  246400    287.71797   -1530.4769    482.88831    250.00954     172.5819    37401.237 
  246500    295.14948   -1526.6947    471.65296    276.07223    345.06449    37401.237 
  246600    314.10453   -1461.4145    494.51736     449.7035    984.93916    37401.237 
  246700    309.47541   -1499.6622    500.13953    396.20081    392.34463    37401.237 
  246800    301.98312   -1500.7246    489.34002    350.54894    -85.76719    37401.237 
  246900    302.19505    -1476.519    510.77319    397.14348    423.65097    37401.237 
  247000    293.17405   -1481.0228    499.34553     340.5276    79.881059    37401.237 
  247100    291.22888   -1513.4521    489.72673    289.70688    190.80144    37401.237 
  247200    298.31306   -1516.6608    477.58736    306.30816    27.881233    37401.237 
  247300    306.66839   -1528.3538    483.44919    338.15928    243.60014    37401.237 
  247400    294.01168   -1538.9033    491.58143    278.66073    12.709166    37401.237 
  247500    298.37119   -1511.2844     497.0723    331.43172    437.09447    37401.237 
  247600    304.28994   -1471.8064    488.82151    389.35223    896.36585    37401.237 
  247700    300.73172   -1501.1061    487.79266    342.97627    59.261002    37401.237 
  247800    294.64237   -1509.7336    500.92141    320.01478    592.43823    37401.237 
  247900    305.26574     -1508.93     491.5276    359.33557    916.05547    37401.237 
  248000    304.90621   -1483.3691    497.05021    388.79764    136.82362    37401.237 
  248100    290.43733   -1522.0672    479.53113    267.32627   -272.68404    37401.237 
  248200    299.19085   -1520.9977    511.33579    339.67849   -184.02768    37401.237 
  248300    305.22206   -1564.0259    467.62428    280.13938   -422.22936    37401.237 
  248400    305.77702   -1504.6011     486.3346    360.77737   -25.203332    37401.237 
  248500    293.03897   -1488.9492    491.79423    324.44065   -1208.6096    37401.237 
  248600    297.84484   -1465.7802    487.35924    364.84901    -263.2102    37401.237 
  248700     293.0636   -1487.6994    483.85147    317.85889    13.627548    37401.237 
  248800    304.39783    -1470.458    492.81166    395.17737   -226.74059    37401.237 
  248900    297.90629   -1476.3004     474.5528    341.79949    280.39733    37401.237 
  249000    301.84466   -1506.6776    490.74258    345.37402    323.08934    37401.237 
  249100    298.31381   -1506.7382    502.01203    340.65879    114.35242    37401.237 
  249200     297.5472   -1507.5539    486.43671     320.8104    232.99246    37401.237 
  249300    304.21817   -1462.1167    457.40042    367.29722    52.150778    37401.237 
  249400    302.60728   -1470.2366    503.06693    397.57882   -190.44599    37401.237 
  249500    308.38824   -1469.0073    466.71534    388.52836    328.90737    37401.237 
  249600    289.12398   -1464.0701    497.25699    337.12609   -54.543346    37401.237 
  249700    298.92979   -1453.9733    494.51463    388.70438    266.85014    37401.237 
  249800    293.79514   -1481.3643    468.89301    312.53469    535.94716    37401.237 
  249900    295.85585   -1468.1689    493.84832    359.97907    648.22038    37401.237 
  250000    298.06982   -1426.9297    492.27184     409.6268   -59.226443    37401.237 
  250100    297.02585   -1434.2827    475.58434    380.87804    -79.08469    37401.237 
  250200    308.12135   -1426.5629    499.75247    462.80629   -370.84785    37401.237 
  250300    290.71645   -1437.1017    511.18963    385.20908   -430.31108    37401.237 
  250400    293.96589   -1399.3829    498.21504    424.60824    -347.2109    37401.237 
  250500    297.05844   -1395.3961      508.328    452.65524   -249.56973    37401.237 
  250600    296.92777   -1416.5181    510.20461     432.8205   -846.34182    37401.237 
  250700    294.79393   -1431.5819    487.70552    385.63413   -677.13565    37401.237 
  250800    301.13093   -1418.3119    486.55754    426.33582   -558.59184    37401.237 
  250900    294.04052   -1436.8394    482.43111    371.70436   -700.63794    37401.237 
  251000    287.15992   -1410.2833    484.71319    369.51121   -449.04101    37401.237 
  251100    304.46729   -1421.9046    508.79892    460.03132   -206.26392    37401.237 
  251200    307.39666    -1479.754    487.18012    393.77455    135.42521    37401.237 
  251300    300.22974   -1479.5307    494.82548     369.3206   -145.38981    37401.237 
  251400    286.47756   -1480.3636    538.58071    350.22111    282.66508    37401.237 
  251500    291.46203   -1423.6831    470.62514    361.42579    276.45114    37401.237 
  251600    300.36268    -1485.822    500.37366    369.17704     1028.698    37401.237 
  251700    298.93245   -1473.7695    478.77037    353.17595    885.05881    37401.237 
  251800    305.19126   -1482.9141    493.80795    387.29591    748.73932    37401.237 
  251900    300.38174   -1462.4201     512.1353    404.42648    39.479316    37401.237 
  252000    294.12705      -1454.4    510.31737    382.42023    323.22542    37401.237 
  252100    306.80549   -1427.4336    479.20257    435.45117    621.74425    37401.237 
  252200    301.41328   -1426.3301    505.56089    438.59436   -405.41223    37401.237 
  252300    295.80118   -1428.2325    488.42741    394.24808   -69.601964    37401.237 
  252400    298.81148   -1469.3334    538.60492    416.90096    600.01729    37401.237 
  252500     298.1965   -1480.1892    493.24843    357.91522    459.38042    37401.237 
  252600    298.26798   -1434.7011    475.80892     386.2862    848.27047    37401.237 
  252700    298.29185   -1462.6373    516.49341     399.1421    340.79185    37401.237 
  252800     303.8968   -1446.0653    509.78485    434.28363    593.52627    37401.237 
  252900    306.48131   -1441.9241    497.47455     437.7706    476.14526    37401.237 
  253000    287.49714   -1466.6292    505.56024    335.53324   -359.49932    37401.237 
  253100    295.76248   -1420.3709    497.30901    410.81676    397.29559    37401.237 
  253200    310.69517   -1467.5243    509.02835    442.72862    678.68792    37401.237 
  253300    292.74691   -1472.1107     505.1148    353.28259   -298.54634    37401.237 
  253400    303.13133   -1451.7778    488.25659    403.59063   -695.10056    37401.237 
  253500    295.91572    -1451.972     486.2268    368.82449   -530.02216    37401.237 
  253600    298.10589   -1431.7047    499.74967    412.49225   -344.29585    37401.237 
  253700    314.13285   -1432.9654     478.2464    462.00935    -42.38695    37401.237 
  253800    291.68295   -1401.2174    486.74163    401.00428    -187.5594    37401.237 
  253900    291.44195   -1415.0793     516.9122     416.2261    231.08449    37401.237 
  254000    304.60623   -1421.7281    490.79453    442.83011    129.92376    37401.237 
  254100    307.26352   -1392.4627    515.30976    508.59501   -166.93968    37401.237 
  254200    306.47294   -1429.3526     502.5156    455.34544   -330.80289    37401.237 
  254300    300.86818   -1440.6749    523.16253    439.39277    111.50617    37401.237 
  254400    299.12507    -1453.457    514.36589    409.95263   -410.72557    37401.237 
  254500    298.83096   -1441.8528    505.51012    411.37464   -220.80295    37401.237 
  254600    294.43048   -1386.5566    493.10658    434.42131    -646.1627    37401.237 
  254700    306.23628   -1459.7487    488.70026    410.06665   -913.16822    37401.237 
  254800    291.15335   -1453.5948    482.10235    341.59912   -921.66403    37401.237 
  254900    304.35006   -1448.6524    472.75841    396.71433   -310.39563    37401.237 
  255000    294.29126     -1452.97    474.06561    348.33905    294.68223    37401.237 
  255100    298.69786   -1462.0454    517.15782    402.22946    -237.3084    37401.237 
  255200     297.9683   -1466.3139    484.89852    362.41142   -436.72069    37401.237 
  255300    297.60301   -1455.6732    494.41283    380.91902   -619.58968    37401.237 
  255400    299.46453   -1462.9031    501.43767    389.10934   -458.99934    37401.237 
  255500    308.50851   -1467.1878    478.83785    403.01282    398.38522    37401.237 
  255600    306.23108   -1493.5347    501.30632    388.86329    200.43087    37401.237 
  255700    303.79024    -1499.206    492.17336    363.05087     -75.4857    37401.237 
  255800    296.68903   -1497.2311    500.29014    341.11633   -242.05429    37401.237 
  255900    292.78601   -1474.7655    472.04302    317.73231   -274.96013    37401.237 
  256000    310.18021   -1497.6417    484.67763    385.93798    451.33085    37401.237 
  256100    300.29829   -1492.9707    511.86814    373.23244    676.55536    37401.237 
  256200    301.94532   -1479.8512    468.18097    350.09281    252.40896    37401.237 
  256300    300.99219   -1475.6507    505.26034    387.07412    77.797336    37401.237 
  256400    298.38951   -1474.7518      499.995    370.96965     -92.2114    37401.237 
  256500    304.80843   -1476.5561    479.85969    377.97915    151.32245    37401.237 
  256600    292.21371   -1507.9189    487.33867    297.29354    31.260659    37401.237 
  256700    292.39614   -1462.0737    488.63477    345.25761   -36.934789    37401.237 
  256800    312.98291    -1533.637    506.40461    384.30976    10.657613    37401.237 
  256900    306.96579   -1516.0578     481.4396    349.78702    282.05503    37401.237 
  257000    312.46835   -1481.2587    493.11579    421.07866    172.07409    37401.237 
  257100    292.77265   -1478.8309    525.40201    366.96573   -83.105055    37401.237 
  257200    307.30283   -1482.2711    471.11534    374.76941    170.47775    37401.237 
  257300    297.90097   -1466.9322    500.23003    376.82095     263.7566    37401.237 
  257400    297.73944   -1512.0133    522.01714    352.79845    66.781195    37401.237 
  257500     306.4528   -1507.1578    489.81181     364.7456   -96.495945    37401.237 
  257600    305.31071   -1514.1656    503.03149    365.80675    296.47604    37401.237 
  257700    295.65642   -1467.0088    506.68657    373.07802    5.6054435    37401.237 
  257800    290.10133   -1496.2714    486.32864    298.40431   -44.615316    37401.237 
  257900     308.6919    -1485.625    505.17683    411.74174    130.05717    37401.237 
  258000    293.78248   -1475.2755    491.93497    341.60828    517.13815    37401.237 
  258100    290.71631   -1464.6541    501.95492    348.42135    298.36275    37401.237 
  258200    296.47615   -1482.0603    509.65185    364.68878    585.44519    37401.237 
  258300     303.9759    -1441.165    488.00686    417.76274    318.30542    37401.237 
  258400    300.83199   -1504.3417    475.04528    327.44557    236.06563    37401.237 
  258500    303.43263   -1515.2717    476.68625    329.88532   -20.629136    37401.237 
  258600    293.38235   -1460.3516    496.79186     359.5846    -113.2132    37401.237 
  258700    292.20682   -1510.0521    489.30381    297.09444    321.55058    37401.237 
  258800    300.93785   -1500.1915    494.12844    351.15627    181.62186    37401.237 
  258900     297.6642    -1508.665    480.38278    314.17309   -20.390209    37401.237 
  259000    295.44295   -1500.7773     491.9373    323.59752    525.59877    37401.237 
  259100    307.46432    -1533.008    499.88755    353.53302    290.68495    37401.237 
  259200    299.73238   -1517.0259    497.43697    332.19379    142.22728    37401.237 
  259300    291.51164   -1495.3067    510.39495    329.79568    260.18266    37401.237 
  259400    299.16176   -1453.2688    523.99495    419.93545   -101.00826    37401.237 
  259500    301.67737   -1460.9384    509.83127    409.44748    287.04314    37401.237 
  259600    294.72933   -1481.0869    494.55159    342.68383    354.77308    37401.237 
  259700    305.28458   -1500.3797    521.40323    397.84649    238.58056    37401.237 
  259800    297.84391   -1492.0755    480.54149    331.73183    309.90575    37401.237 
  259900    302.36121   -1529.0238     519.9104    354.52526   -23.103291    37401.237 
  260000    300.56551     -1526.48    481.95756    311.01765    45.407865    37401.237 
  260100    314.63732   -1534.3376    479.29409    363.95991    525.14626    37401.237 
  260200    296.30038   -1507.1678    473.50391    302.64068    530.23153    37401.237 
  260300    292.57138   -1503.2844    506.66104    322.86354   -141.26821    37401.237 
  260400    295.23423   -1516.3642    498.54171    313.67377    165.82567    37401.237 
  260500    301.19083   -1495.9623    498.31373    360.71173   -157.79346    37401.237 
  260600    295.33377   -1510.4553    495.76556    317.25536    76.393835    37401.237 
  260700     297.5072    -1498.132    502.57707    346.19236    195.77293    37401.237 
  260800    310.79221   -1522.4498    493.37028    372.58261    154.48253    37401.237 
  260900     306.8098   -1487.6036    511.52949    407.62754   -495.36892    37401.237 
  261000    297.52249   -1492.0036    490.31477    340.12736    271.55242    37401.237 
  261100    295.50315   -1491.5287    488.87979    330.06013    138.03622    37401.237 
  261200    314.42505   -1519.8723    486.93095    385.10485    91.872528    37401.237 
  261300    295.34044   -1532.5564    490.42394    289.84275   -192.89652    37401.237 
  261400    292.57314   -1523.4479    497.63735    293.68424     459.1172    37401.237 
  261500    297.13641   -1495.2339    490.35141    335.19252     302.8192    37401.237 
  261600    302.74862   -1463.2132    499.81089    401.98358    -426.8869    37401.237 
  261700    297.77389   -1494.1182    492.43667    341.26844    -38.76957    37401.237 
  261800     303.5178    -1499.551     497.9589    367.26277     201.6899    37401.237 
  261900    305.23356   -1497.2721    494.97528    374.29605   -298.04172    37401.237 
  262000    306.55697   -1517.6853    482.55532    347.43137   -187.18947    37401.237 
  262100    311.83709   -1498.5204     499.9206    407.77472   -370.55776    37401.237 
  262200    301.09304   -1480.5575    489.79106     367.1528    489.09371    37401.237 
  262300    293.32297   -1471.9126    486.20993     337.1738    353.49545    37401.237 
  262400    292.29783   -1465.0037    501.25712    354.50657    143.89206    37401.237 
  262500    303.99504   -1447.2374    500.80114    424.57095    149.13259    37401.237 
  262600    311.40702   -1455.0756    464.59462    413.95403   -71.448879    37401.237 
  262700    314.46262   -1462.6386    491.93488    447.51188   -614.55803    37401.237 
  262800     288.6409   -1505.9612    502.50504     298.3044   -399.28281    37401.237 
  262900     303.2439   -1511.3169     487.6944    343.99705    159.90649    37401.237 
  263000    308.53002   -1469.0833     508.7095    431.08592   -217.49631    37401.237 
  263100    296.18896   -1460.3222    498.90317    374.38299   -687.86382    37401.237 
  263200    310.08739   -1462.0523    501.12792    437.55907    63.147861    37401.237 
  263300    303.29866   -1419.8755    487.53519    435.52625    259.09174    37401.237 
  263400      303.891   -1436.9978    491.47727    425.01743   -42.492341    37401.237 
  263500    302.79256   -1425.3041    491.51215    431.79208    154.90359    37401.237 
  263600    295.96016   -1413.8753    492.69961    413.59448      148.402    37401.237 
  263700    305.64681   -1436.1775    489.42226    431.70137    231.17225    37401.237 
  263800    301.23783   -1439.8115    496.49677    415.25755    287.66032    37401.237 
  263900    294.53798   -1436.3808     476.8958    368.87119    26.257003    37401.237 
  264000    297.66066   -1419.0455    469.49699    392.89078   -115.84012    37401.237 
  264100    296.05942   -1453.6552    490.80035    372.36302   -280.11222    37401.237 
  264200    312.02967    -1477.263    472.58447    402.56454    221.64404    37401.237 
  264300    303.31248   -1455.7245    457.71423    369.91855    -81.32376    37401.237 
  264400    309.00001    -1480.047    492.61956    406.15196   -627.64838    37401.237 
  264500    308.08446    -1513.674    474.90936    350.68565    410.26112    37401.237 
  264600    304.28871   -1454.5103      475.825    393.64635    538.05127    37401.237 
  264700    290.73614   -1482.8487    495.66122    324.02252    -67.87581    37401.237 
  264800     300.3715    -1480.583    487.52829    361.61046   -141.51209    37401.237 
  264900    308.68698   -1469.0061    469.41879    392.58037   -65.519883    37401.237 
  265000    297.19104   -1484.9867    482.22378    337.55845   -166.43731    37401.237 
  265100    292.46528   -1477.4882    488.62491     330.1451    61.159655    37401.237 
  265200    303.27343   -1509.7076     479.1265    337.17166    96.844491    37401.237 
  265300    299.15398   -1458.3164    479.15943    370.01719    136.70514    37401.237 
  265400    301.20513   -1494.3724    469.44923    333.50165   -167.20442    37401.237 
  265500    295.54537    -1501.284    493.48683    325.10227   -391.00311    37401.237 
  265600    305.70571   -1493.4791     483.0303    368.27338   -392.18156    37401.237 
  265700    297.97807    -1461.862    480.28667     362.2955   -426.99391    37401.237 
  265800    302.33242   -1476.6915    501.70996    388.52728   -388.78325    37401.237 
  265900    317.24126   -1471.1987    495.76917    455.31765     454.7587    37401.237 
  266000    294.51364    -1442.826    479.54845    364.96887    -436.0841    37401.237 
  266100    301.42859   -1470.4952    481.01555    369.95297   -436.01392    37401.237 
  266200    304.71857   -1435.1004    504.69814    443.86796   -300.46405    37401.237 
  266300     310.0752   -1449.0857    501.89368    451.23645   -307.76243    37401.237 
  266400    306.27573   -1497.4186    453.67675    337.55119    -696.7781    37401.237 
  266500    300.68687   -1477.9522    458.36922    336.50448   -1022.0763    37401.237 
  266600    310.06006   -1510.6086    478.31254    366.06414   -268.25348    37401.237 
  266700    300.74391    -1480.678    498.40285     374.0695    346.35211    37401.237 
  266800    305.91356    -1488.663    494.61269    385.60932    348.83649    37401.237 
  266900    299.40639   -1495.9216    495.88117    350.27209    281.85057    37401.237 
  267000    301.25379   -1513.1252    516.69476    362.21382    65.620605    37401.237 
  267100    287.83891   -1491.2428    517.78743    324.68825   -343.62687    37401.237 
  267200    305.21173   -1449.3793    496.86973    423.98483    59.360384    37401.237 
  267300    296.73478   -1505.2015    473.98207    307.04417    53.271879    37401.237 
  267400    296.03149   -1512.4308    492.12372    314.78474   -143.99887    37401.237 
  267500    290.78636   -1463.3404    482.77851    330.87456   -141.78952    37401.237 
  267600    309.04781    -1483.108    506.39978    417.08674    63.443067    37401.237 
  267700    295.93335    -1506.042    488.45838     317.0656    564.46182    37401.237 
  267800    295.12064   -1504.5058    485.17942    311.65759   -1.9161796    37401.237 
  267900    304.46529   -1489.0499    497.29347    381.37155    220.94098    37401.237 
  268000    299.50981   -1496.5757    483.14717    337.35035    178.56707    37401.237 
  268100     297.4949   -1497.3563    488.98084    333.31635    433.25868    37401.237 
  268200    307.71869   -1491.6098    512.16013    408.35098    98.350583    37401.237 
  268300    300.53696   -1474.8632    510.37415    390.92232   -440.74174    37401.237 
  268400    301.39985   -1496.9101    498.46914    360.86195   -20.650282    37401.237 
  268500    303.15835   -1513.4073    484.00933    337.83574   -465.47221    37401.237 
  268600    297.34216   -1491.1687    487.72773    337.56197    -595.5656    37401.237 
  268700    300.93873   -1468.8534    504.03043     392.4004   -31.549036    37401.237 
  268800    299.89698   -1470.0225    504.79306    387.29567    364.07584    37401.237 
  268900    306.51885   -1483.6191    513.59049    412.36089    608.61526    37401.237 
  269000    306.56077     -1455.51    467.48134    394.54983    436.95431    37401.237 
  269100    311.04274   -1468.0197    494.93622    429.70856    279.44736    37401.237 
  269200    306.21931   -1483.9834    495.76888     392.8241    265.49988    37401.237 
  269300    311.13702   -1523.1446    485.46706    365.53972    515.30585    37401.237 
  269400    295.02628   -1466.3891    461.61919    325.78851    231.63474    37401.237 
  269500    307.38899   -1505.2897    488.47778    369.50186    -38.31131    37401.237 
  269600    299.00949   -1524.7969     492.7149    316.44045    94.437215    37401.237 
  269700     294.0389   -1497.9937    500.51036    328.62202    514.53872    37401.237 
  269800    300.11047   -1513.0984    482.88391    323.27339    142.86841    37401.237 
  269900    302.00065   -1511.4802    513.91159    364.44397     151.2025    37401.237 
  270000    306.25514   -1499.5161    470.96211    352.64613    469.22509    37401.237 
  270100    306.38435    -1453.509    505.09756    433.37147    853.77656    37401.237 
  270200    307.90389   -1475.1121    481.45718    394.98097     132.6198    37401.237 
  270300    295.98359   -1440.0063    498.46242    393.33189    137.20424    37401.237 
  270400    306.19606   -1500.5518    472.49338    352.87525   -201.60807    37401.237 
  270500     299.0683   -1483.8716     506.2985    371.21462    62.450764    37401.237 
  270600    307.13546    -1480.663    484.15406    388.66142    190.80852    37401.237 
  270700    298.27042   -1502.5778     483.2293    325.84087   -319.27775    37401.237 
  270800    300.16602   -1478.2003    480.42061    355.95876   -81.084849    37401.237 
  270900    301.83884   -1464.1506    512.25164    409.38378     -208.353    37401.237 
  271000      303.311   -1483.9423    512.12956    396.10945   -758.57199    37401.237 
  271100    290.25577   -1484.4618    498.88313    323.46485   -319.34425    37401.237 
  271200    298.17256   -1483.8158    482.39417    343.32641   -397.90944    37401.237 
  271300    299.17293   -1494.8819    490.07377    344.45153   -435.28106    37401.237 
  271400    306.86643    -1533.205    485.69384    336.44588   -229.16332    37401.237 
  271500    305.44854   -1491.6124     498.3323    384.28228    416.06007    37401.237 
  271600    298.35436   -1523.7768    484.48547    306.27659   -56.378343    37401.237 
  271700    311.18691   -1492.9268    502.82902    413.34444   -41.450907    37401.237 
  271800    300.13373   -1493.6916    479.60865    339.50982    -119.2535    37401.237 
  271900     305.9841   -1491.2128    529.29912    418.06409    171.42994    37401.237 
  272000    301.89028   -1495.9259    459.39671    324.98559   -199.30431    37401.237 
  272100    305.73567   -1474.9271    515.73637    419.66659    149.22964    37401.237 
  272200    287.20067    -1503.862    507.29718     298.7003   -162.72958    37401.237 
  272300    301.07347   -1500.0454    521.49949    379.28507    276.84136    37401.237 
  272400    296.59255    -1515.874    515.13435    336.88258   -172.91605    37401.237 
  272500    297.23139   -1473.6933    469.45267    336.26267     245.2819    37401.237 
  272600    308.58232   -1447.7423    500.10626    444.05966   -362.51019    37401.237 
  272700    306.81859   -1433.6737    505.15465    455.22223    -454.2283    37401.237 
  272800    293.94324   -1484.9155    503.38354    344.14198   -403.85396    37401.237 
  272900    300.44126   -1469.0321     486.2694    372.21706    202.90168    37401.237 
  273000    307.78196   -1461.9075    499.98405    426.16256   -575.56099    37401.237 
  273100    301.39808   -1488.5801    482.63986    353.35478   -139.78189    37401.237 
  273200     298.7939   -1493.1203     485.3865    339.81636     465.3452    37401.237 
  273300    302.92973   -1498.3567    528.37949    396.22544    544.16798    37401.237 
  273400    294.62193   -1447.4585    477.09025    358.36656   -57.953198    37401.237 
  273500    308.91886   -1509.2542    504.42253    388.38171    302.54971    37401.237 
  273600    316.13442   -1479.1083    515.06649    461.71352    350.52152    37401.237 
  273700    310.82579   -1458.6431    508.21643    451.38698    291.28123    37401.237 
  273800     296.8131   -1461.2077    504.68602    382.09518    555.73745    37401.237 
  273900    301.39536   -1472.0171    501.09022    388.35585    634.11549    37401.237 
  274000    305.74394   -1460.7529    505.24867    423.39041    924.65336    37401.237 
  274100    310.52156    -1468.702    517.52449    449.26402    1152.6043    37401.237 
  274200    295.69139   -1469.6945    514.36263    378.22617    680.86245    37401.237 
  274300    306.91728   -1477.2568    497.88083    404.81041    810.32498    37401.237 
  274400    299.68707   -1432.1484    496.23829    415.66826    224.32152    37401.237 
  274500    297.42743   -1423.6658    498.39083    416.11252   -130.55731    37401.237 
  274600    299.95546   -1420.2343    485.52987    418.08438   -718.46379    37401.237 
  274700    305.84932   -1449.7558     501.4384    431.05248   -469.78117    37401.237 
  274800    294.87936    -1452.547    516.74933    394.09808    1.3786121    37401.237 
  274900    302.56314   -1491.2283    520.73816    394.05922    27.710075    37401.237 
  275000    300.09597   -1494.1966    491.55389    350.77974   -579.60478    37401.237 
  275100     301.0713   -1526.5613    462.78107    294.04101   -340.48793    37401.237 
  275200    292.14637   -1484.3249    477.77933    311.02456   -874.65172    37401.237 
  275300      309.811   -1465.9843     509.1261    440.37871   -545.79602    37401.237 
  275400    309.57168   -1503.5198    507.89912    400.53699   -236.72843    37401.237 
  275500     298.0613   -1494.7057    479.42848    328.96902     -26.5806    37401.237 
  275600     296.0571   -1488.1994    510.16589     357.1738   -83.158513    37401.237 
  275700    297.58278   -1467.3954    488.97699     363.6697    69.257054    37401.237 
  275800    312.17298   -1482.8613     506.1125    431.14058    462.42672    37401.237 
  275900    299.31881   -1522.4475    510.50515    337.97523   -760.90175    37401.237 
  276000    302.93532   -1439.0777    477.03451    404.18468   -310.18612    37401.237 
  276100    293.97538   -1460.4085    489.46112     354.8715   -382.82195    37401.237 
  276200    307.52396   -1472.9841    499.06239    413.00078   -422.35383    37401.237 
  276300    304.70668   -1454.8287    473.36764    392.75564   -257.89676    37401.237 
  276400    297.56416   -1482.3632    486.99943    346.64032   -486.50726    37401.237 
  276500    290.42455   -1457.1596    497.20662    349.85178   -267.17799    37401.237 
  276600    297.88093   -1449.3622    490.52188    384.59246   -96.886269    37401.237 
  276700    298.48036   -1450.3387    485.38541     381.1829    213.66565    37401.237 
  276800     303.8594   -1500.7753    490.77554    360.39562    454.03192    37401.237 
  276900    293.54564   -1526.7773    508.94559    306.04903    225.37444    37401.237 
  277000    305.67603   -1494.5368    488.82767     372.8793    552.30069    37401.237 
  277100    295.54569   -1465.3214     516.6695    384.24898     432.9791    37401.237 
  277200    303.52106   -1495.7545    526.64252    399.75751    -148.9026    37401.237 
  277300    302.77034   -1493.6551    476.69369    348.52236    171.75347    37401.237 
  277400    298.20703   -1488.4207    535.80367    392.28647    808.69823    37401.237 
  277500    302.00411   -1524.9559    502.18053    339.25277    358.45583    37401.237 
  277600    293.29835   -1473.7794    492.53521    341.52122   -356.80233    37401.237 
  277700    306.48719   -1467.7939    499.45763    413.91036   -583.58384    37401.237 
  277800    296.78548   -1402.0649    485.58121    422.00867   -566.09078    37401.237 
  277900    284.61771   -1506.2787    507.32761    284.66501   -370.57286    37401.237 
  278000    298.17743   -1467.4488    477.08229    354.40344   -191.11664    37401.237 
  278100    310.39586    -1480.915     498.2523    417.21195   -108.31475    37401.237 
  278200    303.58653     -1496.63    503.90112     376.4359   -374.56063    37401.237 
  278300    288.86086   -1482.0048    471.93628    292.68403   -304.17887    37401.237 
  278400     293.1871    -1385.601    502.16522    438.82794   -330.02585    37401.237 
  278500    290.41744   -1454.2967    492.78184    348.25783   -709.77581    37401.237 
  278600    301.14743   -1452.2664    491.71173    397.60984   -494.37857    37401.237 
  278700    300.94104   -1437.8083    504.53344    423.95884   -117.54223    37401.237 
  278800    285.12072   -1475.8677     482.4917    292.50864    -438.4482    37401.237 
  278900    280.68232   -1427.7821    510.60922    348.69474   -176.07924    37401.237 
  279000    285.03651   -1407.8982    492.11605    369.72266   -33.661533    37401.237 
  279100    299.81317   -1441.1979    485.09528    396.04444    -45.89823    37401.237 
  279200    282.96833   -1442.1806     493.8611      327.858   -67.274031    37401.237 
  279300    291.22811   -1444.9085    482.74587    351.26617   -911.97675    37401.237 
  279400     299.3275   -1373.3399    471.52345    448.14026   -154.01507    37401.237 
  279500    305.14895   -1380.4591     512.7772    508.52939    45.155191    37401.237 
  279600    301.09269   -1425.2785     475.5111    408.15029    744.26943    37401.237 
  279700    300.16532    -1453.892    507.47469     407.3179    120.22277    37401.237 
  279800    298.99951   -1416.2138    503.15849    435.42221   -91.855154    37401.237 
  279900    302.22257   -1423.2933    508.88421    448.60435    -165.1984    37401.237 
  280000    303.43799   -1452.8394    497.39912    413.05462   -384.84169    37401.237 
  280100    294.82732   -1453.4426    490.04573    366.26427   -607.53956    37401.237 
  280200    314.97812   -1420.9091    517.46129    517.09265   -16.613387    37401.237 
  280300    298.57945   -1452.1255    500.81793    395.27547   -263.92892    37401.237 
  280400    293.91471   -1447.1487     514.7848     393.1813    361.61068    37401.237 
  280500     299.3128   -1445.3725    475.70424    380.22217    628.79752    37401.237 
  280600    291.75352    -1446.523    514.06921    383.34453    197.52897    37401.237 
  280700    307.87846   -1480.0578    469.01856    377.48207   -298.98465    37401.237 
  280800     293.3619   -1426.7972    484.28055    380.53545    157.68043    37401.237 
  280900    291.89736   -1455.3199    479.00985    340.13703    197.47506    37401.237 
  281000    291.55184   -1400.1533    500.52001    415.25551    528.06858    37401.237 
  281100    305.95367   -1427.1286    497.25565    449.96752     900.7552    37401.237 
  281200    295.36707   -1477.5691    501.19016    355.71643    276.52021    37401.237 
  281300    299.97155   -1473.9964    485.81766    364.68266    12.911092    37401.237 
  281400    304.92048   -1451.5083    473.61803    397.29059   -273.55944    37401.237 
  281500    299.91446   -1467.6561    498.51131    383.45914   -144.16758    37401.237 
  281600    289.74901   -1459.2466    507.58045    355.09196   -457.79372    37401.237 
  281700     302.1733   -1442.0455    485.61044    406.35614   -756.69278    37401.237 
  281800    303.10177   -1477.5137    496.34728     385.8122   -628.63046    37401.237 
  281900     304.1985   -1449.9498    500.48386    422.45884   -136.60102    37401.237 
  282000    303.10672   -1434.3348    490.19595    422.86203    -746.0952    37401.237 
  282100    308.36927   -1457.3682    515.63403    449.00058    187.46733    37401.237 
  282200    304.05973   -1448.8432    487.64047    410.09622    235.69623    37401.237 
  282300    304.62538   -1446.0874     506.5436    434.30625    96.062689    37401.237 
  282400    301.62294   -1480.7324    474.99274    354.56944   -188.92178    37401.237 
  282500    302.06109   -1474.6437    493.57248    381.21386   -78.527324    37401.237 
  282600    298.97664   -1470.4754    491.45633    369.35527    -126.4036    37401.237 
  282700    297.67219    -1419.282     509.8149    433.02427   -174.34431    37401.237 
  282800     295.8785   -1422.2175    498.22861    410.41294   -330.19964    37401.237 
  282900    294.43397   -1441.3729    512.18468    398.69886   -400.05372    37401.237 
  283000    290.07132    -1411.825    484.11621    380.50287   -311.59135    37401.237 
  283100    292.81045   -1444.4385    507.89234    384.01893    65.151434    37401.237 
  283200    299.67795   -1448.2941    493.36856    396.61168    481.66396    37401.237 
  283300    302.43093   -1397.9457     492.7683    458.77574    464.57182    37401.237 
  283400    298.38579   -1456.4481    501.26377     390.5253    192.31033    37401.237 
  283500    292.65668   -1464.2636    494.27268    349.88063   -291.22998    37401.237 
  283600    292.32091   -1406.5204     493.2501    405.08695   -407.50391    37401.237 
  283700      297.874   -1448.5432    483.68235    378.54066    215.39987    37401.237 
  283800    304.40941   -1475.2334    486.88845    384.53099     -417.443    37401.237 
  283900    299.62215   -1447.1404    463.60878    367.75395   -557.19183    37401.237 
  284000    309.18489   -1463.4817    489.32362    420.25516   -782.68976    37401.237 
  284100    296.21268   -1451.0349    507.82962    392.70377   -448.11507    37401.237 
  284200    295.31507   -1503.4662    483.15153    311.54619   -30.170506    37401.237 
  284300     305.4436   -1464.2868    497.74645     410.9998   -167.88867    37401.237 
  284400     299.5146   -1458.9449    470.28878     362.1444   -490.64888    37401.237 
  284500    315.00496   -1459.6508    521.15102    482.16171   -24.836962    37401.237 
  284600    289.24551    -1510.507    487.00852    280.98887    109.46271    37401.237 
  284700    306.59695   -1480.9361    476.66918     378.4748    264.56189    37401.237 
  284800    304.63085    -1458.023    498.65219    414.50385   -602.89972    37401.237 
  284900    302.29472   -1434.0194    464.97208    394.29143   -820.97259    37401.237 
  285000    301.40741   -1451.0515    478.52694    386.81246   -573.25197    37401.237 
  285100    298.77765   -1449.7161    509.19349    406.95432   -110.20823    37401.237 
  285200    298.03846   -1497.5394     480.0856    326.68945   -94.194398    37401.237 
  285300    299.85143   -1499.3828    532.14983    385.08669    53.505742    37401.237 
  285400    306.28573   -1471.8065     484.2197     393.7513    184.18736    37401.237 
  285500    299.28676   -1463.7007    473.97956    360.05185    232.76796    37401.237 
  285600    294.67508   -1449.0143    502.04344    382.00361    564.96732    37401.237 
  285700    299.75164     -1456.53      512.475    407.81462    556.26939    37401.237 
  285800    304.49275   -1457.0351    491.47583    407.69254    171.65406    37401.237 
  285900    306.84914   -1493.5157    472.24818    362.61152   -332.53331    37401.237 
  286000    304.68608   -1482.8712    528.11011     419.3626   -175.45885    37401.237 
  286100    288.51513   -1502.4037     490.4004    289.19001   -711.57123    37401.237 
  286200    306.51913   -1474.3873    473.67814    381.68158   -794.10295    37401.237 
  286300    305.45487   -1501.7083    502.21421    378.09684   -325.34586    37401.237 
  286400    292.74057   -1475.5829    498.21828    342.88522    265.61261    37401.237 
  286500     308.8907   -1479.4046    482.57703    396.25884    182.53684    37401.237 
  286600    301.04735   -1527.2028    499.17573    329.68616    187.56746    37401.237 
  286700    294.96055   -1532.5979     451.8946    249.55863   -25.993908    37401.237 
  286800    297.08902   -1538.4382    492.90308    294.32616   -142.98628    37401.237 
  286900    300.01819   -1535.2264    471.78742    289.63274   -23.191633    37401.237 
  287000     304.8688   -1497.7492    495.29047    372.48907    98.798044    37401.237 
  287100    296.55893   -1523.8037    476.66069    290.32762    147.36389    37401.237 
  287200    297.32886   -1463.7509    473.77798    350.96997    83.565676    37401.237 
  287300     287.6984   -1491.1482    526.98034    333.34197    315.81143    37401.237 
  287400    291.43576   -1551.7317    479.22197    241.85554   -253.36994    37401.237 
  287500    301.33313   -1504.7132    462.53177    316.82063   -233.84255    37401.237 
  287600    305.87645   -1507.3689    504.62135    376.74473   -354.44117    37401.237 
  287700      309.198   -1487.2532    493.58729    400.80647    -112.4499    37401.237 
  287800    305.38512   -1493.1923    490.11882    374.20293    239.68285    37401.237 
  287900    308.70108   -1493.5684    487.71956    386.38246    218.90102    37401.237 
  288000    295.91665   -1538.1717    502.74896    299.15118    59.383563    37401.237 
  288100    292.35031   -1512.8886      465.999     271.6002    46.325895    37401.237 
  288200     302.3881   -1523.6408    487.89921    328.01837    383.24594    37401.237 
  288300    300.79869   -1475.1764    513.92587    395.34124    606.12607    37401.237 
  288400    300.46424   -1512.1241    486.23336    329.19259    637.62226    37401.237 
  288500    303.39207   -1553.4938    482.96284    297.75683    246.31873    37401.237 
  288600    317.71334   -1521.0993    479.50812    391.28506    88.167721    37401.237 
  288700    307.02269   -1493.8502    503.41935    394.23097    369.98901    37401.237 
  288800    296.67043   -1480.5055    481.66144    339.12945    242.93668    37401.237 
  288900    304.16649   -1479.8626    512.54534    404.46322   -251.71217    37401.237 
  289000    299.28077    -1485.663     494.8864    358.96935   -754.19032    37401.237 
  289100    303.59055   -1467.3475    500.07252    401.90794   -197.18883    37401.237 
  289200     307.5465   -1469.2586    495.49847    413.26402   -472.04309    37401.237 
  289300    298.20424   -1465.7183    505.64152    384.81405   -35.464464    37401.237 
  289400    288.51565   -1476.5586    496.87541    321.51248   -411.93366    37401.237 
  289500     302.8744   -1450.8411    504.01013    419.12211   -365.06119    37401.237 
  289600    300.03754   -1440.7301    497.48027    409.90915   -682.09128    37401.237 
  289700    306.48036   -1451.6071    502.24024    432.84898   -176.90369    37401.237 
  289800    296.78307   -1482.0099    508.33118    364.80269   -513.17113    37401.237 
  289900    293.30414   -1442.8082    511.90288    391.88625    4.9528614    37401.237 
  290000     304.2122   -1450.2625    467.38172    389.10583    383.42747    37401.237 
  290100    300.95659    -1450.926    511.88846    418.26633    333.88911    37401.237 
  290200    292.72762   -1464.2146     477.6943    333.67118   -415.81235    37401.237 
  290300    303.99792   -1466.3578    483.29087     387.9532    94.860607    37401.237 
  290400    302.53316   -1430.4139    521.92699     455.9272   -154.69343    37401.237 
  290500    292.18022   -1476.2297    491.35256    332.84565   -528.90435    37401.237 
  290600    309.28445   -1412.3459    481.31253    463.82889   -537.14572    37401.237 
  290700    295.98973   -1462.6733    493.90343     366.1336   -260.40651    37401.237 
  290800    305.48406   -1454.6155    498.06849    421.17561    59.733619    37401.237 
  290900    297.76681   -1461.4757    513.63165      395.074   -308.00742    37401.237 
  291000    295.67912   -1477.0355    491.28757    347.75474    98.704947    37401.237 
  291100    306.98352   -1500.2409    490.24467    374.48885    237.79591    37401.237 
  291200    291.49271    -1448.117    493.19421    359.69936    65.378049    37401.237 
  291300    311.19362   -1461.0481    489.17799    431.60243    176.67691    37401.237 
  291400    298.17929   -1464.0057    502.74944    383.52202   -28.572243    37401.237 
  291500    302.19866   -1471.8507    484.26743    375.32232    295.38451    37401.237 
  291600     307.1717   -1485.3279     493.4466    393.45255    528.69699    37401.237 
  291700    303.47841   -1473.4569    472.58185    367.80212    157.92702    37401.237 
  291800    297.50197   -1421.6446    481.88227    401.96136    414.10672    37401.237 
  291900    310.92798   -1425.8681     520.8722    497.27857      365.826    37401.237 
  292000    305.68078   -1469.1703    497.51615    406.95565    152.32923    37401.237 
  292100     292.6112   -1424.2386    481.00002     376.4279   -18.574267    37401.237 
  292200    291.53406   -1419.3295    486.05706    381.53617    176.11873    37401.237 
  292300    299.60802    -1440.398    512.33997    423.16387   -179.34977    37401.237 
  292400    301.61975   -1444.2495    480.12953     396.1747   -82.157353    37401.237 
  292500    293.38795   -1433.5904    488.62715    378.20634    1055.6607    37401.237 
  292600    308.83393   -1409.9908    523.61975    506.45936     861.7226    37401.237 
  292700    303.67501   -1436.5518    506.37716    439.38926    888.16505    37401.237 
  292800    303.18489   -1466.5236      492.631    393.46087    578.71716    37401.237 
  292900    298.47767   -1447.0121    480.17936    379.29129    603.48533    37401.237 
  293000    303.22212   -1439.0817    495.80283    424.24242   -51.228353    37401.237 
  293100    294.85034   -1454.0314    480.44516    356.17871   -483.03349    37401.237 
  293200    304.00452   -1452.6675    525.85796    444.24042     24.98212    37401.237 
  293300    307.36918   -1454.8517    468.83338    400.20608    60.456798    37401.237 
  293400    289.92105   -1490.6816    491.93914    308.79151    111.72271    37401.237 
  293500    302.48322   -1434.3769    489.18318     418.9952    717.96055    37401.237 
  293600    297.52449   -1472.1458    480.77954    350.45894    191.24479    37401.237 
  293700    300.22207   -1489.7146    492.73341    357.01003   -203.62335    37401.237 
  293800    294.79178   -1466.9069    478.81141     341.4053    366.50722    37401.237 
  293900    296.41766   -1498.2418    486.42949    325.02118     459.6217    37401.237 
  294000    291.41298   -1484.0318    478.07372    308.30439    520.08144    37401.237 
  294100    293.92409   -1429.7241    489.59235    385.45579    1034.2508    37401.237 
  294200    300.15571   -1473.3135     480.3006      360.679    713.07339    37401.237 
  294300    297.03183    -1442.458    477.69064    374.83602    48.740661    37401.237 
  294400    299.41422    -1416.363    479.92537    413.91021   -40.902596    37401.237 
  294500    293.06598   -1467.3753    489.25852    343.60074   -53.907392    37401.237 
  294600     304.6224   -1459.1472    495.81394    410.50333     -537.116    37401.237 
  294700    298.62691   -1427.3532    473.33112    392.77505    -55.74505    37401.237 
  294800    302.62081   -1419.9519    476.90553    421.76307   -439.32054    37401.237 
  294900    306.98329   -1400.2343    476.40238    460.65219   -105.97313    37401.237 
  295000    295.05599   -1437.9828    488.92786    381.63745   -371.39706    37401.237 
  295100    297.19017   -1419.1996    468.95064    390.06843   -746.05697    37401.237 
  295200    301.07494   -1406.3264    519.83835    471.34958   -158.61717    37401.237 
  295300    304.24562   -1476.3081    446.70482    342.53396   -248.91227    37401.237 
  295400     288.7397   -1480.3154    490.62344    312.51419   -258.67466    37401.237 
  295500    303.29676   -1472.7114    468.87682    364.02337    411.75605    37401.237 
  295600    303.30763   -1449.6331    474.13587    392.40974    72.802119    37401.237 
  295700    302.49063   -1471.6319    462.20888    354.79934   -561.05724    37401.237 
  295800    298.81838   -1460.6308    457.67694    344.70673   -1078.8833    37401.237 
  295900    306.89568   -1400.6993    494.97028    478.35999   -546.46143    37401.237 
  296000    298.33544   -1440.9352    506.47657    411.02395   -445.81138    37401.237 
  296100    293.96527   -1415.2727    492.04882    402.54939    49.612247    37401.237 
  296200    291.82745   -1460.2189    509.59331     365.5062   -528.84009    37401.237 
  296300    282.62973   -1438.1664     462.7548    299.23879   -537.69698    37401.237 
  296400    285.48225    -1464.928    511.46115    334.04824   -687.09356    37401.237 
  296500    300.78128   -1459.4369    503.06958    400.14587   -203.55721    37401.237 
  296600     293.7124   -1494.7701    485.32886     315.1916    196.52344    37401.237 
  296700     296.9599    -1461.443    477.82916    355.66513    181.64639    37401.237 
  296800    306.00082   -1471.7524    494.16808    402.46891    11.792142    37401.237 
  296900    301.42217   -1489.8646    485.67083    355.20992    507.63133    37401.237 
  297000    297.75371   -1424.1094    480.26577     399.0154    15.174853    37401.237 
  297100    305.17691   -1390.0194    525.60392    511.92192    726.91548    37401.237 
  297200    296.00057   -1448.8655    470.61292    356.69977   -262.29345    37401.237 
  297300     306.0165   -1459.7432    502.85227    423.23297    226.24537    37401.237 
  297400    300.80075   -1445.8409    500.25071    411.01089   -396.76919    37401.237 
  297500    306.07381   -1461.5017    470.87137    389.75205   -479.76815    37401.237 
  297600    304.40395   -1477.4334    495.25215    390.67015   -244.72132    37401.237 
  297700    299.98622   -1473.5108    478.79042    358.20714   -214.52775    37401.237 
  297800    301.42234   -1445.9811    465.22806    378.65135   -195.70879    37401.237 
  297900    298.28607   -1433.4832    504.19489    415.97161   -417.64728    37401.237 
  298000     291.4825    -1437.381    506.87588    384.07097   -205.93588    37401.237 
  298100    305.69788   -1460.1005    496.90281     415.4892    -114.3333    37401.237 
  298200     296.5614   -1434.8222    494.63034    397.28986    309.34122    37401.237 
  298300    303.07905   -1443.8777    528.32426    451.32267    825.64917    37401.237 
  298400     300.0379    -1476.162    474.08179    351.08038    1012.1837    37401.237 
  298500    310.20882   -1452.2032    503.58757    450.41546    34.631281    37401.237 
  298600    298.65743   -1436.0308    515.52622    426.43009     7.666632    37401.237 
  298700    301.27344   -1475.7997    472.34649    355.27967    257.21827    37401.237 
  298800    301.48641   -1448.1721     509.9394    421.46058    -188.9388    37401.237 
  298900     295.8034   -1451.8033    506.86979     389.1296   -571.13782    37401.237 
  299000    287.03701   -1417.4709    491.98866    369.04482   -798.96232    37401.237 
  299100    313.62909   -1401.3358    504.15729    517.27788   -166.59112    37401.237 
  299200    308.00168   -1446.9265    484.01772    426.16819    172.16113    37401.237 
  299300    301.66671   -1446.9306    492.38816    405.96403    -399.2351    37401.237 
  299400    300.35508   -1425.2935    525.65545    454.95296    84.283357    37401.237 
  299500    301.41853    -1427.063    473.63855    405.96279    247.76489    37401.237 
  299600    298.46174   -1463.5349    502.74656    385.26383    313.34841    37401.237 
  299700    304.32902   -1473.7144    528.00317     426.8022    416.10446    37401.237 
  299800    302.42038   -1477.9866    480.91859     366.8375    248.93506    37401.237 
  299900    307.13973   -1511.9807    482.66573    355.87469    333.05973    37401.237 
  300000    294.24306   -1482.1755    480.66788    325.51842   -654.21078    37401.237 
  300100    304.60595    -1463.226    455.21825    365.75463   -133.25672    37401.237 
  300200    295.05141    -1484.529    501.03803     347.1807   -428.36317    37401.237 
  300300     300.1238   -1462.7216    498.81836    389.64479   -430.40067    37401.237 
  300400     300.7012    -1453.576    475.09253    377.66862    71.203875    37401.237 
  300500    301.84371   -1497.0273    509.50912    373.78655    402.99152    37401.237 
  300600     300.8327   -1482.4116    505.33817    379.67164   -77.524593    37401.237 
  300700    288.77011   -1480.9157    478.87498    300.30253    97.821092    37401.237 
  300800    292.94163   -1469.9381     498.6114    349.82994    581.05755    37401.237 
  300900    289.34159   -1470.9224    504.23419    338.23242   -22.891307    37401.237 
  301000    302.47498   -1472.2131     499.6567    391.59538   -325.04962    37401.237 
  301100    291.68861   -1519.8548    470.97215    266.62291   -692.48521    37401.237 
  301200    303.25211   -1442.6475    465.70858    390.71764    -888.8503    37401.237 
  301300    298.83686    -1457.973    491.99549    381.76639   -651.59656    37401.237 
  301400    296.38292   -1465.0515    505.66168      377.287   -308.03383    37401.237 
  301500    298.99443   -1458.0545    532.78101    423.18114    167.55436    37401.237 
  301600    295.51105   -1470.3174    491.43972    353.86697    159.05704    37401.237 
  301700    298.47748   -1448.9471    492.20639     389.3825    14.240122    37401.237 
  301800    308.66909   -1483.2532    481.71734     390.5511    509.37718    37401.237 
  301900    296.07161   -1544.6632    471.28322    261.89282   -26.152714    37401.237 
  302000     313.8864   -1483.4371    506.30577    438.48556    380.63432    37401.237 
  302100    300.39039   -1487.0573     502.2357    369.92874     624.4765    37401.237 
  302200    303.71359   -1473.6611    490.82665    386.90336    7.3656576    37401.237 
  302300    302.94509   -1529.1137    501.52871    338.68693    18.502133    37401.237 
  302400    300.99043   -1520.9804    500.00981    336.48592    4.1554378    37401.237 
  302500    307.41987   -1546.9346    493.89789    333.41633    187.33271    37401.237 
  302600    293.25719   -1496.4655    457.64125    283.75562   -85.005023    37401.237 
  302700    313.81209   -1501.8769    492.63141    406.03626   -56.576793    37401.237 
  302800    290.90667   -1516.8311    508.78295    303.93097   -185.11931    37401.237 
  302900    311.45569   -1519.4469    487.39067    372.59817   -228.24649    37401.237 
  303000    294.33277   -1448.9185    495.97072    374.48284   -146.64487    37401.237 
  303100     291.2011   -1528.7971    527.42462    311.93441    -540.3108    37401.237 
  303200    294.43997   -1465.3885    499.93963    362.46529   -315.08566    37401.237 
  303300    305.49352   -1481.3095    499.83894    396.29473   -467.93041    37401.237 
  303400    291.96268   -1468.3458    481.16918    329.56502   -281.24647    37401.237 
  303500    293.86736   -1498.3171    501.20269    328.21725   -635.72244    37401.237 
  303600    305.06565   -1506.6474     492.7906     361.9788   -257.70092    37401.237 
  303700    286.95583   -1470.9506     518.9355    342.14587   -1524.4226    37401.237 
  303800    307.63203   -1483.9877    491.32323    394.74534   -1114.2417    37401.237 
  303900     310.5742   -1466.6374    523.51163    457.55319   -629.44166    37401.237 
  304000    317.73363   -1507.8751    479.74671    404.83936   -359.80481    37401.237 
  304100    290.01981   -1488.2391    561.85595    381.59618   -754.52421    37401.237 
  304200    295.29893   -1504.8586    477.20849    304.13786   -886.30918    37401.237 
  304300    297.77114   -1506.7255    517.15911    353.37118   -672.58377    37401.237 
  304400     300.2509   -1455.4702    526.81556    425.46659   -595.52784    37401.237 
  304500    299.08566   -1492.7198    517.90673     374.0529   -554.81317    37401.237 
  304600    294.60173   -1500.8803    501.59352    329.35691    -573.4753    37401.237 
  304700    288.56207   -1503.3558    491.45545    289.50463    164.72078    37401.237 
  304800    306.78541   -1528.9998    513.63147    368.22332   -123.36776    37401.237 
  304900    301.24873   -1480.7649    498.64519    376.50168   -96.957976    37401.237 
  305000    301.61921   -1503.9678    507.76698    364.09149    -315.6893    37401.237 
  305100    310.90532   -1472.1856    512.84404    442.83069   -1137.5875    37401.237 
  305200    308.38893    -1477.989     524.2276    437.06203   -11.063718    37401.237 
  305300    293.61477   -1481.1547    514.20034    357.23812   -313.25538    37401.237 
  305400    309.51439   -1517.0624    528.08847    406.92532    17.995085    37401.237 
  305500    297.27968   -1499.3011    511.20461    352.62463   -284.04717    37401.237 
  305600    302.71304   -1489.1282    520.92399    397.02118   -71.339898    37401.237 
  305700    308.97275   -1513.3997    504.37603    384.43281    280.22688    37401.237 
  305800    301.40531   -1519.2968    507.44939    347.48016    228.59472    37401.237 
  305900    305.64327   -1508.3988    497.01006    367.05189   -89.656749    37401.237 
  306000    306.35294   -1473.9865    506.87323    414.52796    144.28323    37401.237 
  306100    308.09151   -1495.6263    508.14002    401.99581    225.45575    37401.237 
  306200    302.65964   -1489.9761    531.23287    406.24132    135.14379    37401.237 
  306300    313.04384   -1498.9122    488.97376    401.87853   -105.90542    37401.237 
  306400    295.87404   -1491.4018    494.85676    337.83675   -241.01949    37401.237 
  306500    295.40784   -1528.2669    479.30568      283.318   -599.36324    37401.237 
  306600    297.45466   -1520.8353    519.15436    339.82936    -530.5769    37401.237 
  306700    305.37126   -1478.3624    510.42568    409.27716    50.108559    37401.237 
  306800    291.47053    -1475.846    529.31442    367.99048   -694.99519    37401.237 
  306900    300.31139   -1475.3157    494.54563    373.62393   -645.28551    37401.237 
  307000    287.03548   -1476.2635    500.89636    319.15303    58.913324    37401.237 
  307100    300.06435   -1446.5326     510.5967    417.34395   -622.82908    37401.237 
  307200    298.92028   -1448.1788    521.78501    421.72638   -117.88984    37401.237 
  307300     300.6637   -1478.0357    509.39352    387.34078    112.08994    37401.237 
  307400    309.38255   -1457.8484    521.35522    458.81151    224.31527    37401.237 
  307500    298.58165   -1457.3816    504.27029    393.48165   -398.08268    37401.237 
  307600    299.00885   -1422.1121    514.75111    441.15863   -1180.7714    37401.237 
  307700    298.03489   -1451.5182    492.89278    385.50164   -1083.5484    37401.237 
  307800    293.07732     -1457.65    530.75326    394.87193   -350.71048    37401.237 
  307900    302.17808   -1493.4256    505.95958    375.34674   -427.15986    37401.237 
  308000     298.3615   -1456.2478     501.7084    391.06073    98.603001    37401.237 
  308100    301.59038   -1464.3901    509.20861    404.98073    590.99519    37401.237 
  308200    289.48743   -1502.2506     508.3703    311.69808   -602.73359    37401.237 
  308300    304.78784   -1513.5849    498.46186     359.4596     412.7447    37401.237 
  308400    303.23406   -1486.7525     499.4158    380.23848    468.90136    37401.237 
  308500    298.91256   -1502.6863    507.94339    353.34241    330.95595    37401.237 
  308600    303.22106   -1486.4667    490.33375    371.38359    301.25405    37401.237 
  308700    299.74036    -1470.638    473.21904    354.39982    22.621767    37401.237 
  308800    304.77507   -1493.6133    519.76626    400.67804   -229.91666    37401.237 
  308900    299.01754   -1483.8729    501.19875    365.88465   -669.67574    37401.237 
  309000    301.31133   -1487.2552    459.24293    330.89146   -938.75896    37401.237 
  309100    295.32082   -1456.5775    512.98367     388.2929    -819.2671    37401.237 
  309200    296.24665   -1468.8364    488.04044    355.26628   -493.50324    37401.237 
  309300    295.85187   -1480.9597    485.15156    338.47364   -555.89852    37401.237 
  309400    308.09444   -1506.4267    473.13389    356.20245   -376.60822    37401.237 
  309500    305.21262   -1460.8503    475.94329    391.59135    41.605542    37401.237 
  309600    295.70811    -1456.695     506.9544    383.89277   -375.36629    37401.237 
  309700    308.73425   -1437.5107    500.22354    455.09373   -57.413937    37401.237 
  309800    287.96028   -1463.9657     496.4296    331.15482    794.92326    37401.237 
  309900    296.17427   -1475.5587    519.28844    379.46555    522.38665    37401.237 
  310000    296.41331   -1503.5093    492.54688    325.85138    256.28555    37401.237 
  310100    308.13302   -1463.3127    486.74033    413.09693    -155.6211    37401.237 
  310200    298.65023   -1448.4074    508.45442    406.94928    46.285026    37401.237 
  310300    296.65207   -1466.5143    504.21607    375.59239   -122.86526    37401.237 
  310400    311.52219   -1407.7831    500.32408    497.49533    101.72376    37401.237 
  310500    301.71594   -1460.1231    507.33884    407.94428   -615.80289    37401.237 
  310600    300.45681   -1470.3627      511.198    395.88514   -270.85461    37401.237 
  310700    300.66262   -1475.5748     492.8617    373.26499    447.60136    37401.237 
  310800    300.95667   -1464.2176    529.59875    422.68539    103.64323    37401.237 
  310900    297.71723   -1474.0436      533.503    402.15382   -267.95954    37401.237 
  311000    303.17226   -1462.6888    494.01857    398.62626    359.25528    37401.237 
  311100    300.29805   -1425.6424    495.45478    424.14626    736.59176    37401.237 
  311200    294.85133   -1460.3145    488.03833    357.49317    189.70425    37401.237 
  311300    298.64044   -1493.1572    500.79637    354.49727   -106.46445    37401.237 
  311400    297.93542   -1444.3805    495.88117     395.1792     402.1533    37401.237 
  311500    308.80266   -1453.4726    483.21318    422.42991    1015.2673    37401.237 
  311600    295.33431   -1427.5232    508.49754    412.92196    484.07718    37401.237 
  311700    301.19628   -1425.3142    518.48168    451.55238    356.74718    37401.237 
  311800      302.873   -1387.9518    524.39243    502.38741    420.13498    37401.237 
  311900    299.12356   -1407.0294    495.18365    437.19122   -272.80782    37401.237 
  312000    304.37035   -1409.4082    514.49269    477.78434   -157.59583    37401.237 
  312100    304.70335   -1430.5798    503.26481    446.88661   -23.575425    37401.237 
  312200    295.43347   -1488.1006    476.14943    320.44362   -62.330093    37401.237 
  312300    303.67403    -1448.806    496.98159    417.73504    -443.7764    37401.237 
  312400    298.31897   -1436.8643    490.10973    398.65373   -508.31874    37401.237 
  312500    298.02462   -1441.0696    513.28449    416.29566   -549.34212    37401.237 
  312600    292.20065   -1431.7359    482.15031    368.22924   -179.38796    37401.237 
  312700    295.10814   -1457.3741    469.86192    343.41539   -441.98401    37401.237 
  312800    302.40534   -1481.0158    498.03486    380.85675   -70.036955    37401.237 
  312900    300.09484     -1477.51    481.09767    357.00507    256.17178    37401.237 
  313000    298.84391   -1477.5898    500.42349    370.60947    79.229745    37401.237 
  313100    296.33359   -1430.6397    514.40959    420.22421   -159.21268    37401.237 
  313200    294.37455   -1456.3161    466.13965    337.44263    -24.91714    37401.237 
  313300    292.60712   -1493.7327    489.72679    315.64212    31.701011    37401.237 
  313400    300.25139   -1477.9004    499.92621     376.1493     52.50546    37401.237 
  313500    294.38836   -1455.9271    517.66837    389.42269    246.69191    37401.237 
  313600    304.25088   -1423.8831    462.03314     410.3111     410.3962    37401.237 
  313700    301.28288   -1506.4898    463.47203    315.75767    69.194107    37401.237 
  313800    306.27101   -1493.5783    512.70887    400.40224    159.04692    37401.237 
  313900    297.43809   -1478.6926    471.18623    333.92922    81.644323    37401.237 
  314000    300.26533   -1475.5518    497.95589    376.59038    1096.0298    37401.237 
  314100    293.28727   -1530.0879    513.61577    306.24336     511.8385    37401.237 
  314200    293.88411   -1515.1348    487.51254    297.78498     406.6441    37401.237 
  314300    297.52656   -1463.7297    491.76121    369.86611    758.42854    37401.237 
  314400    294.61102    -1470.354    506.11956    364.45114    354.38565    37401.237 
  314500    299.66143    -1500.472    490.82329    341.81405    -59.12271    37401.237 
  314600    305.14269   -1447.3877    518.01215    446.80747    38.737637    37401.237 
  314700    294.21816   -1497.0946    477.48107    307.30023    -24.66634    37401.237 
  314800    298.29808   -1455.7907    481.67143    371.19481   -352.24928    37401.237 
  314900    303.76993   -1442.9022    523.87307     450.9628   -377.94583    37401.237 
  315000    301.91177   -1429.2155    484.32855    416.72474   -570.91984    37401.237 
  315100    303.43994   -1428.2495    502.29273    442.54698   -470.79881    37401.237 
  315200    295.76201    -1436.625    513.60648    410.85796    140.35772    37401.237 
  315300    291.44624   -1397.3655     501.3617    418.40872    67.437334    37401.237 
  315400    299.01864   -1372.2312    515.10983    491.44238    310.48633    37401.237 
  315500    287.63615   -1402.1338    518.09381    413.18921   -179.87153    37401.237 
  315600    308.96917   -1410.2624    474.13739    457.31536   -158.71462    37401.237 
  315700     294.0173     -1422.24    490.43524    394.20312   -328.06894    37401.237 
  315800    307.55035   -1441.4235    502.38421    448.00219   -651.43913    37401.237 
  315900    307.43792   -1425.2856     480.7751    442.02398     102.8204    37401.237 
  316000    299.87347    -1429.838    503.21872    425.79978   -14.216573    37401.237 
  316100    298.08382   -1445.1504     486.8554    386.05279   -352.31849    37401.237 
  316200    297.61758   -1488.6759      496.897    350.46613   -391.57441    37401.237 
  316300    301.38396   -1487.9529    493.11005    364.38846   -488.83817    37401.237 
  316400    290.34321    -1510.843    460.00363    258.59847   -516.89647    37401.237 
  316500    298.15426   -1496.1122    524.65426    373.20749   -451.70603    37401.237 
  316600     299.9409   -1500.8457    477.42924    329.30666   -374.04566    37401.237 
  316700     291.1954   -1444.4552    495.58094    364.40699   -495.18876    37401.237 
  316800    303.41194   -1415.3357    514.95977    468.00142   -569.56665    37401.237 
  316900    305.90554   -1447.0648    488.43872    420.99738    305.69183    37401.237 
  317000    297.91659   -1465.0177    483.50109    362.07697   -215.55844    37401.237 
  317100     299.5444   -1468.4154    478.31149    360.83102   -125.63241    37401.237 
  317200     297.5579    -1445.008    489.36291    386.33082    -77.00841    37401.237 
  317300    302.87341   -1441.6981    504.03055    428.28118    343.32422    37401.237 
  317400    311.38611   -1451.6529    515.78195    468.46969   -125.93472    37401.237 
  317500    299.09642   -1473.3199    478.43932    354.03397   -165.19954    37401.237 
  317600    315.00546   -1489.2283     503.3237    434.75919   -159.66436    37401.237 
  317700    298.67964   -1486.8712    488.91566    349.07934    97.205013    37401.237 
  317800    294.80682   -1475.3969    514.61995     368.7917    12.872802    37401.237 
  317900    303.75996   -1502.1948     480.7977    348.54988   -19.264581    37401.237 
  318000    299.72112   -1512.6655    493.44455    332.51096    545.96938    37401.237 
  318100    298.58983    -1476.419    474.68932    344.90011    305.63643    37401.237 
  318200    298.25536   -1490.8038    505.59243    359.91009    220.90299    37401.237 
  318300    301.07098   -1509.7423    471.13844    319.21587    218.66788    37401.237 
  318400    297.75246   -1470.9517    498.04672    369.94834    524.71162    37401.237 
  318500    307.56645   -1451.3124    518.10275     453.9044    551.82785    37401.237 
  318600    299.25451   -1476.9849     511.6841    384.32676    550.48833    37401.237 
  318700    304.70854   -1525.0786    493.56908    342.71547   -393.10338    37401.237 
  318800    285.21062   -1435.0036    472.00107    323.28753   -103.00521    37401.237 
  318900    302.80637    -1437.426    513.68035    441.90067   -10.051814    37401.237 
  319000    307.51531   -1460.7415    468.50667    394.64867   -77.810532    37401.237 
  319100    291.82252   -1435.3222    464.19681    344.98413   -99.838649    37401.237 
  319200     299.2629   -1462.2616    481.67113    369.07493   -6.4443107    37401.237 
  319300    279.31724   -1494.2149    477.59998    243.09626     536.4889    37401.237 
  319400    305.53084   -1495.7465     502.2795    384.46651    577.92215    37401.237 
  319500    305.65872   -1482.9539     493.5546      389.111   -274.61612    37401.237 
  319600    307.57233   -1516.5651    485.35061     355.9261    72.860203    37401.237 
  319700    308.24283   -1518.1593    518.01981    390.02501   -236.42264    37401.237 
  319800    290.98672   -1466.5708    459.51738    305.28665   -34.347069    37401.237 
  319900    306.54524   -1483.6656    497.27926     396.1222    -332.5833    37401.237 
  320000    304.03923   -1507.8022    489.20003    352.60434   -48.268213    37401.237 
  320100     301.6582   -1484.4711    460.47883    336.47586   0.40969527    37401.237 
  320200    300.25676   -1490.5325    486.09875    349.71392   -88.731563    37401.237 
  320300    292.75581   -1506.4309    476.15893    290.04666    368.77042    37401.237 
  320400    297.95296   -1477.1577    477.44408    344.04395    319.41583    37401.237 
  320500    301.99453   -1471.5259    480.91999    371.37908    188.57053    37401.237 
  320600    296.69581   -1479.9683     489.5605    347.68015    613.22379    37401.237 
  320700    290.13722   -1476.2329    476.02457    308.30053   -27.910203    37401.237 
  320800    296.64271   -1425.2971    474.88785    387.43913    141.60644    37401.237 
  320900    290.25234   -1441.7611    499.72924    366.99621   -59.958451    37401.237 
  321000    297.38321   -1454.3692      479.199    366.01788   -431.55454    37401.237 
  321100    290.25463   -1418.6702    494.57197    384.94022    265.07247    37401.237 
  321200    293.76761   -1416.8617    530.15268    438.17282    360.68146    37401.237 
  321300    291.41552   -1451.3035    513.98784    376.95836   -219.10438    37401.237 
  321400    297.25283   -1486.7488    511.31159    365.16284    87.901706    37401.237 
  321500     302.0069    -1463.389    481.94174    380.59349    436.59807    37401.237 
  321600    291.96649   -1452.6162    501.04478    365.18738    95.289314    37401.237 
  321700    299.06077   -1462.4132    478.51617    364.85675     159.1932    37401.237 
  321800     292.1778   -1416.0892    529.05538    430.67797   -560.85665    37401.237 
  321900    302.91818    -1399.395    518.86506    485.62061   -374.22899    37401.237 
  322000    309.99735   -1421.2998    484.50439    461.28198   -125.06557    37401.237 
  322100     299.6646   -1455.5103    499.43401    395.40072   -26.157026    37401.237 
  322200    296.05323   -1445.9818    483.80075    373.00881     434.7992    37401.237 
  322300    313.88471   -1467.2649    489.91461    438.25894    251.21823    37401.237 
  322400    307.14764   -1475.5305    504.79086     414.4856    360.22596    37401.237 
  322500    299.71347   -1467.5145    486.89334    371.07624    517.62367    37401.237 
  322600    292.85951   -1497.3429    499.75157    323.19498    693.39911    37401.237 
  322700    303.11468    -1429.392    513.20775    450.85249    1419.1113    37401.237 
  322800    309.13972   -1449.6165     494.1667    438.75968    651.46151    37401.237 
  322900    294.93349   -1453.0681    482.02614    359.09791    477.86408    37401.237 
  323000    295.65365    -1488.485    478.98306    323.88583    -219.5422    37401.237 
  323100     293.8552   -1481.8694    500.76271    344.17019   -81.903544    37401.237 
  323200    306.63873   -1471.5862    478.60881    389.95274    342.34981    37401.237 
  323300     299.7049   -1470.5742    487.11243    368.19697   -546.13438    37401.237 
  323400    303.71699   -1430.2464    485.90042    425.40723   -407.42203    37401.237 
  323500    298.20165    -1441.561    495.11822    398.43637    449.45432    37401.237 
  323600    296.87892   -1473.0078     499.8315     365.7374   -135.36762    37401.237 
  323700    305.16781    -1443.412    504.05272    436.93699    164.80883    37401.237 
  323800    294.88906   -1443.0191    502.31846    389.23884   -263.42428    37401.237 
  323900    307.11331   -1484.2246    494.39196    395.23783   -302.37263    37401.237 
  324000    293.86338   -1457.8666    492.01095     359.4581   -543.46674    37401.237 
  324100    295.96064   -1484.0585    467.94804    318.66185   -468.96605    37401.237 
  324200    305.47233   -1492.8645    527.03235    411.83755    142.01299    37401.237 
  324300    295.38898   -1488.9648     465.6679    308.89729   -22.618085    37401.237 
  324400    296.21334   -1497.5869    520.26475    358.58985    81.554808    37401.237 
  324500    301.16936   -1482.0422    504.20339    380.42461   -503.89933    37401.237 
  324600    309.59515   -1441.8816     492.8675    447.24934   -301.23578    37401.237 
  324700    309.80794   -1458.9096    512.60711    450.92061   -153.29618    37401.237 
  324800    301.82482   -1452.9283    496.28163    404.57288   -792.02602    37401.237 
  324900    298.58839   -1445.1211    491.33899    392.84128   -308.81468    37401.237 
  325000    310.68621   -1455.6548    520.29645    465.82578   -399.91461    37401.237 
  325100     298.5163   -1482.2284    482.65414    346.72402   -404.52744    37401.237 
  325200    293.06607   -1467.3084     485.6352    340.04473   -344.30833    37401.237 
  325300    297.96594   -1500.2234     523.6685    367.26126   -407.87708    37401.237 
  325400    307.67672    -1478.109    502.18356    411.68595     135.6492    37401.237 
  325500     296.6028   -1439.3196    507.25594    405.60477    44.165261    37401.237 
  325600    315.96818   -1439.5325    482.68833    468.16141    -463.6093    37401.237 
  325700    294.16873    -1430.798    498.70065    394.59354   -494.40159    37401.237 
  325800    291.67959   -1462.1958    490.37618    343.64525    -910.7876    37401.237 
  325900    300.55065   -1426.9138    496.91079    425.47011   -610.47641    37401.237 
  326000    306.64083   -1445.3304    506.48269    444.09189     30.92847    37401.237 
  326100    313.59456   -1433.2941    475.09574     456.1023   -132.15866    37401.237 
  326200     300.9996   -1432.7362    496.04994    420.81163   -645.62521    37401.237 
  326300    302.30266   -1388.0609    505.54332    480.85704   -77.520062    37401.237 
  326400    311.06888   -1394.1425    491.10605     499.8735    443.37746    37401.237 
  326500    298.75812   -1444.7718    489.98868    392.60572   -212.45806    37401.237 
  326600    291.35037   -1465.2439    532.27485    381.01111    31.300888    37401.237 
  326700    304.97941   -1470.5037    488.48366    393.42659    297.72464    37401.237 
  326800    296.90026   -1437.2528    484.71388    386.47105   -416.03532    37401.237 
  326900    304.25583   -1486.4462    467.55694    353.29401   -553.27179    37401.237 
  327000    310.08564    -1465.269    493.46756    426.67412   -725.11122    37401.237 
  327100     300.1965    -1521.957    495.32468    327.24361   -494.13112    37401.237 
  327200    292.71051   -1499.0649    505.12338    326.17277    139.61476    37401.237 
  327300    301.99986   -1487.5629    502.81115    377.25724    50.572051    37401.237 
  327400    309.54781   -1511.1757     492.0132    376.88747    377.37178    37401.237 
  327500     302.4635   -1492.4661    474.13506    345.76891    145.62079    37401.237 
  327600    290.44418   -1463.5873    497.53387     343.8398   -401.17628    37401.237 
  327700    302.31014   -1479.6592    488.49192    372.24103    210.39323    37401.237 
  327800    294.18474   -1495.0051    499.66428    331.42228    406.39489    37401.237 
  327900    307.35457   -1476.9687    481.07526    390.26511   -357.37301    37401.237 
  328000    304.51964   -1465.2751    481.04443    389.14242    4.8787574    37401.237 
  328100    301.22083   -1494.2473     489.8763    354.12454   -355.71128    37401.237 
  328200    303.91914   -1513.5536    497.22829    354.33953     248.1899    37401.237 
  328300    301.39627   -1476.3105    491.67963    374.65591   -642.05157    37401.237 
  328400     294.2217   -1482.6223    479.48415    323.79162    158.37669    37401.237 
  328500    295.65165   -1530.1206    491.77768    295.03582    360.06387    37401.237 
  328600    299.49437    -1522.188     492.9349    321.45623    560.47755    37401.237 
  328700    295.60149   -1524.1353    472.92419    281.94144    268.79575    37401.237 
  328800     286.0411   -1510.3201     507.5561    287.27154    592.35373    37401.237 
  328900    300.79713   -1488.1169     458.3271    326.79493   -8.6239775    37401.237 
  329000    306.71902   -1529.4919    472.04653    325.84684   -147.25753    37401.237 
  329100    292.48134   -1531.8833    498.20117    285.39868   -561.28106    37401.237 
  329200    299.44642   -1481.5271    486.37809    355.34409   -22.077258    37401.237 
  329300    304.87354   -1475.5449    481.85439    381.27863     -746.998    37401.237 
  329400    297.90158   -1465.0397    482.41609    360.90224    -471.3484    37401.237 
  329500    298.42281    -1469.344    478.88401    355.41665   -754.72097    37401.237 
  329600    293.98568   -1454.4885    514.23725     385.6141   -580.03226    37401.237 
  329700    297.42072   -1469.1848    487.80728    359.97971   -165.16114    37401.237 
  329800    302.23577   -1495.7847    506.84617    374.13436    322.68485    37401.237 
  329900    293.38484   -1453.7717    481.11102    350.49485    243.12642    37401.237 
  330000     297.5335    -1426.168    502.75856    418.45635    405.79496    37401.237 
  330100    304.46901   -1446.3601    491.23795    418.02263    564.42816    37401.237 
  330200    300.73301   -1463.6748    470.26905    362.88974    704.17163    37401.237 
  330300    301.04695   -1441.7288    516.22262    432.20525    261.33243    37401.237 
  330400     303.6286   -1436.0522     480.5657     413.8681    202.43583    37401.237 
  330500    305.76365   -1461.8592    513.16485    430.28913    114.89636    37401.237 
  330600    300.08392   -1459.0242    502.19107    396.53507     215.7766    37401.237 
  330700    299.53025   -1454.4989    526.75565     423.1279    723.21237    37401.237 
  330800    311.23247   -1417.9139    492.45023    478.18406    683.18245    37401.237 
  330900    303.33259   -1460.9457     508.4906    415.56438    431.71391    37401.237 
  331000    299.92341    -1458.193    483.67003    378.12124    113.44764    37401.237 
  331100    303.22569   -1505.2497    502.53015     364.8179   -227.58204    37401.237 
  331200    308.06358   -1488.5624     482.3098    383.10351   -191.57528    37401.237 
  331300    311.51081   -1475.8841    476.54785    405.56685    532.47927    37401.237 
  331400    300.30939   -1457.3819    480.52301    377.52619   -367.40717    37401.237 
  331500    303.68747   -1480.4773    496.63793    385.78066    246.06608    37401.237 
  331600    291.76998   -1497.6406    461.96154    280.19348    319.08128    37401.237 
  331700    304.74389   -1488.7386    493.25002    378.89589    31.256024    37401.237 
  331800    299.28138   -1440.9907    507.01406    415.77206    63.059078    37401.237 
  331900    298.19897   -1466.8418    495.36447    373.38976    -25.11413    37401.237 
  332000    307.83488   -1501.0528    490.16501    377.43689    174.41104    37401.237 
  332100    291.83651   -1464.0549    486.26206    338.37979   -105.41245    37401.237 
  332200     300.6821   -1435.5719    470.84876    391.34276   -50.166126    37401.237 
  332300    299.06043   -1462.7287    515.28626    401.30976   -97.767737    37401.237 
  332400    290.95643   -1454.8373    491.92984    349.29603   -163.03823    37401.237 
  332500       304.31   -1535.0296    496.09891    333.49691    178.94129    37401.237 
  332600    301.74714   -1514.3331    473.35064     319.8868    470.94775    37401.237 
  332700    301.47626   -1479.3116    498.48172    378.81763    672.88868    37401.237 
  332800    300.59563   -1501.9567    494.48343    348.20274    1091.3425    37401.237 
  332900     290.7006   -1500.1005    486.88642    297.83568     602.6615    37401.237 
  333000    309.46474   -1490.8174    497.96828    402.82624    550.51495    37401.237 
  333100    303.18083   -1496.3315    489.90208    360.90572    653.04495    37401.237 
  333200    301.19114   -1467.8562    504.60916    395.11466    410.93187    37401.237 
  333300    293.12717   -1469.9944    513.16066    365.15969    221.05332    37401.237 
  333400    305.88113   -1478.7576    497.74026    398.49606    745.65468    37401.237 
  333500    295.13145   -1448.0009    500.92661    383.95842    793.93242    37401.237 
  333600    295.84615   -1446.9009    499.94471    387.29981    882.68942    37401.237 
  333700    306.19415   -1479.1513    510.48219    412.25597    528.91207    37401.237 
  333800    296.90741   -1479.2685    484.74697    344.52069    175.14932    37401.237 
  333900    300.49745   -1483.6675    515.30909    386.87479    14.575076    37401.237 
  334000    293.56533    -1485.141    491.58949    330.41806   -287.57282    37401.237 
  334100    303.20646   -1460.4118    490.85492    397.89381    510.02864    37401.237 
  334200    302.71787   -1479.1999    479.20159    365.24893   -103.36226    37401.237 
  334300    315.10617    -1489.704    504.10077    435.51476   -176.64433    37401.237 
  334400     294.9756    -1494.678    483.46294    319.11475   -395.12466    37401.237 
  334500    296.27795   -1491.5555    474.75401    319.40186   -256.02547    37401.237 
  334600    289.96835   -1476.9356    507.86092    338.67265   -153.78973    37401.237 
  334700    300.18778   -1487.4505    469.23279    335.61883    127.20943    37401.237 
  334800      314.388   -1467.6859     521.5319    471.72506     724.6988    37401.237 
  334900    299.66711   -1452.1502    480.68087    380.01904    -590.8557    37401.237 
  335000     313.5575   -1460.1083    470.26598    424.29123    326.49105    37401.237 
  335100    300.09192   -1470.0249    511.67942    395.05871    160.69032    37401.237 
  335200     302.5095   -1504.8833    502.48007     361.9042    259.74234    37401.237 
  335300    309.71758   -1467.5705      475.311    404.55618    35.921747    37401.237 
  335400    296.74981   -1488.7063    487.83723    337.46233   -76.042557    37401.237 
  335500    293.74582   -1450.3802    475.34321    349.74656    199.03332    37401.237 
  335600    296.62662   -1484.7399    507.81245     360.8484    852.93006    37401.237 
  335700    298.15307   -1454.0164    502.84354     393.4873    542.29335    37401.237 
  335800    305.90369   -1455.6213     532.4586    456.45248    496.36296    37401.237 
  335900     297.8009   -1421.1118    498.69329    420.65329    571.02469    37401.237 
  336000    306.10957   -1430.0533    491.93586    442.42622     336.8815    37401.237 
  336100    295.13411   -1449.1979    495.88581    377.73261     483.0562    37401.237 
  336200    299.92276   -1470.9286    495.02376    376.73648    241.82946    37401.237 
  336300    294.79939   -1465.3538     507.0563     371.2376    222.73265    37401.237 
  336400    294.81439   -1483.1874    503.81204    350.22735    123.07002    37401.237 
  336500    312.61661   -1482.1338    490.25736    418.01373    214.37912    37401.237 
  336600    300.62795   -1495.8757     494.1157    354.06169   -14.782915    37401.237 
  336700    290.31156   -1505.4571    486.68919    290.52721   -378.55222    37401.237 
  336800    296.40234   -1489.1295    495.49825    343.13307    222.75513    37401.237 
  336900    310.93277   -1466.6772    472.52031    408.13919    239.58019    37401.237 
  337000    293.86388   -1449.4542    508.80946    384.67128    487.01274    37401.237 
  337100    304.32036   -1482.6531     485.2247      375.046    445.46754    37401.237 
  337200    302.00134   -1480.1555    494.39947    376.25958    1111.1088    37401.237 
  337300    295.92414   -1491.6102    491.93797    334.93543    614.38276    37401.237 
  337400     299.6616   -1449.4928    515.19514    417.16589    395.41182    37401.237 
  337500    309.31837   -1447.5143    507.50821    455.00913    40.800845    37401.237 
  337600      303.313   -1461.8018    459.67255    365.80201   -382.07214    37401.237 
  337700    297.10987   -1402.6049    485.80485    423.15523   -378.46124    37401.237 
  337800    311.27551   -1445.4904    514.01198    472.36345   -347.93146    37401.237 
  337900    309.95863   -1474.1854    496.25663    419.97399    281.14196    37401.237 
  338000    293.07655   -1486.9958    501.99091    336.76026   -56.021224    37401.237 
  338100    303.63647   -1489.4885    507.97024    387.87178    18.978476    37401.237 
  338200    302.72442   -1489.1259    480.40222     356.5531    134.94209    37401.237 
  338300    296.19207   -1495.1529    462.53481    303.19797   -157.64803    37401.237 
  338400    309.16487   -1478.7426    501.15519    416.73557   -504.03382    37401.237 
  338500     294.3528   -1470.9573    484.51676    341.08046   -152.82437    37401.237 
  338600    301.02791    -1457.702    504.74435    404.66788    291.17557    37401.237 
  338700    301.08219   -1488.3849    493.93382    363.41919     33.89294    37401.237 
  338800    291.42515   -1464.2643    460.04622    310.09926    563.14277    37401.237 
  338900    302.84103   -1457.0219    486.63434    395.41509     129.0361    37401.237 
  339000    288.75421   -1456.5129    496.77767    342.53633    273.71326    37401.237 
  339100    303.38389   -1531.3233     491.2005    328.12816    1140.7725    37401.237 
  339200     301.2665   -1476.4548    474.62985     356.8766    745.78183    37401.237 
  339300    298.02026   -1529.3833    504.35368    319.03152    561.97789    37401.237 
  339400    295.27892   -1470.7045    461.99983    322.99311   -132.57048    37401.237 
  339500    310.82878   -1475.1859     503.7019    430.34312    264.80924    37401.237 
  339600    307.33443   -1473.7355    492.41594    404.74809    83.874186    37401.237 
  339700    303.01895   -1520.0406    487.55427    334.11871   -297.54317    37401.237 
  339800    294.11811   -1467.2547    494.58064    353.78849   -106.34321    37401.237 
  339900     297.8086   -1537.6009    496.68966    302.19525   -78.360599    37401.237 
  340000    314.85307   -1514.6541    444.11535    349.43776    491.46235    37401.237 
  340100    305.49963   -1521.9141    472.92254    328.80129    444.45766    37401.237 
  340200     311.6643   -1490.6915    500.98177    415.88557     514.1066    37401.237 
  340300     302.0434   -1451.9504    494.63556    404.89054    292.33804    37401.237 
  340400    298.28494   -1414.2366    497.11876      428.137    174.07931    37401.237 
  340500    312.28095   -1445.5293    524.52805    487.37507   -357.51065    37401.237 
  340600    296.14602   -1413.3461    477.89952     400.1618   -167.70247    37401.237 
  340700    305.45856   -1472.0769    492.60446    398.13515   -141.86335    37401.237 
  340800    295.93476   -1439.5516    492.43617    387.54015   -353.22427    37401.237 
  340900    299.02298   -1490.3212    490.01091    348.27309   -791.86291    37401.237 
  341000    307.40145   -1447.8912    491.16912    429.64789   -303.45971    37401.237 
  341100    303.05163   -1433.5018    500.53215    433.78281   -475.03363    37401.237 
  341200    297.82348   -1429.0416    481.61526    395.74736    -292.8129    37401.237 
  341300     288.4489   -1446.8525    513.25656    367.29867   -228.69876    37401.237 
  341400    305.19396   -1454.0704    513.65819    436.00208   -120.20874    37401.237 
  341500    298.91173   -1491.8309    481.58187    337.83265   -191.88607    37401.237 
  341600    305.04363    -1446.434    490.10067    419.40297   -18.287793    37401.237 
  341700    295.34623   -1481.3085    468.95195    319.64481     103.8862    37401.237 
  341800    292.18263   -1462.7151    479.80151    334.82006   -910.22273    37401.237 
  341900    300.95218   -1472.0899    480.17745    365.37156   -799.24159    37401.237 
  342000    291.34131   -1471.4241    508.21746    350.73269   -92.626491    37401.237 
  342100    304.42309   -1490.8826    500.86187    382.91693   -375.70045    37401.237 
  342200    307.55191   -1506.7723    504.81406    385.09031    111.07354    37401.237 
  342300     287.3869   -1501.0844    489.97633    284.99693     457.8097    37401.237 
  342400    303.50823   -1505.4919    481.97822    345.29802    179.38836    37401.237 
  342500    301.08807    -1488.363    506.54991    376.08375    166.93157    37401.237 
  342600    312.94327   -1515.3285    464.59729    360.63214    192.14101    37401.237 
  342700    293.44539   -1487.4918    474.59053    310.52739   -306.81379    37401.237 
  342800    303.51018   -1503.5777    514.92563    380.16843    91.570879    37401.237 
  342900    297.08075   -1502.4684    467.00863    304.36417    176.76259    37401.237 
  343000    303.43792   -1472.5594    504.37319    400.30838    181.82758    37401.237 
  343100    303.60085   -1495.9661    499.32442    372.58767   -352.35229    37401.237 
  343200    287.68374   -1527.5854    484.31869    254.17702   -175.36495    37401.237 
  343300    302.22498     -1497.81     482.6124    347.82661    -88.60466    37401.237 
  343400    300.53294   -1496.4041    463.96368    322.95285    189.01467    37401.237 
  343500    306.71681   -1493.1669    507.30181     397.4172    225.01109    37401.237 
  343600    299.82459   -1459.4086    484.78153     377.5715    718.31153    37401.237 
  343700    299.25625   -1485.2975    489.26759    353.60545    291.83459    37401.237 
  343800    303.98653   -1458.4785    530.71493    443.20517    575.55094    37401.237 
  343900    304.07798   -1424.6593    484.04387    430.76576    189.26498    37401.237 
  344000      299.588   -1479.1739    495.42741    367.38504   -280.81457    37401.237 
  344100    308.52756   -1490.4403    497.67218    398.68054    172.11163    37401.237 
  344200     297.0655   -1505.5899    497.96749    332.13276    314.87613    37401.237 
  344300    302.05598   -1487.1944    522.65412     397.7218      977.073    37401.237 
  344400    304.10824   -1451.3376    512.85243    433.03249    888.55742    37401.237 
  344500    291.98836   -1483.1427    472.10117    305.81594     733.9152    37401.237 
  344600    304.38117   -1489.3241    521.51388    404.93836     799.6626    37401.237 
  344700    301.66461   -1457.6298    495.90191    398.76913    498.49802    37401.237 
  344800    298.33496   -1506.1008    500.18717    339.56678    296.26285    37401.237 
  344900    295.28174   -1546.4659    492.45303     277.6976   -97.560542    37401.237 
  345000    291.11191   -1532.8316    493.81795    273.89106     23.80981    37401.237 
  345100    302.02455   -1476.6674    496.75778    382.21067    366.97983    37401.237 
  345200    310.16098   -1495.1687    504.25788    407.90452    256.79766    37401.237 
  345300    305.13121    -1452.091    497.75434    421.79459    442.83961    37401.237 
  345400    306.80462   -1489.4071    468.80119    363.07235    113.09452    37401.237 
  345500    300.52122   -1472.0335    499.10894    382.41582    87.845829    37401.237 
  345600    299.34271   -1473.2952    502.41979    379.14996    252.83912    37401.237 
  345700    293.40035   -1489.3731    474.03251    307.88489   -173.52315    37401.237 
  345800    297.93907   -1414.0456     511.5032    441.15256   -66.750749    37401.237 
  345900    295.07909     -1414.23    529.26015    445.82665    24.987576    37401.237 
  346000    306.59998   -1454.4795    518.00566    446.28156    -296.7991    37401.237 
  346100    303.10724   -1465.7357    504.44864     405.7162     111.7333    37401.237 
  346200    308.66449   -1495.9446    498.40013    394.52181    -49.62255    37401.237 
  346300    300.00997   -1450.8539    509.19547    411.37627    60.362786    37401.237 
  346400    298.22241   -1443.1048    480.33657    382.20457    548.51056    37401.237 
  346500    309.01681   -1416.4007      519.133    496.38746    689.33332    37401.237 
  346600    307.24282   -1511.8691     489.9947    363.78014    261.88887    37401.237 
  346700     293.6222   -1465.5964    486.73003    345.35968    174.16946    37401.237 
  346800    295.79774   -1470.0086    497.77498    361.80399   -315.59102    37401.237 
  346900    311.33725   -1453.4971    533.53392    484.15713    118.27336    37401.237 
  347000    291.22813   -1436.1884    485.81346    363.05387    72.806543    37401.237 
  347100    291.94961    -1451.855    522.19405     387.0218    315.20766    37401.237 
  347200    297.29628   -1456.3257    503.42318     387.8935    236.06374    37401.237 
  347300    300.02291   -1452.0108     506.1862    407.26842    667.46314    37401.237 
  347400    312.44181   -1476.8378    501.10176    433.36581    441.37107    37401.237 
  347500    297.95986   -1516.9552    488.59671    315.43028    554.09406    37401.237 
  347600    294.68423   -1452.3585    513.90287    390.56016    140.87352    37401.237 
  347700    301.97597   -1460.4008    530.14007    431.64054   -28.584039    37401.237 
  347800    300.05914   -1503.2691    493.21563    343.20291   -428.30318    37401.237 
  347900    290.85033   -1493.8605     497.1007    314.96522   -569.91545    37401.237 
  348000    290.27451   -1477.1864    494.17298    326.11464    -498.1847    37401.237 
  348100    290.74405   -1480.9655    511.14734     341.4275   -556.05034    37401.237 
  348200    301.37354   -1484.9226    532.03072    406.29243    66.424737    37401.237 
  348300    301.01651   -1510.6636     498.2365      345.147    334.13044    37401.237 
  348400    301.45998   -1482.8041    535.65285     412.4229    -82.21599    37401.237 
  348500    304.86021   -1483.9423    495.79214    386.75891   -225.33017    37401.237 
  348600    297.20282   -1493.8602    513.94531    360.45957   -278.89311    37401.237 
  348700    296.43217   -1511.4414    509.56423    335.02176   -349.35525    37401.237 
  348800    312.52899    -1448.339    536.79839    497.95435    48.453452    37401.237 
  348900     300.3089   -1474.3911    500.12416    380.11587   -89.597193    37401.237 
  349000    290.24205   -1472.1109    496.20135    333.07214    24.863587    37401.237 
  349100     306.4636   -1490.8874    494.02649    385.27936    404.68712    37401.237 
  349200    295.40048   -1469.1529    527.74833    390.84139    546.98011    37401.237 
  349300    302.54222   -1489.3917    523.13583    398.19912   -101.17017    37401.237 
  349400    303.75787   -1529.1438    481.12159    321.91537   -117.89992    37401.237 
  349500    308.80944   -1530.7277    534.64363    396.63582    5.2956805    37401.237 
  349600    287.54167   -1481.2551    514.61878    330.16674   -282.74414    37401.237 
  349700    298.26053   -1477.3864    506.48032    374.23863    47.073942    37401.237 
  349800    307.16224   -1498.7314     501.8517    388.41142    -562.0421    37401.237 
  349900    305.86279   -1507.3338    492.77132    364.86822   -497.91401    37401.237 
  350000    299.86354    -1494.454    483.08425    341.00448   -294.77251    37401.237 
  350100    315.81676   -1507.7297    508.51545     425.1085     131.0926    37401.237 
  350200    298.36479   -1485.1559    525.12526    385.58433   -221.30526    37401.237 
  350300    295.57867   -1468.1882    508.06344     372.9249   -502.24433    37401.237 
  350400    306.59572   -1516.2072    527.37896    393.90789   -399.35032    37401.237 
  350500    300.71982   -1479.6221    527.72971    404.34368   -423.08766    37401.237 
  350600    296.19419   -1500.9515    498.80226    333.67635   -296.23526    37401.237 
  350700     302.5433   -1456.1033    517.44391    425.80044    26.887695    37401.237 
  350800    302.64216   -1446.9018    512.09932    430.10328   -103.58093    37401.237 
  350900    295.57349   -1473.8654    512.29085    371.45174   -86.721532    37401.237 
  351000    287.13993   -1486.3705    496.46006    305.08073   -63.882209    37401.237 
  351100    303.02186   -1446.5364    528.39701    448.47882    240.62402    37401.237 
  351200    294.69804   -1469.4714    521.93441    381.54106    317.27561    37401.237 
  351300    290.82083   -1537.0434    531.04149    305.58998    447.47453    37401.237 
  351400    295.81626   -1536.8548    520.31392    317.58028    122.04209    37401.237 
  351500    301.61129   -1499.2159    512.08287    373.12353   -331.45403    37401.237 
  351600    298.27885   -1483.0562    502.35096    364.52209   -525.12213    37401.237 
  351700    299.46931   -1481.9516    511.41285     380.0576    -363.3355    37401.237 
  351800    292.78548   -1447.5625    513.61345    386.50344   -615.84945    37401.237 
  351900    303.27447   -1459.8124    533.64634    441.59139   -275.75753    37401.237 
  352000    297.71386   -1410.0043    523.07872    455.75367   -1044.2798    37401.237 
  352100    318.42679    -1470.005    526.93932    493.02819   -562.08251    37401.237 
  352200    291.50679   -1473.6411     510.8438    351.88829   -468.27773    37401.237 
  352300    299.13951   -1528.5953    493.68863    314.20222   -65.740226    37401.237 
  352400    298.54997   -1493.2069     533.2121    386.45528    235.27085    37401.237 
  352500    294.17843    -1457.636    494.95979    364.05843   -13.190417    37401.237 
  352600    301.47565   -1488.6851    523.17658    394.13633    138.15351    37401.237 
  352700    305.44927   -1521.7825    504.16805    359.95124   -24.658247    37401.237 
  352800    306.93532   -1491.4415     512.5113    405.33751    18.118162    37401.237 
  352900    304.66267   -1509.9007    532.87661    396.99404   -343.27237    37401.237 
  353000     286.0787   -1498.4578    491.38433    283.13163    -97.32889    37401.237 
  353100    303.73225   -1521.6239    483.50638    331.70446    114.09812    37401.237 
  353200    304.99068    -1444.418    502.53361    433.61308    214.85388    37401.237 
  353300    301.56337   -1440.8257    504.03969    423.25436     29.48042    37401.237 
  353400    296.55952   -1453.1638    532.97018    417.27961   -403.39546    37401.237 
  353500    297.29003    -1520.509    502.63191    322.89069   -805.12394    37401.237 
  353600    299.31153   -1440.4727    509.67664    419.08861    5.6651662    37401.237 
  353700    296.95217   -1450.2287    507.69133    396.70669    44.758048    37401.237 
  353800    307.04045   -1479.5828    467.53499     372.6941   -334.49589    37401.237 
  353900    289.78162   -1497.8691    529.08418    338.12021   -146.74482    37401.237 
  354000    309.45162   -1493.8896    544.33767    446.06418    684.53488    37401.237 
  354100    292.29575   -1524.2404    516.33043    310.33381    825.68109    37401.237 
  354200    311.28425   -1504.9759    502.66269    401.56804    596.95654    37401.237 
  354300    307.37459   -1501.6518    504.51717    389.11423    311.59539    37401.237 
  354400    300.39459   -1519.2997    509.75715    345.22669    314.65625    37401.237 
  354500    293.79663   -1547.5401    511.85886    289.33145    767.47521    37401.237 
  354600    298.53505   -1491.7174    527.37434    382.03971    710.91337    37401.237 
  354700      310.122   -1491.4535    512.53934    419.72538   -278.59276    37401.237 
  354800    302.07807   -1466.7626    526.47026     422.0693   -355.72255    37401.237 
  354900    291.61777    -1509.223    502.27281    308.23592   -836.16696    37401.237 
  355000    296.89528   -1476.1763    511.62907    374.44024   -188.41766    37401.237 
  355100    307.21671   -1462.9753    497.35787    419.91936   -805.09577    37401.237 
  355200    301.41669   -1457.1494      518.151    420.38053   -584.65061    37401.237 
  355300    307.37928   -1469.9504    520.55398    436.87357   -779.61504    37401.237 
  355400    296.47454   -1500.8673    498.31579    334.53851   -315.30607    37401.237 
  355500    296.47599   -1502.5453    522.11531     356.6665    90.836624    37401.237 
  355600    302.67798   -1479.1686    512.86946    398.76812   -171.87735    37401.237 
  355700    294.66398   -1484.0594    505.63473    350.49978   -481.42776    37401.237 
  355800    297.60591   -1517.4818    509.54678    334.25736   -188.39773    37401.237 
  355900    298.88168   -1485.8034    505.27396    367.41669   -479.34554    37401.237 
  356000    307.79116   -1468.0952    524.96119    444.99349   -243.64827    37401.237 
  356100    300.37696    -1456.536    527.22375    425.37753   -900.54817    37401.237 
  356200    303.73554   -1443.1796    502.28393    428.94117   -237.20771    37401.237 
  356300    301.68175    -1459.462    492.06689    393.17915   -52.777053    37401.237 
  356400     301.2508   -1475.0917    507.84139    391.38042    -56.98196    37401.237 
  356500    300.50675   -1518.5309    501.06298    337.80722    95.175008    37401.237 
  356600    303.06981   -1543.6185    496.25809    319.47398    -54.19248    37401.237 
  356700    302.63364   -1518.0714    510.15987    356.95572   -26.178104    37401.237 
  356800    308.13886   -1518.2969    513.40801    384.80674     877.7666    37401.237 
  356900    293.15543   -1513.9445    501.37866    309.55507    211.45402    37401.237 
  357000    304.54905   -1555.2762    498.24904    316.47861    -24.04478    37401.237 
  357100    307.77091   -1532.6109    495.06952    350.49486    519.50313    37401.237 
  357200    298.95144   -1554.8924    504.35738    297.72571    460.99415    37401.237 
  357300     290.0103   -1509.1712    510.07275    308.83802    49.706635    37401.237 
  357400    304.22529   -1479.9729    495.61463    387.68739   -14.379283    37401.237 
  357500    297.61452   -1526.4351    495.53588    311.33197    45.433744    37401.237 
  357600    295.06281   -1515.2493    476.39218    291.86598    273.03371    37401.237 
  357700    295.40818   -1520.5106     497.0543    308.82446    144.92147    37401.237 
  357800     293.7271   -1508.1298    506.02821    322.59749   -97.586029    37401.237 
  357900     308.6607   -1530.3005    503.08767    364.83631    955.54413    37401.237 
  358000    308.74141   -1578.3714    492.37275    306.41451    929.30138    37401.237 
  358100    286.97335    -1507.221    506.50958    293.52854    804.96105    37401.237 
  358200    299.55966   -1524.0709    502.59495    329.52786    878.88818    37401.237 
  358300    303.87195   -1566.1595    527.05391    331.34642    414.56293    37401.237 
  358400    303.01878   -1542.7611    487.17523    311.01838    682.52873    37401.237 
  358500    299.26477   -1527.9799    483.05043     304.7443    -283.2489    37401.237 
  358600    300.17898   -1514.9836    519.55798    358.37124    -114.2522    37401.237 
  358700    298.28672   -1543.2656     528.0493    330.04657    9.8100583    37401.237 
  358800    300.19611   -1516.0919    505.94167    343.72387   -172.73076    37401.237 
  358900    309.78295    -1504.462    498.93884     391.5873    -256.7831    37401.237 
  359000    306.50385   -1513.6186    495.30434    364.00756   -463.25936    37401.237 
  359100    301.74769   -1520.9823    484.75312     324.6425   -318.11475    37401.237 
  359200    309.13244   -1495.6336    516.29039    414.83343    523.89954    37401.237 
  359300    301.70995   -1463.6289    502.41926    399.49183    468.14001    37401.237 
  359400    305.78622   -1507.7841    517.64873    388.95002    369.93195    37401.237 
  359500    297.17771    -1568.709    492.67943    264.23165   -9.6979737    37401.237 
  359600    305.06909   -1549.7645     500.6812    326.76783    585.41945    37401.237 
  359700    300.93976    -1523.919     535.8868    369.19578   -102.72061    37401.237 
  359800    296.15838   -1503.9099    497.72054    329.47477   -261.31749    37401.237 
  359900     303.5802   -1460.4007    526.74351    435.47906   -61.701389    37401.237 
  360000    299.82539   -1466.6626    529.79838    415.33797    26.954443    37401.237 
  360100    290.77548   -1521.1745     512.3545    302.56744   -451.89248    37401.237 
  360200     292.7783   -1477.6706    503.09353    345.84302    -14.67866    37401.237 
  360300    299.04834   -1515.6558    496.63633    329.67824    195.98524    37401.237 
  360400    302.92981   -1494.5978    509.36152    380.96676    132.10727    37401.237 
  360500    312.25927   -1531.1621    515.50968    392.62618     326.8061    37401.237 
  360600    301.39979   -1492.8004    515.11591     381.6182    19.080923    37401.237 
  360700    304.20908   -1496.3917    509.97036    385.55117   -14.913512    37401.237 
  360800    301.38041   -1481.7394    490.52809    368.00396   -58.332606    37401.237 
  360900     296.8023   -1535.8216    514.50835    317.25489    -24.34497    37401.237 
  361000    300.98286   -1538.7609    504.54698    323.20843    340.15051    37401.237 
  361100    299.04371   -1523.7485    511.97675    336.90507    509.36958    37401.237 
  361200     298.0417   -1513.5723    518.44448    349.03001    830.94523    37401.237 
  361300    303.41095   -1481.8778    503.41238    389.90751   -91.992837    37401.237 
  361400    310.69538   -1492.3942    519.43805    428.26936    503.80877    37401.237 
  361500    293.40539   -1438.9841    527.18236     411.4465   -91.116779    37401.237 
  361600    288.76832   -1468.8033     500.7121    334.24398   -60.101534    37401.237 
  361700    303.85807   -1475.6177    503.74749    398.51924   -411.22975    37401.237 
  361800    292.95411   -1470.0883    498.20305     349.3277   -397.44572    37401.237 
  361900    309.80705   -1439.3665    502.54847    460.40115     606.0335    37401.237 
  362000    295.72343   -1461.9294    534.17019    405.94322   -199.89698    37401.237 
  362100    300.96734    -1426.909    509.49572    439.93902   -143.56061    37401.237 
  362200    297.40565   -1458.2071    517.14178    400.22391   -561.85874    37401.237 
  362300    305.28049   -1417.9515    510.02084    468.87379   -738.29292    37401.237 
  362400    299.86234   -1413.1335    522.70696    461.94231   -508.28843    37401.237 
  362500    296.38352   -1458.3698    500.71558    379.02524   -536.39855    37401.237 
  362600    308.08058   -1453.1024    531.36197    467.69236   -380.01245    37401.237 
  362700    295.36304   -1458.9149    516.54018     389.7024   -45.146427    37401.237 
  362800    303.99995    -1433.902    515.36412    452.49143   -195.93937    37401.237 
  362900    302.91118   -1445.3384    508.97979    429.76041   -277.07494    37401.237 
  363000    306.72941   -1452.7943    474.58165    405.12643   -95.833859    37401.237 
  363100     301.5694   -1452.8005    515.67582      422.943    234.12132    37401.237 
  363200     302.3955   -1467.1268    502.52478    399.19125    -74.86944    37401.237 
  363300    296.17437   -1457.8517    512.49567     390.3802   -763.91941    37401.237 
  363400    301.30447   -1470.6167    506.81414    395.07026   -366.73277    37401.237 
  363500    294.88933   -1477.8475    524.56221     376.6555   -367.29128    37401.237 
  363600    304.84831   -1453.4515    529.10862    450.51252    57.425006    37401.237 
  363700    302.92264   -1507.0075    487.12393    346.28714    -252.6537    37401.237 
  363800    297.66885    -1498.896    506.45801    350.03831   -434.75653    37401.237 
  363900    293.29699   -1478.4447    525.20807    369.52273    87.618443    37401.237 
  364000    298.81146   -1491.4559    508.60862    364.78212    345.89361    37401.237 
  364100    304.98463   -1496.6268    489.99932    368.84271   -41.823707    37401.237 
  364200    290.77228   -1531.1505    495.57697     275.7995   -451.98316    37401.237 
  364300    307.66749     -1475.91    522.27534    433.93515   -60.001161    37401.237 
  364400    313.00219   -1509.4261     482.6929    384.89593   -280.89019    37401.237 
  364500    303.96318   -1483.1384    518.42287    406.14793   -364.51771    37401.237 
  364600    294.97788   -1466.9586    489.93522    353.31676    56.848035    37401.237 
  364700    281.30791   -1454.3175    505.66904    320.04053    15.786273    37401.237 
  364800    297.65283   -1501.2117    525.85533    367.04771    121.20631    37401.237 
  364900    295.92005   -1560.7448    492.66626    266.51065   -193.15744    37401.237 
  365000    311.47808   -1535.5232    491.05248    360.28468    179.15182    37401.237 
  365100    304.29322   -1529.2536    487.44045    330.53881   -145.66668    37401.237 
  365200    309.82945   -1516.3014     481.0919    362.11066   -835.72069    37401.237 
  365300    303.64542   -1516.4049    502.78764    355.81316   -783.56377    37401.237 
  365400    288.28254   -1498.3047    512.94629    314.78595   -504.90946    37401.237 
  365500    304.15491   -1578.0526    495.42623    289.10182   -108.50838    37401.237 
  365600     304.0951   -1559.8105    496.30754     307.9555   -292.66863    37401.237 
  365700    305.73175   -1513.2034    516.70912    382.34535   -322.78473    37401.237 
  365800    301.70188   -1508.9641    473.06039    324.76139   -313.90256    37401.237 
  365900    294.47893    -1512.836    502.35238    317.60624   -241.85044    37401.237 
  366000    302.18107   -1513.1856    508.85095    358.49155   -974.87098    37401.237 
  366100    299.70589   -1531.5125    505.63855    325.78931   -535.59734    37401.237 
  366200     306.2533   -1594.7277    498.28086    284.74495    -521.4867    37401.237 
  366300    297.55659   -1553.0945    509.85178    298.72728   -835.73858    37401.237 
  366400     302.6802   -1555.2145    476.86062    286.72338   -89.912677    37401.237 
  366500    309.04687   -1552.4777    481.10654    322.41959    -17.75811    37401.237 
  366600     297.3528   -1541.9393    514.27041    313.38197   -699.51189    37401.237 
  366700    312.69025   -1529.0428    490.19299    371.37246   -185.87595    37401.237 
  366800    291.41784   -1525.5944    529.23239    317.92244   -250.25454    37401.237 
  366900    303.06513   -1532.4069    470.78203    305.18845   -129.73332    37401.237 
  367000    286.40061   -1512.0293    497.54917    277.17676    69.107198    37401.237 
  367100    301.41965   -1535.8919    495.25732     318.7577    184.89322    37401.237 
  367200     310.9455   -1547.6935    516.62717    371.28715    745.67928    37401.237 
  367300    294.82978   -1543.0578    505.35692    291.97127    402.15529    37401.237 
  367400    301.63667   -1549.8185    501.65755    312.21003    151.27739    37401.237 
  367500    313.49057   -1526.5767    517.86968     405.1247    299.08043    37401.237 
  367600    299.62414   -1497.0935    492.47354    346.67461    1009.0488    37401.237 
  367700    294.42012   -1531.3603    524.95485    321.41914    183.85309    37401.237 
  367800    297.00188   -1543.2213    493.73273     289.9797   -30.164712    37401.237 
  367900    295.38005   -1506.6388    504.03989    329.55501    -177.1794    37401.237 
  368000    293.14934   -1517.1182    487.90365    292.87888   -75.501322    37401.237 
  368100    303.10707   -1534.2084      532.508     365.3021    502.69168    37401.237 
  368200    307.75354   -1528.3905    496.06814    355.63554    458.32917    37401.237 
  368300    301.21965   -1529.3356    525.21918    354.37385   -51.194739    37401.237 
  368400    295.40611    -1562.202    507.99751    278.06693   -502.05048    37401.237 
  368500    291.37414    -1532.632    479.34125    260.79657    258.52921    37401.237 
  368600    311.24528   -1515.2563     502.2474    390.69664    69.672972    37401.237 
  368700    297.56605   -1526.5129    512.98326    328.48299   -477.65093    37401.237 
  368800    295.74919   -1547.1546    512.39548    299.05951   -461.68185    37401.237 
  368900    304.99967   -1501.1875    496.22663    370.57715   -436.64987    37401.237 
  369000    304.63892   -1519.2319    509.01239    363.69153   -731.58376    37401.237 
  369100    301.61459   -1509.4471    493.70396    344.52831   -1013.1888    37401.237 
  369200    298.94219    -1510.146    522.22051    360.29351     -777.771    37401.237 
  369300    293.42095   -1522.8064    517.14449    317.65652   -457.95983    37401.237 
  369400    302.33216    -1513.962    519.50178    369.04741    82.523953    37401.237 
  369500    304.19634   -1505.7558    525.07614    391.23533    95.088357    37401.237 
  369600     304.2616     -1438.52    529.95294    463.64231    411.13443    37401.237 
  369700    298.71995   -1506.4777    503.36955    344.10853   -137.02837    37401.237 
  369800    305.33092   -1538.3872    517.52037    356.16518    894.35728    37401.237 
  369900    312.97375   -1501.0345    520.97906    431.44546    -29.05973    37401.237 
  370000    296.93706   -1508.8194    475.62894    305.98548   -169.88421    37401.237 
  370100    300.06512   -1494.7179    516.05411    374.61963   -955.15845    37401.237 
  370200    307.95576   -1489.0569    530.48248    430.29546    26.042118    37401.237 
  370300    299.19367   -1450.7228    532.19415    430.82452    2.0378803    37401.237 
  370400    311.09121    -1461.126    554.86074     496.7454   -173.68569    37401.237 
  370500    298.53924    -1526.308    513.61784    333.71156    -663.3879    37401.237 
  370600    295.28927   -1484.0758    490.77847    338.44707   -924.37321    37401.237 
  370700    302.59578   -1485.3931    507.62922    386.93265   -742.67507    37401.237 
  370800    304.37643   -1459.6015    517.07438    430.20008     326.7262    37401.237 
  370900    287.24277   -1451.9957    507.25294    350.71223    772.23735    37401.237 
  371000    293.62356   -1466.2942    515.76334    373.70128    468.33495    37401.237 
  371100     307.9475    -1498.178    507.68004    398.33471    697.34108    37401.237 
  371200    295.24002   -1523.7321    518.51765    326.30791    249.10416    37401.237 
  371300    290.43015   -1501.6206    511.30207    319.51148    774.57893    37401.237 
  371400    299.49976   -1530.1039    501.36892    321.99863    1116.0857    37401.237 
  371500    294.06798    -1559.185    511.17235    278.22388     467.0984    37401.237 
  371600    298.62373    -1514.045    510.62344    343.36123    543.18984    37401.237 
  371700    292.19889   -1474.9256    502.15207    345.03344      654.957    37401.237 
  371800    309.50421   -1461.8435    508.59444    442.60426   -15.887221    37401.237 
  371900    303.41117   -1497.1363    536.14274    407.38034    24.869137    37401.237 
  372000    308.81688   -1455.7431    505.86168    442.87212      591.486    37401.237 
  372100    303.34701   -1491.9175    510.51425    386.68129    150.03915    37401.237 
  372200    298.67862   -1470.6502     531.7075    408.08763   -263.97955    37401.237 
  372300    300.31897   -1493.0993    503.91746    365.24639   -481.68353    37401.237 
  372400    301.81862    -1469.299    531.40499     423.2976   -243.97239    37401.237 
  372500    295.66578   -1497.9926    486.37841    321.82826    304.66612    37401.237 
  372600    300.44646   -1497.7007    521.75065    379.05312   -49.358921    37401.237 
  372700    296.26176   -1512.7327    516.42582    339.82341    -62.26574    37401.237 
  372800    315.13732   -1481.4118    489.73556    429.58223   -425.73795    37401.237 
  372900    300.04343   -1475.6392    509.75027    387.29667   -346.88166    37401.237 
  373000    297.66149   -1503.2602    531.58348    370.76638   -466.06336    37401.237 
  373100     306.9504   -1531.9576    516.24666    368.62477    410.70189    37401.237 
  373200    295.33834   -1491.5361    508.37615    348.80583   -131.28593    37401.237 
  373300    296.36604   -1525.3138    501.20864    312.49551   -300.23341    37401.237 
  373400    302.46238   -1516.1212    534.96491    382.93867    58.432265    37401.237 
  373500     292.1301   -1535.8537    476.55618    258.19922   -465.55075    37401.237 
  373600    305.32925   -1530.4793    526.77537    373.32045    8.7086808    37401.237 
  373700     303.4417   -1512.5944    479.99923    335.91649    116.39273    37401.237 
  373800    308.87619   -1558.1702    472.61721    307.46797   -307.26987    37401.237 
  373900     307.4869    -1504.492     489.4294    371.69277   -565.93077    37401.237 
  374000    300.63236   -1530.2401    498.29665    323.89814   -498.90755    37401.237 
  374100    299.24175   -1551.4731    519.18878    317.28567    -557.4798    37401.237 
  374200      304.783   -1556.0473    520.41554    338.92908   -775.99411    37401.237 
  374300    301.10014   -1504.5529    499.26005    352.65842    -770.2826    37401.237 
  374400    300.86834   -1509.9053    506.95071    353.95131   -1004.7604    37401.237 
  374500    292.28933   -1477.7676    520.29138    360.73859   -229.62852    37401.237 
  374600     293.1368   -1508.7089    513.91488    327.24289    138.14754    37401.237 
  374700    312.12744   -1522.6206    503.83073    388.89419   -145.82123    37401.237 
  374800     303.2701   -1498.8711    493.90719    362.77377   -457.70594    37401.237 
  374900    302.39216   -1492.5184    518.13519    389.39505    31.931191    37401.237 
  375000    297.54416    -1515.397    520.73863    347.25563   -672.93233    37401.237 
  375100    299.01778   -1506.4248     491.8204    333.95554   -485.46733    37401.237 
  375200    306.43037   -1520.1944    498.95125    360.74728   -689.30835    37401.237 
  375300    296.24883    -1511.879    493.80678     317.9998   -698.35429    37401.237 
  375400    294.40296    -1471.655    514.89143    370.98366   -460.94708    37401.237 
  375500    303.23825     -1503.18    504.32288    368.73692   -299.06715    37401.237 
  375600    306.34459   -1526.7051    509.83057    364.72907    -98.60158    37401.237 
  375700     312.4975   -1507.2579    524.99729    427.09238   -138.31339    37401.237 
  375800    292.43335   -1502.9613    498.88018    314.78326   -505.37432    37401.237 
  375900    303.98236   -1481.4963    520.84607    410.29975   -138.08038    37401.237 
  376000    291.87567   -1458.9567    493.69966    351.09223   -522.09512    37401.237 
  376100    299.60197   -1437.4524    529.06868    442.81086   -1047.7772    37401.237 
  376200    298.19713   -1459.7919    516.27385    401.34076    -570.5356    37401.237 
  376300    304.05357   -1434.7003    527.00946    463.58034   -203.38161    37401.237 
  376400    308.26283     -1446.33    516.54023    460.46504   -798.06629    37401.237 
  376500    290.13032     -1451.56    513.50788    370.42559    -838.0095    37401.237 
  376600    308.67972   -1473.3293    530.62736    449.43296   -870.49266    37401.237 
  376700    309.21256   -1456.1156    506.99947     445.4219    -1108.108    37401.237 
  376800    302.10215   -1496.7858    513.82165    379.50619   -828.78569    37401.237 
  376900    291.03033   -1521.8354    514.12287    304.82423   -595.54404    37401.237 
  377000    304.14485   -1546.3909     504.1241    329.41598   -147.92111    37401.237 
  377100    294.61852   -1514.2947    517.36089     331.7856   -242.88266    37401.237 
  377200    293.17197   -1508.0808    513.58912    327.70382    327.54933    37401.237 
  377300    296.76482   -1515.8797    517.56096    340.08045    101.15734    37401.237 
  377400    300.29316    -1498.509    510.17652    365.97939    213.82552    37401.237 
  377500    312.44908    -1489.209    533.82168    453.74724    355.11365    37401.237 
  377600    294.74828   -1526.8972    484.41621    286.82359    395.57572    37401.237 
  377700    302.61078   -1498.3028    498.38865    364.85008    157.20086    37401.237 
  377800    298.70655   -1493.4805    527.76378    381.43951   -216.24936    37401.237 
  377900    288.90236   -1482.0204    503.96404    324.88335   -452.08394    37401.237 
  378000    297.85347   -1474.3861    521.80811    390.73089    26.202235    37401.237 
  378100    293.33308    -1469.464    510.73423    364.19231    365.58253    37401.237 
  378200    297.32605   -1512.4958    511.94981    340.38428   -171.50686    37401.237 
  378300    309.88106   -1523.5632    512.58729    386.57698   -116.68438    37401.237 
  378400    303.28111   -1524.3634    516.55481    359.97877   -333.96579    37401.237 
  378500    300.42364   -1460.6412    489.44086    383.69998   -553.00064    37401.237 
  378600     298.7599   -1508.0819    509.93999    349.25492   -735.35262    37401.237 
  378700    312.55256   -1506.1093    535.82874    439.32068   -13.919463    37401.237 
  378800    306.33924   -1517.4404    508.72297    372.86205    22.527866    37401.237 
  378900    308.64772   -1491.7437    542.91381     443.1607   -36.502156    37401.237 
  379000    300.24222   -1498.3862    505.82259     361.5185   -57.372739    37401.237 
  379100    302.29253   -1496.3544    497.28769    364.26218    52.888099    37401.237 
  379200    306.84357   -1522.4037    545.20762    406.65785    220.34174    37401.237 
  379300    302.85616   -1482.7682     504.9586    388.06123    179.61678    37401.237 
  379400    295.81277   -1434.9182    534.96132    434.14857    586.41139    37401.237 
  379500    293.58821   -1444.8325    534.38047    413.62073    204.66378    37401.237 
  379600    308.65305   -1430.4232    509.77711    471.36857    43.504034    37401.237 
  379700    309.48707   -1459.9695    521.36805    457.17461   -497.47353    37401.237 
  379800    295.98785   -1492.8186    533.39198    375.46842   -99.717302    37401.237 
  379900    297.71382   -1475.0508    532.66175    400.29006    87.105283    37401.237 
  380000     308.8178   -1505.8081    501.09094     388.0405   -152.86659    37401.237 
  380100     305.0168   -1493.1739    524.97935    407.42066    -688.6697    37401.237 
  380200    288.65452   -1473.9011    503.19708    331.11797   -391.77322    37401.237 
  380300     296.4958   -1466.1074    536.09332    407.17175   -910.87838    37401.237 
  380400     304.2042   -1504.5679    491.81838    359.20095   -470.39549    37401.237 
  380500    308.24938   -1464.7692    517.93225    443.35713   -1072.3802    37401.237 
  380600    292.35701   -1502.9652    504.47598    320.03083   -756.49142    37401.237 
  380700    292.25318   -1511.5469     533.0561    339.56098   -309.94152    37401.237 
  380800    292.26484   -1480.3995    491.79431    329.49916   -77.044811    37401.237 
  380900    300.24555   -1507.9916    539.55885    385.66431   -594.17257    37401.237 
  381000    298.59423    -1487.898    532.54034    391.29206   -210.29526    37401.237 
  381100    294.90071   -1460.0881    526.71995    396.62391   -231.69515    37401.237 
  381200    300.40958   -1493.3251     529.2462    390.75796    272.87909    37401.237 
  381300    302.10365   -1465.3785    522.36407    419.46263    -694.8282    37401.237 
  381400    295.39324   -1474.3254    520.66048    378.54848    -484.2864    37401.237 
  381500    300.45623   -1537.1773    510.95881    328.82884   -346.70561    37401.237 
  381600    297.96255    -1538.212    525.51721    331.10605   -245.11136    37401.237 
  381700    305.46119   -1508.0595    531.49791    401.05787    -103.2797    37401.237 
  381800     295.0294   -1558.0143    499.03751    271.59567    -276.7103    37401.237 
  381900    311.33995   -1524.7982    499.49755     378.8318   -590.52854    37401.237 
  382000    300.95834   -1480.6812     529.6489    406.27949    -1049.688    37401.237 
  382100    294.81477   -1492.0389    500.02987    337.59544   -583.72358    37401.237 
  382200    294.80707   -1462.3593    522.17726    389.38771   -669.20845    37401.237 
  382300    295.97018   -1465.2042     536.9238     406.5349   -651.48949    37401.237 
  382400    290.27541   -1489.6227    510.94254    330.45193     115.8129    37401.237 
  382500    296.81311   -1482.4056     512.3531    368.56444    153.59638    37401.237 
  382600    285.86355   -1503.5904    508.28582    293.93021    243.34061    37401.237 
  382700     296.8109   -1476.1414    503.43615     365.9017    205.53466    37401.237 
  382800    299.78487   -1493.3343    533.27279    391.95799    405.09812    37401.237 
  382900    299.30168   -1505.1487     520.0704    364.76194    606.29246    37401.237 
  383000    296.53145   -1450.0709    527.42758    414.70332    1108.5839    37401.237 
  383100    309.21586   -1512.9868    488.37988    369.94599    600.79268    37401.237 
  383200    309.74384   -1504.2308    537.10342    429.80674    571.34786    37401.237 
  383300    302.23674   -1514.1464    531.76183    380.69272    103.93495    37401.237 
  383400    307.60478   -1499.7308    500.54352    388.09967    207.44013    37401.237 
  383500    302.39667   -1513.9027    487.39617    337.29207     636.5533    37401.237 
  383600    302.47679   -1482.1532    542.42931      424.436    787.74249    37401.237 
  383700    291.29507   -1503.5918    471.61783    281.75679    556.81346    37401.237 
  383800    306.65069   -1497.0378    530.12748    416.07377     349.9845    37401.237 
  383900    301.00177   -1522.6174    509.22441    344.11468    85.958941    37401.237 
  384000     297.6556    -1469.191    506.36115    379.58667    211.28313    37401.237 
  384100     295.8079   -1478.1129    513.23314    369.20371    531.20851    37401.237 
  384200    304.90919   -1534.6644    480.93557    321.40115   0.56761918    37401.237 
  384300    307.58296   -1549.8722    525.82424    363.14058    522.70296    37401.237 
  384400    298.83271   -1536.4918    478.49738    289.73088    793.44019    37401.237 
  384500    300.60579   -1537.3467    499.93484    318.30993    280.26176    37401.237 
  384600    308.69036   -1494.7686    495.29505    392.70941    429.82901    37401.237 
  384700    292.85583   -1486.5739    530.45296    364.64878    475.01401    37401.237 
  384800    310.89596   -1522.6667    503.60187     383.0653    -65.42518    37401.237 
  384900    297.11914   -1473.0016    489.98707    356.98257   -145.55286    37401.237 
  385000    292.53134   -1500.0248    488.04375     307.3252    672.74681    37401.237 
  385100    300.73239   -1567.1625    505.74223    294.87248    201.84311    37401.237 
  385200    300.84014   -1544.6146    484.90241    297.06651   -56.391202    37401.237 
  385300     299.3746   -1537.7794    461.73514    274.12491   -322.75955    37401.237 
  385400    302.98318   -1485.2936    514.44648    395.59665   -70.243768    37401.237 
  385500    296.27698   -1430.3002    521.63755    427.53636    171.77019    37401.237 
  385600    312.74943   -1452.1652    512.12197    470.44595   -93.625526    37401.237 
  385700    296.51816   -1479.3179     512.0308    369.99966   -98.924119    37401.237 
  385800    304.19856   -1493.8491    527.20254    405.27849     1023.561    37401.237 
  385900    298.73334   -1433.2231    548.47466    462.52861    407.21157    37401.237 
  386000    291.09385   -1471.9085    519.86886    360.78363    645.00876    37401.237 
  386100    302.44943   -1429.5689    533.36626    467.83386    753.88742    37401.237 
  386200    290.63456   -1450.4686    507.21391    367.49717    338.43034    37401.237 
  386300    291.34878   -1487.2687    523.92939    350.63364    150.02855    37401.237 
  386400    297.94844   -1467.7124    516.89121    392.91599    275.57645    37401.237 
  386500    303.21863   -1450.9391    511.43942    428.00592    197.95842    37401.237 
  386600    307.88298   -1443.0689       520.12    465.59275    237.74986    37401.237 
  386700    304.50854   -1449.2571    508.88301    432.94898    1078.7187    37401.237 
  386800    305.12451   -1423.3169    526.17435    478.95856     230.6709    37401.237 
  386900    312.16713   -1465.4845    501.76555    444.14402    1130.1667    37401.237 
  387000    298.29294   -1450.4959    512.60122     407.3962    304.44213    37401.237 
  387100    302.52071   -1504.5379    509.78971    369.60977    292.53464    37401.237 
  387200    305.38741   -1459.4306    472.74465    390.60079   -346.40168    37401.237 
  387300    298.32211   -1464.1177    485.71155    367.01628    96.985786    37401.237 
  387400    302.53916   -1468.0911    503.30307    399.65322    461.13724    37401.237 
  387500    302.46568   -1447.4096    555.10114    471.80137    480.93381    37401.237 
  387600      295.526   -1472.1956    463.77007    324.38656    539.71125    37401.237 
  387700    294.07102   -1455.1338    544.14134    415.25774    29.354345    37401.237 
  387800    290.77901   -1450.7993     509.4791     370.0831    438.54518    37401.237 
  387900    298.83409    -1459.154    496.26417    384.84168   -687.01016    37401.237 
  388000    310.86068   -1458.0683    516.73115    460.63385   -657.09082    37401.237 
  388100    299.92082   -1454.1767    495.21873    393.67464   -495.97632    37401.237 
  388200    303.88501    -1477.116    533.42605    426.82101   -744.09632    37401.237 
  388300    306.35069   -1488.1248     502.3379    395.84419   -519.15886    37401.237 
  388400    313.41232   -1483.2383    473.12993    403.37035    142.31172    37401.237 
  388500    300.36366   -1497.1906    526.24706    383.68627   -281.37205    37401.237 
  388600    292.11298   -1461.7282    507.44316    363.13441    159.97112    37401.237 
  388700    301.38159   -1439.1642    512.16098    432.21741   -55.455082    37401.237 
  388800    309.04182   -1460.6757    486.62933    419.72158   -362.71184    37401.237 
  388900     296.9544   -1464.6523    491.65118    366.25303   -67.608704    37401.237 
  389000    309.78971   -1435.3779    499.25698    461.02005    461.16855    37401.237 
  389100    291.00292    -1439.976    513.86104    386.29815     258.0771    37401.237 
  389200    297.93761   -1473.6967    519.59305    389.58476    623.49881    37401.237 
  389300    284.98018   -1495.5388    503.88285    293.59483    20.822285    37401.237 
  389400    289.36828   -1490.3068    517.99092    332.72505   -242.36284    37401.237 
  389500    299.07942   -1463.3927    469.26893    354.71415    176.69426    37401.237 
  389600    311.71237   -1475.0669    497.88376    428.62896   -197.39138    37401.237 
  389700    298.21116   -1448.1017    476.30981    373.13015   -318.56055    37401.237 
  389800    307.51544   -1456.3201    501.19434    431.75826   -519.59613    37401.237 
  389900    296.37302   -1439.1091    507.16725    404.69027   -190.12095    37401.237 
  390000    291.14156   -1437.3333    522.31953    398.02465   -773.30363    37401.237 
  390100    293.06012   -1428.1045    517.30054    410.88707   -154.49423    37401.237 
  390200    298.36589   -1472.7828    494.55341     367.3905    111.43822    37401.237 
  390300    305.26173    -1467.867    509.38852    418.24143  -0.32957116    37401.237 
  390400    304.06286   -1496.7202    488.12377    362.71663    618.17626    37401.237 
  390500     304.3165   -1453.2686    538.76204    457.95042    222.34722    37401.237 
  390600    297.95092   -1491.7187    496.96397    348.99372    55.526283    37401.237 
  390700    297.11253   -1478.0354     493.4899    355.42177   -105.67066    37401.237 
  390800     286.4723   -1492.3764    516.12173    315.72551   -309.13013    37401.237 
  390900     303.2321   -1462.0327    494.53977     400.0734    26.318052    37401.237 
  391000    300.55147   -1461.0996    495.42646    389.80361   -187.03874    37401.237 
  391100    294.83837   -1456.8565    520.17047    393.02487   -292.62015    37401.237 
  391200    305.46317   -1450.3256    492.34043    419.64325   -78.220061    37401.237 
  391300    311.15937   -1484.7119    524.34375    442.94988    524.32829    37401.237 
  391400    312.55468   -1482.1145    508.82255    436.31889     510.7168    37401.237 
  391500    299.70472   -1437.2079    521.33172    435.78175    180.72387    37401.237 
  391600     303.4656   -1466.1109    506.39594    408.90444   -254.80092    37401.237 
  391700    283.58782    -1442.083     498.1507    335.03903    -382.2973    37401.237 
  391800    306.03395   -1455.1353    508.40762    433.47494   -275.15572    37401.237 
  391900    294.18209   -1430.4149    496.01634    392.35254   -47.462249    37401.237 
  392000    302.28562   -1427.7753    504.17778    439.70025    320.33531    37401.237 
  392100    294.61454   -1440.5588    510.93457     399.0772    584.43571    37401.237 
  392200    294.79712   -1446.6637    507.91419    390.77542    445.40989    37401.237 
  392300    302.95611   -1441.7943    488.28178    412.80915    771.65451    37401.237 
  392400    310.83402   -1433.8534    513.34467    481.34198    580.32414    37401.237 
  392500    295.86603    -1469.191    495.97674    361.13134    99.305534    37401.237 
  392600    299.11454   -1435.0606    487.48626    401.42191    174.13862    37401.237 
  392700    291.49868   -1476.6702    476.63185    314.61072   -463.45707    37401.237 
  392800    309.74332   -1492.0661    469.13939    374.00503   -211.25213    37401.237 
  392900    298.84286   -1470.7051    500.33053    377.39643    -244.2565    37401.237 
  393000    295.85899   -1492.5384    514.48913    356.26462   -818.03947    37401.237 
  393100    309.53098   -1457.1559     491.1052    429.92334   -385.49136    37401.237 
  393200    310.53177   -1467.2525     490.6119    423.84698   -219.54092    37401.237 
  393300    305.60129   -1457.1804    498.10184    419.17274    -806.6522    37401.237 
  393400     300.3574   -1447.8639    507.77034    414.50797   -89.596321    37401.237 
  393500    300.28593   -1510.2693    491.10684    335.11678   -292.78768    37401.237 
  393600    289.64323   -1481.8186    518.44245    342.90483   -559.78689    37401.237 
  393700    303.64706   -1453.0028    505.52371     421.9587    306.14218    37401.237 
  393800    306.32461   -1451.4164    493.00505    423.10209    174.88788    37401.237 
  393900    297.36741   -1488.7099    519.18655    371.59348   -474.29724    37401.237 
  394000    289.70191   -1465.4423    489.28421    330.38751    346.16058    37401.237 
  394100    293.34845   -1458.5454    507.36456    371.81056   -77.397689    37401.237 
  394200    293.20597   -1455.0242    522.24731    389.57188    65.947539    37401.237 
  394300    300.13218   -1452.2761    505.72893     407.0386    401.08168    37401.237 
  394400     301.1508   -1445.7875    492.92455    405.31679     70.13117    37401.237 
  394500    311.42053   -1400.2923      524.467    528.67063   -79.681272    37401.237 
  394600    295.47188   -1408.8962    540.91447    464.58634   -345.60128    37401.237 
  394700    307.22829    -1436.117    510.06731    459.53927   -302.99874    37401.237 
  394800    295.06514   -1448.8169    481.19764    363.11437    62.056589    37401.237 
  394900    297.90142   -1449.3115    542.85245    437.06611    526.14496    37401.237 
  395000    304.08708   -1464.0426    497.54438    404.92409    1346.7511    37401.237 
  395100    310.86467     -1510.05    489.08951    381.02844    1325.5044    37401.237 
  395200    296.23359   -1466.6358    510.79875    380.16627    283.00917    37401.237 
  395300    303.19563    -1446.203    511.30149    432.50034    131.05654    37401.237 
  395400    295.11167   -1422.3851    514.41047    422.96887    302.82872    37401.237 
  395500    290.83224   -1431.1587    538.24672    418.73137    -239.5154    37401.237 
  395600    307.09593   -1441.0277    512.50198    456.46638   -277.34843    37401.237 
  395700    310.87948   -1447.6674    514.87473    469.26309   -452.36707    37401.237 
  395800    304.83714   -1443.3949    523.60249    455.01261   -606.21313    37401.237 
  395900    303.72896    -1443.994    512.23006    438.04321   -383.23338    37401.237 
  396000    293.51436   -1462.5958    508.43472     369.5786   -470.30185    37401.237 
  396100    294.87003   -1472.3568    520.31442    377.81128   -491.96415    37401.237 
  396200    302.55479   -1425.0672    526.26645    465.71099   -561.34973    37401.237 
  396300     290.3565   -1417.4419    499.39484    391.45076   -694.16982    37401.237 
  396400    295.33588   -1488.2672    505.83836    349.52585   -1018.6665    37401.237 
  396500    309.16172   -1457.0773    512.05751    449.28896   -863.52169    37401.237 
  396600    307.39294   -1475.9412    485.03887    395.42925   -856.51179    37401.237 
  396700     307.2911   -1487.1801    492.09455     390.7868   -583.86198    37401.237 
  396800    300.51743   -1459.9019    506.70194    402.12328   -605.59584    37401.237 
  396900    303.50975   -1498.2572    515.66504    386.22634    46.602233    37401.237 
  397000    300.24365   -1495.6745    506.90435    365.31844    416.34038    37401.237 
  397100    290.62138   -1470.8975    509.73888    349.53383   -258.26386    37401.237 
  397200    306.54308    -1508.372    497.45302     371.5798    410.78747    37401.237 
  397300    288.67959   -1480.0086    527.99507    349.92154    474.69497    37401.237 
  397400    294.40262    -1480.827     522.8073    369.72598    1039.1841    37401.237 
  397500    292.92681   -1492.4569    514.15773    342.79072    51.477928    37401.237 
  397600    320.69531   -1452.3304    543.28948    537.28388    144.50497    37401.237 
  397700    300.51353   -1489.5925    498.10388    363.81706    221.50054    37401.237 
  397800    298.84947   -1429.5014    522.92364    441.22304    83.712185    37401.237 
  397900    299.81151   -1503.0146      484.732    333.85705   -674.39892    37401.237 
  398000    290.63614   -1452.4874       513.97    372.24159   -790.32945    37401.237 
  398100    302.31252   -1463.2495    478.17021     378.3398   -979.56319    37401.237 
  398200    300.49738    -1469.251    510.89168    396.87356   -603.61362    37401.237 
  398300    303.57448   -1447.4413    510.32758    431.99678    519.46886    37401.237 
  398400    295.71183   -1511.3303    515.65483     337.9747    1191.9625    37401.237 
  398500    306.42628   -1513.5249    511.13358    379.58067    567.54498    37401.237 
  398600     300.9536   -1479.9391    480.53302    357.88429    286.93057    37401.237 
  398700    304.60125   -1496.1921    517.11668    394.66578   -114.18764    37401.237 
  398800    298.89007   -1495.0928     473.9683    326.85942   -297.73364    37401.237 
  398900    299.82501   -1487.1574    501.53102    366.57407   -4.6269458    37401.237 
  399000    299.24812   -1479.0482    496.14398    366.69455   -476.47268    37401.237 
  399100    291.76975   -1461.8065    523.27882     377.3439    34.962682    37401.237 
  399200    297.46558   -1465.4461      488.886    364.99939    137.46017    37401.237 
  399300    299.80908   -1494.8599    491.29474    348.56352    140.86329    37401.237 
  399400    307.86405    -1477.012    491.79374    403.23798     265.7073    37401.237 
  399500    288.62585   -1492.8942    513.84834    322.64683   -665.19555    37401.237 
  399600    303.06126   -1493.4836    506.55073    379.86295   -546.60303    37401.237 
  399700    296.93925   -1518.0823    501.37405    322.47757    17.270544    37401.237 
  399800    294.41386   -1489.8944    520.35476    358.25679    489.27113    37401.237 
  399900    293.73693   -1498.1097    489.98514    316.61886    -597.7408    37401.237 
  400000    302.24238   -1483.8173     519.1632     398.4486   -118.01186    37401.237 
  400100    296.12608   -1467.1983    499.69693    368.01701   -390.90559    37401.237 
  400200    300.48234   -1493.4537    525.30998    387.02128    6.4249672    37401.237 
  400300    292.12636   -1478.7884    479.83324    318.52469    22.744327    37401.237 
  400400    302.31018   -1510.7797    523.40308    376.03187     -208.314    37401.237 
  400500    305.89753   -1491.9481    478.77452    366.41375    1.3505381    37401.237 
  400600    307.36686   -1464.7707    520.56358    442.00683    216.49522    37401.237 
  400700    300.31237   -1458.4925    499.80794    395.71386    758.20309    37401.237 
  400800    296.75588   -1429.0448    507.48347    416.79743    505.63417    37401.237 
  400900    301.56416   -1484.2213    509.73901    385.56172    841.99276    37401.237 
  401000    296.93201    -1495.183    510.98708    354.95724     188.3763    37401.237 
  401100    296.77897   -1453.7428    519.11598    403.83611    294.59526    37401.237 
  401200    305.56303   -1450.9528    497.82018    424.94609    439.67774    37401.237 
  401300    304.02645   -1460.7476    540.74709    451.14831   -268.85837    37401.237 
  401400    304.09001   -1443.8983    490.27517    417.81239   -347.27121    37401.237 
  401500    298.40088   -1426.8675    518.31115    437.22135   -797.50564    37401.237 
  401600    303.69184   -1476.0657    529.69774    423.27179   -408.13215    37401.237 
  401700    297.52608   -1432.1349    482.39253    392.08998   -77.319918    37401.237 
  401800    289.72013   -1392.5467    533.54236    447.62352    274.18756    37401.237 
  401900    294.14149   -1448.7937    520.85771    398.63195    869.91954    37401.237 
  402000    298.94765   -1474.3183    511.68559    385.61097    539.19756    37401.237 
  402100    307.20956   -1471.0883    500.54797    414.96424    647.63063    37401.237 
  402200    309.18959   -1478.0696    515.25347    431.61826    342.96719    37401.237 
  402300    304.08359   -1454.0092    506.72105    424.11835    189.99976    37401.237 
  402400    278.51875    -1485.914    503.20585    273.40185   -85.510636    37401.237 
  402500    295.42576   -1459.2451    482.93212    356.04698   -265.21089    37401.237 
  402600    301.72022   -1483.4052    515.84164    393.18429   -5.8491123    37401.237 
  402700     306.0104   -1486.9577    513.42817     406.5668    353.01158    37401.237 
  402800    299.75637   -1481.1773     490.8746    361.58822    106.74187    37401.237 
  402900    296.61159   -1505.4385    513.61431    345.88388   -62.331591    37401.237 
  403000    297.57112   -1472.8714    509.54454    378.70859   -585.66823    37401.237 
  403100    296.55273   -1499.3933    502.34177     340.3911   -605.59172    37401.237 
  403200    302.50565   -1481.8398    491.93928    374.38951   -625.34633    37401.237 
  403300    291.28932   -1503.0141    477.49534    288.18605   -592.36549    37401.237 
  403400     307.4258   -1475.6068    511.75825    422.63126   -735.27173    37401.237 
  403500    304.30392   -1505.6514    472.52298    339.27178    41.114945    37401.237 
  403600    295.66729   -1484.1077    504.65525    353.99687   -568.61887    37401.237 
  403700    288.57838   -1487.2473    506.84245    321.07371    -366.2857    37401.237 
  403800    296.78735   -1515.8421    494.62877    317.28739   -34.112078    37401.237 
  403900    299.89514   -1485.0446    498.23401    365.70615   -271.78204    37401.237 
  404000    296.76647   -1498.7717    498.95909    338.59401   -96.664395    37401.237 
  404100    296.55488   -1525.1536    490.80486     303.1036    247.20074    37401.237 
  404200    291.68273   -1514.9046    521.21969    321.79417    351.44837    37401.237 
  404300    302.89415   -1507.9135    514.73806    372.86679    286.09558    37401.237 
  404400    294.54404   -1489.9056      472.108    310.58588    61.557983    37401.237 
  404500    300.27075   -1494.6256    489.94474     349.5299   -236.83836    37401.237 
  404600    301.11743   -1464.0566     500.1495    394.12217   -276.10056    37401.237 
  404700    307.35151   -1497.8263    484.47867    372.79708   -15.904563    37401.237 
  404800    294.84599   -1460.0889    486.50047    356.15685   -567.04544    37401.237 
  404900    331.49467   -1484.2525     513.5801    524.35717   -317.30122    37401.237 
  405000    294.73543   -1458.3335    480.48801    351.40118   -146.60109    37401.237 
  405100    297.10344   -1476.0028    504.28593    368.20939    121.77946    37401.237 
  405200    299.06445   -1452.9383    504.09018    399.92223    249.11879    37401.237 
  405300    305.39328   -1475.7893    537.73873    439.26265    655.76011    37401.237 
  405400    292.93793   -1442.2219    490.33069    369.24878    428.90131    37401.237 
  405500    314.48668   -1464.2534    513.58943    467.66013    365.68368    37401.237 
  405600    306.14103   -1425.5577    522.20403    477.33185    612.59636    37401.237 
  405700    299.89292   -1400.3796    520.78436    472.91152    448.76457    37401.237 
  405800    306.14597   -1444.0185     521.0992    457.78846    -92.63348    37401.237 
  405900    302.20869   -1471.6315    517.41964    408.73897   -143.85318    37401.237 
  406000    295.71076   -1433.8362    534.05374    433.86292   -206.10534    37401.237 
  406100     306.1188   -1463.4946    511.94822    429.03894   -457.51243    37401.237 
  406200    308.16073   -1474.0498    481.71609    397.46058    773.88225    37401.237 
  406300    304.63519   -1457.7659    517.43973    433.56809    52.999285    37401.237 
  406400    305.16915   -1499.7746    497.24798    373.77578    109.89113    37401.237 
  406500    303.87067   -1485.1413    498.00291    383.30794    234.26303    37401.237 
  406600    294.44123   -1507.8006    521.89391    342.01311    325.57462    37401.237 
  406700    297.71831    -1466.836    519.73964    395.60295    193.72928    37401.237 
  406800    298.23654   -1511.5869    478.28319    311.73285   -387.66726    37401.237 
  406900    308.53717   -1452.4471    532.22003    471.26492   -277.10318    37401.237 
  407000    299.96147   -1489.1371    511.01395    374.69275    338.16247    37401.237 
  407100    302.88201   -1511.1772    512.30794    367.11821     32.95859    37401.237 
  407200    304.60287   -1494.9404     505.9604     384.7685    842.83166    37401.237 
  407300    296.57531    -1482.599    501.37872    356.32413    237.02515    37401.237 
  407400    294.30589   -1478.6979    499.61879    348.23031    219.23696    37401.237 
  407500    303.96552   -1475.3921    504.70175    400.18371    264.87559    37401.237 
  407600    293.06696   -1464.8787    533.32569    390.16894    310.61359    37401.237 
  407700    295.52781   -1491.7456    521.00291    362.07762   -306.94724    37401.237 
  407800     308.5493    -1484.878    505.84637    412.51511   -235.57941    37401.237 
  407900     301.6588   -1501.8211    478.50509    337.15482    171.99284    37401.237 
  408000    302.74661   -1467.1413    502.64711    400.88261   -20.117552    37401.237 
  408100    298.17146   -1550.7446    516.67439    310.67285    41.757463    37401.237 
  408200    304.71535   -1494.6912    494.65459    374.21916    209.05183    37401.237 
  408300    309.23404   -1474.7427    527.53085      447.423    158.92775    37401.237 
  408400    298.03675   -1504.4041    491.15263      330.884   -258.95423    37401.237 
  408500    308.94434   -1501.8883    493.41803    384.85808   -484.07068    37401.237 
  408600     296.9124   -1457.5147    502.08891    383.63888    34.314427    37401.237 
  408700     294.8361   -1517.8192    502.57485    314.45637   -192.84219    37401.237 
  408800    297.77007   -1487.2224    514.00757    369.71792    205.71703    37401.237 
  408900     296.3139   -1537.8119    511.04974    309.60331    18.677128    37401.237 
  409000    317.89548   -1534.8453    497.87419     396.7266    695.61802    37401.237 
  409100    296.88297   -1556.9256    481.79749    263.80389   -751.78282    37401.237 
  409200    299.81075   -1525.7354     494.8402      321.241   -506.71227    37401.237 
  409300    303.99797   -1469.2167    542.61728    444.42093   -241.63504    37401.237 
  409400    300.45303   -1504.0414    510.02204    361.01349   -787.10073    37401.237 
  409500    305.47457   -1509.7472    502.16762    370.10022   -885.65458    37401.237 
  409600    300.17938   -1511.4233    476.14139    318.51677   -454.80358    37401.237 
  409700    299.18229    -1505.944    523.38354    366.74138    230.80452    37401.237 
  409800    295.08385   -1562.0076    519.71998     288.5304   -591.49289    37401.237 
  409900      299.979   -1547.9853      491.357    296.26671   -97.632441    37401.237 
  410000    289.17176   -1522.4758    519.92065    301.59956    -556.0054    37401.237 
  410100    290.32798   -1566.6565    477.81703     220.5297    -468.8477    37401.237 
  410200    309.43798   -1602.9442    495.49201    288.10249    92.323446    37401.237 
  410300    294.63932    -1539.552    478.89991    268.16116   -56.544296    37401.237 
  410400    293.85542   -1518.7095    502.78965    309.35796   -57.818648    37401.237 
  410500    300.43512   -1544.2795    499.63132    310.30393   -292.93675    37401.237 
  410600    291.08939   -1538.3943    509.00564    283.41448   -418.71417    37401.237 
  410700    308.13142   -1503.6074    503.89522    389.94986    30.232766    37401.237 
  410800    299.12984   -1533.8918    498.23068    313.40414   -539.34612    37401.237 
  410900    299.73778    -1518.493    497.95214    331.26625   -816.08152    37401.237 
  411000    305.27587   -1500.6629    494.01525    370.13598   -647.47535    37401.237 
  411100    305.00755   -1523.2305    492.16866    344.51174    -505.6378    37401.237 
  411200    282.24112   -1524.8751    531.24145    279.26405   -1105.9158    37401.237 
  411300    306.35534   -1508.5709    515.18704    388.26822   -872.16324    37401.237 
  411400     297.3369   -1526.8344    498.48703    312.63184   -536.53281    37401.237 
  411500    304.36909   -1490.2092     506.2276    388.71249    -1004.975    37401.237 
  411600    303.47701   -1500.4864    531.07594    399.26036   -981.94643    37401.237 
  411700    301.13099    -1481.411    483.19596    359.87537   -221.46534    37401.237 
  411800    285.14922   -1447.7827    495.54503    333.77549   -594.67453    37401.237 
  411900    295.64766   -1484.1423    505.71381    354.93227   -498.11318    37401.237 
  412000    303.73101   -1515.5557    509.81838    364.07906   -54.519653    37401.237 
  412100     291.7174   -1502.1989    506.89149    320.32809   -245.49205    37401.237 
  412200    293.26716   -1501.8914    505.83387    326.56722   -4.2738495    37401.237 
  412300    299.35407   -1495.3531    496.29829    351.02176     -326.278    37401.237 
  412400    298.14795   -1446.6419    515.56449    413.55963    556.14683    37401.237 
  412500    303.84507   -1519.8133    502.16137    352.67891   -10.947648    37401.237 
  412600    312.68263   -1488.1574    486.96109     408.9916    302.37182    37401.237 
  412700    291.54169    -1489.104    490.05251    315.79152    255.06487    37401.237 
  412800    299.90348    -1536.243    499.78857    316.09992    80.349595    37401.237 
  412900    295.15013    -1506.593    520.99367    345.51762    37.930301    37401.237 
  413000    307.39363   -1485.7895    482.60391    383.14913    514.68094    37401.237 
  413100    289.01851   -1473.5384    526.82856    356.75369    748.48115    37401.237 
  413200    304.87382   -1472.1677    526.38248    429.18524    131.06642    37401.237 
  413300    293.09353   -1479.8748    531.15847    373.12536    1223.6909    37401.237 
  413400     303.9787   -1505.8931    513.93613    378.97653    435.95008    37401.237 
  413500    290.78839   -1478.9511    531.99328    364.48777    272.73336    37401.237 
  413600    298.63235   -1496.3399    502.02354    352.50531    614.30808    37401.237 
  413700    302.33372   -1509.7997    507.71847    361.43346   -561.10232    37401.237 
  413800    302.78274   -1525.8536    529.60823    369.29438   -383.36477    37401.237 
  413900    297.14801   -1553.8736    495.87511    282.12877    -434.2795    37401.237 
  414000    293.90671   -1530.0312    497.22617    292.70419   -231.15791    37401.237 
  414100    303.91525   -1569.5765    500.09518    301.16599    402.46127    37401.237 
  414200    292.54856    -1571.007    521.74665    270.12363    495.10934    37401.237 
  414300    309.54656   -1550.3326    538.70424    384.41601    392.26551    37401.237 
  414400    293.09726   -1520.4648    512.35272    313.74644    340.29057    37401.237 
  414500    284.44965    -1540.347    501.17958    243.69074   -904.37208    37401.237 
  414600    296.44261   -1575.1068    488.07962     249.9188   -776.62462    37401.237 
  414700    291.93685   -1555.5143    493.42445    254.53536   -1180.8253    37401.237 
  414800    301.91185   -1507.9046    540.47237    394.17989   -358.03141    37401.237 
  414900    297.21838   -1511.6219    498.46727    327.28998    -186.9088    37401.237 
  415000    306.45595    -1559.133     524.7919    347.76471    22.416597    37401.237 
  415100    296.65082   -1513.4659     484.3556     308.7747   -140.36414    37401.237 
  415200    298.44704   -1522.6629    495.36278    318.68572    -233.7208    37401.237 
  415300    298.00676   -1493.2313    510.40608    361.17498   -340.20503    37401.237 
  415400    303.95899   -1498.4113    494.06922    366.50249    262.16513    37401.237 
  415500    297.53964    -1518.485    478.33498    301.74353   -332.83694    37401.237 
  415600    294.79496   -1499.6225    498.06131     327.9539   -383.21344    37401.237 
  415700    299.14903   -1486.4504    509.53483    372.23627   -166.18352    37401.237 
  415800    305.50216   -1512.0863    516.40474    382.12271    584.88616    37401.237 
  415900    308.89928   -1508.7154    525.31114    409.72087    545.24568    37401.237 
  416000    295.56177    -1486.837    509.34163    355.47804    32.593272    37401.237 
  416100    310.18188   -1448.1814    531.60129    482.32944   -149.11787    37401.237 
  416200    303.98097    -1470.535    527.76044    428.16916    369.35048    37401.237 
  416300    293.42298   -1478.8202    525.61304    370.12036   -9.1427184    37401.237 
  416400    303.16722   -1504.2023    542.98469     406.0561    238.43761    37401.237 
  416500    301.73532   -1442.0911    511.41279    430.13767    146.95638    37401.237 
  416600    307.77063   -1488.6546    502.63385    402.01425   -270.42665    37401.237 
  416700    292.10878   -1543.6867    483.87631    257.59017   -744.44005    37401.237 
  416800    301.66292    -1498.776    503.83405    365.54743   -516.42992    37401.237 
  416900    290.55018   -1504.9309    516.61315    322.05358   -152.83325    37401.237 
  417000     305.4509   -1505.5441    488.81414    360.84306   -99.018951    37401.237 
  417100     292.6385   -1460.5346    514.11484    373.36981   -183.73934    37401.237 
  417200    314.30791   -1488.8054    494.66607    423.37852    137.69724    37401.237 
  417300    298.95545   -1481.6348    516.50209    383.14602     157.5886    37401.237 
  417400    302.17256   -1497.4903    504.87466    370.17215    385.71977    37401.237 
  417500    294.17542   -1472.4615    487.46918    341.72871   -22.852082    37401.237 
  417600    298.57218   -1427.9827    512.40976    430.97733    106.27786    37401.237 
  417700    312.68352   -1499.6692    517.49933    428.02201    73.393487    37401.237 
  417800    308.77628   -1469.4198    509.00071    432.15126    832.48534    37401.237 
  417900    294.66908   -1494.3471    506.82344    341.42371    321.26299    37401.237 
  418000    289.63175   -1497.9608    489.68609     297.9545    343.65923    37401.237 
  418100    306.29515   -1531.5843    495.67869    345.47498    211.35192    37401.237 
  418200    305.74086   -1508.6638    488.78155    358.99856    272.20648    37401.237 
  418300    299.21301   -1510.4658    487.13827    326.11281    10.784263    37401.237 
  418400    304.53098   -1495.8044     500.2076    377.82741   -793.92691    37401.237 
  418500    296.44261   -1515.6989     476.0162    297.26326   -276.94143    37401.237 
  418600    306.81934   -1461.3666    513.34928    435.72737   -624.50586    37401.237 
  418700    298.24807   -1489.2248    498.32655    354.19027   -601.49923    37401.237 
  418800    304.24067   -1496.7061    502.79001    378.19883   -761.78197    37401.237 
  418900    297.32304   -1515.4508    489.72604    315.19191    -277.3592    37401.237 
  419000    301.18203   -1552.4405    501.75183     307.6319   -173.53007    37401.237 
  419100    298.53735   -1530.4958    500.99283    316.89017   -515.25261    37401.237 
  419200     296.0549   -1535.1789    524.30963    324.32813   -448.33141    37401.237 
  419300    294.79789   -1490.6346    488.51144    327.40524    -140.7938    37401.237 
  419400    295.21015    -1468.305    518.91085    381.99342    350.67297    37401.237 
  419500     295.1894    -1479.891    517.78743    369.19047    58.296668    37401.237 
  419600    303.01243   -1433.8631    518.81401    451.52655     479.9992    37401.237 
  419700    298.52453    -1447.479    471.63245    370.48885   -39.984942    37401.237 
  419800    299.91668   -1492.2943    509.68625    370.00582   -178.61741    37401.237 
  419900    303.71164    -1490.577    482.23305    361.38507    228.65298    37401.237 
  420000    305.75269   -1508.4205    524.87996    395.39359    435.33897    37401.237 
  420100    298.62093   -1504.7658     490.7625    332.76685   -424.69847    37401.237 
  420200    307.19449   -1479.7483    507.73669    413.42502   -437.85592    37401.237 
  420300       302.87   -1503.4541    502.33163    364.81083   -284.48687    37401.237 
  420400    298.46517   -1526.6348       497.65    317.08287   -42.603736    37401.237 
  420500    302.45962    -1523.898    487.52648    327.71102   -675.56583    37401.237 
  420600    294.40422    -1534.929    497.53525    290.35914   -777.01532    37401.237 
  420700    306.51753   -1520.8765    494.42862     355.9356    6.6387757    37401.237 
  420800    297.77174   -1514.4908    503.26634    331.71586    47.504944    37401.237 
  420900    311.05657   -1497.3688    500.59956    406.08524    411.13121    37401.237 
  421000    294.98036   -1548.1609    491.86617     274.0566     193.9262    37401.237 
  421100    295.79283   -1561.8347    525.13765    297.31849    537.13194    37401.237 
  421200    304.01687   -1553.7411    496.67418    314.03866   -47.250174    37401.237 
  421300    299.66966   -1511.4807    474.12507    314.14421    446.84845    37401.237 
  421400      290.628   -1506.8637    517.27584    321.13442    402.25036    37401.237 
  421500    299.44635   -1486.0208    519.24962    383.72155    211.34393    37401.237 
  421600    291.24426   -1500.1704    508.55446    321.88561   -196.21949    37401.237 
  421700    309.51469   -1473.9548    527.72775    449.67356   -343.02294    37401.237 
  421800    302.01855   -1478.3135    504.49976    388.27955   -498.57519    37401.237 
  421900    294.63403   -1489.1315    474.12661    313.78441   -211.93264    37401.237 
  422000    305.79532   -1488.3001    516.12429    406.95055    439.25617    37401.237 
  422100     294.8964   -1520.3678    509.52754    319.13234    597.31526    37401.237 
  422200    297.88564   -1451.1279    502.97911     395.3052    1105.1165    37401.237 
  422300    305.13381   -1478.0947    519.18449    417.23274    612.59094    37401.237 
  422400    299.57864    -1471.068    475.75134    355.77271    722.55924    37401.237 
  422500    300.78189   -1477.1855    535.78852    415.11895    74.171681    37401.237 
  422600    296.53471   -1462.4407    536.56842    411.48903   -24.369022    37401.237 
  422700    310.29112   -1449.9679    476.47453    425.90892    153.42027    37401.237 
  422800    299.19684   -1473.0832    528.46311    404.74734   -337.16437    37401.237 
  422900    296.39902   -1426.7205    507.23827     417.2671   -319.14991    37401.237 
  423000    294.94613   -1445.9187    511.07899    395.35713   -455.84763    37401.237 
  423100    295.48906   -1458.6337    513.33131     387.3431    -299.1488    37401.237 
  423200    298.58609   -1480.9914    513.22966    378.85121    461.52822    37401.237 
  423300    294.12597   -1437.4305    524.01356    413.08107    28.549247    37401.237 
  423400    300.34045   -1453.4654    532.16064    433.22033   -135.35445    37401.237 
  423500    298.81855    -1484.003    506.06619    369.72454    201.57267    37401.237 
  423600    302.96328   -1447.6306    506.25188    424.97529    -430.9202    37401.237 
  423700    300.21354   -1453.2655    522.66002    423.34721    100.55199    37401.237 
  423800    308.66446   -1457.8438    531.04264    465.26498   -3.7266688    37401.237 
  423900    299.14467   -1496.1376    510.50861    363.50325    173.64443    37401.237 
  424000    305.98745   -1470.7546    518.38601    427.62429    1176.3857    37401.237 
  424100    310.88773   -1520.3918    511.76758    393.46876    1024.7602    37401.237 
  424200    293.75449   -1540.5419    478.66022    262.94096    855.13944    37401.237 
  424300    305.59539    -1535.392    518.00695    360.83963    530.93137    37401.237 
  424400    289.95855   -1505.6692    489.19969    291.23355   -200.40789    37401.237 
  424500    301.58666   -1504.9153    514.01314    369.24325    386.52781    37401.237 
  424600    302.66216   -1458.5153    515.28927    421.76995    437.59575    37401.237 
  424700    289.58876   -1428.6883    525.68664    403.03369    162.57871    37401.237 
  424800    306.99172   -1471.0547    522.81705    436.28447   -324.93932    37401.237 
  424900    298.22216   -1493.3327    499.03644    350.67537   -409.77554    37401.237 
  425000    299.30078   -1481.9997    515.40457    383.24104   -861.15948    37401.237 
  425100    300.58712   -1450.4744    510.90473    416.06796   -595.08598    37401.237 
  425200    295.10014   -1474.8358    486.67102    342.72671   -222.49694    37401.237 
  425300    307.54135   -1462.7739    521.68179    445.90876   -137.45229    37401.237 
  425400    307.85502   -1477.9606    504.01462    414.46953    354.48133    37401.237 
  425500    300.13954   -1467.4465    502.86343    389.03589   -310.58191    37401.237 
  425600    290.00578    -1505.703    507.59723    309.81028   -715.95994    37401.237 
  425700    291.23731   -1510.0141    523.48402    326.94015   -500.31539    37401.237 
  425800    298.40595   -1530.6907    504.40273    319.51265   -938.99279    37401.237 
  425900    292.95368   -1518.7566    495.80252    298.25692   -711.13694    37401.237 
  426000    308.16215   -1510.2613    511.93222    391.47159   -762.07853    37401.237 
  426100    287.56963   -1550.8209    501.01714    247.12542   -116.79566    37401.237 
  426200    299.79923   -1507.1221    531.01561    375.97776   -122.31191    37401.237 
  426300    299.82599   -1489.3857    512.69504    375.51422   -20.641238    37401.237 
  426400    299.66186   -1478.8797    520.12038    392.70533    36.971655    37401.237 
  426500    293.67184   -1525.6108    496.33656    295.17572    244.90404    37401.237 
  426600    291.35552   -1480.6558    498.58371    331.93123    172.16298    37401.237 
  426700    301.82988   -1502.6852    501.58419    360.14134    163.49425    37401.237 
  426800    308.44034   -1451.1456     514.5691    454.47881     539.4754    37401.237 
  426900    303.30285   -1474.9618    534.01754    426.94115    236.35357    37401.237 
  427000    306.28266   -1453.4303    498.95647    426.85047     54.29028    37401.237 
  427100    296.86262   -1480.3197    509.73764    368.25819   -718.10636    37401.237 
  427200    305.02462   -1496.4833    510.99313    390.16035   -407.52463    37401.237 
  427300    304.48126    -1476.598    502.69186    399.29384   -236.02844    37401.237 
  427400    305.81285   -1452.6881    532.30323    458.82055   -284.84062    37401.237 
  427500    297.65559   -1495.6633    523.59491    370.34805   -345.15032    37401.237 
  427600    304.16102   -1469.5958    518.18753    420.34748   -346.54154    37401.237 
  427700    294.29975    -1503.657    486.91971    310.54447   -562.96703    37401.237 
  427800    301.85509   -1476.1125    511.57219    396.81571   -687.25052    37401.237 
  427900    304.51025   -1499.1364    486.05296    360.24731   -633.03117    37401.237 
  428000    308.58546   -1501.0841    512.46183    403.08751    320.48809    37401.237 
  428100    298.56202   -1489.4442    506.15665     363.2169   -22.667766    37401.237 
  428200    305.83358   -1451.3016     493.3684    421.36573    316.27284    37401.237 
  428300    292.06314   -1491.4835     528.5953    354.30646     101.7482    37401.237 
  428400    301.10968   -1471.1856    514.68826    401.49697    -174.3095    37401.237 
  428500     314.5197   -1501.7843    505.35174    422.04041   -597.86216    37401.237 
  428600    295.85903   -1546.4509      491.446    279.30916   -128.44367    37401.237 
  428700    307.72241   -1525.2141    488.03037    350.63375   -72.384962    37401.237 
  428800    294.31863   -1516.2061    509.83637    320.99712   -275.39553    37401.237 
  428900    297.37251   -1488.7271    497.59612    350.00877   -545.33548    37401.237 
  429000    299.41791   -1484.0342    492.15783    358.48815   -227.62601    37401.237 
  429100    300.01864   -1524.4035    531.16049    359.83076   -201.08884    37401.237 
  429200    289.74643   -1506.5597    492.00322    292.18994   -156.76037    37401.237 
  429300    312.69891   -1496.9779    506.55413    419.83755     96.31474    37401.237 
  429400    307.29566   -1513.4498      528.458    400.90104   -62.049942    37401.237 
  429500    299.29169   -1490.1777    523.76323    383.38074    256.39362    37401.237 
  429600    309.45853   -1498.3612    503.81434    401.10045    385.02396    37401.237 
  429700    293.35461   -1487.3502    530.44435    366.11339   -230.35259    37401.237 
  429800    295.34933   -1514.8456    511.44296    328.61263   -203.83961    37401.237 
  429900    295.10052   -1498.8451    486.84143    318.88954    460.48309    37401.237 
  430000     303.1126   -1468.7444    526.04759    424.33059    949.04737    37401.237 
  430100    298.16735   -1476.0264    501.99676     370.6949    1039.4596    37401.237 
  430200    299.27304   -1495.2269    516.05275    370.53701    400.24071    37401.237 
  430300    294.12278   -1517.3949    511.14287    320.23162     79.04135    37401.237 
  430400    308.16791   -1537.1657    497.96302    350.62403    339.69815    37401.237 
  430500    296.10324   -1514.8076    503.29528    323.90312    375.75305    37401.237 
  430600    296.06412   -1521.4525    535.79795     349.5844   -116.28284    37401.237 
  430700    302.79525   -1546.2803    506.11302    325.42891   -223.23091    37401.237 
  430800    301.66693   -1554.7158     533.5571    339.34882   -423.38525    37401.237 
  430900    301.98226    -1487.326    507.18715    381.79076   -491.94106    37401.237 
  431000    304.73902   -1482.4426    492.50093    384.42084   -422.87508    37401.237 
  431100    301.74827   -1462.9892    516.47167    414.35676    197.13498    37401.237 
  431200    305.16097   -1490.1392    511.94977    398.07607    277.88004    37401.237 
  431300    296.38661   -1522.5603    526.77569     340.9088    325.25685    37401.237 
  431400    297.04381   -1509.5145    508.96546     339.1083    365.06866    37401.237 
  431500    292.82526    -1469.355    502.97203    354.24893    78.563711    37401.237 
  431600    295.18242   -1509.9418    478.75002    300.07075    490.29273    37401.237 
  431700    292.10506   -1455.0531    495.14259    357.47321    437.44212    37401.237 
  431800    298.11195   -1475.2297    528.31689    397.56181    87.175237    37401.237 
  431900    298.95602   -1548.5971    492.24171    291.92595    524.31643    37401.237 
  432000    298.68292   -1585.5526     488.8089    250.30597    200.30582    37401.237 
  432100    302.54656   -1548.7779      517.106    332.80269    31.148673    37401.237 
  432200    291.32655   -1499.6063    502.91223    317.17859    -419.1115    37401.237 
  432300    300.55312   -1516.6196    504.16391    343.02855   -150.52201    37401.237 
  432400    303.00022   -1515.8861    520.91695    371.55137   -810.87872    37401.237 
  432500    304.22979   -1539.5903    489.86606    322.34166   -755.92197    37401.237 
  432600    300.41593   -1517.3284    497.54198     335.0791   -535.51909    37401.237 
  432700    303.39468   -1533.3192    498.79126    333.77166   -734.59655    37401.237 
  432800    292.01729   -1542.2341    499.42266     274.1765   -1025.5361    37401.237 
  432900    302.74864   -1526.1754    509.26004    348.47059   -790.93322    37401.237 
  433000    291.92299   -1487.2963    508.58642    337.85278   -580.91376    37401.237 
  433100    299.24906   -1477.7114    500.12324    372.01481   -376.23429    37401.237 
  433200    314.20166   -1531.1104    507.42316    393.35141    -139.6596    37401.237 
  433300    297.50416   -1508.0841    505.35524    339.00472    24.677753    37401.237 
  433400    303.74048   -1473.6181    519.20514    415.44619   -68.828618    37401.237 
  433500    294.28923   -1492.4171    516.84109    351.65832   -278.76069    37401.237 
  433600    302.63302   -1510.4217    496.33039    350.77321   -503.27416    37401.237 
  433700    306.36993   -1463.9479    515.29758    433.06751   -459.60424    37401.237 
  433800    295.53344   -1486.7502    489.36449    335.45991   -458.97438    37401.237 
  433900    288.30391   -1490.9172    481.27562    290.59913   -466.68881    37401.237 
  434000    298.66359   -1547.3656    493.11933    292.71628   -149.70274    37401.237 
  434100    291.17823   -1554.3569    493.53739    252.38435    62.878158    37401.237 
  434200    295.80438   -1496.2212    504.64034    342.48677    763.22038    37401.237 
  434300    315.97875   -1502.7523     491.4873    413.78826     1160.245    37401.237 
  434400     299.2832   -1532.2038    513.28857    330.84167    893.74659    37401.237 
  434500    299.68884   -1470.6768    496.93338     377.8429    294.95882    37401.237 
  434600    298.57064   -1540.2601     491.8191    298.10236   -142.17947    37401.237 
  434700    301.08188   -1515.7276    496.98718    339.12852    38.854455    37401.237 
  434800    301.40205   -1521.8391    475.36006     312.8338    356.35222    37401.237 
  434900     294.9047   -1517.3004     527.5597    340.26933    139.07406    37401.237 
  435000    298.81692   -1534.0731    491.17063     304.7516    821.69201    37401.237 
  435100    300.42838   -1555.1469    510.65289     310.4277    766.63711    37401.237 
  435200    308.06399   -1511.4907    485.44404    363.31137    -71.98732    37401.237 
  435300    303.79215   -1521.2751    492.87351    341.69059    -251.1563    37401.237 
  435400    297.77181   -1500.8893     523.4331    365.48444   -86.366138    37401.237 
  435500    299.31292   -1517.8394    486.66704    318.71862   -65.980526    37401.237 
  435600    293.57499   -1490.1879    507.28699    341.11217   -84.902275    37401.237 
  435700    294.28197    -1491.577    502.40958    338.03415   -74.390924    37401.237 
  435800    297.46214   -1495.9356    493.71749    339.32586    485.96108    37401.237 
  435900    298.37632   -1495.4737    486.55523    336.74848    576.52367    37401.237 
  436000    290.70478     -1502.96     516.3212    324.42975    738.45345    37401.237 
  436100    295.16639   -1467.3698    495.91801    359.73848    628.56791    37401.237 
  436200    307.96358   -1478.2004    502.85887    413.56366    495.03287    37401.237 
  436300    304.85586   -1461.2903    507.51827    421.11741    437.85976    37401.237 
  436400      290.507    -1525.667    499.66256    284.17212    36.239483    37401.237 
  436500    298.44876   -1503.3642    517.61704    360.24645   -40.777514    37401.237 
  436600    305.21915   -1480.1454    496.47149      392.854   -413.70273    37401.237 
  436700    308.27461   -1473.7435    508.07834    424.64276   -952.79831    37401.237 
  436800    301.40223   -1505.5913    502.23025    355.95266   -413.15163    37401.237 
  436900    299.57622    -1496.244     489.4448    344.27921   -471.71509    37401.237 
  437000    304.14204   -1480.4944    501.28219    392.45795     -51.6736    37401.237 
  437100    307.72543   -1472.6837    500.28958    415.43699   -238.72382    37401.237 
  437200    302.72561   -1485.0153    493.99874     374.2655   -84.244918    37401.237 
  437300    307.33079   -1519.2239    529.63606    396.46344   -290.54623    37401.237 
  437400    302.42284   -1435.6707     488.4452    416.69111   -318.11851    37401.237 
  437500    297.07217   -1429.1472    511.49863    422.13676   -360.94553    37401.237 
  437600    295.36582    -1435.615      494.749    391.22373   -752.46439    37401.237 
  437700    303.74531   -1451.9402    499.70913    417.64985   -905.95593    37401.237 
  437800     302.6474   -1445.6085    483.47171    402.79255   -233.71777    37401.237 
  437900    294.31139   -1481.9733    497.32951    342.69043     274.7492    37401.237 
  438000    308.61888   -1428.8493    531.29204    494.30333    1092.8656    37401.237 
  438100    295.83929   -1481.9449    500.25569    352.53582    324.38484    37401.237 
  438200    299.79253   -1486.8766    508.32898    373.50641     454.6626    37401.237 
  438300    297.55715   -1459.4247    472.81532    355.36317    58.391891    37401.237 
  438400       297.19   -1432.0408    490.72375    398.99958    2.8259943    37401.237 
  438500    300.46702   -1487.4298    499.71563    367.38176    209.16394    37401.237 
  438600    294.22537   -1491.3161     489.7651    325.39533     268.9594    37401.237 
  438700    294.23349    -1467.657    528.35332    387.67925    471.49094    37401.237 
  438800    288.46296   -1484.1214    496.77516    313.61174    70.393137    37401.237 
  438900    288.18164   -1469.2381    513.73765    344.18886    11.784411    37401.237 
  439000    302.13943   -1431.4292    501.77031    432.97958   -304.27867    37401.237 
  439100    305.84123   -1462.0141    496.93527    414.25456   -279.88073    37401.237 
  439200    303.90051   -1465.0128    496.18688    401.75489   -115.24289    37401.237 
  439300    314.31253   -1480.2902    493.94233    431.19083   -246.90941    37401.237 
  439400    285.52038   -1491.1064    512.81639    309.39711   -163.38136    37401.237 
  439500    309.42634   -1506.1598    489.85445    379.19678   -93.591536    37401.237 
  439600     303.6446   -1496.3001    493.20985    366.33647    161.42229    37401.237 
  439700    303.44374   -1478.8808       481.25    370.89005     527.8476    37401.237 
  439800    297.91996   -1461.5155    535.87626    417.96951    11.097258    37401.237 
  439900    299.06171   -1435.5506    504.16552    417.37296    -169.2199    37401.237 
  440000    308.01185   -1454.4757    517.59598    452.24315   -556.39404    37401.237 
  440100    294.65265   -1479.6245    516.75284     366.0016   -681.39699    37401.237 
  440200    299.83908   -1478.2507    500.48349    374.49671   -715.54035    37401.237 
  440300    303.04004   -1456.1398    515.51245    426.07278   -110.20304    37401.237 
  440400     291.8077   -1475.9901    503.36755    343.42019   -1006.0176    37401.237 
  440500    297.68188   -1486.7969    504.03069     359.7688   -542.94252    37401.237 
  440600    304.57885   -1507.5274    499.46431    365.57709     -281.069    37401.237 
  440700    313.46621   -1499.0224    499.19652    413.89591    101.40543    37401.237 
  440800    300.51654   -1496.2162    502.49857    361.60162    10.993294    37401.237 
  440900    304.94749    -1492.039    487.94449    371.20816    81.189734    37401.237 
  441000    294.43568   -1495.1527    501.10136    333.84349    8.9643219    37401.237 
  441100    300.77487   -1479.7536    504.59331      381.324   -74.826651    37401.237 
  441200    303.64888   -1587.2917    480.23737    262.39161   -546.87337    37401.237 
  441300    294.51333   -1569.0757    487.83186    247.00113   -13.772002    37401.237 
  441400    302.14536   -1504.0798    489.29741     347.8828   -144.94443    37401.237 
  441500    299.67749   -1555.9836    499.94349     295.4951    142.20349    37401.237 
  441600    302.25022   -1515.1497     479.4121    327.40052   -290.58084    37401.237 
  441700    302.69777   -1540.6789    493.39517    317.87282   -66.784002    37401.237 
  441800    294.13733   -1496.5631    500.74021    330.72635    257.68119    37401.237 
  441900       309.27   -1540.2025    459.49226    314.08684    173.65403    37401.237 
  442000    296.33778   -1510.8334    499.52115    325.16097     349.0427    37401.237 
  442100     303.7788    -1534.825    506.99832    342.20529    747.87237    37401.237 
  442200    303.98428    -1537.636    518.05252     351.3752    11.507869    37401.237 
  442300    312.92402   -1514.1632     507.1599    404.27325    -192.6103    37401.237 
  442400    301.81741   -1491.0489      490.103    360.24021    380.63249    37401.237 
  442500    292.99762   -1541.3476    520.39483    300.45638    597.19506    37401.237 
  442600    297.36302   -1491.9212    494.23361    343.40946   -425.47533    37401.237 
  442700    286.42787   -1447.0846    510.06247    354.75767   -822.15224    37401.237 
  442800    304.99598   -1464.0286    499.28105    410.77387   -109.89798    37401.237 
  442900    294.67721   -1486.3728    502.85908    345.47034   -408.15972    37401.237 
  443000    292.82065   -1491.9765    513.43491    342.06952    262.28767    37401.237 
  443100    292.08163   -1464.1691    516.96017    370.06922    424.51769    37401.237 
  443200    308.42951   -1452.8538    498.01896    436.17162     521.4334    37401.237 
  443300    300.82337   -1488.8227    501.79721    369.67758    -350.7926    37401.237 
  443400     309.6617   -1477.7028    498.74709    417.60785   -614.52246    37401.237 
  443500    296.76235   -1455.7987    502.33406    384.92336   -480.41178    37401.237 
  443600    299.61638   -1471.1303     507.4125     387.5418   -815.84128    37401.237 
  443700    296.19301    -1493.594    520.71567    362.94194   -557.48037    37401.237 
  443800    303.80086   -1432.3186    484.96689    422.77973   -475.05689    37401.237 
  443900    308.70966   -1407.2214    502.26299    487.31155   -626.81784    37401.237 
  444000    320.96701   -1441.7212    528.90607    534.73506    345.13201    37401.237 
  444100    298.79111   -1452.5137    512.63791    407.66179    180.83461    37401.237 
  444200    298.84032   -1467.9506    526.15867    405.96761    625.39826    37401.237 
  444300    296.63003    -1492.008    493.59863    339.38185    677.03001    37401.237 
  444400    303.14941   -1479.5967    489.84934    377.44605     173.7783    37401.237 
  444500     297.3997   -1463.2199    520.42259    398.46505   -104.30841    37401.237 
  444600    289.32554   -1484.4945    492.67908    313.03283    202.60037    37401.237 
  444700    291.51971   -1452.3788    518.00031    380.36533   -478.55593    37401.237 
  444800    311.51826   -1479.7291    473.19449    398.40199    449.20699    37401.237 
  444900    304.62269   -1476.1519    466.62081    364.30678    427.95144    37401.237 
  445000    309.13952   -1484.3817    497.16742    406.99427    391.77106    37401.237 
  445100    301.28541   -1443.5842    530.34528     445.5479    757.13269    37401.237 
  445200    285.79117   -1451.4491    495.67148    333.13077    795.62175    37401.237 
  445300      293.449   -1437.1645    525.66941    411.94983    517.30452    37401.237 
  445400     310.0164   -1484.7283    491.89502    405.33001    192.71815    37401.237 
  445500    297.40227   -1479.7028     491.4547    353.02586   -64.111808    37401.237 
  445600    297.57218   -1431.9714    525.69019     435.7591    7.4018087    37401.237 
  445700    299.47678    -1421.701    515.27103    444.20002    -257.8291    37401.237 
  445800    300.49695   -1398.8502     519.7218    476.10255    407.23459    37401.237 
  445900    294.95263   -1447.6969    496.45139    378.98074    455.65181    37401.237 
  446000    307.87752   -1458.9399    525.68719    455.26429    409.58664    37401.237 
  446100    294.61434    -1437.959    491.01199    381.75353    203.21191    37401.237 
  446200    309.95717   -1493.6462     496.3699    400.61984    266.75174    37401.237 
  446300    306.87029   -1473.0605       512.72    423.63394    356.00891    37401.237 
  446400    306.45852   -1466.2228    481.07873     396.9733   -263.84386    37401.237 
  446500     310.9725   -1477.6892    517.22589    442.01194    17.305835    37401.237 
  446600    300.22094   -1463.6683    500.31204    390.62985    641.34324    37401.237 
  446700    304.53239    -1472.395    484.73275    385.76838    -263.8817    37401.237 
  446800    290.62113   -1458.8407    472.46367    324.31427   -440.59746    37401.237 
  446900     296.6711   -1421.6673    512.88808    429.19723    10.654988    37401.237 
  447000    298.58017   -1457.4416    513.44266    402.58734   -190.81204    37401.237 
  447100    290.16786   -1469.7552    505.38674    344.27858   -141.06237    37401.237 
  447200    304.86762   -1495.6336    475.71364    355.02255    187.91133    37401.237 
  447300     292.8585   -1486.8648    460.80333    294.72029   -503.86896    37401.237 
  447400     296.0867   -1459.7825    522.32801    397.88634   -887.12823    37401.237 
  447500    307.23995   -1461.3146    479.17213    403.49919   -1216.6254    37401.237 
  447600    300.23287   -1458.7111    502.28602    397.61477   -1061.1961    37401.237 
  447700    301.13279   -1466.1743    506.65994    398.58414   -960.13875    37401.237 
  447800    291.50845   -1476.0566    469.93833    308.57482   -350.35376    37401.237 
  447900    283.88806   -1485.8556    517.11338    311.58315   -804.33793    37401.237 
  448000    289.39429   -1489.1323    470.24043    286.26646   -93.708768    37401.237 
  448100     290.1966   -1511.7922    493.49983    290.48428   -781.51071    37401.237 
  448200    304.91397   -1459.9735    497.78531    412.96335   -486.87032    37401.237 
  448300    303.55171   -1442.6673      481.492     407.8325   -785.18115    37401.237 
  448400    297.13146   -1410.4135    500.74935    430.38846   -928.34206    37401.237 
  448500    284.78842   -1439.4884    509.54188    354.43943   -1036.0991    37401.237 
  448600    296.39593   -1457.9381    460.86766    339.66499   -783.36148    37401.237 
  448700    300.31596   -1480.4541    511.13159    385.09213   -1052.4396    37401.237 
  448800     294.8324   -1468.3298    483.31941    344.67361   -255.91349    37401.237 
  448900    295.80283   -1475.6318    495.78745    354.21621   -268.73671    37401.237 
  449000    309.15279    -1449.898    502.37952    446.75001   -119.28629    37401.237 
  449100     308.1552   -1474.3774    495.56275    410.95471   -408.38782    37401.237 
  449200    295.50163   -1469.6079     506.8278    369.92203   -426.93561    37401.237 
  449300    306.11413   -1436.2406    502.43266    446.75623   -536.12443    37401.237 
  449400    300.17526   -1437.0788    502.17156    418.87291   -306.72177    37401.237 
  449500    296.84657   -1430.1443    471.66794    380.29149   -291.81066    37401.237 
  449600    293.43046   -1447.3559    510.97899    386.98442    -192.5039    37401.237 
  449700    295.42972   -1400.5754    492.83196    424.63448    12.144977    37401.237 
  449800    305.92374   -1433.5836    531.64804       477.77     383.0817    37401.237 
  449900    289.15625   -1467.5425    512.45846     349.0007    653.92791    37401.237 
  450000    295.63724   -1479.6508    484.06359    337.72657    453.70528    37401.237 
  450100    300.44576   -1452.8206      484.508    386.68744    309.90756    37401.237 
  450200    302.76569   -1447.4988    517.15045    435.11448    74.312579    37401.237 
  450300    306.57611   -1464.7856      511.313    429.17511     703.1082    37401.237 
  450400    302.89697   -1488.2662    489.33122    367.11992    770.28283    37401.237 
  450500    310.37715   -1469.0637    496.34985    427.07636    933.83082    37401.237 
  450600    305.58456   -1452.1982    508.11942    434.09712     113.5419    37401.237 
  450700    308.28359   -1424.1108    510.72584    476.96348   -389.99586    37401.237 
  450800    294.34359   -1449.8446    467.09845    344.73329   -525.84366    37401.237 
  450900    297.87019   -1491.1321    513.13386     365.3861    564.52804    37401.237 
  451000    303.10176   -1449.1564    516.02487    433.84695     701.1265    37401.237 
  451100    294.06032   -1458.9042    501.50677    368.80447    762.88688    37401.237 
  451200    302.04762   -1440.5417    511.25523    432.93789    977.56714    37401.237 
  451300    290.99544   -1486.0809    493.37546    319.67395    571.18751    37401.237 
  451400     305.4617   -1464.0815    538.34897    451.88926    782.27589    37401.237 
  451500    293.61786   -1469.2639    490.89255    345.83508    430.43402    37401.237 
  451600    296.59328   -1473.5439    524.06297    388.14458    634.49157    37401.237 
  451700    308.43718   -1421.0989    494.30916    464.25135    669.33141    37401.237 
  451800    301.87256   -1446.8928    507.67052    422.21258    679.16995    37401.237 
  451900    307.63766   -1449.2056    534.38072    472.61038    397.66486    37401.237 
  452000     299.9068   -1455.2776    488.67759    385.96937    734.31444    37401.237 
  452100    301.87867   -1467.3296    491.16354    385.29638    762.75648    37401.237 
  452200    300.97191   -1474.3827    489.03846     372.0287    816.40105    37401.237 
  452300    300.55465    -1485.719    488.95711    358.72927    723.28348    37401.237 
  452400    306.17465   -1502.8375    472.77931    350.77894    891.37179    37401.237 
  452500    306.20266   -1440.0058     487.2682    428.22585   -278.74436    37401.237 
  452600    301.50815   -1493.0623    493.22644    359.95552   -257.93689    37401.237 
  452700    300.97788   -1461.9696    480.96953    376.39985   -640.36802    37401.237 
  452800    303.95298   -1449.7613    519.84575    440.90195   -316.55773    37401.237 
  452900    297.39473   -1481.5621    478.89676    338.57465   -499.48984    37401.237 
  453000    304.83486   -1439.3078     527.3769    462.86387   -20.092576    37401.237 
  453100    298.10875   -1479.8772    502.53764    367.12063    19.524246    37401.237 
  453200    299.74435   -1478.1655    481.86776    355.53891   -3.4972343    37401.237 
  453300    294.42853   -1477.0799    472.69299    323.47564    552.47605    37401.237 
  453400    309.55772   -1441.8009    510.94591     465.2397   -637.93604    37401.237 
  453500    294.79664   -1432.4591    438.38812    335.45168   -378.43847    37401.237 
  453600    303.10647   -1403.8942    515.14208    478.24761    2.8245403    37401.237 
  453700    303.59352    -1421.265    513.63889    461.57022    216.67368    37401.237 
  453800    301.58588   -1424.9281     479.0304    414.24424    582.44712    37401.237 
  453900    303.15557   -1427.9032    487.39016    426.70815    73.024231    37401.237 
  454000    306.59529   -1420.9774    497.72322    459.48007     390.8204    37401.237 
  454100    293.43164   -1440.5339    470.18839    353.02108    296.90649    37401.237 
  454200    300.92461   -1454.7523    492.73247    395.13982   -614.74565    37401.237 
  454300    303.56374   -1453.2327    470.74784    386.57721   -113.51465    37401.237 
  454400     300.9499   -1442.5727    472.63555    387.33656    223.06033    37401.237 
  454500    302.90487    -1429.784    481.55388    417.86044   -175.24226    37401.237 
  454600    297.03029   -1402.2881    498.97879    436.28712   -198.80466    37401.237 
  454700    289.98735   -1482.7748    485.57801    310.63615   -963.78158    37401.237 
  454800     299.0185    -1480.041    482.25444     350.7766    -994.9462    37401.237 
  454900    295.62255   -1489.6699    486.21665    329.79422   -555.40214    37401.237 
  455000    303.02143   -1523.2644    495.18666    338.53849   -144.42525    37401.237 
  455100    304.66422   -1517.0209     463.8567     320.8609   -451.34418    37401.237 
  455200    300.18621   -1499.3015     464.7949    319.32289    -331.2322    37401.237 
  455300    299.43882   -1485.3299    509.38809    374.51699   -858.54201    37401.237 
  455400    297.44486   -1458.8632    486.15918     368.7621    -1118.166    37401.237 
  455500    288.79633   -1441.2818    507.43874    368.61846   -779.22202    37401.237 
  455600    308.19867   -1469.5712    487.20745    407.60164   -432.78341    37401.237 
  455700    308.05167   -1479.5319     494.3961    404.16663   -407.46297    37401.237 
  455800    297.04863   -1439.9516      505.822    405.54951   -137.97043    37401.237 
  455900    309.54462   -1449.7136    460.97018    407.29216   -214.39854    37401.237 
  456000    293.08112   -1430.3661    475.07074    366.49041   -216.18655    37401.237 
  456100    297.83609   -1409.0273     495.3178      429.521   -857.21951    37401.237 
  456200    306.46608   -1411.3229    490.12526    460.95382   -337.12583    37401.237 
  456300    304.66723   -1458.0434    479.82168    395.81701    163.83237    37401.237 
  456400    297.07488   -1418.9521    497.16922    418.01463    450.10852    37401.237 
  456500    301.74291   -1441.6025    512.10289    431.35047   -180.34531    37401.237 
  456600    295.83359   -1514.6514    495.29164    314.83949    122.33961    37401.237 
  456700    309.00304   -1431.6182    511.24168    473.21653   -363.91452    37401.237 
  456800      303.748   -1451.2019    444.70558    363.39671   -446.01432    37401.237 
  456900     308.4431   -1472.3801    479.83842    398.52611   -496.10583    37401.237 
  457000    299.66839   -1466.2323    490.02097    375.28281   -545.28165    37401.237 
  457100    286.06289   -1442.3251    520.54334      368.352   -489.10743    37401.237 
  457200    307.97517   -1457.3489    501.31795    432.92642   -39.621806    37401.237 
  457300    295.64358   -1470.5117    479.34379    342.17444   -113.40505    37401.237 
  457400    299.99396    -1435.576    492.74108    410.12757   -588.05314    37401.237 
  457500    290.53723   -1452.8306    497.11437    354.59663   -315.65972    37401.237 
  457600    303.99369   -1450.0928    486.40517    407.31342   -386.58362    37401.237 
  457700    302.26118   -1436.8095    513.87611    440.25415   -412.30284    37401.237 
  457800    301.55324    -1445.579    504.87804    419.29375    -8.822269    37401.237 
  457900    309.10003   -1426.4074    499.12092    466.74404   -302.34485    37401.237 
  458000    293.45257   -1478.0698    465.77216    311.16341    144.82144    37401.237 
  458100    303.04111   -1464.6664    509.62509    411.66365   -595.47736    37401.237 
  458200    303.82634   -1477.3351    502.69468    395.60593   -722.48991    37401.237 
  458300    302.87186    -1424.715    494.50263    435.72932   -270.47415    37401.237 
  458400    304.12898   -1386.4685    493.39843    478.54115   -164.68604    37401.237 
  458500     308.6377    -1409.487    493.75958    476.21796     317.5065    37401.237 
  458600    297.82067   -1407.0484    496.68545    432.79806   -800.00709    37401.237 
  458700    303.49832   -1401.2926     506.0946    473.56896   -278.00512    37401.237 
  458800    296.00567   -1398.2465    509.89072    446.61956   -469.70274    37401.237 
  458900    299.69808   -1444.7943    515.61536    422.44911   -228.90554    37401.237 
  459000    313.32902   -1469.9971    505.61765    448.72367   -107.84488    37401.237 
  459100    297.71425    -1489.285    472.75743    326.15344   -231.65872    37401.237 
  459200    300.58038   -1489.4082    505.42809    371.62705    103.89292    37401.237 
  459300    309.61868   -1470.1471    525.85199     452.0745    303.54489    37401.237 
  459400    291.37648   -1432.6769    488.72707    370.14803    219.99638    37401.237 
  459500    300.16526   -1446.0558    516.22018     423.8994    -335.2656    37401.237 
  459600    320.06707   -1447.1906    492.04285    488.34372   -615.03799    37401.237 
  459700    302.88314   -1435.6888    529.90199    460.20575   -410.38528    37401.237 
  459800    296.76643   -1455.6073    486.10519     368.9043   -300.30303    37401.237 
  459900    294.34225   -1425.5956    518.24703    420.12487   -677.53655    37401.237 
  460000     306.1771   -1424.8037    512.68084    468.72532   -201.74203    37401.237 
  460100    297.87723   -1446.9926    498.63169    395.05516   -29.003074    37401.237 
  460200    290.67899   -1400.4985    516.40624       426.86    361.18083    37401.237 
  460300    302.00522   -1455.4882    491.43622    397.98113   -138.75776    37401.237 
  460400    290.78729   -1437.4472    494.12848    368.12195   -68.170251    37401.237 
  460500    302.42988   -1429.3905    513.31447    447.87236    176.24547    37401.237 
  460600    287.70164   -1441.0284    527.55946    384.05557   -192.88386    37401.237 
  460700    297.53689   -1433.1294    514.30965    423.06142   -478.55286    37401.237 
  460800    301.37523    -1418.712    494.60641    435.08636   -712.25105    37401.237 
  460900    306.92722   -1436.5861    518.24192    465.88708   -634.41303    37401.237 
  461000    304.70348   -1452.3994    500.93659    422.73943   -452.17558    37401.237 
  461100    297.61998   -1462.7417    489.28603    368.80023   -181.23797    37401.237 
  461200    317.79349     -1437.38    521.20228    517.05996   -546.64158    37401.237 
  461300    308.91934   -1461.4983    509.57573      441.293   -461.03721    37401.237 
  461400    299.66757   -1486.4074    500.89034    365.97337    14.062661    37401.237 
  461500      309.246    -1424.002     481.5335     452.2203    390.81093    37401.237 
  461600    289.17547   -1457.6212    512.26871    358.81896   -212.80857    37401.237 
  461700    300.02375   -1460.8552    498.07433    390.31587   -201.48456    37401.237 
  461800    304.30961   -1480.4508    464.28508    356.26018    173.78455    37401.237 
  461900    301.18832   -1458.5336     495.3828    395.19815    344.24594    37401.237 
  462000    298.29838   -1490.5439    479.51356    334.28515    390.98109    37401.237 
  462100    291.35817   -1495.4212    487.17492      305.769    510.70309    37401.237 
  462200    289.99627   -1457.8563    520.77644    370.79339    361.20613    37401.237 
  462300    296.53837   -1409.0975    494.96672     423.2471    405.21355    37401.237 
  462400    293.24187    -1450.123    536.93863    409.32638   -9.7148733    37401.237 
  462500    302.60732   -1410.4639    495.03332      449.318    109.80124    37401.237 
  462600    305.32109   -1412.9409    496.97578    461.02253    85.158399    37401.237 
  462700    299.76722   -1457.5402    514.98846    409.38807    671.02813    37401.237 
  462800    295.33007   -1513.7045    536.22605    354.44997    197.99521    37401.237 
  462900    295.41949   -1473.4687    512.78662    371.64967     358.9465    37401.237 
  463000    309.55059   -1463.5634    508.05691      440.556    -121.9492    37401.237 
  463100    297.16497    -1449.742    510.85502    401.31679    -48.69263    37401.237 
  463200    302.82599   -1525.6608    476.50141    316.57542   -182.77727    37401.237 
  463300    306.03894   -1484.8466    502.64466    398.02313   -84.908255    37401.237 
  463400    294.69292   -1494.1308    525.95205    360.87619   -174.49362    37401.237 
  463500    300.80442    -1472.277    495.84565    380.18622    2.2494452    37401.237 
  463600    312.50143   -1471.3164    496.15104    434.20534    517.71071    37401.237 
  463700    308.23054   -1446.8105    533.82647    477.12514    275.69744    37401.237 
  463800    290.08442   -1450.8938    505.48134    362.85833    141.90829    37401.237 
  463900    305.63656   -1466.0402    488.10019    400.47033    883.59014    37401.237 
  464000    309.50423   -1493.5093    520.27148     422.6156     1235.469    37401.237 
  464100    297.60126   -1492.0684    508.34037    358.44343    424.61209    37401.237 
  464200    302.10531   -1477.8987     490.7653    375.35116    990.90974    37401.237 
  464300    293.58412   -1529.7058    513.58888    307.93738    687.92347    37401.237 
  464400    297.25659   -1498.8954    531.98804    373.70963    292.88939    37401.237 
  464500     296.4857   -1483.4068    499.31199    353.04545   -196.34061    37401.237 
  464600     291.3486   -1508.0792    499.55812    305.45113    247.68024    37401.237 
  464700    306.61216   -1485.3869    505.40647    402.82988    361.03886    37401.237 
  464800    296.59853   -1469.8637    494.02632    361.81173   -380.62596    37401.237 
  464900    294.53098   -1509.9562    538.51739    356.88574   -134.21308    37401.237 
  465000    299.61453   -1471.5672    507.66052    387.34449    588.68052    37401.237 
  465100    302.39692   -1481.9739    511.85271    393.67853    352.48489    37401.237 
  465200    307.12755   -1478.7239    533.15255    439.56338    593.27175    37401.237 
  465300     300.0283   -1532.7034    498.01853    318.43247    980.14383    37401.237 
  465400    293.64873    -1492.243    525.16852    357.27119     258.4591    37401.237 
  465500    297.29298   -1479.4177    513.47749    374.84085    816.29674    37401.237 
  465600    310.78631   -1513.0392    527.02537    415.62179    642.89185    37401.237 
  465700    289.36919   -1495.5617     494.3817    303.86507    859.64692    37401.237 
  465800    294.35655   -1479.3654    508.11508    356.28755    591.76699    37401.237 
  465900    302.79607   -1520.1613    503.61752    349.05614    -264.4821    37401.237 
  466000    305.83229   -1498.7071    487.49122    368.07724   -234.44463    37401.237 
  466100    298.20698   -1459.4454    520.26951    405.72737    142.47007    37401.237 
  466200    300.71455   -1464.1273    528.24192    420.32692    -200.6547    37401.237 
  466300    299.40126   -1475.2877    505.30283    380.30449   -223.48275    37401.237 
  466400    293.70689   -1490.0593    491.08229    325.63093   -100.75778    37401.237 
  466500    305.60519   -1516.8614    506.95829    368.36582    309.00886    37401.237 
  466600     303.5961   -1508.4999    491.75859    352.46666   -130.58913    37401.237 
  466700    299.47116    -1475.531    494.29871    369.37233   -105.37119    37401.237 
  466800    296.59859   -1481.7189    499.47149    355.40205   -816.45707    37401.237 
  466900    305.85612   -1510.6261    516.98248    385.75694   -173.82757    37401.237 
  467000    299.92687   -1487.4572      490.923    356.12564   -300.56108    37401.237 
  467100    303.72529   -1485.3843    490.49198    374.89826   -424.54018    37401.237 
  467200    291.85385   -1498.3675    524.02507     341.9084   -36.456117    37401.237 
  467300    308.48994   -1477.8161    518.20451    431.66747   -224.21207    37401.237 
  467400    301.31929   -1476.5975    498.23002    380.57219    109.07551    37401.237 
  467500    306.80347   -1491.5067    521.38462    413.55102    -325.5115    37401.237 
  467600    305.67178   -1462.7493    500.15225    415.97216   -205.53653    37401.237 
  467700    302.17332   -1471.5608    491.22167    382.45216   -208.16609    37401.237 
  467800    299.00074   -1472.4991    489.78264    365.76666   -589.15473    37401.237 
  467900    304.77431   -1491.1463     483.7484     367.1238   -867.26776    37401.237 
  468000    312.02672   -1462.8543    518.83767    463.21311   -386.00115    37401.237 
  468100    302.20344   -1491.1344    524.95011     396.7428    95.715204    37401.237 
  468200    291.28966   -1410.0846      541.136    444.75781    512.28809    37401.237 
  468300    301.45929    -1433.664     514.4264    440.33349   -188.15738    37401.237 
  468400    294.41585        -1450    476.64914    354.45447   -149.32151    37401.237 
  468500     294.4466   -1415.0448    507.58332    420.48252   -213.81753    37401.237 
  468600    295.14973   -1424.4075    514.35982    421.06744   -291.86961    37401.237 
  468700    307.41398   -1452.8681    515.53686    449.09529   -172.45516    37401.237 
  468800    308.75454   -1446.6528    491.15049    436.97006   -372.62084    37401.237 
  468900    294.79118   -1417.4253    524.86326    436.93603   -277.60848    37401.237 
  469000    298.90476   -1470.1602    521.03473    398.92473   -335.11235    37401.237 
  469100    296.35119   -1484.7375    527.91828    379.71439   -336.77827    37401.237 
  469200    295.10581   -1506.7645    502.70335    326.85589   -52.705718    37401.237 
  469300    295.33528   -1498.2548    497.50663    331.20377    211.57089    37401.237 
  469400    291.76908   -1446.0972    514.68389    384.45516   -349.81891    37401.237 
  469500    302.21983   -1485.1655    502.14844    379.98394    284.36226    37401.237 
  469600    297.38257    -1497.896    500.26406    343.55324     201.0104    37401.237 
  469700    299.46476   -1524.2422    508.84362    335.17717   -43.569896    37401.237 
  469800    307.94106    -1520.638    499.10861    367.27421   -608.15478    37401.237 
  469900    303.54808   -1529.1343    459.42616    299.28323    -353.1722    37401.237 
  470000    293.26375   -1473.8737    509.65108    358.38679   -939.57485    37401.237 
  470100      294.106   -1487.4357    511.17576    350.14801   -103.90593    37401.237 
  470200    297.59072   -1523.0618    511.99193    331.05401    251.45701    37401.237 
  470300    301.97816   -1513.7113    507.23032    355.43009    72.163925    37401.237 
  470400    306.94343   -1533.7394    498.88165    349.44657    275.06238    37401.237 
  470500    295.52286   -1523.8015    475.67848    284.67493   -56.676615    37401.237 
  470600    304.81281   -1489.6057    501.00574     386.0953    593.77345    37401.237 
  470700    303.23471   -1519.3833     487.3413    335.53611    279.77329    37401.237 
  470800    305.88039   -1554.8966    489.45667    314.07008    428.23236    37401.237 
  470900    311.88334   -1532.8926    499.90765    373.59817    638.79701    37401.237 
  471000    302.59274   -1517.2802    501.83538    349.23802    873.99283    37401.237 
  471100     298.0926   -1512.2019    538.39062    370.57613    70.865153    37401.237 
  471200    303.00091    -1528.833    477.47795    315.16865   -44.446875    37401.237 
  471300    304.05135   -1504.3459    489.55755    356.47276    305.37745    37401.237 
  471400    303.56357   -1500.8933    502.06381    370.23178   -167.38762    37401.237 
  471500    313.73141   -1512.1574    486.76231    389.52275   -189.42231    37401.237 
  471600    298.81418   -1524.7557    472.05081    294.93677   -567.27826    37401.237 
  471700    304.21652   -1499.6485    502.48257    374.84014   -95.423601    37401.237 
  471800    308.09079   -1531.9383    495.80116    353.34168    119.98484    37401.237 
  471900    298.43523   -1479.8497     508.8889    374.97185   -11.354418    37401.237 
  472000    301.81673   -1489.8699    527.53285    398.84597    105.50866    37401.237 
  472100    298.32443    -1487.304    482.62558    340.75455   -45.932774    37401.237 
  472200    302.63823   -1451.2076    505.11466     418.7951   -86.538842    37401.237 
  472300    307.53849   -1478.9806    513.90374    421.91113   -200.59876    37401.237 
  472400    300.48346   -1433.6996    490.31105    411.78154   -746.57778    37401.237 
  472500    285.05571   -1464.7641    531.55588    352.38318   -600.13146    37401.237 
  472600    289.24582   -1463.5836    510.85049    351.75555   -450.94595    37401.237 
  472700    308.08071   -1461.6936    508.41129    436.15113   -224.80371    37401.237 
  472800    301.28829   -1466.9085      522.886    414.77726   -238.60265    37401.237 
  472900    309.47803   -1475.2042    494.65425    415.18529   -478.31826    37401.237 
  473000     307.4363   -1468.3254    503.96674     422.1685   -1003.4778    37401.237 
  473100    315.38059   -1492.0314    490.92543    421.24966   -635.42218    37401.237 
  473200    294.98538   -1470.0459    499.05336     359.3814   -646.87533    37401.237 
  473300    289.07493   -1455.4413    505.96216    354.23883   -108.88865    37401.237 
  473400    302.82638   -1437.4729    493.35656    421.62019    513.35878    37401.237 
  473500    298.73902   -1501.6841    491.98491    337.60353     128.0968    37401.237 
  473600    293.17915   -1506.1147    511.94484    328.05806   -81.743199    37401.237 
  473700    298.50131   -1451.8836    493.11252    387.45953    26.242255    37401.237 
  473800    309.40773   -1450.0562    498.06093    443.42294   -258.72634    37401.237 
  473900    312.12064   -1443.0144    521.93729    486.57623    97.109907    37401.237 
  474000    308.56454   -1472.1357    493.24511    412.72486    149.44204    37401.237 
  474100    300.55251   -1491.0565    508.32394    372.74892     502.6093    37401.237 
  474200     295.3544   -1482.5963    503.75617    353.19809   -68.522822    37401.237 
  474300    308.65813    -1480.648    498.20932    409.59887   -167.13669    37401.237 
  474400    298.15929   -1498.8517    484.83475    330.67114   -85.797967    37401.237 
  474500    297.96701   -1504.1643     512.3358     351.9925   -445.61812    37401.237 
  474600    300.41561   -1483.5334    488.65781    359.98844   -484.51834    37401.237 
  474700     295.0828   -1493.2084    506.92897    344.53388    123.22955    37401.237 
  474800    301.33332   -1485.2686    502.17381    375.90809   -196.30898    37401.237 
  474900     297.5762   -1512.7115    504.94441    334.29138   -349.98511    37401.237 
  475000    293.69089   -1486.0397      487.056    325.55215    223.83762    37401.237 
  475100    306.99464   -1449.6346    489.23823    424.13888    481.15195    37401.237 
  475200    295.32893   -1509.3963    472.74566    295.27265   -430.54035    37401.237 
  475300    294.16821   -1502.2242    471.84715    296.31144   -533.38352    37401.237 
  475400    303.92173   -1496.9254    505.71395    379.46507   -194.79894    37401.237 
  475500    306.64781   -1515.4424    478.79967     346.3284   -115.26079    37401.237 
  475600    298.37466   -1522.4698    492.45921    315.64881   -351.25942    37401.237 
  475700    292.94632   -1497.8248    497.13396    320.48697   -232.39754    37401.237 
  475800    302.92183   -1474.5939    491.65147    383.22467   -90.595625    37401.237 
  475900    297.71917   -1462.3903    479.84622    360.15914     -276.777    37401.237 
  476000    285.06397   -1455.1569    534.33912    364.81087   -112.23932    37401.237 
  476100    291.98664   -1498.4583    485.22915    303.62051   -614.84472    37401.237 
  476200    305.92614   -1523.0277    511.26128    367.94997    285.11808    37401.237 
  476300    305.14284   -1479.7696    508.56012    404.97423    707.27225    37401.237 
  476400    308.86403   -1537.5737    507.74478    363.13721    762.65202    37401.237 
  476500    304.98299   -1499.2855    518.26682     394.4441    320.07443    37401.237 
  476600     301.8937   -1504.2196    495.55577     352.8664    273.27741    37401.237 
  476700    299.19042   -1496.2406    526.71968    379.81763   -614.37844    37401.237 
  476800    309.92022   -1529.5833    491.35333    359.49953   -489.99335    37401.237 
  476900    304.67718    -1497.045    510.47262    387.51122   -85.330715    37401.237 
  477000    304.78016   -1524.7823    513.64136    363.40709   -571.15265    37401.237 
  477100    300.24721   -1481.7112    484.20018    356.59352    373.56341    37401.237 
  477200    302.58173   -1507.0964    508.19894     365.7357    853.45302    37401.237 
  477300    297.61455   -1549.6461    515.32108    307.90639    707.11939    37401.237 
  477400    294.27344   -1531.4891    516.13308    311.80707    314.97878    37401.237 
  477500     296.1091   -1504.1857    494.16499     325.4212    80.609631    37401.237 
  477600     303.4489   -1485.9618    496.54455    379.12684   -327.63203    37401.237 
  477700    304.19203   -1511.3323     499.2083    359.77161    470.68569    37401.237 
  477800    301.74977   -1526.3807     497.7028    332.20314    399.48597    37401.237 
  477900    317.23147    -1458.421    491.33824    463.62022    6.2310717    37401.237 
  478000    302.39163    -1492.479     517.6399    388.93679   -219.92928    37401.237 
  478100     306.8882   -1504.7531    484.64094    363.94306   -519.45311    37401.237 
  478200    298.14815   -1509.8141    539.56342    374.38724    -261.0158    37401.237 
  478300    297.86598   -1532.2539    445.34593    256.45731     294.3955    37401.237 
  478400    300.52619   -1498.6234    520.79448    377.53386     264.3296    37401.237 
  478500    309.57128   -1511.6252    483.60867    368.13929    615.70503    37401.237 
  478600    310.63304   -1531.0737    510.58417    380.45477    908.60921    37401.237 
  478700    297.34337   -1488.6538    509.57447    361.92902    762.93086    37401.237 
  478800     289.8295   -1498.1885    513.29067    322.22321    185.48515    37401.237 
  478900     294.7877   -1473.2097    522.28307    378.55576    360.54438    37401.237 
  479000    305.83099    -1459.012    515.63351    435.90875    7.4316836    37401.237 
  479100    297.02918   -1474.3441    521.73043    386.97774   -21.440585    37401.237 
  479200    302.66748    -1480.154    515.03882    399.90474    -9.533294    37401.237 
  479300     310.3583   -1498.1769     508.3353    409.86362     118.5287    37401.237 
  479400    306.91786   -1532.3869    477.80233    329.60441   -489.49369    37401.237 
  479500    304.88056   -1522.2717    502.22353    354.95266   -327.99317    37401.237 
  479600    296.45344   -1505.7817    496.28394      327.497    68.754133    37401.237 
  479700    299.59991   -1564.9823    500.90891    287.11186    290.49865    37401.237 
  479800    310.42581   -1512.2679    525.14365    412.88544    32.235248    37401.237 
  479900    297.62847   -1543.4587     492.4919    291.32739    4.6386099    37401.237 
  480000    301.22436   -1513.0234    498.14079    343.62887    346.84437    37401.237 
  480100    301.71614   -1525.9253     483.0498    317.85395   -28.866739    37401.237 
  480200    294.43331   -1531.4071    516.10145    312.57844   -709.10225    37401.237 
  480300    301.71531   -1475.8273    480.95758    365.85594   -213.09074    37401.237 
  480400    304.92829   -1501.7836    520.82991    394.26239   -14.604158    37401.237 
  480500    305.85771   -1487.5455    515.77379    407.63605    189.09011    37401.237 
  480600    294.43572   -1447.6877     521.6057    401.81294    1.9088109    37401.237 
  480700    297.20969   -1460.7823    535.62412    415.24734   -252.66583    37401.237 
  480800    302.79413   -1473.3657    508.02624    400.25171   -140.93121    37401.237 
  480900    300.81205   -1504.5097    521.13554    373.27784   -168.62617    37401.237 
  481000    302.16384   -1502.3019    514.29704    374.74363     181.5797    37401.237 
  481100    300.65449   -1475.5926    501.25697    381.60576    412.42221    37401.237 
  481200    303.25552   -1465.6426    543.87817    445.90759   -655.76754    37401.237 
  481300    299.00244   -1456.1343    484.44075    376.79713   -250.22763    37401.237 
  481400    299.55149   -1500.4462     524.9553    375.47597    619.03831    37401.237 
  481500    294.16862   -1491.8033    532.59274    367.47977    229.18428    37401.237 
  481600    298.90055   -1496.7694    500.64275     351.9045    192.72975    37401.237 
  481700    303.42119   -1465.4424     510.8662    413.84291    198.71562    37401.237 
  481800    292.12828   -1514.6951    523.14587    325.93931   -374.91174    37401.237 
  481900    302.74745   -1495.0072    488.99835    359.37174   -275.86076    37401.237 
  482000    292.22261   -1472.7148    501.12787      346.327   -517.45476    37401.237 
  482100    294.97448   -1470.7497     506.8063     366.3814   -223.96297    37401.237 
  482200    308.54639   -1469.5008     507.8326    429.86542   -55.073298    37401.237 
  482300    297.97695   -1472.7858    506.71158    377.79159   -197.99297    37401.237 
  482400    296.61671    -1434.133    508.47974    412.07792   -270.55015    37401.237 
  482500    302.70269   -1499.6268     501.7685     367.3204   -178.74829    37401.237 
  482600    292.68474   -1479.5217    510.17816    350.65458   -659.51602    37401.237 
  482700     297.6171   -1486.3307    510.63427    366.54644   -688.21624    37401.237 
  482800    298.03665   -1489.6399    490.15288    344.64802   -496.20137    37401.237 
  482900    297.79251   -1477.5069    514.38692    379.91394   -349.55081    37401.237 
  483000    307.21276   -1493.2144     490.9661    383.27069   -157.62168    37401.237 
  483100    300.40809   -1498.0175    494.92462    351.73728   -366.99288    37401.237 
  483200    300.23333   -1452.8355    510.61656     411.8231    275.22441    37401.237 
  483300    305.41701   -1498.2366    485.45477    364.63833    -374.1045    37401.237 
  483400    297.20567   -1496.5571    490.73627    334.56653    132.72414    37401.237 
  483500    287.93772   -1522.1115    505.47825    281.95592    229.09382    37401.237 
  483600    313.58624   -1507.9365    495.75635    402.08297   -79.116908    37401.237 
  483700    309.64965   -1494.4717    493.57824    395.61579    127.89859    37401.237 
  483800    301.12525   -1471.5727    480.21236    366.70412    327.08216    37401.237 
  483900     308.7303   -1491.8571    533.17576    433.68166     239.2818    37401.237 
  484000    302.83749    -1473.192    494.91034      387.505   -585.12357    37401.237 
  484100    296.33932   -1495.8382    512.54756    353.18953   -168.90856    37401.237 
  484200    298.52088   -1482.9596    492.66275    356.02204   -564.08529    37401.237 
  484300    303.91249   -1475.4278    499.32103    394.52808   -72.261865    37401.237 
  484400    306.10423   -1456.8093    486.99442    410.70464    72.274966    37401.237 
  484500    293.76631   -1468.2083    494.12626     350.7939   -246.11256    37401.237 
  484600    295.86948   -1501.2007    497.78353    330.94399   -93.656357    37401.237 
  484700    309.08029   -1523.9705    511.94413    381.91514   -172.92016    37401.237 
  484800    302.76196   -1525.7338    478.18423    317.89648    -173.6823    37401.237 
  484900     301.4654   -1540.6465    495.43494    314.38703   -500.52675    37401.237 
  485000    297.69362   -1558.5717     489.0491    273.06536   -214.78231    37401.237 
  485100    302.84058   -1521.2094    489.33842    333.92963   -932.86137    37401.237 
  485200    290.44506   -1512.2791    494.36461    291.98272   -829.32186    37401.237 
  485300    300.14226   -1473.1218    518.52302    399.03251   -358.47858    37401.237 
  485400    292.19023   -1504.4988    488.53739     301.8065   -71.019742    37401.237 
  485500    309.84256   -1510.7573    505.62644    392.24844    338.06257    37401.237 
  485600    297.58212   -1511.2455    486.49009    317.32975   -277.45061    37401.237 
  485700    301.93015   -1509.8822    507.73106    359.54345   -564.51174    37401.237 
  485800    295.28641   -1465.6265    492.43071     358.5358    -569.7691    37401.237 
  485900    302.45777   -1462.4481    527.14289    428.76894   -159.89577    37401.237 
  486000    298.86893   -1484.5863    490.13331    353.43561   -245.07088    37401.237 
  486100    297.98044   -1512.4302     493.2957    324.74704   -468.07184    37401.237 
  486200    305.59217     -1530.05    488.94735    337.10754   -613.67427    37401.237 
  486300    294.56996   -1497.5007    510.00065    341.00033   -561.49157    37401.237 
  486400    302.48834   -1540.6757    500.93874      324.475    259.87001    37401.237 
  486500    297.70435   -1543.6776    492.10466    291.06344   -177.62058    37401.237 
  486600    299.40397   -1499.9735    493.41891    343.74702    92.623081    37401.237 
  486700    299.39124   -1501.0483    497.09843    346.29437   -538.03815    37401.237 
  486800    290.52486   -1526.6979     509.3398    292.89907    -282.2099    37401.237 
  486900    301.62165   -1539.7472    492.71669    313.27277    315.12639    37401.237 
  487000    296.79356   -1521.5673    494.19103    311.15243   -299.18654    37401.237 
  487100    302.58979   -1537.9678    467.49542    294.19718    296.51805    37401.237 
  487200    298.06749   -1531.5908    461.95084    274.63415    636.35173    37401.237 
  487300    291.88604   -1529.3049    511.09223    298.18332    615.68744    37401.237 
  487400    298.83161   -1551.8443    492.63023    288.50616    829.36673    37401.237 
  487500    308.26292   -1563.2924    502.40289    329.36572    276.74834    37401.237 
  487600    302.12914   -1563.7112    498.22424    297.10511    181.14941    37401.237 
  487700    304.41389   -1582.3129    488.34249    278.92576    603.06365    37401.237 
  487800    302.22503   -1569.8006    472.26519    265.48907    398.26415    37401.237 
  487900    309.13682   -1542.4158    526.96913    378.74968    8.4531889    37401.237 
  488000    307.33914   -1540.3711    496.95333    342.67116     494.4816    37401.237 
  488100    297.89875   -1499.2693    494.89197    339.13579    275.71998    37401.237 
  488200    298.21084   -1522.4521    493.42979    315.89832     -211.328    37401.237 
  488300    292.41928    -1531.988    480.93082    267.74373   -278.60204    37401.237 
  488400    304.03018   -1588.2103    488.71009    271.66541    224.11271    37401.237 
  488500    290.52301   -1544.2236    503.72803    269.75319   -59.003576    37401.237 
  488600    307.15438   -1529.7379    494.28595    349.80378   -25.035682    37401.237 
  488700    306.37038   -1521.9504    502.26045    362.02997   -295.88278    37401.237 
  488800    307.08834   -1500.7988    480.34722    364.50624     140.9691    37401.237 
  488900    308.18263   -1522.0988    518.00358    385.79786    276.13247    37401.237 
  489000    298.08205   -1511.9128    494.36213     326.7891    822.81387    37401.237 
  489100    303.65996   -1505.2632    524.10942    388.34224    402.83221    37401.237 
  489200    296.47392   -1509.0045    491.50004    319.58269    713.32349    37401.237 
  489300    306.22804    -1530.085    534.37285    385.36581    908.08818    37401.237 
  489400    305.83403   -1526.6902    491.59692    344.20762    610.63247    37401.237 
  489500    296.60529   -1545.2132    518.77756    311.24405    228.34325    37401.237 
  489600    309.19799   -1524.4303    502.61673    372.65876    25.557012    37401.237 
  489700    308.72756   -1514.3168    498.47621    376.51011    250.55069    37401.237 
  489800    312.96055   -1505.1174    487.98625     394.3102   -454.04115    37401.237 
  489900    297.48865   -1523.1264    497.41298    315.95014   -194.56121    37401.237 
  490000    294.07893   -1519.6424    479.72347    286.36696    234.50097    37401.237 
  490100    306.94466   -1530.6489    539.56725    393.22817     759.9549    37401.237 
  490200    297.74661   -1519.9622    512.16327    335.02807    1065.2889    37401.237 
  490300    296.95492   -1533.2618    495.27797    301.27259     393.5522    37401.237 
  490400    288.53589   -1507.7494    492.54189    286.07947    650.85056    37401.237 
  490500    306.54247   -1513.4976    486.92493    355.92336    -608.5652    37401.237 
  490600    291.52777   -1521.9556    505.45008     298.2747   -679.37082    37401.237 
  490700    297.86317   -1516.3099     478.3758    305.41852   -24.015279    37401.237 
  490800     293.6904   -1501.1167    481.37926    304.79614   -123.67848    37401.237 
  490900    290.93606   -1523.0085    496.03227    285.13543   -577.31848    37401.237 
  491000    298.44207   -1502.2602    503.36792    347.07121   -65.582039    37401.237 
  491100    291.83719   -1490.3977    486.92481    312.70279   -600.84919    37401.237 
  491200     290.6561    -1524.471     491.5532    277.93123   -293.92051    37401.237 
  491300    311.39611   -1531.8947     517.7309     390.2219    484.07825    37401.237 
  491400    298.39785   -1474.4795    461.99573    333.28033    631.74375    37401.237 
  491500    296.45056   -1497.2527    516.28669    356.01587    225.83148    37401.237 
  491600    298.62324   -1466.7591    505.04998     385.0714    469.49633    37401.237 
  491700    301.80759    -1511.522    506.98489    356.60473   -188.73158    37401.237 
  491800    293.61914   -1534.2681    482.17679    272.12091    172.09888    37401.237 
  491900    304.70484   -1526.7134    484.64308      332.138   -193.14143    37401.237 
  492000    295.16073   -1517.7021    478.32559    291.78829    -182.0589    37401.237 
  492100    302.11039   -1479.7186     475.3841    358.17299    173.08649    37401.237 
  492200    300.48268   -1484.9399    515.42848    385.65511    333.42218    37401.237 
  492300     291.4289   -1502.2737    501.84126    313.90192   -127.12217    37401.237 
  492400    298.74412   -1509.7349    517.01399    354.60477    471.85592    37401.237 
  492500    294.70219   -1536.9781     492.2139    284.33253    234.97827    37401.237 
  492600    297.56697   -1500.8694     537.1239    378.27135     257.7277    37401.237 
  492700    306.61181   -1473.3047    523.37266    432.87662    306.28738    37401.237 
  492800     305.3879   -1485.3396    512.91005    404.85936     790.2056    37401.237 
  492900     296.5305   -1501.9321    509.28658    344.69689    610.33969    37401.237 
  493000    293.28924   -1506.2368    508.10849    324.59605    833.40382    37401.237 
  493100    304.21655   -1484.3239    505.25643    392.93867    356.61238    37401.237 
  493200    292.45755   -1481.9343    490.62688    327.66604    456.31273    37401.237 
  493300    297.42284   -1455.6993    508.89291    394.56036     190.9387    37401.237 
  493400    294.69084   -1485.1458    482.27921    326.17897    3.7664858    37401.237 
  493500    300.92844   -1476.0864    505.30741    386.39794   -131.15301    37401.237 
  493600     291.9859   -1468.2633    457.03281     305.6159    182.96683    37401.237 
  493700    304.88489   -1470.1316    521.25141    426.14016   -2.2302893    37401.237 
  493800    305.46081   -1495.7499    498.25232    380.12015    182.49309    37401.237 
  493900    297.77391   -1478.0874    502.67388    367.53652    42.750176    37401.237 
  494000    299.67465   -1464.8454    521.03455    407.71151    35.065614    37401.237 
  494100    309.00453    -1471.661    486.47795    408.41671    842.80679    37401.237 
  494200    298.85338   -1488.8191    516.20708    375.20639    1068.9993    37401.237 
  494300    301.83528   -1508.9085    497.82854    350.18682    858.15342    37401.237 
  494400    295.15474   -1494.8147    493.57246    329.89545    1098.2589    37401.237 
  494500    303.75066   -1480.7081    510.70945    399.90637    537.09885    37401.237 
  494600     307.1934   -1485.7328    481.25276     380.9516   -433.36771    37401.237 
  494700    304.12397   -1475.3589    488.16964    384.39939   -779.64288    37401.237 
  494800    304.01808   -1451.1268    513.16459    433.14891   -538.97105    37401.237 
  494900    288.96893   -1472.4581    492.34679    323.12864   -883.75954    37401.237 
  495000    299.38736   -1485.6371    483.87991    348.46952   -393.31459    37401.237 
  495100    306.68694   -1493.3283    502.94184    392.76108    688.91996    37401.237 
  495200    293.02634   -1474.6366     501.0395    347.94158    692.46938    37401.237 
  495300    301.78216   -1481.5975    531.38657    410.81627    673.67517    37401.237 
  495400    292.04233   -1467.5172    511.87882    361.46248     627.3177    37401.237 
  495500    305.25258   -1473.6389    506.05357    409.09335    819.15284    37401.237 
  495600    305.59038   -1491.9148    506.77876    393.06602     468.4886    37401.237 
  495700    303.84488    -1515.205    475.82908     330.9541   -101.68053    37401.237 
  495800    299.73029   -1471.1252    498.41858    379.06665   -405.34039    37401.237 
  495900    291.44426   -1532.5763     504.4469    286.27421   -416.13489    37401.237 
  496000    302.55255   -1482.4577    506.31775    388.36164    12.431845    37401.237 
  496100    293.39404   -1503.2473     483.6002    303.54996   -640.75808    37401.237 
  496200    304.37249   -1492.2282    487.57111    368.05238   -221.26255    37401.237 
  496300    300.53485   -1506.3863    522.48433    371.49989    21.361726    37401.237 
  496400    295.05974   -1483.9043    500.51874    347.32376     406.1085    37401.237 
  496500    297.38188   -1528.9848     492.3237     304.5209    368.82635    37401.237 
  496600     295.7564   -1493.9171    521.74106    361.67514    27.273154    37401.237 
  496700    298.41803   -1490.9397     468.1183    323.03361    162.93565    37401.237 
  496800    299.07094   -1504.6554    504.17134    348.31556   -349.22839    37401.237 
  496900    302.23486   -1506.8774    509.57982    365.77126   -123.58367    37401.237 
  497000    310.01571   -1513.5678    489.97685    374.56918     -731.501    37401.237 
  497100    301.27431   -1492.0734    500.80608    367.46941   -954.56117    37401.237 
  497200    307.21369   -1479.2741    480.20185    386.45097   -1060.3129    37401.237 
  497300    314.94175   -1484.3689    471.98025    407.98782   -520.15437    37401.237 
  497400    292.99519   -1526.1346    499.65163    294.91532   -32.577624    37401.237 
  497500    301.12513   -1536.7904    489.15631    310.42989   -73.852855    37401.237 
  497600    299.00093   -1497.3397    500.95285    352.09703      8.96546    37401.237 
  497700    314.15595   -1493.1484    497.09672    420.78088   -131.26746    37401.237 
  497800    301.91398   -1479.1825    501.94604    384.38517    853.85985    37401.237 
  497900    301.71633   -1517.8415    513.06011     355.9489    731.67293    37401.237 
  498000    296.81626    -1504.166    504.10075    338.56584    352.37996    37401.237 
  498100    305.24875   -1520.9937    549.38101    405.04865    415.41384    37401.237 
  498200    297.84966   -1514.4312    499.56453    328.42503    197.87172    37401.237 
  498300    309.68225   -1490.1236    494.48775    401.02043    277.63021    37401.237 
  498400    298.35416   -1516.5826    487.75858    316.74302    464.99867    37401.237 
  498500    295.01991   -1472.5834    508.02224     365.9685  -0.16239468    37401.237 
  498600    309.58467   -1487.6877    505.16961    413.69816    376.54369    37401.237 
  498700    294.14763   -1506.4714    478.14315    298.26746   -496.56325    37401.237 
  498800    308.55924   -1503.2034    505.05993    393.44805   -67.272772    37401.237 
  498900    301.64038   -1473.3902     492.9559    379.95341    70.002308    37401.237 
  499000     301.9447   -1488.4182    502.14422    375.48623    325.04866    37401.237 
  499100    295.60884   -1483.2094    504.70583    354.68213   -231.98761    37401.237 
  499200    304.87579   -1497.4448    502.54697    380.08151    132.84922    37401.237 
  499300    311.37519   -1474.3424     504.6034     434.5524    130.34591    37401.237 
  499400    309.14677   -1456.0251    515.87135     454.0875    143.20063    37401.237 
  499500    299.01502      -1477.4    508.55857    379.70603   -150.25522    37401.237 
  499600    296.15395   -1461.9593    514.14626     387.8311   -667.04514    37401.237 
  499700     297.2114   -1472.8813    521.56414    389.09602   -693.10486    37401.237 
  499800    310.32514   -1511.5759    464.82195    352.80172   -960.11554    37401.237 
  499900    307.11261   -1490.0178    497.82478    392.87424   -958.89894    37401.237 
  500000    306.90278   -1444.1566    511.15126    451.11563   -747.62231    37401.237 
  500100    307.20705   -1486.4296    494.47573     393.5394   -43.840487    37401.237 
  500200     300.3614   -1484.1972    501.74548    372.16786   -529.73265    37401.237 
  500300    302.12534   -1514.8802     474.2386    321.93332  -0.72374651    37401.237 
  500400    299.91615   -1498.5938    499.32542    353.34316    419.18252    37401.237 
  500500    297.22392   -1476.7553    506.16788    369.88219   -92.444781    37401.237 
  500600    299.45034   -1481.0603    525.97168    395.42207   -250.70089    37401.237 
  500700    297.96264    -1489.122    504.52143    359.20069    432.02024    37401.237 
  500800    302.97353    -1525.517    508.34331     349.2265    306.96171    37401.237 
  500900    308.74021   -1502.7825    508.91191     398.5371    320.91114    37401.237 
  501000    300.34765   -1509.8432    499.21687     343.9312   -144.11516    37401.237 
  501100     286.0823   -1522.0711    498.27138    266.42166   -55.053921    37401.237 
  501200    307.95401   -1533.6274    477.94717    333.18173   -59.538986    37401.237 
  501300    304.88837   -1509.9951    503.63522    368.67615    277.53316    37401.237 
  501400    301.64605   -1518.3445     500.7355    342.80429   -288.50101    37401.237 
  501500     299.7714   -1477.6672    515.18794    389.47938   -3.4210212    37401.237 
  501600    307.41193   -1492.4668    516.56494     410.5154   -162.24279    37401.237 
  501700    296.69424   -1555.0272    490.41035    273.46391    199.61007    37401.237 
  501800    299.30999   -1470.1097    507.38418    387.15219   -126.31949    37401.237 
  501900    297.62396    -1497.207     504.7421    349.80894     240.6748    37401.237 
  502000    303.11785   -1511.1976     505.8595    361.71296    656.08478    37401.237 
  502100    292.62345   -1503.4408    517.41072    333.69163    567.84607    37401.237 
  502200    306.13827   -1502.5916    522.31966    400.40116    482.07618    37401.237 
  502300    308.41045   -1438.2399    507.39355    460.07416    372.04978    37401.237 
  502400    297.75066   -1480.5103    488.84654    351.18146   -130.70891    37401.237 
  502500    290.52052     -1491.42    503.07072    321.88823   -286.30334    37401.237 
  502600    304.87168   -1483.9643    498.56882    389.56529   -52.058799    37401.237 
  502700    295.66143    -1457.089    496.86034    373.19419   -525.99262    37401.237 
  502800    294.37657   -1449.3725    516.60756    394.86331   -570.37515    37401.237 
  502900    297.08577    -1474.017    487.44636    353.27594   -359.50379    37401.237 
  503000    305.21445   -1436.5465    523.64017    463.60029   -406.22803    37401.237 
  503100    303.02329   -1456.0825    513.50592    424.04803   -187.47648    37401.237 
  503200    298.18469   -1437.0502    515.01158    422.76411   -92.595942    37401.237 
  503300    287.81045    -1471.704    520.70462    347.01581   -242.23769    37401.237 
  503400    289.97372   -1446.0646    507.07056    368.77749   -280.03077    37401.237 
  503500    296.02906   -1473.9016    472.85376    334.03299   -215.52804    37401.237 
  503600    310.77587   -1492.5428    494.94206    403.98775      279.679    37401.237 
  503700    303.92525   -1509.3532    482.12379    343.46308   -40.249479    37401.237 
  503800    302.83273   -1479.0132    523.63736    410.38934    85.304756    37401.237 
  503900     304.2126    -1484.509    484.32728    371.80659    674.38526    37401.237 
  504000    291.20378   -1498.4002    511.00708    325.92594    390.57936    37401.237 
  504100    305.87409   -1508.0988    500.56918    371.95197     509.7741    37401.237 
  504200    300.00354    -1532.364     481.7746    302.41623   -344.51731    37401.237 
  504300    312.14805   -1513.1144    501.07762    395.74014    34.708596    37401.237 
  504400    311.17523   -1485.9706    476.58934    394.00833   -50.114372    37401.237 
  504500    300.55596   -1519.9449    485.89882    321.45099    397.71922    37401.237 
  504600    295.33262   -1551.7569      487.488    267.67106    228.87887    37401.237 
  504700    300.13924   -1529.1658    506.50943    330.96125    252.15074    37401.237 
  504800      274.277   -1525.9674    530.34421     241.3566    430.26577    37401.237 
  504900    305.37729   -1462.8936    499.51129    413.85876    651.59394    37401.237 
  505000    302.66279   -1480.1635    508.05489    392.89013    93.314875    37401.237 
  505100    299.50577   -1477.5316    480.16785    353.39697   -68.410437    37401.237 
  505200    309.91113   -1457.0637    524.43576    465.06062   -175.18575    37401.237 
  505300    311.12221    -1486.404    493.39735    410.14381    218.58123    37401.237 
  505400    311.23159   -1439.6521    531.90522    495.89692    543.33533    37401.237 
  505500    300.85374   -1471.6952    509.27327    394.41808    412.36214    37401.237 
  505600    301.72952   -1430.2777    495.59528    426.10735   -64.086902    37401.237 
  505700    299.58731   -1428.8175    491.79213    414.10311   -189.62291    37401.237 
  505800    300.46688   -1448.5935    493.68683     400.1886    83.516259    37401.237 
  505900    303.58775    -1434.455    484.50296    419.21831    154.95624    37401.237 
  506000    306.46866   -1480.3058    497.85105    399.70838    442.53288    37401.237 
  506100    303.74524   -1473.6636    463.66651    359.88348     132.6934    37401.237 
  506200    297.62433   -1428.3736    468.68006    382.58189   -87.606477    37401.237 
  506300    297.40805   -1439.2348     494.7393    396.80456    177.91497    37401.237 
  506400    301.33492    -1429.681     512.8327    442.16185    84.424393    37401.237 
  506500    301.62656   -1450.0557     479.2719    389.54158    227.90752    37401.237 
  506600    294.37579   -1487.3332    489.55922    329.85065   -57.951571    37401.237 
  506700    300.99424   -1461.8659    504.20843    399.81622   -147.08306    37401.237 
  506800     305.1325   -1436.0253    473.18247     413.2943   -662.58459    37401.237 
  506900    312.01277   -1458.3438    495.08118    443.90427     17.94059    37401.237 
  507000    296.44412   -1414.8739    471.30415    393.38299   -725.10947    37401.237 
  507100    295.82246    -1463.969     472.0039    342.18407   -385.72957    37401.237 
  507200    297.44823   -1461.5934    497.86416    377.75205   -135.55789    37401.237 
  507300     310.6591    -1474.783    501.79653    428.07543   -29.045832    37401.237 
  507400    307.08256   -1473.5123    477.48268    388.90221     483.8178    37401.237 
  507500    307.92006   -1477.6904    502.75033    413.76885    174.56427    37401.237 
  507600    296.02069    -1452.795    485.36446    367.61257    629.14459    37401.237 
  507700    306.89144   -1508.3128    480.18958    355.94657   -111.90964    37401.237 
  507800    299.49716   -1500.2388    474.14235     324.6254   -196.22348    37401.237 
  507900    308.65017   -1460.9441    506.24846    437.30596    172.27385    37401.237 
  508000    304.20527   -1436.2202     505.8854    441.62047    183.08798    37401.237 
  508100    291.55076   -1490.8827    486.56123    310.56245    227.79457    37401.237 
  508200    299.70408   -1466.2822    496.90208    382.27495    -251.7272    37401.237 
  508300    298.04068   -1460.5491    474.59287    358.19701    133.82727    37401.237 
  508400    305.57294   -1529.4569    486.10227    334.76879    60.842757    37401.237 
  508500    300.63077   -1507.6275    480.26747    328.47438    31.506913    37401.237 
  508600    300.73644    -1472.214    455.01242     339.1094    220.26302    37401.237 
  508700    306.52631   -1485.0497    508.60524    405.97869    362.66715    37401.237 
  508800    301.95062   -1479.3609    461.73557    344.16159   -75.284869    37401.237 
  508900    292.38519   -1458.4333     509.4048    369.61864    225.60318    37401.237 
  509000    291.99445   -1456.8223      474.915    334.97765   -119.29471    37401.237 
  509100    300.78396   -1454.9939    471.80791    373.33934   -263.72486    37401.237 
  509200    300.70301   -1449.3625    516.21118    423.00897   -248.57536    37401.237 
  509300    299.85659   -1446.6796    462.50336    368.16669   -348.82875    37401.237 
  509400    310.21211   -1454.1125    483.83279    428.76623   -139.87894    37401.237 
  509500     309.6424   -1402.6598    492.18495    486.00171   -666.71316    37401.237 
  509600    309.96929   -1441.1774     479.4465    436.21991   -571.24603    37401.237 
  509700    293.54719   -1403.0407    481.88513    402.73219   -654.23116    37401.237 
  509800    299.56566   -1454.4285    470.45139    367.05366   -535.62224    37401.237 
  509900      301.772   -1462.4612    471.10675    369.62691   -234.55646    37401.237 
  510000    301.26652   -1466.0586    476.06127    368.70432    -84.70256    37401.237 
  510100    308.12241   -1521.4976    481.44299    349.56682   -232.84909    37401.237 
  510200    301.88797   -1477.0007    486.66626    371.16989   -367.16711    37401.237 
  510300    300.83469   -1445.3503    482.35572    393.75947   -443.64577    37401.237 
  510400    307.03448   -1446.4217    491.53125    429.82448    339.65027    37401.237 
  510500    288.67612   -1443.0369    476.49025    335.37277    437.08813    37401.237 
  510600     301.6401   -1469.2333    481.73306    372.88626    361.32584    37401.237 
  510700    308.47456   -1453.8684    498.17043    435.51171    407.44657    37401.237 
  510800     300.1187   -1468.6406    468.40525     353.2897    190.66999    37401.237 
  510900    289.30521   -1518.3621     475.6171    262.01156   -91.545862    37401.237 
  511000    294.92078   -1452.2694    477.76191    355.57509   -339.24497    37401.237 
  511100    301.02311   -1495.2364    507.18592    369.55338    -409.0287    37401.237 
  511200    303.89855   -1456.3638     474.8135    389.02166   -508.96289    37401.237 
  511300    296.09081   -1457.6163    460.38326    338.12636   -798.85544    37401.237 
  511400    296.30491   -1450.4924    480.62825    366.46079   -935.59989    37401.237 
  511500    287.52425   -1482.4664    475.33335    289.59142   -604.83077    37401.237 
  511600    298.17422   -1462.8445    480.94181    362.85279   -227.59092    37401.237 
  511700    306.27489    -1447.498    518.33591    452.12718   -422.69307    37401.237 
  511800    313.37208   -1484.7712    470.38389    398.90995   -256.20231    37401.237 
  511900    293.93525   -1489.1399    478.96321    315.46122     15.52407    37401.237 
  512000    297.45215   -1492.5716    487.02248    335.94981    -36.77345    37401.237 
  512100    301.95199    -1442.895    478.07463    396.97269   -830.73652    37401.237 
  512200    284.65827   -1487.0544    476.88219    273.62683   -231.60661    37401.237 
  512300    302.66009   -1481.3979    499.44807    383.03679    334.90386    37401.237 
  512400    291.37076   -1497.5606    465.50025    282.01176    488.32823    37401.237 
  512500    299.02573    -1520.694    482.22692    310.12872    425.38886    37401.237 
  512600    296.56327   -1463.8618    471.30048    344.92883    347.53621    37401.237 
  512700    311.77175   -1439.3774    490.03167    456.73415   -165.80464    37401.237 
  512800     293.0983   -1448.5324    489.64043    362.97129   -536.20967    37401.237 
  512900    296.74245   -1451.8718     483.1904    369.61687   -767.88897    37401.237 
  513000     289.0643    -1471.945    482.27324    313.99829   -694.11736    37401.237 
  513100    302.47816   -1459.3871    488.30722    393.08623   -881.14616    37401.237 
  513200    301.91204   -1477.4697    491.29354     375.4367   -978.00181    37401.237 
  513300    314.21424   -1496.1073    490.34361    411.33174    -596.5668    37401.237 
  513400    290.59433   -1449.2763    487.92887    349.22304   -945.59603    37401.237 
  513500    296.00803    -1453.907    491.03934    372.11832   -689.76268    37401.237 
  513600    303.13856   -1497.9371    484.22907     353.4364   -539.55271    37401.237 
  513700      286.863   -1460.6488    487.70798    320.80142   -201.02088    37401.237 
  513800    296.59511    -1512.252    479.91266    305.29442    93.620192    37401.237 
  513900    309.29744   -1495.5412    501.85603     401.2357     90.92734    37401.237 
  514000    305.38789   -1508.7112     470.9952    339.57292    275.19316    37401.237 
  514100    292.53569   -1529.5601    499.19619    288.96196    236.67299    37401.237 
  514200     297.7641   -1478.9715    506.88044    370.81477   -150.81135    37401.237 
  514300    308.32271   -1435.4029    504.45582    459.57773    45.765066    37401.237 
  514400    305.22811   -1441.4558    495.80894    430.92137    303.68476    37401.237 
  514500    299.44236   -1464.4864    480.91244    366.90082    558.52727    37401.237 
  514600    300.54004   -1500.6782    496.54762    351.29466     875.7008    37401.237 
  514700    296.25007   -1488.4873    504.62492    352.21523    686.82023    37401.237 
  514800    296.64314   -1498.0288    485.52735    325.34893   -76.129056    37401.237 
  514900    293.47254   -1457.9457    478.93586    344.54118    2.9184481    37401.237 
  515000    307.96366   -1473.2514    492.90507    408.55914    255.34954    37401.237 
  515100     299.9365   -1472.2197    510.74807    391.23164   -179.35103    37401.237 
  515200    312.32591   -1476.6937    478.28727    410.17266    43.676193    37401.237 
  515300    291.21956   -1480.8078    492.20011    324.78249    508.31269    37401.237 
  515400    289.35374   -1511.8806    500.56461     293.6594    382.58078    37401.237 
  515500    298.55615   -1502.8568    488.77721    332.39836   -445.64875    37401.237 
  515600    304.98195    -1495.762     487.2739    366.96998    88.232725    37401.237 
  515700     298.6141   -1489.7643    489.86884    346.84384    140.14516    37401.237 
  515800    303.42248   -1459.4627    529.31938    438.28165    339.32537    37401.237 
  515900     295.7762    -1462.429    479.83122    351.34264    6.3201869    37401.237 
  516000    303.23185   -1501.9851    467.92219    333.50226      323.091    37401.237 
  516100    296.81121   -1507.9606    500.66175    331.30951    217.90913    37401.237 
  516200    307.68776   -1456.4714    517.27242    448.46226   -155.64094    37401.237 
  516300    299.50379    -1457.794    496.81048    389.76832   -193.46019    37401.237 
  516400    289.53631   -1480.1475    519.05929    344.71056   -361.92172    37401.237 
  516500     293.9708    -1420.473    518.83057    424.15574    -288.9819    37401.237 
  516600     304.0594   -1483.8351    508.67506    396.13737    255.76907    37401.237 
  516700     297.3219   -1470.9676    483.01503    352.95899    462.40708    37401.237 
  516800     294.2819   -1511.8819    495.99985    311.31924    553.87652    37401.237 
  516900    310.48652   -1497.7066     497.3001    399.87703   -532.29177    37401.237 
  517000    306.14302   -1509.3657    503.21247    374.54124   -568.32752    37401.237 
  517100    306.11275   -1500.6638    507.67626    387.57042    21.318265    37401.237 
  517200    302.44874   -1486.3659    486.89584    364.56341   -463.61236    37401.237 
  517300    298.15438   -1496.7687    490.93217    338.82951   -112.50036    37401.237 
  517400    293.35164   -1488.9035    471.95443    306.05676   -351.78097    37401.237 
  517500    285.16245   -1511.6364    474.85888    249.29528   -63.044988    37401.237 
  517600    301.62433   -1511.2493    504.77776    353.84384    -462.3979    37401.237 
  517700    304.78116   -1502.1964    496.35103    368.70723    214.28708    37401.237 
  517800    295.27455   -1488.0201    510.42489    354.08286    355.41896    37401.237 
  517900    301.80949   -1472.8893    499.60085    387.86202    957.23864    37401.237 
  518000    296.05437   -1526.0728    487.32624    296.44848    692.47561    37401.237 
  518100    293.50017   -1494.2999    503.86304    333.23886    109.78379    37401.237 
  518200    300.02107   -1480.0782    514.61643      387.623   -121.49916    37401.237 
  518300    304.16936   -1492.3964    493.12208    372.51909    -383.7548    37401.237 
  518400     290.0551   -1535.0203    469.09674    242.21501    219.67494    37401.237 
  518500     293.7764   -1563.7676    500.17317    261.32707    554.13706    37401.237 
  518600    283.24165    -1524.185    488.74898     241.9741    400.42855    37401.237 
  518700    298.90251   -1493.3436    492.65766    347.35408    315.65075    37401.237 
  518800    292.97368   -1504.9352    488.65673    305.02272    2.4761537    37401.237 
  518900    299.52789   -1509.5488    509.07628    350.38796   -433.64003    37401.237 
  519000     299.5147   -1491.3635     496.5768    356.01433   -357.63021    37401.237 
  519100    310.21008    -1462.733    496.45623    432.75999     9.065601    37401.237 
  519200    299.60684   -1550.7846    500.56705    300.99899   -455.01322    37401.237 
  519300    308.42314   -1487.0553    493.72746    397.64995   -182.08746    37401.237 
  519400    298.89268   -1508.8394    486.73606    325.89232   -285.65417    37401.237 
  519500    308.80382   -1535.6546    469.67042    326.71047    164.52508    37401.237 
  519600    305.79045   -1558.7148     483.5642    303.95376    252.48424    37401.237 
  519700    310.46707   -1580.9208    502.92622    322.20121   -124.58058    37401.237 
  519800    301.37388   -1490.6996    491.60071    360.08695   -357.99622    37401.237 
  519900    301.12921   -1510.4228    488.25518     335.9148    413.63631    37401.237 
  520000    308.56486   -1504.2745    499.91582    387.25822    86.751325    37401.237 
  520100    293.43297   -1433.6604    482.91911    372.63135    137.00066    37401.237 
  520200    302.85167    -1497.592    514.85352    383.11214   -256.03227    37401.237 
  520300    304.69188    -1509.534    504.64395    369.25987    -610.1976    37401.237 
  520400    302.46865   -1487.4348    489.69679    366.38514    76.894318    37401.237 
  520500    296.02698   -1493.2114    494.34312    336.20317   -149.31805    37401.237 
  520600    300.87279   -1473.6794    510.57708     393.8236   -137.30727    37401.237 
  520700    299.04176   -1499.4354    498.44258    347.67522   -281.37632    37401.237 
  520800    289.31354   -1506.3746    512.62514     311.0446   -675.22449    37401.237 
  520900    308.12815   -1504.7138    491.04428    375.97786   -191.47626    37401.237 
  521000    304.95827   -1502.4006    484.65434    357.60506   -638.11908    37401.237 
  521100    289.49551    -1516.013     502.2695    291.87131   -677.28129    37401.237 
  521200    299.43684   -1477.7625    503.50831    376.19559    172.92156    37401.237 
  521300    287.06719   -1466.8838    548.85085    376.63023    180.97859    37401.237 
  521400    307.63132   -1470.6401    498.95249    415.71905   -153.15361    37401.237 
  521500    293.51253   -1495.1511    497.44956    326.02992    -260.9941    37401.237 
  521600    311.24609   -1503.8218    505.10617    404.99357   -155.06776    37401.237 
  521700     304.8017   -1506.9221    489.03661    356.75973   -599.05063    37401.237 
  521800    302.35308   -1449.1015    515.78502    430.28552   -246.26299    37401.237 
  521900    304.52441   -1437.1294    515.88515    452.15035   -329.08579    37401.237 
  522000     298.6778   -1425.2381    510.94409     432.7326    19.605977    37401.237 
  522100    302.36372   -1490.8266    510.74778     383.5712    440.38065    37401.237 
  522200    290.88947   -1464.3889    549.65917    397.17179    457.54482    37401.237 
  522300    302.02055   -1510.3567    486.79601    338.54163     6.209507    37401.237 
  522400    293.31398   -1489.2603    521.23934    354.81502   -40.370284    37401.237 
  522500    294.15357   -1482.3199    507.43135    351.73399    51.259776    37401.237 
  522600    307.32303    -1464.144    498.66632    420.53863    250.10045    37401.237 
  522700    294.35572   -1460.3217    488.57265     355.7851   -271.83689    37401.237 
  522800     300.2817   -1446.9108    503.11216    410.46155    701.54975    37401.237 
  522900    304.73839   -1481.9142    508.85721    401.30263    370.86217    37401.237 
  523000    303.09977   -1455.8432    510.05472    421.18104    17.172369    37401.237 
  523100    298.97724   -1483.7241    504.45552    369.10852    370.70392    37401.237 
  523200    301.52007   -1471.3373    503.01119      391.519   -32.489087    37401.237 
  523300    300.16232   -1482.8345    512.85319    383.74044    279.29031    37401.237 
  523400    296.86675   -1462.8978    469.85803    345.81908   -82.837053    37401.237 
  523500     297.3491    -1493.814    509.66733    356.88748    116.65281    37401.237 
  523600    303.51587    -1490.906    504.78809    382.72826     21.45806    37401.237 
  523700    299.57422   -1505.8286    499.89262    345.13346    100.73599    37401.237 
  523800    287.04121   -1473.0794    525.00062    346.46719   -249.52079    37401.237 
  523900    296.95418   -1465.5342    478.23315    351.95209     408.7792    37401.237 
  524000    310.96868   -1508.8931    507.60351     401.1685   -223.87193    37401.237 
  524100    282.72815   -1519.2243    516.84421    272.71414   -204.27511    37401.237 
  524200    298.08507   -1494.4267    492.67702    342.60377    158.35579    37401.237 
  524300     304.6572   -1466.7143    542.45546    449.73468    135.03401    37401.237 
  524400    289.55334    -1466.263    501.50646    341.11903    148.32427    37401.237 
  524500    300.87766   -1477.4373    504.19101    383.70155    462.38003    37401.237 
  524600    301.91402   -1483.3363    493.01862    371.30421   -32.522178    37401.237 
  524700    286.46334   -1499.5069     501.3999    293.83283    383.89081    37401.237 
  524800     297.7539   -1497.0531    490.42857    336.23531    200.20462    37401.237 
  524900     308.1049   -1515.1467    507.91036    382.30614    510.41527    37401.237 
  525000    293.25076   -1469.5259    509.61291    362.63787     862.4782    37401.237 
  525100    297.89778   -1456.9042    512.55542    399.15992    783.66597    37401.237 
  525200    298.00108   -1437.5519    489.07976    395.50245   -15.813028    37401.237 
  525300    298.64188   -1462.7803    529.69611    413.78039   -61.901022    37401.237 
  525400    295.31307   -1488.2657    489.64288    333.22899    313.29299    37401.237 
  525500    298.79788    -1481.996    524.38417    389.95634    451.58942    37401.237 
  525600     309.0373   -1465.5475    528.63755    456.83765    315.91292    37401.237 
  525700    307.95813   -1525.2592    508.14745    371.76877     250.0484    37401.237 
  525800    295.47237   -1545.0605    487.45166     274.9614   -218.89093    37401.237 
  525900    295.84387   -1539.6037    504.65383    299.29585   -89.944145    37401.237 
  526000    305.76484   -1465.5426    492.32387    405.77019    580.73697    37401.237 
  526100    298.73211   -1510.2108    503.18364     340.2444    256.59423    37401.237 
  526200    311.62417   -1479.9763    498.56099    423.99899     557.3911    37401.237 
  526300    305.11008   -1423.5317    522.61399    475.11827    768.92707    37401.237 
  526400    300.83987   -1455.1658    532.45835    434.07001    692.53857    37401.237 
  526500    291.92096   -1482.4066    500.08606      334.233    249.36782    37401.237 
  526600    307.14766   -1458.2546    495.19076    422.16157    340.93761    37401.237 
  526700    304.80746   -1466.0015    494.09004    402.75963   -305.02746    37401.237 
  526800    300.84652   -1417.1464    485.49993    425.16097   -34.034705    37401.237 
  526900    292.98126   -1452.5811    484.47269    353.22703     267.9232    37401.237 
  527000    297.43025   -1460.0405    500.27796    381.63763    427.60634    37401.237 
  527100    298.21204   -1483.5258    513.85278    375.25307    231.41344    37401.237 
  527200    292.45694   -1451.9616    497.58991    364.59904    43.970273    37401.237 
  527300    300.05218   -1424.5257    491.67721    420.37654    95.260565    37401.237 
  527400    295.35682   -1419.1181    515.41967    428.35065     229.3328    37401.237 
  527500    304.96046   -1446.4296    519.25764    448.18922    61.964555    37401.237 
  527600    300.63776   -1435.6444    489.38174    409.60334    311.27958    37401.237 
  527700    289.33478   -1456.5497    503.87176    352.21201   -359.91277    37401.237 
  527800    296.43247   -1431.0786    491.70509    397.52678    -958.8655    37401.237 
  527900    300.92016   -1446.1424    484.74997    395.74713   -954.29477    37401.237 
  528000    303.54028   -1463.8807    491.07926    396.15481   -1011.8595    37401.237 
  528100    297.73254   -1461.1604    518.10528    399.70844   -1076.1376    37401.237 
  528200     301.4724   -1521.4306    476.68521    314.88481   -902.84589    37401.237 
  528300    295.47849   -1532.0866    498.90012    299.41129    -233.8444    37401.237 
  528400    305.88649   -1527.8798    498.24506    349.90281    167.95813    37401.237 
  528500    286.27545   -1492.0927    486.69487    285.69463   -258.75853    37401.237 
  528600    296.47704   -1479.5814    499.84133    357.36114   -220.58668    37401.237 
  528700    294.64082   -1472.3853    495.09156    351.52623   -507.11726    37401.237 
  528800     303.9358   -1474.4504    497.11626    393.40586   -238.69441    37401.237 
  528900    294.81802   -1486.7294    512.86259    355.75234   -212.23007    37401.237 
  529000     304.3489   -1487.4367    492.02631    377.19268    318.36567    37401.237 
  529100    306.45052   -1487.3572    509.26975    403.99382     225.9345    37401.237 
  529200    290.94535   -1463.9344    504.49973    352.71886   -107.22323    37401.237 
  529300    304.48402   -1431.7924    496.78743    438.20744   -64.052216    37401.237 
  529400    298.02381    -1469.025    506.58851    381.64066    -615.6318    37401.237 
  529500    315.14209   -1446.5217    497.76986    472.52819    698.77375    37401.237 
  529600     300.4911   -1449.7702    509.83169    415.26602    554.27449    37401.237 
  529700    307.34632   -1461.6567    512.67535    437.13999    897.18646    37401.237 
  529800    307.84524    -1481.102    492.77371    400.04318     1055.653    37401.237 
  529900    296.54411   -1468.9064    534.29239     402.7897    -179.2767    37401.237 
  530000    298.26316   -1472.3723     503.1242    375.90853   -89.940702    37401.237 
  530100    298.95756   -1458.1915    514.39242    404.48917    5.1940953    37401.237 
  530200    296.78874   -1478.4627    486.90726    346.95158    362.90964    37401.237 
  530300    306.45705   -1463.6434    520.56378    439.03117    675.14534    37401.237 
  530400    288.98044   -1465.8268    538.28743    375.75253     599.0378    37401.237 
  530500    297.29856   -1501.0635    516.39742    356.14022    283.28205    37401.237 
  530600    299.05995   -1471.0024    504.89359    382.64122    862.79401    37401.237 
  530700    301.88632    -1473.156     482.0108    370.35169    137.20506    37401.237 
  530800    303.04027   -1463.3196    502.68418    406.06582    66.815199    37401.237 
  530900    302.77586   -1482.5849    497.31548     380.2393   -115.08373    37401.237 
  531000    290.97564   -1446.9797    490.73714    356.04754    198.52261    37401.237 
  531100    294.80886   -1484.5118    498.31902    343.38503    234.93494    37401.237 
  531200    291.18767   -1453.5228    508.69999    368.42359    403.02653    37401.237 
  531300     301.5497   -1459.4408    473.72869    374.26664    366.35208    37401.237 
  531400    294.10386   -1465.9012    503.21901    363.71605   -89.430434    37401.237 
  531500    304.71876   -1434.7337    496.25936    435.79679   -172.82828    37401.237 
  531600    296.03691   -1484.2451    507.82819    358.69934   -532.41247    37401.237 
  531700    292.63988   -1474.1891    488.21745    333.82413    -370.6784    37401.237 
  531800    294.15059   -1436.0403    530.93756    421.50635   -464.64736    37401.237 
  531900    297.63555   -1417.3851    506.60002    431.54102    154.22383    37401.237 
  532000    298.99993   -1451.5904    504.42586    401.31483     352.8288    37401.237 
  532100    290.19179   -1451.5453    494.19557    351.40527    607.48371    37401.237 
  532200    303.17891   -1498.1062     551.3123    420.53252    347.60858    37401.237 
  532300    297.30951    -1499.216    511.74623    353.38588    574.61225    37401.237 
  532400    303.00275   -1487.1838    477.85513    357.20333    438.29592    37401.237 
  532500    301.79068   -1487.8927    511.97445    385.14734    494.99689    37401.237 
  532600    306.25049   -1457.3092    519.68476    443.55476    342.39898    37401.237 
  532700    295.84676   -1457.0924     509.3634    386.52968    200.91918    37401.237 
  532800    305.03954   -1451.5469    507.65665    431.82759    88.375168    37401.237 
  532900    304.23416    -1498.981    500.00422    373.10878     230.3903    37401.237 
  533000    297.00842   -1496.2635    505.03848    348.27273   -229.34931    37401.237 
  533100    296.41598   -1520.9632    494.64154    310.50421    242.32574    37401.237 
  533200    295.43026   -1533.3658    482.19819    281.21268   -142.64854    37401.237 
  533300    297.46606   -1474.7762    517.31329    384.09884   -294.91376    37401.237 
  533400    289.75929   -1488.4941    506.54347    324.85377    30.412036    37401.237 
  533500      296.426   -1517.5178    497.47357    316.82685    115.49794    37401.237 
  533600    308.90033   -1453.5959    542.01713    481.55106     805.4936    37401.237 
  533700    297.28031    -1433.681    493.97643    401.01943    706.07657    37401.237 
  533800    289.23291   -1457.3071    542.65194    389.77527   -124.41336    37401.237 
  533900      302.603   -1507.1169    513.07664    370.68884    220.96876    37401.237 
  534000    296.78527   -1496.9667    528.84835    370.37304    53.773169    37401.237 
  534100    293.44238   -1490.8349    511.02436    343.60454   -776.68549    37401.237 
  534200    294.66171   -1500.6981    501.08774    329.30386   -279.35759    37401.237 
  534300    301.15172   -1492.1535     514.0004    380.03076   -621.36667    37401.237 
  534400    297.15875   -1500.9498    514.89818     354.1241    -599.8394    37401.237 
  534500    300.86097   -1484.0451    472.93935    345.76692   -9.3177711    37401.237 
  534600    303.84585   -1467.1785      513.142    416.29788   -140.94227    37401.237 
  534700    310.78451   -1468.9195    511.20742    443.91541    137.21422    37401.237 
  534800     287.8929   -1432.4983    518.81287    384.70162   -358.17937    37401.237 
  534900    299.82445     -1499.53    504.28538    356.95336   -33.581819    37401.237 
  535000      299.752   -1463.3586     493.6054      382.118   -139.31781    37401.237 
  535100    295.15745   -1494.0432     511.8725     348.9792   -523.75344    37401.237 
  535200    291.24246   -1506.3584    471.18274    278.31782    52.869623    37401.237 
  535300    305.91402   -1490.7401    533.14843    422.07008    487.34683    37401.237 
  535400    301.82178   -1470.0187    513.65809    404.84519    734.46674    37401.237 
  535500    310.17249   -1505.1714    486.36712    380.06292    328.81353    37401.237 
  535600    300.39747   -1479.2861     503.8028    379.29895    804.71084    37401.237 
  535700    301.18458   -1469.2235     529.9762    419.08479    675.25869    37401.237 
  535800    306.88054   -1463.2712    516.34775     437.0972    254.36453    37401.237 
  535900    297.88949   -1475.3487    507.12039    375.24307   -383.23599    37401.237 
  536000    305.14983   -1489.8868    491.96052    378.28895   -75.644506    37401.237 
  536100    307.68453   -1486.7381    502.05333     402.9619   -319.60527    37401.237 
  536200    305.34518   -1505.2034    477.39814    349.29097     145.9022    37401.237 
  536300     297.6011   -1447.8302    502.45705    396.79754    55.564656    37401.237 
  536400    299.14133   -1485.3178    498.07014    361.86944    219.88849    37401.237 
  536500    300.01639   -1474.3841    512.85704    391.53652    146.45248    37401.237 
  536600    313.33869   -1497.3324    491.02532    406.83961     397.1255    37401.237 
  536700    307.09881   -1488.9166    502.09368    398.18213    3.0492349    37401.237 
  536800    304.78213   -1451.3226    500.00704     423.2414   -299.46372    37401.237 
  536900    294.37542   -1458.3522    538.65207    407.92292   -312.30921    37401.237 
  537000    299.18827   -1510.8477    490.23889    328.71998   -651.56416    37401.237 
  537100    298.24279   -1516.3898    494.16198    322.83688   -44.430425    37401.237 
  537200    290.44828    -1531.555    501.64747    280.00421   -322.17855    37401.237 
  537300    294.14471   -1498.2872      493.774     322.0693   -205.35187    37401.237 
  537400    303.79562   -1500.4436    522.72339    392.38753   -526.41766    37401.237 
  537500    313.86407   -1482.8609    478.72977    411.38508    451.85517    37401.237 
  537600    305.50326   -1505.9994    493.07341     364.8832   -219.93581    37401.237 
  537700    293.80417   -1517.7978     490.9291    298.17804   -204.79812    37401.237 
  537800    293.98365    -1497.008    499.47948    328.32763   -111.43745    37401.237 
  537900    305.89967   -1498.7536    499.40484    380.24817    150.98801    37401.237 
  538000    300.39288   -1476.8304    475.23111    353.16229    219.00134    37401.237 
  538100    297.25545   -1471.9065    494.09572    362.80106   -337.35496    37401.237 
  538200    292.98103    -1461.586    500.86912    360.61745   -155.32632    37401.237 
  538300    298.79986   -1468.9372    494.05785    372.69772    575.66314    37401.237 
  538400    296.56007   -1456.5828    529.30861    410.20155     810.4452    37401.237 
  538500    292.03589    -1504.242    473.59973    286.42953    128.84155    37401.237 
  538600    298.00289    -1500.662     496.8432    340.16402   -514.43669    37401.237 
  538700    298.32099   -1480.8371    508.70504    373.28531     -94.1758    37401.237 
  538800    296.24472   -1460.1901    506.00509    381.86846   -590.08769    37401.237 
  538900    295.50642   -1497.8757    506.45696      341.305   -502.02995    37401.237 
  539000    300.07544   -1472.1648    515.61196    396.77707   -181.34275    37401.237 
  539100    290.47454   -1466.1881    500.31427    344.15641   -222.22595    37401.237 
  539200    289.49712   -1511.0626    529.86364    324.42311    1.4531133    37401.237 
  539300    300.44483   -1484.2441    493.35237    364.10413    423.62704    37401.237 
  539400    300.44324   -1482.1362    518.65993    391.51237    167.35835    37401.237 
  539500    300.60368   -1493.9906    491.51683    353.23846    103.14146    37401.237 
  539600    293.50622   -1492.4198    501.18257     332.4657    40.269295    37401.237 
  539700    294.41359   -1487.4506    495.44253    335.78709    438.13838    37401.237 
  539800    305.53405   -1485.4865    525.47601    417.93755    134.16451    37401.237 
  539900    297.62925   -1495.8737    530.94506    377.36906   -269.65532    37401.237 
  540000    301.82807   -1505.3929    507.43351    363.27486    -258.8878    37401.237 
  540100    299.29994    -1507.942    521.76576     363.6562    -249.1386    37401.237 
  540200    293.11698   -1485.4683    514.94084    351.42001    -1019.285    37401.237 
  540300    304.18648   -1448.2261    510.90616     434.5506   -590.56446    37401.237 
  540400    286.72923   -1493.3531    506.44206    306.22786   -545.77339    37401.237 
  540500     292.6015   -1488.9521    514.14088     344.8115   -900.36651    37401.237 
  540600    298.45131   -1491.5666    516.11437    370.55295   -157.03548    37401.237 
  540700    299.00993   -1508.8734    490.08986    329.74094   -483.14199    37401.237 
  540800    305.42125    -1471.777    525.82395     431.4863   -685.82149    37401.237 
  540900    297.00378   -1511.5933    508.88511    336.76866   -252.94584    37401.237 
  541000    306.68618   -1489.4343      502.006    395.71582    443.71379    37401.237 
  541100    295.82549   -1472.1368    540.76832    402.79431    133.94847    37401.237 
  541200    301.04822   -1521.1009    507.45627    344.07247     355.0673    37401.237 
  541300    305.62428   -1492.8194    516.67203    402.20763    965.41671    37401.237 
  541400    310.13738   -1510.7873    510.72673    398.64831    882.64395    37401.237 
  541500    303.32978   -1492.3111    501.97279    377.66852    405.05784    37401.237 
  541600    296.42804   -1534.6496    493.65566    295.88634    334.20047    37401.237 
  541700    299.46117   -1498.3659     506.0102     358.2039     457.2262    37401.237 
  541800    299.02391   -1468.9387     507.6833    387.33211   -48.622098    37401.237 
  541900    298.17747   -1462.4983    487.99025    370.26211   -77.361668    37401.237 
  542000    289.85036   -1456.5137    530.32103    381.02248   -943.13185    37401.237 
  542100     302.7926   -1474.7905    510.11892    400.91264   -624.64355    37401.237 
  542200    297.77734   -1491.7073    492.65436     343.9126   -614.66329    37401.237 
  542300    303.88768   -1435.1143    517.74795    453.15669   -691.64434    37401.237 
  542400    307.76203   -1465.7608    495.49563    417.73095   -324.59765    37401.237 
  542500    297.19368   -1488.9827    507.85541    359.20602   -52.578912    37401.237 
  542600     296.2703   -1479.3749    530.52727    387.32125   -358.45284    37401.237 
  542700    296.36054   -1451.6077    518.38584    403.35396    517.36822    37401.237 
  542800    304.58722   -1460.7095    528.56755    441.53592    2.2050299    37401.237 
  542900    300.50414    -1486.054    508.64912    377.85846    196.52231    37401.237 
  543000    299.62756   -1475.5615     507.6971    383.44561   -179.40125    37401.237 
  543100    293.08772   -1494.6555     524.2783    351.43834   -517.65802    37401.237 
  543200    293.63058   -1478.6257    492.63228    338.27036     156.3632    37401.237 
  543300    295.32018   -1505.3946    507.92656    334.41579    128.34865    37401.237 
  543400    300.14641   -1460.9859    495.00809     387.6722    566.46609    37401.237 
  543500    296.01284   -1514.2307    509.07616    329.85317     370.8368    37401.237 
  543600    291.17954   -1475.6082    508.80265    346.40422    159.04407    37401.237 
  543700    299.26604   -1485.3949    503.47707    367.76174   0.99895024    37401.237 
  543800    295.33047   -1476.5563    511.84138    367.21535   -197.25838    37401.237 
  543900    306.86727   -1504.3938    498.66464    378.23162    11.935042    37401.237 
  544000    301.80851   -1503.6087    494.08199    351.61932    53.064688    37401.237 
  544100    294.42327   -1509.7274    500.92399    319.03536    -647.1762    37401.237 
  544200    306.72771   -1523.2754    502.68378     362.7398   -24.188294    37401.237 
  544300    303.39943   -1529.2021    514.01929     353.1382    173.42248    37401.237 
  544400    300.64077    -1560.417    462.77822    258.24079    53.747708    37401.237 
  544500    303.34443   -1497.3092    532.01344    402.77721   -1081.6165    37401.237 
  544600     297.1957   -1486.7742    485.04294    338.61114   -189.40406    37401.237 
  544700    303.89001   -1524.5073    492.63823    338.66443   -380.65183    37401.237 
  544800     302.4454   -1522.5234     497.0553    338.55029    337.26125    37401.237 
  544900    293.13135   -1538.8667    496.13806    279.28362   -286.30813    37401.237 
  545000    307.75625   -1494.2559    517.85859    411.57276    396.57386    37401.237 
  545100    300.79261   -1505.9401     507.6906    358.31487   -433.83055    37401.237 
  545200    297.59814   -1526.6352    519.37978    334.90197   -731.01768    37401.237 
  545300    302.11535    -1535.326    492.05247    319.25631   -149.48518    37401.237 
  545400    308.85922   -1555.6289    496.88456    334.20007   -258.72784    37401.237 
  545500    299.96723   -1519.4576    474.35431    307.73858   -94.247069    37401.237 
  545600    299.32614   -1523.0929    491.11906    317.97679    91.833007    37401.237 
  545700    296.28428   -1516.4023    481.11273    300.94231    748.23222    37401.237 
  545800    299.23929   -1529.7971    521.17333    340.93519    168.58993    37401.237 
  545900    303.07699   -1543.4883    491.47968    314.85816   -147.86122    37401.237 
  546000    303.26338   -1553.7226    486.18288    300.16765    148.57316    37401.237 
  546100    298.69308   -1520.6429    473.47175    299.92439    75.113992    37401.237 
  546200    303.81544   -1577.4814    471.48867    264.20447    321.25355    37401.237 
  546300    299.72089   -1565.2478    510.76688    297.25002    892.35076    37401.237 
  546400    303.13562   -1542.5744    505.98094    330.53777     582.6339    37401.237 
  546500     299.1017    -1548.801    498.58929    298.72671   -15.454956    37401.237 
  546600    298.78222   -1507.0245     488.5718    329.04488   -54.493464    37401.237 
  546700    303.34253   -1504.8874    507.37394    370.55094   -642.61894    37401.237 
  546800    298.72256   -1498.0176    503.22506    352.43593   -570.65117    37401.237 
  546900    306.28148   -1525.3093    510.11837    366.12805   -1029.2067    37401.237 
  547000    302.57525   -1505.3246    507.14238    366.42172   -684.76719    37401.237 
  547100    308.30396   -1450.5839    515.77651    455.63282   -606.84645    37401.237 
  547200    291.56711   -1460.3671    523.49865    378.08917   -1282.9709    37401.237 
  547300     299.9378   -1450.4028    510.16521     412.4716   -586.48045    37401.237 
  547400    307.07422   -1459.1383    495.08985    420.84577     8.165908    37401.237 
  547500    292.67078   -1492.0955    506.01686    333.85654   -377.49892    37401.237 
  547600    311.82076   -1474.8314    522.00432    453.47382    260.63688    37401.237 
  547700    293.03377   -1489.5925    515.20272    347.18249    -179.3836    37401.237 
  547800    295.45027   -1503.1479    537.53034    366.85294   -264.03566    37401.237 
  547900    303.97435   -1464.1454    517.13583    423.90428   -235.06414    37401.237 
  548000    291.69304   -1478.0035    524.37088    361.89299   -476.41584    37401.237 
  548100    306.43386   -1437.4596    491.93508    436.48162   -169.94421    37401.237 
  548200    307.26207    -1473.573    509.87533    422.04365   -234.58733    37401.237 
  548300    296.90661   -1465.1916    520.61889    394.46588   -377.44597    37401.237 
  548400    307.92057   -1441.7056    515.26626    462.27186   -357.60977    37401.237 
  548500    299.57781   -1467.9194    504.34245    387.50861   -388.30811    37401.237 
  548600    297.12407   -1460.7058    512.00841    391.32197   -286.20218    37401.237 
  548700    286.56956   -1496.1986    519.10433    315.32456   -318.44078    37401.237 
  548800    305.43847   -1490.0461    537.69107    425.16198    127.56482    37401.237 
  548900    294.24386   -1484.2444    491.25753    334.04279   -368.17695    37401.237 
  549000    301.90552   -1496.8003    528.90331    393.68653   -514.36389    37401.237 
  549100    304.86475   -1517.2252    528.24903    385.95333    318.39372    37401.237 
  549200    282.24026   -1492.3781    484.52419       265.04    29.452597    37401.237 
  549300    299.64496   -1509.9828    536.17244    377.57804   -85.707779    37401.237 
  549400     309.6476   -1466.5338    486.80099    416.76719     286.4073    37401.237 
  549500    295.22229   -1454.5052    516.00051    392.93776    838.72349    37401.237 
  549600    306.30745   -1468.7929    507.15737     419.8005    462.10491    37401.237 
  549700    308.06989   -1512.4205    520.42351    397.38764    124.92089    37401.237 
  549800    297.53672   -1479.5086    504.18631    366.55809    350.99659    37401.237 
  549900    299.04596   -1449.5385    504.53669    403.68519    55.677382    37401.237 
  550000    292.59867   -1460.9361    505.73391    364.40774    -443.2338    37401.237 
  550100    304.02102   -1492.2614    493.19612    372.05909    226.29139    37401.237 
  550200    306.12889   -1477.1042    508.22124    411.74779    108.32531    37401.237 
  550300    299.73775   -1538.6623    525.21013    338.35476      143.141    37401.237 
  550400    287.87747   -1482.5611     505.6213     321.3777    181.56328    37401.237 
  550500    299.53188   -1521.1151    516.13489    345.89825    108.11073    37401.237 
  550600    303.46068   -1520.8561    505.44969    353.19084    -612.9199    37401.237 
  550700    292.94687   -1504.9051    481.22194    297.49714   -219.29124    37401.237 
  550800    299.75449   -1477.8631    537.17727    411.19659    -108.6081    37401.237 
  550900    307.23299   -1532.1194    533.12607     386.6169    92.207213    37401.237 
  551000     302.8875   -1506.1359    490.54699    350.42326    131.81081    37401.237 
  551100    308.37052   -1498.1338    504.64571    397.25236    448.37348    37401.237 
  551200    302.43245   -1523.9059    486.42267    326.47669    317.44929    37401.237 
  551300    309.91694    -1564.565      533.269    366.41879    707.61593    37401.237 
  551400     309.3901   -1589.8379    494.95805    300.45888    730.35829    37401.237 
  551500    304.19628   -1535.2406    499.44652    336.12066    510.43866    37401.237 
  551600    302.19739   -1478.5624    515.18056    399.51799   -13.136544    37401.237 
  551700    300.11392   -1462.7861    492.58173    383.29913    390.72509    37401.237 
  551800    297.42573    -1465.435    493.77879     369.7236   -192.94828    37401.237 
  551900     302.3555   -1459.1487    534.85884      439.323    544.61372    37401.237 
  552000     309.4118    -1529.422    526.90866    392.92321    617.86392    37401.237 
  552100    303.75999   -1512.7365    495.91036    353.12096    80.974555    37401.237 
  552200    297.54467   -1504.8901    500.94097    337.96711   -209.83228    37401.237 
  552300    300.75093   -1544.8866    505.34585    316.83557   -668.89336    37401.237 
  552400    293.00963   -1518.4982    528.76127    331.72646    -1086.832    37401.237 
  552500    296.64957   -1494.5261    486.85064    330.20395   -667.65867    37401.237 
  552600    295.40202   -1517.1562    494.48444    309.58121   -253.76585    37401.237 
  552700    306.26823   -1496.0675    477.20139    362.39309   -476.36073    37401.237 
  552800    303.05292   -1509.7957    501.53025    358.49276   -380.05639    37401.237 
  552900    303.07185   -1513.8349     501.9612    354.96989   -272.42154    37401.237 
  553000    298.27438   -1498.2297     519.5835    366.56103   -537.77948    37401.237 
  553100    303.10819   -1569.7042    491.42994    288.73326   -311.95124    37401.237 
  553200    295.84994   -1517.5822    501.09872    317.78958   -241.97955    37401.237 
  553300     295.6899   -1499.1462     490.5877    324.99276    771.55205    37401.237 
  553400    307.54091   -1519.3782    491.55789     359.1786   -86.702743    37401.237 
  553500    290.38427    -1489.075    517.82753    338.37564   -89.185578    37401.237 
  553600    302.69151   -1514.5546    496.09345    346.66715    90.034433    37401.237 
  553700    296.66617   -1547.1229    493.86804    284.69932    550.10458    37401.237 
  553800    308.42767   -1543.7968    480.63162      327.833    154.31782    37401.237 
  553900    305.95536   -1554.1036    495.21417    320.95875   -192.38035    37401.237 
  554000    300.15473    -1523.114    497.41903    327.99254    174.21937    37401.237 
  554100    302.91401   -1511.3957    513.64359    368.37962    359.56682    37401.237 
  554200    287.86825   -1543.6663    504.85799    259.46754   -342.53044    37401.237 
  554300    300.88506   -1504.1376    507.18903    360.03272   -251.84085    37401.237 
  554400    297.20631   -1487.8733    518.37816    370.89517   -810.31821    37401.237 
  554500    296.96367   -1530.6777    475.98208    284.60029   -535.88841    37401.237 
  554600    302.86496   -1520.5686    492.61309    337.95498   -338.33179    37401.237 
  554700    294.40672   -1532.4532    491.93681    287.24776   -370.85537    37401.237 
  554800    305.04685   -1508.0483    508.10553    375.80802   -633.17688    37401.237 
  554900    302.70033    -1557.921    495.59536    302.84245   -763.64792    37401.237 
  555000    293.31192   -1493.3737    518.07854     347.5315   -843.34239    37401.237 
  555100    300.92961   -1496.6247    530.13592    390.69342   -247.47383    37401.237 
  555200    298.49663   -1482.9082    525.00456    388.30584   -15.245018    37401.237 
  555300    303.79168   -1557.0833    509.00035    322.00707    340.35082    37401.237 
  555400    294.73841   -1486.3199    519.78704    362.72728    567.89017    37401.237 
  555500    295.90993   -1446.9819     522.0865    409.64825   -224.59535    37401.237 
  555600    304.63224   -1465.0609    517.91812    426.73813   -285.54317    37401.237 
  555700     300.4473   -1493.4702    524.39356    385.93033   -599.52746    37401.237 
  555800    298.11258   -1491.9346    529.46326    382.00618   -117.71078    37401.237 
  555900    304.49925   -1525.4485    494.91772    342.75035    336.02744    37401.237 
  556000    292.75767    -1498.141    523.27442    345.46046   -406.04037    37401.237 
  556100    295.96717   -1473.7928    511.05257     372.0615   -390.32147    37401.237 
  556200    287.84332   -1466.9726    522.78158     353.9725   -574.94891    37401.237 
  556300    297.65838   -1493.1728    488.48627    337.74248   -542.05165    37401.237 
  556400    290.34693   -1504.4154    521.57851    326.61778   -208.28484    37401.237 
  556500    294.13089   -1492.4118    516.46448    350.57285    87.892019    37401.237 
  556600    300.95978   -1494.1273    485.13735    348.32835    847.58184    37401.237 
  556700    296.50756   -1525.4691    556.23768     368.0075    545.14822    37401.237 
  556800    300.16064   -1517.4713    509.51996    345.76283    402.20603    37401.237 
  556900    299.08955   -1499.0254    535.07214     384.9303    920.03358    37401.237 
  557000     293.3552   -1495.9905    514.06763      341.099    380.84577    37401.237 
  557100    307.48682   -1504.4802    497.90149    380.17625    448.40569    37401.237 
  557200    295.48317     -1545.38    509.91959    297.15856    226.49935    37401.237 
  557300    293.65313   -1503.9493      495.081    315.49723    34.977366    37401.237 
  557400    295.97393   -1493.0894     495.6051      337.348     282.9025    37401.237 
  557500    301.91186   -1489.9542     491.5316    363.18946    198.68594    37401.237 
  557600    300.95261   -1516.8867    506.31345    346.71265    273.45559    37401.237 
  557700    291.59464   -1530.0284    489.72651    274.77984    22.411369    37401.237 
  557800    310.14654   -1515.5468     493.0188     376.2222    199.96821    37401.237 
  557900    303.18632    -1521.833    520.29561    365.82246    413.33958    37401.237 
  558000    299.80819   -1522.9024    513.60049    342.82273    290.61675    37401.237 
  558100    298.16864   -1511.4221    498.57076    331.87894     297.6975    37401.237 
  558200    301.74937    -1491.461    518.72976      388.148   -88.160838    37401.237 
  558300    305.99339   -1486.6145    510.14892    403.55406   -32.826962    37401.237 
  558400    293.03035   -1485.7976    497.09717    332.85637   -233.63251    37401.237 
  558500    302.73265   -1479.7449    509.50527    395.07416   -10.112099    37401.237 
  558600    297.58003   -1500.6326    484.63647    326.07955   -45.879881    37401.237 
  558700    301.35735   -1494.1444    504.50607    369.47302   -15.034719    37401.237 
  558800    312.56417   -1485.8435    498.50213    422.31227   -111.88507    37401.237 
  558900    298.75586   -1469.6418     514.6805    392.41734    174.42066    37401.237 
  559000    302.95822   -1496.8819    512.33081    381.78007   -325.54516    37401.237 
  559100    303.69699    -1511.619    501.83274    359.87676   -365.43427    37401.237 
  559200    300.04076   -1496.9293    513.11609    369.36033   -229.46539    37401.237 
  559300    299.95315   -1493.9362    499.44705    358.28923    -718.0387    37401.237 
  559400    300.30963   -1474.4017    515.08196    395.06635   -312.40889    37401.237 
  559500     298.4817   -1510.1367    497.01755    333.02307   -314.35627    37401.237 
  559600    297.71981   -1498.4691    505.92371    350.16072     435.2016    37401.237 
  559700    293.81043   -1530.1666    500.85634    295.76469   -93.128196    37401.237 
  559800    295.08117   -1510.8582    492.86664    312.81436    551.26222    37401.237 
  559900     297.2361   -1550.3908     481.0658    271.19957    403.93439    37401.237 
  560000     304.9339   -1521.4511    504.76802    358.55828    348.95495    37401.237 
  560100    295.24201   -1524.2052    477.85893      285.185   -219.03399    37401.237 
  560200    302.28609   -1510.1271    500.52727    353.70007    538.28059    37401.237 
  560300    296.16574   -1518.2663    508.06156    325.49259   -192.96402    37401.237 
  560400    292.30778   -1482.7085    492.12674    327.71629   -603.19969    37401.237 
  560500    295.05976   -1456.1278    520.99981     395.5814    139.42203    37401.237 
  560600     296.5032   -1525.3197    519.15633    331.05588   -407.87865    37401.237 
  560700    304.98871   -1491.4259    481.19026    365.25294   -368.06867    37401.237 
  560800    296.99237   -1500.4514     496.0263    335.00028   -616.46959    37401.237 
  560900    295.05738   -1507.3557    512.26168    335.60464   -553.09217    37401.237 
  561000    296.81992   -1495.6497    473.11825    316.11618   -834.19769    37401.237 
  561100    298.75443   -1458.8944    512.75631    401.23409   -541.46827    37401.237 
  561200    304.49089     -1461.59    506.63095    418.28435   -537.67459    37401.237 
  561300    293.18115   -1470.0292    517.73652    369.94422    -76.23625    37401.237 
  561400    301.77256   -1493.3604    500.74308    368.36657    476.85723    37401.237 
  561500    301.59306   -1490.0376    522.06311    392.19989    645.36226    37401.237 
  561600    300.46017   -1471.1343    501.67567    385.60647   -14.210292    37401.237 
  561700    283.63572   -1482.8139     489.1958    285.56926   -133.21261    37401.237 
  561800    298.92573   -1494.3765    500.99541    354.76367   -3.0184773    37401.237 
  561900    293.03635    -1455.633    531.06409    397.01493   -38.272665    37401.237 
  562000    310.80374   -1516.6157    518.79725    403.89571    455.49226    37401.237 
  562100    300.41191   -1493.3635    527.62043    389.10428    584.84655    37401.237 
  562200    305.06884   -1512.4717    501.36961     364.7479   -26.152806    37401.237 
  562300    301.68613   -1515.3264    509.37246    354.64016    81.837525    37401.237 
  562400    299.92173   -1509.0972    489.84666    333.38617   -1.6155579    37401.237 
  562500    286.04181   -1497.3866    523.76279    316.41495    1.4433083    37401.237 
  562600    299.36536   -1456.0634    503.42891    397.49296    106.46387    37401.237 
  562700    299.64913   -1468.5797    503.93053     386.7581   -527.12444    37401.237 
  562800    302.94115   -1464.7458    531.36496    432.87333    -190.8597    37401.237 
  562900    310.49108   -1457.8877    510.28147    452.69787    52.382044    37401.237 
  563000    302.60861   -1476.1591     489.8413    378.43661    102.38816    37401.237 
  563100    304.59559    -1452.025    508.83908    430.52976    512.33051    37401.237 
  563200    299.03575   -1482.6932    525.40239     391.3501    53.539281    37401.237 
  563300    298.86462   -1513.9534    542.98896    376.90472    634.92199    37401.237 
  563400    300.99791   -1496.5677    527.02651    387.94906    448.70045    37401.237 
  563500    303.88262   -1502.3797    518.73184    386.85228    804.87857    37401.237 
  563600    294.21233   -1485.8184    510.78219    351.85133    1180.1595    37401.237 
  563700    293.53025   -1509.6832    496.40612    310.53424    -124.9743    37401.237 
  563800    300.24869    -1448.281    536.69344    442.52372   -274.15077    37401.237 
  563900    297.33851   -1428.8203    519.17878    431.34489   -485.86555    37401.237 
  564000    297.64881   -1436.5221    531.28812     437.1519   -236.79065    37401.237 
  564100    298.25979   -1479.4119    512.38144    378.11092   -467.58079    37401.237 
  564200    302.36001   -1481.0506    496.84601    379.42863   -302.86174    37401.237 
  564300    304.04278   -1453.7727    491.25749    408.70729   -576.65038    37401.237 
  564400    290.09089    -1490.104    505.57709    323.77302   -177.40289    37401.237 
  564500    297.92159   -1452.9095    509.19361     399.9002    141.38089    37401.237 
  564600    292.20423   -1471.0626    515.67221    362.44059   -70.227988    37401.237 
  564700      303.583   -1481.2032    504.30219    392.24792   -296.33449    37401.237 
  564800    309.22139   -1460.0101    506.62519    441.19291   -233.94754    37401.237 
  564900    306.53806   -1449.1124    479.60874    412.97242   -510.97846    37401.237 
  565000    294.21759   -1444.6846    528.47481    410.70138   -300.37249    37401.237 
  565100    304.50649   -1462.4856    535.56851    446.39668    -16.96021    37401.237 
  565200    306.02218   -1494.2052    505.24373      391.188    241.26947    37401.237 
  565300    295.01775   -1489.1554    497.02439    338.38891     203.6271    37401.237 
  565400    305.02511   -1455.5605    507.99996    428.09221   -120.49259    37401.237 
  565500    308.62397   -1452.9993    515.72519    454.60938    342.78493    37401.237 
  565600    295.23935   -1501.2926    510.37894    340.60561    4.2689924    37401.237 
  565700    303.71029   -1451.3552    517.50576    435.87353    362.40795    37401.237 
  565800    294.54853   -1490.2798    492.46054    330.58452     -472.986    37401.237 
  565900    297.65296   -1471.1539    519.64406    390.89475    24.871654    37401.237 
  566000    305.37677   -1477.0003     470.8721    371.11048   -77.091554    37401.237 
  566100    301.24719   -1446.6623    501.75301    413.70516    -551.0724    37401.237 
  566200     298.9653   -1497.6738    509.35295    360.00232   -25.403884    37401.237 
  566300    297.22587    -1452.627    526.97527     414.8267    467.97599    37401.237 
  566400    313.21799    -1444.628    511.72244    479.69677   -30.069839    37401.237 
  566500    297.86358   -1467.2045    509.52376    385.67374    -59.70208    37401.237 
  566600    316.49591   -1492.4168     513.7404    448.70925    618.21224    37401.237 
  566700    293.01352   -1464.4694      543.522    400.53346    352.42183    37401.237 
  566800     303.1941   -1464.2461    549.10387    452.25278    485.41415    37401.237 
  566900     309.1921   -1442.6193    510.62742     462.4539    878.12208    37401.237 
  567000    306.94768   -1460.6526    520.50523    444.17614     424.0834    37401.237 
  567100    298.73715   -1458.3979    544.64023    433.53662    149.31902    37401.237 
  567200    307.72026   -1428.5943    498.18667    457.40021    65.906608    37401.237 
  567300    301.15891   -1481.2021    529.99867    407.01289   -46.100698    37401.237 
  567400    298.70906   -1454.3573    516.98575    409.79599    -449.5222    37401.237 
  567500    303.41867   -1428.9416    493.42775    432.89391   -218.48386    37401.237 
  567600    299.70705   -1469.3843     508.0718    390.35604   -187.61788    37401.237 
  567700    296.98093   -1483.3691     526.8067    382.81136    582.04815    37401.237 
  567800     305.7295   -1484.6709    511.30601    405.46459    630.44979    37401.237 
  567900    305.75113   -1513.6771    507.35894    372.60887   -28.678461    37401.237 
  568000    301.11575   -1489.2786     510.8405    379.58355   -172.67676    37401.237 
  568100     304.3113   -1483.0338    511.08494    400.48469   -317.20407    37401.237 
  568200    300.15004    -1479.869    495.44756    369.24492    210.50313    37401.237 
  568300    297.43034   -1493.0125    532.55671    380.94483    107.57741    37401.237 
  568400    311.78211   -1480.0074    524.32581    450.44504   -275.39936    37401.237 
  568500    298.41752   -1458.6739    507.19428    394.37317   -596.40165    37401.237 
  568600    293.40394   -1461.4899    517.36087    379.11267   -351.83598    37401.237 
  568700    286.16637   -1459.5397      489.194    320.25481   -917.62272    37401.237 
  568800     307.2141   -1497.8619    504.42211    392.08527   -719.47174    37401.237 
  568900    309.55287   -1466.9051    501.15042    430.31807   -662.09078    37401.237 
  569000    290.65245   -1487.9643    520.02813    342.89636   -483.89009    37401.237 
  569100     310.2847   -1505.6738     524.3052    418.00469   -863.45628    37401.237 
  569200     300.2519   -1475.3027    500.43122    379.25423   -700.89414    37401.237 
  569300    304.49062   -1422.0522    497.85161    449.04167    -26.00702    37401.237 
  569400    301.98592   -1472.3938    519.70454    409.25684    498.13952    37401.237 
  569500     309.8983   -1427.7864    540.44591     510.2902     807.0476    37401.237 
  569600     303.4915   -1440.7384    521.77716    449.77497    251.30303    37401.237 
  569700    302.05942    -1465.838    497.64055     394.0802    467.92386    37401.237 
  569800    299.82864   -1481.4481    543.21067    413.97948    496.43136    37401.237 
  569900    293.81415   -1473.7183    507.56756    358.94096    665.93723    37401.237 
  570000    291.32126   -1470.3301     519.2725    362.79124    443.11465    37401.237 
  570100    297.70412   -1463.7556    524.94521    403.82495    783.02652    37401.237 
  570200    305.92683   -1497.9657    536.07387     417.8276     1196.656    37401.237 
  570300    296.19988   -1482.4582    519.70965    373.10269    1048.6401    37401.237 
  570400    303.81035   -1469.4927    531.86902    432.55059    504.74166    37401.237 
  570500    293.28208   -1488.9339    517.26146     351.0197    535.62566    37401.237 
  570600    296.38892   -1472.6172    561.50263    425.58929    572.04377    37401.237 
  570700    299.11076   -1473.0932    529.60848     405.4945    581.57901    37401.237 
  570800     296.1736   -1444.0809    534.09281    425.74471    250.21822    37401.237 
  570900    299.61986   -1463.0525    497.92396     386.1467   -207.76033    37401.237 
  571000    301.33254   -1443.0905     523.5864    439.49534    429.46971    37401.237 
  571100     294.2404   -1489.8226    534.06885    371.26031    65.167809    37401.237 
  571200    308.83762   -1515.8765    543.81151    420.78203    783.05489    37401.237 
  571300    290.54878   -1451.5792    497.99241    356.77821    631.35156    37401.237 
  571400     301.9481   -1468.2533    518.84047    412.36271    287.69234    37401.237 
  571500    297.20514   -1475.8437      549.306    413.84729    544.14466    37401.237 
  571600     301.6677    -1472.836    521.57499     409.2499    524.17924    37401.237 
  571700    307.44415   -1477.4164    547.28546    456.43162    197.00913    37401.237 
  571800    303.06497   -1456.3963    532.98771    443.40405    -51.63301    37401.237 
  571900    291.83971   -1480.5477    515.76311     351.4024   -216.80647    37401.237 
  572000      295.294   -1427.1714    526.16365    430.75805   -264.93865    37401.237 
  572100    301.86949   -1443.6293    501.80079    419.59251   -242.47619    37401.237 
  572200    300.46497   -1440.8543    519.26541    433.49775   -481.44137    37401.237 
  572300    287.43921   -1460.5856    523.77024    359.52555   -643.12595    37401.237 
  572400    288.52214   -1452.5066    535.08309    383.80141   -272.03542    37401.237 
  572500    296.33943   -1496.9448    523.98162    363.51753   -86.596123    37401.237 
  572600    304.01753   -1539.1573    506.80961    338.76091   -18.857724    37401.237 
  572700    306.00339   -1481.3785    530.69515    429.38146    303.56747    37401.237 
  572800     308.5391   -1496.0292    515.88606    411.35763    89.821901    37401.237 
  572900    294.07614    -1552.481     507.9523    281.74454   -512.87223    37401.237 
  573000    303.35262   -1530.5207    506.98188    344.57109   -33.468038    37401.237 
  573100    304.39309   -1485.3876    524.20555    411.62031   -269.41084    37401.237 
  573200    299.54352   -1512.5842     552.0517    390.39843   -396.22383    37401.237 
  573300    296.32811   -1480.3648    533.43149     389.4963    36.001421    37401.237 
  573400    300.55579   -1507.5535    555.59334    403.53609    154.67255    37401.237 
  573500    297.34223   -1487.1151     503.8763    357.76438   -317.24632    37401.237 
  573600    308.83549   -1506.9282    514.76429    400.67352   -410.05145    37401.237 
  573700    310.47605   -1521.5156    499.65615    378.37679   -182.19159    37401.237 
  573800    296.06183   -1532.1405    581.29857    384.38675      264.525    37401.237 
  573900    301.84057   -1505.9401    494.96583    350.31633    661.41585    37401.237 
  574000    307.56994   -1543.5846    531.04947    374.59472    996.13059    37401.237 
  574100    292.64901   -1543.8807     526.2508    302.20708    1339.2748    37401.237 
  574200    299.71159   -1545.1608     529.1633     335.6915    248.44889    37401.237 
  574300    301.53408   -1549.5367    527.49725    337.86889   -107.21385    37401.237 
  574400    304.48119   -1585.1785    497.19823    285.21942    631.33797    37401.237 
  574500    289.12716   -1592.1351    515.94934    227.76778    196.91807    37401.237 
  574600    294.21085    -1576.954      517.428     267.3548    365.90886    37401.237 
  574700    301.30217   -1547.9166    513.64413    324.58999    107.87177    37401.237 
  574800    298.05541   -1553.9645    526.01728    316.27238   -20.293583    37401.237 
  574900    301.64799    -1538.288    501.36072     323.4948    415.16684    37401.237 
  575000    303.54539   -1503.9745    534.91471    399.91951    151.44445    37401.237 
  575100    300.33607   -1511.7454    531.90854    374.66846    438.60423    37401.237 
  575200    297.01833   -1573.7596    518.31291    284.09574    552.71601    37401.237 
  575300    299.38977   -1579.1054    512.73074    283.86285    61.639078    37401.237 
  575400    311.42719   -1560.6008    523.11553    367.04065   -479.97462    37401.237 
  575500    295.04198   -1552.1958    536.27563    314.70898   -226.43953    37401.237 
  575600     295.4598   -1566.2414    515.26511     281.5372   -579.12171    37401.237 
  575700    305.50844   -1535.9834    542.35792    384.20707   -430.12762    37401.237 
  575800    291.63424   -1523.8871    522.61241    313.98576    146.24887    37401.237 
  575900    292.88432   -1565.0042    503.31005    259.20409    122.76379    37401.237 
  576000    302.74534   -1539.6035    552.73556    378.50309    27.498741    37401.237 
  576100    293.61191   -1535.6141    513.85075    302.41629   -366.85364    37401.237 
  576200     306.4305   -1559.2844    537.72076    360.42737    79.412302    37401.237 
  576300    297.44318   -1539.7007    510.79316    312.55094   -61.479339    37401.237 
  576400    306.98958   -1557.8825     535.2428    361.87272   -563.95576    37401.237 
  576500    302.92529   -1534.6375    519.81587    351.36107   -445.90616    37401.237 
  576600    302.29084   -1530.4523    499.01452    331.88352   -453.38378    37401.237 
  576700    306.36392   -1552.9424    517.41184    346.16013   -530.25674    37401.237 
  576800    304.84902   -1480.9971    553.63145    447.49291   -326.54478    37401.237 
  576900    296.60904   -1490.2267    509.07489    356.54472   -351.23108    37401.237 
  577000    304.79095   -1569.9675    527.18619    331.81537   -274.10616    37401.237 
  577100    290.96165   -1511.5814     510.7656    311.41128   -369.08385    37401.237 
  577200    310.19053   -1538.9737    521.11012    381.08502   -32.007191    37401.237 
  577300    305.29938    -1479.491     533.2624    430.66111   -360.71221    37401.237 
  577400    290.09829   -1457.5231    559.82087     410.6311    223.68401    37401.237 
  577500    300.66931   -1496.8238    523.51112    382.69554   -551.72621    37401.237 
  577600    309.57953   -1524.7443    517.40316    388.85188   -781.05396    37401.237 
  577700    303.18347   -1512.0136    527.53165      382.865   -268.06731    37401.237 
  577800     289.3042   -1471.8189     514.8111    347.74415    36.906708    37401.237 
  577900    309.43313   -1487.9388    533.13913     440.7331    82.935518    37401.237 
  578000    312.46234   -1470.8305    547.87077    486.23472   -338.45787    37401.237 
  578100    306.11557    -1509.098    479.91353    351.38619     464.1805    37401.237 
  578200    301.76016   -1528.0991    524.22314    357.05202    -111.1385    37401.237 
  578300     297.1318   -1508.9751    481.44117    312.52021   -101.91515    37401.237 
  578400    296.48004   -1514.0432    511.33464    334.40618    -209.5305    37401.237 
  578500    290.48998   -1487.3878    496.16165    318.87369    321.86955    37401.237 
  578600    298.02913   -1523.4122    495.59999    316.28888   -149.01162    37401.237 
  578700    305.90387   -1544.4779    558.79246     393.9305    254.75566    37401.237 
  578800    290.17851   -1534.0125    541.25625    315.93888    336.45181    37401.237 
  578900    301.31803   -1539.0404    495.66751    315.56111    745.06976    37401.237 
  579000    308.60211   -1538.0649    504.95758    358.67762   -156.80106    37401.237 
  579100    291.24659   -1492.4135    524.01668    345.11531    147.24385    37401.237 
  579200    304.98641   -1498.6959    530.49605    407.27832    82.134866    37401.237 
  579300    304.28164   -1472.4484    541.86521    441.71655   -394.09106    37401.237 
  579400    296.66409   -1494.3233    501.54293    345.16441     -535.767    37401.237 
  579500     296.2086   -1537.4029    493.89237    292.38002   -315.07892    37401.237 
  579600    309.61657   -1558.3617    528.34733    366.34571   -100.39396    37401.237 
  579700    303.43033   -1529.6241    520.55427    359.39052   -650.22436    37401.237 
  579800    294.23743   -1487.3545     523.7886    363.43476   -492.04445    37401.237 
  579900    307.04886   -1506.1106    526.23618     404.9054    152.35874    37401.237 
  580000    301.63022   -1538.1369     492.7856    314.99058    323.51016    37401.237 
  580100    301.86949   -1498.8816    502.46433    365.00373    79.601131    37401.237 
  580200    296.27619   -1519.3754    492.28361    309.10369   -3.7875511    37401.237 
  580300    297.92466   -1506.9294    485.01696    321.71752     146.1205    37401.237 
  580400     307.4691   -1534.9766    516.44287    368.14136    1.9794083    37401.237 
  580500    299.56306   -1546.1305    501.16347    306.05207   -348.12964    37401.237 
  580600    301.26145    -1548.268    502.09973    312.51047   -386.68579    37401.237 
  580700    294.13943   -1492.2933    515.54393    349.80933   -421.04533    37401.237 
  580800    298.89418   -1522.1991    519.28012    345.08349   -446.05824    37401.237 
  580900    296.30407   -1516.0139    493.54178    313.84906   -66.275547    37401.237 
  581000    302.85189   -1492.2197    487.13635    360.76823   -686.90482    37401.237 
  581100    300.22675   -1496.5306    495.92734    353.40906   -157.85531    37401.237 
  581200    303.07678   -1482.4258    512.99602    397.43611   -711.86474    37401.237 
  581300    298.09189   -1462.6208    510.99111    392.75453    -403.8493    37401.237 
  581400    286.26524   -1490.5267    500.61387    301.13358   -664.60052    37401.237 
  581500    303.76625   -1512.9905    495.40656     352.3914   -574.86646    37401.237 
  581600    310.40827   -1517.4729    502.41209    384.86976   -342.50627    37401.237 
  581700    294.20777   -1492.0408     499.2214    334.04749    -750.1028    37401.237 
  581800     314.4253   -1499.9727    490.73757    408.81216    40.786678    37401.237 
  581900    311.89101   -1466.2379    492.43609    432.81587   -453.10229    37401.237 
  582000    304.68776   -1466.4668    497.31188     404.9764   -778.54464    37401.237 
  582100    307.67608    -1525.566    474.09802    336.14057   -56.750822    37401.237 
  582200    301.23774   -1521.8838    511.46771    348.15581   -267.13766    37401.237 
  582300    298.81596   -1526.7322    537.29082    358.20828   -661.17259    37401.237 
  582400    300.42621   -1492.0365    504.81079    367.68618   -286.93788    37401.237 
  582500    298.19593    -1488.302    508.17249    364.72386   -265.65888    37401.237 
  582600     310.0061   -1524.3009    491.53006      365.346   -291.51797    37401.237 
  582700    304.41662   -1526.3697    519.88326    366.42204   -11.860465    37401.237 
  582800    309.79834   -1478.5354    485.24928    403.89372    330.65826    37401.237 
  582900    292.90479   -1479.3168     535.8471    377.52081     305.1934    37401.237 
  583000    299.02636   -1515.4777    519.64212      352.763    86.010639    37401.237 
  583100    297.55788   -1495.4619    492.04689    338.56077    131.64982    37401.237 
  583200    300.07258   -1496.0268    545.99126    403.28146   -96.281548    37401.237 
  583300    315.00288   -1504.9512    510.06155    425.76252    -1.654493    37401.237 
  583400    307.55136     -1466.98    505.99637    426.06239    66.482822    37401.237 
  583500    310.51576   -1484.2955    499.92495     416.0448   -295.92103    37401.237 
  583600    300.37915   -1481.4363    496.64552    369.90881   -297.69397    37401.237 
  583700    308.04342   -1516.4109    494.17815    367.03248   -43.831408    37401.237 
  583800    299.86843   -1527.0731    513.81366    339.13689    300.50988    37401.237 
  583900    303.21833   -1519.7474    514.99944    362.75624    69.875624    37401.237 
  584000     298.9514   -1509.0969    503.02724    342.19085    129.69302    37401.237 
  584100    295.79495   -1523.4034    511.67411    322.29573   -529.45856    37401.237 
  584200    293.68179   -1532.3433    474.09402    266.24546   -315.01087    37401.237 
  584300    302.81806   -1554.5049    514.68108    325.87525   -98.739883    37401.237 
  584400    292.00321   -1580.8026    506.91948    243.04132   -44.429352    37401.237 
  584500     307.8844   -1556.7118    466.70926    298.54555   -246.26705    37401.237 
  584600    298.67684   -1530.4747    504.48372    321.03135    227.51097    37401.237 
  584700    288.75731   -1600.7659    498.01147    199.53115    431.29994    37401.237 
  584800    300.13666   -1562.6436    500.51079    291.47324    500.77805    37401.237 
  584900     291.2755   -1579.7015    488.54495    222.48595    109.11836    37401.237 
  585000    297.78475   -1511.4707    487.76047    319.28875    724.41856    37401.237 
  585100    254.92391   -1522.2706    515.78345    143.21091   -287.45522    37401.237 
  585200    297.95326   -1521.5875    536.91317    359.08459   -175.32867    37401.237 
  585300    294.84167    -1587.167     496.4733    239.03208    112.93757    37401.237 
  585400    295.85858   -1578.2112    502.28674    258.38761    83.148908    37401.237 
  585500     301.4853   -1555.1325    484.22962    288.78547   -70.929781    37401.237 
  585600    302.82172   -1521.6832    497.01908    341.05137    -309.0423    37401.237 
  585700    297.49893   -1524.5241    516.77176    333.95761   -247.97437    37401.237 
  585800     294.3775   -1523.2634    529.21968     333.5887    207.91001    37401.237 
  585900    300.66672   -1542.1615    507.97894    321.81401    246.72629    37401.237 
  586000    307.83659     -1594.14    510.34846    304.54089    410.40004    37401.237 
  586100    304.24054   -1536.2161    478.72937    314.62769    -57.83433    37401.237 
  586200    290.71704   -1543.0646    509.10738    277.16662   -36.759883    37401.237 
  586300    299.81744   -1531.6999    518.38821    338.85468    90.820949    37401.237 
  586400    307.92138   -1526.9197    495.27384    357.06897   -15.904241    37401.237 
  586500    301.82478   -1539.2618    501.94738     323.9049    349.84038    37401.237 
  586600    287.26985   -1526.2535      508.915    278.23857    568.60292    37401.237 
  586700    310.57433    -1574.808    504.85991    330.73146    747.79077    37401.237 
  586800    297.55274   -1587.2087    495.76481    250.50877    208.52089    37401.237 
  586900    292.16389   -1576.4607     504.2072    245.39555   -123.80711    37401.237 
  587000    302.32843   -1590.7392    488.22649    260.97813   -598.04307    37401.237 
  587100    306.91598   -1601.9836    488.29022    270.48712   -656.81273    37401.237 
  587200    299.46085   -1596.5373    503.12667    257.14746   -310.60662    37401.237 
  587300    303.15093    -1592.606    481.24706    255.84137    -521.6463    37401.237 
  587400    305.18874   -1611.8103    486.33672    250.91713   -453.87005    37401.237 
  587500     297.8783   -1592.2225    491.30514    242.50348    167.49631    37401.237 
  587600    296.07574   -1602.2977    488.84168    221.83536   -145.25238    37401.237 
  587700     301.6989   -1587.8812    493.44506    266.21546   -373.23039    37401.237 
  587800    296.52826    -1586.521    492.36966    243.18095   -164.50099    37401.237 
  587900    295.38913   -1583.1865    491.50711    240.51539    444.52674    37401.237 
  588000    298.83771   -1564.2442    517.65809    301.16173   -194.39258    37401.237 
  588100     299.5265   -1586.8254    479.46985    243.49867    -203.2066    37401.237 
  588200    306.11913   -1558.3748    509.39512    331.60711    204.38172    37401.237 
  588300    301.51201   -1569.8424    505.39583    295.36222     170.8126    37401.237 
  588400    301.54098   -1594.3493    486.10139    251.69148    350.77221    37401.237 
  588500    309.36426   -1566.4671    498.50122    327.25628   -250.57201    37401.237 
  588600    304.01587   -1568.5544    495.27523    297.82193     791.7746    37401.237 
  588700    293.08636   -1540.1684    498.24297    279.88391    219.73192    37401.237 
  588800    296.45477   -1531.0945    511.22549     317.1318   -42.476441    37401.237 
  588900    298.66485   -1497.5172    494.10037    343.55133    124.07426    37401.237 
  589000    313.49625   -1499.7809    518.50806    432.58452    25.009624    37401.237 
  589100    289.07819   -1503.3741    501.39086    301.74942   -242.47847    37401.237 
  589200    300.14955   -1520.7208    522.55967    355.50298   -199.50258    37401.237 
  589300    297.55887   -1532.3002    495.57119    305.25127   -207.84088    37401.237 
  589400    294.30047   -1535.0903    543.77918    335.97395    417.91033    37401.237 
  589500    295.89047   -1528.4706    482.21406    288.19935    362.46801    37401.237 
  589600    309.52466   -1538.5626    520.77689    378.15987    292.10335    37401.237 
  589700    299.22243     -1566.31    503.30855    286.48138    56.671815    37401.237 
  589800    308.27083   -1525.8639    492.83008    357.25702    33.780149    37401.237 
  589900    295.61049   -1526.1753    502.36356    309.38137    355.34524    37401.237 
  590000    309.09031   -1506.0098    534.81789    422.79472     849.7724    37401.237 
  590100    283.11632   -1480.7165    503.40428    299.53262    623.45971    37401.237 
  590200    302.01468   -1470.6491    521.15795    412.58472    496.48051    37401.237 
  590300    310.98366   -1495.5344    500.51666    407.50783    264.78816    37401.237 
  590400    298.34998   -1503.4887    516.07068    358.13018    546.82162    37401.237 
  590500    302.63415   -1512.5282    535.14385    387.48524   -37.553174    37401.237 
  590600    298.97046   -1534.5201    469.29998    283.12634    32.918496    37401.237 
  590700    299.14162   -1487.4451    534.23085    395.90411   -535.58574    37401.237 
  590800    292.98295   -1481.3989    482.73798    322.68217    12.361935    37401.237 
  590900    296.72515   -1485.4634    514.85765    367.61449    411.47444    37401.237 
  591000    300.39813   -1482.9678    527.99275    399.81016   -53.654474    37401.237 
  591100    309.48208   -1466.9068    507.27573    436.12249   -42.815588    37401.237 
  591200    295.95113   -1469.0342    510.98198    376.67719    700.43334    37401.237 
  591300    294.74041   -1507.6176    528.57934     350.2309   -143.18544    37401.237 
  591400    305.43729   -1485.4032     519.2136    411.32203   -162.40176    37401.237 
  591500    294.94234   -1506.3389    500.88442    324.72535   -340.99833    37401.237 
  591600    293.26775   -1516.3937    517.48365    323.71745   -262.93877    37401.237 
  591700    305.15486   -1485.1987    522.26064    413.29988   -256.56382    37401.237 
  591800    303.35267   -1515.0855    528.86472    381.88934   -513.81469    37401.237 
  591900    313.38454   -1491.0577    508.90662    431.20245   -360.88172    37401.237 
  592000    293.59015   -1486.3157    485.30293    323.06869    -215.8846    37401.237 
  592100    304.26743   -1480.7993    510.68275    402.11912   -137.60543    37401.237 
  592200    303.68499   -1496.6577    505.84451    378.79568   -499.57053    37401.237 
  592300     297.5033    -1477.226    491.97555    356.47914   -363.44241    37401.237 
  592400    290.02937   -1501.7314    516.96241    323.25348   -370.45313    37401.237 
  592500    296.94225   -1517.3291    488.44986    310.32007    122.24093    37401.237 
  592600    295.41238   -1495.2733    493.18725    330.21359   -97.642504    37401.237 
  592700     292.2893   -1435.3639     513.1696    396.02042   -88.868726    37401.237 
  592800    295.00985   -1457.0463     514.1797    387.61768   -298.52731    37401.237 
  592900    300.43363   -1456.2628    510.83886    409.52142   -442.96719    37401.237 
  593000    292.05798   -1493.7591    502.86623    326.27859   -729.93854    37401.237 
  593100    304.61081   -1489.2337    496.29549     380.8461   -792.92444    37401.237 
  593200    284.59618   -1489.7781    502.24369    295.98453   -813.24007    37401.237 
  593300    309.13933   -1505.3861     519.7266    408.54826   -283.38077    37401.237 
  593400    305.97717   -1513.7522     498.4575    364.65179   -62.871736    37401.237 
  593500    295.97408   -1482.5667    524.73969    377.00595    526.17923    37401.237 
  593600    300.79051   -1551.8342    511.45467    316.17534    90.618961    37401.237 
  593700    299.63815   -1471.7872    525.17092    404.74146    115.86156    37401.237 
  593800    293.84504   -1479.8688    519.75998    365.12218   -261.98077    37401.237 
  593900    301.96856   -1489.0502    524.13249    396.95006   -168.76476    37401.237 
  594000    315.75433   -1505.8445    489.52947    407.72611    347.56653    37401.237 
  594100    302.00606    -1496.089     480.2277    346.17568    188.43554    37401.237 
  594200    313.48704   -1492.4624    550.77371    472.12704    212.28033    37401.237 
  594300    297.00001   -1499.7771     499.4396    339.12235   -230.14074    37401.237 
  594400    288.56232   -1509.9515    524.67828    316.13288   -1039.6737    37401.237 
  594500    294.82656   -1479.3419    511.94872    362.26442   -6.4850287    37401.237 
  594600    301.99404   -1458.5883     503.7902    407.18463   -562.74316    37401.237 
  594700    299.73296   -1474.4079    519.10302     396.4804   -585.55696    37401.237 
  594800    290.48631   -1466.4966     523.2389    366.82554   -816.74788    37401.237 
  594900    297.44308   -1447.9158    519.88821    413.43046   -17.151859    37401.237 
  595000     295.7018   -1474.8274    538.25132    397.02888   -400.04201    37401.237 
  595100    294.48729    -1446.423    523.03621    404.74077    557.95052    37401.237 
  595200    296.79949   -1481.4868    523.79895    380.86767    812.54285    37401.237 
  595300    298.10137   -1494.7493    506.13377    355.81142   -5.7098011    37401.237 
  595400    297.91791   -1457.8969     515.9927    401.69529   -309.90655    37401.237 
  595500    296.81382   -1481.1957    518.55817    375.98258    371.16199    37401.237 
  595600    310.58074   -1489.9731    515.78001    426.51536    527.36489    37401.237 
  595700     300.4189   -1458.9526    517.57906    413.50536    564.42325    37401.237 
  595800    291.45179   -1524.0849    512.28335    302.63601   -341.96374    37401.237 
  595900    298.80852   -1532.7934    506.96353    321.78629    312.40405    37401.237 
  596000    310.86549   -1540.6741    506.02285    367.34142   -23.865226    37401.237 
  596100     301.1146   -1517.5633      500.558    341.01124   -240.54466    37401.237 
  596200    306.16308   -1491.3271    506.68011    396.13799    314.55412    37401.237 
  596300    299.96659   -1490.2295    528.86037    391.46982   -565.51668    37401.237 
  596400    300.64173   -1491.4004    545.70855    410.19206   -52.943516    37401.237 
  596500    291.49402   -1513.4402    495.87061    297.05835    395.16354    37401.237 
  596600    298.30902   -1562.9654    544.83093    327.22892   -133.26418    37401.237 
  596700    301.84133    -1588.188    484.62658    257.73263     42.29872    37401.237 
  596800    305.35393   -1553.5337    499.45902    323.06102     787.9948    37401.237 
  596900    294.34141   -1547.2666    499.16206    279.36509    198.90653    37401.237 
  597000    300.62181   -1519.1971    502.54966    339.14659    6.1617295    37401.237 
  597100    298.96711   -1534.9598    525.92264    339.29423    331.61751    37401.237 
  597200    286.42785   -1544.7744    506.04088    253.04625   -109.91176    37401.237 
  597300    311.58927   -1565.4664    488.38962    328.18015    496.24525    37401.237 
  597400    305.35794   -1548.3236    521.81147    350.64172     327.4264    37401.237 
  597500    299.87317   -1550.5471    514.99166    316.86229    300.01321    37401.237 
  597600    305.68698   -1552.0999    510.47242    337.01025    284.13709    37401.237 
  597700    294.51028   -1566.9216    512.21668    273.52632   -1.3047655    37401.237 
  597800     298.5152   -1529.9291    499.34084    315.70499    180.69806    37401.237 
  597900    305.50047   -1557.2243    510.19997     330.7723   -338.14335    37401.237 
  598000    308.78273   -1550.1278    513.43267     355.9044   -384.59304    37401.237 
  598100    297.34362   -1574.6706    508.07869    274.41762    8.1268579    37401.237 
  598200    303.52179   -1527.7137    505.77329     346.9324   -60.402373    37401.237 
  598300    294.78831   -1548.2148    509.07192     290.3422   -930.52136    37401.237 
  598400    301.41894   -1513.4896    518.41374    364.31313   -272.05736    37401.237 
  598500     304.9824   -1490.0741     483.2983    368.68437   -269.70751    37401.237 
  598600    311.37615   -1473.7861    504.77322    435.28281    -788.9011    37401.237 
  598700     297.4597    -1441.747    526.07867    425.86472   -166.19006    37401.237 
  598800    290.78234   -1465.2842    511.06422    357.19834   -340.45452    37401.237 
  598900    289.22082   -1504.5101    504.32687    304.19274   -352.33066    37401.237 
  599000    312.73958   -1502.0348      502.614    411.02392   -564.47706    37401.237 
  599100    291.01153   -1487.2754     514.7786    339.95519   -839.36343    37401.237 
  599200    303.80315   -1522.5139      501.568    349.19589   -218.59558    37401.237 
  599300    298.95382   -1537.5538    510.76789    321.48558    319.09174    37401.237 
  599400     293.6288   -1546.6058    499.99668    277.64672   -391.58107    37401.237 
  599500    299.48158    -1527.933    489.78705    312.50572    168.57245    37401.237 
  599600    289.82528   -1522.2011    500.69501    285.59592    63.104764    37401.237 
  599700    299.73246   -1534.5853    509.04354    326.24137   -482.48541    37401.237 
  599800    310.38547   -1538.8878    544.57603    405.51604   -64.561549    37401.237 
  599900    301.03108   -1519.4166    503.26225    341.48549    206.87224    37401.237 
  600000    293.74149   -1525.6826    488.48801    287.56943    658.97246    37401.237 
  600100    304.93266   -1554.0158    511.21795      332.438    803.51377    37401.237 
  600200      298.546   -1549.9267    479.03368    275.53916    296.36271    37401.237 
  600300    302.70939   -1492.5072    502.84825       375.55    270.36473    37401.237 
  600400    298.17591   -1510.8008    524.54464    358.50689   -32.001294    37401.237 
  600500    293.96018   -1513.8789       488.46    300.33141    370.61076    37401.237 
  600600    305.10246   -1525.1893    487.87039    338.68266    1107.4588    37401.237 
  600700    302.96491   -1518.0564    508.00493    356.30985    779.33302    37401.237 
  600800    295.13681   -1552.3479    510.48434    289.19327    248.62364    37401.237 
  600900    307.28929   -1523.3088    493.84602     356.4013    135.58689    37401.237 
  601000    297.09911    -1483.491    491.48216    347.89793    24.859956    37401.237 
  601100    302.24299   -1541.4089    489.40685    311.10349    116.31771    37401.237 
  601200    295.21787   -1497.4241    487.96698    321.96535   -131.62603    37401.237 
  601300    301.02169   -1513.4298    510.09829    354.26601    546.75956    37401.237 
  601400    296.82169   -1536.0189    499.48616    302.12286    170.89657    37401.237 
  601500    296.88454   -1533.2081    501.85732    307.58822    270.56264    37401.237 
  601600    305.79755   -1469.7656    526.38221    435.75302   -150.97952    37401.237 
  601700    296.51488   -1495.7951    516.36653    357.84336    145.38624    37401.237 
  601800    306.33807   -1497.4152    489.48842    373.64735    218.54727    37401.237 
  601900    296.13511    -1517.858    514.20534    331.90645   -201.96502    37401.237 
  602000    295.59852   -1510.0886    499.94377    322.99429   -297.24193    37401.237 
  602100    292.15506   -1489.7464    498.55267    326.41553   -161.45838    37401.237 
  602200    302.39533   -1495.3481    493.83143    362.27588    249.79334    37401.237 
  602300    308.50575   -1544.3799    491.24528    338.21574    49.129375    37401.237 
  602400    303.49665    -1560.771    487.09398    295.08237   -144.65179    37401.237 
  602500    297.87624   -1539.8554    507.64756    311.20375    88.397502    37401.237 
  602600    303.86373   -1526.7165    507.77892    351.47736    201.72491    37401.237 
  602700    292.52001   -1514.1858    496.17456    301.24392   -89.137885    37401.237 
  602800    292.82274   -1497.1157    524.15558    347.66034    164.77835    37401.237 
  602900    313.42565    -1512.869    489.76289    390.43279    496.38491    37401.237 
  603000    303.10009   -1535.8804    504.67593    335.76648    305.79625    37401.237 
  603100    306.80372   -1496.4734    499.41813    386.61898   -144.16162    37401.237 
  603200      289.399   -1485.9908    501.56014     320.7489   -100.58594    37401.237 
  603300    280.92986   -1469.6714    513.25541    310.56805    60.854731    37401.237 
  603400    304.53025   -1482.5668    508.18729    399.04146   -238.67837    37401.237 
  603500    301.52854   -1520.9147    485.18632    324.15495   -845.66446    37401.237 
  603600    296.85729   -1514.6705    501.17823    325.32386   -1395.6635    37401.237 
  603700    310.08919   -1479.9369    537.23205     455.7867   -310.89649    37401.237 
  603800    306.67717    -1503.597    522.44353    401.95002   -397.91411    37401.237 
  603900    292.14764   -1512.4877     519.0621    324.15023   -129.89577    37401.237 
  604000    298.58014   -1467.8881    502.99285    381.69095   -36.911067    37401.237 
  604100    295.68565   -1411.7706    548.40067     470.1622   -180.01058    37401.237 
  604200    295.20173   -1415.0489    514.11108    430.41185    8.9230203    37401.237 
  604300    302.50627   -1464.3682    547.21896    447.14365   -450.30257    37401.237 
  604400     297.6637   -1471.1334    507.83145    379.15112    429.41768    37401.237 
  604500    314.84915   -1473.8742    525.15803    471.24267    663.21353    37401.237 
  604600     289.7636   -1441.0718    513.37008    379.12214   -370.54779    37401.237 
  604700    295.81198   -1438.4708    534.33304    429.96407   -420.24437    37401.237 
  604800    300.66808   -1484.7813    532.71938    403.94076    -129.4512    37401.237 
  604900     300.3944   -1439.1277     521.0414    436.68213   -82.674554    37401.237 
  605000    308.86106   -1511.1548    522.58832    404.38623    -284.9916    37401.237 
  605100    295.67684    -1504.354    513.88397    343.02236   -401.23921    37401.237 
  605200    298.42409    -1535.231    534.48294    345.13429   -569.89871    37401.237 
  605300     299.5001   -1539.8544    474.00064    284.88143   -607.91182    37401.237 
  605400    300.41888   -1508.9808    510.18706    356.08506    161.27465    37401.237 
  605500     300.8017   -1513.2585    545.11008    388.45693   -58.763759    37401.237 
  605600    294.77952   -1499.6712    469.25299    299.02732    378.62302    37401.237 
  605700    294.35044   -1481.8375    526.66192    372.33473    59.729068    37401.237 
  605800     306.0491   -1501.0093    513.40193    392.66354    699.29123    37401.237 
  605900    307.98204   -1527.3226    510.25231    371.91815     821.4263    37401.237 
  606000    301.64355   -1516.5325    530.91413    374.78364     692.1492    37401.237 
  606100    296.17088    -1528.684    523.03823    330.07466    859.06798    37401.237 
  606200    296.60598   -1577.0259    517.83799    278.49488    339.31033    37401.237 
  606300    303.81928   -1537.1813    491.12872    324.16189   -186.05046    37401.237 
  606400    293.06618    -1533.343     491.8269    280.20228   -95.304998    37401.237 
  606500    312.53537   -1479.9607      517.101    446.66405    -50.45856    37401.237 
  606600    300.15655   -1513.9261    487.62176    327.39132   -411.76848    37401.237 
  606700     300.9014   -1493.5336    528.85898    392.38036   -340.80255    37401.237 
  606800    298.53318    -1540.217    503.01411     309.1715    234.81419    37401.237 
  606900    306.47977   -1551.0106      505.755    336.95766    258.22352    37401.237 
  607000    300.59207   -1528.4696    529.46665    356.65692    490.66805    37401.237 
  607100    299.47117   -1468.6149    513.13698    395.12671    261.80647    37401.237 
  607200    293.41313   -1464.0313      541.209    400.46079     13.89943    37401.237 
  607300    296.23931   -1496.6642    526.79948    366.16439    402.70741    37401.237 
  607400    309.78344   -1494.2992    516.12792    418.94135   -158.34131    37401.237 
  607500    298.46506   -1476.3575    529.78592    399.49552   -98.831628    37401.237 
  607600    298.13323   -1448.2139     498.2964    394.65307   -260.79645    37401.237 
  607700    304.44971   -1519.0087    506.34818    360.39722    -78.20026    37401.237 
  607800    306.38182   -1499.4662    497.75241    380.05762   -139.02391    37401.237 
  607900    297.09746    -1477.928    517.05112    379.02248   -83.562359    37401.237 
  608000     316.9564   -1532.0282    498.65921     396.0935   -199.39211    37401.237 
  608100    298.36155   -1516.7686    500.99272    329.82438   -189.06728    37401.237 
  608200    296.65113   -1505.7114    507.69808    339.87312   -93.383578    37401.237 
  608300    299.95579   -1515.1229    552.86242    390.52985   -706.51946    37401.237 
  608400    300.32858   -1537.5771    481.38759    298.28205     -214.762    37401.237 
  608500    308.87416   -1559.0623    520.38233    354.33184   -372.55844    37401.237 
  608600    309.02781   -1548.9663    516.49875    361.23727   -525.40849    37401.237 
  608700    297.19911   -1560.7038    502.15461    281.80854    57.099014    37401.237 
  608800    293.04105   -1533.4491    497.53485     285.6908   -305.10584    37401.237 
  608900    309.65586   -1514.7796    503.41335    385.17099     133.8529    37401.237 
  609000    302.60612   -1542.3323    510.85482    333.26574   -294.74606    37401.237 
  609100    303.81702    -1568.029     512.2363    314.41164   -401.37045    37401.237 
  609200    310.22604   -1555.1365    493.13024     337.1025    678.50593    37401.237 
  609300    295.45436   -1543.9881    504.93819    293.43906    520.45274    37401.237 
  609400     311.7428   -1516.5355    499.02274    388.43656    402.19898    37401.237 
  609500    309.69004   -1553.7924    493.80207    336.70114    445.45578    37401.237 
  609600    301.51644   -1514.3254    535.86291    381.36633    703.31065    37401.237 
  609700    299.14258   -1571.4457    484.10959    261.78665    159.18262    37401.237 
  609800    291.82596   -1525.7978    504.08132    294.40858    528.98631    37401.237 
  609900     300.1212   -1541.7165    503.16581    314.98563    552.80297    37401.237 
  610000     303.4174   -1535.7334    500.53809    333.20672    90.240249    37401.237 
  610100    305.01121   -1538.8174    511.66899    348.44171    259.85821    37401.237 
  610200    300.40669   -1505.5753    516.65744    365.90596    384.95326    37401.237 
  610300    297.60773   -1504.4322    519.72834    357.49676   -479.21057    37401.237 
  610400    307.68956   -1536.6762    504.98903    355.98212   -239.88321    37401.237 
  610500    299.49412   -1525.0445    481.98661    307.65033   -101.93517    37401.237 
  610600    299.77044   -1523.7677     541.3782    369.56489    346.13967    37401.237 
  610700    302.16529   -1467.1611    501.34076    396.93468    529.77813    37401.237 
  610800    297.96475   -1493.7947    536.03076    386.04681    561.59318    37401.237 
  610900    296.36032   -1475.5408    549.24218    410.27619    112.47916    37401.237 
  611000     295.9023   -1467.4318    490.78911    357.86647    1022.0536    37401.237 
  611100     305.6504   -1448.4052    555.85032     485.9179   -460.73804    37401.237 
  611200    300.69112   -1482.0068    532.14809    406.24793   -216.05102    37401.237 
  611300    300.29862    -1472.519    515.43428    397.25178    378.52604    37401.237 
  611400    300.02137   -1502.5151    526.08199    376.65293    704.94246    37401.237 
  611500    305.34871   -1501.4836    491.12692    366.75551    527.53583    37401.237 
  611600    297.63239   -1504.2362    523.43319    361.50885    527.26599    37401.237 
  611700    295.48842     -1482.38    512.80105    363.06364   -449.77863    37401.237 
  611800    300.27099   -1491.1153    523.35441    386.45098    -229.7619    37401.237 
  611900     300.5938   -1501.9717    531.10033    384.79634    338.53494    37401.237 
  612000    292.35624   -1543.8664    491.25949    265.90965    50.933268    37401.237 
  612100    295.50145   -1512.6869    552.03419    372.04869   -8.9052126    37401.237 
  612200    305.89079   -1497.6945     499.4987    381.36116   -184.71181    37401.237 
  612300    304.26697   -1533.6967    533.98632    372.52322   -744.07557    37401.237 
  612400    299.38089    -1498.334    502.60237    354.46586   -467.05513    37401.237 
  612500    308.30126   -1488.3023    506.42841    408.55422   -335.56378    37401.237 
  612600    294.69783    -1499.528    507.81858    337.36766   -208.79159    37401.237 
  612700    297.00319   -1491.9281    537.57959    385.12568   -287.47899    37401.237 
  612800    299.39164   -1477.3632    492.84975    365.73254   -194.52354    37401.237 
  612900    305.29004   -1520.0329    522.00707     378.8218   -70.845253    37401.237 
  613000    309.29157    -1499.853    526.48626    421.52759    16.663208    37401.237 
  613100    297.72452   -1455.2813    489.17392    376.61998   -464.91786    37401.237 
  613200    304.91947   -1496.2224    528.83401    407.78795    -795.8203    37401.237 
  613300     292.9432   -1499.8498    497.43849    318.75243   -203.96238    37401.237 
  613400    302.94188   -1480.3631    501.50025    387.39465   -451.04054    37401.237 
  613500    302.46258   -1467.3266    547.01419    443.78343   -655.34071    37401.237 
  613600    304.36093   -1489.9633    498.40949    381.10357   -800.03401    37401.237 
  613700    299.96032   -1484.2681    523.87212    392.41479   -965.93408    37401.237 
  613800    296.67455   -1461.6346    519.34407    395.70146   -545.77903    37401.237 
  613900    304.60134    -1499.727    492.22905    366.24362    255.40536    37401.237 
  614000    295.46989   -1553.3217    517.38123    296.61857    353.25957    37401.237 
  614100    296.92573   -1520.5425    534.69803    353.28037    584.05627    37401.237 
  614200    310.46029   -1490.6362    507.29322    416.82225    448.83083    37401.237 
  614300    307.40439   -1500.0801    536.41836    422.72147    115.35964    37401.237 
  614400    294.65272   -1518.7368    499.91395    310.05076    189.69623    37401.237 
  614500    298.23411   -1506.4126    496.92831     335.5413   -472.93648    37401.237 
  614600    298.22301   -1502.3728    516.28033    358.88305   -1185.0923    37401.237 
  614700     296.7247   -1503.9182    496.48975    330.78972   -965.27751    37401.237 
  614800    278.12489   -1478.3283    526.58801    302.59338   -1242.8048    37401.237 
  614900    300.77891   -1478.3834    494.97246    373.09159   -459.07598    37401.237 
  615000    299.18449   -1516.2569    514.83277    347.88767   -436.77833    37401.237 
  615100    294.33215   -1502.4772    483.59169    308.54237   -284.67736    37401.237 
  615200    300.99797   -1508.5076    512.34759     361.3305   -275.89257    37401.237 
  615300    293.62441   -1477.5027    502.73672    349.47003   -191.39461    37401.237 
  615400    300.50181   -1520.5908    512.74813    347.41011   -557.86751    37401.237 
  615500    294.36403   -1569.8448    476.11649     233.8434   -250.95979    37401.237 
  615600    305.32418    -1526.432    504.49827    355.06779    7.0026902    37401.237 
  615700    298.70192   -1494.0316    493.43769     346.5415   -133.43555    37401.237 
  615800    297.63868   -1489.2143    518.56787    371.69377     85.78629    37401.237 
  615900    288.92837    -1536.485    485.64475    252.21673    196.66181    37401.237 
  616000    298.18972   -1494.1292    525.07044    375.76668    184.58177    37401.237 
  616100    299.78671   -1508.3282    508.34057    352.04007    164.02805    37401.237 
  616200    291.80597   -1519.2587    537.27046    334.04667    525.76702    37401.237 
  616300    298.01014   -1517.0144    532.28405    359.28516    298.20196    37401.237 
  616400    290.67207   -1445.6228    548.35897    413.65719   -281.87446    37401.237 
  616500      296.061   -1526.4567    486.25531    295.02357   -273.90748    37401.237 
  616600     290.3809   -1530.6821    495.99441    274.92012    -634.6535    37401.237 
  616700    305.04379   -1483.6508    507.55551    399.64167    249.72306    37401.237 
  616800    300.24014   -1495.2629    496.34729    355.15713   -80.843963    37401.237 
  616900    286.87459   -1533.7571    504.19705    264.23448   -384.91816    37401.237 
  617000    301.77315   -1511.0807    521.83386    371.73972   -590.15919    37401.237 
  617100    298.50854   -1541.4885    483.95768    288.73247    -412.4413    37401.237 
  617200    298.28315   -1545.2038     495.6207    295.66361    173.81023    37401.237 
  617300    301.24514   -1540.6517    524.92208    342.87559   -250.81277    37401.237 
  617400    295.50656   -1537.2397    506.55351    302.03828    125.91111    37401.237 
  617500    308.18531   -1500.8891    497.73489    386.75092   -46.233787    37401.237 
  617600    306.15398   -1520.0639    515.84213    376.52211    374.46228    37401.237 
  617700    302.97248   -1516.9273    512.59855    362.06677    318.33458    37401.237 
  617800    294.38525   -1428.7557    504.87062    403.78224    303.09677    37401.237 
  617900     288.9718   -1497.1661    548.84121    354.92802    177.23639    37401.237 
  618000     273.2865   -1521.8886    511.20751     221.8316    718.52954    37401.237 
  618100    293.55554   -1496.8989    529.85815    356.88468    660.39799    37401.237 
  618200    302.35919   -1539.4015    505.65531    329.88329    548.09172    37401.237 
  618300      301.536   -1497.7073    518.13508    380.34473    682.86607    37401.237 
  618400    289.60112   -1485.2636    516.90589    337.73342    558.35203    37401.237 
  618500    285.58843    -1454.552    529.84929    363.29134    767.94438    37401.237 
  618600    292.08018    -1459.478    519.07583    376.86936    476.34969    37401.237 
  618700    305.68671   -1483.3783    524.17407    419.43233    227.06109    37401.237 
  618800    314.21932   -1511.7624    509.51916    414.87513    395.14488    37401.237 
  618900     304.5991   -1504.8274    535.43035    404.33441    859.43698    37401.237 
  619000    313.11491   -1537.5257    485.34215    359.95393    573.17653    37401.237 
  619100    294.49923   -1505.2722    530.42563    353.33484    356.12423    37401.237 
  619200    302.53948   -1539.1923    501.24419    326.49449    263.68413    37401.237 
  619300    312.35181   -1486.5075    506.12932    428.31774    197.37556    37401.237 
  619400    310.93392   -1520.3832    501.83195    383.75005   -981.69804    37401.237 
  619500    312.35399   -1469.8853    517.29503    456.11542   -669.24621    37401.237 
  619600    294.64724    -1497.343    517.27032    348.77618    81.318935    37401.237 
  619700    299.75711   -1571.8195    503.04185    283.11659   -348.45306    37401.237 
  619800    303.35941   -1569.1418    511.78732    310.78602     122.8758    37401.237 
  619900    294.68025   -1526.2958    497.76028    300.46226   -385.40704    37401.237 
  620000    298.74154    -1504.086    514.03175    357.25976   -433.11721    37401.237 
  620100    312.63416   -1500.7827    507.43497    416.62159   -1143.3403    37401.237 
  620200    300.08671   -1487.9594    495.65656    361.07793   -15.681747    37401.237 
  620300    317.34702   -1508.8535    503.76798    426.13861   -268.23654    37401.237 
  620400    297.49808   -1524.8122    497.46943    314.36334    243.85703    37401.237 
  620500    298.61466   -1496.9263    520.53311    370.34861    203.24761    37401.237 
  620600    299.68238   -1505.8769    488.65435    334.33467    160.59096    37401.237 
  620700    307.84724   -1517.7185    499.24092    369.90284    161.63214    37401.237 
  620800    308.08593   -1512.4471    489.03775    366.04758   -179.23866    37401.237 
  620900    310.72066   -1484.7805    490.46961    407.02863   -130.67107    37401.237 
  621000    301.36446   -1550.4592    499.95807    308.64221    65.545493    37401.237 
  621100    304.65804   -1530.6322    504.23561    347.60065    319.33017    37401.237 
  621200    300.14507   -1517.4066    510.86228    347.09964    13.321196    37401.237 
  621300    304.58913   -1524.6122    491.17099    340.24529    175.63865    37401.237 
  621400    305.09742   -1519.9235    502.02293    358.07834   -416.45298    37401.237 
  621500    311.10837   -1524.0147     512.2105    391.28379     498.4481    37401.237 
  621600    301.05799   -1531.7141    498.66628    324.71334    820.83886    37401.237 
  621700    299.79502   -1497.4894    476.32881    330.90469   -95.429894    37401.237 
  621800    289.34182   -1526.5852    476.27268     254.6091    -515.7036    37401.237 
  621900    303.41814   -1502.2304    474.20568    340.38061   -337.33047    37401.237 
  622000    306.32623   -1502.4116    506.48983    385.59903   -700.85464    37401.237 
  622100    296.61745   -1492.7237    516.33505    361.34588   -322.10687    37401.237 
  622200    299.40516   -1536.5595    497.32158    311.06906   -844.80512    37401.237 
  622300    305.36632   -1455.7027    497.45811    418.94704   -390.15897    37401.237 
  622400    304.19565   -1499.7895    479.35469    351.47707   -904.04005    37401.237 
  622500    299.45825   -1511.1911    519.58376    358.93905   -110.83782    37401.237 
  622600    309.46577    -1490.946    529.93825    434.67228    282.76679    37401.237 
  622700    302.65052    -1479.917    538.74309    423.76954    192.45517    37401.237 
  622800    302.44992   -1521.1694    523.31502    366.18434    171.87449    37401.237 
  622900    298.79241   -1519.1265    482.53794    310.95497     268.8916    37401.237 
  623000    292.40001   -1536.4392    512.43391    294.70872    348.98776    37401.237 
  623100    298.83683   -1499.3546    524.71598    373.10519    668.27176    37401.237 
  623200    297.69828   -1493.9223    537.57802     386.2647    586.20704    37401.237 
  623300    298.64062   -1541.1789    486.61024     292.2903     245.8352    37401.237 
  623400    307.94514   -1550.7839    500.00292    338.04105    713.90295    37401.237 
  623500     298.3217   -1526.6207     533.6678    352.46772   -181.14671    37401.237 
  623600    292.24075   -1503.3693    503.38995    318.01637   -240.41833    37401.237 
  623700    286.41206   -1500.8642    531.07473    321.91907   -222.68506    37401.237 
  623800    303.64489   -1517.0944    513.95254    366.28611   -498.82946    37401.237 
  623900    296.90502   -1520.2718     514.9826    333.74221   -43.508143    37401.237 
  624000    299.01165   -1497.4258    514.89916    366.00564    -151.3425    37401.237 
  624100    303.82284   -1523.0219    524.63801    371.84666   -164.40527    37401.237 
  624200     294.8559   -1514.4348    476.60091    291.95608   -244.12375    37401.237 
  624300    305.13129   -1531.0162    517.82138    362.93681   -123.89009    37401.237 
  624400    293.82172   -1496.7921    506.43978    334.77346   -512.79033    37401.237 
  624500    306.52341   -1517.5294    521.72769    386.60835    113.41488    37401.237 
  624600    294.36677   -1525.5278    499.95567    302.01194   -128.37209    37401.237 
  624700    293.58265   -1550.4937    506.53053    280.08447   -356.45325    37401.237 
  624800    297.60769   -1535.6602    490.34081    296.88111   -613.19115    37401.237 
  624900    304.02627   -1568.4598    507.48549    310.17372   -414.69694    37401.237 
  625000    303.33323   -1568.7945    475.07384    274.30175   -195.60781    37401.237 
  625100    305.66232   -1551.1307    497.34693     324.7428    135.33104    37401.237 
  625200     286.6556   -1585.6052    480.83161    188.03331   -310.33471    37401.237 
  625300     311.0608   -1580.0305    502.10617    324.94922    30.521935    37401.237 
  625400    305.85181    -1585.981    487.70345    281.10366    -18.57074    37401.237 
  625500    303.73783   -1583.8519    531.75619    317.75139    150.65243    37401.237 
  625600    300.68158   -1557.0651    460.31507    259.31358    15.121146    37401.237 
  625700    299.23295   -1499.1889     498.2938    348.63525   -138.74216    37401.237 
  625800    300.99091   -1511.6651    510.21195    356.00548    186.33703    37401.237 
  625900    308.76797   -1517.6436    509.77558    384.66488   -166.92364    37401.237 
  626000    316.58399   -1537.6275    534.81953    424.97492   -372.95818    37401.237 
  626100    298.03335   -1515.1296     491.8163    320.80685    -181.0574    37401.237 
  626200    304.11373   -1522.2865    539.46767    388.72365   -54.400165    37401.237 
  626300    305.08119   -1524.4454    506.35715    357.81739   -262.81042    37401.237 
  626400    297.38639   -1508.6925    512.16136    344.67129    139.86484    37401.237 
  626500    297.99353   -1510.3677    509.99794    343.57083    162.23678    37401.237 
  626600    290.48294   -1513.7216     510.3487    306.69522   -163.42813    37401.237 
  626700    297.74181   -1519.1118    512.44077    336.13433   -176.33836    37401.237 
  626800    308.48922   -1522.0292    532.42706    401.67367   -258.60921    37401.237 
  626900    294.60001   -1522.1332    489.09773    295.60045    81.113999    37401.237 
  627000    306.05184   -1492.6369    509.01334    396.65971    213.73631    37401.237 
  627100    290.01341   -1488.2219    502.55409    322.28267   -58.666261    37401.237 
  627200    293.66174   -1515.3668    491.72509    300.76257   -314.25845    37401.237 
  627300    302.64344   -1495.2346    499.00069    368.67764   -446.44212    37401.237 
  627400    298.51647    -1489.273    521.77291    378.79896   -284.65192    37401.237 
  627500    300.13127   -1489.8309    533.26794    397.01878   -23.293134    37401.237 
  627600     296.6168      -1495.8    479.40946    321.34099    -114.8855    37401.237 
  627700    310.21628   -1470.8444    535.61418    463.83458    54.606749    37401.237 
  627800     292.6148   -1480.6507    497.59761    336.62965   -13.575581    37401.237 
  627900    307.56217   -1532.4737    534.01624    388.63737     757.9172    37401.237 
  628000    299.08081   -1512.0985    496.59698    333.34266    586.58473    37401.237 
  628100    293.05852   -1556.0595     495.3655    260.98989    333.35912    37401.237 
  628200     295.7286   -1505.4223    502.50342    330.80689    262.43539    37401.237 
  628300    302.56378   -1475.2689     497.6128    386.89617    205.73009    37401.237 
  628400     303.3438   -1490.4573    525.94211    403.55493    431.96375    37401.237 
  628500    290.47418   -1512.1582    496.71743    294.58783    28.853125    37401.237 
  628600    293.08702   -1500.5147    513.82251    335.12022    211.00601    37401.237 
  628700     307.0276   -1487.6138     503.9716     401.0417    -393.2149    37401.237 
  628800    303.70566   -1548.5107    494.25555    315.44697   -194.56784    37401.237 
  628900    303.07551   -1552.0309    469.46908    284.29826    457.54263    37401.237 
  629000    296.37823   -1559.2109    502.14456    279.58927   -17.534334    37401.237 
  629100    301.03456     -1511.41    519.34272    365.58819   -93.161584    37401.237 
  629200     300.2785   -1503.8835    476.47202    326.83429   -40.101359    37401.237 
  629300    300.75207   -1527.6094    532.04445    360.81652     116.9212    37401.237 
  629400     293.9924    -1542.067    508.05697    291.88563    372.50526    37401.237 
  629500     311.2344   -1500.5718    537.94603    441.03067    572.57177    37401.237 
  629600    297.41451   -1484.8689    495.78079    352.24111    93.492425    37401.237 
  629700     300.2822   -1495.0088    535.83224    395.08589    390.43453    37401.237 
  629800    301.34623   -1515.2206    472.99516    316.83566    46.280399    37401.237 
  629900     308.7282   -1511.0887     511.9999    393.26479   -625.52846    37401.237 
  630000    291.01823   -1525.5971    495.93137    282.81645   -200.48058    37401.237 
  630100    307.31209   -1490.7364    502.93297    398.16346   -368.20275    37401.237 
  630200    308.92217   -1497.3343    520.82805    416.72216   -96.657788    37401.237 
  630300    297.50038   -1515.1716    496.03116    322.57608     455.5285    37401.237 
  630400    307.41962   -1480.6903    517.66135    423.42296    264.41346    37401.237 
  630500    307.61303   -1490.0088    523.26851     420.5839    319.49305    37401.237 
  630600    304.73878   -1489.6335    502.50607    387.23397    461.53653    37401.237 
  630700     297.3079   -1441.2013    545.03938    444.68644    316.23506    37401.237 
  630800    298.39066    -1497.259    497.33464     345.8073   -309.21459    37401.237 
  630900    295.20511   -1527.0886    492.88648    297.16278     136.5105    37401.237 
  631000    297.78228   -1497.7491    531.40367    376.64243     126.1463    37401.237 
  631100     297.2787   -1494.5193    515.81006    362.00742    454.26389    37401.237 
  631200    304.79976   -1549.5713    497.37763     322.4428    448.57723    37401.237 
  631300    307.51184   -1481.3538     507.7878    413.30186   -281.58796    37401.237 
  631400    295.43625   -1500.8182    511.11887    342.70802   -479.51428    37401.237 
  631500      289.904   -1516.9753    498.01126    288.49307   -77.382704    37401.237 
  631600    294.72785    -1487.021    536.50212    378.69362   -91.862844    37401.237 
  631700     303.1141   -1513.7235    512.87008    366.18079   -77.521236    37401.237 
  631800    298.56736   -1472.8778    511.44874    385.09947    7.3478505    37401.237 
  631900    298.43334   -1523.5354    531.17247    353.56113   -4.1826632    37401.237 
  632000    298.50313   -1500.8157    529.72673    375.14994    327.62886    37401.237 
  632100     288.0105   -1486.9999    511.06206    322.97962    52.687592    37401.237 
  632200    301.12835   -1490.0678    539.57091    407.58158   -218.90293    37401.237 
  632300    291.04434    -1500.477    504.24374    316.36668   -33.911312    37401.237 
  632400    294.36954   -1485.7662     523.0517    364.88197    20.261882    37401.237 
  632500    300.15683   -1546.1132      534.014    341.59782    293.92086    37401.237 
  632600    290.91069   -1522.8949    533.23886    322.34114     866.9128    37401.237 
  632700    305.66168   -1513.4393    531.29853    396.38288    670.85912    37401.237 
  632800    285.63527   -1491.0395    530.36042    327.52614    765.02822    37401.237 
  632900    309.46488   -1486.0948    507.72326    417.30446     515.6636    37401.237 
  633000    301.80993   -1464.0251    516.80722    413.93451    196.40596    37401.237 
  633100    296.00892   -1456.8587    506.17561    384.30692    1.0006488    37401.237 
  633200    289.08131   -1470.7178    517.08902    350.11803    232.88062    37401.237 
  633300    301.81421   -1520.0658    529.68188    370.78775    -330.4714    37401.237 
  633400    296.53936   -1453.3235    527.62967    411.68846    463.16796    37401.237 
  633500    306.63995   -1448.3584     508.1078    442.68502   -322.54437    37401.237 
  633600    306.43092    -1441.779    498.32973    438.54365   -388.78813    37401.237 
  633700    298.28915   -1477.4109     519.8581    387.72093    546.61561    37401.237 
  633800    291.14158   -1522.6735    520.84945    311.21446    60.311937    37401.237 
  633900    296.63774   -1541.8259    495.93933    291.93942    213.03853    37401.237 
  634000    303.63665    -1530.101    522.08098    361.37079   -21.757015    37401.237 
  634100    299.52546    -1463.585    536.90147    424.16603    436.76402    37401.237 
  634200    296.32179   -1550.6217    523.60715    309.38648    374.87911    37401.237 
  634300     293.2459   -1567.1999    520.05567    275.38466    446.37285    37401.237 
  634400    302.41593   -1550.0316    539.86393     353.7177    792.44101    37401.237 
  634500    291.32628   -1541.6316    470.14416    242.38409    608.65908    37401.237 
  634600    308.47024   -1563.4706     516.7219    344.44144    192.97298    37401.237 
  634700    300.15282   -1552.4546    513.13831    314.36259   -50.921272    37401.237 
  634800    308.83584   -1519.8503    486.36372    359.35247    432.39519    37401.237 
  634900    305.80736   -1508.6072    498.02595    368.59939   -119.53355    37401.237 
  635000    297.81718    -1520.607    512.02851     334.5667   -550.29356    37401.237 
  635100    307.60999   -1527.5397    527.20477    386.97553   -161.57598    37401.237 
  635200    293.89313   -1506.3409    488.94258     308.0496   -462.46867    37401.237 
  635300    293.42304   -1508.0609    530.85782    346.12475   -569.48195    37401.237 
  635400    291.56184   -1531.6949    516.63892     299.8779    41.583365    37401.237 
  635500    307.85815   -1541.1746    496.46227    343.71729    156.43113    37401.237 
  635600    306.20388   -1523.0822    515.76119    373.64795    -64.74042    37401.237 
  635700    297.59717   -1496.1613    511.07138    357.06305   -31.345739    37401.237 
  635800    299.14343   -1531.4342     489.1008    306.79318    659.62444    37401.237 
  635900    298.85971    -1529.415    521.55014    339.98212    285.62291    37401.237 
  636000    297.55647   -1523.9242    511.36374    329.40895    458.92841    37401.237 
  636100    298.29457   -1518.9378    506.89417    333.25459     455.5419    37401.237 
  636200    295.54964   -1524.7734    509.02746    317.17273    50.983405    37401.237 
  636300    296.93497    -1590.064    530.30611    279.40861    583.42744    37401.237 
  636400    304.14223   -1563.4319    508.36549    316.60461    55.057044    37401.237 
  636500    306.80458    -1554.477    510.33261    339.53371    16.959481    37401.237 
  636600     300.1061   -1526.1283    511.21987    338.55973    188.87102    37401.237 
  636700    311.64196   -1546.4101    497.62429    356.70872   -503.74253    37401.237 
  636800    287.58509   -1564.8921    497.65828    229.76503   -625.93135    37401.237 
  636900    300.96342   -1606.8755    514.30034    264.75956   -351.17326    37401.237 
  637000    301.99412   -1537.7812    504.86508    329.06697   -288.19243    37401.237 
  637100    298.16781   -1546.1789    498.22022    296.76786    -519.6162    37401.237 
  637200    306.32635   -1582.6688    505.76694    304.61948    335.32924    37401.237 
  637300    306.06219   -1534.5498    497.27257    343.05269    40.040188    37401.237 
  637400    293.15951   -1542.3884    509.17579    288.92664   -75.286524    37401.237 
  637500    301.21121   -1530.9408    528.47448    355.98587   -428.28052    37401.237 
  637600    308.13169    -1543.761    516.17038    362.07267   -170.61856    37401.237 
  637700    301.29653   -1562.8554    519.58399     315.5656    92.946101    37401.237 
  637800     292.8328    -1575.373    522.02574    267.31858   -76.590123    37401.237 
  637900    303.57371   -1612.2834    494.71374    251.53733   -222.00115    37401.237 
  638000    294.52714   -1574.3259    501.71911    255.70048   -14.969485    37401.237 
  638100    302.69613   -1553.2616    501.13284    313.02037   -17.562376    37401.237 
  638200    297.93639   -1542.5151    506.94354     308.1113     243.3104    37401.237 
  638300    305.43216   -1559.8993    540.64654    358.23578   -55.684022    37401.237 
  638400    297.22511   -1554.3159    503.90778    290.06692    86.142922    37401.237 
  638500    308.85975   -1521.6286    532.56745    403.88569    306.32938    37401.237 
  638600     301.8237   -1546.6617    494.37641    308.92925   -498.28384    37401.237 
  638700    298.24885   -1552.5149    511.63218    304.20929   -357.98005    37401.237 
  638800    304.38373   -1511.0191    544.69028    406.43131   -757.40001    37401.237 
  638900    290.94799   -1522.4415    499.34545    289.06942   -457.97341    37401.237 
  639000    298.37429   -1579.5855    508.58541    274.65765   -353.99394    37401.237 
  639100    293.56658   -1564.7182    490.19101    249.44804   -357.97915    37401.237 
  639200    299.63567   -1538.5539    521.07973    333.87241   -353.31197    37401.237 
  639300    298.88513   -1556.6705    481.75297    273.04412   -621.43817    37401.237 
  639400    304.35228   -1537.2728    531.91114    367.25667   -273.24166    37401.237 
  639500    301.11655   -1569.6393     506.5778    294.96377   -795.24812    37401.237 
  639600    310.92632    -1510.861    499.50918     390.9152   -448.27821    37401.237 
  639700    297.85843   -1534.5684    483.96141    292.72423   -423.09534    37401.237 
  639800    299.44687   -1520.5434    520.28597     350.2376    162.40279    37401.237 
  639900    293.55165   -1500.8946    528.10621    351.11947    561.32721    37401.237 
  640000     293.9869   -1567.3333    527.53955      286.077    614.31776    37401.237 
  640100     302.7967   -1554.8354    502.92769    313.69497    437.02772    37401.237 
  640200    301.83124   -1516.9491    524.85321     369.1526     409.5626    37401.237 
  640300    296.84159   -1582.4207    517.57036    273.89501     156.5716    37401.237 
  640400    310.09563   -1556.0675    503.94269    346.39579   -542.68594    37401.237 
  640500    301.46095   -1545.4253    485.00161    299.15483    212.44828    37401.237 
  640600    300.22415    -1532.267     502.4875    324.22112   -188.40496    37401.237 
  640700    294.54793    -1506.622    523.21165    344.99072   -631.82002    37401.237 
  640800    297.50886   -1501.3391    532.93175    373.34735   -586.28764    37401.237 
  640900    305.08328   -1529.0211    510.65279     357.5468   -665.71746    37401.237 
  641000    307.76648   -1506.1572    498.10789    379.96694    -555.7794    37401.237 
  641100    307.71123   -1545.3549     500.6739      343.086   -847.41141    37401.237 
  641200    306.15401    -1575.045    536.55658    342.25559   -580.41278    37401.237 
  641300    309.16129   -1542.5722    504.05385    355.78838    204.58349    37401.237 
  641400    304.96361   -1537.1102    480.25482    318.51999    174.45916    37401.237 
  641500      292.508    -1546.233    510.16388    283.13191   -267.07679    37401.237 
  641600    305.33681   -1550.3076    504.45913    331.21008    889.80882    37401.237 
  641700     300.4678   -1559.4988    509.30802    304.90872    446.44713    37401.237 
  641800    302.32264    -1499.159    516.44899    380.75471    382.49055    37401.237 
  641900    290.75364   -1548.7347    527.91157    290.46575   -114.03096    37401.237 
  642000    306.76288   -1523.9668    517.34086     376.8641   -407.62531    37401.237 
  642100    296.43351   -1535.3812    511.57984    313.10361   -585.08892    37401.237 
  642200    290.31831   -1504.5012    509.44153     314.2659   -185.36126    37401.237 
  642300    301.96395   -1543.3614    497.38883    315.87445   -332.94397    37401.237 
  642400    292.27285   -1550.9341    497.72626    264.93265    235.93248    37401.237 
  642500    293.80907   -1543.1607    527.07658    308.98468    541.27147    37401.237 
  642600    307.77475   -1537.3364    493.49369    344.21079    167.95898    37401.237 
  642700    295.93986   -1557.8872    504.70122    281.49262    769.23152    37401.237 
  642800    299.41501   -1538.5972    499.52467    311.27886    707.58066    37401.237 
  642900    304.81875   -1525.3707    532.16956    381.52091    343.34908    37401.237 
  643000    293.63503   -1576.7922    508.21001    255.70168   -297.10197    37401.237 
  643100    301.45479   -1566.6529     526.9796    319.87738   -94.123146    37401.237 
  643200    294.36872   -1563.8469    504.01327    267.75921    304.80584    37401.237 
  643300    305.35652   -1538.5432    499.81592    338.42007    316.04334    37401.237 
  643400    308.56903   -1505.2003    534.21349    420.64893     467.3646    37401.237 
  643500    299.75094   -1490.0774    521.13925    382.92831     462.5664    37401.237 
  643600    304.97657   -1498.5817    514.19355    391.04572    157.03384    37401.237 
  643700    310.97663   -1540.3724    498.38517    360.50668   -452.95969    37401.237 
  643800    291.54415   -1496.5703    510.65282    328.93664   -51.008196    37401.237 
  643900    305.02124   -1523.0097    537.53029    390.15586    442.63117    37401.237 
  644000    311.27074   -1540.3313    521.33244    384.82145    462.31597    37401.237 
  644100    309.85658   -1520.9762    526.76639    403.23273    420.15884    37401.237 
  644200    301.09936   -1503.3762    525.85732     380.4289    60.282836    37401.237 
  644300    309.88901   -1517.1888    534.75719    415.15721   -103.22911    37401.237 
  644400      303.092   -1536.3236    488.23385    318.84479    239.09588    37401.237 
  644500    299.32517    -1569.917    526.50138    306.53066    788.01076    37401.237 
  644600    304.94724   -1611.6456    516.91064    280.56661    722.62808    37401.237 
  644700    290.85569    -1549.818     497.3909    259.32204    250.19274    37401.237 
  644800    294.07553   -1568.7857    522.02806    279.51291    517.32512    37401.237 
  644900    294.28951   -1533.7166    518.92801    312.44694   -14.413531    37401.237 
  645000    305.98666   -1482.2715    520.01495    417.73278    -159.0452    37401.237 
  645100    296.57627   -1507.7359    487.36826    317.18112    19.075653    37401.237 
  645200    303.38573   -1501.6444    525.93005    392.54483    356.34929    37401.237 
  645300    305.88933   -1561.5682    487.38838    305.37052     188.7123    37401.237 
  645400    310.00105   -1524.3575    504.71275     378.4493    23.947118    37401.237 
  645500    313.08838   -1541.6308    525.42279    395.80981    176.30734    37401.237 
  645600    305.04077   -1542.0322    502.45581    336.14702   -135.26161    37401.237 
  645700     297.2871   -1547.8951    511.91533    304.77484   -544.91171    37401.237 
  645800    294.61712    -1527.422    514.71617    316.00721    177.40449    37401.237 
  645900    297.94722   -1542.5125    498.31621    299.53544    264.07342    37401.237 
  646000     299.0253   -1522.1477    508.67491    335.12099   -117.01648    37401.237 
  646100     301.4882   -1504.8317    538.22715    393.09693    812.27949    37401.237 
  646200    290.60309     -1443.91    519.88551    386.58549    279.49949    37401.237 
  646300    294.45082   -1475.1562    506.12163    358.92846     306.7553    37401.237 
  646400    307.58355   -1532.9079    518.06007    372.34337    649.87223    37401.237 
  646500    302.35188   -1533.5203    503.02046     333.0967    200.32201    37401.237 
  646600    303.15131    -1520.776     544.3627    390.78866    232.02912    37401.237 
  646700    301.32975   -1534.2683    511.93354    336.65209   -258.74048    37401.237 
  646800    301.61227   -1553.2056     521.9359    328.99124   -35.456092    37401.237 
  646900    298.62795   -1524.2559    514.94553    337.49143    242.60618    37401.237 
  647000    303.17521   -1521.0308    524.84114    371.12014   -121.17572    37401.237 
  647100    293.15119   -1552.5752    494.83625    264.36289   -62.035219    37401.237 
  647200    312.41291   -1541.6366    520.23619    387.57102   -605.14756    37401.237 
  647300    315.90788   -1530.5688        508.6    402.76485   -529.50576    37401.237 
  647400    299.18958   -1496.4995    514.62657    367.46177   -608.98493    37401.237 
  647500    307.65894   -1500.5487    507.95631     394.9388   -389.23567    37401.237 
  647600    295.44697   -1504.3976    527.18499    355.24303   -113.73462    37401.237 
  647700    308.47948   -1543.3486    523.59853    371.48177   -432.76274    37401.237 
  647800    299.95903   -1529.1182    492.67283    316.35948    -366.0363    37401.237 
  647900    300.09138   -1540.0617    499.42054    312.76067   -699.73578    37401.237 
  648000    301.07103   -1499.0351    521.40277    380.18771    -155.2271    37401.237 
  648100    310.08015   -1519.7074    498.45765    377.20106    147.90089    37401.237 
  648200    310.07848   -1527.7675    513.58333    384.25912   -307.51539    37401.237 
  648300    300.97906   -1475.6046    525.51895    407.31953   -903.45118    37401.237 
  648400    296.33151   -1459.8636    515.49571    392.07707   -317.73239    37401.237 
  648500    293.97961   -1503.1955    515.29029    337.93265   -1000.4659    37401.237 
  648600     294.9939   -1527.0306    498.21271    301.59443   -166.02265    37401.237 
  648700    306.68269   -1533.5184    513.56965    363.17969    -288.8271    37401.237 
  648800    302.12537   -1521.1086    497.84578    339.31221   -29.594265    37401.237 
  648900    291.63966   -1510.2952    499.63885    304.62845    162.24245    37401.237 
  649000    297.77637   -1541.5432    511.60748    313.02543   -419.23195    37401.237 
  649100     290.2582   -1536.8561    511.05966    283.25805    1.7309719    37401.237 
  649200    293.69259   -1533.3473    510.31786    301.51401     4.801069    37401.237 
  649300    298.86001   -1539.4263    506.92962    315.35166   -718.71363    37401.237 
  649400    303.24113     -1537.11    503.13902    333.63604   -501.95984    37401.237 
  649500    300.81241   -1474.9506    529.07178    410.77481   -563.83516    37401.237 
  649600    304.98468   -1533.3299    529.65338    371.79394   -563.81216    37401.237 
  649700    290.52303   -1536.5989    525.99503    299.64493    8.8579055    37401.237 
  649800     303.4494    -1521.794    525.76277     372.5151   -189.15544    37401.237 
  649900    301.68948   -1515.5888    511.99289    357.01329    575.34638    37401.237 
  650000    301.81349   -1512.7648    499.22904    347.63275    160.19151    37401.237 
  650100     299.4698   -1525.4756    527.74848    352.87143    20.989707    37401.237 
  650200    302.49052    -1574.251    508.49462     298.4655   -18.661258    37401.237 
  650300    287.99877   -1575.6656    512.13721    235.33613   -254.68745    37401.237 
  650400    293.83941   -1533.4751    492.80287    284.53347   -240.28026    37401.237 
  650500    287.51579   -1494.0629    523.92384    326.54724    77.843222    37401.237 
  650600    304.55485   -1533.1798    512.05302    352.40511    34.700975    37401.237 
  650700    302.84505   -1540.1576    512.09509    337.75827    97.955379    37401.237 
  650800    287.72353   -1501.7031    505.47908    301.39923     -345.365    37401.237 
  650900    294.64473   -1549.8012    517.69339    296.72977   -94.325314    37401.237 
  651000    309.99656   -1557.7691    516.68045    356.98516    14.924995    37401.237 
  651100    304.85541   -1545.9428    536.82113    365.76571    270.14047    37401.237 
  651200    296.05926   -1552.4393    493.35216    276.13001     131.7039    37401.237 
  651300    307.45603   -1544.3701    503.53048    345.77648    115.23064    37401.237 
  651400     294.9045   -1544.1873    493.91942    279.74123    220.58035    37401.237 
  651500    303.94654   -1530.1559    510.75323    351.38577   -4.2463708    37401.237 
  651600    294.43882   -1522.5679    520.59339    325.93441   -292.35649    37401.237 
  651700    292.68424   -1508.4713    499.90798    311.43252   -120.92575    37401.237 
  651800    288.15019   -1542.0994     528.8729    286.32091    23.454766    37401.237 
  651900     298.0534   -1555.0457    512.38728    301.55215   -229.59327    37401.237 
  652000    298.62423   -1559.3413    488.03433    275.47802    512.69519    37401.237 
  652100    304.81899   -1566.8798    531.94508    339.78838    443.43303    37401.237 
  652200    299.43802   -1561.0402    506.69476    296.10976   -284.91652    37401.237 
  652300    303.78475    -1534.427    512.56356    348.19536    73.282819    37401.237 
  652400    300.52941   -1561.2111      558.154    352.32023    417.65687    37401.237 
  652500     302.4571   -1561.0215    476.82281    279.87244    675.57821    37401.237 
  652600     302.4599   -1552.8801    514.42229    325.62591    1296.6945    37401.237 
  652700    303.45496   -1514.0128    513.97793    368.53657    1474.8482    37401.237 
  652800    300.58694   -1549.0605    496.06865    302.64493    969.11647    37401.237 
  652900    300.85922   -1543.0794    510.99534    324.78065    979.31584    37401.237 
  653000    305.06363   -1531.6456     486.1623    330.34318    170.04438    37401.237 
  653100    298.55679   -1528.0523    500.66031     319.0889    449.69738    37401.237 
  653200    299.06771   -1500.1214    514.32828    362.99202    239.44155    37401.237 
  653300    294.13187   -1518.9798    531.38397    338.92877    -104.5627    37401.237 
  653400    300.43103   -1517.5153    512.03292     349.4512   -269.55791    37401.237 
  653500    299.61726    -1534.627    481.29786    297.93439   -771.83031    37401.237 
  653600     298.5506   -1512.4804    503.28088     337.2534   -483.25243    37401.237 
  653700    293.91287   -1506.6608    505.40235    324.27842   -637.78399    37401.237 
  653800    301.89253   -1552.7082    493.24343    302.06012   -185.70655    37401.237 
  653900      297.486   -1511.0588    502.77056    333.36342    160.72492    37401.237 
  654000    306.58126   -1526.5897    525.75915    381.84036   -514.87773    37401.237 
  654100    303.72732   -1495.8094    511.90584    385.89619   -604.55347    37401.237 
  654200     302.1072   -1522.9319     482.9451    322.50629   -906.65658    37401.237 
  654300    297.59239   -1538.0982    509.43447    313.46768   -841.46099    37401.237 
  654400    296.88836   -1536.8714    527.60372    329.68858   -562.53598    37401.237 
  654500    306.70513   -1520.7803     509.2682    371.71745    133.85762    37401.237 
  654600    310.91095   -1518.5687    501.97323    385.60227     514.1631    37401.237 
  654700    300.30348   -1513.0891    534.07633    375.34565     667.8471    37401.237 
  654800    296.95995    -1490.909    536.75735    385.12753    940.39132    37401.237 
  654900    304.95595   -1523.8293    492.77006    344.28159    324.50218    37401.237 
  655000    300.75802   -1522.0827    519.34987    353.67547     252.1662    37401.237 
  655100    307.73705   -1540.0856     507.3762    355.17417    442.30097    37401.237 
  655200    304.42578   -1556.8105    525.59527    341.73462    366.67709    37401.237 
  655300     298.9392   -1535.9129     523.7323    336.02493    434.15983    37401.237 
  655400     303.6007   -1506.3426    500.77953     363.6657    307.11812    37401.237 
  655500    302.74232   -1546.9272    496.62699    315.05725    298.60702    37401.237 
  655600    306.76674   -1542.8716    497.49984    338.13565    112.28841    37401.237 
  655700    294.66268   -1527.4563    508.78155    310.24379   -78.803293    37401.237 
  655800    307.44413   -1524.8488    511.80154    373.51521    -184.9889    37401.237 
  655900    301.26298   -1501.8578    512.57677    369.40468   -483.03314    37401.237 
  656000    308.05669   -1503.1241    506.81623    393.01719     221.2029    37401.237 
  656100    292.43445   -1504.2079     532.2175    346.87891    313.06078    37401.237 
  656200    302.67998    -1496.658    505.40454    373.82286    201.09967    37401.237 
  656300    305.10337   -1479.1551    535.19527    432.04592    85.176637    37401.237 
  656400    306.12972   -1499.5088    512.84615    393.97189     251.5082    37401.237 
  656500    300.52069   -1495.1266    501.93966    362.15107   -623.11097    37401.237 
  656600    296.09497   -1494.7226    517.06722    357.72276   -539.67004    37401.237 
  656700    302.80346   -1527.0593    494.63306     333.2069   -71.676831    37401.237 
  656800    304.01205   -1497.4497    489.19235    362.82656   -256.64045    37401.237 
  656900    292.75339   -1480.7673    490.06524    329.60561   -44.935944    37401.237 
  657000    301.24757   -1496.2995    532.77534    395.09205   -605.64671    37401.237 
  657100     287.9846   -1473.6387    507.39074    332.55271   -357.09138    37401.237 
  657200    293.71418   -1506.2119    493.43874    311.86767   -302.87599    37401.237 
  657300    295.65064   -1518.7199    515.64614    330.30048   -750.99957    37401.237 
  657400    294.24763   -1495.7261    496.18931    327.50994   -256.79686    37401.237 
  657500    296.41118   -1481.9722    515.40154    370.23352    398.35194    37401.237 
  657600    296.74913   -1475.4646    499.00551    361.86924    355.44136    37401.237 
  657700    300.05981   -1508.0831    507.14118    352.31749   -132.48177    37401.237 
  657800    287.59485   -1519.3193    521.22806    298.95169   -229.01893    37401.237 
  657900    304.91508   -1535.6656    515.81539    355.30629    26.622803    37401.237 
  658000     293.3689   -1494.9931    507.99348    336.08409    -334.2211    37401.237 
  658100    301.26838   -1474.4457    516.71063      400.975   -395.34867    37401.237 
  658200    306.69761   -1521.3654    469.13527     330.9655   -571.05109    37401.237 
  658300    293.78374   -1578.5773    515.01983    261.39708   -34.421923    37401.237 
  658400    300.70926   -1530.1334    520.55235    346.60733   -331.16275    37401.237 
  658500    293.15328   -1549.1853    485.16352    258.08941    158.35545    37401.237 
  658600     304.5322   -1552.8684    491.59383    312.15524    1033.3567    37401.237 
  658700    295.14229   -1505.4062    519.73228    345.40766    781.45211    37401.237 
  658800    292.97098   -1499.0747    494.51331    316.72769    91.229518    37401.237 
  658900    299.37339   -1488.3252    501.49662    363.33513    724.24944    37401.237 
  659000    306.94764   -1502.7353    503.88747    385.47553     574.6274    37401.237 
  659100    295.08444   -1471.0652    488.40189    348.15733    160.07376    37401.237 
  659200    298.66521   -1463.2717    514.43952     398.1376    293.45822    37401.237 
  659300    300.87775   -1488.5557    501.80992    370.20251    147.68402    37401.237 
  659400    289.02158   -1471.1377     493.9429    326.28264    -32.87437    37401.237 
  659500    302.19874   -1471.5504    495.25033    386.60584   -314.53018    37401.237 
  659600    305.24007   -1499.4293    458.33397    335.52689    42.698302    37401.237 
  659700    301.48234   -1500.3629    525.20037    384.51243    273.18081    37401.237 
  659800    308.78669   -1500.4998    507.62264    399.74024    855.02483    37401.237 
  659900    314.08895   -1493.3684    517.05239    440.21437    673.03676    37401.237 
  660000    299.62871   -1495.8968    496.88431     352.3027    336.47071    37401.237 
  660100     303.0694   -1474.5129     489.7236    382.04324   -243.01339    37401.237 
  660200    305.75892   -1480.6753    477.61383    375.90073   -490.27878    37401.237 
  660300    297.64577   -1491.8514    490.69523    341.21597   -460.28099    37401.237 
  660400    295.70576   -1498.9542    498.98756    333.65619   -992.42837    37401.237 
  660500    309.43266    -1480.525    485.62328    400.62891   -886.07184    37401.237 
  660600    305.97675   -1509.6144    486.01212     356.3423   -781.24011    37401.237 
  660700    304.51441   -1494.0806    492.75973    372.02866   -441.36853    37401.237 
  660800    296.92038    -1543.998    499.02529    294.12803   -113.15866    37401.237 
  660900    289.04258   -1535.9695    506.37367    273.97626   -84.573558    37401.237 
  661000    301.65552   -1488.8773    519.93174    391.51049   -265.26157    37401.237 
  661100     310.5077   -1497.6481    494.13383    396.86477    525.55271    37401.237 
  661200    302.31984   -1531.2593    505.22149     337.4143   -131.43437    37401.237 
  661300    308.60162   -1518.0249     496.8424    370.60015   -333.30408    37401.237 
  661400    304.94553   -1522.5969    494.94151    347.63844   -172.22981    37401.237 
  661500    299.33954    -1526.784    487.87068    311.09775   -209.98816    37401.237 
  661600    305.03589   -1542.2306    487.83466    321.30537   -400.69491    37401.237 
  661700    295.87582   -1516.6146    489.14099    306.91619   -696.19166    37401.237 
  661800    307.07817   -1518.6264    493.70258     359.9882    -778.5736    37401.237 
  661900     303.2635   -1521.4996    503.69393    349.90224   -486.68811    37401.237 
  662000    292.66274   -1527.4906    491.97311    284.38145   -733.71883    37401.237 
  662100    300.38826   -1529.1208    520.92365    346.54363   -291.64069    37401.237 
  662200    310.92869   -1550.5206    495.31573    347.07282   -295.55885    37401.237 
  662300    298.37663   -1552.8469    482.87717    275.69865   -366.74534    37401.237 
  662400    303.07643   -1534.0761    510.26537    343.05354   -206.45549    37401.237 
  662500    300.82475   -1504.4256    503.95936    356.24304    402.25427    37401.237 
  662600    292.02355   -1492.9342    505.71314    329.79511    45.530576    37401.237 
  662700    297.83998   -1475.0667    495.66335    363.84475   -117.15825    37401.237 
  662800    300.82198   -1455.7669    514.43231    415.36216    33.944574    37401.237 
  662900     294.3314   -1509.4839    530.51594    348.45652    123.66446    37401.237 
  663000    301.56073   -1504.4857    495.63512    351.17798    315.00891    37401.237 
  663100    307.66936   -1477.7084    495.80698    405.67683    343.74525    37401.237 
  663200    307.32906   -1503.7311    530.26957    412.58197   -280.80455    37401.237 
  663300    307.47845   -1458.2819    492.71744     421.1528     -26.2793    37401.237 
  663400    305.19509   -1486.7411    518.19052    407.86876    45.037779    37401.237 
  663500    301.34678   -1516.8015    501.71962    343.98171   -28.204091    37401.237 
  663600    304.08032   -1480.1757    522.21307    413.42918    218.19393    37401.237 
  663700    304.95749   -1529.6835    513.22327    358.88757    447.25341    37401.237 
  663800    294.91494   -1534.4341    512.82554    308.44764    195.54065    37401.237 
  663900    304.76289   -1524.9665    468.93657    318.44026   -319.80445    37401.237 
  664000    295.35106   -1537.0509    497.63621    292.60843   -1243.0249    37401.237 
  664100    300.04421    -1504.613    500.22583    348.80188    -496.8961    37401.237 
  664200    299.52327   -1540.3404    489.89516    300.39443   -976.11591    37401.237 
  664300    291.83919   -1529.9777     509.8926    296.09957   -949.42091    37401.237 
  664400    290.97128    -1491.411    538.32799    359.18742   -575.19983    37401.237 
  664500     297.4322   -1525.1076    506.57745    322.87884    -342.0264    37401.237 
  664600    297.98291   -1521.5062    523.95838    346.34479   -374.69561    37401.237 
  664700     298.0823   -1525.3305    524.61061      343.621   -121.70026    37401.237 
  664800    303.92971   -1511.6793    512.87725    371.91055   -87.891373    37401.237 
  664900    306.00979    -1539.184    508.55894    349.46859   -106.75875    37401.237 
  665000    297.89914   -1552.5097    495.60277    286.60798   -45.222236    37401.237 
  665100    298.86243   -1534.1466    515.86228    329.57497   -325.34125    37401.237 
  665200    300.07396   -1496.3441    481.62249     338.6016    -62.98362    37401.237 
  665300    287.99111   -1511.1966    519.37223    307.00563      261.476    37401.237 
  665400     301.6082   -1520.6653    490.54309    330.12041   -5.5902085    37401.237 
  665500     309.4343   -1526.9181    471.21587    339.83579   -194.25192    37401.237 
  665600    298.27309   -1506.1056    495.82854    334.92437    76.230423    37401.237 
  665700    305.74069   -1510.9739    516.28712     384.1932    569.66338    37401.237 
  665800    295.51551   -1530.3838    500.17998    302.56101    34.882983    37401.237 
  665900    292.42664   -1539.7406    512.23691    291.33034    76.251555    37401.237 
  666000    282.28932   -1528.4141    527.34595    272.04696   -481.65536    37401.237 
  666100    301.32175   -1554.1739    518.48168    323.25855   -248.22079    37401.237 
  666200    303.50315   -1491.2543    516.78005    394.31456   -265.29787    37401.237 
  666300    294.55269   -1490.8493     531.3607    368.93387   -64.894199    37401.237 
  666400     292.1601   -1520.7704    498.52595    295.38752    44.885588    37401.237 
  666500    294.38447   -1528.8535    513.04954    311.85991   -494.38627    37401.237 
  666600    303.14798   -1528.8698    494.54326    332.86045    269.75535    37401.237 
  666700    298.03348   -1485.1796    503.43597    362.37707    411.79403    37401.237 
  666800    302.52868   -1514.5006     509.4931    359.38637   -86.016423    37401.237 
  666900    309.34112   -1501.3753    504.79436    398.53692   -109.63591    37401.237 
  667000    306.39339   -1519.8335    511.63865    373.62883    -109.0634    37401.237 
  667100    303.60372   -1534.2399    505.48231    340.48479   -209.98411    37401.237 
  667200    296.04002   -1539.3981    532.37592     328.1081   -762.02099    37401.237 
  667300     296.9142   -1532.5125    479.77309    286.33346    -568.2071    37401.237 
  667400    298.68159   -1501.2298    516.04433    361.85824   -292.84525    37401.237 
  667500    302.57715   -1508.7682    519.93948    375.78382   -205.13206    37401.237 
  667600    294.13764   -1539.0021    487.66319    275.21171    68.993581    37401.237 
  667700    303.43963   -1563.3907    497.28904    302.40058    647.60143    37401.237 
  667800    302.36297   -1527.9793    492.75831    328.42562    429.29061    37401.237 
  667900    292.16037   -1504.6494    507.84204    320.82586    147.50362    37401.237 
  668000    301.79314   -1524.3461    490.00835    326.73893    284.12602    37401.237 
  668100    294.19722   -1517.8594    509.15031    318.11029    -287.4311    37401.237 
  668200    306.39383   -1539.7809    493.72789    335.77267   -202.81899    37401.237 
  668300    302.90966   -1552.2191    489.88148    303.77452   -97.725423    37401.237 
  668400    307.68182   -1553.9961    521.84815    355.48646   -148.83917    37401.237 
  668500     290.8944   -1478.7391    512.37104    345.55569   -258.61303    37401.237 
  668600    301.93699   -1487.1411     503.9293    378.51363    -303.2677    37401.237 
  668700    288.54403   -1508.7367    515.15403    307.74093   -123.80274    37401.237 
  668800    295.56718   -1474.2485    505.18001    363.92938   -292.22267    37401.237 
  668900    305.41995   -1497.8855    510.73679    390.28477   -871.14338    37401.237 
  669000    295.14592   -1484.9985    523.05888    369.15833   -16.904067    37401.237 
  669100    307.45098   -1517.7631    503.33393    372.16413    302.86777    37401.237 
  669200    300.88911   -1518.4277     483.2094    321.78124   -9.5254601    37401.237 
  669300    295.55745   -1486.7457    519.71846    365.92675   -107.54102    37401.237 
  669400    308.40736   -1559.8751    496.58649    327.61796   -70.779798    37401.237 
  669500    289.76164   -1510.3337    507.23822    303.71958   -305.32799    37401.237 
  669600    289.89832   -1535.5855     505.5847    277.43065   -478.45983    37401.237 
  669700    301.68203   -1510.1125    476.52023    326.98334   -45.336603    37401.237 
  669800     293.9453   -1500.7989    504.58056    329.46489   -655.72286    37401.237 
  669900    291.65263   -1541.8787     515.0002    288.46483   -552.02986    37401.237 
  670000    296.56415   -1488.0696     511.3182    360.74269    76.051556    37401.237 
  670100    285.62659   -1496.6833    527.56275     319.0455    9.6350654    37401.237 
  670200    307.35324   -1524.9415    508.82174    370.03282   -726.96454    37401.237 
  670300    295.97191   -1524.9609    511.81675    321.67902   -35.200613    37401.237 
  670400    294.12523    -1489.446     537.8986    374.94725   -336.87724    37401.237 
  670500    293.77132   -1495.1724    536.54745    366.27357    17.567922    37401.237 
  670600    295.61783    -1550.369    491.73869    274.59593   -314.50927    37401.237 
  670700    303.49623   -1500.1913    520.93012    389.49642   -6.0199984    37401.237 
  670800    301.36599    -1548.695    498.16641    308.62163   -447.74128    37401.237 
  670900    297.88138   -1501.7674    502.01373     343.6811   -111.44171    37401.237 
  671000     305.0542   -1528.0448    498.97605    346.71519   -1026.5992    37401.237 
  671100    306.77668   -1532.3332    478.99099    330.21006   -491.14385    37401.237 
  671200    299.77878   -1495.9534       507.92    363.95858   -308.97542    37401.237 
  671300    294.84369   -1532.0539    509.50276    307.18376   -6.3724694    37401.237 
  671400    299.32339   -1564.3159    507.35172    292.97402   -109.38718    37401.237 
  671500    297.39984   -1558.0075    536.84839    320.10394   -75.339042    37401.237 
  671600    298.10197    -1487.417      515.644    372.65667    84.267145    37401.237 
  671700    308.56753   -1491.2737    525.33764    425.69292    -213.3892    37401.237 
  671800    304.19895   -1494.2001    522.65963    400.38632   -575.18795    37401.237 
  671900    298.82548   -1517.0014    519.03321    349.72439   -506.77175    37401.237 
  672000    290.60845   -1515.9356    516.82456    311.52308   -506.01376    37401.237 
  672100    308.56299   -1481.0881    500.28914    410.80956    30.209672    37401.237 
  672200    308.20833   -1502.7899    495.12007    382.33919    465.70639    37401.237 
  672300    300.53609    -1510.504    490.37149     335.2749   -386.47452    37401.237 
  672400     304.4535   -1507.6995    508.95437    374.32966    369.13582    37401.237 
  672500    305.02952   -1514.8565    534.09748    394.91367   -356.74927    37401.237 
  672600    296.97538   -1548.7472    516.36937    306.97089   -495.44747    37401.237 
  672700    295.86617   -1554.2851    500.19552    280.25672   -566.04317    37401.237 
  672800    292.34197   -1519.9273    526.16103      324.686    135.21841    37401.237 
  672900     289.9486   -1535.7222    505.69047    277.62648    430.78585    37401.237 
  673000    294.06707   -1523.3497    489.55018    292.43289    249.44136    37401.237 
  673100    292.55304   -1497.2817    515.27569     337.3982   -128.31544    37401.237 
  673200    299.88373   -1536.8017    492.99567    308.65927    108.06734    37401.237 
  673300    313.13619   -1516.8734    519.75811    415.11816    529.61653    37401.237 
  673400    291.59352   -1519.7324    489.62857    284.97292    219.03052    37401.237 
  673500    292.06543   -1470.0804    527.44324    374.56787   -95.718777    37401.237 
  673600     311.3677   -1512.8354    475.93577    367.35801   -77.180951    37401.237 
  673700    299.02399   -1556.7035    503.21228    295.09664   -304.73888    37401.237 
  673800    304.93998   -1530.7892     497.9536    342.43324   -92.537405    37401.237 
  673900    310.63719    -1508.373    479.69229    372.28229    219.59022    37401.237 
  674000    301.05971   -1529.0166    490.69206     319.4444    114.30311    37401.237 
  674100    289.78392   -1538.1251    514.78241    283.57279     3.349478    37401.237 
  674200     301.9758   -1535.8397    498.01867    324.07949   -103.43398    37401.237 
  674300    308.22393   -1537.3146    493.44304    346.20772   -204.56033    37401.237 
  674400    299.31436   -1488.4225    504.53476    366.00976   -190.84169    37401.237 
  674500    298.54229   -1471.8562    507.07156     381.6308   -590.79984    37401.237 
  674600    302.65347   -1488.2263    505.93095    382.66138    16.991576    37401.237 
  674700    302.98225   -1497.0454    524.12989    393.52399    274.30124    37401.237 
  674800    306.41367   -1511.9405    522.79792    392.77256   -202.17136    37401.237 
  674900    291.55615   -1513.2132    505.46336    307.15836    13.038793    37401.237 
  675000    299.11803   -1491.8495    508.37254    365.53506   -454.55764    37401.237 
  675100    309.97901     -1483.96    474.71409    388.74878   -42.111966    37401.237 
  675200    300.00603   -1500.7442    491.98064    344.25326    287.66525    37401.237 
  675300     303.1908   -1490.5462    514.36967     391.2036    91.824185    37401.237 
  675400    299.93102   -1484.1017    530.35196    398.92886   -375.22383    37401.237 
  675500    304.35658   -1499.0867    492.00329    365.55435    358.71849    37401.237 
  675600    305.19448   -1495.5339     526.1691    407.05183     290.1285    37401.237 
  675700    317.34445   -1533.4744    518.18967    415.92781    568.12301    37401.237 
  675800    300.75559   -1503.6282    485.16157    337.93075    546.64894    37401.237 
  675900    294.21785   -1571.4539    494.72698    250.18549   -291.81525    37401.237 
  676000    310.08482    -1525.788    480.14479    352.82869    16.323869    37401.237 
  676100     307.4314   -1529.9573      510.099    366.64675   -74.309144    37401.237 
  676200    294.35001   -1508.6002    492.85521    311.76339   -274.18741    37401.237 
  676300    296.32864   -1507.9904    498.18144    326.62306   -155.44939    37401.237 
  676400    306.46328   -1525.5864    491.06922    347.62171   -301.17308    37401.237 
  676500    295.58616   -1548.4586    492.93647    277.56136   -577.91685    37401.237 
  676600    307.25061   -1492.9152    488.78911     381.5636    323.83623    37401.237 
  676700    295.56591    -1531.501    512.89654    314.38762    595.88193    37401.237 
  676800    302.27304   -1533.7388    499.05165    328.55382    520.57197    37401.237 
  676900    306.94316   -1553.4073    489.77875    320.67459    580.91399    37401.237 
  677000    293.71649    -1515.471    506.48757    315.66787    153.99512    37401.237 
  677100    302.05269   -1467.9536    501.08525    395.37891    350.53116    37401.237 
  677200    308.26828   -1508.4355    483.56006    365.40388    569.86869    37401.237 
  677300     289.0584   -1497.6764    497.24754    303.21452    580.22869    37401.237 
  677400    291.37943   -1497.9545    501.41449    317.57114   -547.32377    37401.237 
  677500      308.728   -1489.8563    504.53093    407.02725   -167.66197    37401.237 
  677600    297.19703   -1519.7234    493.53971    314.16475   -2.4420489    37401.237 
  677700    307.63639   -1523.6989     493.1555    356.88616    242.28719    37401.237 
  677800    298.00333   -1523.3759    483.89224    304.50114    226.39526    37401.237 
  677900    303.92788   -1495.1494    499.17456    374.72943    16.112428    37401.237 
  678000     287.4845   -1454.2037    504.14938    346.49086    9.7793637    37401.237 
  678100    296.91084   -1498.8284    537.28914    377.51842   -491.97535    37401.237 
  678200    297.60129   -1502.3518     523.6345    363.45432   -311.59413    37401.237 
  678300    300.81926   -1507.3362    497.36841    346.71674    70.054057    37401.237 
  678400    305.64992    -1523.485    479.00244    333.98806    -401.4172    37401.237 
  678500    287.74146   -1507.6916    510.53607    300.54855   -503.20477    37401.237 
  678600    298.54161   -1530.4958    539.88634    355.80296   -120.62575    37401.237 
  678700    297.78478   -1561.3104    485.27796     266.9667    125.77457    37401.237 
  678800    301.61982   -1567.5884    518.94128    311.64787    918.65147    37401.237 
  678900    292.90643   -1527.2614    508.82863    302.56515    860.56683    37401.237 
  679000    305.25157   -1440.9957    502.70325    438.38167    580.31894    37401.237 
  679100    301.53121   -1485.6409    513.74549    387.99996    41.152037    37401.237 
  679200    286.12561   -1470.4162    523.70979    343.71025    279.94811    37401.237 
  679300     300.1064   -1477.0174    525.20252    401.65462   -121.55615    37401.237 
  679400    294.26332   -1489.9276    516.91811    354.10792   0.52719621    37401.237 
  679500    296.81823   -1511.1066    519.40926    346.94274    361.78375    37401.237 
  679600     290.5913   -1454.2355    542.09621    398.41752    187.88782    37401.237 
  679700    299.81763   -1454.2985     534.5078    432.37647    105.01927    37401.237 
  679800    301.68715   -1492.5987    475.48443    343.48437    568.69475    37401.237 
  679900    311.67287   -1513.9897    482.65923     374.3035    671.22552    37401.237 
  680000    302.04843   -1505.1767     520.2031    377.25445     628.2301    37401.237 
  680100    298.62097   -1498.7569    500.80539    348.81879     528.2643    37401.237 
  680200    300.67481   -1469.5006    553.17324    439.70567    918.13775    37401.237 
  680300    297.87778   -1497.0557    504.35438    350.71722     850.3505    37401.237 
  680400    302.39856   -1471.8885    504.89159    396.81019    353.06164    37401.237 
  680500    302.50867   -1509.7601    542.76051    397.30414    489.22793    37401.237 
  680600    305.27597   -1500.8221    515.54365    391.50566     359.8483    37401.237 
  680700     300.0756   -1493.7687    524.87864    384.44057    415.47529    37401.237 
  680800    303.63198   -1487.4477    525.09588    407.01797   -37.779004    37401.237 
  680900    304.64023   -1489.6073    495.77031       380.08    209.94692    37401.237 
  681000    303.38905   -1492.5131    496.63039    372.39145    392.38369    37401.237 
  681100    290.67662   -1471.7962    496.70054     335.8459    66.032093    37401.237 
  681200    297.81434   -1481.1976     553.2268    415.16164   -171.69543    37401.237 
  681300    297.47288   -1467.3589    504.36496    378.59853   -85.586873    37401.237 
  681400    300.98062   -1534.3173    488.76269    311.85762    120.41673    37401.237 
  681500    313.69547    -1479.307    518.61999    454.06875   -576.75097    37401.237 
  681600    312.67601   -1533.6687    489.38466    365.87408   -400.39502    37401.237 
  681700     294.3226   -1488.7995    534.42293    373.00821   -318.82663    37401.237 
  681800    297.88835   -1490.3051    504.92782    358.08893    -311.6699    37401.237 
  681900    297.27139   -1506.9452    522.23648    355.97504   -424.80633    37401.237 
  682000    293.82502   -1510.9763    492.42502    306.58943   -238.35649    37401.237 
  682100    298.54386   -1508.7278    514.87547    352.57018    94.592578    37401.237 
  682200    282.25982   -1492.2568    469.63268    250.35796    167.57015    37401.237 
  682300    305.31059   -1513.2133    501.50365    365.23063    631.28655    37401.237 
  682400    295.96834   -1497.3057    508.92588    346.42725    287.16597    37401.237 
  682500    301.51267   -1530.6309    498.73991    327.92072    749.65191    37401.237 
  682600     295.4253   -1521.5648    477.75733    288.55047    631.56266    37401.237 
  682700    306.65471   -1507.7485    514.27381    389.52749     728.3359    37401.237 
  682800    304.35454   -1438.1475    489.43175    423.91277   -23.783279    37401.237 
  682900    299.79131   -1454.7618    501.70152    398.98824    879.16124    37401.237 
  683000    308.27731   -1455.1424    509.76141     444.9391    60.509744    37401.237 
  683100    310.47259   -1475.1483    493.77169    418.84409    554.36226    37401.237 
  683200     289.5233   -1450.8029     499.5004    354.43768   -289.89442    37401.237 
  683300    294.70149   -1453.6287    535.89929    411.36419    227.60246    37401.237 
  683400    286.36218     -1472.83    488.13696    306.79056   -158.42667    37401.237 
  683500    306.76936    -1474.473    520.68788    429.73413   -206.97574    37401.237 
  683600    303.30489   -1482.2667    491.36762    376.99553    -581.7728    37401.237 
  683700    309.58298   -1452.2386    495.91536    439.88537   -382.99574    37401.237 
  683800    298.42706   -1441.6606    505.40083    409.63602   -589.15128    37401.237 
  683900    298.46541   -1433.7491    483.87845    396.19804   -777.15979    37401.237 
  684000    308.73701   -1455.4954    505.89015    442.78806   -887.44019    37401.237 
  684100    291.50418   -1417.7043    482.92191    379.89148   -46.728188    37401.237 
  684200    295.19288   -1491.1678    519.52081    359.66276    197.40171    37401.237 
  684300    301.39535   -1460.5786    512.98099    411.68509    869.64555    37401.237 
  684400    300.98484   -1431.4972    502.40659    428.34067    102.10529    37401.237 
  684500    300.17382   -1460.0331    495.79805    389.53857   -2.3980007    37401.237 
  684600     304.6499   -1466.5074    466.69435    374.14751    7.6484331    37401.237 
  684700    302.79493   -1507.7498    490.12035    347.96529   -282.27574    37401.237 
  684800    311.67995    -1493.339    497.38258     409.7094   -256.74024    37401.237 
  684900    301.20088   -1472.6947    479.13288    364.84385   -323.35742    37401.237 
  685000    304.43219   -1478.5744    488.82803    383.23234   -12.970526    37401.237 
  685100    302.05837   -1503.8364     502.3512    360.78769    38.039082    37401.237 
  685200    296.35393   -1508.2774    458.22414    286.49272    3.3341769    37401.237 
  685300    303.50952    -1528.903    526.87564    366.79009   -402.82609    37401.237 
  685400     303.2281   -1485.3918    481.85055    364.00709    513.79932    37401.237 
  685500    292.19066   -1454.3865     500.2701    363.65346    182.21481    37401.237 
  685600    297.00611   -1535.9911    477.68627     281.1825    92.419646    37401.237 
  685700    298.14856   -1476.6009    491.53952    359.57834    410.19919    37401.237 
  685800    293.75832   -1431.6792    506.87081    400.03155      407.097    37401.237 
  685900    301.50433   -1454.0879    529.03747    434.72377   -71.056107    37401.237 
  686000    296.34955   -1451.2615    491.61613    376.88091    8.2965323    37401.237 
  686100    302.77598    -1460.751    499.60417    404.36246   -525.04575    37401.237 
  686200    300.97428   -1434.9561     499.6089    422.03642   -498.99529    37401.237 
  686300    306.01496   -1446.0011    528.64822    462.76408   -1056.0118    37401.237 
  686400    292.87952   -1487.3164    523.78687    357.34703   -1240.0319    37401.237 
  686500     294.9951   -1477.0021     467.3403    320.75588   -296.04786    37401.237 
  686600      293.072   -1475.7473    503.45002    349.44734   -429.43859    37401.237 
  686700    312.37717   -1467.0257    518.69664    460.48124   -1045.0113    37401.237 
  686800    299.99637   -1493.2496    486.28191    346.00559   -729.68153    37401.237 
  686900    298.48168   -1477.2725    509.01512    377.88471   -126.20166    37401.237 
  687000    303.47691   -1496.0897    508.47825    381.05897   -257.30148    37401.237 
  687100    287.79611   -1484.9572    473.85785    286.85119    -383.9294    37401.237 
  687200    305.50772   -1453.6866    507.37408    431.51677   -295.93108    37401.237 
  687300    303.61318   -1493.6598    493.45575    369.08091   -225.02411    37401.237 
  687400    299.74005   -1495.1851    511.80742    368.43964   -200.88565    37401.237 
  687500    282.90591   -1518.1993    514.53682    272.23344   -261.03067    37401.237 
  687600    302.12808   -1479.2273    511.58545    394.94539   -494.77347    37401.237 
  687700     306.9636   -1450.8667     516.8483    450.37689   -278.64138    37401.237 
  687800    288.16382   -1468.3856    480.29688    311.52025   -263.67632    37401.237 
  687900    305.79905   -1518.9088    514.60782    374.84219   -537.20733    37401.237 
  688000    302.66377   -1542.4032    459.28182    281.88183    -437.9566    37401.237 
  688100    321.78228   -1527.3209    488.41345    412.31957   -306.89472    37401.237 
  688200     296.9806   -1566.3196    487.02034    260.07301   -61.081173    37401.237 
  688300    306.49755   -1527.4473    478.97593    333.82207   -147.66439    37401.237 
  688400    310.26661   -1506.5201    478.00382    370.77544   -254.99042    37401.237 
  688500    300.03859   -1527.6725    509.86032    335.35151    447.74583    37401.237 
  688600    294.30089   -1520.5901    477.77959    284.47642    229.25001    37401.237 
  688700    303.70528   -1502.1398    526.19356     393.7541    152.80318    37401.237 
  688800    300.13936   -1496.5256    485.47922    342.57177    959.19416    37401.237 
  688900    296.54078   -1443.6228    506.70582    400.47171    265.37805    37401.237 
  689000    302.47982   -1468.1613    529.14558    425.15785   -251.98882    37401.237 
  689100    311.04029   -1477.7433     496.1798    421.21754   -125.41194    37401.237 
  689200    294.22451   -1486.6738    496.69286    336.96145   -1086.2964    37401.237 
  689300    291.48106   -1485.9258    502.65055    331.29431    86.402194    37401.237 
  689400    296.67674   -1494.5096    510.50277    353.99509    469.34276    37401.237 
  689500    297.70529   -1494.4786    497.16263    345.32464    398.61829    37401.237 
  689600    298.59571   -1482.2402    516.90899     381.3252    159.79666    37401.237 
  689700    298.43089   -1448.4046    500.23081    397.73921    326.30117    37401.237 
  689800     295.5505   -1416.0682    518.73347    435.58783   -448.21571    37401.237 
  689900    293.44031   -1406.9893    482.35431    398.77068   -691.97844    37401.237 
  690000    306.11929   -1435.5904    485.48684    430.48393   -502.75039    37401.237 
  690100    291.85948   -1453.4176    491.15011    354.00868   -999.24681    37401.237 
  690200    308.72932   -1445.7357     534.8591    481.48206   -1007.6527    37401.237 
  690300    307.79976   -1440.0868    491.81819    439.89772   -807.07458    37401.237 
  690400    289.38192   -1460.3717    490.49081     335.2216   -857.92181    37401.237 
  690500    308.96406   -1460.6911    502.19894     434.9251   -442.82881    37401.237 
  690600    293.39453    -1490.083    508.15357    341.26982   -283.67919    37401.237 
  690700    311.63735   -1486.2855    500.57544    419.76363   -78.589455    37401.237 
  690800    302.94536   -1474.6167     512.6242    404.28069   -3.3602116    37401.237 
  690900    294.59169    -1531.751    510.78633    307.63372    392.96307    37401.237 
  691000    299.78236   -1485.0029    485.49824    352.50348    562.17926    37401.237 
  691100    301.02908   -1475.0857    492.34631    374.89145   -101.16839    37401.237 
  691200    300.38896   -1490.3647    482.61995     346.9991    114.87878    37401.237 
  691300    299.48571   -1477.2883    521.11381    394.49577    97.449248    37401.237 
  691400    304.44411   -1448.8781    514.58413    438.73846    461.98149    37401.237 
  691500    292.82312   -1508.8482    467.92922    279.70318   -194.87087    37401.237 
  691600    299.01697   -1481.3105    485.97044    353.21613   -1089.4873    37401.237 
  691700    297.79355   -1500.0809    502.95958    345.91741   -327.15912    37401.237 
  691800    289.62308   -1458.2907    506.07209    353.97148   -692.41565    37401.237 
  691900    298.16221   -1445.5316    484.94907    384.11876   -570.90569    37401.237 
  692000    297.79414   -1445.6014    508.01674    405.45664   -95.687711    37401.237 
  692100    300.41792   -1431.1319    508.78691    432.52954    -279.4689    37401.237 
  692200    293.53963   -1449.0938    517.36729    392.12714   -352.61637    37401.237 
  692300    301.37087    -1435.354    525.76947    449.58777   -136.51689    37401.237 
  692400     294.2655   -1490.8116    490.41161    326.72727   -659.14189    37401.237 
  692500    296.56931   -1463.1811    506.94471    381.28102   -1023.8295    37401.237 
  692600    303.58279   -1439.3002    530.60087    460.44858    -1156.715    37401.237 
  692700    305.17658   -1445.1884    484.98262    416.13011   -660.68589    37401.237 
  692800    293.13742   -1413.9521    490.25676    398.34434    -992.7802    37401.237 
  692900    299.56527   -1405.2664    509.86576    455.62847   -765.24545    37401.237 
  693000    297.64542   -1496.5068    475.82038    321.68421   -345.17257    37401.237 
  693100    307.29485   -1429.1404    532.35089    489.09967   -77.474835    37401.237 
  693200    293.37798   -1384.5785    516.04492    454.59103   -85.125845    37401.237 
  693300    296.16026   -1448.2206    510.25638    397.70841    6.8031464    37401.237 
  693400    291.21699   -1488.3105    490.13736    315.20545    379.42277    37401.237 
  693500    306.49647   -1465.6116    514.92536    431.60227    724.09369    37401.237 
  693600    293.68015   -1477.6569    507.42441    354.25485    212.16787    37401.237 
  693700    306.44732   -1448.6104     521.7124    455.16886    387.11248    37401.237 
  693800     297.3832    -1438.961    476.27008    378.49704   -534.04493    37401.237 
  693900    290.23156   -1470.3647    532.26124    370.83088    190.37909    37401.237 
  694000    290.23932   -1522.7731    511.68132    297.87752   -282.10359    37401.237 
  694100    295.26383   -1507.7815    503.18537    327.03354   -596.03464    37401.237 
  694200    303.29214   -1464.4051    514.76088    418.19295   -425.43467    37401.237 
  694300    292.46512   -1465.6797    499.95643    353.28434   -11.912451    37401.237 
  694400     295.2355   -1483.7669    483.90821    331.64325   -551.88761    37401.237 
  694500    297.46816   -1495.4903    476.96424    323.04509   -395.57317    37401.237 
  694600    301.94404   -1466.0697    482.34611    378.03364   -226.47924    37401.237 
  694700    292.33915   -1473.6665    520.62712    365.40015   -169.46038    37401.237 
  694800    288.43515   -1489.0449    505.52505    317.31272   -630.02496    37401.237 
  694900    307.07474    -1504.806    491.88304    371.97358    160.79428    37401.237 
  695000    302.71162   -1460.2614    529.83402    434.79163   -163.87781    37401.237 
  695100    289.16045   -1491.5539    495.08373    307.63351    8.5275831    37401.237 
  695200    298.33298   -1459.0757    506.51395    392.90973   -442.36766    37401.237 
  695300     294.2769   -1501.6762    524.81275    350.31525   -862.05747    37401.237 
  695400     293.1306   -1488.8297    507.75215    340.93137   -421.92235    37401.237 
  695500    299.11004   -1455.1151    491.19571    385.05658   -294.90848    37401.237 
  695600    294.06635   -1465.3766    502.60767    363.46019   -285.72235    37401.237 
  695700    299.99989   -1476.2445    501.54702    378.29172    -155.1264    37401.237 
  695800    299.20347   -1484.2962    508.50735    373.60857   -527.10929    37401.237 
  695900    292.63915   -1506.1607    523.02896    336.66075   -397.06668    37401.237 
  696000    314.06684   -1485.7227    505.27109      435.979   -330.33344    37401.237 
  696100    304.72137   -1495.8044    510.13181    388.61029   -130.40606    37401.237 
  696200    296.42952   -1500.9943    514.03589    349.92847   -483.23804    37401.237 
  696300    300.26814   -1473.9984     492.3208    372.52132    17.698468    37401.237 
  696400    302.93661   -1450.9206    501.04451    416.35762     -549.361    37401.237 
  696500    305.27527   -1467.5257    514.86333    424.11857   -492.76749    37401.237 
  696600    299.48737   -1480.9562    506.31429    376.03582   -416.13148    37401.237 
  696700    300.98014   -1529.1756    475.19941    303.43386   -832.30242    37401.237 
  696800    298.60332   -1540.6226    503.81306    309.88111   -706.49985    37401.237 
  696900    295.22944   -1525.4817    480.34097    286.33388   -81.927003    37401.237 
  697000    302.42302   -1509.3477     504.5321     359.1018   -6.0069675    37401.237 
  697100    297.93866   -1484.8457    496.43056    355.27795    276.50811    37401.237 
  697200    290.66099   -1484.3637    501.88661    328.39394     583.2505    37401.237 
  697300    292.54425   -1551.6259    503.13012    270.86869    216.81066    37401.237 
  697400    298.86369    -1510.172    501.84716     339.5401   -66.697051    37401.237 
  697500    302.53783   -1488.5796    524.32668    400.18232    62.254691    37401.237 
  697600    301.61805   -1526.5441    470.23703    303.97996    145.03569    37401.237 
  697700     297.6755    -1513.887    507.26463    335.88389   -4.7526596    37401.237 
  697800     296.0295   -1497.0575    521.77943    359.80483   -49.495979    37401.237 
  697900    289.92815   -1475.7552    502.19243    334.00318    53.528835    37401.237 
  698000     301.9026   -1504.3644    502.52965    359.73562   -81.744184    37401.237 
  698100    295.89742   -1454.3621    488.94723    369.07228   -210.67586    37401.237 
  698200    292.50297   -1469.0039    531.80502    381.97944    -890.7909    37401.237 
  698300    289.03248   -1500.7883    488.15476      290.893   -886.21839    37401.237 
  698400     294.5598   -1445.0418    488.78392    372.19667   -818.79025    37401.237 
  698500       304.66   -1529.7918      505.738     349.9523   -730.04455    37401.237 
  698600    298.57791   -1515.0717    526.38021    357.88465   -321.97989    37401.237 
  698700    293.18324   -1543.8779    497.51836    275.88677    221.91076    37401.237 
  698800    298.56376   -1534.2684    486.39975     298.6437   -138.21301    37401.237 
  698900    306.84188   -1527.2188    498.86587    355.49341    77.776945    37401.237 
  699000    290.85497   -1543.1185    518.66481    287.29224    516.89122    37401.237 
  699100    299.66947   -1524.0471    478.38415    305.83601   -62.381866    37401.237 
  699200    294.91497    -1510.859    483.25687    302.45421   -299.10113    37401.237 
  699300    297.06246   -1480.9471    472.56397    331.35838   -290.34346    37401.237 
  699400    304.30084   -1512.4479    494.18534     354.1238   -148.45383    37401.237 
  699500     302.0744   -1492.2656    498.25501    368.33455   -39.645967    37401.237 
  699600    297.15147   -1531.1837    490.27406    299.23322   -64.797902    37401.237 
  699700    300.44219   -1548.1716    484.53795    291.35035    394.12187    37401.237 
  699800    301.39883   -1521.1372    487.94972    326.11093    190.21334    37401.237 
  699900    302.22277   -1505.6328     479.1771    336.55864    93.861716    37401.237 
  700000    303.86595   -1517.1508    509.00676    362.28091    35.523351    37401.237 
  700100    304.45035   -1496.6714    512.27309    388.66231     646.5169    37401.237 
  700200    295.20042    -1546.782    495.78079    280.34252   -969.38572    37401.237 
  700300    294.70216   -1554.8463    458.17584    232.42612   -637.51347    37401.237 
  700400    298.25574   -1514.8504    476.55289    306.82564   -631.83696    37401.237 
  700500    298.47188    -1506.456    488.39085     328.0327   -350.60102    37401.237 
  700600    301.05868   -1512.1426    511.48068    357.10236    19.507439    37401.237 
  700700    296.11888    -1551.042    513.86673    298.31073    390.95428    37401.237 
  700800    304.98323   -1498.4932    495.08737    372.05801    138.00663    37401.237 
  700900    295.04714    -1475.771    518.11513    372.99659   -20.399621    37401.237 
  701000    298.52911   -1526.3686    511.56537    331.55282    365.17424    37401.237 
  701100    311.41853   -1536.0741    500.24856    368.66129   -290.62601    37401.237 
  701200    298.84473    -1482.144    497.72036    363.35583   -631.27231    37401.237 
  701300    312.59136   -1496.2342    507.16981    420.71187   -428.40847    37401.237 
  701400    292.52104   -1449.4758     514.8731    384.65719   -220.43784    37401.237 
  701500    298.11058   -1511.7008    488.69418    321.46184   -292.31096    37401.237 
  701600    306.17706   -1486.8552    507.09942    401.09226    -168.7445    37401.237 
  701700    296.06546   -1479.2753     517.9051    373.87482    166.20385    37401.237 
  701800     303.1237   -1496.1083    486.35924    357.32838    224.09994    37401.237 
  701900    308.29055   -1490.6217    513.53318    413.29125   -190.73629    37401.237 
  702000    302.39448   -1469.7613    526.54132    420.56869   -68.050036    37401.237 
  702100    301.63066   -1442.1387    505.13619    423.34133    297.35842    37401.237 
  702200     301.7506   -1477.8026    492.32052    375.40275   -237.42075    37401.237 
  702300    297.69988   -1492.2953    498.03585    348.35677   -309.87795    37401.237 
  702400    302.24376   -1481.9795    509.40487    390.53438    3.7296123    37401.237 
  702500    301.59846   -1533.4262    473.25279    300.02527 -0.078978486    37401.237 
  702600    298.52133   -1507.4317    529.88221     368.7715   -238.01181    37401.237 
  702700    293.68641   -1495.1351    515.26699    344.64756    632.59961    37401.237 
  702800    307.43092    -1479.218    502.34645    409.63128    174.08582    37401.237 
  702900    301.25009   -1478.3394    505.25971    385.54789    1040.8587    37401.237 
  703000    288.97698   -1490.4883    505.60264    318.39057    814.24476    37401.237 
  703100    292.66395    -1504.242    507.94675    323.60904    805.41125    37401.237 
  703200    306.91769    -1562.395    511.71244    333.50563    433.80123    37401.237 
  703300    300.06513   -1534.9655    476.43625    294.75419    593.22696    37401.237 
  703400    300.73306   -1555.5209    475.98391    276.75879    198.24925    37401.237 
  703500    311.16555   -1548.9517    490.69456    345.08885   -25.802337    37401.237 
  703600    298.54251   -1516.4553    498.63107     328.5922   -505.84983    37401.237 
  703700    289.52704    -1499.812    513.27911    319.22409   -578.48443    37401.237 
  703800    302.88838   -1507.3128    502.18046    360.88385   -868.83595    37401.237 
  703900     297.3516   -1513.7235    498.89674     326.2187   -54.106783    37401.237 
  704000    297.07105   -1540.9805    497.07872    295.87842    -690.9825    37401.237 
  704100    304.91349   -1536.0336    496.78435    335.90009    12.170681    37401.237 
  704200    304.85908    -1528.146    484.67897    331.43694   -326.69439    37401.237 
  704300    307.79308   -1515.4669    528.20589    400.87519    47.358388    37401.237 
  704400    301.47653   -1554.7483    488.73569    293.63622    696.16133    37401.237 
  704500    294.66618   -1530.3652    511.85989    310.42901    908.48258    37401.237 
  704600    293.94548   -1506.4207    506.61905    325.88236   -151.51488    37401.237 
  704700    294.52853   -1530.9423    476.92769    274.29898    363.04966    37401.237 
  704800    297.61415   -1561.8267    482.93822    263.34105   -164.01573    37401.237 
  704900    308.93226   -1574.1137    501.96215    321.12229   -211.14245    37401.237 
  705000    301.60517   -1531.1589    475.98826    305.05828    37.515906    37401.237 
  705100    310.87851   -1544.9761    491.87991    348.95518    199.57087    37401.237 
  705200    294.22565   -1527.5202    501.00955    300.43697    133.75068    37401.237 
  705300    301.45475   -1537.1552    471.29799    293.69331    -548.2855    37401.237 
  705400    296.95449   -1508.6974    485.05142    315.60853   -454.08971    37401.237 
  705500    305.34467   -1557.3715    475.71577    295.43823   -921.63433    37401.237 
  705600    294.09574   -1560.2148    486.29543    252.44235   -162.93878    37401.237 
  705700     302.1224   -1512.3667    495.97078    346.16565    263.37308    37401.237 
  705800    297.81671   -1534.9199    497.52889    305.75213    145.74058    37401.237 
  705900    318.52062   -1549.3088    494.43717    381.64537    187.94472    37401.237 
  706000    309.29383    -1513.121    487.23698    369.02052    182.06185    37401.237 
  706100    298.91922   -1518.1995     479.3419    309.25778    49.172504    37401.237 
  706200    299.24891   -1508.3496    482.00066    323.25335   -198.59425    37401.237 
  706300    302.70477   -1513.6187    500.15701    351.72642    40.673537    37401.237 
  706400    311.21161    -1506.675    498.24731    395.12598    131.22488    37401.237 
  706500    289.26025   -1534.2607    496.75871     267.0518   -463.98621    37401.237 
  706600     304.9935   -1454.4196    505.78518    426.87576   -472.46732    37401.237 
  706700    279.33631   -1467.2482    467.14471    259.69369   -545.86887    37401.237 
  706800    311.15054    -1518.196    476.09158    361.17384   -423.90552    37401.237 
  706900    296.21322   -1541.4157     479.7783    274.27409   -321.41461    37401.237 
  707000    295.06718   -1488.4206    498.55941    340.88167   -267.21997    37401.237 
  707100    293.82694   -1494.4716    493.85802    324.53578   -165.43896    37401.237 
  707200    298.69275   -1461.2793    512.21255    398.02726   -60.975101    37401.237 
  707300    294.22898   -1504.8356    492.84951    314.97647   -24.397858    37401.237 
  707400    300.19548   -1492.4349    494.57016     356.0065   -614.27988    37401.237 
  707500    307.68665   -1495.5088    495.48827    387.63567   -695.54555    37401.237 
  707600    294.67325   -1491.4144    472.48995     310.0418   -186.72605    37401.237 
  707700    294.87839   -1485.9615    480.58736    324.51728    135.17096    37401.237 
  707800    307.67122   -1513.0431    496.22266    370.76616    80.471101    37401.237 
  707900    301.74654   -1484.0709    503.33365    380.12921    11.471817    37401.237 
  708000    301.50467   -1475.2236    521.44045    405.99258   -63.803699    37401.237 
  708100    295.13118   -1469.2073    507.08759    368.91177    575.54553    37401.237 
  708200    294.87868   -1460.5908    531.67733    400.97926    97.441238    37401.237 
  708300    311.01386   -1455.3062    514.80808    462.16373    370.60886    37401.237 
  708400    295.83705   -1462.1007    519.15104    391.26521    293.72089    37401.237 
  708500    300.53169   -1466.4224    502.92871    391.89389    556.49107    37401.237 
  708600    295.17732   -1474.0523    526.09983    383.28715    835.68473    37401.237 
  708700    310.30897    -1478.865    516.08571     436.7035     352.6685    37401.237 
  708800    295.75878   -1486.5179     493.3946    340.73859    493.58311    37401.237 
  708900    300.61055   -1525.6104     512.7888     342.9216    254.75968    37401.237 
  709000    294.98823   -1468.7858    480.10816    341.70913   -1.7179616    37401.237 
  709100    302.88282   -1466.6491    503.24092    402.58287    317.00397    37401.237 
  709200    293.88295   -1491.9759    481.26038    314.68643    187.29515    37401.237 
  709300    294.30517   -1498.0263    499.82134    329.10127   -381.56573    37401.237 
  709400    299.40123   -1428.8593    501.89835    423.32826   -142.21243    37401.237 
  709500    298.50701   -1480.7008      500.255    365.81054    598.11413    37401.237 
  709600     304.0516   -1460.6193    515.12224    425.76523    219.22095    37401.237 
  709700    291.71777   -1489.1629    489.34931    315.82353    102.92909    37401.237 
  709800    293.27532   -1533.3001    528.97142    318.33298    77.232415    37401.237 
  709900    305.75749   -1502.6855    518.15918    394.42941    107.92874    37401.237 
  710000    305.17097   -1500.0828    514.30871    390.53651    126.59291    37401.237 
  710100    301.92464   -1505.2558    480.66669    337.08063    427.96955    37401.237 
  710200    293.87645    -1473.489    517.96818    369.85183   -284.74882    37401.237 
  710300    300.09223   -1486.5666    498.43121     365.2702   -320.99301    37401.237 
  710400    297.61884   -1463.3175    490.55149    369.48475     52.91033    37401.237 
  710500    295.47394   -1414.5626    526.71901    444.73369   -137.10944    37401.237 
  710600    294.03039    -1433.949    508.89081    401.00876   -175.52741    37401.237 
  710700    301.92722    -1421.746    512.55967    452.49501    310.34787    37401.237 
  710800    293.25375   -1477.2422    510.71973    356.04189   -141.36147    37401.237 
  710900    305.56397   -1486.4544    488.78815    380.41679   -19.839044    37401.237 
  711000    299.16213   -1444.4197    505.48938    410.28066   -258.32671    37401.237 
  711100    291.06133   -1453.5695    470.90434    330.01145   -485.75882    37401.237 
  711200    296.63296   -1394.9614    514.09683    456.93994   -503.49417    37401.237 
  711300    294.29937   -1449.9563    532.48031    409.80402   -1351.9183    37401.237 
  711400    300.61148   -1433.8562    487.18728    409.07849   -857.05207    37401.237 
  711500    303.40904   -1431.5328    508.05691    444.88847   -418.01626    37401.237 
  711600    298.49412   -1491.9356    498.98808    353.25071   -374.91913    37401.237 
  711700    296.43646   -1448.1659    521.02587    409.77819    1.6706068    37401.237 
  711800    293.87793   -1423.6659    538.29871    440.01222   -726.96289    37401.237 
  711900    291.06934   -1458.1294    502.12686    356.71023   -195.27375    37401.237 
  712000    299.71897    -1453.196    507.21637     405.7426     358.0352    37401.237 
  712100    300.56602    -1437.208    500.32151    418.65596   -290.66576    37401.237 
  712200    294.34705   -1451.3605    505.22872    381.36327   -337.85798    37401.237 
  712300    299.70307   -1443.1824     509.0511    417.51924   -237.16626    37401.237 
  712400    296.53633   -1412.5093     526.8056      451.665    133.54773    37401.237 
  712500    301.81254   -1434.8139    528.68299    455.03333     57.93915    37401.237 
  712600    304.91986   -1434.2126    526.17376    467.13925   -94.437375    37401.237 
  712700    303.88698   -1436.8475    504.87706     438.5494   -134.16218    37401.237 
  712800    303.01377   -1423.2316    482.04522    425.39528   -349.17064    37401.237 
  712900    293.39169   -1328.7499     511.7176    506.15413    -283.7609    37401.237 
  713000     301.9062    -1403.744     497.5755    455.41812    457.48353    37401.237 
  713100    305.81375   -1437.5143    505.15179      446.847    21.689742    37401.237 
  713200    314.22646   -1422.3362    503.58141    498.39575    368.87626    37401.237 
  713300    305.90841   -1422.7186    498.74239     455.6602    328.50812    37401.237 
  713400      290.877   -1407.6892    518.82414    422.98014    310.77124    37401.237 
  713500    316.12599   -1431.1909    491.18225    485.70869    703.06204    37401.237 
  713600    289.59831   -1451.5223    542.24551    396.80162    443.77964    37401.237 
  713700    294.40436   -1461.7379    517.88099     383.8966   -19.294269    37401.237 
  713800    296.30057   -1469.7151    518.13223    384.72251    108.39662    37401.237 
  713900    293.97495   -1500.9956     496.2304    321.05169   -163.86297    37401.237 
  714000    298.37753   -1476.4576    502.32669    371.54145   -66.060442    37401.237 
  714100    287.29421    -1466.046    489.60138    319.24235   -374.37036    37401.237 
  714200    299.18822   -1484.9336    478.05331    342.44826   -229.73495    37401.237 
  714300     293.4965   -1482.2018    519.94774    361.40505   -147.68545    37401.237 
  714400    296.67196   -1467.3409    494.56371    365.20318    145.03069    37401.237 
  714500    308.79591   -1467.8302    510.54337    435.37214    77.446943    37401.237 
  714600     304.7707    -1473.435    485.20182    386.27214   -546.53237    37401.237 
  714700    305.96323   -1456.8673    488.12141    411.13778    384.35598    37401.237 
  714800    286.52576   -1465.9898    492.35213    318.58361    567.69723    37401.237 
  714900    293.86192   -1457.4082    514.14847     382.0474     436.7166    37401.237 
  715000    300.25932   -1490.7389     510.4846     373.9049    264.85694    37401.237 
  715100     288.4954   -1464.2169    521.81864    358.70605    376.32161    37401.237 
  715200    299.67903   -1454.0809    504.17414     401.6354   -5.9482676    37401.237 
  715300     302.3992   -1478.3818    481.52904    366.95721    258.38054    37401.237 
  715400    302.09283    -1481.129    503.43552    384.73474    387.26731    37401.237 
  715500    302.82801   -1434.7102    498.34551    429.37925    157.08496    37401.237 
  715600    292.42775   -1488.1001     468.7133    299.45227    -498.8114    37401.237 
  715700    291.48861   -1437.6722    518.24134    395.17272   -780.71042    37401.237 
  715800    297.74101   -1459.0661    515.89877    399.63442     -289.249    37401.237 
  715900    297.77196    -1478.708    491.75724    355.99054   -661.00265    37401.237 
  716000    294.35324   -1478.3757    520.48537    369.63259   -852.41376    37401.237 
  716100    304.80296   -1460.2388    487.48483    401.89691   -596.61991    37401.237 
  716200     288.3549   -1486.4717    483.85611    297.85506    373.09821    37401.237 
  716300     297.3294   -1500.6556    514.68661    354.97634   -200.75554    37401.237 
  716400    295.41236   -1457.2772    531.17579     406.1982    187.11345    37401.237 
  716500    303.43467   -1439.7393    502.92634    431.66702    321.47554    37401.237 
  716600     297.1606   -1476.2731    493.04531    356.95633     395.7776    37401.237 
  716700    297.73869    -1475.806    536.93202    403.91726    -703.5017    37401.237 
  716800    298.63725     -1480.99    461.16794    327.02173   -59.895937    37401.237 
  716900    300.31674   -1465.2289    511.07004    400.25928   -554.90855    37401.237 
  717000    298.11241   -1487.7099    489.06224    345.82908    147.66406    37401.237 
  717100    294.06495   -1489.1372    490.52234    327.60795    558.62678    37401.237 
  717200      292.528   -1528.0655    508.58003    299.80575    669.65256    37401.237 
  717300    310.80784   -1541.8538     502.1951    362.07394    832.67474    37401.237 
  717400    291.72376   -1495.2166     502.9702    323.41775    607.94207    37401.237 
  717500    299.10871   -1499.6546    516.47771    365.79314    52.432392    37401.237 
  717600    301.33153   -1509.4558    495.47707    345.01608    700.79421    37401.237 
  717700    290.66769   -1514.4482    485.15876    281.61182    516.52208    37401.237 
  717800    299.08589   -1474.6811    525.32153    399.50754    13.147873    37401.237 
  717900    316.18019   -1431.8856    517.95642    512.03266    5.7569189    37401.237 
  718000    305.19174   -1495.8586    495.18813    375.73376   -159.62435    37401.237 
  718100    297.47231   -1503.5946    485.43459    323.42984   -786.18121    37401.237 
  718200    298.16285   -1469.4341    534.12738    409.39744    206.01234    37401.237 
  718300     299.0227   -1461.1439    547.70591    435.14407   -302.25965    37401.237 
  718400    300.23212   -1439.6395    504.43182     418.8289   -97.293207    37401.237 
  718500    309.17303   -1477.1738    503.38972    420.57571   -295.29591    37401.237 
  718600    301.45348   -1474.5468    478.27942    363.27746   -415.13041    37401.237 
  718700    301.31883   -1468.7497    509.71769    399.90554   -472.53662    37401.237 
  718800    304.13444   -1476.0877    483.21711    378.76531   -101.34633    37401.237 
  718900    300.07271   -1500.0157    516.31315     369.6151   -312.31442    37401.237 
  719000    296.88322   -1459.9463    516.52539    395.51221   -360.31976    37401.237 
  719100    294.56704   -1496.2788    517.58586    349.79425   -53.226976    37401.237 
  719200    302.78529   -1459.0373    505.41193    411.92588   0.63293046    37401.237 
  719300    302.59544   -1459.7385    528.03225    432.98871    269.25792    37401.237 
  719400    305.69977   -1494.9494    492.84744     376.5935     421.0889    37401.237 
  719500     302.6953   -1431.1664    491.81519    425.79417   -40.558356    37401.237 
  719600    302.09988   -1513.3549    509.82842    358.93363    244.91403    37401.237 
  719700    307.63165   -1484.3879     494.9109    397.93121    153.00678    37401.237 
  719800    305.36461    -1513.916    481.97053    345.23847    -186.8685    37401.237 
  719900    287.77799   -1509.3974    502.56294    291.03439    -113.8616    37401.237 
  720000    305.98921   -1527.6685    482.59215    334.92444    390.12872    37401.237 
  720100    294.76141   -1540.6139    514.49069    303.24065    206.18312    37401.237 
  720200    306.57029   -1508.3108    519.33566    393.64637    270.07795    37401.237 
  720300      301.648   -1463.1896     497.5003    394.73282    145.91643    37401.237 
  720400     300.6364   -1404.9461    523.78212    474.69585    326.66809    37401.237 
  720500    296.41221   -1468.2799     522.3229    390.85191    599.80237    37401.237 
  720600     298.0178   -1455.3431    532.40324    421.11013    813.96278    37401.237 
  720700    295.96688   -1449.9174    473.12869    358.01173    163.98867    37401.237 
  720800    307.62185   -1487.8482     522.6178    422.13358    576.37296    37401.237 
  720900    296.06357   -1469.3788    489.70607    355.56374    37.700914    37401.237 
  721000    305.79958    -1481.486    526.20876    423.86835   -151.45925    37401.237 
  721100    298.93621   -1460.4936    488.16598    375.86443    418.35949    37401.237 
  721200    310.86153    -1461.941    485.26229    425.29614   -7.3237485    37401.237 
  721300    299.62837   -1474.1608    512.10266     389.2555   -464.32925    37401.237 
  721400    292.96561   -1479.3847    514.11926    355.99939   -312.07136    37401.237 
  721500    306.56577    -1458.801    516.29889    440.09903   -635.82754    37401.237 
  721600    301.53929   -1509.3688    512.36993    362.93294    -533.7634    37401.237 
  721700    314.13868   -1514.0962    494.55243    397.21086   -303.83709    37401.237 
  721800    297.42051   -1474.5845    504.53136    371.30312   -444.44325    37401.237 
  721900     309.1479   -1471.6049    506.05586    428.69735   -709.64723    37401.237 
  722000    300.46647   -1477.3489    498.63468    376.37923   -746.91187    37401.237 
  722100    303.07118   -1451.8695    522.43906    437.41016   -44.498701    37401.237 
  722200    312.47462   -1457.1789    531.52583    483.59669    113.01263    37401.237 
  722300    294.34169   -1464.6058     478.6629      341.528   -260.99855    37401.237 
  722400    292.42024   -1455.1407    501.63784    365.30237   -55.957425    37401.237 
  722500    309.97368    -1468.828    515.03676    444.17938   -273.78198    37401.237 
  722600    290.58713   -1477.0007     503.6676    337.20486   -201.13467    37401.237 
  722700    311.94716   -1465.1939    517.69269    459.36971    284.45701    37401.237 
  722800    299.28535   -1476.9591    489.15989    361.96743      496.497    37401.237 
  722900    298.47518   -1453.7339    497.58757    389.96641    147.65037    37401.237 
  723000    302.77647   -1476.3925    506.15499    395.27397    476.88426    37401.237 
  723100    291.15393   -1442.3183    526.60117    397.37709     296.8049    37401.237 
  723200    298.48385   -1447.7333    504.03963    402.45823    7.5459526    37401.237 
  723300    303.01082   -1437.8849    508.64748    437.33095    26.381728    37401.237 
  723400    304.54849   -1432.8222    506.22769    446.90869   -332.72129    37401.237 
  723500    293.03064   -1436.9942    498.65765     383.2216   -28.840381    37401.237 
  723600    297.43663   -1465.1593    517.09966    393.36938   -762.24152    37401.237 
  723700    306.02428   -1479.6424    483.44561    383.96214   -645.24988    37401.237 
  723800    296.32135   -1465.5565    491.31561    362.15816   -455.53737    37401.237 
  723900    297.83789    -1492.663    506.55658    357.13215   -348.28891    37401.237 
  724000    296.11286   -1490.7429    520.48737    365.20332   -1018.8414    37401.237 
  724100    295.81643   -1498.4178    517.79547    353.49955   -549.96452    37401.237 
  724200    289.66346   -1522.7244    499.58201    283.22982    67.577808    37401.237 
  724300    302.88433     -1510.79    513.23436    368.44223    12.192368    37401.237 
  724400    307.93945   -1542.9633    491.38512    337.21813   -69.690797    37401.237 
  724500    299.96435   -1506.7341    481.37693    327.47172   -269.01433    37401.237 
  724600    301.26031   -1506.0208    478.07643    330.72927    -1028.408    37401.237 
  724700    304.46159   -1501.4977    493.85311    365.46674   -292.92716    37401.237 
  724800    303.61292   -1514.1697     495.9902     351.1043    170.96347    37401.237 
  724900    300.04479   -1453.5069     483.6497    383.33444    66.400593    37401.237 
  725000    302.86395   -1489.1249    515.12826    391.90942   -450.63136    37401.237 
  725100    298.75375   -1527.1917    496.68861     316.8661    115.45725    37401.237 
  725200    300.06321   -1517.1345    492.51595     328.6562   -36.358388    37401.237 
  725300    291.49787    -1522.653    519.31818    311.31051    -62.28208    37401.237 
  725400    307.73836   -1487.0217    478.91437    379.78211   -128.42374    37401.237 
  725500    296.61382      -1475.4    485.20465    347.52274   -1138.0284    37401.237 
  725600    299.13708   -1494.5452    487.59058    342.14334    120.29048    37401.237 
  725700    309.24763   -1494.6057     518.2437    418.33415    -537.9908    37401.237 
  725800    307.05162   -1489.6675    496.81254    391.93725   -589.87594    37401.237 
  725900    288.36539   -1460.5562    485.12395    325.08578   -4.9766362    37401.237 
  726000    293.91393   -1468.9301    503.09244     359.7041   -570.23014    37401.237 
  726100    288.35113   -1475.6067    494.75601    319.60295   -666.68703    37401.237 
  726200    301.17583   -1506.9012    482.22397    333.61539   -518.17001    37401.237 
  726300    304.62078   -1507.9573    478.99112    344.86311   -463.47876    37401.237 
  726400    293.06958   -1463.7747    524.60691    382.56588  -0.43712545    37401.237 
  726500     302.3742   -1491.1709    474.00279    346.52907    375.27002    37401.237 
  726600    308.64317   -1511.8339    483.82615    363.96232    396.17874    37401.237 
  726700    302.60312    -1542.324    482.72162    305.12731     206.5436    37401.237 
  726800    308.45169   -1523.1313     488.6513    356.62652    1179.3972    37401.237 
  726900    303.23039   -1509.3932    480.26586    338.43128    1057.6846    37401.237 
  727000    306.38121   -1469.5004    485.11367    397.38196     848.6555    37401.237 
  727100    300.77968    -1479.385    487.50458    364.62559    280.62951    37401.237 
  727200    297.21434   -1440.7291    483.48899    383.18635   -484.23526    37401.237 
  727300     295.3834   -1438.6373    477.74857    371.28023    -1005.864    37401.237 
  727400    306.21098   -1477.3961    475.83268    379.43758    15.122439    37401.237 
  727500    290.79635   -1481.2436     491.0259    321.26388   -116.84924    37401.237 
  727600    301.85679   -1453.8846    503.64464    411.12381    239.71873    37401.237 
  727700    294.90443   -1490.6733     480.1677    319.50319   -80.867133    37401.237 
  727800    295.00611   -1524.9692    470.32411    275.82234    3.5731836    37401.237 
  727900    308.67234   -1504.7996    482.16289    369.46492    88.103672    37401.237 
  728000    302.66908   -1480.1349    496.18797    381.08019    304.11488    37401.237 
  728100    297.69177   -1457.3423    492.23903    377.47636    400.17446    37401.237 
  728200    290.26783   -1470.0216    502.39753    341.47386     519.0973    37401.237 
  728300    299.47261   -1464.1776    475.19157    361.62517    342.76277    37401.237 
  728400    292.26065   -1460.0296    479.65087    337.70675    95.380521    37401.237 
  728500     295.3207   -1477.5825    474.22242    328.52616   -387.93415    37401.237 
  728600    303.62195   -1445.9665    493.63117    416.98919    384.64744    37401.237 
  728700    288.28887   -1501.4934    492.71198    291.39143    714.01202    37401.237 
  728800    301.69488   -1510.2989    493.12009    343.45468    715.35264    37401.237 
  728900    289.75181   -1510.4206    469.47296    265.82307    966.27908    37401.237 
  729000    307.46838   -1484.5566    495.74807     397.8633    980.81002    37401.237 
  729100    299.31302   -1468.2935     463.1731    344.77096    749.11214    37401.237 
  729200    296.15857   -1493.7711    501.15307    343.04695    665.26693    37401.237 
  729300    295.13139   -1509.0506    482.87792    304.85979    607.83427    37401.237 
  729400    295.16594   -1490.8297    463.41012    303.76868    163.14318    37401.237 
  729500    305.62837   -1477.6823    520.80547    421.49662    319.65332    37401.237 
  729600    301.00038   -1507.2305    504.87418     355.1451    258.65607    37401.237 
  729700    303.29803   -1476.8403    465.54554    356.56895    215.40895    37401.237 
  729800      300.732   -1473.1333    479.39818    362.55584   -81.989854    37401.237 
  729900    294.16556   -1459.3817    472.28258    339.57741   -170.02925    37401.237 
  730000     297.4094   -1461.7872     480.4875    360.00647     16.99514    37401.237 
  730100     301.0839   -1479.3872    492.09363    370.58443     319.0198    37401.237 
  730200    308.37304    -1471.319    479.46698    398.89981    130.91119    37401.237 
  730300    291.23781   -1467.8059     459.6727    305.33934    426.10772    37401.237 
  730400    296.42413   -1521.4896    484.86837    300.24142    130.58696    37401.237 
  730500     298.7605   -1470.7704    465.04357    341.67276    477.90576    37401.237 
  730600    296.39881   -1504.6258    484.75114    316.87376   -162.20673    37401.237 
  730700    303.18991   -1452.4156    481.70756      396.668    13.565854    37401.237 
  730800    299.16225   -1464.1415    451.64896    336.71894    297.30107    37401.237 
  730900    304.18594   -1427.5631    516.68212    460.98716     279.0138    37401.237 
  731000    296.52575   -1428.9982    465.72943    374.05213    220.09466    37401.237 
  731100    291.31683   -1468.0017    487.62525    333.45239     936.6924    37401.237 
  731200    306.96618   -1490.0308    489.89543    384.27155    342.49261    37401.237 
  731300    295.11922   -1458.7882    482.09043    354.27979     753.9643    37401.237 
  731400    302.50761   -1493.6235    479.78596    350.46141     123.3238    37401.237 
  731500    289.77211   -1468.0495      466.637    305.44975      91.6183    37401.237 
  731600    298.04019    -1468.538     502.3732    377.98618   -139.32113    37401.237 
  731700    296.30825   -1468.9937    482.70907    350.05545    409.19945    37401.237 
  731800     297.5129   -1446.7606    477.62584    372.63818   -175.76575    37401.237 
  731900    292.43402   -1468.9987    470.88219    320.75085    31.644602    37401.237 
  732000    301.30665    -1447.786    474.20805    385.30471   -535.36456    37401.237 
  732100    306.71336   -1481.8864    481.19722    382.57753    -39.78774    37401.237 
  732200    304.03608    -1451.435     487.4299    407.18722    563.54078    37401.237 
  732300    295.51759   -1502.4907    491.17543    321.45888    494.19374    37401.237 
  732400    300.23763    -1427.839    481.62371    407.84612    205.62778    37401.237 
  732500    282.70237   -1465.9435    475.01162    284.04611   -199.95502    37401.237 
  732600    307.76238   -1400.9357    477.55784     464.6199    656.10239    37401.237 
  732700    291.51438   -1435.7638    522.47007    401.42603   -37.998326    37401.237 
  732800    303.27422   -1455.9952    471.22467    382.98574   -21.060049    37401.237 
  732900     309.7381   -1441.2576    509.80707    465.45766    413.26282    37401.237 
  733000    304.33406   -1399.7522    501.22194    474.00592   -249.25521    37401.237 
  733100     300.7049   -1465.3832    471.29374    362.07929     -568.356    37401.237 
  733200    305.99692   -1494.4606    486.84743     372.4224   -151.51498    37401.237 
  733300    303.98595   -1456.0092    467.81022    382.76723   -462.43661    37401.237 
  733400    293.03052   -1446.9677    480.76959    355.35943   -148.20818    37401.237 
  733500    297.16064   -1457.6344    500.45278    383.00264    85.678709    37401.237 
  733600    303.00812   -1432.5607    468.43382     402.4293    50.700963    37401.237 
  733700    300.61965   -1428.6832    471.27571    398.37677    -849.1305    37401.237 
  733800    295.04405   -1451.9944     486.7655     365.4096   -852.99018    37401.237 
  733900    300.67379   -1411.6554    508.56923    452.94228   -703.83852    37401.237 
  734000    297.06465   -1409.8832    476.73745    406.60563   -227.21116    37401.237 
  734100     298.8452   -1408.9178    499.80322    438.66701    362.64448    37401.237 
  734200    296.15365   -1410.4243    508.11173     433.3302     103.8224    37401.237 
  734300    294.09399   -1448.8236    467.03348    344.56369   -81.915329    37401.237 
  734400    288.07991   -1412.6305    503.24322    389.84323   -508.81968    37401.237 
  734500    307.62088   -1423.9006    511.61067    475.06964   -261.51656    37401.237 
  734600    299.63759   -1450.1278    460.44818     361.6756   -49.727028    37401.237 
  734700    309.70706   -1433.3271    513.86516    477.30622   -84.486987    37401.237 
  734800    289.36842   -1437.7727     468.9259     336.1948   -449.04057    37401.237 
  734900    294.11314   -1432.1157    529.28022    423.60462    259.78721    37401.237 
  735000    295.93116   -1395.0428    499.64475    439.24127   -65.756162    37401.237 
  735100    302.08489   -1430.2932    499.61772    431.71701    772.05932    37401.237 
  735200    286.86235    -1439.244    507.03404    361.52935    659.13361    37401.237 
  735300    305.18666   -1451.6976    508.71379    433.39757    912.99431    37401.237 
  735400    306.24231   -1438.6277    515.03607    457.55069    497.77988    37401.237 
  735500    295.12173   -1438.8986    488.37325    380.46346    785.28556    37401.237 
  735600    308.84556   -1459.5448     458.8334     392.1714    755.61426    37401.237 
  735700    294.28607   -1427.2553    486.15605    386.12085    766.36864    37401.237 
  735800    305.75673   -1486.9987    500.21638       392.17   -160.39437    37401.237 
  735900    302.31343   -1460.4423    487.60836    390.58925    354.75201    37401.237 
  736000    295.34697   -1452.1935    481.59627    361.40749    96.550407    37401.237 
  736100    314.34329    -1461.448    483.60453    439.83396   -4.3033822    37401.237 
  736200    310.59442   -1452.7904    473.59321    421.57302   -59.696956    37401.237 
  736300    299.46554   -1454.8322    474.50849    370.25563   -13.024249    37401.237 
  736400    298.93655   -1440.5302    460.40193    368.06529   -133.15501    37401.237 
  736500    303.59769   -1412.1688     492.0006    449.04695    277.26047    37401.237 
  736600    294.05744   -1418.0998    498.05927    406.14844      132.551    37401.237 
  736700    284.64008   -1393.5379    490.97739    381.15645    77.639139    37401.237 
  736800    294.35336    -1433.048    472.19375    366.66925    265.62861    37401.237 
  736900    305.11994   -1462.0887    515.96056    429.95233   -198.06881    37401.237 
  737000    296.18512   -1404.4674    499.31549    430.63279    79.878677    37401.237 
  737100    307.94308   -1396.0097    491.46564    484.26862    38.709282    37401.237 
  737200    300.72215   -1419.7456    489.97399      426.475   -691.76456    37401.237 
  737300    298.31435    -1385.964      480.184    439.60746    -404.7296    37401.237 
  737400    291.44926   -1410.6964    484.43794     388.1677   -806.36655    37401.237 
  737500    302.12887   -1376.0482    478.08817    464.63071   -839.62535    37401.237 
  737600    297.29021   -1377.3955    508.46796    471.84114   -855.61681    37401.237 
  737700    297.96246   -1459.2036    470.79031    355.38718   -605.28622    37401.237 
  737800    302.80582   -1449.0079    492.77855    409.41451    154.85822    37401.237 
  737900    299.54042   -1448.3797    487.84697    390.38427   -195.57101    37401.237 
  738000    298.91971   -1440.4308    498.60782    406.29459    410.83678    37401.237 
  738100    314.99556   -1449.8829    480.45946    451.19566     754.4488    37401.237 
  738200    289.25416   -1459.6244    514.88677    359.78872   -115.14306    37401.237 
  738300    295.18428   -1436.2527    487.87819    382.89646    463.21587    37401.237 
  738400    304.43379   -1419.2803    458.23057    411.93623    869.05973    37401.237 
  738500    299.31028   -1448.7293    484.74302    385.89275     5.092537    37401.237 
  738600    308.96481   -1413.0655    475.97305     456.3282    245.13336    37401.237 
  738700    290.72513   -1422.9902    466.25571    354.42586   -218.86776    37401.237 
  738800    301.96192    -1445.209    482.23903    398.86791     -91.1594    37401.237 
  738900    299.45147   -1452.7945    483.23874    380.96008    388.30838    37401.237 
  739000    297.60433   -1427.1016    512.39937    427.48303    112.41175    37401.237 
  739100    291.42517   -1432.8938    479.70038    361.12408    106.52352    37401.237 
  739200    313.98345   -1436.7793    492.00667    471.28189    711.70299    37401.237 
  739300     301.2804   -1441.9883    510.59407    427.37005      545.459    37401.237 
  739400    293.48199   -1434.1917    508.37326    397.77521   -307.80048    37401.237 
  739500    300.56281   -1425.2154    499.02218    429.33478   -74.519631    37401.237 
  739600    312.92034   -1427.7936    506.79252     490.2589   -554.80152    37401.237 
  739700    300.32821   -1436.5238    520.86181    438.80789   -680.64912    37401.237 
  739800    297.53135   -1431.5373    473.19511    383.51397    76.237581    37401.237 
  739900    295.95241   -1472.5239    495.52203    357.73333    249.57732    37401.237 
  740000    302.55614   -1488.7118    474.16529    349.97121   -208.08731    37401.237 
  740100    300.97483   -1460.6823    492.01853    388.72236    241.85037    37401.237 
  740200    292.68468   -1464.9118    463.65581    318.74189   -196.20893    37401.237 
  740300    307.66201   -1444.8272    485.67845    428.39637   -216.20069    37401.237 
  740400    304.14897    -1459.741    494.01387    405.97423   -192.84866    37401.237 
  740500    304.33377   -1443.7262    502.39905    431.20767    37.486053    37401.237 
  740600    290.76113   -1447.8167    486.04315    349.54912   -574.34158    37401.237 
  740700    303.71496   -1468.2409    505.66563    407.16878   -470.08653    37401.237 
  740800    293.37855   -1454.7961    479.41977    347.75084    -201.7095    37401.237 
  740900    288.22311    -1468.508    509.57562    340.94397    306.11726    37401.237 
  741000    299.85308   -1505.6807    501.70691    348.35323    260.57617    37401.237 
  741100    290.50858   -1461.4589    459.15514    307.87988   -720.54275    37401.237 
  741200     298.7403   -1439.6608    499.00372    406.65136   -391.39881    37401.237 
  741300    296.03805   -1453.2319    486.13989     368.0294   -384.32109    37401.237 
  741400    301.04622   -1453.4628     496.4688     400.7141   -311.44923    37401.237 
  741500    294.05198   -1447.7242    506.30418    384.74433   -401.25107    37401.237 
  741600    311.43663   -1446.5117    481.28349    439.34022    218.81697    37401.237 
  741700    301.53688   -1491.4653    499.54022    367.99582   -58.906343    37401.237 
  741800    298.52191   -1458.5113    492.43636    380.24861    488.94727    37401.237 
  741900    298.54888    -1467.441    476.99356    355.99774     812.1739    37401.237 
  742000    298.48843   -1447.7225    515.26149    413.71153    302.17087    37401.237 
  742100    299.92479   -1454.7991    492.33718    390.18854     169.8902    37401.237 
  742200    289.39007   -1409.0506    476.84742    372.93604    104.91031    37401.237 
  742300    307.14283   -1450.7922    492.44749    426.85892   -134.86344    37401.237 
  742400    298.43674   -1446.6112    499.29315    398.62141    159.46025    37401.237 
  742500    297.04176   -1437.4544      482.846    385.03973    366.90683    37401.237 
  742600    308.49952      -1441.3    514.74034    464.76257     933.1871    37401.237 
  742700    311.12455   -1453.4053    491.13246    440.88818    594.46416    37401.237 
  742800    305.25067   -1454.6697     486.8787    408.87898    107.65277    37401.237 
  742900    294.53657   -1454.5861      496.166    369.92971    344.54513    37401.237 
  743000    308.77027   -1466.7189    487.07614    412.90055     577.6026    37401.237 
  743100    291.53801   -1495.8681    508.56028    327.51861   -156.35479    37401.237 
  743200     291.4442   -1500.9086    503.25111    316.74589   -434.58292    37401.237 
  743300    299.47042   -1466.1642    464.01879    348.45591   -523.36587    37401.237 
  743400    302.73156   -1403.7921    513.83563    475.35246   -149.82434    37401.237 
  743500     305.4613   -1469.5827    499.21076    407.24798   -278.76165    37401.237 
  743600    313.67639   -1472.0506    514.89967    457.51883   -41.390365    37401.237 
  743700    313.79604    -1471.695    489.31845    432.83277   -286.18132    37401.237 
  743800    301.57356   -1446.0552    484.34936    398.38055   -643.65151    37401.237 
  743900    295.37605   -1464.4662    468.91965    336.58924   -506.94684    37401.237 
  744000     297.5257   -1433.6081    503.96539    412.18795    327.72454    37401.237 
  744100    303.73608   -1484.1935    486.90801    372.55382   -237.80831    37401.237 
  744200    298.34148   -1490.4643    514.91503    369.96058   -742.81859    37401.237 
  744300    296.66736   -1473.2098    497.55093     362.3007   -433.76402    37401.237 
  744400    295.16116   -1425.0388    498.44905    404.57694   -362.02696    37401.237 
  744500     298.0928   -1447.8759    504.00627    400.51861   -754.61588    37401.237 
  744600    290.26085   -1491.1614    505.76469    323.66969   -330.41716    37401.237 
  744700    299.42999   -1517.6411    498.32508    331.10298   -32.981994    37401.237 
  744800    300.90931   -1469.8938    512.40458    399.60137   -124.85361    37401.237 
  744900    301.00617   -1524.1758    469.40627    302.75793   -338.34034    37401.237 
  745000    308.16418   -1489.0572    480.72598    381.47862    115.61129    37401.237 
  745100    302.50728    -1445.987    489.51296    407.82337   -145.80007    37401.237 
  745200     299.6383   -1468.9239    486.01915    368.45364    -430.4194    37401.237 
  745300    295.73536   -1457.5876    506.01879    382.18748   -569.95691    37401.237 
  745400    288.66302   -1432.7765    500.28468    369.36843   -85.414489    37401.237 
  745500    292.36677   -1417.1199    491.83269    393.27683   -206.89452    37401.237 
  745600    295.32816   -1393.1177    523.59847    462.40063    52.884136    37401.237 
  745700    304.29517   -1466.6326    516.93342    422.66159    176.17644    37401.237 
  745800     302.9956   -1448.2302    504.42156    422.69107   -114.56615    37401.237 
  745900    304.27517    -1438.552    499.87848    433.59703    582.55605    37401.237 
  746000    313.98289   -1412.1613    481.96632    485.85704    576.77833    37401.237 
  746100    297.90209   -1442.1551    500.30935    401.68242     215.0353    37401.237 
  746200    298.49712   -1461.7631    511.87153    396.32017    108.67109    37401.237 
  746300    301.84644   -1457.3277    509.60282    413.59215    442.24847    37401.237 
  746400    299.98763   -1437.6011    501.01281    416.34557    60.675781    37401.237 
  746500    299.89705   -1459.3473    495.02499    388.20307    38.494171    37401.237 
  746600    298.69803   -1480.4886    494.04816    360.67743    563.27619    37401.237 
  746700    309.24832   -1486.3614    502.26683    410.60468   -203.07148    37401.237 
  746800    301.78751   -1512.7598    497.46896    345.76042   -438.85884    37401.237 
  746900    295.10879   -1517.3927    488.72287    302.26072   -424.21836    37401.237 
  747000    303.18833   -1488.6364    489.94375    368.67632    182.86697    37401.237 
  747100    301.22071   -1502.8276    479.99217    335.65964    717.84044    37401.237 
  747200    296.66512   -1492.6907    505.18792    350.44671    23.287123    37401.237 
  747300    300.38562   -1499.5151    473.56758    328.78133   -279.31899    37401.237 
  747400    308.89612   -1498.1231    509.45865    404.44636    488.16973    37401.237 
  747500    305.65776   -1500.9297    479.16394    356.74018    721.29519    37401.237 
  747600    293.23017   -1517.1537    492.33228    297.63651    750.80787    37401.237 
  747700    296.00353   -1481.7581    490.67361    343.88124    664.11802    37401.237 
  747800    298.79184   -1484.8788    496.51368     359.1758    1106.8166    37401.237 
  747900    294.72944   -1479.9593    509.40673    358.66704    502.07339    37401.237 
  748000    295.39422   -1487.9526    502.18516     346.4504    669.18013    37401.237 
  748100    304.39271   -1442.0475    471.65422    402.40737    961.58624    37401.237 
  748200    297.75531   -1487.2017    483.15223    338.81671      862.662    37401.237 
  748300    304.18583   -1483.8364    510.63994    398.67117    90.789559    37401.237 
  748400     307.6479    -1482.203     474.4165    379.69493    657.43634    37401.237 
  748500    308.57962    -1444.559    504.13045    451.25488     480.6727    37401.237 
  748600    299.11678   -1473.2121    516.54676    392.34102    4.7994549    37401.237 
  748700    298.82139   -1424.3175    491.96919    415.32592    185.05842    37401.237 
  748800    302.70016   -1421.1407    509.96135    453.98793    190.46191    37401.237 
  748900    293.58001   -1437.7979    499.75248    385.99027    78.760902    37401.237 
  749000     303.2359   -1458.0737    502.43164    411.94142    -624.9244    37401.237 
  749100    303.14374   -1444.0168    489.96279    413.11378   -631.28877    37401.237 
  749200    303.87468   -1449.1559    498.85104    420.15949   -84.690319    37401.237 
  749300    299.12859   -1413.8014    506.98971    442.24802   -84.272689    37401.237 
  749400    288.25384   -1416.6049    487.93678    371.34676    252.38704    37401.237 
  749500    309.93838   -1362.6275    488.47792    523.66184    308.47232    37401.237 
  749600    297.72869   -1404.8594    514.70013    452.58691    229.38606    37401.237 
  749700     289.9918   -1440.1342     511.6294    379.34823    188.84535    37401.237 
  749800    304.45597   -1402.2402    506.68567    477.53149   -190.10406    37401.237 
  749900    296.25967   -1447.0225     488.8329    377.93136   -442.32808    37401.237 
  750000    298.43028   -1455.6996    501.19363    391.40428   -961.30565    37401.237 
  750100    315.09341   -1425.3254    493.17209    488.90711   -385.57105    37401.237 
  750200    297.71293   -1446.7419    506.33363    402.26682   -580.67937    37401.237 
  750300    296.70009   -1392.1079    515.78057    461.77984   -60.007359    37401.237 
  750400    305.46091   -1468.9392    489.74627    398.42524    -255.0282    37401.237 
  750500    297.18836   -1439.3769    498.11624    399.04862   -135.35119    37401.237 
  750600    285.40299   -1472.5822    513.15792    327.73335   -344.01444    37401.237 
  750700    288.47252   -1458.8047    509.89116     352.0876   -155.73648    37401.237 
  750800    302.78027   -1449.1968    507.98278     424.3146    -233.7336    37401.237 
  750900    306.93983   -1446.3396    492.06258     430.0111   -467.05859    37401.237 
  751000    299.37583   -1470.2574    498.73086    378.64809   -170.75403    37401.237 
  751100    302.26834   -1491.0487    495.07692    367.24798   -577.54982    37401.237 
  751200    298.95415        -1455    519.34785    412.62081    110.99704    37401.237 
  751300    300.10856   -1491.3514    498.82995    360.95786   -3.7100697    37401.237 
  751400    301.17093   -1452.9283    516.12275    421.46499     258.3182    37401.237 
  751500    294.46283   -1474.3642    512.34111     365.9942   -12.156514    37401.237 
  751600    298.81843   -1457.6228    470.68775    360.72581   -242.53839    37401.237 
  751700    292.62582   -1473.4046    516.05494    362.38277   -367.61913    37401.237 
  751800    300.98146   -1493.7033    503.29519    367.00794    262.43312    37401.237 
  751900     291.6501   -1455.4413    511.30995    371.20058   -265.01359    37401.237 
  752000    303.02885   -1498.3054    488.11245    356.45671    452.77699    37401.237 
  752100    290.56753    -1479.422    493.51882    324.54641   -669.51986    37401.237 
  752200    296.53751   -1470.8865    488.45571    354.94315   -1288.1205    37401.237 
  752300    290.68258   -1486.7658    483.61837      307.821   -651.82366    37401.237 
  752400    292.80553   -1459.4073    501.97598    363.11157   -1139.7074    37401.237 
  752500    301.51823   -1449.7646    501.18671    411.25898   -202.37891    37401.237 
  752600    302.04073   -1500.4142    497.60307    359.38212   -374.69763    37401.237 
  752700    294.38939   -1516.7106    477.56201    288.53741   -145.58353    37401.237 
  752800    295.20298   -1518.0417    514.09055    327.40417    55.101305    37401.237 
  752900    307.04372   -1496.7624    491.26125    379.25544    175.91484    37401.237 
  753000    313.28194    -1515.869    467.75352    364.77531   -230.72645    37401.237 
  753100    307.52854   -1510.5054    489.73707    366.17481   -211.67913    37401.237 
  753200    302.76641   -1500.7802     490.6154    355.30126     201.1936    37401.237 
  753300    301.82178   -1475.9313    487.64874    372.92325    309.95783    37401.237 
  753400     305.9723   -1513.7127    488.62418    354.83598    46.891472    37401.237 
  753500    302.06273   -1480.1898    501.18382    383.28654    418.62023    37401.237 
  753600    301.47348   -1449.5446    502.05642    412.14683    714.33027    37401.237 
  753700    299.16018   -1499.3137    504.85751    354.74591     728.6691    37401.237 
  753800    299.62583   -1498.7527    498.19353      350.743    648.95671    37401.237 
  753900    292.92293   -1491.9539    517.86827     346.9867    450.40486    37401.237 
  754000     286.9937   -1521.7388    486.03886    258.63183    468.91432    37401.237 
  754100    292.29614   -1487.5193    503.82869    334.55495   -333.88772    37401.237 
  754200     305.4049   -1492.0222    504.30316    389.64652   -18.157377    37401.237 
  754300     300.4568   -1485.4347    488.64621    358.26132     882.8877    37401.237 
  754400    307.73295   -1527.2334    476.75595    337.38755    376.09932    37401.237 
  754500    301.14623   -1520.4939    485.65688    323.32215   -543.08279    37401.237 
  754600    299.63755   -1495.9497    484.22097    339.62632    132.98479    37401.237 
  754700     307.2145   -1477.0253     496.2123    404.71388    36.167215    37401.237 
  754800     302.6805   -1454.9076    505.68192    415.85297    298.77552    37401.237 
  754900    299.96151   -1503.0428    488.23807    338.01142     181.9438    37401.237 
  755000    301.43849   -1490.8693    485.15026    353.75821   -608.33389    37401.237 
  755100    297.59542   -1469.3528    479.01544    351.80777   -232.00472    37401.237 
  755200    286.38516   -1491.2762    488.61218    288.92319   -309.49215    37401.237 
  755300    293.44353   -1513.4766    516.12044    326.06402    103.99627    37401.237 
  755400    297.01961   -1485.0455    504.15106    358.65379    542.23812    37401.237 
  755500    307.51901    -1514.722    468.25292    340.43112    389.49363    37401.237 
  755600    300.41989    -1508.612    512.98253    359.25389    299.71284    37401.237 
  755700    309.41611   -1478.5067     492.2084    409.15777    192.28392    37401.237 
  755800    299.06992   -1464.4065    506.41898     390.8075   -379.10806    37401.237 
  755900    305.08857   -1479.2006    499.20325     395.9416    403.97102    37401.237 
  756000    302.55673   -1507.1865     480.1491    337.48304    318.64704    37401.237 
  756100    311.32566    -1512.679    520.85041    412.23938   -506.61998    37401.237 
  756200    309.57586   -1424.4875    486.98974    458.67873   -412.09415    37401.237 
  756300    299.19258   -1465.9539    485.48561    368.87992   -422.50034    37401.237 
  756400    305.75525   -1443.7737     493.2147    428.38662    40.474117    37401.237 
  756500    296.58193   -1482.3988    487.24217    342.41772    409.57631    37401.237 
  756600    292.26945   -1487.5146    482.82279    313.43334    198.37273    37401.237 
  756700    301.50223   -1483.4261     499.2104    375.54901    858.92288    37401.237 
  756800    301.16291   -1484.4979    491.16131    364.89774    114.09673    37401.237 
  756900    308.77765   -1467.9399    505.25165    429.88835     616.4733    37401.237 
  757000    284.80352   -1478.5237    491.00713    296.93747    262.25492    37401.237 
  757100     303.6247   -1474.0632    520.42015    415.69394   -51.835689    37401.237 
  757200    302.90939   -1461.0384    491.76654    396.83907    502.23944    37401.237 
  757300     305.7655   -1452.9743    490.80843    416.82607    419.03196    37401.237 
  757400    298.87556    -1462.261    515.48557      401.143     478.0587    37401.237 
  757500    299.33824   -1455.2942    469.21254    363.92347    301.65279    37401.237 
  757600    307.25477    -1483.278    509.89058    412.32099    270.59557    37401.237 
  757700    294.92411   -1442.3867    478.33856    366.04947    387.05188    37401.237 
  757800    308.78664   -1482.9929    481.87331    391.49756    283.04632    37401.237 
  757900    301.23799   -1506.2006      517.737    370.10942    433.70651    37401.237 
  758000    306.38234   -1485.4095     492.4313    388.79562    281.22887    37401.237 
  758100    291.99885   -1498.2926    492.75885    311.37104    15.053889    37401.237 
  758200    292.38616   -1465.7885    487.75521    340.61819    2.5707254    37401.237 
  758300    310.49834   -1464.8804    503.65725    439.11367   -151.03667    37401.237 
  758400    297.89463    -1463.838    469.78552     349.4421   -64.386592    37401.237 
  758500    293.88238   -1460.2936     516.9963    382.10206    788.60341    37401.237 
  758600     307.0059   -1457.8327    490.71505    417.46842    931.66657    37401.237 
  758700    294.59368   -1512.4699     467.1667    283.30416    249.25127    37401.237 
  758800    297.67389   -1459.5365    467.26184    350.22437    225.98123    37401.237 
  758900    291.05495   -1454.9006    479.32169    337.06893    24.889654    37401.237 
  759000    289.00755   -1412.7746    519.51039    410.14993   -450.00047    37401.237 
  759100     298.1184   -1457.6586    470.72599    357.57109    -864.4622    37401.237 
  759200    318.53494   -1440.9131    495.56095    491.22944   -118.93734    37401.237 
  759300    296.36091   -1465.1968    463.26834    334.64908   -610.24062    37401.237 
  759400    313.77735   -1491.4473    508.57561    432.25334   -106.43166    37401.237 
  759500    295.12349   -1515.5057    477.33102    292.82209   -51.062334    37401.237 
  759600     303.2076   -1472.4283    473.17358    368.20111    531.54796    37401.237 
  759700    305.72238   -1505.4202    508.17199    381.54921     1243.701    37401.237 
  759800    296.05911   -1487.8643    498.96687    346.31891    929.57204    37401.237 
  759900    295.32873   -1481.2722    508.88006    359.53029    934.89895    37401.237 
  760000    302.26783   -1471.4611    477.31086    369.06728    879.22841    37401.237 
  760100    304.67792   -1487.9411    472.88146    359.02726    855.38288    37401.237 
  760200    308.19608   -1463.8686    493.19789    419.28303    554.33617    37401.237 
  760300    309.75176   -1460.5988    494.80656    431.17752    544.40301    37401.237 
  760400    305.10391   -1502.7041    480.50015    353.80421    724.52541    37401.237 
  760500    291.97913   -1486.5471    489.25606    319.52482    19.651569    37401.237 
  760600    292.51332   -1458.5228    479.39416    340.09639    44.635309    37401.237 
  760700    291.12802   -1480.4302    491.83032    324.37752    54.098297    37401.237 
  760800    295.93852   -1471.6891    480.42005    343.40355   -89.707773    37401.237 
  760900     304.0482   -1459.9469    475.81793    387.11791    128.13867    37401.237 
  761000    303.35862    -1475.152    478.93365    371.91862    27.520424    37401.237 
  761100    296.94526   -1420.4541    470.02422    388.78304   -655.50147    37401.237 
  761200    312.95205   -1474.3163    469.57776    406.66447   -649.35215    37401.237 
  761300    297.78262   -1457.0286    490.16666     376.1275   -476.28026    37401.237 
  761400     298.1808   -1479.6745    480.55041    345.66102    53.865407    37401.237 
  761500    305.72237   -1448.1128    502.48458    433.16913    481.36587    37401.237 
  761600    305.01298   -1467.8028    473.66868    381.46391    428.83399    37401.237 
  761700     308.3111   -1452.5756    478.40703    416.30385    461.30568    37401.237 
  761800    300.42434   -1433.9855     470.2038    391.12175   -526.38664    37401.237 
  761900    292.47453   -1457.5192    466.86947     328.4004   -305.45399    37401.237 
  762000      303.205    -1444.281    474.27644    397.43957   -542.68206    37401.237 
  762100    300.57028   -1439.7862    515.77015    431.54556    34.568342    37401.237 
  762200    292.94348   -1453.9054    510.00888    377.26848    250.61844    37401.237 
  762300     291.0592   -1451.8934    485.80592    346.57951    737.88771    37401.237 
  762400    304.75719    -1433.505    477.59893     418.5384    1248.1899    37401.237 
  762500    299.11583   -1424.6435    477.40968    401.76823    721.11936    37401.237 
  762600    298.76453   -1414.8691    497.60297    430.15163    197.36684    37401.237 
  762700    293.46173   -1428.2339     480.2457    375.51411   -76.708624    37401.237 
  762800     289.3196   -1450.0306    496.86889    351.65974    443.82844    37401.237 
  762900    296.57799   -1438.7127    464.99645    363.84024    11.564404    37401.237 
  763000    294.17777   -1417.2759     480.6018    390.05749   -235.01071    37401.237 
  763100    306.87794   -1468.8028    521.09111    436.29724   -204.20954    37401.237 
  763200     295.5157   -1381.1805    484.40497    435.99014   -45.434306    37401.237 
  763300    296.66935   -1425.4671    486.03326    398.53474    189.83466    37401.237 
  763400    298.50756   -1439.0884    497.16564    404.33607    85.774649    37401.237 
  763500    283.26985   -1431.7618    487.77289    333.54837     266.3585    37401.237 
  763600    306.43836   -1461.6729    504.05495    424.40847    340.48222    37401.237 
  763700    291.25437   -1450.1845    483.25926    346.62197    726.18043    37401.237 
  763800    303.82448   -1437.0443    482.16378    415.35745    551.20079    37401.237 
  763900     300.1512   -1451.6211    482.17715    384.22761    61.935039    37401.237 
  764000    299.09421   -1430.6076    482.06608    400.36312   -220.35121    37401.237 
  764100     303.8157   -1401.1969    532.68305    501.68444   -28.626497    37401.237 
  764200    299.50566   -1394.4518     489.2172    445.52562   -257.77779    37401.237 
  764300    286.92134   -1406.6248    503.65857    391.03915   -149.20371    37401.237 
  764400    293.04175   -1435.1572    504.58964    391.04066    43.454348    37401.237 
  764500    312.15639   -1421.5952    476.19707    462.41644    131.42143    37401.237 
  764600    293.74451   -1462.5237     478.8683    341.12227    123.26099    37401.237 
  764700    293.97042   -1457.9298    501.08027    368.94692   -36.430963    37401.237 
  764800    297.28828   -1445.5954    480.29233     375.4568   -33.060131    37401.237 
  764900    308.54268   -1428.7952    510.89783    473.61953   -319.51216    37401.237 
  765000    305.31387   -1384.9721    501.16426    493.14725   -435.91102    37401.237 
  765100    295.65688   -1401.6438    460.02595    391.78449   -751.68723    37401.237 
  765200    307.48878   -1401.5575    525.47882    510.68518   -1041.0062    37401.237 
  765300    293.55505   -1375.7469    468.00608    416.18238   -602.03261    37401.237 
  765400    305.42449   -1409.3438     498.9799     467.0901   -428.60593    37401.237 
  765500    297.30091   -1440.4526    485.45099    385.81521   -333.07969    37401.237 
  765600     296.7533   -1414.2577    505.16156    429.25102    306.39617    37401.237 
  765700    298.02249   -1405.8218    462.80843    401.05778    282.96847    37401.237 
  765800    302.17242   -1413.5812    499.80302    449.00902    393.29185    37401.237 
  765900    304.19157   -1433.2231    499.54581    438.21619     558.7974    37401.237 
  766000    305.48858   -1431.2996    495.31739    441.76084    261.53194    37401.237 
  766100    298.62954    -1387.126    474.66669    434.34966    428.79708    37401.237 
  766200    301.42664   -1395.4338    529.26838    493.25832    265.44854    37401.237 
  766300    293.31264   -1429.2868    506.23356    399.77672     73.24775    37401.237 
  766400    316.15311    -1463.801    492.46834    454.50693    420.75871    37401.237 
  766500    308.56874   -1424.1571    483.97545    451.45271    728.46311    37401.237 
  766600    302.55268   -1442.2198     491.8676    414.15001    988.11419    37401.237 
  766700    307.84457   -1462.7956    504.24794    429.82078    399.96912    37401.237 
  766800    295.01315   -1437.5829    482.50004    375.41631   -16.290196    37401.237 
  766900    298.55676   -1433.3527    486.94129    400.06929    498.18848    37401.237 
  767000    296.34928   -1444.9693    489.56601    381.12173     510.5015    37401.237 
  767100    286.51729   -1422.7673     488.1969    357.61273    688.50599    37401.237 
  767200    318.81774    -1450.883    517.57473    504.54873    836.35795    37401.237 
  767300    304.47091   -1428.3765    511.02748    455.80435    100.88336    37401.237 
  767400    298.61575   -1435.3503    496.66239    408.05883    141.44036    37401.237 
  767500    291.13314   -1449.6402    497.07788    360.43808    137.22159    37401.237 
  767600    293.26906   -1514.0482    484.64167    293.22683    383.27699    37401.237 
  767700     292.0533   -1483.7016    505.29802     338.7467     54.18116    37401.237 
  767800     293.8991   -1463.6265    481.70066    343.54895    190.93326    37401.237 
  767900    298.44174   -1484.6547    498.98533    360.29267   -119.62231    37401.237 
  768000    301.97151   -1446.1308    488.20329    403.95364   -86.983162    37401.237 
  768100    307.33537   -1468.4032    490.91301    408.58176    228.47845    37401.237 
  768200    289.33952   -1446.0159    494.48749    353.38287    224.51832    37401.237 
  768300    299.80487   -1494.5109    488.16278    345.76152   -246.44736    37401.237 
  768400     301.4474   -1482.7021    490.72509    367.54036     422.0243    37401.237 
  768500    294.23131    -1440.949     477.0073     363.0314    555.50485    37401.237 
  768600    293.77441   -1427.4857     496.3161    393.74289    312.50071    37401.237 
  768700    298.39249   -1454.7289    471.25671    362.26763    34.284509    37401.237 
  768800    301.43363   -1434.1446    485.21237      410.523   -581.22065    37401.237 
  768900    311.98532   -1456.3361    475.18513    425.89203   -630.16518    37401.237 
  769000    303.46957   -1453.4501    502.73528    417.92247   -366.31002    37401.237 
  769100    297.27812   -1451.8323    522.11827    411.00002   -109.29007    37401.237 
  769200    303.45735   -1466.1105    468.37245    370.84419   -47.701156    37401.237 
  769300    300.14086   -1454.1907    498.06629    397.50057    22.660566    37401.237 
  769400    301.96672   -1466.8522    508.88773    403.89506   -76.318621    37401.237 
  769500    292.63689   -1452.2845    483.02394    350.52168    148.87735    37401.237 
  769600    293.53737   -1439.4281    473.37095    357.78629   -68.890483    37401.237 
  769700    299.34137   -1443.3652     510.4561    417.11022    82.831309    37401.237 
  769800    288.76994   -1447.8145    501.04677     355.5748    407.53723    37401.237 
  769900    291.35296   -1409.2929    507.44004      412.139    48.759473    37401.237 
  770000    297.66803   -1436.9425    501.22558    406.75568    356.73846    37401.237 
  770100    299.42587   -1438.0861    479.21004    391.52429     27.42764    37401.237 
  770200    307.39503   -1408.3854    479.09701    457.05261    137.77737    37401.237 
  770300    283.09696   -1378.3633    488.09083    386.48515     281.7783    37401.237 
  770400    302.51209   -1441.7156    498.12782    420.73135    58.938454    37401.237 
  770500    310.22792   -1413.6154    467.25776    452.75956    238.51541    37401.237 
  770600    299.66088   -1393.4974    469.69587    427.65875   -64.123403    37401.237 
  770700    301.40381   -1389.6042    490.57073    460.28736    132.86011    37401.237 
  770800     306.0477   -1448.2127    485.95331    418.00521    299.96596    37401.237 
  770900    290.28998   -1414.7514     506.3996    400.84602   -18.157646    37401.237 
  771000    303.94729   -1439.5747    495.24519    426.46232    880.72907    37401.237 
  771100    300.93933   -1429.1591    485.28648    413.35336    636.73038    37401.237 
  771200    294.41661   -1439.8147    473.83458    361.82867     275.3979    37401.237 
  771300    307.55114    -1457.378    466.10463    395.77165    1105.8995    37401.237 
  771400    302.22145    -1470.305    462.45176    355.15516    299.71383    37401.237 
  771500    293.53563    -1441.214     478.0995    360.72106     250.4704    37401.237 
  771600    304.18262   -1455.7073    484.57043    400.71629    649.37778    37401.237 
  771700     298.1804   -1436.0764    492.55499     401.2619    764.21895    37401.237 
  771800    296.14542    -1433.262    509.69405    412.03775   -136.94498    37401.237 
  771900    303.22411   -1419.3722     494.6295    442.78762    592.34091    37401.237 
  772000    305.35823   -1436.2563    465.24824     406.1471    280.55414    37401.237 
  772100    287.89992   -1468.4162    508.36772    338.37024    -669.1376    37401.237 
  772200    299.92509   -1425.8211    503.23591    430.06668   -334.61843    37401.237 
  772300    304.00284   -1434.3055     481.0383     417.7752   -351.41552    37401.237 
  772400    296.86732   -1432.5166     475.0953    381.44015   -116.48406    37401.237 
  772500    293.05583   -1418.6969    471.07683     374.0516    -606.9159    37401.237 
  772600    312.28568   -1444.3734    483.76553    447.78981     32.84217    37401.237 
  772700    310.71827   -1401.6678    493.41317    493.07405    170.02234    37401.237 
  772800    304.28989   -1450.1897     490.2857    412.43292    349.32776    37401.237 
  772900    288.74598    -1420.137    509.20844    391.30584    554.78995    37401.237 
  773000    303.95222   -1455.6402    485.98324    401.15705    913.38278    37401.237 
  773100    296.84062   -1518.0827    475.56075    296.21905    492.39806    37401.237 
  773200    299.25962   -1445.1891    495.68248    400.14398    865.56839    37401.237 
  773300    299.65338   -1453.9053     485.2224     382.7436    387.42342    37401.237 
  773400    287.35816   -1486.8157    475.68128    284.84102    808.05833    37401.237 
  773500    305.77613   -1481.0885    495.75467    393.70596    464.07121    37401.237 
  773600    295.57672    -1494.186    496.40083    335.25569    44.672258    37401.237 
  773700    305.86427   -1473.8989    472.81824    378.35663     62.09865    37401.237 
  773800    297.10865   -1506.7451    496.61701    329.82174    16.259268    37401.237 
  773900    296.55884   -1479.7983    462.80325    320.47511    -340.6224    37401.237 
  774000    293.18412   -1469.0476    464.43345    317.63619   -379.81658    37401.237 
  774100    296.55827   -1494.9162    480.78368    323.33505   -283.42351    37401.237 
  774200    294.89453   -1491.1921    478.97369    317.74576     831.4911    37401.237 
  774300    315.29031   -1485.1224    462.68235    399.50838    400.21219    37401.237 
  774400    304.34254   -1469.4131    463.81233    366.97363    143.30272    37401.237 
  774500    296.89848   -1488.8582    490.59615    340.73986   -257.19467    37401.237 
  774600    306.69037   -1476.8733     468.1873      374.477    46.709466    37401.237 
  774700    305.35239   -1519.8214    466.53922    323.84657    81.921408    37401.237 
  774800    294.53982   -1474.0815    482.62116    336.90407    30.949294    37401.237 
  774900    292.45029   -1475.5389    483.09476    326.49655    137.06547    37401.237 
  775000    309.62746   -1436.2343    470.50318     430.6781    142.57533    37401.237 
  775100     299.0495   -1435.7615    472.12827    385.06968   -206.09114    37401.237 
  775200    298.94459   -1457.7886    508.82248    399.26372   -363.60282    37401.237 
  775300    301.11678   -1477.1095    459.68432    340.60117    149.22143    37401.237 
  775400    296.85665    -1464.926    479.27225    353.15955   -61.766056    37401.237 
  775500    295.41578   -1457.3947    471.43246    346.35281    79.325523    37401.237 
  775600    290.68767   -1488.5384    476.31913    298.77208    278.63229    37401.237 
  775700    303.87682   -1485.9089    472.85128    357.41643   -200.22531    37401.237 
  775800    301.61127   -1429.1783    472.42266    403.50082    727.75842    37401.237 
  775900    297.88264   -1437.0558    487.21165    393.59633   -229.13818    37401.237 
  776000    302.48671   -1431.2196    491.25207    424.23716   -36.259211    37401.237 
  776100    300.79822   -1431.5138    455.50376    380.57965   -210.69014    37401.237 
  776200    310.60907   -1434.8453    473.10915    439.10012    261.72187    37401.237 
  776300    290.72461   -1430.7935    506.33872    386.70323   -71.168322    37401.237 
  776400     293.8578   -1462.6255    484.60652    347.26958    863.80605    37401.237 
  776500    288.07236   -1436.5589    487.16267    349.80017   -179.33811    37401.237 
  776600      306.946   -1457.2482    496.05683    423.12458   -326.29512    37401.237 
  776700    299.48409   -1475.7298    465.18562    340.11879   -236.78913    37401.237 
  776800    290.85042    -1488.042     476.7944    300.47784    -191.6916    37401.237 
  776900    300.21893   -1447.7067    493.43961    399.71001   -444.32639    37401.237 
  777000    302.25504   -1423.7594    486.90461    426.30507    157.62623    37401.237 
  777100    283.92903    -1412.373    482.82211    350.95925    126.69169    37401.237 
  777200    300.60468   -1440.7565    479.14645    394.10669    137.85995    37401.237 
  777300    312.07999   -1421.9239     477.2807    462.82686    141.46972    37401.237 
  777400     298.2385    -1413.458    489.02007    420.60745   -132.17426    37401.237 
  777500    295.88576   -1458.2559    459.87985     336.0585    505.22859    37401.237 
  777600    305.68255   -1443.0484    517.76493    453.33427    632.04249    37401.237 
  777700      304.756   -1475.1964     509.2374    408.48006   -132.43419    37401.237 
  777800    302.06242   -1458.7059    458.42579      362.011    507.41707    37401.237 
  777900    297.30021   -1467.5957    483.67454    356.89253   -48.831513    37401.237 
  778000    309.60553   -1492.9003     481.5248    384.93485    58.240246    37401.237 
  778100    294.28686   -1445.5955    482.63228     364.2604   -558.29158    37401.237 
  778200    311.04515   -1424.0971    495.22835     473.9342    347.14936    37401.237 
  778300     299.8935   -1454.4658    466.37557    364.41916    356.67076    37401.237 
  778400    304.91425   -1425.2732    485.61563    435.49516    1382.9568    37401.237 
  778500    293.79574    -1423.496    481.86835    383.38104    1037.1791    37401.237 
  778600    290.12898   -1432.7468    503.08039    378.80534    984.01794    37401.237 
  778700    304.24988   -1438.2014     492.6784    426.63344     852.2095    37401.237 
  778800    293.98504   -1433.1247     492.6969    385.43459    351.46892    37401.237 
  778900     304.6011   -1438.4679    479.31605    414.58865   -28.116488    37401.237 
  779000    299.12889   -1411.3203    469.43153    407.17218    547.94694    37401.237 
  779100    300.47808   -1468.3702    506.28316    393.05872    544.05815    37401.237 
  779200    303.39255   -1460.9946    486.15209    393.44745    425.82999    37401.237 
  779300    304.22178   -1451.0722    463.39371    384.35131    379.03203    37401.237 
  779400     306.1724    -1470.257    497.94776    408.51774    435.67446    37401.237 
  779500    296.52214   -1445.2848    496.72729    388.74711    272.51609    37401.237 
  779600    312.74261   -1463.9942    480.93905    427.40325    72.934772    37401.237 
  779700    302.51639   -1462.9984    493.38432    394.72447    23.781406    37401.237 
  779800    305.31762   -1447.7704    477.01167    406.21327    126.12469    37401.237 
  779900    306.64657   -1445.0995    483.24007    421.10607    121.61708    37401.237 
  780000    306.88979   -1507.5769    485.77275    362.25824    222.80578    37401.237 
  780100    299.79464   -1478.0279    483.11626    357.15186    165.34416    37401.237 
  780200     302.6474   -1448.6207    497.10735    413.41603    312.20498    37401.237 
  780300    294.74229   -1412.1287    492.23037    409.37926   -181.34098    37401.237 
  780400    294.85105   -1406.9792    503.23185    426.02079   -168.16634    37401.237 
  780500    308.35117   -1458.8006    462.53801     394.3906   0.18964848    37401.237 
  780600    298.36935   -1432.2284    479.88207     393.2892   -306.36743    37401.237 
  780700    306.10627   -1425.9798    468.77663    423.32556   -461.18443    37401.237 
  780800    307.83249   -1450.1373    465.70298     403.8796   -488.63405    37401.237 
  780900    305.01358   -1446.9985    490.68085    419.28309   -334.28478    37401.237 
  781000    297.94855    -1432.624    469.30527    380.41894   -385.55488    37401.237 
  781100     293.4303   -1460.3673    446.82348    309.81675   -90.158261    37401.237 
  781200    311.54235   -1462.2688    489.88617    432.66265    19.167523    37401.237 
  781300    299.69673   -1478.7043    466.45438    339.37207    283.32764    37401.237 
  781400    301.25587   -1437.9595    490.25876    410.95294    441.46785    37401.237 
  781500    307.08747   -1506.6895    470.44856    348.71298    43.959481    37401.237 
  781600    294.99019   -1497.8231    476.66466    309.23723    10.177461    37401.237 
  781700     301.4457   -1522.1185      491.465    328.85621    -218.5899    37401.237 
  781800    288.92844   -1478.8073    474.85295    299.10297   -858.92412    37401.237 
  781900     306.8236   -1508.1347    452.51581    328.14501   -733.84168    37401.237 
  782000    293.31853   -1523.9309    480.63517    279.56078   -546.12349    37401.237 
  782100    301.84352    -1513.968    489.59686    336.93269   -319.63452    37401.237 
  782200    293.74286   -1536.9961    492.79833    280.57248   -371.40858    37401.237 
  782300    300.87529   -1506.6391    475.98059    326.27872   -99.682299    37401.237 
  782400    304.24674   -1561.0113    487.02068    298.15172    128.63872    37401.237 
  782500    297.50978   -1554.2047    487.52334    275.07749    266.12269    37401.237 
  782600    307.74625   -1564.9606    491.70343    314.66784    145.06585    37401.237 
  782700     295.6095   -1516.5093    500.30849    316.98786    379.37188    37401.237 
  782800    304.45228   -1502.9233    505.63626    375.78232    -495.0176    37401.237 
  782900    308.37298   -1486.1006    487.66408    392.31508     296.3814    37401.237 
  783000    299.89323   -1500.2803    498.90268    351.13052    111.58828    37401.237 
  783100    307.58364   -1421.2646    502.58346    468.51055    785.27433    37401.237 
  783200    310.77579   -1455.8819    496.21204    441.91827    851.24516    37401.237 
  783300    297.67329   -1455.5831    512.81064    399.72387    723.15001    37401.237 
  783400    299.19596   -1479.5778    507.65446     377.4402    561.76325    37401.237 
  783500    310.20564   -1492.0401    465.66389    372.64056    330.97467    37401.237 
  783600     300.1397   -1469.4201     501.5757     385.7753   -280.82008    37401.237 
  783700    306.35491   -1433.7161    519.01352    466.94754     540.1157    37401.237 
  783800    290.12419   -1430.3619    494.37996    372.46819       63.322    37401.237 
  783900    307.65387    -1451.593    518.45378    454.36913   -106.80292    37401.237 
  784000    299.04356   -1435.0511    523.68792    437.31296    433.67712    37401.237 
  784100    310.35397   -1433.6183    487.26017    453.32755    534.18793    37401.237 
  784200    300.80149   -1459.8981    519.84126    416.54749    433.65877    37401.237 
  784300    299.46113   -1486.8734    512.82442    376.51044    724.98621    37401.237 
  784400    305.85002   -1468.5993    507.28377    418.05759    1219.6931    37401.237 
  784500    298.75745   -1463.7575    515.31745    398.94571    248.07615    37401.237 
  784600    303.85047   -1437.4299    513.79006     446.7153   -611.41509    37401.237 
  784700    293.32776   -1468.8228     527.0458    381.12109    67.251137    37401.237 
  784800    306.60121    -1484.877    516.14399    414.02785   -405.39491    37401.237 
  784900    300.17003   -1466.0593    503.94902    391.64625    147.37649    37401.237 
  785000    303.34738   -1472.2509    483.85835    379.69365   -236.46899    37401.237 
  785100    288.68172   -1449.4852      521.338    373.79748    122.83267    37401.237 
  785200    296.05406   -1444.6858    506.14486    396.65273   -41.572835    37401.237 
  785300    305.68718   -1442.7792    523.52167    459.38112   -85.679473    37401.237 
  785400    297.36195    -1464.888    526.00226    402.20638   -112.43851    37401.237 
  785500    306.06816   -1458.9925    520.75506    442.11947    47.635029    37401.237 
  785600    288.71091   -1445.7142    502.45214     358.8142   -15.579246    37401.237 
  785700    292.29978   -1495.9587     478.3678    300.67108   -9.9568083    37401.237 
  785800    298.55835   -1460.1982     489.7916    376.08131   -205.84985    37401.237 
  785900    302.21672   -1421.9368    480.34357    421.39381    2.7183511    37401.237 
  786000     301.2644   -1474.4052    500.05539    384.34229   -40.323923    37401.237 
  786100    300.17201   -1476.8803    485.44396     362.3291     38.20557    37401.237 
  786200    303.36662   -1455.8552    480.64922    392.96704   -378.96953    37401.237 
  786300    303.01162   -1465.6438    525.85652    426.78473    256.32898    37401.237 
  786400    299.08447   -1433.4347    506.58842    422.01442   -201.26028    37401.237 
  786500    297.20836   -1407.3884    528.05809     461.0692    14.559158    37401.237 
  786600    295.96055   -1460.6491    499.06124    373.18405    21.594427    37401.237 
  786700    302.60479   -1441.0297     496.1775    419.88501   -447.04275    37401.237 
  786800    293.99685   -1458.9896    516.17998    383.10603    76.676106    37401.237 
  786900     303.1252   -1449.0879    501.24967    419.24597    652.42483    37401.237 
  787000    300.42875   -1434.0612    527.57754    448.43966    199.87531    37401.237 
  787100    305.86974   -1437.4523    509.46411    451.47379   -73.150343    37401.237 
  787200    299.26405   -1459.4003    517.23305    407.50333    9.9039124    37401.237 
  787300    305.53318   -1451.6489    479.82793    406.12321   -262.71032    37401.237 
  787400    291.51924   -1448.4308     529.3807    395.69167   -152.38633    37401.237 
  787500    293.79642   -1455.2526     526.1549    395.91406   -209.66437    37401.237 
  787600    299.28112   -1456.7474    496.44276     389.4429   -285.58354    37401.237 
  787700    291.39909    -1498.092    490.78345    306.89132   -936.58955    37401.237 
  787800    303.04692   -1444.9863    484.40808    406.15297   -1089.0617    37401.237 
  787900    289.07647    -1466.127     508.2894    345.88729    91.437291    37401.237 
  788000    299.20695   -1476.7052    484.67924    357.38709    -313.5078    37401.237 
  788100    292.18162   -1461.4061    509.84382     366.1668      196.468    37401.237 
  788200    292.35819   -1469.3452    508.98676    358.16695    337.92817    37401.237 
  788300    301.38311   -1471.8827    496.12394    383.46866   -219.34297    37401.237 
  788400     299.7606    -1447.744    460.11918    364.28517   -183.12659    37401.237 
  788500    304.12382    -1456.027    499.58412    415.14511   -828.67563    37401.237 
  788600    291.90184   -1482.2839    476.05864    310.24203   -253.48647    37401.237 
  788700    287.98654   -1462.1627    492.31208    328.95883   -832.90695    37401.237 
  788800    306.51904   -1441.4086    514.89883    455.88053   -775.78221    37401.237 
  788900    292.52267   -1433.5212    455.09691    340.84293   -283.30274    37401.237 
  789000    302.49872   -1447.2925    504.52938    421.49572   -90.667893    37401.237 
  789100    296.94969   -1493.5373    488.39507    334.09061   -594.82365    37401.237 
  789200     301.5913   -1480.7257    482.25402    361.69474   -658.27133    37401.237 
  789300    308.82423   -1466.1422    512.30113    438.94557   -184.39321    37401.237 
  789400    294.18932   -1469.1949    497.56241    355.15121   -28.811991    37401.237 
  789500    295.34905    -1462.851    509.85678    379.01988    298.87317    37401.237 
  789600    299.31131   -1455.3057    507.15725    401.73526     482.0681    37401.237 
  789700    298.93326   -1485.3812    505.63044    368.42798    419.95375    37401.237 
  789800    298.60237   -1496.0899    478.28883    328.88536   -107.28561    37401.237 
  789900    303.57271   -1475.5687    493.73608    387.26986    -614.9786    37401.237 
  790000    302.13521   -1483.4576    502.26465    381.42649    25.196805    37401.237 
  790100    290.47832   -1460.0865    482.03687    331.99756   -436.09652    37401.237 
  790200    294.11354   -1450.5709    477.71165    353.58271   -516.45956    37401.237 
  790300    291.26256   -1466.8656    470.87269    317.59126   -27.324623    37401.237 
  790400    300.17561   -1466.6087    491.26213    378.43511     208.9205    37401.237 
  790500    299.34442   -1468.2987    515.98381    397.71816    240.77764    37401.237 
  790600    309.84065   -1505.5776    475.27488    367.06796    382.49356    37401.237 
  790700    312.56409   -1484.4317     528.2897    453.51126    596.68607    37401.237 
  790800    294.57772   -1498.8464    513.57545    343.26448    181.90991    37401.237 
  790900    293.67008   -1447.4365    508.57183    385.57729    260.55511    37401.237 
  791000    305.78293   -1364.9773    487.25761    501.35085    441.65515    37401.237 
  791100    305.25967   -1412.4491    529.74403    494.00555    484.40783    37401.237 
  791200    297.84601   -1393.1475    525.83996    475.96769    376.35167    37401.237 
  791300    300.06387   -1459.0806    489.07423    383.27135    127.83891    37401.237 
  791400     293.1096   -1440.1609    554.16998    435.92326    855.65431    37401.237 
  791500    288.67566   -1452.6837    517.17634    366.40992    108.37142    37401.237 
  791600    302.39788   -1489.2227    478.32973     352.9111    280.16675    37401.237 
  791700    305.57386   -1542.5071    474.70722    310.32769   -6.8979283    37401.237 
  791800    299.62956   -1521.1029    504.78725    335.00335    230.21117    37401.237 
  791900    293.89512   -1481.3113    498.80636    342.95196   -915.11894    37401.237 
  792000    298.11251   -1472.5574     497.0695    368.98923   -744.83367    37401.237 
  792100    306.80182   -1466.0675     492.8847     410.4828   -304.43047    37401.237 
  792200    308.36922   -1470.9107    507.17559    426.99945   -81.756787    37401.237 
  792300      292.532   -1486.3136    511.61341    344.60905    42.907787    37401.237 
  792400    308.37964   -1464.7811    492.82973    418.83023     38.34346    37401.237 
  792500    292.76553   -1447.2478    494.86476    367.97938   -666.24971    37401.237 
  792600    290.94072   -1435.6327    495.90035    372.40027   -472.44609    37401.237 
  792700    300.89589   -1427.1421    466.93004    396.81809   -420.35519    37401.237 
  792800    295.27578   -1433.5499    506.16275    404.29648    -199.5787    37401.237 
  792900    297.55156   -1471.0063    514.32691    385.26797    490.57382    37401.237 
  793000     298.9877   -1451.0699    524.25555    421.60991    590.93826    37401.237 
  793100    305.52241   -1481.2492    519.62734    416.27371    662.16295    37401.237 
  793200    305.12066   -1464.8524    510.20944    421.44074    633.01464    37401.237 
  793300     290.6767   -1449.2145    473.20959    334.93706       569.72    37401.237 
  793400    304.89242   -1454.0176    527.39453    448.43128    254.93521    37401.237 
  793500    305.36625   -1468.7532    503.40748    411.84556    75.006833    37401.237 
  793600    296.80412   -1462.0996    510.37015    386.84695    419.46905    37401.237 
  793700    303.40333   -1528.9177    505.04329    344.46424   -161.19986    37401.237 
  793800    300.39972   -1496.1021    470.37296    329.06327      188.378    37401.237 
  793900    298.75395    -1500.007    490.86248    338.22552   -53.167832    37401.237 
  794000    297.12656   -1460.9878    493.96177    373.00453    415.22969    37401.237 
  794100    301.20476   -1469.2672    509.98646    399.14241    220.06696    37401.237 
  794200    306.35132   -1506.5857    482.46753    357.51575    183.09665    37401.237 
  794300    291.01492   -1534.2563    479.83694    258.04792    481.75339    37401.237 
  794400    300.58349   -1510.4449    478.06268    323.23894     1220.705    37401.237 
  794500    311.64103   -1451.4554    481.20126    435.23618    891.43271    37401.237 
  794600    307.56156   -1494.0849    469.47119    362.47836    194.16936    37401.237 
  794700    299.85933   -1460.5496    507.23789    399.04355     426.3352    37401.237 
  794800    297.87033   -1447.4778    496.43611    392.34323    -166.2454    37401.237 
  794900    307.85834   -1415.0805    506.08654     479.4366   -256.05332    37401.237 
  795000     279.8791   -1479.6837    451.01848    233.57991   -295.90171    37401.237 
  795100    310.34904   -1485.2804    499.16426     413.5474   -337.49307    37401.237 
  795200    289.09001   -1471.0062    493.50594    326.28578   -455.78045    37401.237 
  795300    302.51958   -1474.9005    497.87802     387.3304   -419.22632    37401.237 
  795400    303.44658   -1458.7336    496.59589    406.39592   -244.37743    37401.237 
  795500    296.96094   -1470.4787    493.41887    362.22382    88.856328    37401.237 
  795600    292.69829   -1467.0436    504.94038    357.95599    393.09187    37401.237 
  795700    293.04383   -1471.6137    487.51269    337.51664    445.25875    37401.237 
  795800    311.13118    -1501.735    507.33921    408.79516    726.44961    37401.237 
  795900    295.89423   -1484.9887    510.52303    360.00716    416.21769    37401.237 
  796000    303.16904   -1472.4158    502.40933    397.27548    517.14138    37401.237 
  796100    299.86904   -1481.1423    463.83983    335.09655    384.93007    37401.237 
  796200    300.72639   -1467.3492    505.72117    394.63763    598.25958    37401.237 
  796300    295.99579   -1468.9473    494.80345    360.78695    459.39425    37401.237 
  796400    296.77998   -1462.6217    508.45398    384.29972    394.14924    37401.237 
  796500    296.93766   -1472.0946    501.20847    368.29257     815.0715    37401.237 
  796600    301.25289   -1443.5796    516.00382    431.06445    607.27203    37401.237 
  796700    311.45714   -1441.0844    500.33367    463.91028    531.65317    37401.237 
  796800    287.35831    -1421.571    525.38065    399.78572    393.20112    37401.237 
  796900    304.04094   -1494.3118    479.12062    356.02303    38.264005    37401.237 
  797000     291.0993   -1508.5797    503.33428    307.60241    -156.4821    37401.237 
  797100    302.91674   -1468.8743    497.71314    394.98295    -205.8537    37401.237 
  797200    303.96313   -1487.1082    498.32296      382.078   -15.254185    37401.237 
  797300    302.18525   -1454.6619    480.96025     389.1434   -493.81463    37401.237 
  797400    299.34793    -1450.727     506.9399    406.26179   -562.53977    37401.237 
  797500    310.89665    -1432.007    517.41589    487.54206   -503.67659    37401.237 
  797600    301.96775   -1503.0729    489.41455    348.20586   -147.74501    37401.237 
  797700    299.64424   -1490.5096    448.12654    309.00216    -430.0543    37401.237 
  797800     288.4217   -1483.8195    513.88406    330.83655   -418.15104    37401.237 
  797900    305.50439   -1462.1619    480.93031    396.58275   -143.22256    37401.237 
  798000    293.31409   -1433.9237    509.04975    397.96248   -436.58209    37401.237 
  798100    289.05965   -1496.0834    501.84164    309.40728   -230.83021    37401.237 
  798200    300.63771   -1486.7135    490.87814    360.03041   -555.38317    37401.237 
  798300    299.18669   -1464.0889     473.4727    358.70544   -449.53056    37401.237 
  798400    296.08751   -1478.9176    508.50306    364.92991   -299.80916    37401.237 
  798500    299.54544   -1473.0067    476.89023     354.8232   -453.74155    37401.237 
  798600    306.26458   -1466.1757    510.21657    425.28356   -957.02043    37401.237 
  798700    304.96289   -1476.1469    488.14853    387.37376   -367.99226    37401.237 
  798800    306.47282    -1508.262     483.2749    357.19476   -844.01649    37401.237 
  798900    304.88875   -1484.5381    499.19216    389.69187   -588.03347    37401.237 
  799000    308.53384   -1499.2137    499.18506    391.44839    -469.3476    37401.237 
  799100    303.11324   -1472.0719    489.37538    384.33375   -683.24468    37401.237 
  799200    297.66047   -1512.8485    470.86922    300.45923   -724.37449    37401.237 
  799300    305.98051   -1493.9612    501.42964    387.43005   -788.02607    37401.237 
  799400    292.79185   -1509.9993    490.70055    301.18236    44.566863    37401.237 
  799500    298.27973   -1494.5016    510.35807    361.08776   -136.22381    37401.237 
  799600    300.76459   -1511.9274    474.99182    319.50234   -200.24628    37401.237 
  799700    302.94208   -1475.7712    501.56482    392.05199    308.49232    37401.237 
  799800     310.7153   -1489.2953    507.01845    419.03842    -39.65322    37401.237 
  799900    290.07935   -1501.7192    511.01875    317.54748     -230.509    37401.237 
  800000    297.68572   -1478.6949    486.02978    349.88727    306.09772    37401.237 
  800100    299.77175   -1483.3265    468.57578    337.20957   -196.11117    37401.237 
  800200    306.09839   -1475.0306    516.43717     421.8998    509.53804    37401.237 
  800300    305.69091   -1468.1419    502.80199    413.31557    667.34771    37401.237 
  800400    299.35662    -1471.728    511.24807    389.60814    34.797205    37401.237 
  800500    308.22118   -1486.8436    493.48941    396.71275    150.69089    37401.237 
  800600    290.17409   -1463.6195    481.77407    326.82974    -435.2349    37401.237 
  800700    298.65639   -1442.1165    508.62281    413.43637   -811.75579    37401.237 
  800800    295.58439   -1510.5998    497.28527    319.76086   -495.88842    37401.237 
  800900    302.38511   -1483.3211    473.37124    353.79654   -858.18631    37401.237 
  801000    301.35336   -1482.4004    539.52139     416.2143   -261.60909    37401.237 
  801100    307.10892   -1490.8656    482.88924    377.07425    161.67986    37401.237 
  801200    301.04077   -1453.6099    511.92148    415.99508    275.44129    37401.237 
  801300    290.02788    -1500.508    496.54278    304.05056   -389.94939    37401.237 
  801400    298.31873   -1459.9888    499.28901    384.70744   -299.12852    37401.237 
  801500    312.07443   -1499.0172    506.87531    415.30312   -217.60092    37401.237 
  801600    292.61112   -1481.9675     507.0552    344.75385   -149.27976    37401.237 
  801700    305.24503   -1508.3736      488.352    356.62298   -252.70743    37401.237 
  801800    290.37401   -1504.1996     512.7248    318.10198   -589.86354    37401.237 
  801900    297.59499   -1491.8299    509.48952    359.80281   -950.27181    37401.237 
  802000    293.12344   -1462.2344    499.67576      359.418   -375.53008    37401.237 
  802100    307.38219   -1449.6085    492.57867    429.25332   -415.82497    37401.237 
  802200    302.72963   -1453.5307    498.91289    410.68246   -402.49705    37401.237 
  802300     304.5098    -1488.659    488.52279    373.19247   -360.51086    37401.237 
  802400    302.02998   -1511.5876    503.23854    353.79581   -225.18157    37401.237 
  802500    312.19389   -1510.9238     508.2738    405.33364   -44.718747    37401.237 
  802600    307.02198   -1496.3764    503.82105    392.10325   -115.32821    37401.237 
  802700    309.96866   -1528.4438    501.30964    370.81389    77.417309    37401.237 
  802800    295.17197   -1498.8374    492.81118    325.18924    189.95419    37401.237 
  802900    305.21928   -1498.8351    506.38363    384.07696    1168.4409    37401.237 
  803000    293.85542   -1490.7915    504.27692     338.7633    632.30367    37401.237 
  803100     295.2592   -1487.0175      509.479    354.07033    114.45891    37401.237 
  803200    298.24647   -1553.4532    499.94606     291.5742    96.779283    37401.237 
  803300    294.44407   -1534.8072    512.17048    305.29586   -510.25002    37401.237 
  803400    299.79852     -1540.19     510.7269    322.61794   -392.48227    37401.237 
  803500     293.6547   -1559.1618    508.00253    273.21336   -101.11125    37401.237 
  803600    295.93353   -1543.8391    514.08942    304.90039   -216.61451    37401.237 
  803700    291.35401   -1513.6211    473.18848    273.56392   -365.32153    37401.237 
  803800    310.06028   -1496.7676    504.56983    406.16339   -67.680896    37401.237 
  803900    294.91549   -1503.5878      527.827    354.29792   -221.84451    37401.237 
  804000       288.93   -1496.2239    524.55968    331.40013   -181.23608    37401.237 
  804100    309.39336   -1528.4709    531.43541    398.31795      401.162    37401.237 
  804200    297.73396    -1530.652    486.42852     298.5464    116.66468    37401.237 
  804300    289.95287   -1553.6338    477.04454     231.0882   -222.49356    37401.237 
  804400    292.25892   -1526.6234    502.07336    293.52769   -260.65416    37401.237 
  804500    310.07151   -1551.4062    491.75462    338.76023    217.06686    37401.237 
  804600    299.87508    -1524.637    528.94944    356.73872    131.02285    37401.237 
  804700    304.02116   -1560.7538    514.85726     325.2284   -88.178858    37401.237 
  804800    297.49573    -1517.471    528.35842      352.583    187.99519    37401.237 
  804900    300.90391   -1537.1657    487.72225    307.62285   -233.57897    37401.237 
  805000    305.41014    -1478.217    516.80021    415.97243    332.59981    37401.237 
  805100    292.41929   -1468.4232    517.23832    367.61601    874.19445    37401.237 
  805200    307.87266   -1485.5911    526.30543     429.2095    854.81971    37401.237 
  805300    297.89767   -1527.6982    496.99356    312.80357    1116.3831    37401.237 
  805400    306.66543   -1514.9373     508.9993    377.11255    1359.1236    37401.237 
  805500    303.41399   -1504.1987    505.87388    370.06183    1236.9968    37401.237 
  805600    308.02095    -1455.244    523.84524    457.76516     534.0883    37401.237 
  805700    294.82643   -1543.5332    521.70094    307.82477    373.45773    37401.237 
  805800    305.35009   -1520.7575    497.94446    354.30534   -162.21409    37401.237 
  805900    287.98345   -1482.0133    515.74555    332.52773   -261.38236    37401.237 
  806000     298.7627   -1474.3308    504.94664    378.02534   -331.40513    37401.237 
  806100    298.29309   -1506.6185    549.56994    388.24307   -754.45911    37401.237 
  806200    289.49899   -1486.0528    499.97316    319.55087   -142.97269    37401.237 
  806300     304.7402   -1445.2465    515.85913    444.98045   -107.20594    37401.237 
  806400    303.02247   -1466.8373    533.29228    433.07595    450.79165    37401.237 
  806500    304.09509   -1435.7632    502.65594    438.35117    838.51002    37401.237 
  806600    301.36098   -1425.5885    538.16421    471.70338    431.35255    37401.237 
  806700    308.36919    -1431.443    514.02949    473.32095   -104.40033    37401.237 
  806800    306.83589   -1404.0009    522.62561    502.44396   -16.068039    37401.237 
  806900    294.27129   -1399.0868    518.84474    446.91131   -455.08089    37401.237 
  807000    301.60068   -1436.4789      528.538    452.26775   -571.97588    37401.237 
  807100    306.51199   -1452.0409    496.99123    427.30882   -509.77519    37401.237 
  807200     295.2063   -1459.1179    494.07291    366.32528    -390.0272    37401.237 
  807300    302.85013   -1479.3731    529.15073    415.62131   -783.89562    37401.237 
  807400     296.7931   -1455.9655    518.57185    401.13308   -623.65652    37401.237 
  807500    299.32478   -1468.6153    512.58683    393.91594   -811.76204    37401.237 
  807600    296.37307   -1517.0622    512.64582    332.21597   -477.19459    37401.237 
  807700    299.40041   -1479.2609    522.91235    393.93702   -218.42423    37401.237 
  807800    316.96143    -1461.092    520.11783    488.51097    377.51179    37401.237 
  807900    299.14961    -1450.814    485.94301    384.28343    143.15864    37401.237 
  808000     307.6828   -1510.9659    522.55843    399.23138    523.71342    37401.237 
  808100    309.13412   -1512.5884    498.66104    380.25691    226.55698    37401.237 
  808200    290.83316   -1498.6489    474.97011    287.96882   -46.448136    37401.237 
  808300    306.68524   -1507.1948     537.1089    413.05394    102.42445    37401.237 
  808400    292.42392   -1488.6349    527.78049    357.96741    225.29981    37401.237 
  808500    290.34536   -1499.4093    497.26158    307.29984    497.50413    37401.237 
  808600      297.672   -1497.4545    505.59071    350.62673    781.94549    37401.237 
  808700    292.37904   -1529.1792    516.18189    305.62208    544.75106    37401.237 
  808800    296.84824   -1508.3298    511.16524    341.61073    272.12082    37401.237 
  808900    299.41472   -1512.7245    505.61431    343.23991    334.16868    37401.237 
  809000    292.33518   -1522.4211    510.60672    306.60723    128.46208    37401.237 
  809100    292.51522   -1523.0119    483.06715    279.28887    231.56621    37401.237 
  809200    296.53987   -1518.2861    483.26888    302.36736    241.56259    37401.237 
  809300    289.80895   -1529.4235      515.844    293.44886    304.26883    37401.237 
  809400    304.18233   -1487.7682    498.34082    382.42447    138.08104    37401.237 
  809500    293.17225   -1502.6267    488.70068    308.27069    -403.9561    37401.237 
  809600    296.76473   -1503.4739    508.04366    342.96852    304.66369    37401.237 
  809700    297.69108   -1514.1501    505.01486    333.44126    587.22999    37401.237 
  809800    304.65374    -1495.635    521.51664    399.85952    375.81781    37401.237 
  809900    291.81814   -1516.0689    515.60314    315.62396   -53.327321    37401.237 
  810000     301.6971    -1475.409    495.66347      380.898    187.19737    37401.237 
  810100    294.78449   -1507.4522    511.65101    333.66673   -638.20855    37401.237 
  810200    304.85859   -1483.4964    482.74536    374.15067   -993.47918    37401.237 
  810300    298.02615   -1517.6344    481.08697    307.54024   -885.25687    37401.237 
  810400    300.38786   -1535.8262    503.46837    322.38114   -1100.4916    37401.237 
  810500     309.9581   -1521.8917    481.60661    357.61526   -731.16051    37401.237 
  810600    303.10741   -1511.5778    479.58726    335.01345    -23.70507    37401.237 
  810700    308.48448   -1518.2684    497.17157    370.15752   -386.03082    37401.237 
  810800    296.67941    -1535.468    483.97429    286.52019    339.26431    37401.237 
  810900    312.56319   -1550.3916    477.96671    337.22436    266.11332    37401.237 
  811000    301.50158   -1531.7161    485.62853    313.67414    292.80194    37401.237 
  811100    305.47882   -1510.4362    468.03491    335.29768    196.30116    37401.237 
  811200    304.89145   -1486.7204    518.15567    406.48528    773.02732    37401.237 
  811300     314.9244   -1480.0566    498.65014    438.89176    1022.6053    37401.237 
  811400    289.68307   -1488.6563    517.06758      334.872     1193.959    37401.237 
  811500    291.28458   -1507.8165    513.48395     319.3509    1125.3436    37401.237 
  811600    305.36923   -1493.5742    513.99907    397.62955    1629.9313    37401.237 
  811700    291.69272   -1545.0098    499.03209    269.54645    481.14371    37401.237 
  811800    297.83962   -1513.6359    498.12597    327.73656    551.21589    37401.237 
  811900    309.78824   -1527.1356    469.07013    339.06882   -429.23419    37401.237 
  812000    312.72016   -1492.2971    494.09529    412.15538     105.2959    37401.237 
  812100    295.06936   -1522.1708    498.36401    306.94584   -84.325707    37401.237 
  812200    303.73092   -1557.6131    503.04274     315.2456    554.76419    37401.237 
  812300    313.83698   -1494.7573    512.18292    432.81954    775.81368    37401.237 
  812400     298.4951   -1502.4905    499.22249    342.93462    639.95803    37401.237 
  812500    297.92897   -1561.5292     483.7035    265.82373   -231.49288    37401.237 
  812600    300.72634   -1528.2951    508.27306    336.24338    48.692114    37401.237 
  812700    310.22104   -1516.7485    488.23653     370.5742    571.67937    37401.237 
  812800    306.86857   -1518.9982    517.13902    382.10757    573.84166    37401.237 
  812900    291.66994    -1484.682    505.98279    336.72224    457.94189    37401.237 
  813000    295.79215   -1474.0703    512.75413     372.6963    144.79006    37401.237 
  813100    305.40872   -1409.9265    482.95847    450.41482    429.34361    37401.237 
  813200    307.10216   -1453.8106    515.90808    447.11768    90.690619    37401.237 
  813300    297.41572   -1468.9898    515.38074    387.72558     189.2116    37401.237 
  813400    303.13395   -1471.7504     507.2633    402.63658    191.52063    37401.237 
  813500    301.62118   -1473.8926    474.99611    361.40467   -109.71269    37401.237 
  813600     301.0051   -1482.2196    508.44866    383.75171   -82.507441    37401.237 
  813700    293.00322   -1469.4155    497.96579    349.98468   -594.42611    37401.237 
  813800     307.0638   -1460.6287    470.22497    394.44348   -109.24199    37401.237 
  813900     296.1428   -1489.6604    501.88419    347.81763   -476.34752    37401.237 
  814000    300.48072   -1548.1402    475.38959    282.40707   -594.59681    37401.237 
  814100    292.72778   -1473.2471    486.98394    333.92908   -253.32189    37401.237 
  814200    304.21171   -1492.4118     479.1958    358.76832   -458.56061    37401.237 
  814300    293.67541   -1521.4607    504.72572      307.731   -666.69821    37401.237 
  814400    297.80977   -1578.6127    465.69044     230.1895   -170.72924    37401.237 
  814500    313.78015   -1525.2626     506.7765     396.6516   -279.77138    37401.237 
  814600    303.89524   -1523.5793    464.25617    311.23396   -140.72414    37401.237 
  814700    303.77883   -1497.4979    487.20625    359.74043    251.61001    37401.237 
  814800    295.34936   -1518.6128    505.16094    318.56357    83.092166    37401.237 
  814900    295.59244   -1496.9977    497.29357    333.40767    52.396532    37401.237 
  815000    295.68085   -1496.7442    490.07336     326.8396   -368.71806    37401.237 
  815100    301.39863   -1486.3172    493.13725    366.11749   -692.73716    37401.237 
  815200    301.81177   -1506.5026    484.85314    339.51128   -216.72334    37401.237 
  815300    307.74527    -1481.825    503.48548    409.58107   -250.44047    37401.237 
  815400    316.90806   -1454.8598    472.96594    447.35058   -256.12641    37401.237 
  815500    286.01527   -1479.0118    468.15862    279.06591    177.19054    37401.237 
  815600    298.93027   -1480.9869    506.58308    373.76144    167.42964    37401.237 
  815700    300.49782   -1452.8704    480.91459    383.27897    207.37062    37401.237 
  815800    306.69136   -1472.7341     493.5708    404.00424    9.4809107    37401.237 
  815900    294.46205   -1430.7206    484.89592    382.18901    412.50969    37401.237 
  816000    309.92516   -1430.1276    481.23818    448.86238    232.95199    37401.237 
  816100    300.47126   -1435.3759      499.381     419.1201    277.49092    37401.237 
  816200    307.37532   -1421.9824    485.29305    449.56278    76.385584    37401.237 
  816300    312.31358   -1447.1494    485.85162    447.22575   -252.07972    37401.237 
  816400    293.72885   -1450.8824     483.3887    357.21329   -680.47221    37401.237 
  816500    301.79573   -1463.9176    487.19943    384.37021    477.99654    37401.237 
  816600    299.25653   -1426.0736    489.80178    413.36485    159.39801    37401.237 
  816700    302.01549   -1408.3469    499.00218    452.73478   -326.29154    37401.237 
  816800    299.96703   -1460.3125    501.26745    393.79589   -202.00034    37401.237 
  816900    299.75724   -1457.5859    512.29223    406.60117   -383.39293    37401.237 
  817000    296.92931   -1475.2257    504.42583    368.34116   -316.76458    37401.237 
  817100    263.85884   -1420.4165    506.63341     276.2112   -613.16481    37401.237 
  817200    299.60175   -1460.9816    468.61436    358.82636   -145.66095    37401.237 
  817300    302.62459   -1463.1425    491.74276     393.4267    255.27596    37401.237 
  817400    308.88541   -1500.1922    487.56129    380.43166   -331.20566    37401.237 
  817500    300.08877   -1475.2208    483.91045    362.07969   -392.99252    37401.237 
  817600    293.72457   -1498.9101    481.32181    307.09936   -435.10793    37401.237 
  817700    292.98575   -1471.8535    507.67914    357.18129    417.46802    37401.237 
  817800    302.87933    -1453.857    492.48782    404.60617   -201.40217    37401.237 
  817900    300.86854   -1458.0962    492.17271    390.98333   -25.776113    37401.237 
  818000    305.74462   -1492.1337    512.65798      399.422    135.54121    37401.237 
  818100    297.43763   -1525.1714    499.89966    316.16174   -463.08138    37401.237 
  818200    299.39726   -1459.0296    484.77233    376.01407   -314.31789    37401.237 
  818300    290.74986   -1477.9904    488.92731    322.20872   -213.30333    37401.237 
  818400    295.79496   -1490.3264    508.17613    351.87478     -770.323    37401.237 
  818500    294.15742   -1506.1319    525.36884    345.87674   -454.90153    37401.237 
  818600     305.6475   -1496.9267    472.82846    354.36144      -13.216    37401.237 
  818700    298.88216   -1506.5505    498.18646    339.58419     -223.267    37401.237 
  818800    303.01062   -1522.0655    473.01425    317.51616   -73.980439    37401.237 
  818900     298.9499   -1489.2265    485.98385    345.01116    177.66656    37401.237 
  819000    298.72265   -1435.9221     505.0135    416.32025    33.004722    37401.237 
  819100    288.74673    -1516.089     510.8232    296.97201   -215.05732    37401.237 
  819200    302.89075   -1503.5312    502.97103    365.46675   -714.14629    37401.237 
  819300    297.98005   -1491.1773    503.49715    356.19963   -751.64512    37401.237 
  819400    292.15079   -1486.2401    485.11709    316.46707   -735.71056    37401.237 
  819500    293.64177   -1499.9588    520.89953    345.25501   -1612.6958    37401.237 
  819600    302.81581   -1500.3567    462.86863    328.20086   -708.44036    37401.237 
  819700    299.78172   -1542.1575    485.64424    295.49201     -179.786    37401.237 
  819800    296.83244   -1542.1113     488.0699    284.66265    434.53057    37401.237 
  819900    309.42569    -1503.712    507.53119    399.31836     531.1247    37401.237 
  820000    291.69425   -1457.2327     487.2686      345.567    540.84766    37401.237 
  820100    312.02072   -1467.1026    500.60964    440.70979     116.7622    37401.237 
  820200     298.4806   -1467.1743    496.94823    375.91119   -58.462659    37401.237 
  820300    301.30095   -1496.8136    489.86929    351.91259   -98.575011    37401.237 
  820400    301.43997   -1433.6009     490.8433    416.72629    105.65148    37401.237 
  820500    307.84456   -1438.0892    493.37048    443.64964    344.07973    37401.237 
  820600    295.15781   -1483.5912    503.65288    351.21326    309.53825    37401.237 
  820700    312.13362   -1482.7032    523.95456    448.96318    201.11747    37401.237 
  820800    295.63373   -1467.5235    512.67033    378.44473   -165.80001    37401.237 
  820900    294.97898     -1505.87    472.30194    296.77701   -322.64538    37401.237 
  821000    301.12408   -1492.0988    493.28673    359.24723    231.28023    37401.237 
  821100    303.22636   -1526.4383    476.37266    317.47485     111.7039    37401.237 
  821200    286.12613   -1511.5321    510.55814    289.44501    170.66342    37401.237 
  821300    300.97016   -1521.7562    502.54063    338.14949    -223.4623    37401.237 
  821400    296.91551   -1511.2202    491.43219    319.29078   -283.92703    37401.237 
  821500    296.09128   -1486.4282     482.3844    331.31771   -8.9006386    37401.237 
  821600     298.9762   -1488.9197    520.82584     380.2785     173.2329    37401.237 
  821700    287.94432   -1495.7975    502.54663    305.36814    -85.60263    37401.237 
  821800    296.79431   -1462.8347    503.55215     379.2496   -377.31711    37401.237 
  821900     299.0474   -1454.6638     509.3927    403.42244   -608.79467    37401.237 
  822000    294.66092   -1447.0955    483.50266    365.31776   -185.01453    37401.237 
  822100    301.24702   -1469.9751    519.17238    407.81104   -585.25999    37401.237 
  822200    299.91088   -1483.3809     466.6809    335.88778   -92.016832    37401.237 
  822300    297.74584   -1500.7518     503.8096    345.88129   -121.19716    37401.237 
  822400    297.04603   -1504.2882    499.26599    334.64518    11.868976    37401.237 
  822500    300.34989   -1452.9356    493.01376    394.64579     527.8951    37401.237 
  822600    299.01036    -1499.698    511.81124    360.63967    483.78305    37401.237 
  822700    301.63916    -1459.762    485.24245    385.86269    88.150673    37401.237 
  822800    302.90987   -1453.7559    496.26288     408.6201   -230.52771    37401.237 
  822900    286.78268   -1450.8948     526.6534    369.13865   -868.18906    37401.237 
  823000    285.81805    -1502.513     466.8153    253.33189   -480.27611    37401.237 
  823100    302.16585   -1467.3189    537.25185    432.69058   -398.12399    37401.237 
  823200    296.87247   -1456.0353    476.44434    359.29369   -58.453049    37401.237 
  823300    304.61271   -1476.0888    521.65912    419.36323    -469.4826    37401.237 
  823400    287.86834   -1467.4679    489.44469    320.25308   -530.82576    37401.237 
  823500    307.10525   -1458.5676    494.21147    420.67794   -530.48669    37401.237 
  823600    296.45662   -1481.2102    486.57841     342.3774   -401.27975    37401.237 
  823700     301.8825   -1490.5628    513.37827     384.2951   -47.488747    37401.237 
  823800    297.88796   -1459.9655     504.1849    387.68384    240.88066    37401.237 
  823900    294.46968   -1492.9222    518.95692    354.08281   -23.316008    37401.237 
  824000    305.45708   -1455.2855    516.55811    438.87353     154.0707    37401.237 
  824100    300.74965   -1482.8072    511.36537    384.92877   -14.510688    37401.237 
  824200    301.54923   -1457.7994    471.10714    373.28441    346.76643    37401.237 
  824300    309.84853   -1474.7958    515.75411    438.36452   -677.17866    37401.237 
  824400    291.14918   -1507.3818     502.6043    308.29536    20.792608    37401.237 
  824500     290.3029   -1468.5092    512.25012    352.99702   -465.92381    37401.237 
  824600    312.95458   -1495.6623    488.02778     403.7799   -772.21611    37401.237 
  824700    311.23872   -1458.8164    523.35595    468.21542   -116.21276    37401.237 
  824800    291.10851   -1445.4564       501.07      368.503   -840.55429    37401.237 
  824900    291.93667   -1456.1911    505.71754    366.15077   -930.39452    37401.237 
  825000    302.83533   -1470.4131    479.00173    374.36558   -345.38157    37401.237 
  825100     296.8404   -1490.8458    517.25494    365.14908   -217.72318    37401.237 
  825200    295.31661   -1461.4463     507.1053    377.52675    107.11111    37401.237 
  825300    293.13447     -1486.98     502.7822    337.82855   -468.96093    37401.237 
  825400    309.20157   -1448.8581      495.893    441.52328    143.33283    37401.237 
  825500    300.16026   -1471.0524    476.74815    359.40819   -233.67015    37401.237 
  825600    304.97715   -1425.0831    530.30892    480.66224    224.60491    37401.237 
  825700    301.57032   -1475.8357    504.33493    388.57101   -687.03245    37401.237 
  825800    293.48159   -1488.2701    486.63058    321.95239   -105.01965    37401.237 
  825900    294.96408   -1470.2722    506.72809    366.73375    924.00134    37401.237 
  826000    305.99823    -1464.244    491.83836    407.63583    453.44348    37401.237 
  826100     304.3534   -1446.5278    517.54489    443.64042    672.41524    37401.237 
  826200     305.2216   -1484.4001    498.73274    390.87156     965.2296    37401.237 
  826300    296.34039   -1470.7445     501.6458    367.38627     669.1102    37401.237 
  826400    300.00581   -1521.4198    501.80242    333.39851   -337.43384    37401.237 
  826500    304.02535   -1520.9799    516.63605    366.79999     285.9233    37401.237 
  826600    291.52709    -1553.734    479.10813    240.15128     685.2253    37401.237 
  826700    286.07684   -1535.8311    494.97012    249.33566    3.9699774    37401.237 
  826800    295.72781   -1493.9216    502.44586    342.24655    843.19699    37401.237 
  826900    289.57832   -1516.8059    512.39166    301.57402    878.18148    37401.237 
  827000    292.62461   -1463.4801    509.94439    366.19116    284.62119    37401.237 
  827100    300.77823   -1488.7304    499.68745    367.45651   -165.01376    37401.237 
  827200    294.02428   -1492.2191    478.55544    312.37575    156.96984    37401.237 
  827300    306.16894   -1484.2694    495.71557    392.25762    727.39153    37401.237 
  827400     311.6508   -1493.4993    501.88654    413.92163    979.97957    37401.237 
  827500    301.63198   -1439.7189    514.85639    435.48742    881.66462    37401.237 
  827600    301.06613   -1442.7116    502.78178    417.86809    917.94894    37401.237 
  827700    291.65219   -1479.2183    518.89244    355.01552    458.62134    37401.237 
  827800     301.6735   -1457.4184    510.51849    413.63717    284.86743    37401.237 
  827900    294.49736   -1482.3984    493.84369    339.61828    145.10191    37401.237 
  828000    311.73597   -1426.9556    491.86238    470.82526    35.012718    37401.237 
  828100    302.02344   -1457.8323    491.41886    395.70193    192.52152    37401.237 
  828200    298.57291   -1437.0604    491.71205    401.20516    -34.37252    37401.237 
  828300    293.00335   -1470.4274    509.01787    360.02552   -442.77266    37401.237 
  828400     301.0484    -1449.436    494.82317    403.10509   -332.17588    37401.237 
  828500    304.61222   -1482.9063    496.24462     387.1289    -586.6642    37401.237 
  828600     321.7695   -1396.7783    501.32546    555.71653   -718.48264    37401.237 
  828700    290.54684   -1420.6457      538.561    428.27152   -560.34581    37401.237 
  828800    308.40244   -1479.7663    507.25211    418.37018   -114.19897    37401.237 
  828900    300.59813   -1462.6018    533.00777    426.09315    69.318241    37401.237 
  829000    291.88415   -1467.5243    507.41887    356.28201   -103.40707    37401.237 
  829100    287.65071   -1497.9214    494.99135    294.36472    288.17601    37401.237 
  829200    295.90117   -1497.0161    492.67382    330.16183    99.893311    37401.237 
  829300    299.26904   -1435.7075    516.28194    430.26752   -325.47046    37401.237 
  829400    304.58998    -1456.372    480.90246    398.22077    693.56169    37401.237 
  829500    300.10802    -1450.531    521.91562    424.86145    220.65718    37401.237 
  829600    296.93324   -1480.3997    523.65591     382.4149   -260.44065    37401.237 
  829700     304.5843   -1470.5623    483.16625    386.26863    32.520107    37401.237 
  829800    307.47595   -1496.2732    498.75005    389.18276    42.565091    37401.237 
  829900    297.90467   -1486.8197    519.88338    376.60347    134.13767    37401.237 
  830000    293.23947   -1486.4375    464.73946    300.80191   -506.17018    37401.237 
  830100    301.14001    -1531.525    500.31902    326.92512   -393.56378    37401.237 
  830200    293.99118   -1526.2501    481.48252    281.12252   -714.31555    37401.237 
  830300    302.56069   -1470.2636    504.49945    398.77415   -1019.8904    37401.237 
  830400    297.12337   -1480.5228    489.66914    349.16249   -944.28616    37401.237 
  830500    309.77659   -1545.3797     464.3941    316.09612    -938.0018    37401.237 
  830600    301.52547   -1540.7359    507.05438      326.188   -803.45928    37401.237 
  830700    296.58536   -1494.9116    468.20986    310.88806   -173.63159    37401.237 
  830800    303.95716   -1515.2365    499.04241    354.64231    79.553052    37401.237 
  830900    307.00659   -1522.1309    471.34823    333.80654    59.434448    37401.237 
  831000    296.66243    -1560.826    490.72833    267.83967    443.78992    37401.237 
  831100    306.13918    -1544.951    471.11113    306.83726    461.67829    37401.237 
  831200    292.99534   -1503.8658    520.56525    338.09841    181.01429    37401.237 
  831300    303.14614   -1496.2684    499.23034    370.14058    686.52094    37401.237 
  831400    307.38177   -1535.2511    485.51502    336.54513    297.72315    37401.237 
  831500     304.4055    -1540.694    489.65029    321.81468    232.58292    37401.237 
  831600    300.09169   -1533.5543    497.15765    317.00652    207.50161    37401.237 
  831700    311.39864   -1489.9173    495.76049     410.2404   -316.81383    37401.237 
  831800    301.17593   -1481.9594     513.0374    389.37103   -585.23368    37401.237 
  831900     304.6797   -1445.1895    506.44677    435.35219   -86.790005    37401.237 
  832000    303.84999   -1445.8638    504.64921    429.13843    -1056.036    37401.237 
  832100    296.61182   -1439.2198    491.59711     390.0864   -585.57772    37401.237 
  832200     297.4772   -1459.7171    510.66909    392.56392   -25.565622    37401.237 
  832300    303.13058   -1443.5696    496.14206    419.68091    402.58309    37401.237 
  832400    307.30451   -1420.8765    509.71581    474.77208    484.39166    37401.237 
  832500    305.12121   -1418.1754     518.9858    476.89658    311.06498    37401.237 
  832600    308.81406   -1456.5469    510.87573    447.06963    265.54968    37401.237 
  832700    293.95749   -1437.6959    513.36395    401.40626   -113.05141    37401.237 
  832800    303.23506    -1462.388    487.39956    392.59129   -350.75131    37401.237 
  832900    306.19084   -1432.1036     511.9012    460.70773      201.939    37401.237 
  833000    301.55046   -1488.1299    500.21737    372.06971   -33.698502    37401.237 
  833100    290.53946   -1494.8561     506.5763    322.04313    100.39561    37401.237 
  833200    294.50765   -1489.4509    508.63751    347.40598  -0.31954244    37401.237 
  833300    294.70463   -1500.2966     498.4068     327.2179   -196.70879    37401.237 
  833400    306.00161   -1492.5433    528.75201    416.26549    -323.1815    37401.237 
  833500    298.31957   -1507.8571    495.37213    332.92598    920.86946    37401.237 
  833600    297.91265   -1487.8923     501.6138    357.29732    568.70339    37401.237 
  833700    293.94181   -1495.2365    485.42204      315.853   -294.80745    37401.237 
  833800    312.92124   -1507.6842    480.41083    383.99062   -292.10553    37401.237 
  833900    306.65116   -1477.6453    489.77283    395.11366     25.86673    37401.237 
  834000     298.8597   -1476.4167    506.26684    377.69717   -525.73104    37401.237 
  834100    288.32764   -1481.2263     509.4512    328.57268    22.586496    37401.237 
  834200    296.33821   -1470.7496    497.25533    362.98091     233.7539    37401.237 
  834300    309.46307   -1496.6652    524.49931    423.50188   -135.53147    37401.237 
  834400    296.31762   -1463.3811    510.08967     383.0908    460.30829    37401.237 
  834500    294.76621   -1468.8595    507.08789     367.6139    431.90203    37401.237 
  834600    302.63755   -1471.9389    507.65095    400.59698    917.53061    37401.237 
  834700    294.59814   -1517.5148    520.49797    331.61062    740.22544    37401.237 
  834800    305.91284   -1531.9698    500.07675     347.7633    1009.3867    37401.237 
  834900    294.52629   -1543.5095    506.51455    291.30843    647.39938    37401.237 
  835000    302.95001   -1540.0067    508.03471    334.32216    884.41143    37401.237 
  835100    298.01808   -1487.0897    512.87003    369.83162    573.35704    37401.237 
  835200    289.96987   -1485.3421    516.96473    339.37682    145.40239    37401.237 
  835300    291.33548   -1480.5171     525.5545    358.95036   -423.67333    37401.237 
  835400    307.27909   -1498.6255     509.0913    396.28396   -207.15559    37401.237 
  835500    290.27801   -1456.6564    517.68471    370.17219   -64.253715    37401.237 
  835600     304.0039   -1498.0092    487.95745    360.99538    291.44299    37401.237 
  835700    298.64898   -1514.9488    513.06875    345.01662    187.23803    37401.237 
  835800    308.27148   -1524.5692    491.40839    357.13296   0.90799699    37401.237 
  835900    298.88569   -1464.2797    519.02693    402.71142    -18.85051    37401.237 
  836000    295.08748   -1473.4324    538.96779     396.3698   -54.878167    37401.237 
  836100    302.27956   -1487.3435    544.01532    419.94224    229.19411    37401.237 
  836200    294.07383    -1507.674    513.53456    332.12347    121.82433    37401.237 
  836300    305.05033   -1481.5307    524.47134    418.70709    309.55744    37401.237 
  836400    296.54762   -1490.0018    492.57573     339.9935   -351.06313    37401.237 
  836500    291.85204   -1494.3898    513.46813    335.32098    67.675838    37401.237 
  836600    302.71805   -1467.3255     550.8321    448.75462   -227.16601    37401.237 
  836700    297.51252   -1478.6666    509.40605    372.51064   -553.40138    37401.237 
  836800    300.15368   -1497.6279    553.21963    409.27451   -586.85594    37401.237 
  836900    300.31797   -1486.4087    530.12664    398.14172   -435.68963    37401.237 
  837000    292.71378   -1462.4063    503.17554    360.89829   -73.715827    37401.237 
  837100    299.95419   -1416.3941    524.31493    460.70389   -759.20429    37401.237 
  837200    306.66026   -1472.3293     535.2082    445.90619   -473.20476    37401.237 
  837300    293.96344   -1466.9307    501.61388    360.44818   -156.17912    37401.237 
  837400    294.05319   -1478.3783    527.18165    374.97311   -620.59528    37401.237 
  837500    330.37528   -1460.7788    496.05218    525.25451   -205.39398    37401.237 
  837600    291.58964   -1491.1327    515.95418    339.88078    -381.3422    37401.237 
  837700    308.56946    -1520.023    500.47779    372.09241   -497.42836    37401.237 
  837800    300.73056   -1514.6494    515.42206    357.05715   -149.37647    37401.237 
  837900      318.642   -1490.5243    493.25728    439.79743    236.34685    37401.237 
  838000    294.35621   -1450.7215    515.61156    392.42651   -152.21893    37401.237 
  838100    298.24479   -1508.6414    512.75614    349.18846    554.16185    37401.237 
  838200    310.55025   -1492.1563    508.38199    416.79658    1215.5692    37401.237 
  838300    296.63011   -1489.0206    522.28647    371.05749    864.02165    37401.237 
  838400    309.72256   -1540.7446     499.6607    355.75422    871.19308    37401.237 
  838500    297.45142   -1552.7105    494.22108    283.00631    141.00666    37401.237 
  838600    299.32755   -1557.3887    489.26271    281.83101    169.32668    37401.237 
  838700    309.18452   -1530.9321    502.33965    365.81912   -38.148921    37401.237 
  838800    295.87802   -1548.2768    480.37417    266.49704   -321.30793    37401.237 
  838900    307.07806   -1561.8163     491.3898    314.48497   -937.75928    37401.237 
  839000    293.54086   -1572.1316    509.06721    260.79478   -401.79298    37401.237 
  839100    295.05889   -1528.5014    492.88212    295.08614   -392.25398    37401.237 
  839200    300.37334   -1566.3971    513.50708     301.7834   -209.29045    37401.237 
  839300    293.92278   -1502.6158    500.83888    323.80471    123.36519    37401.237 
  839400    295.20959   -1508.7243    494.87096    317.53172   -211.88205    37401.237 
  839500     301.0817   -1511.5677    527.42239    373.72276   -66.329848    37401.237 
  839600    292.99886    -1487.532    525.84067     359.7234   -512.31583    37401.237 
  839700    296.58447   -1503.7382    483.53581    317.38339    233.24224    37401.237 
  839800    302.99211   -1454.9282      532.682    444.23781    295.36161    37401.237 
  839900    294.66411    -1486.046    491.76303    334.64196    447.41596    37401.237 
  840000    300.90687   -1487.0315    516.84541    386.89357    106.18437    37401.237 
  840100    309.62187    -1488.435    498.41485    406.36383   -390.66646    37401.237 
  840200    302.29802   -1511.8635    515.74774    367.23792    97.746366    37401.237 
  840300     297.7626   -1549.6997    508.62892    301.82833    291.21835    37401.237 
  840400     306.9672   -1526.5557    523.05097     380.9068    400.41322    37401.237 
  840500    305.52052   -1540.8526    497.17455      334.209   -282.76624    37401.237 
  840600    310.24401   -1513.7396    489.88356    375.33381   -19.289171    37401.237 
  840700    298.76946   -1538.0029    517.83016    327.26727   -220.62525    37401.237 
  840800    298.85351   -1556.1979    510.38546    302.00659   -344.65121    37401.237 
  840900    300.71421   -1527.3324    518.48874    347.36705     329.1133    37401.237 
  841000    300.50379   -1496.6409    503.43899    362.05988   -273.58815    37401.237 
  841100    299.60487   -1514.2173     530.4458    367.43614   -490.08293    37401.237 
  841200    301.91625   -1505.6421    518.70211    374.69189    5.9238685    37401.237 
  841300    303.60492   -1527.7867    483.85868    325.31971   -478.09322    37401.237 
  841400    300.84086   -1537.9924    516.39387    335.18338   -432.96952    37401.237 
  841500     304.4294   -1519.8158     503.9398    357.09007   -231.70648    37401.237 
  841600    305.30826   -1519.8262    500.65031    357.75392   -127.59793    37401.237 
  841700    293.39524   -1537.8103    516.37582    301.76798    108.63135    37401.237 
  841800    297.87161   -1499.2427    482.31831    326.46627   -221.65941    37401.237 
  841900    306.79281   -1507.2654     532.6462     409.0058    -419.8221    37401.237 
  842000    301.75515   -1520.3324    523.33499    363.90794    -71.04541    37401.237 
  842100    300.13865   -1513.9377    505.80346    345.48078    121.18381    37401.237 
  842200    292.21048   -1497.6789    520.36957    340.54984    489.85761    37401.237 
  842300    305.51843   -1498.3334    476.72667     356.2709    130.17874    37401.237 
  842400    298.40334   -1523.4658    521.55411    343.87715    72.593668    37401.237 
  842500     301.9355   -1529.8215    517.81544    349.71265    163.99273    37401.237 
  842600    294.80132   -1517.9783    498.87086     310.4364   -228.44382    37401.237 
  842700    297.47075   -1535.6937    506.00379    311.89298    426.76782    37401.237 
  842800    303.65279   -1529.4215    513.36555    353.40768   -187.49917    37401.237 
  842900    303.98296   -1498.0701    516.43601    389.31863    209.93299    37401.237 
  843000    308.07883    -1508.059    493.93063    375.29651   -269.30713    37401.237 
  843100    289.58006   -1528.9485    510.90852    287.95618   -639.13085    37401.237 
  843200    291.19544   -1535.8214     514.7559    292.21589    73.651887    37401.237 
  843300    309.65447   -1542.2693    512.02797    366.28962    300.26536    37401.237 
  843400    305.61509   -1525.4173    506.06303    358.95927   -228.64108    37401.237 
  843500    312.49524   -1486.8442     502.4629    424.96147   -1.9735977    37401.237 
  843600     297.6036   -1502.5974    507.87849     347.4631   -556.25172    37401.237 
  843700    303.07198    -1526.619    495.67079    335.89603   -262.68086    37401.237 
  843800    304.42288   -1538.0935    493.00983    327.85307    241.32796    37401.237 
  843900    296.09843    -1531.437    517.61531    321.57208    -80.98749    37401.237 
  844000    291.77094   -1535.1509    540.92975    321.65575    372.42194    37401.237 
  844100    290.29256   -1494.9011    507.09456    321.40295    90.275226    37401.237 
  844200    303.05814   -1555.7256    510.05292    321.10909   -59.598168    37401.237 
  844300    302.11391   -1531.0266    519.53096    351.02772   -127.25274    37401.237 
  844400    299.07917   -1512.3267    491.75888    328.26895    111.04182    37401.237 
  844500     355.8447   -1537.8414    518.35408    585.36006   -18.595373    37401.237 
  844600    293.02764   -1528.9165    493.78796    286.41604   -177.17218    37401.237 
  844700    293.34095   -1480.6713     511.4101    353.69632   -178.48974    37401.237 
  844800    292.28269   -1517.3577    530.96621    331.79343   -174.93901    37401.237 
  844900    296.19781   -1515.4592     488.7523    309.13498    262.38876    37401.237 
  845000    287.59902   -1552.8573    508.89718    253.10161   -70.358458    37401.237 
  845100    303.26313   -1532.0086    491.01987    326.71755   -382.79593    37401.237 
  845200    296.14825   -1538.5364    526.91559    323.99762    461.24668    37401.237 
  845300    309.50706   -1526.1544    506.94943    376.66123    389.03003    37401.237 
  845400     298.6852   -1530.1795    501.65602    318.53647   -2.4203535    37401.237 
  845500    300.82403   -1509.3002    506.45559    353.86137   -253.28334    37401.237 
  845600    288.89411   -1494.1302    504.19621    312.96856   -746.38609    37401.237 
  845700    291.93413   -1474.9695    511.31941    352.96284   -4.6898143    37401.237 
  845800    304.66219   -1498.6902    515.90668     391.2325   -229.74796    37401.237 
  845900    290.31704   -1469.1289    515.11748    355.30847   -751.74536    37401.237 
  846000    308.55637   -1485.3005     517.9161    424.19425   -310.91119    37401.237 
  846100    307.49271   -1473.7884    504.03836    417.03151   -179.50894    37401.237 
  846200    298.63163   -1465.7075    532.75418     413.8651   -276.47621    37401.237 
  846300    285.19807   -1489.7475     535.1464    331.63235    214.35768    37401.237 
  846400    302.51497   -1512.7197    500.83765    352.45011     689.8167    37401.237 
  846500    287.83962   -1497.2693    522.24456    323.12205   -29.090935    37401.237 
  846600    287.04972   -1488.2249    515.71402    322.07349     32.38067    37401.237 
  846700    302.56653   -1495.0946    500.31818    369.78829   -228.30208    37401.237 
  846800    312.41264   -1485.4838    542.18653    465.67295    94.939885    37401.237 
  846900    301.98031   -1489.4525    527.25928    399.72761    304.08558    37401.237 
  847000    312.34889   -1490.1265    530.61359     449.1698     618.3133    37401.237 
  847100    298.80468    -1498.136    526.40353     375.8664    160.67979    37401.237 
  847200    300.21047   -1448.0175    514.59932    420.52073   -227.30726    37401.237 
  847300    295.09502   -1452.4447    526.78511    405.20878    133.32668    37401.237 
  847400    303.75782   -1458.6549    531.72312    443.00553   -36.090674    37401.237 
  847500    316.54159   -1469.2257    525.51932    483.88529    16.490597    37401.237 
  847600    299.46282   -1462.7091    523.89197    411.74991   -187.37862    37401.237 
  847700    303.19877    -1437.122    535.82297    466.11699   -440.19999    37401.237 
  847800    296.46112   -1467.7246    498.36073    367.66564   -241.13888    37401.237 
  847900     303.6799   -1446.0401    537.07856    460.62441   -746.32656    37401.237 
  848000    296.08049   -1447.5737    528.93447    416.67362   -679.97148    37401.237 
  848100    304.42524   -1443.3041    519.81312    449.45637    -646.8818    37401.237 
  848200    304.71244   -1407.8117    542.08265    508.51361   -157.14028    37401.237 
  848300    302.59373   -1461.8901    545.41898    448.21616   -223.86895    37401.237 
  848400    299.85835   -1482.6295    532.21393    401.93521    213.43708    37401.237 
  848500    302.23497   -1449.8895    519.08686    432.26673   -433.89244    37401.237 
  848600    307.78306   -1477.1253    533.15502    444.12075     499.2001    37401.237 
  848700    288.89529   -1488.2355    536.09398    350.76625    470.10446    37401.237 
  848800    299.25805   -1504.9173    507.26761    351.99385    55.330684    37401.237 
  848900    298.06815   -1481.5757    504.83166    367.53302     116.3235    37401.237 
  849000    304.25808   -1457.9644    492.05367    406.28277   -326.34694    37401.237 
  849100    283.56214   -1511.9079     532.5092    299.45677   -88.148542    37401.237 
  849200     286.5174   -1455.8439    512.69937    349.03908    60.112164    37401.237 
  849300     306.5553   -1499.6851    510.75114    393.61994   -20.326475    37401.237 
  849400    307.75886   -1507.2675    491.00187     371.7162   -87.384434    37401.237 
  849500    293.25606    -1495.127    509.60657     337.0543   -263.48743    37401.237 
  849600    302.97122   -1484.1603    505.02947    387.25893   -436.60705    37401.237 
  849700    307.71505   -1509.5874    497.25655    375.45344   -659.44269    37401.237 
  849800    293.24616   -1467.0662      537.606    393.06991   -438.04789    37401.237 
  849900    289.25663   -1444.2583    520.86338    381.14257   -546.68584    37401.237 
  850000    305.74587   -1486.2184    483.89005      376.575    79.379269    37401.237 
  850100    294.29292   -1538.1678    530.04255    319.12573    168.16377    37401.237 
  850200    299.47649   -1521.5044    524.08878    353.21306   -216.00989    37401.237 
  850300     300.8873   -1443.8329    521.21801    434.37643   -266.77352    37401.237 
  850400    301.55745    -1468.556    501.43357    392.89127   -519.11764    37401.237 
  850500    305.95227   -1462.9746    513.48207    430.34166     -179.095    37401.237 
  850600    307.97068   -1496.7819    486.70204    378.85729   -384.74149    37401.237 
  850700    284.07807   -1532.0372    495.70318    244.84832   -225.09779    37401.237 
  850800    293.69408   -1515.3937    500.16815    309.32464    463.76957    37401.237 
  850900     292.6268    -1513.214    512.77667    319.29947    370.25535    37401.237 
  851000    301.14434   -1506.2915    524.40987    376.26903    244.37962    37401.237 
  851100    289.91696   -1511.1164    509.05037    305.44953    391.80964    37401.237 
  851200    299.63362   -1489.7627     513.8364    375.41097   -37.578422    37401.237 
  851300    295.27996   -1505.7167    521.79653    347.78233     260.3925    37401.237 
  851400     300.2496   -1480.4926    513.00065    386.62344    816.18313    37401.237 
  851500    291.43694   -1492.0053     521.9944    344.35973    281.46921    37401.237 
  851600    305.93426   -1493.0193    517.31184    404.04552   -215.93204    37401.237 
  851700    307.53607   -1505.6199    517.05692    398.41409     157.8434    37401.237 
  851800    307.63592   -1477.5494    492.90047    402.77843    506.78013    37401.237 
  851900    310.93902   -1546.7114    499.17769    354.79056    328.62718    37401.237 
  852000    299.90248   -1523.8299    496.60366    325.32368    125.99595    37401.237 
  852100    308.00788   -1515.9434    505.89231     379.0538    298.46171    37401.237 
  852200    296.53095   -1534.4835     487.2974    290.15833   -196.84872    37401.237 
  852300    311.60772   -1532.8164    533.78828    406.31192    402.53791    37401.237 
  852400    297.28057   -1518.1242    495.35669    317.95764    72.935216    37401.237 
  852500    290.80027   -1499.5332    519.41172    331.37772    395.92514    37401.237 
  852600    304.09433    -1464.655    516.11094    422.91093   -419.65884    37401.237 
  852700    307.11969   -1505.2383    511.98987    391.85085    481.47227    37401.237 
  852800    303.11431   -1510.0799    485.34787    342.30308   -15.844488    37401.237 
  852900    291.35454   -1497.3676    499.92577    316.55715   -285.75194    37401.237 
  853000    303.22426   -1502.6293    503.18129      368.083   -696.31635    37401.237 
  853100    295.35994   -1516.0404    495.12012    311.14289   -1079.7365    37401.237 
  853200    313.16769   -1549.7987    481.15808    343.73489   -54.745669    37401.237 
  853300    304.00252   -1574.9994    513.51744    309.55896    378.17506    37401.237 
  853400    293.50806   -1567.3264    500.37013    256.75498   -482.24574    37401.237 
  853500     291.4346   -1535.5669    489.37274    268.16583   -805.14164    37401.237 
  853600    302.43393   -1521.5684    500.02731     342.4255   -516.97263    37401.237 
  853700    298.84271   -1507.8674    500.86508    340.76807   -965.99053    37401.237 
  853800    296.08243   -1508.2956    500.71979    327.74579   -889.84762    37401.237 
  853900    303.41697   -1498.5179    500.88405    370.76624   -313.98673    37401.237 
  854000    303.55264   -1509.9553    495.57209    354.62872    407.11064    37401.237 
  854100    308.61752   -1561.8975     513.7067    343.66358   -70.584318    37401.237 
  854200     298.6355   -1518.0631    525.54525    354.31792    345.21044    37401.237 
  854300    302.92816   -1523.4119    539.73347    382.51713    242.02592    37401.237 
  854400    299.95271    -1536.635    527.15348    343.29494    637.26246    37401.237 
  854500    301.97942   -1540.1097    492.05574    313.86281    135.97877    37401.237 
  854600    294.20171   -1514.2413    506.35999    318.95821   -70.509089    37401.237 
  854700    303.66105   -1534.8243    512.55718    347.23382   -175.20574    37401.237 
  854800    307.60054     -1509.72    473.55311    351.10097   -571.44451    37401.237 
  854900     310.5011   -1555.5514    477.58543    322.38335   -252.41972    37401.237 
  855000    292.48456   -1571.2869    498.20289    246.01134    130.41616    37401.237 
  855100     293.7622   -1559.5208    490.61786    255.95449     89.34104    37401.237 
  855200    314.56095   -1587.7432    495.70824    326.62411    185.70743    37401.237 
  855300    300.90048    -1529.717    485.76517    313.09895    234.58127    37401.237 
  855400    299.98985   -1481.3364    542.59163    414.19907   -350.07924    37401.237 
  855500    303.71972   -1461.9835    481.20419    388.98622   -9.8495025    37401.237 
  855600    304.83694   -1500.8277     522.9168     396.8932    -816.7606    37401.237 
  855700    297.74607   -1484.0563    513.43404    372.20227   -321.78479    37401.237 
  855800    297.79881    -1493.863    506.69569    355.89511   -633.09871    37401.237 
  855900    302.57094   -1536.7604    491.45331    319.27743   -551.97795    37401.237 
  856000    311.45116   -1518.9384    519.83999    405.53557   -201.46638    37401.237 
  856100    305.11853   -1494.1311    494.93316    376.87614   -228.39816    37401.237 
  856200     292.0618   -1503.6091     495.4258    309.00533   -135.82091    37401.237 
  856300    301.54645   -1531.1586    516.68986    345.49535     177.4419    37401.237 
  856400    298.20529   -1481.7441    511.85084    375.00238   -135.77621    37401.237 
  856500    294.73619   -1493.7395    466.05386    301.56445   -128.65745    37401.237 
  856600    302.54492   -1505.5193    511.80092    370.74877   -374.85036    37401.237 
  856700    301.60675   -1524.0418    464.33456    300.52888    841.76589    37401.237 
  856800    312.02536   -1512.9096    513.40142    407.71545    848.09256    37401.237 
  856900    300.48042   -1491.8139    520.52221    383.86465    750.40302    37401.237 
  857000    310.91288   -1498.0991    501.98851    406.09586    327.57793    37401.237 
  857100    306.20881   -1484.5733    524.61651    421.03442   -10.915726    37401.237 
  857200    301.04921    -1505.883    496.11761    347.95616   -115.32704    37401.237 
  857300    298.80042   -1497.8408    526.59084    376.32963    232.46206    37401.237 
  857400    296.64737   -1461.5067    526.46705    402.82983   -507.29918    37401.237 
  857500    303.56534   -1458.9432    527.54828    437.67427   -635.02605    37401.237 
  857600    307.17899   -1464.4478    518.65648    439.57537    215.56183    37401.237 
  857700    298.37148   -1453.3693    516.02174    408.29758   -236.96827    37401.237 
  857800    296.73181    -1513.546    517.02209    341.72638   -459.80866    37401.237 
  857900    301.56091   -1458.2043    521.02021    422.84527    91.501976    37401.237 
  858000    308.55597   -1443.6811    533.26872    481.16437    491.78881    37401.237 
  858100    309.70736   -1455.0331    516.60851    458.34494     352.1719    37401.237 
  858200    302.01476   -1495.7543    517.03887     383.3607    270.16392    37401.237 
  858300    302.60904   -1519.4606     512.3388    357.63456     197.6491    37401.237 
  858400    302.59658   -1465.7768     524.0157    422.93903    131.32502    37401.237 
  858500    303.27092   -1481.0722    502.33778    389.00699   -454.18111    37401.237 
  858600    297.13758   -1477.0655    522.54404    385.55881   -528.66204    37401.237 
  858700    299.20433   -1444.2455    534.79476    439.95047   -238.43465    37401.237 
  858800    307.91174   -1478.0682    519.97301    430.57616     201.3748    37401.237 
  858900      301.373   -1510.9538    518.17717    366.40521   -197.23471    37401.237 
  859000    292.34252   -1465.3616    522.58584    375.67897    306.63623    37401.237 
  859100    309.44548    -1472.535    537.12943    460.18293    157.84727    37401.237 
  859200     300.4961   -1488.0698    535.76674    402.92408    192.94361    37401.237 
  859300    307.25443   -1509.9231    512.95966    388.74343    508.94261    37401.237 
  859400     295.6201   -1452.5147    541.21913    421.94093    248.22807    37401.237 
  859500     295.9609   -1478.5235    525.19504    381.44501    617.44606    37401.237 
  859600    299.87545   -1458.3611     524.2865    418.35336    615.08804    37401.237 
  859700    308.64853   -1517.0332    514.07839    389.03946    138.75738    37401.237 
  859800    307.90861   -1587.7143     519.4666    320.40951    7.5438602    37401.237 
  859900    300.14135   -1517.1455    513.71774    350.19941     128.4123    37401.237 
  860000    302.14476   -1535.7224    495.31931    322.25943    314.13953    37401.237 
  860100    311.50499   -1509.0644    515.71517    411.52751   -124.50009    37401.237 
  860200    302.49123   -1537.8948    497.48409    323.81431    234.19222    37401.237 
  860300    303.31313   -1521.8628    542.82467    388.89364    378.05261    37401.237 
  860400    294.79354   -1542.0641    517.01008    304.45472    734.28347    37401.237 
  860500    303.29243   -1462.7002    515.05665     420.1949    497.41799    37401.237 
  860600    287.17954   -1523.9107    516.62621    287.88532    4.0940301    37401.237 
  860700     294.1694   -1513.7413    502.77403    315.72661   -109.43216    37401.237 
  860800    305.43295    -1494.309    497.52289    380.70601    172.02488    37401.237 
  860900    295.62207   -1491.4638    512.58942    354.37094   -283.79995    37401.237 
  861000    293.99955   -1539.3578    523.73503    310.30505   -96.153238    37401.237 
  861100    295.36299   -1542.0151    516.27766    306.33949    887.47329    37401.237 
  861200     292.0057   -1519.4244    537.96596    335.47718    541.81326    37401.237 
  861300    300.27506   -1530.0312    510.85967    335.05863    88.877828    37401.237 
  861400    302.23802   -1541.8262    516.16769    337.42454    270.69958    37401.237 
  861500    309.11536   -1517.9183     522.5239    398.70527    52.663943    37401.237 
  861600    302.68258   -1479.4662    489.56532    375.18711   -360.96624    37401.237 
  861700     292.9039   -1536.8243    501.40419    285.56638   -155.91292    37401.237 
  861800    310.77355   -1558.8879    498.10693    340.79702   -497.97609    37401.237 
  861900    300.85668   -1474.3191    481.96495    364.49915   -769.71135    37401.237 
  862000    295.91911   -1487.0889    488.45703    335.95318   -611.33466    37401.237 
  862100    310.05649   -1516.4484    509.18015    391.07582   -426.66398    37401.237 
  862200    299.47843   -1527.3783      522.415    345.67409   -32.521766    37401.237 
  862300    305.32878   -1543.5063    527.17893     360.6949    845.45311    37401.237 
  862400    294.84338    -1487.019    505.07712    347.79158    198.68875    37401.237 
  862500    302.25304   -1515.4944     514.6724    362.32881    449.61302    37401.237 
  862600    291.21546   -1536.7188    472.26207    248.91499    44.518846    37401.237 
  862700    305.14433   -1497.3208    524.98779    403.85743   -315.32127    37401.237 
  862800    299.77659   -1515.1649    505.02871    341.84592    68.064521    37401.237 
  862900    295.09443   -1497.6543    511.09972    344.31115   -592.14025    37401.237 
  863000    308.83352   -1521.8667    492.90891    363.87078   -394.63538    37401.237 
  863100    289.04007   -1499.2412    496.73986    301.05943   -214.95898    37401.237 
  863200    310.50188   -1519.5786    501.74807    382.52226    43.773576    37401.237 
  863300    298.74195   -1542.3571    490.73051    295.68932    198.58063    37401.237 
  863400    296.35694   -1556.2199    522.38572    302.72544    266.75474    37401.237 
  863500    294.43836   -1564.6572    500.80135    264.05097    94.746301    37401.237 
  863600    295.01596   -1570.0692    488.74971    249.19238    635.45742    37401.237 
  863700     294.9358   -1557.8692    493.52111     265.8022    116.45588    37401.237 
  863800     301.9246   -1531.3859     504.7123      334.996   -121.26515    37401.237 
  863900    284.61024    -1541.849    499.10538    240.83877   -491.96168    37401.237 
  864000    307.42799   -1510.5445    517.51964    393.46482   -262.96136    37401.237 
  864100    293.65046   -1574.5814    500.86655     250.6386    65.206204    37401.237 
  864200     293.2468   -1561.2573    493.82064    255.09633    209.54019    37401.237 
  864300    295.86453   -1502.0512    507.03888    339.32656    -257.4949    37401.237 
  864400    308.82326   -1519.0893    493.67603    367.36905   -811.64272    37401.237 
  864500    301.24457   -1501.4498    517.84758    375.00047   -336.06348    37401.237 
  864600    306.69824   -1538.1532    485.09928    330.14456   -192.83218    37401.237 
  864700    302.21006   -1556.4618     511.2804    317.77561   -123.47933    37401.237 
  864800    295.11915   -1517.2229    511.02744    324.78172     24.55306    37401.237 
  864900    304.09875   -1484.2165    510.20167    397.46011   -330.49766    37401.237 
  865000    291.34311   -1529.9003    529.53813    313.58519   -337.26877    37401.237 
  865100    302.13561   -1551.6117    504.22613    315.23566   -217.64386    37401.237 
  865200    297.55737   -1535.1283     507.6854    314.53062     156.8027    37401.237 
  865300    299.48692   -1532.3474    494.95483    313.28318    315.22672    37401.237 
  865400    296.38307   -1511.0167    516.72897    342.38973    127.92936    37401.237 
  865500    297.55622   -1478.9839    524.35063    387.33508    37.780148    37401.237 
  865600    298.68102   -1519.2501    476.52943    304.32045   -65.212276    37401.237 
  865700    307.72102   -1524.2164    519.87706    383.47188    -151.4471    37401.237 
  865800    306.74203   -1528.8002    534.25031    388.84609    317.52046    37401.237 
  865900    295.51489   -1498.7097    516.56089    350.61322   -535.31739    37401.237 
  866000    295.34086   -1468.4239    515.51699    379.07017   -230.23352    37401.237 
  866100    296.69824   -1501.2701    517.80482     354.6336   -491.95945    37401.237 
  866200    300.17596    -1541.426    503.56077    315.91798   -508.54122    37401.237 
  866300      300.936   -1545.6762     519.9124     331.4472    -187.7061    37401.237 
  866400    308.52395   -1483.8776    487.17868    394.73349    15.912089    37401.237 
  866500    300.71445   -1518.3607    492.78571     330.6369   -246.19098    37401.237 
  866600     286.1827   -1537.1068    502.66707    256.23441   -683.11531    37401.237 
  866700    289.15868   -1526.0829    497.05266    275.06543   -484.89194    37401.237 
  866800    296.89561   -1535.8862    526.03342    329.13622    -990.7407    37401.237 
  866900    292.26924   -1491.6292    547.65065    374.14571   -540.68983    37401.237 
  867000    305.38539   -1507.5518    509.26384    378.98969   -434.49287    37401.237 
  867100     297.7086   -1488.2628    523.66133    378.05404   -381.38257    37401.237 
  867200    295.11884   -1461.3975    508.22961    377.80793    -112.8764    37401.237 
  867300    302.68298   -1500.6062     506.6227    371.10631   -726.40771    37401.237 
  867400    295.99833   -1533.4424    480.62408    282.12394   -240.40031    37401.237 
  867500    302.01009   -1522.5274    529.84952    369.37729    365.57752    37401.237 
  867600     288.1872   -1545.0267    486.39227    241.07994   -159.54251    37401.237 
  867700    306.92324   -1521.0741    532.58708    395.72623   -166.05785    37401.237 
  867800    300.04522   -1533.9587     519.6231    338.85799    123.71243    37401.237 
  867900    301.75804   -1509.7015    497.02503    348.24191   -462.62649    37401.237 
  868000    294.54943   -1571.7487    513.84034    270.49946   -62.288423    37401.237 
  868100      295.729   -1526.4572     511.2894    318.55983    262.75461    37401.237 
  868200    301.37878   -1530.2219     491.5598    320.54581    262.66788    37401.237 
  868300    300.82719   -1558.0209    507.92916    306.62856   -132.96755    37401.237 
  868400    312.91852   -1571.4038    492.27303    332.12099    608.31965    37401.237 
  868500    290.03746   -1559.1843     508.5406    257.41521   -301.15706    37401.237 
  868600     306.3673   -1551.9824     509.9654    339.68899   -341.59857    37401.237 
  868700    292.68049   -1581.2039    516.59612    255.37116   -177.33409    37401.237 
  868800    296.54385   -1564.6322    473.30626    246.07659   -314.11283    37401.237 
  868900    305.11093   -1560.2384    521.87262    337.67401   -654.94197    37401.237 
  869000    310.47484   -1580.0872    489.61687    309.76057   -907.42452    37401.237 
  869100    299.15689   -1550.0644    537.81308    336.93595   -514.23554    37401.237 
  869200    290.22614   -1514.1607    512.12925    306.87847   -840.66797    37401.237 
  869300    303.56023   -1568.7484    494.62523    294.92305   -1007.0356    37401.237 
  869400    295.31837    -1546.276    499.04174    284.64141   -268.59804    37401.237 
  869500    302.84018   -1544.2358    522.89463    344.45767    319.60089    37401.237 
  869600    291.84568   -1545.3871    480.31413    251.14096    97.317344    37401.237 
  869700    300.58621   -1567.7548    501.74679    289.62543   -287.42933    37401.237 
  869800    292.70617   -1514.7133    506.24815    311.62964    246.63628    37401.237 
  869900    296.41023    -1515.021    524.37697    346.15596    315.73374    37401.237 
  870000    304.35157   -1518.5073    516.62021    370.72803    764.64383    37401.237 
  870100    303.31369   -1577.5635    505.73568    296.10645    730.55611    37401.237 
  870200    305.93754   -1560.9136    517.71749    336.57161    409.13467    37401.237 
  870300    295.67719   -1514.7791    517.83353    336.54837    39.253404    37401.237 
  870400    309.33401   -1497.2063    485.31291     383.1923   -451.73466    37401.237 
  870500    308.42398   -1549.5376    507.77793    349.22189    260.36692    37401.237 
  870600    301.26445   -1540.8993     530.6562    348.44921   -298.83973    37401.237 
  870700    296.90949   -1477.1058    496.70887     358.6547   -30.299982    37401.237 
  870800    287.97343   -1486.0633    518.59328    331.28025   -325.19067    37401.237 
  870900    297.74824   -1511.1146    471.07153    302.79128   -666.59246    37401.237 
  871000    305.76363   -1498.2323    488.70639    369.45753   -62.814569    37401.237 
  871100    293.44715   -1523.0747     499.8982    300.26004    -504.3935    37401.237 
  871200    287.26987   -1510.9522    517.01632    301.64132   -2.1735168    37401.237 
  871300    301.66273   -1495.7555    523.86377    388.59679    68.419009    37401.237 
  871400    297.58008   -1470.8268    529.71299    400.96208    350.14666    37401.237 
  871500    295.71664   -1452.5138    506.11236    387.27042   -72.124708    37401.237 
  871600    297.34535   -1487.6607    509.47533     362.8319    189.27729    37401.237 
  871700    301.45771   -1472.8407    530.04529    416.76851   -77.702376    37401.237 
  871800    308.82349    -1510.786    497.87938    379.87669    333.18726    37401.237 
  871900    300.88491    -1531.646    514.10523    339.43982   -4.7492088    37401.237 
  872000    308.22093   -1517.3269     535.4603    408.19916   -145.07557    37401.237 
  872100     299.4954   -1510.5314    472.36996    312.55251   -247.53184    37401.237 
  872200    298.25469   -1511.0245    508.72154    342.81541   -294.66705    37401.237 
  872300    289.94196   -1509.3992    505.43643    303.66552   -1082.9669    37401.237 
  872400    295.40056   -1550.9333    477.96151    259.27461   -598.90097    37401.237 
  872500    309.43945   -1530.6212    519.01689    383.95698     -664.148    37401.237 
  872600    292.96459   -1489.8362    494.90506     326.3291    10.852691    37401.237 
  872700     289.6159   -1511.5112    490.00779     284.6543    102.63061    37401.237 
  872800    293.08139   -1530.0547    502.47848    294.21073   -318.27739    37401.237 
  872900    304.26321   -1541.5157    468.86337     299.5643    157.72504    37401.237 
  873000    292.69771   -1534.2855    510.19205    295.96319   -325.28121    37401.237 
  873100    302.56513    -1454.858    515.21681    424.91714    70.889725    37401.237 
  873200    301.50382   -1471.6186    476.81711    364.97037    404.05221    37401.237 
  873300    303.23614   -1514.5831    548.74238     401.7438    332.63453    37401.237 
  873400    291.30269   -1510.2874    487.36914    290.84685    359.09482    37401.237 
  873500    296.82441   -1497.5073    503.39067    344.55126    24.646881    37401.237 
  873600    317.94723   -1518.0839    508.31098    424.15814    -87.61372    37401.237 
  873700    302.80625   -1562.9755    490.83235    293.50264    662.72676    37401.237 
  873800    293.01118   -1536.2997    521.57267     306.7433     209.4081    37401.237 
  873900    294.52488   -1511.9089    488.92979    305.31797    152.49729    37401.237 
  874000    292.22248     -1492.84    500.24403    325.31735   -282.00579    37401.237 
  874100    309.57906   -1495.9839     516.6706     416.8776   -543.29925    37401.237 
  874200     310.0516   -1513.8269    506.85894    391.35415   -313.75335    37401.237 
  874300    295.19422   -1483.5004    534.47462    382.28995   -721.39679    37401.237 
  874400     306.6881   -1485.3111    506.89265    404.73435   -196.84907    37401.237 
  874500     301.8261   -1469.3064    491.21977    383.13871   -280.66447    37401.237 
  874600    307.58061   -1510.9542    513.31078    389.53452    457.61966    37401.237 
  874700    296.10698   -1521.7158    493.05472    306.77117     545.3985    37401.237 
  874800    296.08912   -1547.8875    493.71457    281.17876    428.45466    37401.237 
  874900     303.4846   -1515.3514     501.4505    354.80416     621.5166    37401.237 
  875000     294.8309   -1502.4126    488.00654    315.27118   -160.26663    37401.237 
  875100    290.81429   -1517.8817    517.63913    311.31985    344.26098    37401.237 
  875200    295.49387   -1512.3756    499.92341    320.21506    259.29229    37401.237 
  875300    302.57921   -1475.7714     509.4006    398.25106    178.79871    37401.237 
  875400    295.67136   -1486.6104    516.11272    362.96997    293.89255    37401.237 
  875500    297.05311   -1545.5074    484.34081    278.53271   -182.43021    37401.237 
  875600    302.96802   -1491.4845    481.24902    356.13983    754.05735    37401.237 
  875700    295.55153   -1489.0688    501.28302     345.1414   -71.928163    37401.237 
  875800     303.4638    -1504.131    488.77251     353.2528   -47.757577    37401.237 
  875900    309.03603   -1511.0575    503.56374    386.24805    174.43433    37401.237 
  876000    305.61047   -1513.5433    497.65503    362.40446   -63.631491    37401.237 
  876100     299.2702   -1457.6466    498.53054    390.58226    392.67046    37401.237 
  876200    310.88868   -1459.2377    501.93008    444.78962    228.04842    37401.237 
  876300    290.85149   -1448.8297    517.40949    380.31005    -275.8311    37401.237 
  876400    295.17997   -1497.0722    489.34813    323.52745   -59.257352    37401.237 
  876500    305.20657   -1498.3039    537.27923    415.44646   -436.81142    37401.237 
  876600    304.95171    -1504.455    491.14358     362.0103   -74.588182    37401.237 
  876700    310.70261   -1497.1635    499.26339    403.35801   -832.10078    37401.237 
  876800    295.96876   -1479.1466    491.95247    347.61479   -437.07088    37401.237 
  876900    297.89555    -1518.017    491.72363    317.20536   -115.61077    37401.237 
  877000    299.78706   -1487.0243    494.62364    359.62867    155.25511    37401.237 
  877100    308.73097   -1495.4767    511.11033    407.99969    308.12797    37401.237 
  877200     300.5306   -1527.0253    501.44759    329.80494   -27.486235    37401.237 
  877300    299.59653   -1485.0024    497.94488    364.11255   -348.37162    37401.237 
  877400    300.60039   -1497.8774    492.64645    350.46642   -378.78013    37401.237 
  877500    299.07127   -1490.1425    510.82527    369.48387   -75.890797    37401.237 
  877600    306.42308   -1528.3127    506.97575    360.62061    143.99717    37401.237 
  877700    301.79557   -1489.8807    514.27847    385.48545    373.02279    37401.237 
  877800    293.92702   -1478.2948     483.6231    330.92906    219.83799    37401.237 
  877900    300.82337   -1493.4509    492.21444    355.46661   -201.56768    37401.237 
  878000    304.84872   -1492.6799    503.22543     385.4028     285.0382    37401.237 
  878100     308.4889   -1502.9635    496.99867    385.30949   -469.28821    37401.237 
  878200    304.80482   -1480.8298    489.67565    383.50512   -629.74603    37401.237 
  878300    298.48704   -1479.7086    504.97239    371.43003   -831.57332    37401.237 
  878400    291.05961   -1440.7018    488.41854    360.38557   -713.33768    37401.237 
  878500    305.79821   -1460.8294    495.77497    414.08494   -395.53174    37401.237 
  878600    304.54024   -1420.1363    504.55185    457.88159   -264.04246    37401.237 
  878700    290.93827   -1457.6854    537.28859    391.72473    131.53268    37401.237 
  878800    300.59445   -1500.0912    516.16308    371.74253    318.31247    37401.237 
  878900    312.15257   -1491.9845     497.1956    413.00845     1499.535    37401.237 
  879000    303.86756   -1491.4584    510.63652    389.61032    1159.4249    37401.237 
  879100     299.9045   -1444.8021    517.84127    425.59819    616.00597    37401.237 
  879200    300.43038   -1447.7806    504.58221    411.73227    696.90147    37401.237 
  879300     306.3198   -1466.9008    517.35221    431.94313    187.64486    37401.237 
  879400    300.88322   -1426.4017    508.30682    438.87808   -557.41713    37401.237 
  879500    296.84869   -1455.1487    492.94214    376.57085    21.130638    37401.237 
  879600    298.29648   -1435.0353    513.79827    424.06985   -265.48897    37401.237 
  879700    298.97434   -1435.5681     526.5641    439.35996    216.33271    37401.237 
  879800    295.26001   -1459.1814    471.59807     344.0291    573.99492    37401.237 
  879900    299.17835   -1464.0832    493.63838    378.83924   -498.29334    37401.237 
  880000    298.34729   -1441.6318    527.11217     431.0164      173.635    37401.237 
  880100    307.32347   -1469.8576    508.20935    424.37003    220.58779    37401.237 
  880200    296.85584   -1440.1924    494.70336    393.32054   -146.56163    37401.237 
  880300    297.45952   -1448.3047    514.54172    407.76922    270.36301    37401.237 
  880400    294.02814   -1491.2573    516.51524    351.31474   -336.17159    37401.237 
  880500    303.53571   -1443.6488    492.47974    417.76654   -247.42121    37401.237 
  880600    304.13473   -1433.5654    501.82284     439.8946    46.457194    37401.237 
  880700    292.84538   -1472.3635    514.88278    363.24189   -203.07458    37401.237 
  880800    289.02938   -1472.0231    496.87696    328.36641   -215.21262    37401.237 
  880900    304.96304   -1451.7438    493.41751    417.04655   -386.83298    37401.237 
  881000    293.61198   -1456.9114    485.63174    352.90028    244.97181    37401.237 
  881100    294.21978   -1470.0198    492.51493    349.41624   -31.100313    37401.237 
  881200    290.92265    -1458.883    485.10755    338.27568    390.77816    37401.237 
  881300    297.00691   -1481.2207    494.77472    353.04496    165.28408    37401.237 
  881400     296.7908   -1497.1172    520.93806    362.33719    259.25367    37401.237 
  881500    298.77624   -1481.2008    478.28156    344.55134    297.72449    37401.237 
  881600    305.64848   -1480.0149    481.21184    379.66113    431.53586    37401.237 
  881700    302.33605   -1482.9278    502.17412    382.77152   -326.03127    37401.237 
  881800    290.90774   -1498.9328    489.01818    302.06925   -417.73416    37401.237 
  881900    300.64496   -1495.9505     474.4389    334.38681    136.63758    37401.237 
  882000    307.92548   -1451.5488    480.44052    417.62509   -293.66582    37401.237 
  882100    293.84935   -1454.6885     516.7175    387.27947   -544.64707    37401.237 
  882200    297.66121   -1451.4538     481.0617    372.04966   -18.777906    37401.237 
  882300    309.26857   -1474.7209    501.60307    421.67281    237.63489    37401.237 
  882400    296.93195    -1499.619    483.93682    323.47072   -326.20952    37401.237 
  882500    305.65376   -1498.6776    506.87571    386.68611   -258.68078    37401.237 
  882600    299.83487   -1515.6369    440.81539    277.42347    122.14308    37401.237 
  882700    302.75491   -1523.6229    487.26753    329.05888    187.16529    37401.237 
  882800    299.10223   -1523.0317     514.3141    340.22319   -123.39474    37401.237 
  882900    292.96185   -1471.1398     476.7975    326.90562    66.720307    37401.237 
  883000    297.60079   -1464.5273     538.4198    416.06182   -400.01144    37401.237 
  883100    301.75193   -1472.0547    496.46871    385.30484    -328.1184    37401.237 
  883200    298.40772   -1459.7475    489.75862    375.81966     -581.333    37401.237 
  883300     302.8728   -1472.7098    525.55502    418.79118   -601.00799    37401.237 
  883400    298.55747   -1461.0513    500.12261    385.55518    -819.9029    37401.237 
  883500    302.48433   -1485.4163    503.26928    382.04686   -522.38469    37401.237 
  883600    290.25676   -1532.8616    484.12259    260.30897   -216.12269    37401.237 
  883700    294.50334   -1487.3064    483.85419    324.74771    269.13837    37401.237 
  883800    299.77532   -1481.4201    502.17516     372.7314   -337.65629    37401.237 
  883900    303.17827   -1463.7077    493.97842    397.59428    253.49161    37401.237 
  884000    311.41547   -1484.5493    479.56337     399.4872    507.89171    37401.237 
  884100    294.87528   -1521.4113    504.23676     312.7028   -394.09318    37401.237 
  884200    302.16133   -1480.0741    481.79624    364.45935   -29.874979    37401.237 
  884300    311.80985   -1460.1708    513.81724    459.89813    104.01737    37401.237 
  884400    305.75395   -1476.9385    481.10591     383.1072    5.2706669    37401.237 
  884500    308.96615   -1478.4154    504.21681     419.2281    445.17938    37401.237 
  884600     298.4851   -1447.7121    526.13786    424.58324    513.34455    37401.237 
  884700     306.5387   -1475.9671    466.85145    373.36337   -14.523737    37401.237 
  884800    301.94383   -1421.2389     496.1822    436.69956     73.02244    37401.237 
  884900    295.21943   -1430.2336    480.89256    382.08847   -155.78544    37401.237 
  885000    308.10906   -1474.0901    510.98502    426.45618   -10.300142    37401.237 
  885100    306.73076   -1450.5791    504.87796    437.64398   -367.01967    37401.237 
  885200    291.07372   -1461.6717    493.40353    344.46431   -675.60818    37401.237 
  885300    294.31763   -1443.1808     493.9587    378.14027   -553.76009    37401.237 
  885400    306.13702   -1480.1311    466.70663    367.24299   -636.34155    37401.237 
  885500    313.58743   -1505.9677     485.4277    393.72853   -166.98496    37401.237 
  885600    299.62109   -1518.3103    489.64273     322.6133   -402.98271    37401.237 
  885700    294.90489   -1502.6176    478.81681    306.21008   -373.42744    37401.237 
  885800     300.1491   -1483.3992    475.61094    345.87382   -28.263123    37401.237 
  885900    296.66103   -1522.1315    475.14713    290.94672   -16.393108    37401.237 
  886000    302.14037   -1491.6309    472.77476    343.78654    116.82477    37401.237 
  886100    297.39433   -1502.9778     481.8942    320.15463   -576.54995    37401.237 
  886200    288.95745   -1466.3588    482.48428    319.31366   -287.85332    37401.237 
  886300    300.40811   -1462.7003    504.93357    397.06349   -390.38705    37401.237 
  886400    297.22615   -1448.7903    513.22417    404.91363   -320.17301    37401.237 
  886500    293.74355   -1476.5204    499.05382    347.30672   -577.40298    37401.237 
  886600    319.03136   -1459.3401    502.00714    481.48748   -539.71927    37401.237 
  886700    298.75599   -1457.6146    441.88572    331.65039   -684.83653    37401.237 
  886800    299.44328   -1447.5748    508.45251     411.3566    106.27162    37401.237 
  886900    289.30421   -1469.0047    492.44614    328.19346   -194.56828    37401.237 
  887000    295.23314   -1443.3833    507.64768     395.7557    -111.6572    37401.237 
  887100     302.7673    -1466.148    483.61611    382.93819    423.95696    37401.237 
  887200    298.70278   -1425.9211     501.2661    422.48427   -206.13034    37401.237 
  887300     299.1519   -1477.7005    517.82058    389.28483   -340.09105    37401.237 
  887400    299.44875   -1454.5044    488.50731     384.5065   -337.48479    37401.237 
  887500    295.29179   -1449.6297    502.35786    384.48399   -968.24289    37401.237 
  887600    296.38907   -1431.0955    491.73487    397.34382   -1025.1006    37401.237 
  887700    298.28155    -1461.653    491.95336    375.53991   -701.53192    37401.237 
  887800    298.87801   -1460.7189    493.27537    380.48603   -116.01229    37401.237 
  887900    296.84932   -1458.4439    503.56487    383.90116   -33.780824    37401.237 
  888000    287.94744   -1460.5544    492.02884    330.10752   -566.46576    37401.237 
  888100    291.82947     -1473.21    471.71639    314.64723   -240.63021    37401.237 
  888200    322.62167   -1501.0714    464.46147    418.40269    -173.1328    37401.237 
  888300    311.24347   -1521.7084    484.01496    366.00393    6.4353956    37401.237 
  888400     301.9505   -1488.6699    468.72496    341.84144   -326.85743    37401.237 
  888500     310.1682   -1449.8943    504.57481    453.52836   -254.66314    37401.237 
  888600    298.89405    -1486.407    476.10369    337.69859   -628.01145    37401.237 
  888700     297.0986   -1450.5855    476.66938    365.98836   -996.87432    37401.237 
  888800    304.13134   -1481.4801    479.45309    369.59491   -1353.3684    37401.237 
  888900    307.54489   -1456.4049    483.50488    414.11688   -1171.0235    37401.237 
  889000    302.04726   -1466.3822     474.8033    370.64388   -967.23424    37401.237 
  889100    300.91926   -1462.6389    478.22553    372.72218   -820.99717    37401.237 
  889200    300.42275   -1466.6757    483.37459    371.59512   -282.89675    37401.237 
  889300    301.29954   -1483.0392    517.98628    393.79765   -373.54232    37401.237 
  889400    292.43071   -1478.6473     472.7723    312.97746    0.4064858    37401.237 
  889500    293.17437   -1495.1657    472.07933    299.11996    269.22842    37401.237 
  889600    311.99851   -1488.9654    488.21641    406.35352    492.30153    37401.237 
  889700    304.73318   -1505.1901    483.64984     352.7959    379.15121    37401.237 
  889800    302.10764   -1465.2268    493.17073    390.43895   -87.735369    37401.237 
  889900    302.95631   -1443.0423    495.16378    418.44401    -326.9413    37401.237 
  890000    298.60911   -1479.9741    476.12616     342.8689    207.36017    37401.237 
  890100     294.7348   -1495.3468    471.49129    305.38826   -324.30014    37401.237 
  890200    301.54379   -1491.0484    491.94753    360.85122   -499.99841    37401.237 
  890300    304.35991   -1460.6235    498.60238    410.63163   -931.48797    37401.237 
  890400    304.89383   -1464.2173    501.67191     412.5153   -47.049795    37401.237 
  890500    306.00169   -1449.3706    480.17177    410.85829    329.08974    37401.237 
  890600     307.5029   -1462.3666    482.96184    407.42274    85.481969    37401.237 
  890700    308.07526   -1497.2529    502.25335    394.40931    501.28273    37401.237 
  890800    298.55396   -1513.6831    501.44877    334.23376    236.71694    37401.237 
  890900    309.43426   -1497.5766    490.24219    388.20345    477.96152    37401.237 
  891000    294.51361    -1534.055    489.64212    283.83337    472.08143    37401.237 
  891100    293.02524   -1491.4225    507.54834    337.65958    197.09804    37401.237 
  891200    293.70459   -1503.6005    498.53526    319.53237    370.64813    37401.237 
  891300    302.89601   -1498.2986    479.94795    347.69992    237.61306    37401.237 
  891400    299.93362   -1519.4494    464.81114    298.05203    239.87202    37401.237 
  891500    301.31621   -1526.9449    483.97233     315.9532    415.49576    37401.237 
  891600    306.09082   -1493.4329     475.7208    362.74699   -348.49109    37401.237 
  891700    290.38852    -1466.184    499.01626    342.47451    51.438118    37401.237 
  891800    299.47462   -1522.2423    476.76266    305.14066   -124.95645    37401.237 
  891900    303.06491   -1480.2806    508.00775    394.53942    490.49657    37401.237 
  892000    298.26675   -1508.7793    469.14795    305.54143    672.45527    37401.237 
  892100    312.08922   -1509.5207    468.29083    366.28175    677.39072    37401.237 
  892200    305.95415   -1486.2876    481.23992    374.79503    335.71205    37401.237 
  892300    308.37469   -1551.6365     500.9611    340.08384    567.57462    37401.237 
  892400    293.66864   -1515.0812    490.90515    300.25948    210.83426    37401.237 
  892500    303.60552    -1528.874     494.1199    334.49635   -198.10235    37401.237 
  892600    289.74334   -1506.6952    497.41243    297.44974    -355.8126    37401.237 
  892700    292.14147   -1555.1585    506.66058    269.05007   -818.90392    37401.237 
  892800    304.75464   -1499.9277    499.53198    374.03725   -397.01112    37401.237 
  892900    296.58316   -1535.1654    501.56321    303.97766   -512.02886    37401.237 
  893000    298.24908    -1510.169    496.41438    331.33847   -62.663559    37401.237 
  893100    301.05667   -1558.5366    471.49205    270.71071    20.925788    37401.237 
  893200    308.57831   -1518.6008    479.48792    352.56473    58.223208    37401.237 
  893300    292.48228   -1497.9226    520.48108    341.64351    258.58008    37401.237 
  893400    309.69347   -1527.5145    494.30418    363.49657     484.5861    37401.237 
  893500    296.98861     -1493.73    498.73411    344.41249    126.95951    37401.237 
  893600    306.66794   -1485.2943    514.20275    411.97028    407.92384    37401.237 
  893700    300.48921     -1527.74    485.92751    313.38356    17.809545    37401.237 
  893800    307.64674    -1514.075     502.5508    375.95201    485.23221    37401.237 
  893900    307.92382   -1456.9971    481.52657    413.25527    238.65835    37401.237 
  894000    291.92572   -1475.0854    514.58454    356.07406   -257.59953    37401.237 
  894100    312.00176   -1494.2615    483.08122    395.93697   -99.796438    37401.237 
  894200    303.54135    -1461.031    504.22544    412.15548    555.42865    37401.237 
  894300     299.8064   -1464.5702    497.72231    385.26869    525.25366    37401.237 
  894400    305.54061   -1492.4848    516.05488    401.54772    610.14724    37401.237 
  894500    291.05675   -1479.3066    511.97626    345.32557    455.93964    37401.237 
  894600    332.57014   -1489.2874    450.53064    461.12312    570.11436    37401.237 
  894700    294.22233    -1504.485     495.5256    317.97316    892.79486    37401.237 
  894800    294.91569   -1503.5149    496.15336     322.6981   -190.26673    37401.237 
  894900    299.51617   -1506.3654    502.09753     346.5397   -134.05572    37401.237 
  895000    294.57386   -1525.4022    477.64443    280.76025   -59.803991    37401.237 
  895100    302.81633   -1499.7824    489.06003    354.96885   -389.20172    37401.237 
  895200    297.91856   -1513.4152    487.40726    317.59449    69.353779    37401.237 
  895300    304.64101   -1522.6591    494.55538    345.81675    34.714616    37401.237 
  895400     307.8143   -1504.6232    516.87497    400.48368   -3.1845679    37401.237 
  895500       291.97    -1517.382    489.60176    288.99448   -10.180978    37401.237 
  895600    292.56874   -1494.7984     470.5537    295.23028    435.58427    37401.237 
  895700    313.39648   -1465.8091    476.67939    424.27764    11.232757    37401.237 
  895800    296.47903   -1493.9486    488.84489    332.00648   -4.0428871    37401.237 
  895900    301.18821   -1464.9406    498.24107    391.64895    51.666719    37401.237 
  896000    301.54931   -1456.5499     501.3572    404.78426   -365.70223    37401.237 
  896100    308.81249   -1427.2765    513.90478    479.36201   -762.82086    37401.237 
  896200    291.41125   -1447.9871    504.05002    370.31764   -151.30227    37401.237 
  896300    302.72815   -1438.7385    534.02523     460.5803    74.546494    37401.237 
  896400    298.75658   -1473.8795    498.91271    372.41509   -127.91358    37401.237 
  896500    295.74462   -1500.7948    478.43029    311.43353    438.95332    37401.237 
  896600    298.91092   -1496.5917     525.8947    377.38102     215.3097    37401.237 
  896700    309.79769   -1497.1283     479.6063    379.65496   -162.70137    37401.237 
  896800    305.51122   -1495.6518    515.78291    397.97617   -95.247267    37401.237 
  896900    294.99611   -1518.4179    523.77222    335.77662   -65.122934    37401.237 
  897000    290.58652   -1505.5578    494.05183    299.02925   -266.51643    37401.237 
  897100    291.85145   -1506.8495    495.12533    304.51588   -25.070536    37401.237 
  897200    303.28209   -1492.8645    540.30651    415.23385   -471.45308    37401.237 
  897300    295.67052   -1476.1273    466.11492    323.45149   -538.18198    37401.237 
  897400    297.39493   -1498.4951    495.41312    338.15894   -236.04766    37401.237 
  897500    290.73997   -1477.3095    507.63438    341.55213   -443.42769    37401.237 
  897600    301.83652   -1438.9453    498.77886    421.10591   -8.4622839    37401.237 
  897700    294.19239   -1435.1665    518.98896    410.62007   -671.01224    37401.237 
  897800    312.31074   -1450.9038    488.41058    446.01749   -182.91204    37401.237 
  897900    295.78595   -1466.4952    524.95415    392.44341   -332.77492    37401.237 
  898000    307.34136   -1445.5435    508.57866    449.13416   -176.56184    37401.237 
  898100    300.51096   -1459.9474    488.40862    383.75531   -347.99984    37401.237 
  898200    307.43613   -1421.0207    512.26558    477.77132   -431.21788    37401.237 
  898300    301.07435    -1461.811    510.20193    406.22582   -560.17732    37401.237 
  898400    311.30992   -1450.6793    498.87212    452.18984   -231.93299    37401.237 
  898500    298.05505   -1439.3856    511.90177    416.73425   -321.39535    37401.237 
  898600    292.72976   -1433.0139    518.68813    405.87539     111.2581    37401.237 
  898700    295.61032   -1472.5793    493.20936    353.82241   -419.46672    37401.237 
  898800    300.07395   -1474.1097    482.37983    361.59333     48.13074    37401.237 
  898900    302.84563   -1463.2828    491.06336    393.60395   -8.9730844    37401.237 
  899000    304.84206   -1462.0359    514.62314    427.41449    61.166295    37401.237 
  899100    303.65092   -1457.3663    501.30334    413.39223   -145.30853    37401.237 
  899200    301.42991   -1523.1809    487.24934    323.50691    59.590689    37401.237 
  899300    294.52589   -1479.4216    488.10887    336.98896   -62.889792    37401.237 
  899400    309.21445   -1483.4104    538.72231    449.85844    611.49784    37401.237 
  899500    303.84699   -1546.9709    499.42531    322.79383   -116.87304    37401.237 
  899600    303.48648    -1480.139    487.33616    375.91071    466.65894    37401.237 
  899700     294.0574   -1500.0243    504.38034    330.54485    -378.0347    37401.237 
  899800    300.98326   -1483.4953    516.14365     390.0725    216.23599    37401.237 
  899900    299.34512   -1491.4608    493.05449    351.62989    -59.57365    37401.237 
  900000     295.5137   -1508.0487    498.84729    323.55525   -166.78871    37401.237 
  900100    300.46117   -1469.9231    506.70236    391.84884   -527.43409    37401.237 
  900200    298.20765   -1485.9134    500.32795    359.32078    446.20728    37401.237 
  900300    296.00599     -1494.37    520.19752    360.80435        126.8    37401.237 
  900400    300.52434   -1536.0104    505.35651    324.70054    286.45135    37401.237 
  900500    305.61082   -1501.7074    495.60385     372.1908    186.27931    37401.237 
  900600    300.12707    -1478.578     483.2834    358.26816   -106.75857    37401.237 
  900700    311.42181   -1498.6969    496.27283    402.07754    345.36497    37401.237 
  900800    299.77733   -1508.7782    513.08374    356.29103     112.1372    37401.237 
  900900     297.3443   -1499.9635    509.30606    350.35511    542.86729    37401.237 
  901000    288.96453   -1463.9311    504.15668     343.4457    -149.2234    37401.237 
  901100    292.62206   -1450.2502    495.98265    365.44787    328.92293    37401.237 
  901200     301.3337   -1430.7343    491.03653    419.30683    431.86826    37401.237 
  901300    301.09507   -1496.1326    508.31344    370.10926   -81.280969    37401.237 
  901400    309.71696   -1486.1495    495.88015    406.54349    754.79652    37401.237 
  901500    303.51652   -1431.3298    496.90395    434.42328    502.39513    37401.237 
  901600    298.00643   -1439.6539    514.13786     418.4827     419.0568    37401.237 
  901700    306.72367   -1492.9227    524.32676    414.71725    391.82923    37401.237 
  901800    305.21753    -1481.705    517.10693     411.9225    878.48495    37401.237 
  901900    298.72159   -1474.9223    493.93879     366.2406    409.41583    37401.237 
  902000    304.69601   -1463.8949    503.39495    413.66856    292.52316    37401.237 
  902100     293.7299   -1467.4065    508.55303    365.85827    -309.4477    37401.237 
  902200    296.83355   -1510.0626    488.24644    316.89292   -534.65168    37401.237 
  902300    295.28952   -1503.7573    511.82805    339.81627   -344.67418    37401.237 
  902400    291.91201   -1485.0241    493.90954    325.39855    179.09721    37401.237 
  902500    301.06127   -1503.6429    491.60976    345.74286   -429.94352    37401.237 
  902600    306.20235   -1529.8545     484.2631    335.37067     157.1634    37401.237 
  902700    308.98973   -1479.8614    512.75519    426.42687   -472.77318    37401.237 
  902800     289.0894   -1466.9238    505.60168    342.46108    20.712608    37401.237 
  902900    294.62233   -1485.8257    510.70335    353.61422    10.009175    37401.237 
  903000    296.89168   -1502.4223    514.97383    351.52277    358.23078    37401.237 
  903100     306.3008   -1504.5341    495.96459    372.83659     474.3747    37401.237 
  903200    295.91276   -1504.0456    491.03556    321.54629    431.89291    37401.237 
  903300    307.20587   -1497.5576    506.74821    394.67851   -55.011138    37401.237 
  903400    294.57119   -1490.8793    526.44793    364.07453   -282.85223    37401.237 
  903500    296.91977   -1449.9573    496.87642    386.01706   -95.683911    37401.237 
  903600    298.46409   -1460.2088    498.97261    384.82656   -339.05862    37401.237 
  903700    297.72858   -1435.6197    505.89207    413.01801   -502.52123    37401.237 
  903800    308.79317   -1434.5806    508.43138    466.49739   -377.74242    37401.237 
  903900    303.01937   -1424.3522    510.92386    453.17862   -711.71337    37401.237 
  904000    287.73382   -1448.1832    516.65358    366.14004   -322.38648    37401.237 
  904100    306.02029   -1443.3259    500.30986    437.12496   -330.50965    37401.237 
  904200    309.41628   -1423.1947    503.38836    475.65043   -391.33748    37401.237 
  904300    300.10006    -1466.045    514.13882    401.53473   -399.14689    37401.237 
  904400    300.18369   -1469.7907    536.51678    420.54422   -274.23415    37401.237 
  904500    300.74493   -1491.8011    509.33684    373.88509   -147.00482    37401.237 
  904600    307.74943    -1566.841    491.76723    312.86563    -276.0141    37401.237 
  904700    295.53533   -1536.6704    508.55584    304.73959    426.80529    37401.237 
  904800    303.18481   -1511.1168    500.97762    357.21386    400.23737    37401.237 
  904900    297.21074   -1530.7931    514.16025    323.77734   -173.63177    37401.237 
  905000    294.48314   -1529.9799    495.94182    294.07074     132.0075    37401.237 
  905100    298.53494   -1480.3677    512.22406    378.23867    856.95353    37401.237 
  905200    302.11179   -1504.2038    505.36761    363.67754    598.14217    37401.237 
  905300    300.36358   -1495.8561    492.93514    351.70843   -99.655038    37401.237 
  905400    296.74053   -1472.9372    484.62462    349.97704    449.91891    37401.237 
  905500    301.33129   -1495.4619     511.6402    375.17202   -501.20845    37401.237 
  905600    294.63234   -1513.8674    478.78598    293.70028   -524.63971    37401.237 
  905700    300.23611    -1496.343    499.54055    357.25206    -243.6271    37401.237 
  905800    296.63221   -1473.4609    506.01124    370.35141   -500.87309    37401.237 
  905900     293.9755   -1489.4633    521.32345    357.67952   -376.82547    37401.237 
  906000    299.97907   -1471.9016    536.50894    417.50264   -353.45921    37401.237 
  906100    296.06327   -1494.5743    475.82277    316.48358    199.07187    37401.237 
  906200    304.58187   -1531.1995    491.12082    333.57512    147.71003    37401.237 
  906300    291.11481   -1483.4071    507.57173    337.08242    560.97844    37401.237 
  906400    293.23225   -1504.2367    479.35157    297.58219    484.15607    37401.237 
  906500    308.40288   -1480.7283    492.98491    403.14302     382.0785    37401.237 
  906600    291.30758   -1502.5161    510.72908    322.00017   -271.37088    37401.237 
  906700    298.01292   -1529.0853    485.94448    300.88721    71.555689    37401.237 
  906800    302.62693   -1496.7539     501.4755    369.55866    23.554822    37401.237 
  906900    296.62131   -1468.9024    494.89952    363.74904    -398.1901    37401.237 
  907000    303.79647    -1473.072    489.40835    386.44803    246.73114    37401.237 
  907100    299.06271   -1465.3123    499.17591    382.62618     -28.5139    37401.237 
  907200    296.54421   -1464.0487    520.85582    394.21132   -234.14121    37401.237 
  907300    294.38091   -1459.2832    490.31674    358.68129   -593.13491    37401.237 
  907400    302.62954   -1478.5195    486.78025    373.10959    487.14523    37401.237 
  907500    306.55644   -1509.1577    492.14261    365.54395    70.820219    37401.237 
  907600    286.17612   -1500.0364    483.22499    273.83309   -287.20097    37401.237 
  907700    302.03597   -1471.8423     505.0709    395.40044    2.3320235    37401.237 
  907800    296.47764   -1484.0182    498.90694    351.99268    83.149137    37401.237 
  907900    298.32117   -1479.7985     497.8607    363.48047   -28.057565    37401.237 
  908000    303.92059   -1437.0702    490.40664    424.00781    376.72378    37401.237 
  908100    303.12523   -1405.5799    518.86476    480.36927    30.929598    37401.237 
  908200    299.90645   -1417.2082    502.58035    437.93988   -192.40696    37401.237 
  908300    310.41727   -1449.3144    505.16419    455.82097   -416.01797    37401.237 
  908400    302.12204   -1478.7338    516.26885    400.09503    134.86656    37401.237 
  908500    290.16842   -1463.3593    474.39647     319.6868   -11.030818    37401.237 
  908600    302.27498   -1457.8724    486.83197    392.20933    370.68196    37401.237 
  908700    293.82612   -1454.9381    475.67447    345.88208    404.41527    37401.237 
  908800    304.02349   -1489.2978    500.98646    382.82414    375.19054    37401.237 
  908900    306.75103    -1485.624    502.40656    400.21917   -53.024848    37401.237 
  909000      298.242   -1466.2629    504.53922    383.33753     318.1647    37401.237 
  909100    296.13409   -1494.2921    501.37711    342.63953    793.60896    37401.237 
  909200    296.34844   -1502.1919     499.5553    333.88466    389.77646    37401.237 
  909300     304.2569   -1479.3078    513.40718    406.28753   -41.407752    37401.237 
  909400    302.03315   -1504.8395    501.51305    358.83264   -14.508964    37401.237 
  909500    295.71231   -1500.0832    478.26593    311.83506   -269.37781    37401.237 
  909600    306.49142    -1482.591    509.02709    408.70184    -499.8838    37401.237 
  909700    292.29936   -1483.4109     488.3331    323.18229   -269.32482    37401.237 
  909800    303.62258   -1432.9988    519.38675    455.71533   -65.051545    37401.237 
  909900    303.14379   -1429.2405    486.19742    424.12502    30.406727    37401.237 
  910000    300.56759   -1470.2023    499.77135    385.11853    39.978493    37401.237 
  910100    292.21363   -1447.9641    503.42333    373.33263   -823.77929    37401.237 
  910200    302.54374   -1435.7446    493.14763    421.86487     -636.488    37401.237 
  910300    301.44532   -1469.5414    501.74812    391.71477   -205.18435    37401.237 
  910400    304.98123   -1464.7648    520.16619    430.85627   -666.90569    37401.237 
  910500    299.86622   -1427.1088    490.46507    415.74264   -690.58168    37401.237 
  910600    302.49861   -1457.4837    514.23382    421.00846   -74.945357    37401.237 
  910700    304.05197   -1467.8365     510.0953    413.52276   -69.180867    37401.237 
  910800    294.69469   -1466.8399    536.71623     398.9392     93.12033    37401.237 
  910900    302.21957   -1457.1407    507.02243    412.88155    78.318961    37401.237 
  911000    292.59216   -1491.1638    502.19828     330.6151    340.66559    37401.237 
  911100    303.78494   -1485.8346    506.98505    391.21012    229.51604    37401.237 
  911200    297.49453   -1472.0796     511.2207    380.83118   -150.60292    37401.237 
  911300    300.76185   -1426.2692    539.16626    469.32266    55.104939    37401.237 
  911400    308.42104   -1447.4886    502.13126    445.61093   -468.45414    37401.237 
  911500    303.91582   -1473.9589    505.96425    402.65524   -605.16465    37401.237 
  911600    304.01678   -1459.8597    506.19068    417.43617   -878.87681    37401.237 
  911700    300.96116   -1416.3101    494.61025    435.62469   -192.59218    37401.237 
  911800    309.22853   -1424.3629    524.07151    494.31865   -865.97381    37401.237 
  911900    306.24913   -1453.1971    507.33023    435.30617   -613.18663    37401.237 
  912000    307.97382   -1499.4192    503.24233     392.7745   -203.92031    37401.237 
  912100    307.73325   -1468.2819     536.5849    456.16935    38.040451    37401.237 
  912200    293.72087   -1465.9384    523.62547    382.35812    84.263052    37401.237 
  912300     307.9544   -1478.1549    518.26742    428.97626    322.33743    37401.237 
  912400    303.10731   -1489.3576    484.73025    362.37625    443.89259    37401.237 
  912500    311.12551   -1452.6253     543.1238    493.66379    158.80547    37401.237 
  912600    287.77601   -1450.5444     504.3918    351.70731   -38.518388    37401.237 
  912700    305.26386   -1449.8268    519.75072    446.65344     555.5778    37401.237 
  912800    297.12422   -1421.7456    522.22491    440.49935    803.90221    37401.237 
  912900    305.17317   -1441.7415    487.63777    422.21674    784.79724    37401.237 
  913000    305.05891   -1463.0964    516.78796    429.49677     401.3224    37401.237 
  913100    299.60759   -1461.9925    485.09685    374.32432   -60.421161    37401.237 
  913200    309.06045   -1479.2528    505.26033    419.85953   -569.23897    37401.237 
  913300    300.10606   -1428.7901    537.91555    462.59345    247.80235    37401.237 
  913400    301.55956   -1436.7569     493.4602    416.72651   -257.64778    37401.237 
  913500    305.06205   -1438.2526    508.72826    446.29495   -217.32987    37401.237 
  913600    297.51018   -1468.0142    499.81992    373.56638   -446.24917    37401.237 
  913700    299.66955   -1435.2963    521.25731    437.46038   -133.98165    37401.237 
  913800    301.55812   -1435.7742    519.74709    443.98965   -5.3251497    37401.237 
  913900    299.90929   -1411.8806    526.23373    466.93369   -8.6869487    37401.237 
  914000    305.79304   -1455.4359    505.81866    429.49882    610.14856    37401.237 
  914100    297.11776   -1488.3504    507.91108    359.55159    386.22087    37401.237 
  914200    295.93274   -1474.1809    510.63796     371.1035    645.44068    37401.237 
  914300    304.89831   -1522.2009    523.44907    376.32905     58.49374    37401.237 
  914400    312.31536   -1507.4726    495.79195    396.85086    191.20861    37401.237 
  914500    296.00022   -1467.8461    491.67106    358.77574    382.29023    37401.237 
  914600    307.44928   -1520.5458    523.90578    389.94569    79.603238    37401.237 
  914700    310.39281   -1478.8901    522.75698    443.72777   -233.77323    37401.237 
  914800    291.50422   -1486.8357    504.74802    332.58638   -223.16981    37401.237 
  914900    299.43552   -1510.7988    478.36526    318.01038     71.45612    37401.237 
  915000    301.99062   -1520.2133    475.97929    317.73326    443.05928    37401.237 
  915100     296.7457   -1482.5554    498.88735    354.64488   -52.431806    37401.237 
  915200    292.45896   -1509.8243    498.86752    308.02307    119.74208    37401.237 
  915300    292.59955   -1500.6604    505.14573    324.09925   -363.46276    37401.237 
  915400    309.32087   -1511.8764    506.27189    389.42195   -19.124127    37401.237 
  915500    290.58189   -1509.1329    514.03403    315.41548    159.37738    37401.237 
  915600    301.38263   -1506.8274    524.32725     376.7251    212.07523    37401.237 
  915700    305.73774   -1518.5671    512.03304    372.33258   -85.888166    37401.237 
  915800    296.62272   -1441.4234     523.6544    419.98924    716.77782    37401.237 
  915900    309.83607   -1468.7053    497.85487    426.49961       428.56    37401.237 
  916000    305.77389   -1466.9657    507.51244    419.57646    -350.5693    37401.237 
  916100    300.58518   -1441.4118     495.1691    409.38608   -78.790603    37401.237 
  916200     295.2292     -1520.58    499.88493     310.7785    12.070863    37401.237 
  916300    300.35163   -1519.6251    481.99757    316.94795   -364.69424    37401.237 
  916400    295.53121   -1512.5071    484.61464    304.94312   -8.4571964    37401.237 
  916500    290.94899   -1509.6619    487.66874    290.17683    53.456823    37401.237 
  916600    304.38491   -1537.5903     499.3873    334.56247   -347.74736    37401.237 
  916700     293.2455   -1506.9014    463.38371    279.00939   -550.62124    37401.237 
  916800    305.91806   -1514.5899    494.05045    359.14054   -13.181797    37401.237 
  916900    310.38313   -1500.5945    518.46536    417.68807    155.70372    37401.237 
  917000    301.36768   -1519.9149    492.96281     332.2058     -302.914    37401.237 
  917100    304.90577    -1488.824    495.89041    382.18096   -587.45294    37401.237 
  917200    291.72096   -1499.5145    481.75746    297.89446   -462.78285    37401.237 
  917300    296.32063   -1479.6534    508.58192    365.32431   -685.71595    37401.237 
  917400    305.56686   -1520.1817    484.60876    342.52312   -289.43508    37401.237 
  917500    295.95553   -1482.3837    487.75019     340.1158   -338.78806    37401.237 
  917600    289.85724    -1489.431     505.6695    323.48469     567.3102    37401.237 
  917700    303.22462   -1489.0269    484.11468    362.62034    282.93307    37401.237 
  917800    299.69971    -1477.821    493.31022    367.12464    193.23059    37401.237 
  917900    297.16436   -1486.0658     495.7548    349.89004    289.13785    37401.237 
  918000    302.01694   -1492.1912    515.05326    384.94805     306.7771    37401.237 
  918100    300.16784   -1515.2865    485.22487    323.68498    223.93179    37401.237 
  918200    301.82876   -1472.4668    489.19067    377.96119    30.310798    37401.237 
  918300    300.24521   -1442.3732    515.88224    427.60466   -376.22784    37401.237 
  918400    308.73436   -1453.2712     474.1683    413.27846    180.47067    37401.237 
  918500    290.91832   -1476.2484    513.46086    349.24404   -192.47783    37401.237 
  918600    295.29676   -1453.1121    512.82358    391.48967    -314.3313    37401.237 
  918700     307.9599   -1460.5099    490.05906    418.43768    132.72472    37401.237 
  918800    288.42132   -1472.4102    500.04367    328.40366   -222.80604    37401.237 
  918900    300.65026   -1441.7197    511.13704    425.33968   -390.48246    37401.237 
  919000    301.31237   -1463.8741     512.9242    407.95855   -873.25781    37401.237 
  919100    286.45231   -1475.0137    483.00102    299.87733    225.03452    37401.237 
  919200    296.76073   -1495.9668    477.67664    320.09053      210.161    37401.237 
  919300     298.7496   -1442.2837    507.51915    412.58589     335.1914    37401.237 
  919400    312.99347   -1470.5966    503.30278    444.29597    21.806943    37401.237 
  919500    295.33446   -1457.8667    507.15235    381.23394   -181.31257    37401.237 
  919600    291.34088   -1445.2713    515.52385    384.18994   -493.38116    37401.237 
  919700    293.34493   -1457.6278    498.53146    363.87915   -959.52541    37401.237 
  919800    298.45362   -1483.0397    502.37044    365.34627   -727.75568    37401.237 
  919900    288.70053   -1456.6262    462.10583    307.50902   -31.997336    37401.237 
  920000    296.68932   -1491.0027    517.94366    364.99963   -49.642173    37401.237 
  920100     302.5945   -1460.9448    537.04824    440.79423    163.01572    37401.237 
  920200    299.28369   -1477.5582    489.46228    361.66324   -109.72623    37401.237 
  920300    294.27304   -1489.5661    502.62623    340.22145   -456.43049    37401.237 
  920400     309.4274   -1489.2857    506.19208    412.41333     55.85821    37401.237 
  920500    299.54006   -1529.6721     497.2872    318.53051    4.5232223    37401.237 
  920600    297.77597   -1481.5731    485.76288    347.14911    138.57875    37401.237 
  920700    306.20067   -1531.3865    471.17442    320.74242   -285.36401    37401.237 
  920800    299.95212   -1541.4735    489.03675    300.33699   -39.521254    37401.237 
  920900    295.32398   -1520.4011    516.09374    327.59361   -360.10813    37401.237 
  921000    306.01136   -1512.0696    470.20826    338.23938    68.391158    37401.237 
  921100    305.33436   -1474.2371     493.4128    396.22318    57.441066    37401.237 
  921200    293.75318   -1497.5968    464.83375    292.05371    178.51793    37401.237 
  921300    309.14641   -1536.5482    483.48749    341.17893    143.10692    37401.237 
  921400    301.73129   -1547.1988    475.31336    288.91232    105.55524    37401.237 
  921500    307.48129   -1568.1787    480.80089    299.35219    1133.4079    37401.237 
  921600    297.15424   -1507.2053    497.21197    330.16209    431.52516    37401.237 
  921700    301.00005   -1465.4954    506.92163    398.92607     884.0581    37401.237 
  921800    293.92071   -1492.4325    518.66344    351.80319     363.0039    37401.237 
  921900    288.93576   -1482.5158     489.8118    310.38634   -236.23711    37401.237 
  922000    306.72796   -1475.2353    488.61528    396.71256   -908.97657    37401.237 
  922100    301.15051   -1509.6236    497.13405    345.68891   -621.14536    37401.237 
  922200    320.59323   -1484.3101    498.04923    459.60354  -0.37500148    37401.237 
  922300    300.46947    -1443.856    507.43161    418.68259    94.202504    37401.237 
  922400    313.52966   -1453.5153    487.25676    447.74946     166.5949    37401.237 
  922500    310.76697   -1483.1307    496.57442     414.9921    960.10929    37401.237 
  922600    295.21283   -1510.2745    490.40336    311.52852    114.66784    37401.237 
  922700     301.9711   -1422.9763    462.43239    401.33538    260.64165    37401.237 
  922800    291.25362   -1418.9196    498.72723    393.35147     265.7129    37401.237 
  922900    300.41685   -1466.7046    486.42738    374.59246    10.677466    37401.237 
  923000    312.84299   -1474.8608    492.84653    428.89684    279.31551    37401.237 
  923100    290.38639   -1512.8936     481.1996    277.93859    72.064535    37401.237 
  923200    309.20622   -1494.0416    483.71911    384.18696   -606.22864    37401.237 
  923300    308.83466   -1492.8893    469.89167    369.83606   -362.58739    37401.237 
  923400    302.09463    -1477.885    476.71403    361.26545    71.630805    37401.237 
  923500    293.06487   -1513.9894    488.88752    296.61057    772.23807    37401.237 
  923600    293.04653   -1459.1984    503.27126    365.70263    303.15969    37401.237 
  923700    309.15409   -1517.1205    480.84913    358.00294    871.46571    37401.237 
  923800    295.32541   -1520.2793      508.112    319.74017   -109.91839    37401.237 
  923900    298.44506    -1469.704    487.77082    364.04381    211.32085    37401.237 
  924000    301.11093   -1496.0129    490.20071    352.18772   -229.09469    37401.237 
  924100     301.4558   -1498.6538    495.35185    356.25333   -323.78899    37401.237 
  924200    299.42321   -1427.3534    498.34217    421.37715   -386.42814    37401.237 
  924300    293.08783   -1456.2475    476.53901    342.10752   -647.16001    37401.237 
  924400    303.82507   -1462.3255    506.11538     414.0305   -218.49506    37401.237 
  924500    298.92231   -1476.2377    472.94216    344.83382   -273.46713    37401.237 
  924600    304.50484   -1478.6812    507.13926    401.76438   -834.15398    37401.237 
  924700    299.22661   -1480.6845    468.02967    336.84693   -605.89933    37401.237 
  924800    295.38145   -1446.1323    480.43324    366.46109   -637.89944    37401.237 
  924900    305.99706   -1474.2044     498.3958    404.22767   -615.69276    37401.237 
  925000    303.25984   -1487.4841    518.82122    399.02857     -465.971    37401.237 
  925100    303.40467   -1513.5871    472.54492    327.30241   -482.09439    37401.237 
  925200    292.75718   -1527.5479    492.79501     285.5719   -945.25618    37401.237 
  925300      285.621   -1515.8665    475.32382    247.59825   -739.51516    37401.237 
  925400    289.54205   -1508.4921    481.84793    279.18051     -764.825    37401.237 
  925500    308.53471   -1492.0915    476.50101    375.89038   -10.263401    37401.237 
  925600      296.935   -1480.2898    474.39046    333.26728   -22.794558    37401.237 
  925700     302.9967   -1476.0263    484.38698    374.86534   -248.29048    37401.237 
  925800    308.01929   -1462.6024    486.32158    412.87562   -312.40835    37401.237 
  925900    303.64925   -1444.1058    486.25049    411.59231   -253.33728    37401.237 
  926000    304.37995   -1461.9941    514.53111    425.28014   -196.53717    37401.237 
  926100    297.33306   -1434.6011    478.67998    385.04074    -679.6464    37401.237 
  926200    301.03051    -1421.691    508.19682    444.14313   -496.42169    37401.237 
  926300    303.17819   -1434.9261    480.22349     412.6206   -231.30558    37401.237 
  926400    304.14172   -1478.0064    477.25577    370.91802    199.45226    37401.237 
  926500    290.61952   -1387.6514    509.62676    432.65938   -79.926989    37401.237 
  926600    311.90374   -1443.3977     505.8126    469.09005    155.47133    37401.237 
  926700    310.50572   -1508.6294    482.62459    374.36532   -65.239223    37401.237 
  926800    299.36113   -1463.1468    484.52714    371.48874     685.1046    37401.237 
  926900    310.83346   -1454.9815     474.7791    421.64579   -230.19783    37401.237 
  927000    298.48614   -1406.2427    488.66347    428.58298    291.50512    37401.237 
  927100    306.10623   -1421.8654    500.10266    458.76583    250.19732    37401.237 
  927200    296.09276   -1403.6592    491.06499    422.77398   -164.27168    37401.237 
  927300    310.81446   -1452.7653    510.01442    459.01165    310.78457    37401.237 
  927400    292.80311   -1489.6481    482.15023    313.03408     -52.8348    37401.237 
  927500    303.34524   -1460.7918    510.99206    418.27687    178.25098    37401.237 
  927600    290.10065   -1452.8658    497.97035    353.44851    154.68041    37401.237 
  927700    305.55466   -1478.6985    490.38333    389.72588    363.69093    37401.237 
  927800    303.09458   -1447.0769    489.99014    409.85935    742.80214    37401.237 
  927900    305.24482   -1447.3664    486.53624    415.81352    670.26371    37401.237 
  928000    299.65627   -1467.1543    501.88276    386.16796    357.43472    37401.237 
  928100    306.81673   -1463.5208    473.36253    393.57463   -104.97093    37401.237 
  928200    307.40037   -1446.6989    469.63512    409.30134   -498.37946    37401.237 
  928300    290.47401   -1454.7663    500.57901    355.84052   -590.01037    37401.237 
  928400    303.38239   -1453.4281    438.65721    353.47331    347.15714    37401.237 
  928500    302.03723   -1507.9954    486.58771    340.76984   -33.589923    37401.237 
  928600    296.13336   -1448.7007    483.23415     370.0847     448.3255    37401.237 
  928700    294.38302    -1471.123    486.94175    343.47604   -284.80612    37401.237 
  928800    301.64937   -1444.5009    501.26166    417.18901   -60.157978    37401.237 
  928900    309.20152   -1483.3986    460.79699    371.88661   -43.658364    37401.237 
  929000    296.07207   -1483.7106    453.85182    305.41608   -1020.4463    37401.237 
  929100     302.9185   -1475.5272    471.17653    361.80132   -1355.5614    37401.237 
  929200    308.29445    -1407.723    494.40776     477.0821     -858.529    37401.237 
  929300    313.05644   -1488.4248    469.07396     392.5229   -737.81834    37401.237 
  929400    292.53046   -1489.2672    452.42528    282.46036   -636.14052    37401.237 
  929500    291.21868   -1508.7042    481.54316     286.2252    231.18365    37401.237 
  929600     303.2674   -1486.3503    485.44084    366.81611    349.80696    37401.237 
  929700    299.19208   -1457.0579    482.04067    374.32872    147.51483    37401.237 
  929800    308.20054   -1466.7179    468.21915     391.4751    111.87572    37401.237 
  929900    303.10102   -1475.2493    456.05673    347.78265    199.08151    37401.237 
  930000    289.65183   -1473.9676    480.40065    312.75286    431.75958    37401.237 
  930100    302.38899   -1469.7669    502.04848    396.04556    427.82092    37401.237 
  930200    294.67419   -1494.2582    481.50433    316.21657    807.88814    37401.237 
  930300    302.55066   -1471.4778    512.76795     405.7832   -53.184165    37401.237 
  930400     295.8503   -1482.5205    493.59764    345.35185    474.95947    37401.237 
  930500    308.34319    -1467.015    496.78182      420.384    758.96901    37401.237 
  930600     298.6913   -1476.2512    491.06564    361.90188    748.92388    37401.237 
  930700    304.23024   -1484.4294    484.46712    372.10559    648.56298    37401.237 
  930800    312.39037   -1480.0625    482.96399    411.77131    661.59416    37401.237 
  930900    298.94714   -1435.8437    507.25802     419.6556    746.89431    37401.237 
  931000    304.42381   -1394.5677    493.20015    471.57338    1.9693251    37401.237 
  931100    305.04118   -1424.3906    513.14726    464.48188   -349.24778    37401.237 
  931200    303.68722   -1435.0944    496.86555    431.39007   -161.66274    37401.237 
  931300    299.33036   -1433.4816     504.9252    421.41323   -40.824693    37401.237 
  931400    297.43367    -1452.444    497.57564    386.54726   0.76269375    37401.237 
  931500    303.21498   -1440.8736    472.15564    398.77124   -115.93831    37401.237 
  931600    292.57769   -1488.1417    467.17173    298.54537     122.7184    37401.237 
  931700     313.3592   -1500.3414    491.87702    404.77489    924.76071    37401.237 
  931800    301.95241   -1487.9782     466.9368    340.75362    527.91386    37401.237 
  931900    302.26094    -1488.854    515.31404     389.6465    1092.8158    37401.237 
  932000    292.85695   -1470.5547    484.35455    334.57466    1194.0622    37401.237 
  932100    290.04837   -1497.0795    450.12984    261.15847    177.67526    37401.237 
  932200    297.22523   -1465.9124    474.54558     349.1087    145.44765    37401.237 
  932300    303.46945   -1511.1626    463.97511    321.44932    674.38839    37401.237 
  932400    302.10875   -1497.5169    471.23909    336.22221    481.65082    37401.237 
  932500    293.44046   -1429.1749      503.775    398.00645    226.09804    37401.237 
  932600    298.66626   -1449.8566    490.71016    387.82813    138.28716    37401.237 
  932700    301.11081   -1438.6753    497.09927    416.42336   -315.97263    37401.237 
  932800    293.39221   -1423.1587    503.49042     403.5205    42.091325    37401.237 
  932900    308.73822   -1450.2553    486.85149     428.9949    213.35441    37401.237 
  933000     307.7108   -1458.4217    480.49723    409.84068    850.33814    37401.237 
  933100    308.76382    -1460.618    464.59833    396.49455    993.59873    37401.237 
  933200    291.24916   -1499.0935    487.69266    302.12291    553.25349    37401.237 
  933300    301.65966   -1490.7872    465.38226    335.06973    467.39906    37401.237 
  933400    299.64347   -1447.9449    471.17576     374.6126   -214.52687    37401.237 
  933500     297.0508   -1485.0533    465.74843    320.38402   -1188.1125    37401.237 
  933600    302.77961   -1466.3574    482.72092    381.88917   -187.29453    37401.237 
  933700    308.35252   -1405.0335    478.42088    464.04664    178.42876    37401.237 
  933800    299.71276      -1450.7    453.61209    354.60636   -18.783006    37401.237 
  933900     300.7654    -1476.908    515.28892     394.8225    671.17161    37401.237 
  934000    301.17653    -1417.876    468.05471    408.47452    254.75614    37401.237 
  934100    288.97239   -1442.8073    485.77131    346.21953    -337.2713    37401.237 
  934200    302.57127   -1451.6151    452.52874    365.49962   -17.144321    37401.237 
  934300    298.53807   -1436.3205    517.69349    427.76942    111.43386    37401.237 
  934400    303.70316   -1485.2096    457.54612    342.02728   -504.40329    37401.237 
  934500    299.04327   -1427.3205    477.30179    398.65614   -507.40684    37401.237 
  934600    290.93148   -1454.7661    471.09058     328.4155    -478.3107    37401.237 
  934700    308.13504   -1421.3583    478.26424     446.5844   -322.85495    37401.237 
  934800    303.09491    -1450.044    474.03356    390.93722   -76.115624    37401.237 
  934900    293.65384   -1453.3045    483.58417    354.64837    81.151044    37401.237 
  935000    301.06042   -1476.2873    474.02758    355.51239    80.788184    37401.237 
  935100    301.16755   -1423.1868    479.84752    414.91605    480.37286    37401.237 
  935200    302.16887    -1448.574    529.15149    443.34873    294.71328    37401.237 
  935300    296.40119   -1445.7602    457.61242    348.61141    289.23044    37401.237 
  935400    292.86288   -1480.7843     486.0128    326.03004    652.91248    37401.237 
  935500    293.17097   -1506.0725    499.70541    315.82388    637.44553    37401.237 
  935600      292.732   -1478.5709     457.7409    299.38124    40.653803    37401.237 
  935700    297.01802   -1420.9617    511.68146    430.26083   -7.9460562    37401.237 
  935800    296.89151   -1461.3442    497.91472    375.54106    251.96887    37401.237 
  935900    296.75271   -1488.6899    505.79685    355.45148   -342.39762    37401.237 
  936000    297.77251   -1485.5954    458.86693    316.21537    79.185796    37401.237 
  936100    297.93397   -1456.4327     480.2379    367.47719   -10.295172    37401.237 
  936200    293.70592   -1406.7663    503.15109    420.98835   -126.08125    37401.237 
  936300    292.06874   -1466.2105    490.14767    341.15709   -156.28969    37401.237 
  936400    290.48013   -1455.4148    468.96171    323.60231   -148.62308    37401.237 
  936500    308.60809    -1435.966    495.07216    450.91806   -341.43973    37401.237 
  936600    296.58488   -1459.0083    499.94702    378.52632   -188.73314    37401.237 
  936700    303.97135   -1492.1475    455.70866    334.46143   -24.483158    37401.237 
  936800    284.84672   -1433.6409    505.97576    356.98377   -15.618339    37401.237 
  936900    285.87947   -1391.5039    496.99942    394.80215    829.74061    37401.237 
  937000    313.37427    -1461.303    500.46873    452.47293    -144.6079    37401.237 
  937100    291.14597   -1457.9086    461.24949    316.39917   -583.99693    37401.237 
  937200    307.02339   -1433.6058    460.56059    411.61969   -586.44824    37401.237 
  937300    298.73625    -1422.353    494.97664    419.91381   -534.48491    37401.237 
  937400     290.9552   -1439.5294    491.95155    364.62009   -89.409816    37401.237 
  937500    286.58031    -1443.329    469.08448    318.22285   -200.97842    37401.237 
  937600    286.59593   -1416.1761    498.38401    374.74572    265.10787    37401.237 
  937700     300.5006   -1414.0883    484.29344    425.45249   -111.39622    37401.237 
  937800    303.00227    -1441.023    464.41408    389.92091    -126.0728    37401.237 
  937900    304.17126    -1438.359    494.89157    428.33448    126.94461    37401.237 
  938000    295.89377   -1450.2265    470.49692     354.7411    171.55135    37401.237 
  938100    296.07661   -1418.9812    495.43815    411.75231    247.08655    37401.237 
  938200    289.28388   -1398.6029    482.49022    388.54769    442.68658    37401.237 
  938300    300.15383   -1406.3616    468.36881    415.69066    373.35197    37401.237 
  938400    297.66163   -1377.1463    525.60657    490.90392    188.95463    37401.237 
  938500    294.27875   -1397.6631    498.94909    428.47302     544.2793    37401.237 
  938600    302.94902   -1367.5813    484.19402    482.90242    768.59075    37401.237 
  938700    301.62116   -1402.7626    503.27752    460.81595    339.09168    37401.237 
  938800    297.64359   -1413.7621     507.5357      436.136    176.17527    37401.237 
  938900    282.99035   -1407.6683    484.78697    353.39545    161.72235    37401.237 
  939000    300.42858   -1450.0114     492.3996    397.31078    74.436805    37401.237 
  939100    301.50712   -1453.8894    504.07018     409.9675   -743.84096    37401.237 
  939200    296.02046   -1447.1728     493.9654    381.83466   -809.23818    37401.237 
  939300    295.04376   -1426.3857    470.84624    375.09781   -835.31959    37401.237 
  939400    294.00806   -1462.2677    497.01374    360.71229   -912.00186    37401.237 
  939500    300.49827   -1450.3604    490.29262     395.1691   -651.28325    37401.237 
  939600    308.70956   -1460.3855    455.22795     387.1119   -511.84939    37401.237 
  939700     297.1147   -1402.5044    480.84811     418.3208   -147.33537    37401.237 
  939800    304.39277   -1406.1804    509.91527    476.53579   -275.63864    37401.237 
  939900    298.83342   -1394.7806      493.632    446.57982    615.38291    37401.237 
  940000    296.98351   -1405.1386    482.10869    416.35547   -158.63572    37401.237 
  940100    299.28536   -1415.0217    481.66435    416.40927   -116.89119    37401.237 
  940200    292.39734   -1403.8637    496.96501    411.80327   -90.453645    37401.237 
  940300    300.86193   -1405.6856    482.71679    433.90818    172.79133    37401.237 
  940400    301.67095   -1417.6061    513.52504    456.44457   -58.013154    37401.237 
  940500     294.0293   -1434.0808    491.96025    383.94151     29.42113    37401.237 
  940600    298.65165    -1424.216    541.24971    463.94234    75.634523    37401.237 
  940700    303.42352   -1443.3191    491.48499    416.59553   -468.33173    37401.237 
  940800    307.05511   -1414.4696    470.11029    440.44867   -44.159172    37401.237 
  940900     299.2141   -1396.5826    508.10772    460.97046     384.3019    37401.237 
  941000    300.99178   -1397.9662    506.07112    465.56749     355.8385    37401.237 
  941100    304.44444   -1399.8823    487.65133    460.80303    -64.69453    37401.237 
  941200    299.52136   -1416.5388    505.18337    439.47558     65.32038    37401.237 
  941300    294.71439    -1459.893    502.94013    372.19887    30.588485    37401.237 
  941400    308.29995   -1410.0054    513.62454    494.04131    384.19418    37401.237 
  941500    301.95482   -1408.2861    492.31976    445.83949    510.54928    37401.237 
  941600    296.76235   -1445.8853    488.91944    381.42213    358.13114    37401.237 
  941700    291.74313    -1452.802    488.84973    351.79921    468.38851    37401.237 
  941800     300.6249   -1489.4146    517.04171    383.43507    585.82715    37401.237 
  941900     306.1668    -1464.951    501.55854    417.40931    186.24332    37401.237 
  942000    292.20366   -1420.6022    472.66384    369.89003   -333.70191    37401.237 
  942100     301.8738   -1464.6949    488.16678    384.91233   -707.70028    37401.237 
  942200    306.12161   -1449.2981    494.82942     426.1292    265.08084    37401.237 
  942300    297.04483   -1485.7762    489.70815    343.59388    182.56947    37401.237 
  942400    311.09196   -1455.1611    491.69523    439.54818    17.829649    37401.237 
  942500    308.09386    -1432.227      514.018    471.28372    303.19948    37401.237 
  942600    293.39112   -1476.3721    452.72648    299.53823     113.5008    37401.237 
  942700     301.5408   -1466.5564      523.506    416.88828    237.98529    37401.237 
  942800    294.97896   -1499.6341    485.60807    316.31896    352.17599    37401.237 
  942900    297.65226   -1491.0481    492.53905    343.89239    355.66701    37401.237 
  943000    295.46011    -1476.918    518.78103    374.37795    779.51359    37401.237 
  943100    301.86985   -1471.6085    473.11583    362.92995    79.675031    37401.237 
  943200    294.44299   -1443.5137    497.73566     382.1497   -143.97968    37401.237 
  943300    300.40595   -1452.2627    469.91438    372.47216    143.42476    37401.237 
  943400    302.46758   -1444.5013    507.95317     427.5702    3.4109686    37401.237 
  943500    304.25725   -1479.4066    488.18599    380.96911     390.7794    37401.237 
  943600    294.45327   -1452.2451    482.82449     358.5535    452.32501    37401.237 
  943700    298.26595   -1428.2366    459.57269    376.50527    442.90179    37401.237 
  943800    307.01621   -1451.8288    522.28289    455.08665    390.17941    37401.237 
  943900    297.26769   -1426.8005    522.35956    436.22616   -32.512342    37401.237 
  944000    307.12507   -1431.9277    507.40828    460.60408    65.760183    37401.237 
  944100    303.70771   -1431.7558    517.65771    455.61325   -76.288484    37401.237 
  944200    291.92571   -1413.9421    501.49802    404.13088   -293.74673    37401.237 
  944300    306.32565   -1452.9942    494.78933    423.31327   -74.279994    37401.237 
  944400    295.06854   -1452.8073    492.63534    370.57702    790.86273    37401.237 
  944500    299.25511   -1447.2788    513.77226    416.12373    417.99454    37401.237 
  944600    294.07872   -1423.7162    520.56938    423.13809    1084.2935    37401.237 
  944700    297.70825   -1459.3007    476.04668    359.39998    311.97591    37401.237 
  944800    298.95076   -1418.9913    495.41571    424.68205     382.0047    37401.237 
  944900    309.24497   -1433.1379    481.84162    443.38789   -300.75993    37401.237 
  945000    303.71943   -1460.7196    496.96286    406.00744   -464.51558    37401.237 
  945100    302.10994   -1448.1843    498.36748    412.68868   -439.16907    37401.237 
  945200    291.59621   -1478.8128    490.75356    327.02962   -657.20893    37401.237 
  945300    300.00218   -1459.3238    501.33387    395.00956   -55.094162    37401.237 
  945400    291.04578    -1503.439    475.94024    285.10771   -448.36952    37401.237 
  945500    306.85859   -1443.5387    509.77117    450.15413    96.243398    37401.237 
  945600    298.64624   -1460.1397    496.27696    383.02155   -193.28079    37401.237 
  945700    297.23177     -1454.88      473.509    359.13404   -434.59089    37401.237 
  945800    302.74221   -1453.6075    486.71594     398.4654    124.05726    37401.237 
  945900    302.04195   -1445.4278    470.99285    387.76381    308.49033    37401.237 
  946000    307.56449   -1413.4688    488.54207    462.17857    417.07706    37401.237 
  946100    306.71056   -1425.1022    489.49602    447.64794      20.6856    37401.237 
  946200     303.9829   -1369.3793    499.09323    500.66633    99.221882    37401.237 
  946300    305.31465   -1425.5254     495.8049    447.23807   -320.19211    37401.237 
  946400     306.6007   -1436.3076     471.3376    417.78862   -84.172461    37401.237 
  946500    308.27224    -1441.956    493.22405    441.56523    32.019595    37401.237 
  946600    300.56571   -1434.7646    486.16956    406.94601   -523.07242    37401.237 
  946700    302.85039   -1429.0875    469.63619    406.39349    25.417502    37401.237 
  946800    293.41897   -1454.9989    497.68176    365.99239   -20.424766    37401.237 
  946900    305.21342   -1456.3412    498.02063    418.18147    597.26754    37401.237 
  947000    307.98976    -1466.612    470.66551    393.07674    468.43073    37401.237 
  947100    285.92608   -1391.9453    509.16579    406.73725   -100.91406    37401.237 
  947200    300.62954   -1437.8899    491.81511    409.75406   -488.24669    37401.237 
  947300    307.31485   -1422.4243    486.05378    449.60884   -29.089748    37401.237 
  947400    297.40468   -1442.5533    525.63569    424.36728   -133.43104    37401.237 
  947500    306.13382   -1441.7393    476.69999    415.61371    132.42717    37401.237 
  947600    298.18363    -1430.159    481.38989    396.02882   -438.53653    37401.237 
  947700    301.83187   -1390.3001    471.65481    442.60604   -56.712496    37401.237 
  947800    313.77866   -1400.7363    520.92441    535.31904    276.84348    37401.237 
  947900    299.27164   -1410.2699    499.32148    438.75637    172.07441    37401.237 
  948000    298.44419    -1403.441    522.33813    464.87013   -141.53094    37401.237 
  948100    307.37134   -1377.0323    490.85101    500.05291   -101.67586    37401.237 
  948200    300.18617   -1424.6556    484.26956    413.44328   -83.863799    37401.237 
  948300    304.97881   -1386.2248      507.451    496.67015   -551.17887    37401.237 
  948400    294.18962   -1411.0303    479.72296    395.47771   -238.61578    37401.237 
  948500    303.33949   -1384.0416    501.94049    485.94961   -772.42977    37401.237 
  948600    306.00597   -1430.9534    491.48506    440.60804   -1277.9611    37401.237 
  948700    295.07199   -1454.1658    467.05813    343.65681    -613.8605    37401.237 
  948800    295.72656   -1445.6825    478.86129    366.89539   -406.58997    37401.237 
  948900    291.63649   -1436.6383    478.38918    357.02135   -458.98267    37401.237 
  949000    299.82499   -1456.0313    463.30738    359.47642    165.43764    37401.237 
  949100    291.70065   -1458.2567    486.92288    344.22607    109.43287    37401.237 
  949200    299.85554    -1481.509    470.08896    340.91815   -364.22972    37401.237 
  949300    301.03034   -1475.3643     473.4446    355.71675   -10.055474    37401.237 
  949400     301.5782   -1476.1652    477.15605    361.09818   -421.07069    37401.237 
  949500    300.75358   -1497.0993    444.91986    304.20888   -571.57805    37401.237 
  949600     304.7262   -1476.4495    491.53461    389.38983    390.49452    37401.237 
  949700     304.2129   -1444.2193    498.05423    425.82464   -287.51377    37401.237 
  949800    311.62807   -1515.3257    477.66613    367.77228   -412.85892    37401.237 
  949900    300.81403   -1511.0575    466.45804    312.06146   -457.08964    37401.237 
  950000    307.90387   -1499.0345    476.75785    366.35923    175.10429    37401.237 
  950100    306.25394   -1509.9074    472.47838     343.7657    45.578606    37401.237 
  950200    301.36895   -1492.8273    466.79866      333.135     -331.401    37401.237 
  950300    297.10328   -1511.3898    479.04735    307.58317   -530.32882    37401.237 
  950400    302.70555   -1502.0948    469.62854    332.72537   -198.31616    37401.237 
  950500    297.56963   -1462.2576    504.55981    384.33102   -528.83948    37401.237 
  950600    302.53554   -1500.8438    475.21769    338.79875   -598.95969    37401.237 
  950700    295.11773   -1460.0973    475.94435    346.81787   -988.81962    37401.237 
  950800    300.37613   -1486.9319    501.54733    369.30144   -953.06125    37401.237 
  950900    301.39327   -1469.9424    468.25703    357.58789   -518.83977    37401.237 
  951000    307.20181   -1446.5721    482.77072    421.66818   -25.949898    37401.237 
  951100    289.12118   -1488.1425    500.02588    315.80998    8.2865781    37401.237 
  951200    295.45794     -1486.18    453.79681    300.12201    -53.16782    37401.237 
  951300    299.07121   -1464.4429    487.28554    371.64351    177.91855    37401.237 
  951400    291.67024   -1442.9417     480.4798    352.96082    309.42023    37401.237 
  951500     299.2765   -1463.1428    479.24574    365.82962    186.98361    37401.237 
  951600    294.37892   -1457.6534    474.77492    344.76028   -519.46879    37401.237 
  951700    302.47658   -1453.6856    471.35745    381.83084   -134.08444    37401.237 
  951800    290.76944   -1472.9159    475.99081     314.4351   -655.60375    37401.237 
  951900    293.76226   -1464.0578      493.649    354.44882    -538.3317    37401.237 
  952000    306.19305   -1422.6746    500.37941    458.62494     -856.224    37401.237 
  952100    308.30934   -1438.8251    465.36533    417.00479   -679.27603    37401.237 
  952200    306.67734   -1462.7356    455.92991    376.29861   -124.20679    37401.237 
  952300    295.03805   -1465.0855    470.55871    336.08467     241.2192    37401.237 
  952400    296.10079   -1401.3388    492.88255    426.94814    108.09979    37401.237 
  952500     297.8222   -1455.5307    466.35153    353.98869   -41.874034    37401.237 
  952600    303.86859   -1454.2086    488.19391    404.42226    407.43338    37401.237 
  952700    296.16676   -1448.6709    482.30123    369.33228   -180.58631    37401.237 
  952800    291.51317   -1428.7518    478.35994    364.32253   -868.81862    37401.237 
  952900    305.64364    -1431.446    473.85884    420.85513   -246.78069    37401.237 
  953000    312.55527    -1429.271    497.00564    477.34815    355.00707    37401.237 
  953100     299.5262   -1411.5254    503.65282    442.98029   -66.193019    37401.237 
  953200     303.1635    -1427.885     470.0799    409.45192   -64.388855    37401.237 
  953300    293.09766   -1436.4334    494.57516    380.00213   -339.98809    37401.237 
  953400     305.8568    -1438.735     497.8861     438.5547   -289.28653    37401.237 
  953500    296.29809   -1448.9867    496.23313    383.54065   -438.55257    37401.237 
  953600    309.08647   -1440.1436    507.72736    461.55313   -217.81128    37401.237 
  953700    295.06678    -1442.077    463.17885    351.84284   -519.85587    37401.237 
  953800    303.83939   -1464.3921    509.84617    415.75931   -69.872656    37401.237 
  953900    304.61567   -1445.7181    506.74539    434.83343   -103.95618    37401.237 
  954000    296.36875   -1460.8155    484.71377    360.51117   -1012.8286    37401.237 
  954100    294.53934   -1419.7692    490.63105    399.22414   -100.05802    37401.237 
  954200    303.41017   -1443.1541    476.64546    401.86078    31.679108    37401.237 
  954300    293.59892   -1446.9595    509.08793    386.24949   -230.93939    37401.237 
  954400    302.60504   -1400.1505    492.32952    456.91734   -540.88392    37401.237 
  954500    290.26227   -1421.7127    481.26955    368.62972   -151.72557    37401.237 
  954600    297.39967   -1450.3684    472.65309      363.547    278.26778    37401.237 
  954700    294.70729   -1381.7773    479.87071    427.21318    13.247779    37401.237 
  954800    292.29086   -1416.7649    515.47032    416.92715    -115.3298    37401.237 
  954900    294.07366   -1418.6426    493.06278    400.68232   -398.94958    37401.237 
  955000    298.06405   -1364.2449    495.48085    475.49453   -614.99555    37401.237 
  955100    308.74815   -1404.3924    484.66724    472.71834   -545.07642    37401.237 
  955200    300.46007   -1404.2369    504.13387    454.96154   -829.89596    37401.237 
  955300    313.25898    -1428.164     479.8931    464.51637   -486.71766    37401.237 
  955400     298.1764    -1409.413    479.18041    414.53269   -427.18923    37401.237 
  955500    299.96351   -1394.1768    490.14881    448.79713   -197.57294    37401.237 
  955600    297.81948   -1445.2618    487.13995    385.03374   -149.29211    37401.237 
  955700    293.56378   -1423.3988      494.086    394.64976   -1020.5045    37401.237 
  955800    293.84655    -1452.286    499.11563    372.06743   -470.98976    37401.237 
  955900    291.46335   -1493.4284    473.32495    294.38619   -427.45596    37401.237 
  956000    302.64031   -1439.5384    499.56334    424.92233    408.69931    37401.237 
  956100    293.46906   -1444.7485    508.45119    387.23802   -67.255858    37401.237 
  956200     294.7363   -1457.4604     476.3835    348.17372   -218.20302    37401.237 
  956300    294.45896   -1440.2382    477.44597    365.20756    319.93473    37401.237 
  956400    301.73058   -1472.2773     505.8871    394.40436   -31.864738    37401.237 
  956500    291.62768   -1477.3206    471.60591     309.5161    573.93818    37401.237 
  956600    303.43192   -1432.6283    500.30537    436.14462    608.94218    37401.237 
  956700    306.27191   -1426.2933    506.98965    461.97208    671.40548    37401.237 
  956800    295.26288   -1456.2351    487.84085    363.23118    716.06228    37401.237 
  956900    313.54153   -1418.9051     501.6642    496.82065    392.38732    37401.237 
  957000    302.71953   -1446.8109    490.25428    408.69802   -48.310496    37401.237 
  957100    299.15721   -1462.4062    497.00379    383.78632    263.41322    37401.237 
  957200    304.83515   -1426.0108     511.3792    460.16448   -221.74788    37401.237 
  957300    290.94371   -1454.7344    499.03674    356.44848    109.96321    37401.237 
  957400    307.61696   -1434.8487    488.19078    440.68396    74.395786    37401.237 
  957500    298.04065   -1455.9888    488.51545    376.67979    19.351024    37401.237 
  957600    305.08203   -1467.8016    502.48594    410.59379    29.754937    37401.237 
  957700    303.63362   -1444.1131    476.59862     401.8627    360.63154    37401.237 
  957800    315.34673   -1479.1605    492.57817    435.62057    121.76673    37401.237 
  957900    303.04152   -1438.2697    503.73863    432.17578    465.89395    37401.237 
  958000    299.34094   -1460.3497    492.65733    382.32503   -147.70467    37401.237 
  958100    295.58439   -1464.5762    483.59647    352.09573    58.985311    37401.237 
  958200    286.50894   -1500.9684     482.4169    273.59404    712.23934    37401.237 
  958300    294.74389   -1493.9547    473.29599    308.62608     497.6152    37401.237 
  958400    301.52991   -1510.4558    509.17409    358.60781    527.61673    37401.237 
  958500    291.82671    -1480.632    488.26605    323.76252    230.35051    37401.237 
  958600    290.83353   -1479.9293    508.11746    339.83737   -6.9825398    37401.237 
  958700    291.68826   -1469.6163    465.84934    311.73705    62.050667    37401.237 
  958800     305.1699    -1461.774    514.41153    428.94325     435.0178    37401.237 
  958900    312.65671   -1492.9542    481.57305    398.68992    802.04799    37401.237 
  959000    297.07526   -1542.2711    454.40297    251.93107    643.34349    37401.237 
  959100    303.90252   -1500.5952    498.88392    368.87863    861.38813    37401.237 
  959200     294.8154   -1457.2895      511.355    383.67285     471.8261    37401.237 
  959300     308.0915   -1450.8149    487.17731    425.84449    430.33427    37401.237 
  959400    301.42909   -1468.9865    503.83452    394.28287    510.57186    37401.237 
  959500    304.77654   -1462.2446    480.31578    392.60291    149.19548    37401.237 
  959600    292.73336   -1492.5065    474.15469    301.86561   -242.52538    37401.237 
  959700    302.28703   -1479.6319    495.11408    378.78626   -202.90254    37401.237 
  959800    298.50368   -1533.0271    497.56896    310.78323   -657.44562    37401.237 
  959900    303.51025   -1515.3668    486.98855    340.44256    479.08313    37401.237 
  960000     297.2928   -1502.7656    484.61268    322.62734    984.11921    37401.237 
  960100    294.08597   -1490.8454    486.94668    322.41889    698.38187    37401.237 
  960200    305.40851   -1467.5457    492.21094     402.0471    369.12902    37401.237 
  960300    308.09247   -1498.6271    501.79736     392.6567     81.89483    37401.237 
  960400    302.57184   -1505.3169    466.97217    326.24388   -190.50794    37401.237 
  960500    307.78628   -1491.6808     494.4533    390.87807   -349.00651    37401.237 
  960600    296.37219    -1508.615    476.98272    304.99611   -240.02824    37401.237 
  960700     287.9908   -1496.1484    498.83683    301.51707   -350.66381    37401.237 
  960800      303.195   -1483.5724    472.31295    356.13957   -553.16799    37401.237 
  960900    297.43024   -1501.4462    483.09258     323.0465   -406.24515    37401.237 
  961000    299.67313   -1481.0193    526.06857    396.56474   -124.48852    37401.237 
  961100    289.38064    -1496.085    513.78558     322.7973   -505.68504    37401.237 
  961200    311.89753   -1497.5072    495.16001    404.29995   -402.85053    37401.237 
  961300    304.46623   -1496.2726    463.47468    340.33427    -500.3629    37401.237 
  961400    306.31372   -1532.7089    499.17674    347.93224    88.379714    37401.237 
  961500    302.65025    -1479.008    505.82922    391.76348   -408.05166    37401.237 
  961600    304.70542   -1492.9336     503.5023     384.7797   -402.96398    37401.237 
  961700    306.10035   -1479.5977    490.06113    390.96551    161.73992    37401.237 
  961800    298.12427   -1534.5458    492.62632    302.61071   -138.50286    37401.237 
  961900     292.0247   -1504.2195    490.98818    303.79008   -245.59911    37401.237 
  962000    299.28749   -1463.5046    508.74456    395.01627   -12.882141    37401.237 
  962100    304.14724   -1505.6774     528.2287    394.24494    44.613603    37401.237 
  962200    300.74201   -1480.0572    501.03234    377.31121   -277.84457    37401.237 
  962300    292.03005   -1507.9424    496.03093    305.13404   -300.85581    37401.237 
  962400    300.13989   -1466.6893    486.29904    373.23031   -259.75476    37401.237 
  962500    298.52778   -1496.1642    506.51308    356.69888   -132.91048    37401.237 
  962600    301.69965   -1460.2703    494.20143    394.58616   -40.799324    37401.237 
  962700    295.98933   -1507.2045    463.71654    291.41369    156.67494    37401.237 
  962800     298.1198   -1495.0132    488.21161    337.70842    69.121026    37401.237 
  962900    304.11276   -1503.9298    504.34296    371.95123   -211.68657    37401.237 
  963000    301.68363    -1491.817    471.48782    340.25366    248.54907    37401.237 
  963100     304.5021   -1454.2546    492.98749     412.0269   -14.284655    37401.237 
  963200    289.92002    -1464.278    531.52178    374.77306   -503.62305    37401.237 
  963300    301.56805   -1468.4034    477.49099    369.14915   -293.58687    37401.237 
  963400    306.46239   -1426.9041    518.26393    473.49469   -51.116236    37401.237 
  963500    298.34123    -1458.326    515.57211    402.75482   -631.25874    37401.237 
  963600    306.26738   -1444.2466    487.14092    424.14965   -137.76346    37401.237 
  963700    293.92786   -1465.4627    521.17066    381.31245   -7.4704581    37401.237 
  963800    298.46383   -1480.3337    496.75467    362.48255   -6.7418132    37401.237 
  963900    308.98722   -1439.3134     487.4743    441.68267    69.092603    37401.237 
  964000    290.53939   -1471.3623    520.56152    359.52189   -261.31431    37401.237 
  964100     289.4849    -1446.879    481.14091    339.82882    224.25758    37401.237 
  964200    302.36505   -1420.0315    512.21309    455.83754   -109.62098    37401.237 
  964300    292.26625   -1449.1614    497.50356    366.45287   -343.20647    37401.237 
  964400    300.24663   -1451.4312    506.86396    409.53477   -708.21082    37401.237 
  964500    301.98915   -1429.6007    492.31675    424.67675   -512.38468    37401.237 
  964600    305.10341   -1391.6583    501.86958    486.21719    -695.9048    37401.237 
  964700    296.63909   -1409.3826    497.71062    426.16015    73.537598    37401.237 
  964800    291.02948   -1453.8092    519.84433    378.56806    79.702515    37401.237 
  964900    306.33054   -1443.8783    509.92218    447.58408    297.86818    37401.237 
  965000    305.83334   -1412.6152     518.1464    484.82902    386.50846    37401.237 
  965100    289.92496   -1444.0204     495.9641    359.49526   -27.961457    37401.237 
  965200    302.12462   -1432.4487    488.23203    418.35499    226.16917    37401.237 
  965300    293.64111   -1483.2589    483.49662    324.54901    386.64821    37401.237 
  965400    307.67529   -1504.0757    504.23281    387.76203    314.41369    37401.237 
  965500    296.72747   -1518.8055    483.08189    302.50704    201.53992    37401.237 
  965600    289.83666   -1492.7261    476.71134    291.13865   -123.03447    37401.237 
  965700    304.99282   -1482.0026    495.90035     389.4049     146.5019    37401.237 
  965800    316.70795   -1488.4661    490.91742     430.7933    459.83933    37401.237 
  965900    294.15092   -1487.9513    481.90669    320.56594    36.545804    37401.237 
  966000    304.60394   -1501.6541    489.00243    361.10159   -67.542109    37401.237 
  966100    302.96372   -1506.1683    484.16352    344.35122    464.69652    37401.237 
  966200    296.96448   -1478.8652    473.41597    333.85038    471.14736    37401.237 
  966300    295.47024   -1469.4708    509.52126    372.61106    372.77894    37401.237 
  966400    300.26449   -1464.7338    490.09722    379.54594   -43.183505    37401.237 
  966500    306.22689   -1490.8665    489.82319    380.02944   -56.723642    37401.237 
  966600    301.33663   -1443.0177     500.3703    416.37037   -340.16408    37401.237 
  966700    301.96767   -1431.5185    497.38506     427.7304   -734.90036    37401.237 
  966800     305.2166   -1500.4107    494.48631    370.59195   -446.46266    37401.237 
  966900    292.98111   -1503.4097    481.31029    299.23528   -862.78449    37401.237 
  967000    284.91318   -1526.9087    483.84154    241.88144   -719.43102    37401.237 
  967100    292.91914   -1504.4181    493.20808    309.84521   -470.89146    37401.237 
  967200    311.37383    -1498.215    469.85392    375.92414   -256.53515    37401.237 
  967300    301.26377   -1492.1674    481.44846    347.97025   -458.36159    37401.237 
  967400    307.92332   -1513.3672     483.2724    358.62873   -361.52002    37401.237 
  967500    311.70759   -1521.3067    485.97138    370.45522    119.39185    37401.237 
  967600    294.28046   -1529.2853    494.73944    292.64893   -608.75525    37401.237 
  967700    314.03487   -1508.0937     509.1416    417.33442    456.85108    37401.237 
  967800    295.87292   -1491.6682    485.41849      328.127    886.16719    37401.237 
  967900    298.91013   -1472.6745     474.9532    350.35315    450.10266    37401.237 
  968000    300.67555   -1467.5256    464.89557     353.4063   -105.59676    37401.237 
  968100    304.61008   -1494.0413     526.9972    406.73685    271.65958    37401.237 
  968200    306.56954   -1471.1581    482.40927    393.86923   -236.62279    37401.237 
  968300    290.79175   -1511.9288    503.47061    303.00258    47.976687    37401.237 
  968400    292.75463   -1497.9196    477.34115    299.73488    492.14901    37401.237 
  968500    303.86982    -1466.612    482.84098    386.67141    1017.9337    37401.237 
  968600    302.81654   -1507.9977    511.32784     369.0223    413.53359    37401.237 
  968700    298.52705   -1476.1063    483.92344    354.16387   -110.28668    37401.237 
  968800    298.45895   -1444.4036    511.23692    412.87294    171.52202    37401.237 
  968900    295.07045   -1497.7138    487.48938    320.53314    387.15334    37401.237 
  969000    294.44528   -1462.6751    523.11919    388.38215    187.34247    37401.237 
  969100    297.84055   -1474.0446    513.98318     383.1892    -52.20351    37401.237 
  969200    296.16368   -1464.3549    558.69889    430.03198    398.42192    37401.237 
  969300    291.57492   -1474.0239    488.99178    329.96068    474.28259    37401.237 
  969400    289.99001   -1511.5736    523.91541    320.18678    670.67622    37401.237 
  969500    298.06962   -1481.5038    504.09879    366.87869    194.97222    37401.237 
  969600    302.23545    -1504.506    521.43647    380.00199    898.12523    37401.237 
  969700    301.61489   -1463.8268    506.80288    403.24888    1128.8001    37401.237 
  969800    304.00142   -1497.9348    509.19646    382.29763    1001.9438    37401.237 
  969900    311.48861   -1470.4655    518.82086    453.15827    1103.6192    37401.237 
  970000    300.45105     -1479.18    534.59009    410.43403    536.42511    37401.237 
  970100    304.23049   -1477.5371    482.35876    376.89069    518.46318    37401.237 
  970200    295.54082   -1494.2636    512.94931    351.56463    291.48085    37401.237 
  970300    304.89866   -1501.1855    508.37198     382.2689    5.3309345    37401.237 
  970400    312.71882   -1488.8182    497.47752    419.01048   -229.87963    37401.237 
  970500    301.05774   -1502.4161    501.55526    356.89918    92.703825    37401.237 
  970600    300.27756   -1530.1907    513.36516    337.41594    257.12378    37401.237 
  970700    299.82821   -1472.5148    522.63722     402.3373    782.95069    37401.237 
  970800    300.83619   -1459.4435    515.44118    412.75851    536.52379    37401.237 
  970900    307.52521   -1505.0601    516.08532    397.95333    249.59069    37401.237 
  971000      300.574   -1470.6519     496.1049    381.03143    455.22132    37401.237 
  971100    306.44036   -1503.8203    495.50934    373.72457    624.11157    37401.237 
  971200     296.0343   -1484.5476    513.43178    363.98873    432.02456    37401.237 
  971300    304.43671   -1464.5192    518.70567    427.18555    661.11454    37401.237 
  971400    298.31363   -1502.7943    495.82404    338.41397    474.26561    37401.237 
  971500    302.18005   -1530.3956    518.03891    350.46491    503.87203    37401.237 
  971600    291.52174   -1507.7456    494.71058    301.71801   -112.88325    37401.237 
  971700    300.73648   -1533.4601    481.46816    304.31919    174.06519    37401.237 
  971800     309.8075   -1484.5562    498.03949    410.70449    404.24003    37401.237 
  971900    308.26632    -1470.313    466.66651    386.62399   -66.760877    37401.237 
  972000    298.88932   -1487.3165    509.76307    370.42708    332.06559    37401.237 
  972100    303.66379   -1458.8275    520.46154     431.1473    32.345103    37401.237 
  972200    295.14525   -1495.5438    504.13842     339.6896    87.440263    37401.237 
  972300     296.6661   -1473.6693    493.84028    358.12489    313.36725    37401.237 
  972400    295.03018   -1482.4056    526.76355    374.93389   -358.19263    37401.237 
  972500    310.31129   -1516.5707    490.83353    373.75607   -80.398368    37401.237 
  972600    306.45804   -1520.2648    501.27422    363.12468    -214.4636    37401.237 
  972700    303.92657   -1499.3839    494.60667    365.92115    67.877025    37401.237 
  972800    299.90433   -1466.1477    493.70763    380.11817    41.879286    37401.237 
  972900    296.96997   -1514.7121     493.6002    318.21248    46.577341    37401.237 
  973000    297.62816   -1526.2859    463.11717      279.124    33.100939    37401.237 
  973100    300.35949   -1489.0461    476.62825    342.19308   -340.76789    37401.237 
  973200    298.56857   -1526.9525    494.99791     314.5794    82.398906    37401.237 
  973300    306.56476   -1492.3823    488.26542    378.47962    374.18431    37401.237 
  973400      295.999   -1516.4371    503.08153    321.58976     149.7984    37401.237 
  973500    302.54443   -1528.2515    504.48659    340.70006   -252.90827    37401.237 
  973600     302.7685   -1497.7165    477.56646    345.32549   -381.07779    37401.237 
  973700    291.76418    -1486.354    477.13335    306.62572     -702.578    37401.237 
  973800    311.32847   -1531.0773    493.05805    366.06146   -464.27681    37401.237 
  973900    304.42771   -1500.0798    495.78432    368.66304   -311.19635    37401.237 
  974000    288.74072    -1547.369    467.73302    222.57471    399.84056    37401.237 
  974100      294.192   -1510.4396    459.26409    275.62034    435.13069    37401.237 
  974200    299.27097   -1575.5078    490.71492    264.90892    612.99111    37401.237 
  974300    303.02647   -1558.7104    484.16767    292.09623    305.55482    37401.237 
  974400    295.51498    -1502.197    500.05563    330.62104   -145.38708    37401.237 
  974500    306.74051   -1505.2944     488.4788    366.57358    75.633158    37401.237 
  974600    291.65306   -1497.4797    503.77401    321.63961   -189.61162    37401.237 
  974700    291.37357   -1483.6983    479.48461     309.8711   -758.02254    37401.237 
  974800    294.41424   -1471.5338    503.93356    360.19785   -849.54618    37401.237 
  974900    299.63596   -1468.4494    484.87035    367.76881   -689.38234    37401.237 
  975000    293.98183    -1464.049    484.82361    346.62257   -712.80937    37401.237 
  975100    302.36826   -1491.7156    484.84847    356.80334   -697.93858    37401.237 
  975200    300.48407   -1477.0179      507.719    385.87394    -41.92176    37401.237 
  975300    313.20049   -1493.4571    515.16331    434.22964   -503.04415    37401.237 
  975400    302.94367   -1480.5373    500.96773     386.6959    -339.5817    37401.237 
  975500     308.3931    -1477.716    502.75313     415.8794    137.99584    37401.237 
  975600    289.22255   -1486.7048    515.44508    333.12403   -225.46351    37401.237 
  975700    300.13885   -1475.7983    479.00886    356.82642    268.83329    37401.237 
  975800     295.8003   -1442.8383    508.78436    399.99527     45.37031    37401.237 
  975900    295.93706   -1467.0988    522.95876    390.52593   -215.11628    37401.237 
  976000     296.6082   -1472.8934    506.80762    371.60701   -263.76405    37401.237 
  976100    296.41136   -1467.9322    505.25221    374.12506    8.0997076    37401.237 
  976200    297.36663   -1463.0377    503.43814    381.51376   -33.393816    37401.237 
  976300    301.59386   -1484.2932    496.38666    372.27144   -55.925894    37401.237 
  976400     307.1657   -1478.4134    501.74073    408.63407   -115.55648    37401.237 
  976500    295.86017   -1472.8223      481.986    343.48287   -26.230322    37401.237 
  976600    291.57399   -1490.7906    517.97425     342.1723    242.88131    37401.237 
  976700    299.13307   -1507.8003    510.09482    351.37436   -8.0335156    37401.237 
  976800    295.99386   -1491.8489     480.3056    323.37886   -11.339493    37401.237 
  976900    302.44662   -1511.7255    513.31283    365.61121   -421.05196    37401.237 
  977000    304.46068   -1468.8448    481.74877    386.01119   -976.95259    37401.237 
  977100    305.15014   -1487.9628     531.2686    419.52247   -784.83132    37401.237 
  977200    302.28608   -1468.9577    521.63739    415.97948   -363.04366    37401.237 
  977300    300.41611    -1531.115    487.37539    311.12671    -143.7654    37401.237 
  977400    299.79284   -1516.4085    508.42838    344.07531    -407.2897    37401.237 
  977500    294.72907    -1508.748    505.29571    325.76563    379.66981    37401.237 
  977600    296.85837   -1520.5143    502.03953    320.34628    611.08441    37401.237 
  977700     308.2414   -1473.6184    498.50015    415.03986    200.47119    37401.237 
  977800    303.78277   -1463.9709    499.54069    405.61965   -121.60434    37401.237 
  977900    299.74621   -1463.3447    518.56348    407.06391   -226.21187    37401.237 
  978000    294.90809   -1463.6425     504.3018    370.68463    -265.8055    37401.237 
  978100    301.80921   -1508.8727    481.25604    333.53246   -808.49372    37401.237 
  978200    316.23305   -1490.0689    498.96543    435.09671   -111.02012    37401.237 
  978300    292.43742   -1470.2282       512.88    361.53454   -90.115436    37401.237 
  978400    297.33066   -1506.7776    524.49345    358.66692   -204.05794    37401.237 
  978500    310.90914   -1481.5539    516.63618    437.27175    318.57336    37401.237 
  978600    301.52231   -1484.9102    490.17936    365.12438    174.76296    37401.237 
  978700     296.1579   -1480.9373    507.39993    362.12462    9.5897345    37401.237 
  978800     293.7107   -1496.3456    493.43706    321.71663    366.04146    37401.237 
  978900    296.76228   -1448.8628    516.92539    406.45023    333.00113    37401.237 
  979000     301.8086   -1436.4277    513.85267    438.57135    592.87332    37401.237 
  979100    300.45278   -1466.1339    502.57636    391.47414    289.33981    37401.237 
  979200    309.95591   -1486.6948     509.2419    420.43763    134.80933    37401.237 
  979300    297.44402   -1525.5093    488.03139    303.98443    506.25589    37401.237 
  979400    315.30417   -1503.6691    518.30656    436.64838    282.35937    37401.237 
  979500    295.76973    -1510.028    498.97649    322.85978   -151.18922    37401.237 
  979600    303.72932   -1514.0565    496.95153    352.70384   -449.94038    37401.237 
  979700    298.88761   -1503.0102    508.86955    353.83217   -297.06317    37401.237 
  979800    295.91898   -1477.8394    492.09124    348.83629   -236.99111    37401.237 
  979900    295.91483   -1459.5077    481.16372    356.22176    -409.7859    37401.237 
  980000    296.65295   -1480.2036    503.93134    361.62236    190.50732    37401.237 
  980100    289.59495   -1476.3483    529.71743     359.4324   -189.89372    37401.237 
  980200    309.91383   -1494.2407    510.50664    413.96661    116.37404    37401.237 
  980300    300.45715   -1502.4197    505.01344    357.64514    601.01846    37401.237 
  980400    291.96362   -1514.0612    471.42727    274.11196   -180.77744    37401.237 
  980500    307.22128   -1505.5019    503.81042    383.86594   -230.70053    37401.237 
  980600    304.05195   -1454.2992    515.49431    432.45896    382.42062    37401.237 
  980700    293.11712   -1483.1706     469.4622    308.23977   -135.42551    37401.237 
  980800    295.00445     -1480.39    508.91441    358.98431    678.05367    37401.237 
  980900    302.87102    -1553.138    469.35952    282.15945    314.20335    37401.237 
  981000    311.11405   -1525.2896    467.51191    345.33597     484.3917    37401.237 
  981100    294.43106     -1466.24    499.82218    361.45612    609.11218    37401.237 
  981200    287.89133   -1468.2529    491.93548    322.06256    636.64757    37401.237 
  981300    299.29447    -1468.742    495.57519     376.6409    526.55929    37401.237 
  981400    304.24774   -1487.6202    510.45112    394.97778     459.8526    37401.237 
  981500    289.85066   -1464.0441    484.44164     327.6141    654.82433    37401.237 
  981600    294.99815   -1463.8329    484.41011    351.00875    360.21745    37401.237 
  981700    295.28507   -1484.7789    503.14404    350.09063   -397.64158    37401.237 
  981800     295.7528   -1495.8513    498.56642    336.55003    286.94624    37401.237 
  981900    299.93443   -1490.7698    510.75478    372.67887    60.473122    37401.237 
  982000    304.07094   -1457.1011    505.46012    419.70852    484.90793    37401.237 
  982100    294.93589   -1500.2541    474.84371    304.74036    806.31217    37401.237 
  982200    299.10357   -1447.9207    499.57135    400.59745    510.23347    37401.237 
  982300    316.19552   -1494.8411    487.87891    419.06872    978.42829    37401.237 
  982400     302.2333   -1488.7752    497.01275    371.29937    727.07694    37401.237 
  982500    309.28853   -1470.5754    479.18026    403.48546    478.23489    37401.237 
  982600    291.42218   -1451.9454    489.65924    352.01785    350.03714    37401.237 
  982700    306.77532   -1479.5302    474.86613    378.88213    61.281136    37401.237 
  982800    284.23554   -1490.4824    470.74015    262.15023   -157.27454    37401.237 
  982900    304.34629   -1471.3989    507.36934     408.5617   -564.54388    37401.237 
  983000    304.51445   -1460.4474    518.91424    431.81654   -208.90155    37401.237 
  983100    311.76622   -1451.1276    502.34851    457.27581    26.799189    37401.237 
  983200    299.42318   -1460.2823    472.61887    362.72485    -105.9699    37401.237 
  983300    292.36222   -1473.2462    481.78358    327.08091    151.76778    37401.237 
  983400     293.3112   -1447.3512    509.99213    385.46435   -559.83789    37401.237 
  983500    289.10276   -1480.1275    468.61637     292.3324    311.43549    37401.237 
  983600    298.42361   -1447.1119    465.22609    363.99445   -102.80077    37401.237 
  983700    298.04014   -1426.1647    525.95602    443.94206    -101.2016    37401.237 
  983800    294.31931    -1453.221    459.85751    334.00644    241.13791    37401.237 
  983900    299.04662   -1416.6069    494.74502    426.82804    17.106192    37401.237 
  984000    299.69869    -1434.437     505.5402    422.73396   -137.69329    37401.237 
  984100    298.04549   -1457.7915     486.9031    373.28648    60.680819    37401.237 
  984200    290.10607   -1419.1822    484.41426    373.60051    308.54588    37401.237 
  984300    291.67156   -1421.3832    495.60365    389.64911    5.4509902    37401.237 
  984400    296.54219   -1423.8988    478.85993    392.35618   -9.4212219    37401.237 
  984500    294.63139   -1455.8148    521.51772    394.48031     16.70416    37401.237 
  984600     297.8088   -1454.7114    484.66722    373.06328   -453.63668    37401.237 
  984700    297.04425   -1449.3291    487.22542    377.55567   -680.82268    37401.237 
  984800    303.28682   -1442.3842    506.48513    431.91408   -417.46112    37401.237 
  984900    293.09014     -1432.34    474.97164    364.45808   -105.04683    37401.237 
  985000    306.15344   -1410.7239    488.55527    458.57289   -197.83587    37401.237 
  985100    310.82144   -1448.3413    482.21209    435.66479   -76.218674    37401.237 
  985200    288.03599   -1402.1113    489.64891    386.57002   -807.81349    37401.237 
  985300    292.37038   -1410.1206    488.82246    397.28226   -575.63688    37401.237 
  985400    290.95274   -1445.7892     484.1154      350.513   -350.94718    37401.237 
  985500    296.42828   -1406.6532    484.34621    414.57442   -417.27102    37401.237 
  985600    293.30914   -1428.9086    502.63589    396.54146   -942.72877    37401.237 
  985700    299.47055   -1440.7807    494.45115    404.27237    225.84908    37401.237 
  985800    298.86384   -1420.0023    518.52801    446.39137    30.843614    37401.237 
  985900    288.53329   -1405.9581    509.30515    404.62225    119.45771    37401.237 
  986000    303.11915   -1402.1862    496.47138    461.34213   -335.91403    37401.237 
  986100    304.63776   -1450.1299    491.36025     415.1362   -152.27248    37401.237 
  986200    307.82378   -1422.6581    501.16251    466.77911    434.26401    37401.237 
  986300    300.70785   -1424.5096     500.3049    431.97736    460.22974    37401.237 
  986400    291.14597   -1433.5519    495.27555    374.78199   -320.09765    37401.237 
  986500    298.59361   -1438.1837    466.88689    375.35009    226.91151    37401.237 
  986600    303.41387   -1421.2605    479.98323    427.10887   -261.49337    37401.237 
  986700    305.78624   -1446.3641    493.20419    425.92548    262.09187    37401.237 
  986800    306.36574   -1462.7798    465.49123    384.41045    606.42639    37401.237 
  986900    289.73516   -1470.8531    490.60161    326.44417   -56.804425    37401.237 
  987000    287.54023   -1473.6257    508.30206    331.47288    153.45346    37401.237 
  987100    304.68478   -1468.7018    478.38681    383.80286     276.6042    37401.237 
  987200    298.79509   -1431.1258    468.52115    384.95092    2.2874495    37401.237 
  987300    302.91815   -1424.9452    495.16778    436.37304   -530.15032    37401.237 
  987400     284.3154   -1409.6626      485.089    357.67911   -629.77743    37401.237 
  987500    295.76386   -1413.8935    493.30131    413.29267   -516.16953    37401.237 
  987600    299.97633    -1393.728    503.57968    462.73459   -535.76689    37401.237 
  987700    294.52823   -1401.2531    470.60184    397.66087   -323.20958    37401.237 
  987800    305.62578   -1436.3945    492.38119    434.34844    347.32263    37401.237 
  987900    296.87221   -1415.0888    472.13272    395.92735   -594.64439    37401.237 
  988000    304.87923   -1434.3375    466.68337    407.34071   -526.03275    37401.237 
  988100    296.69352   -1432.6302    459.52102    364.96836   -345.10381    37401.237 
  988200    295.96006   -1422.7128    456.96321    369.02003   -351.34804    37401.237 
  988300    295.31759   -1443.2922     467.2703    355.85032    -277.7439    37401.237 
  988400    300.80905   -1453.5455    486.86815    389.96112   -294.84778    37401.237 
  988500    302.16474   -1446.6713    511.60791    427.68917   -315.47667    37401.237 
  988600    297.16791   -1446.3384    465.74538    359.62402   -636.06561    37401.237 
  988700    303.61562    -1441.709     487.9154    415.50236   -418.64463    37401.237 
  988800    288.31343   -1496.7154    451.70872      255.277    12.562484    37401.237 
  988900    306.24623   -1471.6865    484.25866    393.73217    320.33163    37401.237 
  989000     303.4336   -1472.1919    501.37237    397.65557    502.00916    37401.237 
  989100    301.16159   -1422.2911    477.06561    413.00288   -37.590826    37401.237 
  989200    304.31767   -1443.1824    484.63873    413.91853   -93.320661    37401.237 
  989300    289.69494   -1409.4451    497.36185    394.43091    347.14801    37401.237 
  989400    301.46751    -1465.873    484.60101    378.33612   -28.441725    37401.237 
  989500    305.16872   -1398.2961    484.75758    462.76189     345.5427    37401.237 
  989600    292.98694   -1399.6252    480.18835    401.92416    231.57866    37401.237 
  989700    294.95057   -1424.6369    490.40872    395.98876    132.28466    37401.237 
  989800    303.33768   -1439.5034    504.36623     432.9053    132.36431    37401.237 
  989900    298.93137   -1427.1703    488.93123    409.93116   -558.69634    37401.237 
  990000    303.97186   -1393.2885    487.44076    465.05487   -235.13691    37401.237 
  990100    299.70315   -1369.4344    504.27009    486.48662    -537.5415    37401.237 
  990200     300.6632   -1399.2742    505.66771    462.37426   -857.95019    37401.237 
  990300    301.08981   -1397.5355    486.96468    447.33386   -561.74486    37401.237 
  990400    297.91644   -1462.9935    487.19481    367.79416   -1084.9097    37401.237 
  990500    290.40544   -1447.3591    490.97273    353.33213   -323.61692    37401.237 
  990600    299.90498   -1420.0845    487.46748    419.94416   -54.624959    37401.237 
  990700     311.0068   -1486.5835    455.65811    371.70461     130.1557    37401.237 
  990800    306.90675   -1477.9911    464.38454    370.53226   -78.684785    37401.237 
  990900    303.41293   -1462.7839    489.88541     395.4834   -415.58565    37401.237 
  991000    306.70935   -1476.1349    475.03814    382.15187   -820.86757    37401.237 
  991100    301.96835   -1480.0638    490.80303    372.60608   -964.82405    37401.237 
  991200    298.19835   -1484.3724    486.64522    347.13714   -855.33785    37401.237 
  991300    297.77435   -1474.3942    485.95141    354.50927   -493.31718    37401.237 
  991400    293.29667   -1455.3842    472.61155    339.98527   -411.15143    37401.237 
  991500    303.35595   -1435.3737    499.32459    432.07576    103.56308    37401.237 
  991600    297.74853   -1470.0548    477.92375    350.70455    335.79859    37401.237 
  991700    298.71625   -1447.1294    501.66903    401.73963    745.20483    37401.237 
  991800     304.1752   -1482.8568    487.48378    376.44665    804.27042    37401.237 
  991900    311.26816   -1449.5981    450.99185    405.20247    816.18934    37401.237 
  992000    301.33839   -1445.8797    473.25111    386.39717    177.30079    37401.237 
  992100    304.66479   -1424.0763    503.95865    453.91001    -445.6373    37401.237 
  992200    306.08355   -1454.9715    492.98007    418.43484    189.61875    37401.237 
  992300     295.4044   -1473.1701    459.08673     318.1803    724.93249    37401.237 
  992400    301.21741   -1470.5733    523.40036    411.30725    421.37004    37401.237 
  992500    297.23434   -1450.1358    519.69869    410.07951    673.33659    37401.237 
  992600    311.31488   -1441.7472    490.03576    452.30796    622.84947    37401.237 
  992700    299.78152    -1473.232    470.58176    349.35407    -5.684081    37401.237 
  992800    300.58658    -1446.001    448.17611    357.81022    470.33239    37401.237 
  992900    293.98329   -1433.7018     477.3019     369.4546   -169.16671    37401.237 
  993000    301.28539   -1445.2158    495.25117    408.82209    62.926719    37401.237 
  993100    300.06608   -1440.5412    476.28247    389.02891   -27.890093    37401.237 
  993200    297.01405   -1485.2463    480.00068    334.27752    -123.9825    37401.237 
  993300    304.97006    -1495.894    448.39949    327.90991    69.502241    37401.237 
  993400    303.47614   -1495.9137    474.80728    347.56055   -181.08557    37401.237 
  993500    289.66824   -1498.4806     472.1164    280.02962    49.433483    37401.237 
  993600    300.70678   -1527.4967    499.56861    328.24917       155.39    37401.237 
  993700     289.7066    -1479.653    458.05769    284.97153   -172.80157    37401.237 
  993800    292.11947   -1476.9441    473.84885    314.35349   -535.36319    37401.237 
  993900    295.67165   -1481.3447    488.11315    340.23745    -759.9361    37401.237 
  994000    307.44976   -1470.8445    471.09919    386.84257   -344.28709    37401.237 
  994100     310.7421   -1491.9779    464.82128    374.27958   -452.06302    37401.237 
  994200    291.41391    -1482.776    481.00817    312.49881   -259.65056    37401.237 
  994300    289.24022   -1473.5344    481.95989    312.88893   -793.05406    37401.237 
  994400    300.31036   -1432.3937    473.79306    395.78876   -714.39429    37401.237 
  994500    308.23746   -1477.0649    464.91802    377.99343    82.078501    37401.237 
  994600    304.91004   -1450.5238    516.09209    440.70201     520.7113    37401.237 
  994700    293.72584   -1440.6736    484.60165    368.62145    264.64831    37401.237 
  994800    290.14817   -1469.0153    492.38193    331.92485    411.83252    37401.237 
  994900    290.72056     -1454.29    505.58008    362.42982    480.18182    37401.237 
  995000    298.96628   -1473.8227    449.42393    323.92888    273.33109    37401.237 
  995100    298.68778   -1476.7834    515.07703    385.36522   -3.6113268    37401.237 
  995200    301.22142   -1463.2726    468.49425    363.71992    50.771797    37401.237 
  995300    296.12524   -1449.8943     484.8029    370.42321    719.77839    37401.237 
  995400    299.01717    -1504.758    475.66885    319.46802    276.81971    37401.237 
  995500    294.82568   -1498.2721    474.95095    306.33255    508.04086    37401.237 
  995600    303.07485   -1486.9876    467.72603    347.59554    245.73746    37401.237 
  995700    295.99447    -1422.755    489.40861    401.57848    549.51359    37401.237 
  995800    303.93416   -1428.6296    494.31757    436.42061   -298.91808    37401.237 
  995900    300.76113   -1456.5857    474.32794    374.16462   -148.08931    37401.237 
  996000     294.2773   -1447.9341    485.85057    365.09695    430.67327    37401.237 
  996100    307.41549   -1465.8176    475.13662    395.75225    834.18193    37401.237 
  996200    293.75317   -1512.9505    470.01846     281.8847    336.29928    37401.237 
  996300    305.29529   -1489.8883    466.78462    353.76764    1493.4168    37401.237 
  996400    288.22831   -1486.1499    489.44097    303.19088    573.12704    37401.237 
  996500    298.93539   -1447.5056    468.79383    369.47659    287.40194    37401.237 
  996600    307.18371    -1494.298    481.82261    372.91252   -138.67106    37401.237 
  996700    299.79879    -1468.055    465.51381    349.54099   -386.87344    37401.237 
  996800    311.34794   -1451.5587    470.64052    423.25036   -323.05505    37401.237 
  996900    298.38679   -1444.5613    472.30775    373.46063   -237.41191    37401.237 
  997000    292.62308   -1458.1723    474.31384    335.86154   -534.45079    37401.237 
  997100    302.78553   -1447.8251    496.10841    413.83566   -377.21799    37401.237 
  997200    284.49076   -1465.6248    530.27356    347.69233   -148.21559    37401.237 
  997300    309.09677   -1428.1701    483.43428    449.27999     637.2454    37401.237 
  997400    298.99745   -1444.6053     489.0145    392.87737   -190.43819    37401.237 
  997500    302.38537   -1418.9886    482.22005    426.97903   -127.00844    37401.237 
  997600    298.64806   -1427.3668     466.9741    386.49975    440.16749    37401.237 
  997700    303.92132   -1476.7825    487.66281    381.55497    429.46359    37401.237 
  997800    297.31824   -1472.2463    476.63997    345.28865    430.76229    37401.237 
  997900    294.09751   -1493.4376    495.25745    328.18952   -46.630327    37401.237 
  998000    292.99106   -1483.3356    470.06297    308.10703    25.724917    37401.237 
  998100     294.9946   -1451.0465    474.98959    354.35865   -368.69349    37401.237 
  998200    289.29227    -1455.997    492.76318    341.46435   -615.41095    37401.237 
  998300    303.93292   -1494.8818     497.2269    373.07207   -279.91824    37401.237 
  998400    306.82462    -1494.441    481.21426    370.54174    -309.4705    37401.237 
  998500    297.83652   -1481.0174    472.76167     334.9767   -520.42443    37401.237 
  998600    296.42067   -1482.6846    505.56059    359.72305   -12.528443    37401.237 
  998700    292.19478   -1483.9822    507.86079    341.66701     229.2206    37401.237 
  998800    295.86895   -1453.5153     463.9842    344.82766    4.0688942    37401.237 
  998900    293.97486   -1470.9135    511.64504    366.54809    222.29145    37401.237 
  999000    301.72141   -1433.0925    492.86185    420.52252   -381.32632    37401.237 
  999100    294.95009   -1437.4136    478.00043    370.80164   -179.29039    37401.237 
  999200     297.3912   -1446.1489    515.53027    410.60549   -679.75431    37401.237 
  999300    298.85746   -1434.2755    511.49928    425.06066   -41.320584    37401.237 
  999400     296.4887   -1410.2864    460.71764    387.58508    164.21021    37401.237 
  999500     306.9866   -1441.0728    486.41195    429.83816   -13.358337    37401.237 
  999600    300.66417   -1440.1407    477.30284    393.14721    79.507439    37401.237 
  999700    297.50774   -1419.7987    497.86511    419.81609     90.92835    37401.237 
  999800    286.65867   -1421.4928    486.10303      357.431   -917.33829    37401.237 
  999900    307.02442   -1414.0848    469.98619    440.57099    -27.75937    37401.237 
 1000000    305.90404   -1401.5013    481.99366    460.10909   -357.72544    37401.237 
 1000100    302.62469   -1443.3955    507.82371    429.25511   -802.18437    37401.237 
 1000200    304.44593   -1442.5024    463.60537    394.14367   -536.94047    37401.237 
 1000300    309.61473    -1473.461    476.70223      399.593   -423.65577    37401.237 
 1000400    301.88344   -1400.5672    505.84766    466.76443   -781.70249    37401.237 
 1000500    304.24217   -1399.2479    493.65299    466.52686   -1239.8012    37401.237 
 1000600    291.93627   -1443.1278    471.48225    344.97704   -1109.3498    37401.237 
 1000700    303.92169   -1440.5851    513.26326    443.35457   -1116.4911    37401.237 
 1000800    295.45906   -1443.3139    445.30555    334.50189   -546.25071    37401.237 
 1000900    301.68778   -1465.3712    477.30602    372.53633   -241.65803    37401.237 
 1001000    303.54775   -1470.3024    502.13376    400.82124   -1139.0237    37401.237 
 1001100    298.43219   -1471.4542    475.81739    350.28204   -607.88147    37401.237 
 1001200    294.70639    -1460.462    495.61989    364.27357   -477.36925    37401.237 
 1001300    302.73132   -1461.2304    478.44012    382.51751    -476.0165    37401.237 
 1001400    311.93351   -1513.5315    458.87668    352.15454   -23.159723    37401.237 
 1001500    303.95314   -1473.1216    480.33097    378.02761    13.615141    37401.237 
 1001600    299.22282   -1477.5931      491.136    363.02754   -67.272331    37401.237 
 1001700    301.55637   -1463.4267    502.39037    398.97259    467.42548    37401.237 
 1001800    302.95405   -1491.2444    469.76227    344.83021    75.975507    37401.237 
 1001900     301.1358   -1478.4583    471.54629    351.20007    294.18162    37401.237 
 1002000    299.52622   -1520.7094    463.75383    293.89742    179.58559    37401.237 
 1002100    309.31363   -1523.3237    481.25043    352.92057    33.837124    37401.237 
 1002200    309.53925   -1503.2008    494.59686    387.40743    693.15884    37401.237 
 1002300    292.69767   -1524.9652    488.39256    283.48378    199.76869    37401.237 
 1002400    292.60479   -1498.7317    477.85372    298.75957   -142.51392    37401.237 
 1002500    295.48332   -1498.0121    455.68994    290.29746    -72.91819    37401.237 
 1002600    302.15046   -1516.5057     498.3829    344.56535     289.8124    37401.237 
 1002700    300.94039   -1487.8602    485.97719    355.34782   -150.51305    37401.237 
 1002800    295.37609    -1473.237    485.89183    344.79084   -102.87762    37401.237 
 1002900    301.05883   -1501.5087    469.87549    326.13176    152.17577    37401.237 
 1003000    304.63036   -1482.8349      461.097     352.1345    316.31424    37401.237 
 1003100    299.87972   -1453.1172     480.4574    379.78739    525.48524    37401.237 
 1003200    299.66725   -1482.2026    482.50174    351.78816    368.72963    37401.237 
 1003300    307.25103   -1470.8065    498.34102    413.22616    841.99438    37401.237 
 1003400    290.37244   -1454.1545    475.61186    331.02711    292.48414    37401.237 
 1003500    301.31987   -1443.8864    493.65547    408.71135    290.27645    37401.237 
 1003600    303.34884   -1445.6607    473.13979    395.57192    224.07327    37401.237 
 1003700    295.50493   -1436.7686    474.00412    369.95259   -89.084941    37401.237 
 1003800    289.74407   -1440.8175     491.5571    357.47542    24.723516    37401.237 
 1003900    296.27951   -1447.8471    487.50053    375.86382    297.51923    37401.237 
 1004000    304.32018   -1461.9314    478.34115    388.88335   -109.71533    37401.237 
 1004100    291.97508   -1476.7037    475.27018    315.36409   -228.28217    37401.237 
 1004200    307.34252   -1438.7092    479.73862    427.13365   -102.31595    37401.237 
 1004300    304.75441   -1467.8929    500.51168    407.05062    612.88397    37401.237 
 1004400    300.81008   -1484.3319    505.22764    377.53881    627.27173    37401.237 
 1004500    290.21949   -1493.8379    492.89659    307.93861    106.64883    37401.237 
 1004600    304.62957   -1451.4758    469.30273    391.69577     486.0949    37401.237 
 1004700    296.54641   -1430.5484    494.93474    401.80047    3.5112611    37401.237 
 1004800     303.8217   -1475.9152    472.14121    366.45141   -11.345238    37401.237 
 1004900    299.87262   -1477.7361    486.04984    360.72896    139.76535    37401.237 
 1004984    308.26595   -1447.2374    492.39249    435.42394   -155.08077    37401.237 
Loop time of 602.269 on 32 procs for 1000000 steps with 1514 atoms

Performance: 143.458 ns/day, 0.167 hours/ns, 1660.389 timesteps/s
100.0% CPU use with 32 MPI tasks x no OpenMP threads

MPI task timing breakdown:
Section |  min time  |  avg time  |  max time  |%varavg| %total
---------------------------------------------------------------
Pair    | 259.09     | 274.79     | 303.35     |  55.9 | 45.63
Bond    | 1.4672     | 1.5865     | 1.821      |   6.5 |  0.26
Neigh   | 39.081     | 39.158     | 39.232     |   0.9 |  6.50
Comm    | 246.39     | 274.79     | 290.53     |  56.0 | 45.63
Output  | 0.39452    | 0.41169    | 0.84069    |  12.0 |  0.07
Modify  | 8.4706     | 8.7363     | 8.9591     |   4.4 |  1.45
Other   |            | 2.791      |            |       |  0.46

Nlocal:        47.3125 ave          65 max          16 min
Histogram: 1 0 2 2 4 2 9 4 4 4
Nghost:        1979.75 ave        2089 max        1885 min
Histogram: 11 5 0 0 0 0 0 4 9 3
Neighs:        5237.75 ave        8019 max        1245 min
Histogram: 1 1 2 4 4 4 6 2 4 4

Total # of neighbors = 167608
Ave neighs/atom = 110.70542
Ave special neighs/atom = 2.0317041
Neighbor list builds = 49628
Dangerous builds = 0

# Output the system volume
variable v equal vol
print 'The system volume is $v'
The system volume is 37401.2367559733

# Outputs
variable A equal xhi-xlo
variable B equal yhi-ylo
variable C equal zhi-zlo
variable D equal xy
variable E equal xz
variable F equal yz
print 'Lattice vectors'
Lattice vectors
print '$A 0 0'
33.4422370608778 0 0
print '$D $B 0'
0 33.4422370608778 0
print '$E $F $C'
0 0 33.4422370608778
Total wall time: 0:10:06
