LAMMPS (29 Sep 2021 - Update 1)
# Test LAMMPS input file for single DeFDe

# Initialize simulation

clear

units real
atom_style full
boundary p p p
dielectric 1
special_bonds dreiding

bond_style harmonic
angle_style harmonic
dihedral_style harmonic
improper_style umbrella
pair_style hybrid/overlay hbond/dreiding/lj 4 9.0 11.0 90 lj/cut 8.50000

# Read data file
read_data frag5.dat
Reading data file ...
  triclinic box = (0.0000000 0.0000000 0.0000000) to (15.000000 15.000000 15.000000) with tilt (0.0000000 0.0000000 0.0000000)
  2 by 4 by 4 MPI processor grid
  reading atoms ...
  1503 atoms
  scanning bonds ...
  2 = max bonds/atom
  scanning angles ...
  1 = max angles/atom
  reading bonds ...
  1002 bonds
  reading angles ...
  501 angles
Finding 1-2 1-3 1-4 neighbors ...
  special bond factors lj:    0        0        1       
  special bond factors coul:  0        0        1       
     2 = max # of 1-2 neighbors
     1 = max # of 1-3 neighbors
     2 = max # of special neighbors
  special bonds CPU = 0.002 seconds
  read_data CPU = 0.016 seconds

# Dreiding potential information

bond_coeff 1 350 0.98

angle_coeff 1 50 104.51


improper_coeff 1 40 0

pair_coeff 1 1 lj/cut 0.0957 3.4046
pair_coeff 1 2 lj/cut 0.0030935416596516 3.29710294046152
pair_coeff 2 2 lj/cut 1e-04 3.193
pair_coeff 1 1 hbond/dreiding/lj 2 j 9.50 2.75 4 9.0 11.0 90

neighbor 2 bin
neigh_modify every 2 one 10000

# Gemoetric relaxation
fix 1 all box/relax iso 1.0 vmax 0.001
minimize 1.0e-4 1.0e-6 10000 10000
WARNING: Using 'neigh_modify every 1 delay 0 check yes' setting during minimization (../min.cpp:188)
Neighbor list info ...
  update every 1 steps, delay 0 steps, check yes
  max neighbors/atom: 10000, page size: 100000
  master list distance cutoff = 13
  ghost atom cutoff = 13
  binsize = 6.5, bins = 3 3 3
  3 neighbor lists, perpetual/occasional/extra = 3 0 0
  (1) pair hbond/dreiding/lj, perpetual, skip from (3)
      attributes: full, newton on
      pair build: skip
      stencil: none
      bin: none
  (2) pair lj/cut, perpetual, half/full from (3)
      attributes: half, newton on
      pair build: halffull/newton
      stencil: none
      bin: none
  (3) neighbor class addition, perpetual
      attributes: full, newton on
      pair build: full/bin
      stencil: full/bin/3d
      bin: standard
Per MPI rank memory allocation (min/avg/max) = 9.339 | 9.662 | 10.02 Mbytes
Step Temp E_pair E_mol TotEng Press Volume 
       0            0 1.6988757e+16    275.09017 1.6988757e+16 1.3806129e+18         3375 
    5114            0   -1044.9881    19.478369   -1025.5097    109.72145    38760.619 
Loop time of 4.76258 on 32 procs for 5114 steps with 1503 atoms

100.0% CPU use with 32 MPI tasks x no OpenMP threads

Minimization stats:
  Stopping criterion = energy tolerance
  Energy initial, next-to-last, final = 
    1.69887566781692e+16  -1024.89270402004   -1024.9936186248
  Force two-norm initial, final = 1.2684045e+18 111.29952
  Force max component initial, final = 4.6466028e+17 81.720451
  Final line search alpha, max atom move = 1.6627583e-05 0.0013588136
  Iterations, force evaluations = 5114 5116

MPI task timing breakdown:
Section |  min time  |  avg time  |  max time  |%varavg| %total
---------------------------------------------------------------
Pair    | 0.99572    | 2.4872     | 4.0776     |  43.0 | 52.22
Bond    | 0.0050437  | 0.010199   | 0.014407   |   2.0 |  0.21
Neigh   | 0.094249   | 0.094663   | 0.094869   |   0.1 |  1.99
Comm    | 0.24872    | 1.8398     | 3.3356     |  50.1 | 38.63
Output  | 0          | 0          | 0          |   0.0 |  0.00
Modify  | 0          | 0          | 0          |   0.0 |  0.00
Other   |            | 0.3307     |            |       |  6.94

Nlocal:        46.9688 ave          68 max          20 min
Histogram: 1 2 2 3 2 8 6 1 6 1
Nghost:        1896.59 ave        2003 max        1795 min
Histogram: 4 10 2 0 0 0 0 5 7 4
Neighs:        4770.19 ave        7520 max        1837 min
Histogram: 2 2 4 2 3 7 6 1 3 2

Total # of neighbors = 152646
Ave neighs/atom = 101.56088
Ave special neighs/atom = 2.0000000
Neighbor list builds = 90
Dangerous builds = 0

# MD simulation
velocity all create 300.0 12345 rot yes dist gaussian
timestep 1.0
fix 2 all nvt temp 300.0 300.0 1

# Compute interaction energy
group WAT molecule <> 2 501
1500 atoms in group WAT
group MOL molecule 1
3 atoms in group MOL

compute w WAT group/group MOL pair yes
fix 3 all ave/time 10 5 100 c_w file outa

# Outputs
thermo 100 # Output thermodynamic data every nth step
#dump mf1 all xyz 10000 mol_*.xyz

# Run
run 1000000
Neighbor list info ...
  update every 2 steps, delay 10 steps, check yes
  max neighbors/atom: 10000, page size: 100000
  master list distance cutoff = 13
  ghost atom cutoff = 13
  binsize = 6.5, bins = 6 6 6
  4 neighbor lists, perpetual/occasional/extra = 3 1 0
  (1) pair hbond/dreiding/lj, perpetual, skip from (4)
      attributes: full, newton on
      pair build: skip
      stencil: none
      bin: none
  (2) pair lj/cut, perpetual, half/full from (4)
      attributes: half, newton on
      pair build: halffull/newton
      stencil: none
      bin: none
  (3) compute group/group, occasional, copy from (2)
      attributes: half, newton on
      pair build: copy
      stencil: none
      bin: none
  (4) neighbor class addition, perpetual
      attributes: full, newton on
      pair build: full/bin
      stencil: full/bin/3d
      bin: standard
Per MPI rank memory allocation (min/avg/max) = 8.188 | 8.211 | 8.484 Mbytes
Step Temp E_pair E_mol TotEng Press Volume 
    5114          300   -1044.9881    19.478369    317.64333    1693.7669    38760.619 
    5200    294.60217   -1119.7314    182.43334    381.68787    -57.01243    38760.619 
    5300    300.05366   -1103.1919    148.57302    388.77442   -669.40698    38760.619 
    5400    294.11981   -1109.4216      162.842    370.24676   -145.14627    38760.619 
    5500    306.39181   -1104.6468    175.00661    442.13007    378.15519    38760.619 
    5600    296.93247   -1089.1006    176.42529    416.74384   -70.467266    38760.619 
    5700    303.43674   -1094.5902    165.86999     429.8197    201.58237    38760.619 
    5800    303.73866   -1098.5495    161.91618    423.25832    372.45975    38760.619 
    5900    301.44363   -1080.3929    163.57026    432.79375   -161.76777    38760.619 
    6000     293.5525      -1082.1    179.93701    412.12346    443.32207    38760.619 
    6100    310.39532     -1117.42    167.38485    439.65956    517.16944    38760.619 
    6200    301.10482    -1142.131     166.5758    372.54428    148.34006    38760.619 
    6300    305.87161   -1075.6773    175.96989    469.73382    306.06024    38760.619 
    6400    290.14301   -1061.2384    176.94695    414.73004    218.97236    38760.619 
    6500    292.96669   -1034.6006    187.96357    465.02661   -91.829152    38760.619 
    6600    298.88852   -1069.4628    189.74613    458.46003    90.026626    38760.619 
    6700    296.34026   -1087.4167    182.08393    421.43492    158.39276    38760.619 
    6800    302.21319   -1075.0521    179.61438    457.62409    96.665979    38760.619 
    6900    306.38319   -1092.4881    195.51322    474.75685     175.5091    38760.619 
    7000     300.7681   -1089.5701    179.97811    436.99992    15.217029    38760.619 
    7100    312.17941    -1044.282    190.02893    543.42928    579.82003    38760.619 
    7200    290.93333   -1102.8557    194.58517    394.28943    52.772338    38760.619 
    7300    298.98299   -1072.8392    187.63815     453.3986      30.4715    38760.619 
    7400    309.94009   -1100.2486    194.25481     481.6628    193.10844    38760.619 
    7500     297.6712   -1147.7444    203.85711    388.83928    486.14163    38760.619 
    7600    299.14357   -1099.7011    203.22108    442.83861    515.08206    38760.619 
    7700    290.49625   -1124.2504    220.02007    396.37269   -30.790646    38760.619 
    7800     291.7377   -1150.8635    194.25759    349.55528    100.28781    38760.619 
    7900    305.03195   -1119.1231    207.96351    454.52231    222.45919    38760.619 
    8000    300.06166   -1134.6912    210.59891    419.33678    -21.92247    38760.619 
    8100    293.45457   -1117.4731    198.65471    395.02959    347.65754    38760.619 
    8200    293.77075   -1160.4406     217.6322    372.45517    439.91958    38760.619 
    8300    309.24733    -1150.393    204.62582    438.78776    228.82794    38760.619 
    8400    294.09828   -1129.3483     215.9727    403.35438    178.27468    38760.619 
    8500    301.49627   -1137.1933    213.67086    426.32963    161.94052    38760.619 
    8600    299.35671    -1142.692    215.79319    413.37409    747.60507    38760.619 
    8700    297.63433   -1142.9928    211.70786    401.27649    565.93809    38760.619 
    8800    312.80523   -1140.1378     218.5131    478.85954    466.82597    38760.619 
    8900    305.56886   -1148.9622    227.80292    446.92653    160.03806    38760.619 
    9000    304.70738   -1179.5897    210.06414    394.70327    159.41935    38760.619 
    9100    298.94175   -1147.5768    215.57176    406.41002    269.27103    38760.619 
    9200    306.66555    -1174.826    219.73523    417.90512    235.42354    38760.619 
    9300    299.48065   -1145.2461    218.32509    413.90684    468.64347    38760.619 
    9400     301.9725    -1097.752    213.98588    468.21814    468.17279    38760.619 
    9500    292.38943   -1129.2741    221.49496    401.29999    703.07949    38760.619 
    9600    298.13235   -1150.0066    222.40477    407.18942    799.50553    38760.619 
    9700    298.57565   -1125.9033    222.79195    433.66463    196.43638    38760.619 
    9800    299.71366   -1129.8384    204.90389    416.93652   -491.26893    38760.619 
    9900    308.97202   -1116.5223    232.79404    499.59405   -117.26197    38760.619 
   10000    304.69251   -1133.7049     217.7927    448.25004    416.95271    38760.619 
   10100    313.54248   -1129.2958    236.31521    510.80448    440.76863    38760.619 
   10200    294.29107   -1163.6364    225.60803    379.56473   -157.97738    38760.619 
   10300    304.75445   -1105.9503    222.77466     481.2639    462.45028    38760.619 
   10400    298.00496   -1165.0189    228.56514    397.76714     240.9969    38760.619 
   10500    302.20814   -1120.0757    236.65343      469.617    556.17388    38760.619 
   10600    291.27872   -1128.2994    223.43833    399.24526    458.32438    38760.619 
   10700    294.87916   -1139.3332    229.08339    409.97629    262.74147    38760.619 
   10800    295.90637   -1127.2345    237.78779    435.37842    484.71647    38760.619 
   10900    287.07586   -1108.6083    226.51583    403.19687    599.89097    38760.619 
   11000    302.65096   -1119.5046    242.66727    478.18454    447.68931    38760.619 
   11100    307.60536   -1094.4677    225.83931    508.57511    628.68513    38760.619 
   11200    294.95246   -1130.9111    230.30665     419.9499     691.7756    38760.619 
   11300    305.18451   -1136.9346     243.5954    473.02572    149.74354    38760.619 
   11400    309.81967   -1145.6858    220.06949    461.50115    94.061304    38760.619 
   11500    305.15806    -1146.366    221.31689    441.19738    374.92574    38760.619 
   11600    306.52506    -1165.296    235.42434     442.4952   -148.08513    38760.619 
   11700    300.81807   -1125.4473    232.92943    454.29779    363.43972    38760.619 
   11800    306.67515   -1168.6076    236.49478    440.92604   -76.842251    38760.619 
   11900     311.2639    -1163.654    226.70868    456.63817    110.53115    38760.619 
   12000    305.99738   -1151.8676    237.76562    455.90235    496.51729    38760.619 
   12100    304.37092   -1160.0611    228.78686    431.44814     343.2851    38760.619 
   12200    292.91242   -1157.6838    229.63679    383.37362    703.63944    38760.619 
   12300    297.16672   -1169.6759    239.78468    400.57668    513.21341    38760.619 
   12400    305.16495   -1120.3643    224.50326    470.41643    770.36003    38760.619 
   12500    299.52639   -1163.1845     240.1368    417.98488    897.43782    38760.619 
   12600    302.39433   -1177.7094    239.14429    415.30777    768.04604    38760.619 
   12700    293.75222   -1146.9597    233.31537    401.53629    606.23827    38760.619 
   12800    299.41507   -1119.2878    259.77969    481.02607    686.34843    38760.619 
   12900    302.88963   -1083.9531    238.71849    510.85583    630.06807    38760.619 
   13000    297.74893   -1091.5359    244.64358    486.18228    813.65387    38760.619 
   13100    295.85873   -1161.6973    233.27301    396.18749    379.11996    38760.619 
   13200      296.842   -1155.4326    245.80968    419.39119    534.96207    38760.619 
   13300    298.48919   -1098.1548    238.89381    477.12783    454.31135    38760.619 
   13400    294.12685   -1119.4142    244.53356    441.97725   -215.17712    38760.619 
   13500    309.47148   -1188.9519    241.30192    437.90853   -692.23186    38760.619 
   13600    299.08347   -1142.6593    247.66836    444.05867   -36.737763    38760.619 
   13700    304.92061   -1146.0924    232.18209    451.27317   -214.83586    38760.619 
   13800    310.59549   -1103.3303    255.87087    543.13141    191.00263    38760.619 
   13900    303.76426   -1072.1558    244.50186    532.35237    521.83069    38760.619 
   14000    304.17822   -1065.4866    237.27738    533.65039    378.07254    38760.619 
   14100     294.7262   -1082.5774    264.93616    501.90004     266.0362    38760.619 
   14200    295.22952   -1136.8058    232.89727    417.88623    389.50482    38760.619 
   14300    310.66735   -1130.2519    239.94761    500.60827    227.47546    38760.619 
   14400    301.04128   -1177.2331    243.60585    414.18781    332.17944    38760.619 
   14500    298.46954   -1151.7138    234.41256    418.99967    845.68745    38760.619 
   14600    295.34174    -1150.099    242.75385    414.95201    428.21709    38760.619 
   14700    301.51894   -1171.3821    253.46901    432.04048    358.03945    38760.619 
   14800    308.41231   -1155.8019    248.23141    473.24587    492.93741    38760.619 
   14900    299.31527    -1142.006    243.52946    441.61083    754.72802    38760.619 
   15000    299.29669   -1184.7853    245.73173    400.95058    285.23415    38760.619 
   15100    301.68534   -1173.9723    261.83311    438.55938    661.08906    38760.619 
   15200      294.913   -1152.0521    260.01734    428.34283     488.7934    38760.619 
   15300    304.73099   -1161.0754    257.14135    460.40045    975.99947    38760.619 
   15400    301.48831   -1181.8836     257.2421     425.1749    455.08232    38760.619 
   15500    311.79755   -1146.8776    256.63234    505.72751    709.54706    38760.619 
   15600    303.97897   -1125.4659    271.37885    506.88046    568.02448    38760.619 
   15700    289.89496   -1142.0258    274.46962    430.35473    317.96792    38760.619 
   15800    303.62973   -1179.4161    252.14485    432.13267    693.47865    38760.619 
   15900    294.93759   -1180.5543    280.49117     420.4246    524.88439    38760.619 
   16000    295.44051    -1182.878    263.99618    403.85753    694.08848    38760.619 
   16100    294.67965   -1186.8361    259.56535    392.06208    53.479071    38760.619 
   16200     292.5533   -1231.7683    267.88601    345.93051   -158.82106    38760.619 
   16300    304.18317    -1168.387    260.33298    453.82774   -93.187179    38760.619 
   16400     302.8966   -1154.0794    260.20123    462.24339    223.48935    38760.619 
   16500    289.43317   -1154.0129    274.52807    416.35868    45.362966    38760.619 
   16600    295.84315   -1172.5329    282.73102    434.74022    35.138311    38760.619 
   16700    299.01958   -1208.1852    250.80811    381.38644    46.251443    38760.619 
   16800    315.16185   -1141.0425    268.90109    538.89391    25.627834    38760.619 
   16900    299.37766   -1142.6474     269.4107    467.12995     533.1647    38760.619 
   17000    298.43076     -1123.25    265.76322    478.64049    291.21856    38760.619 
   17100    303.16209   -1204.7654    269.46849     422.0133     493.9539    38760.619 
   17200    294.04385   -1139.8971    268.41904     445.0082    682.08382    38760.619 
   17300    305.91256   -1186.2892     263.7072    447.04259    178.63973    38760.619 
   17400     304.7592   -1201.3524    272.60412     435.7125    3.8425342    38760.619 
   17500    298.48199   -1207.1381    263.72675    392.94531    211.49312    38760.619 
   17600    309.10365   -1232.0535    282.63507    434.49324    320.22386    38760.619 
   17700    299.21213   -1224.2426     271.3164    386.69938    581.25269    38760.619 
   17800    307.27878   -1223.8214    275.25312    427.17309    -36.79686    38760.619 
   17900    307.72294   -1169.8307    283.74213    491.64144    444.76736    38760.619 
   18000    292.24156   -1152.1272     275.9278    432.21771    205.74423    38760.619 
   18100    298.41321   -1164.6027    283.70601    455.15193    105.49277    38760.619 
   18200    286.73339   -1156.1276    280.14956    407.77797   -150.90022    38760.619 
   18300    299.32538   -1199.4752    284.48359    425.14105    271.40705    38760.619 
   18400    303.27624   -1166.3151    284.12195    475.62812    296.95534    38760.619 
   18500    300.52848   -1190.3591    274.11347    429.27344    170.05494    38760.619 
   18600    309.25203   -1198.0155     301.2367    487.79718    552.83405    38760.619 
   18700    304.64504   -1201.3967    275.53303    438.08601    331.00629    38760.619 
   18800    317.02812   -1190.4235    285.05783    514.02525    496.39287    38760.619 
   18900    312.43261   -1190.7954     287.0026     495.0232     643.6922    38760.619 
   19000      294.919   -1182.2103    300.05085    438.24499   -212.23916    38760.619 
   19100    306.60931    -1184.297    287.90943    476.35644    86.053548    38760.619 
   19200    294.07032   -1203.6567    261.79502    374.74309    41.576973    38760.619 
   19300    293.76421   -1220.2171    297.18579    392.20294     302.7286    38760.619 
   19400     289.3378   -1215.1624    287.36639    367.62041    442.14495    38760.619 
   19500    299.16874   -1208.0793    289.48588    420.83796    258.56212    38760.619 
   19600    301.67399   -1250.5191    298.73069     398.8593     348.3318    38760.619 
   19700    293.93896   -1255.0251    280.41729    341.40887   -107.61434    38760.619 
   19800    306.97901   -1262.6942    279.20896      390.914   -175.66113    38760.619 
   19900    303.89175   -1226.1557     295.5328     429.9542    -50.61184    38760.619 
   20000    298.90115   -1194.0664    281.19978    425.36661     -226.641    38760.619 
   20100    304.39328   -1184.1851     307.3405    485.97793   -462.92452    38760.619 
   20200    297.13331   -1182.4646    287.75021    435.60392    21.248896    38760.619 
   20300    304.41698   -1187.3293    306.26446    481.86377    137.63798    38760.619 
   20400    292.34947   -1198.0288    291.91062    402.78203   -21.419633    38760.619 
   20500    293.10458    -1226.161    303.84327    389.96331    279.62372    38760.619 
   20600    302.00749   -1252.0308    285.65042    385.76049    73.479387    38760.619 
   20700    311.50051   -1229.0468    294.04753    459.64355    686.84026    38760.619 
   20800     291.7177   -1230.3551    311.13138    386.84799    437.30327    38760.619 
   20900    295.38411   -1230.3963      305.521    397.61155    284.00293    38760.619 
   21000     301.4554    -1200.122    272.58591    422.13299    312.02948    38760.619 
   21100    298.25802   -1204.8404    307.93179    438.44519    284.76564    38760.619 
   21200    309.16039   -1157.4484     308.5485    535.26582    272.58145    38760.619 
   21300    300.53407   -1198.7443    312.93304    459.73284     155.4717    38760.619 
   21400    310.86595   -1212.3931    297.59116    476.99991    357.97106    38760.619 
   21500    289.75829   -1242.5733    291.09097    345.81674   -20.740705    38760.619 
   21600    289.40176   -1209.8672    301.57943    387.41511    169.27187    38760.619 
   21700    295.91482   -1208.3291    308.83038    425.36422    4.9183957    38760.619 
   21800     292.6279   -1205.1799    301.93703    406.90401     692.9834    38760.619 
   21900    311.88953    -1183.625    309.09487    521.85445    184.81004    38760.619 
   22000    298.67594   -1208.1832    311.99438    441.03618     314.7257    38760.619 
   22100    294.64195   -1178.2553    307.34751    448.25631    228.91144    38760.619 
   22200    289.98274   -1165.3662    303.16001    436.09781    272.93043    38760.619 
   22300    294.30418    -1184.775    337.17449    470.05129    11.477842    38760.619 
   22400    294.24451   -1189.4634    313.58741    441.50872    203.15565    38760.619 
   22500    302.39767   -1200.7395    323.53459    476.68289   -366.77742    38760.619 
   22600     305.0779   -1186.3931    292.45235     471.9469   -297.68494    38760.619 
   22700     295.6255   -1153.1076    308.55607    479.01606   -316.48352    38760.619 
   22800    293.06024   -1203.3445    303.65465    412.39267   -287.68361    38760.619 
   22900    296.64782   -1157.5292    314.50415    485.11968   -677.88736    38760.619 
   23000       302.09   -1179.9102    308.58747    481.18761   -141.14379    38760.619 
   23100    292.38667   -1168.7158    304.33005    444.68106   -67.064602    38760.619 
   23200    303.97831   -1224.1914    295.96565    432.73884     111.9211    38760.619 
   23300    294.64795    -1236.219    312.19586    395.16781    319.35002    38760.619 
   23400    307.80706    -1239.667    305.82806    444.26768    115.51481    38760.619 
   23500    303.01806   -1219.9487    287.38303     424.0997    766.72305    38760.619 
   23600    299.80094   -1210.6625    319.84599    451.44525    682.35826    38760.619 
   23700    288.87516   -1202.5605    320.52141    411.30605    202.37449    38760.619 
   23800    299.76381   -1178.7908    310.23571    473.54044    94.838553    38760.619 
   23900    296.79745   -1206.1009    312.80021    435.51395   -77.954658    38760.619 
   24000    306.76925   -1209.9761    298.68341    462.16741    288.08813    38760.619 
   24100    290.69658   -1227.8958    319.96361    393.56775    88.769423    38760.619 
   24200    291.00446   -1227.4276    305.73631    381.18708    171.40169    38760.619 
   24300    298.46347   -1211.5234    323.67064    448.42091    147.81818    38760.619 
   24400    297.66245   -1246.2334    301.09861    387.55264     376.2295    38760.619 
   24500    297.48387   -1224.9743    311.72234    418.63589    638.65484    38760.619 
   24600    297.92853   -1191.5612    306.97886    449.29636    310.50278    38760.619 
   24700    302.10393   -1243.4167    312.68069     421.8367    186.59907    38760.619 
   24800    302.77676   -1228.7411     315.9539    442.79782    567.23285    38760.619 
   24900    299.87259   -1259.2652    295.43446    378.75186    348.26048    38760.619 
   25000    298.82874   -1233.1146    311.10659    415.90109   -419.63882    38760.619 
   25100    300.40032   -1216.7627    307.36386    435.54644   -250.49563    38760.619 
   25200    300.38168   -1228.2228    313.07231    429.71135   -75.525364    38760.619 
   25300    302.76389   -1223.4248    304.82014    436.92279   -38.947168    38760.619 
   25400    306.76941    -1243.642    313.76546    443.58431    27.221517    38760.619 
   25500    301.06799   -1229.8024    301.71983    419.85197   -93.890041    38760.619 
   25600    293.73477   -1212.4173    307.67148    410.35663    115.17918    38760.619 
   25700    303.61005   -1282.1961    312.26276     389.3825    386.19683    38760.619 
   25800    287.59931   -1269.8827    320.12704    337.87728    386.65936    38760.619 
   25900     294.6266   -1220.2067    317.99985    416.88853    289.46849    38760.619 
   26000    294.79154   -1236.0233    304.34328    388.15379   -50.881204    38760.619 
   26100    303.23994   -1250.6509    291.33944    398.34726   -65.405035    38760.619 
   26200    300.27574   -1214.6016    325.52119    455.30717   -529.68786    38760.619 
   26300    297.69057   -1198.7796    307.05598    441.08968   -513.97735    38760.619 
   26400    312.14508   -1218.9865    317.93724    496.47948   -273.62119    38760.619 
   26500    304.97056   -1192.0357    322.86952    496.24092   -106.04652    38760.619 
   26600    299.24552   -1186.5017    334.88592    488.15925   -31.176431    38760.619 
   26700    309.74121   -1193.7649    304.82642    497.82757    148.76827    38760.619 
   26800    305.84853   -1214.5546     324.8465    479.62981    66.488336    38760.619 
   26900    306.45354   -1234.5983    322.95216    460.40048   -371.59152    38760.619 
   27000    292.23519   -1265.5051    303.22097    346.10447    240.16988    38760.619 
   27100    291.93639   -1223.9105    333.58318    416.72348   -249.34872    38760.619 
   27200    288.39037   -1223.2662    315.33804    383.24647    -462.1457    38760.619 
   27300    296.60022   -1263.3268    311.29457    375.89939   -421.07958    38760.619 
   27400    301.30438    -1214.784    345.81092    480.01985   -128.22654    38760.619 
   27500    294.17906   -1202.5222    332.04426    446.61374    311.73489    38760.619 
   27600    296.43823   -1212.3901    335.85535    450.67159    556.09321    38760.619 
   27700    290.24975   -1232.3397    331.66126    398.82099    365.16781    38760.619 
   27800    295.51825   -1215.3879    314.54852    422.24807   -34.476672    38760.619 
   27900    308.60319   -1257.9192    336.42113    460.17294    438.01072    38760.619 
   28000    302.25584   -1237.3086    318.91454    434.85877    71.441225    38760.619 
   28100    296.79075   -1219.2921    333.58745    443.08002    314.34316    38760.619 
   28200    301.42305   -1195.7555     336.4517    490.22048    237.18553    38760.619 
   28300    311.72989   -1241.2141    332.00536    486.46103    78.207134    38760.619 
   28400    293.56938   -1199.4346    328.88764    443.81506   -297.58513    38760.619 
   28500    303.64765   -1252.8162    330.59721    437.26518   -80.146389    38760.619 
   28600    305.21157   -1266.4204    336.61068    436.67643    443.82374    38760.619 
   28700    287.35862   -1270.6978    335.96788    351.82537    331.50804    38760.619 
   28800    305.55707   -1276.5192    338.47473    429.98849    654.37098    38760.619 
   28900     284.6966   -1241.4047    344.76671    377.99898    315.32856    38760.619 
   29000    305.07352    -1239.728    328.38921    454.52932   -32.545503    38760.619 
   29100    293.49044   -1238.3817    315.32451    390.95133    165.43853    38760.619 
   29200    291.86879   -1218.4909    335.56886    423.82608    294.69043    38760.619 
   29300     292.8257   -1244.7395    346.18367    412.47658    309.22914    38760.619 
   29400    303.04349   -1221.8105     348.2858    483.25451    203.54607    38760.619 
   29500    295.51234   -1206.6738    325.88284    442.26993   -24.795547    38760.619 
   29600    305.02468   -1225.3404    355.45142    495.76035    407.04775    38760.619 
   29700    306.01556   -1279.7623    340.28523    430.60867    736.83105    38760.619 
   29800    306.75501   -1229.7355    328.62609    472.28697     841.6568    38760.619 
   29900    295.32939   -1237.2403     339.0773    424.07891    77.078152    38760.619 
   30000    307.96764   -1189.9488    344.42699    533.30373    157.03579    38760.619 
   30100    307.51681   -1198.6582    356.98491    535.13376    195.60995    38760.619 
   30200    303.47082   -1196.1933    350.85501    513.35414    7.1336571    38760.619 
   30300    307.18618   -1235.8591    339.66299     479.1307    244.37957    38760.619 
   30400    301.64919   -1273.6574     340.2659    417.14521    19.039025    38760.619 
   30500    298.60573    -1251.928    345.22365    430.20623    264.30146    38760.619 
   30600    307.28676   -1244.6436    322.79672    453.93022     345.3248    38760.619 
   30700    290.25464   -1220.3986     360.7495    439.87221    417.96411    38760.619 
   30800    294.63514   -1224.7775    374.24185    468.59792    179.46117    38760.619 
   30900    309.22911   -1202.9182    368.92401    550.47922    252.35363    38760.619 
   31000    308.06025   -1213.0705    385.49721    551.66686    142.20558    38760.619 
   31100      304.104   -1217.0461    335.62954     480.1108    288.29994    38760.619 
   31200    307.92252   -1201.7105    356.90589    533.81893   -24.051695    38760.619 
   31300    288.39654    -1219.278    338.53112    410.45534   -40.741437    38760.619 
   31400    303.41936   -1245.6168    358.21545    471.06067    371.94613    38760.619 
   31500     300.8054   -1169.7631     355.5581    532.55391    93.548488    38760.619 
   31600    290.20026   -1202.6554    372.42063    469.04306    -202.8114    38760.619 
   31700    295.14744   -1211.1538     330.9679    441.24129   -242.43991    38760.619 
   31800    297.20744   -1176.6213     349.1678     503.1967    351.47513    38760.619 
   31900    304.82715   -1208.1248    369.53316    526.17336    221.89614    38760.619 
   32000    292.89037    -1258.857     326.8379    379.30283    212.77133    38760.619 
   32100    305.91025   -1236.3903    355.73153    488.95545    424.35493    38760.619 
   32200    298.34622   -1234.5567    350.65792    451.84996    117.11359    38760.619 
   32300    295.98061   -1225.4942     364.9853    464.64859      296.057    38760.619 
   32400    302.43971   -1251.6512    332.18868    434.61346    132.31085    38760.619 
   32500    311.49117   -1283.0041    343.91535    455.51225   -383.27515    38760.619 
   32600    306.45355   -1222.4903    344.25896    493.81534    42.839232    38760.619 
   32700    298.18905   -1273.0441     352.6157    414.61671   -53.269679    38760.619 
   32800    292.45522   -1266.8088     353.8793    396.44423   -512.47001    38760.619 
   32900    310.41117   -1228.3376     357.2749    518.70295   -343.25015    38760.619 
   33000    294.59552   -1253.4387    339.88721    405.40471   -181.44367    38760.619 
   33100    298.95342   -1232.3115    356.14792    462.30365   -76.365956    38760.619 
   33200    294.19343   -1264.8132    350.03314    402.37589    5.4598629    38760.619 
   33300    302.76928   -1294.3149    335.55894    396.79564   -111.06068    38760.619 
   33400    306.06026   -1261.2074    364.24365    473.32208   -33.756405    38760.619 
   33500    292.78326   -1268.2875    370.23324    412.78811    174.97084    38760.619 
   33600    296.75967   -1209.0825    371.65346    491.21645    -41.56549    38760.619 
   33700    288.93235   -1290.6623    364.73913    367.67798   -283.21191    38760.619 
   33800     306.9909   -1218.0067    369.58009    526.02587    231.93739    38760.619 
   33900    300.48828   -1241.0384    352.39382    456.69455    188.49541    38760.619 
   34000    293.23931   -1274.7445      360.651    398.79071    275.55819    38760.619 
   34100    297.77926   -1281.6175    353.08363    404.67647    121.63585    38760.619 
   34200     301.6885   -1303.9447       358.45    405.21798   -187.49834    38760.619 
   34300    289.70219   -1273.8471    359.71938    382.92018   -299.45599    38760.619 
   34400    299.57285   -1266.6902    352.79408    427.34444    418.21842    38760.619 
   34500    292.84331   -1338.3854    387.97506    360.70087    756.72553    38760.619 
   34600    297.67543   -1356.2032    357.90335    334.44569    944.78132    38760.619 
   34700    293.78167   -1352.1835    348.67264    311.80163    1278.5171    38760.619 
   34800    288.53089   -1332.3167    382.04715    341.53426    905.49805    38760.619 
   34900    295.66874   -1291.6649    358.75373    390.85002    140.80659    38760.619 
   35000    300.69223   -1271.3327    354.89796    429.81751    725.36738    38760.619 
   35100    296.69115   -1262.2428    363.81967    429.91555    487.53718    38760.619 
   35200    305.47221   -1278.0096    355.18891    444.83233    375.83518    38760.619 
   35300    300.04777   -1244.7174    371.74557    470.39511    570.56633    38760.619 
   35400    290.89976   -1293.5869    370.92564    379.74833    265.87613    38760.619 
   35500    295.60258   -1303.4453    368.40586    388.42556    378.33422    38760.619 
   35600    295.22533   -1288.6072    371.58402    404.75277   -77.987083    38760.619 
   35700    283.69582   -1303.0601    375.46086    342.55708    6.2559451    38760.619 
   35800    295.67982   -1216.8782    358.50221    465.43477    363.76377    38760.619 
   35900    301.70432   -1254.9476      365.144    460.97998   -71.479154    38760.619 
   36000    308.58244   -1234.0764    367.19487    514.69662   -203.34275    38760.619 
   36100    298.16068   -1252.7867    376.83773    458.96906    216.80981    38760.619 
   36200     297.6313   -1271.0185     389.2341    450.76353      371.835    38760.619 
   36300    299.95916   -1241.0063     368.0674    470.03125    320.40051    38760.619 
   36400    302.96047   -1270.5534    356.51172    442.36589    319.68355    38760.619 
   36500     294.2295   -1282.5622    363.82959    398.58484    119.60161    38760.619 
   36600    299.58506     -1260.28    376.19513    457.21036    387.91003    38760.619 
   36700    309.32932   -1264.4751    369.00601    489.45294    52.128129    38760.619 
   36800    296.44008   -1255.9401    375.75413    447.02867    150.16825    38760.619 
   36900    301.22942   -1259.7122    343.45371    432.39887    166.71495    38760.619 
   37000    288.53699   -1259.5987    361.52289    393.75531    659.75706    38760.619 
   37100    301.47669   -1302.9111    359.94364    406.79693    477.27624    38760.619 
   37200    309.78432    -1275.613    349.35668     460.7028    601.55695    38760.619 
   37300    303.99278   -1276.0921    358.55392    443.49118    187.83192    38760.619 
   37400    296.05284   -1310.5728    352.96062    367.86864    684.52588    38760.619 
   37500    301.84431   -1356.8325    366.52608    361.10386    163.74379    38760.619 
   37600    299.10843    -1306.403    380.65833     413.4166    449.63202    38760.619 
   37700    296.25253   -1317.7983    373.32216    381.89881     429.1593    38760.619 
   37800    300.79811   -1320.0525    376.18416    402.85791    92.750931    38760.619 
   37900     306.2773   -1317.6593    375.08043     428.6787   -109.19338    38760.619 
   38000    293.70349   -1273.6879    359.11665    400.39115     41.96388    38760.619 
   38100    292.64534   -1268.0169    355.95926    398.16731    64.566401    38760.619 
   38200    299.55255   -1254.6565    365.16808    451.66125    406.30266    38760.619 
   38300    302.01697   -1281.8397    347.24113     417.5848    227.25714    38760.619 
   38400    299.25264   -1271.4202     355.4803    423.86701    123.99986    38760.619 
   38500    299.28913   -1279.5795    374.87114    435.26201    142.03275    38760.619 
   38600    304.04491   -1322.2227    371.50863    410.54873    779.46749    38760.619 
   38700    296.66236   -1338.5286    355.76515    345.44634    352.28243    38760.619 
   38800    308.71444    -1292.607     355.4391    445.00121    740.87494    38760.619 
   38900    290.68687   -1291.4546    373.03283    383.03472    523.66338    38760.619 
   39000    305.95326   -1287.5215    376.53211    458.81745   -14.902831    38760.619 
   39100    308.07158   -1254.3086    371.63506    496.61734   -166.28716    38760.619 
   39200     301.4237   -1343.6648    371.13894    377.00132   -273.79656    38760.619 
   39300    288.47843   -1277.1615    381.30618    395.71361    50.950045    38760.619 
   39400    303.64604   -1278.1334    393.37369    474.71729    99.834765    38760.619 
   39500    308.57275   -1283.1223    379.55859    477.97103   -172.23515    38760.619 
   39600    301.56561   -1265.9222    356.38496    440.62534   -415.10084    38760.619 
   39700    298.67496   -1315.3266    382.27092    404.16484   -29.337446    38760.619 
   39800    298.99977   -1278.8077    373.72388    433.59096   -58.022453    38760.619 
   39900    292.21689    -1262.773    360.54798     406.0817   -181.67156    38760.619 
   40000    296.12059   -1262.4457    357.54062    420.87911    348.44951    38760.619 
   40100    293.52523   -1312.6987    376.09181    377.55739     454.8997    38760.619 
   40200    307.16268   -1293.9623    370.82715    452.08641    235.72267    38760.619 
   40300    287.54372   -1292.3007    385.83662    380.91995   -174.69057    38760.619 
   40400     288.2673   -1287.4647    382.47017    385.62913   -241.29996    38760.619 
   40500    293.99601   -1305.8102    390.19219    400.65405   -305.72399    38760.619 
   40600    307.78414   -1241.8427    377.08937     513.2506    62.084311    38760.619 
   40700    307.55721   -1265.9296     394.2551    505.31351    310.92055    38760.619 
   40800    305.08615   -1260.5247    383.94784    489.34769    668.63268    38760.619 
   40900     296.1019   -1264.9202    402.10088    462.88118     944.7777    38760.619 
   41000    299.14269   -1301.3432    373.20668     411.1782    994.41335    38760.619 
   41100    309.67739   -1296.2833    394.62945    484.82653    533.60728    38760.619 
   41200    305.06506   -1289.7712    386.63556     462.6945      267.544    38760.619 
   41300    302.56535   -1272.6039     371.8462    453.88086    80.660869    38760.619 
   41400    295.78799   -1295.7139    372.72499    401.30615   -55.277889    38760.619 
   41500    292.16618   -1300.5315    368.55503    376.10317   -331.81887    38760.619 
   41600    293.88655   -1330.9765    367.08228    351.88783    582.45142    38760.619 
   41700    297.52297   -1366.9248    365.75803    330.89608    121.36392    38760.619 
   41800    307.04382   -1332.7998    360.28637    402.17606   -16.758219    38760.619 
   41900    298.65986   -1326.8371    365.03915    375.35502    100.55279    38760.619 
   42000    297.82241   -1348.8639    366.14833    350.68801    627.98548    38760.619 
   42100     294.1555   -1330.6152    368.22142     354.5924    670.41946    38760.619 
   42200    302.00675   -1308.5318    362.36329    405.96907    368.76469    38760.619 
   42300    298.11522   -1297.0875    390.71243    428.33947    504.54071    38760.619 
   42400    311.09387   -1352.3682    386.29626    426.75025    641.29797    38760.619 
   42500    287.52956   -1328.5384    372.41599    331.19822   -6.3911655    38760.619 
   42600    297.09974   -1293.5798    384.51541    421.10366    141.54834    38760.619 
   42700    300.68707   -1298.6863    362.57199     410.1149    52.630149    38760.619 
   42800    296.11405   -1386.1213    376.38545    316.01901   -310.30231    38760.619 
   42900    296.25627   -1300.7329     377.4002    403.05897   0.97361619    38760.619 
   43000    292.14226   -1247.7022    370.88769    431.15796   -659.61435    38760.619 
   43100     295.7431   -1307.4635    377.03484    393.66546   -455.92657    38760.619 
   43200    302.20609   -1310.6661    359.71092    402.07488    -740.3768    38760.619 
   43300    291.23298   -1312.5889    365.14114    356.45371   -380.26567    38760.619 
   43400    298.53319   -1336.1173    366.38561    366.85414   -287.98009    38760.619 
   43500    289.95848   -1372.5895    366.32085    291.92672   -33.632987    38760.619 
   43600    295.77215    -1384.617    384.86565    324.47286   -4.7275792    38760.619 
   43700    303.27854    -1380.736    357.17535    334.27097    29.963233    38760.619 
   43800    299.08118   -1392.5956     360.9739    307.41758    129.55627    38760.619 
   43900     298.2587   -1349.6414    379.39886     365.1144    373.45086    38760.619 
   44000    287.97723   -1371.1414    386.92346    305.10705   -111.68059    38760.619 
   44100     288.2935    -1397.545    381.86717    275.06309   -57.920912    38760.619 
   44200    295.65448   -1380.6151    383.67229    326.75453    461.77376    38760.619 
   44300    296.14683   -1362.6886    384.81816    348.03123    106.68941    38760.619 
   44400    307.05131   -1332.6441    365.69387    407.77274   -53.854638    38760.619 
   44500    300.81858   -1319.6468     387.5504    414.72149    130.63937    38760.619 
   44600    304.42643   -1307.7786    375.35016    430.54248    247.56301    38760.619 
   44700    292.90532   -1301.4681    394.47108    404.39185    227.03984    38760.619 
   44800    304.87212   -1314.2594    373.85017    424.55709    162.86859    38760.619 
   44900    292.93193   -1321.7899    372.06954    361.78767    335.64143    38760.619 
   45000    303.86219   -1306.6016    388.03198    441.87511    68.038589    38760.619 
   45100    302.74318   -1317.6213    369.97696    407.79035   -131.56437    38760.619 
   45200     306.7217   -1325.8177    389.47635     436.9059    4.5949806    38760.619 
   45300     293.7895   -1356.8967    376.10598    334.55683    31.412253    38760.619 
   45400    296.20573    -1302.281    380.23627    404.12072    569.38304    38760.619 
   45500    302.35616   -1314.6043    391.32418    430.42185    494.00778    38760.619 
   45600    291.71488   -1273.6116    385.56852    418.01596    9.6490834    38760.619 
   45700    297.43544   -1325.3855    383.42477    389.71024    537.18474    38760.619 
   45800    297.32092   -1338.6377    398.19998    390.72061   -118.14567    38760.619 
   45900    315.65873   -1361.2127    400.12267    452.16987    431.29932    38760.619 
   46000    306.85477    -1359.493    395.88379     410.2338    54.263845    38760.619 
   46100    311.75296   -1363.1352      409.013     441.6509    179.01035    38760.619 
   46200    303.25842   -1320.6572    397.64298    434.72727    16.736703    38760.619 
   46300    310.96545   -1345.9493    390.25733    436.55531   -26.455067    38760.619 
   46400    303.53895   -1332.8746    405.98768    432.11058    860.65137    38760.619 
   46500    296.93896   -1310.2989    364.97508    384.12435    632.71335    38760.619 
   46600    292.82917   -1321.1146    393.98594    383.91929    1085.2148    38760.619 
   46700     304.9779   -1289.8923    391.24008    466.78775     1217.762    38760.619 
   46800     294.9447   -1267.9171    412.24337    464.84581    344.53908    38760.619 
   46900    307.77446   -1291.5903    402.82689    489.19726    579.50812    38760.619 
   47000    297.03314    -1293.319    389.83257    426.38338    311.70805    38760.619 
   47100    306.63017   -1268.4874    399.60096    503.95101    632.78046    38760.619 
   47200     309.6486   -1310.4995    416.63729    492.48929     167.6668    38760.619 
   47300    302.83817   -1313.7723    388.64898    430.73665    448.14938    38760.619 
   47400    302.12472   -1292.6057    399.74716    459.80725    292.80512    38760.619 
   47500    301.17634    -1300.125    389.45737    437.75209    237.44191    38760.619 
   47600    290.29926   -1313.7499    398.00474    383.97595    187.08245    38760.619 
   47700    299.61599   -1295.0395    409.50582    455.90006    178.19825    38760.619 
   47800    306.36172   -1363.7394    387.82813    395.72429    25.190081    38760.619 
   47900    290.88598    -1312.585    412.81232    402.57527    297.71454    38760.619 
   48000    293.95325   -1381.2594    402.48453    337.30571    302.16946    38760.619 
   48100    301.13023   -1332.4092    396.77518    412.57925    418.74005    38760.619 
   48200    306.83217    -1337.233    390.78307    427.29195    522.82663    38760.619 
   48300    298.54499    -1392.196    376.38818    320.83083    838.03879    38760.619 
   48400    304.60815   -1386.9496    388.02597    364.86085   -129.34419    38760.619 
   48500     299.7729   -1367.4056    404.80179    379.53244    107.41803    38760.619 
   48600    306.78247   -1389.4592    395.68418    379.74433    26.627032    38760.619 
   48700    309.46631   -1414.7405    397.57473    368.36962    128.51171    38760.619 
   48800    294.34942   -1372.2585     386.5613    332.15713   -39.351492    38760.619 
   48900    301.76791   -1391.8179    399.08442    358.33479    73.895514    38760.619 
   49000    302.39841   -1340.3272    402.28155     415.8454    247.22015    38760.619 
   49100    287.00245   -1366.2348     420.4512    339.17708    518.70288    38760.619 
   49200    310.02623   -1379.6028    390.12195     398.5614    139.73178    38760.619 
   49300    301.05516   -1380.9823    393.60705    360.50189    71.679001    38760.619 
   49400    308.13542   -1366.0358    374.09962    387.64057    587.98945    38760.619 
   49500    307.42966   -1362.8659    377.55814     391.1092    167.52621    38760.619 
   49600    295.57729   -1369.1479    388.91396    343.11783   -158.77496    38760.619 
   49700    291.97734   -1339.4051     386.7597    354.58876    307.75242    38760.619 
   49800    292.06824   -1338.3587    399.00901    368.29141    92.972033    38760.619 
   49900    291.18876   -1403.4064    387.64623    287.94333    215.79658    38760.619 
   50000    292.60965    -1354.825    380.82509     336.0652    690.55173    38760.619 
   50100    301.70286   -1344.2868    395.57273    402.06292    30.219011    38760.619 
   50200    294.22577   -1353.1753    396.26085    360.38638   -145.08521    38760.619 
   50300    297.72784   -1345.9049    389.17276    376.24796    8.0926555    38760.619 
   50400    309.14731    -1331.068    396.06284    449.10196    84.510752    38760.619 
   50500    304.53219   -1332.5109    412.95544    443.88897    -183.6626    38760.619 
   50600    296.51267   -1308.9989     412.6622     431.2029     315.5964    38760.619 
   50700    302.40603   -1301.3389    404.29103    456.87738    94.356918    38760.619 
   50800    298.58649   -1342.8193    424.31579    418.32096   -170.58302    38760.619 
   50900    301.08116   -1297.6596    417.60985    467.94374    -21.35401    38760.619 
   51000    296.37736   -1309.4807    409.19316    426.64624   -52.717881    38760.619 
   51100    297.89383   -1323.7533     383.4725     393.4425   -193.89165    38760.619 
   51200    301.56689   -1321.3979    403.55602    432.32643    293.23315    38760.619 
   51300    299.49042   -1336.4565    400.25841    404.67342    300.63672    38760.619 
   51400    305.23155   -1347.5935    418.01277    436.99481    150.25492    38760.619 
   51500    302.81417   -1314.2225    400.27091    441.80094    263.73204    38760.619 
   51600    296.85104   -1309.2595    395.40086    415.19589    225.46463    38760.619 
   51700    308.84192   -1311.0931    401.67285    473.31962    293.48766    38760.619 
   51800    293.00306   -1358.3194    392.20593    345.71299    714.88093    38760.619 
   51900    287.86201   -1339.2719    400.06105    349.59823    259.91603    38760.619 
   52000     301.6822   -1368.0118    401.26433    383.93709    150.93619    38760.619 
   52100    303.43521   -1361.3335    386.88163    384.08123    566.92392    38760.619 
   52200    291.60762   -1347.2824    386.06565    344.36209    263.91641    38760.619 
   52300    302.37226   -1331.8235    395.20959    417.16008    223.81085    38760.619 
   52400    305.60767   -1334.0924    411.74322    445.91033    185.50032    38760.619 
   52500    302.33464   -1330.3679    404.91827    428.15597    303.93949    38760.619 
   52600    300.25686   -1343.5483    413.64723    414.40193    718.02864    38760.619 
   52700    304.04416    -1320.356    401.96442     442.8678    324.38758    38760.619 
   52800    302.40609   -1369.8947    386.48048    370.51131   -57.835179    38760.619 
   52900    294.91653    -1373.894    376.08418    322.58357   -622.87916    38760.619 
   53000    289.45926   -1345.3651    396.91067    347.50583   -746.30519    38760.619 
   53100    296.95073   -1355.3462    394.43737    368.59206   -615.65237    38760.619 
   53200    310.67304   -1343.3398    402.90322    450.50156   -435.95933    38760.619 
   53300    282.03298   -1334.2079    421.90405    350.40761   -754.09408    38760.619 
   53400    303.62811   -1397.6682    405.97348      367.702    147.50306    38760.619 
   53500     302.2687   -1397.4333    386.66535    342.54239     148.1797    38760.619 
   53600    308.60003   -1366.2001    423.59186     439.0486    276.99804    38760.619 
   53700    309.17434    -1397.344    428.05985    414.94399    700.00607    38760.619 
   53800    306.72903   -1361.3798    414.97352    426.87384    256.73774    38760.619 
   53900     311.0578   -1364.8623    408.43846    436.23691    191.10833    38760.619 
   54000    302.23243    -1391.039    391.11512    353.22418    458.45455    38760.619 
   54100    296.52434   -1329.9691    408.80324    406.42596    546.23694    38760.619 
   54200    301.25263   -1407.4643    382.13996    323.43694    146.74054    38760.619 
   54300    302.99641   -1372.2979    419.84941    404.11997     180.2372    38760.619 
   54400    297.32563   -1364.5482    417.81653     384.4477    71.815758    38760.619 
   54500    301.90487   -1361.6425    391.07172    381.11066    388.71596    38760.619 
   54600    292.03253   -1359.7701     412.5186    360.22977    267.27646    38760.619 
   54700    290.05923   -1341.5565    402.72212    359.81209    77.046004    38760.619 
   54800    303.30372   -1369.6474     413.9425     402.2395   -431.22828    38760.619 
   54900    301.52843   -1365.9534    393.18195    377.22462   -324.24449    38760.619 
   55000    307.82153   -1381.2687    434.23493    431.13764    28.829782    38760.619 
   55100    293.32164   -1413.6222    387.73459    287.36515   -24.015237    38760.619 
   55200    305.62953   -1412.3735    386.30988    342.29377    90.862372    38760.619 
   55300    297.97578   -1439.5111    395.71246    290.29158    437.55368    38760.619 
   55400    301.95023   -1374.1811    404.07978    381.78323    43.910549    38760.619 
   55500    300.14397   -1341.4239     411.0128     413.3865    342.04423    38760.619 
   55600    296.29155   -1396.9238    394.64497    324.27082    -259.6592    38760.619 
   55700    305.46465   -1392.6338     416.7373     391.7227    102.69319    38760.619 
   55800     294.2528   -1368.4405    423.40526    372.38655   -667.98646    38760.619 
   55900    296.01641   -1355.7776    401.88103    371.42123    -424.4867    38760.619 
   56000    302.40759   -1313.9299    422.80439    462.80673    -364.6301    38760.619 
   56100    307.34745   -1315.5148     423.6734    484.20742   -448.53191    38760.619 
   56200    294.26231   -1289.6584     431.5365    459.34247   -51.941445    38760.619 
   56300    302.56241   -1311.1292    420.40516     463.9013   -55.246012    38760.619 
   56400    295.60747   -1314.0848    405.81526    415.21738    445.55053    38760.619 
   56500    305.99015   -1301.9834    438.73208    506.72068    158.36474    38760.619 
   56600    308.98453   -1322.2585     404.3084    465.42827   -180.36209    38760.619 
   56700    303.92119   -1330.7325    410.83614    440.81255   -126.92526    38760.619 
   56800    290.26584   -1346.7256    419.41612    372.26201   -178.29986    38760.619 
   56900    307.49598    -1341.031    428.28627     463.9691    87.046234    38760.619 
   57000    295.72243   -1320.5484    460.02828    463.48146   -474.59001    38760.619 
   57100    289.97042   -1325.2656    420.32699    393.31017   -508.38115    38760.619 
   57200    293.14495   -1390.8009    413.78564    335.44649   -270.63997    38760.619 
   57300    300.48905   -1395.1486    403.83955    354.03353   -84.574328    38760.619 
   57400    306.06524   -1376.1746    436.38873    430.52225    2.0580318    38760.619 
   57500    301.97169   -1372.7824    428.19907    407.39732   -73.770195    38760.619 
   57600    302.05896   -1408.8353    414.73685    358.27289    -442.2213    38760.619 
   57700    303.33909    -1415.956    417.90481    360.05155   -608.42824    38760.619 
   57800    301.12361   -1343.4841    440.92675    445.62627    -186.2482    38760.619 
   57900    295.37483   -1367.7743    417.06335    371.73429    304.92137    38760.619 
   58000    303.58557   -1378.0014    408.77201    389.97685    128.49261    38760.619 
   58100    294.69899   -1391.7088    435.12911    362.83973   -711.17707    38760.619 
   58200    292.46673   -1392.6631    423.43987    340.20201   -196.28886    38760.619 
   58300    307.70591   -1364.8038    428.51804    441.36795   -416.05385    38760.619 
   58400    301.51263   -1403.7959    411.10952    357.23891   -335.80585    38760.619 
   58500    294.91713   -1387.7893    429.63315    362.23998   -374.80085    38760.619 
   58600    310.14539   -1373.0104    420.56634    436.13165   -60.663972    38760.619 
   58700    300.95064   -1401.6331    423.65522    369.43136   -302.19796    38760.619 
   58800    299.20678   -1434.5642    423.47227    328.50971   -70.907315    38760.619 
   58900    299.19055   -1422.0499    428.04006    345.51906   -177.11105    38760.619 
   59000    305.83095   -1399.6116    431.33381     400.9814   -208.32348    38760.619 
   59100    306.99509   -1393.2495    409.14086    390.36263   -229.21176    38760.619 
   59200    300.95913   -1364.0879    400.78174    384.14107   -890.16732    38760.619 
   59300    295.92687   -1386.7505    401.98825    340.15468   -1164.7316    38760.619 
   59400    291.60022   -1364.6982     420.0227    360.87016   -1066.3848    38760.619 
   59500    293.70249   -1386.9126    426.02925    354.07462   -572.21889    38760.619 
   59600    312.14791   -1359.1854    418.63254    456.98852   -315.96274    38760.619 
   59700    293.91103   -1377.3985    421.24264    359.73578   -460.31332    38760.619 
   59800    307.58659   -1366.7774    422.43957    432.78167   -213.95132    38760.619 
   59900    305.27207   -1386.6232    414.69229    394.82605   -124.73761    38760.619 
   60000    304.22485   -1346.5545    432.34112    447.85497   -457.89448    38760.619 
   60100    297.08256   -1394.1169    434.43624    370.41046    272.71564    38760.619 
   60200    293.12171   -1395.5766    400.12285     316.9039    171.74102    38760.619 
   60300     296.5091   -1405.2059    424.01844    346.33614    221.86763    38760.619 
   60400    289.48111   -1353.3162     434.9176    377.65952   -166.60647    38760.619 
   60500    312.49151   -1334.4144    418.68057    483.34592    337.90113    38760.619 
   60600    294.87978   -1349.8707    446.66102    417.01924    214.24423    38760.619 
   60700    295.58783   -1335.0985    449.87472     438.1752    194.73749    38760.619 
   60800    306.03261   -1332.6989    430.04324    467.50641    98.072923    38760.619 
   60900    299.01565   -1333.3853    466.23256    471.59313    60.940764    38760.619 
   61000    289.60365   -1378.1622    409.44659    327.89109   -75.647113    38760.619 
   61100    294.79965   -1370.2238    429.28544    378.93174   -311.66732    38760.619 
   61200    306.18044   -1364.9687    424.30371    430.15895    -538.9835    38760.619 
   61300    297.70569   -1351.8212    432.84835    413.90812   -144.49284    38760.619 
   61400    290.69743   -1363.4885     411.4515    349.46672   -216.90571    38760.619 
   61500     289.8687   -1348.8137    451.28623    400.26589    58.743187    38760.619 
   61600    295.20413   -1357.6811    434.16426     398.1642    346.71393    38760.619 
   61700    311.92878   -1347.8459    423.90079    472.61511   -45.663377    38760.619 
   61800    297.95971   -1378.7731    428.61578    383.86097    129.99285    38760.619 
   61900    298.39597   -1367.9686    445.31924     413.3221    274.00868    38760.619 
   62000    306.47118   -1395.3293    427.98651    404.78288    253.95953    38760.619 
   62100    298.92303   -1390.0897     441.1676    389.40915    222.17538    38760.619 
   62200    314.06316    -1384.983    417.10834    438.24158   -121.59721    38760.619 
   62300    304.19299   -1384.4905    419.01513     396.4504   -713.66289    38760.619 
   62400    301.62919   -1417.3314    426.26051    359.37633   -303.98659    38760.619 
   62500    303.62288   -1409.8382    405.15981    354.69494    -398.3863    38760.619 
   62600    306.28166    -1393.302    413.60618    391.58127   -163.04697    38760.619 
   62700    301.93387   -1377.4699     416.0329    390.37425    186.44884    38760.619 
   62800      305.225   -1391.6461    397.30072    372.20085   -752.16709    38760.619 
   62900    304.82269    -1399.217    463.15839    428.68644   -623.36457    38760.619 
   63000    296.79131   -1395.7948    400.81771    333.81004   -791.24021    38760.619 
   63100    302.79536   -1371.0635    446.62997    431.23481   -568.10266    38760.619 
   63200    301.94982   -1387.4108    439.36996     403.8419     92.79367    38760.619 
   63300     288.2311   -1394.0214    437.96824    334.40843   -328.62243    38760.619 
   63400    293.18308   -1382.0595    411.34945    341.92246   -190.66757    38760.619 
   63500     296.3056   -1392.3122    406.28273    340.58307   -137.36146    38760.619 
   63600     301.2163   -1406.4011    445.09601    387.29348   -124.64929    38760.619 
   63700    290.56611   -1435.0674    418.05093    283.89936   -83.060923    38760.619 
   63800    301.94995   -1419.9229    411.64688    343.60723   -77.747504    38760.619 
   63900    297.26521   -1390.1212     430.2269    371.01457     27.82026    38760.619 
   64000    309.46042   -1414.9765    406.43589    376.96842    446.64984    38760.619 
   64100    296.96375   -1421.9038    436.10385     343.7592     1070.374    38760.619 
   64200    302.95186   -1418.8988    415.33729    352.80755    902.99715    38760.619 
   64300    312.82079   -1408.2846    429.84184    422.11123    83.625899    38760.619 
   64400    297.99192   -1393.0504    434.35999    375.47209    -135.6749    38760.619 
   64500    299.93542   -1431.5327     412.6555     323.9867   -194.54316    38760.619 
   64600    294.31674   -1405.4888    412.50284    324.72207   -208.70511    38760.619 
   64700     304.6454   -1349.4102     434.0582    448.59922   -420.37565    38760.619 
   64800    301.52088   -1398.6081    434.99114     386.3453   -196.64379    38760.619 
   64900    306.26622    -1418.076    413.16607    366.29803   -364.87878    38760.619 
   65000    307.35875   -1423.7787    428.45248    380.77321   -382.04468    38760.619 
   65100    302.25861   -1422.9925    440.40611    370.67883   -265.92091    38760.619 
   65200    297.51212   -1398.2794    431.22879    364.96375    223.37779    38760.619 
   65300    294.85903   -1360.5841    443.74681    403.29868    565.82485    38760.619 
   65400     284.9941   -1431.8109    427.50274    271.66072     399.8425    38760.619 
   65500    294.92862    -1391.672    438.06914    366.84464   -584.42641    38760.619 
   65600    294.38326   -1424.2569    414.93535    308.68433   -90.823267    38760.619 
   65700    292.36785   -1440.6589    416.74452    285.06819   -196.47033    38760.619 
   65800    303.60032    -1447.965    445.62536    356.93266    299.96868    38760.619 
   65900    294.37069   -1432.8633    423.39323    308.47956    164.11441    38760.619 
   66000    305.42088   -1444.7419     431.5154    354.19678    125.43984    38760.619 
   66100     288.1789    -1428.737    429.63628    291.12718    49.321731    38760.619 
   66200    293.39627   -1448.1283    414.61504    280.07365      248.046    38760.619 
   66300    301.97543   -1417.4447    420.86655     355.4192    228.57723    38760.619 
   66400    302.81577   -1424.9418    423.58436    354.40222     319.8569    38760.619 
   66500    291.94514    -1408.417    416.93738    315.61038    760.21856    38760.619 
   66600    299.90615   -1424.7973    430.75661     348.6921    677.51391    38760.619 
   66700    305.87799    -1422.458    425.35537    372.36722    287.00706    38760.619 
   66800    294.81256   -1439.9216    422.80413    302.81043    149.98018    38760.619 
   66900     316.0137    -1423.751    414.67097    405.76917    302.36281    38760.619 
   67000    294.56243   -1424.3099    408.54141    303.03955   -36.662698    38760.619 
   67100    298.75187    -1381.964    424.81287    380.41373    25.308388    38760.619 
   67200    302.38181   -1394.5081    438.15489     397.4636   -58.589321    38760.619 
   67300    293.02293   -1427.7436    411.39144    295.56324    398.42011    38760.619 
   67400    307.95999   -1401.7945    458.22682    435.22365    378.42176    38760.619 
   67500    293.60151   -1392.9998      430.138      351.644   -236.58996    38760.619 
   67600    301.91882    -1366.004    434.07943    419.81933   -275.11019    38760.619 
   67700    302.91727   -1343.7914    452.74892    465.17168   -200.18437    38760.619 
   67800    291.90151   -1384.6534    413.43046    335.67169   -321.10267    38760.619 
   67900    296.66754    -1383.151     437.5702    382.65214   -198.25701    38760.619 
   68000     299.4033   -1362.7417    421.45367    399.19343    27.094884    38760.619 
   68100     294.3167   -1409.1944    438.28732    346.80079    135.54966    38760.619 
   68200    298.35669   -1414.1681    430.80822    352.43573    274.74836    38760.619 
   68300    295.26894   -1373.8253    449.38648    397.53238    28.190146    38760.619 
   68400    311.71178   -1412.3867     428.0453    411.24732    1277.7522    38760.619 
   68500    299.68886   -1408.9245    437.88606     370.7216     890.8935    38760.619 
   68600    310.38801   -1431.0143    421.35804    380.00572    1261.3391    38760.619 
   68700    303.63311   -1416.4274    448.16695    391.15862    772.97867    38760.619 
   68800     294.4188   -1424.7765    417.98328    311.37174    355.90102    38760.619 
   68900    306.06039   -1398.8136    439.94397    411.41679    207.90636    38760.619 
   69000    302.22627    -1399.889    409.82424    363.05568    511.24368    38760.619 
   69100    304.88847   -1396.6226    407.66229    376.07921   -18.838664    38760.619 
   69200     308.4488    -1403.628    438.20437    415.55617    449.71031    38760.619 
   69300    303.01299   -1369.8798    433.17798    419.94089    751.91382    38760.619 
   69400    285.48487   -1373.7049    439.46357    343.92484    151.70128    38760.619 
   69500    300.11536   -1379.6808    432.04268    396.03135    245.71202    38760.619 
   69600    301.12371   -1354.1313    426.02993     420.0827    372.72632    38760.619 
   69700    323.13045   -1380.4756    428.72152    494.95808    297.74957    38760.619 
   69800    298.02261   -1423.9406    426.40602    336.76525    187.10395    38760.619 
   69900    307.52921   -1392.8355    426.91865    410.94578    260.39548    38760.619 
   70000    295.39567   -1432.9675    416.65297    306.22409     436.2164    38760.619 
   70100    302.03539   -1437.3572    410.70484     325.6134   -2.1840226    38760.619 
   70200    297.62572   -1431.1228    427.57617    328.97627    59.059014    38760.619 
   70300    301.72895   -1438.1165    431.00621    343.78352      336.009    38760.619 
   70400    291.39665   -1428.3977    421.81929    298.05588    440.99491    38760.619 
   70500    296.07132   -1410.7058    416.52672    331.38451   -51.838799    38760.619 
   70600    305.94861   -1444.9592    427.57288    352.39973   -300.59146    38760.619 
   70700    292.90587   -1448.6575       418.29    281.02387   -401.01205    38760.619 
   70800    299.35088   -1468.9638     418.3124    289.59543      54.3162    38760.619 
   70900    303.88669    -1414.889    410.51884    356.18422   -429.35102    38760.619 
   71000    306.91268    -1426.493    441.37999    388.98925   -475.50607    38760.619 
   71100    297.89014   -1392.7361    439.84032    380.81098   -774.49392    38760.619 
   71200    289.10182    -1383.108    438.16587    349.41781    -882.8232    38760.619 
   71300     305.1234   -1408.8186     431.4158    388.68856   -713.56431    38760.619 
   71400    301.27228   -1422.1389    442.26852    368.97885   -764.40512    38760.619 
   71500    295.98582    -1441.595    423.16909    306.75486   -431.26625    38760.619 
   71600    298.06647   -1454.4316     408.7684      288.833   -215.64871    38760.619 
   71700    313.61317   -1419.3426    417.65436    402.41332    -272.2638    38760.619 
   71800    318.00967   -1445.8508     419.9337    397.86837   -287.98923    38760.619 
   71900    305.94557   -1482.8499    464.95077    351.87331    116.80301    38760.619 
   72000    301.64128   -1451.9585    437.11917    335.66193    540.53684    38760.619 
   72100    299.68923   -1461.5509     426.3045    306.51526    760.54192    38760.619 
   72200    289.82881   -1470.1744    410.35398    237.79434    1160.4967    38760.619 
   72300    300.14869   -1486.3257    434.93688    292.42989     1047.127    38760.619 
   72400    289.71968   -1493.9161    435.54822    238.75827     667.9864    38760.619 
   72500    306.43048   -1459.9945    450.33299    362.28194    164.14506    38760.619 
   72600    314.30773   -1498.4154    432.55582    341.35164    814.38958    38760.619 
   72700    298.60541   -1488.2762     426.0591    274.69208    60.517922    38760.619 
   72800     293.8479   -1484.5319    411.41674    242.49383    553.12337    38760.619 
   72900    303.71984   -1445.7029    397.49057    311.59507     46.14865    38760.619 
   73000    298.64811   -1471.9421    420.08922    285.24752    204.60954    38760.619 
   73100     309.9955   -1475.2073    396.53794    309.23524    136.34474    38760.619 
   73200    303.06685   -1503.2905    384.28938     237.8827     197.7273    38760.619 
   73300    305.53833   -1448.7543    444.64215    363.83689    240.67611    38760.619 
   73400    295.43829   -1446.4505     424.6318    300.91077    296.53333    38760.619 
   73500    306.17791   -1446.2852    439.07121    363.59866    270.35156    38760.619 
   73600    303.71143   -1400.8852    442.31271    401.19723    440.89323    38760.619 
   73700    296.61651   -1407.7347    436.50073    356.77053   -49.063967    38760.619 
   73800    294.95615    -1416.111    443.98824    348.44803    420.21825    38760.619 
   73900    305.51535   -1382.9462    416.33327    401.23324    -333.3703    38760.619 
   74000     294.4593   -1367.6953    438.74321    389.39427   -851.34234    38760.619 
   74100    303.92813   -1383.0623    436.86513     414.5428   -458.02803    38760.619 
   74200     293.8315   -1451.0081    422.93872    287.46611    -601.4878    38760.619 
   74300    290.11729   -1455.1747    422.48871    266.22039   -284.26281    38760.619 
   74400    300.11144     -1421.94    430.28401    351.99589   -207.51634    38760.619 
   74500    299.59092   -1420.5912    453.65649    374.38682    208.89878    38760.619 
   74600    290.33408   -1410.8558    432.54309    321.56421    16.209924    38760.619 
   74700    308.58726   -1415.4397    439.89961    406.05964    2.9354145    38760.619 
   74800    292.44204   -1413.4604    434.69474    330.54907    53.871669    38760.619 
   74900    314.98341   -1398.5608     423.1957    434.87129    287.38861    38760.619 
   75000     299.7657   -1418.6803    439.12374    362.54748    679.39806    38760.619 
   75100     307.0944   -1430.7025     434.0957    378.30912    397.75729    38760.619 
   75200    295.26415   -1392.0446    451.59049    381.49566    349.11984    38760.619 
   75300    302.53951   -1413.5814    460.52008    401.46155    671.45718    38760.619 
   75400    302.58685   -1396.5165    423.07231    381.29057    735.48607    38760.619 
   75500     292.9478   -1386.9244    430.30293    354.95765     563.9352    38760.619 
   75600    298.46776   -1409.5431    430.65613    357.40591    30.862491    38760.619 
   75700    292.47367   -1392.5582     444.8133     361.7114    348.92333    38760.619 
   75800    295.70552   -1401.0285    434.74919     357.6465   -131.32294    38760.619 
   75900    292.88498   -1405.1284    438.07777     344.2472   -156.21159    38760.619 
   76000    300.87978   -1401.8067    419.94936    365.23456   -221.79478    38760.619 
   76100    292.79096   -1392.3764    433.92692    352.42736     131.8619    38760.619 
   76200    288.30574   -1389.2143    434.39458    335.97604   -35.114741    38760.619 
   76300    306.31953   -1424.3473    437.41898    384.51837    93.227332    38760.619 
   76400    302.38089   -1390.9499    436.26417    399.12697    254.59805    38760.619 
   76500    300.48604   -1394.7684    458.97056    409.53128    628.36817    38760.619 
   76600    307.68556   -1404.7123    449.71692    422.56724    1048.8261    38760.619 
   76700     299.7608   -1401.3004    437.01684     377.7985    654.69712    38760.619 
   76800    304.06328   -1393.0819    434.41428    402.67741    212.85255    38760.619 
   76900     303.7307   -1342.0009     449.8251    467.68024    55.579366    38760.619 
   77000    306.29586   -1367.1683    450.67589    454.84826    114.60827    38760.619 
   77100     296.2224   -1414.5777    442.72525    354.38752   0.53695533    38760.619 
   77200    296.91891   -1387.4962    467.04531    408.90759    760.29324    38760.619 
   77300    301.29136   -1412.0964    443.14463    379.98289     521.8337    38760.619 
   77400    307.60191   -1390.3631    432.49242    419.31737    365.26065    38760.619 
   77500    294.26682   -1395.3359    443.30535    365.45404   -299.93732    38760.619 
   77600    299.35431   -1399.7498    435.65195     376.1643   -29.083113    38760.619 
   77700    296.47977   -1451.4122    452.43229    328.41236   -201.91293    38760.619 
   77800    296.17291   -1458.1767    436.56496    304.40676    -175.0366    38760.619 
   77900    310.27342   -1406.4582    453.21433    435.90504    -473.4624    38760.619 
   78000    294.79207   -1441.4156    451.18331    329.60387   -420.17888    38760.619 
   78100    312.99259   -1438.2212    416.27226    379.37415   -24.059435    38760.619 
   78200    301.28072   -1435.7396    433.80102    346.94848   -96.727085    38760.619 
   78300    295.35547   -1443.5109    456.25132    335.09902   -214.82143    38760.619 
   78400    305.08698    -1449.045    457.59229    374.47564   -131.77496    38760.619 
   78500    294.27177   -1434.0482     431.3489    314.80741    -94.45872    38760.619 
   78600    300.69039   -1438.2307     448.2813    356.29463     44.55083    38760.619 
   78700    290.48597   -1451.9018    437.98078    286.63594   -228.96719    38760.619 
   78800    307.44433   -1430.0212    429.73161    376.19297    329.91058    38760.619 
   78900    300.26028   -1444.9825    435.98976    335.32559    332.73186    38760.619 
   79000    316.56777   -1392.7259    455.56502    480.16892    96.137591    38760.619 
   79100    307.75637   -1408.4604    438.32981     407.7491   -208.03501    38760.619 
   79200    294.35671   -1414.8801    427.62297    330.62991    291.09949    38760.619 
   79300    292.75751   -1440.1298    426.88821    297.48553   -292.60161    38760.619 
   79400    305.23499   -1448.7924    427.30302    345.10158   -9.6712518    38760.619 
   79500    292.67245   -1435.5796    438.73095    313.49759   -457.93545    38760.619 
   79600    289.92289   -1484.8738    413.68864    226.85083   -47.336679    38760.619 
   79700    304.28257    -1417.048    446.56224    391.84111    246.08393    38760.619 
   79800    306.73999   -1456.0533    444.63729    361.91306     69.40285    38760.619 
   79900    298.83969   -1423.3445     440.7718    355.38537   -247.37962    38760.619 
   80000    303.91623   -1429.3144    441.10867    372.48093   -436.71005    38760.619 
   80100     309.7466   -1409.0202    425.36222    403.13229    -557.6163    38760.619 
   80200    300.41874   -1420.8509    443.31504    367.49192   -945.54284    38760.619 
   80300    305.75518   -1443.5739    427.56181    352.90792   -892.66198    38760.619 
   80400    295.78105   -1454.4168    463.24798    333.09522   -309.55021    38760.619 
   80500    309.48378   -1472.9869    436.70711    349.33372   -207.36646    38760.619 
   80600    291.53753    -1465.438    424.62565     264.4527   -472.22666    38760.619 
   80700    294.66232   -1445.4141    436.91274    310.75389   -92.267746    38760.619 
   80800    303.80333   -1426.1305    445.36516    379.41582   -151.32064    38760.619 
   80900    293.47823   -1436.6157    422.61852    299.95668   -207.72557    38760.619 
   81000    296.41457   -1424.5833    425.31176    327.82888   -240.51584    38760.619 
   81100    300.63318    -1416.942    448.14564    377.19154   -295.27204    38760.619 
   81200    298.00786   -1426.1323    458.67648      366.778    169.92767    38760.619 
   81300    306.51477   -1406.1272    436.42125    402.61487    490.91187    38760.619 
   81400     308.3199   -1480.0863    431.73364    332.04998    317.50608    38760.619 
   81500     304.6625   -1445.9063    422.46331     340.5848    382.93392    38760.619 
   81600    294.09635   -1444.9201     412.4261     284.2273   -329.94694    38760.619 
   81700    295.66435   -1471.6102     437.5178    289.64909   -61.583514    38760.619 
   81800    299.16484    -1488.205    413.11905    264.32789   -115.45778    38760.619 
   81900    300.06415   -1490.8328    432.12983    284.73721    5.7130816    38760.619 
   82000    303.17628   -1483.1472    434.24845    308.47509    56.219149    38760.619 
   82100    291.41775   -1465.2979     442.4216    281.85244   -171.49638    38760.619 
   82200    305.57266    -1446.307    423.46387    345.25962   -733.69424    38760.619 
   82300    298.97888   -1430.2038    434.46641    342.84384   -641.66836    38760.619 
   82400    305.31973   -1454.3082    429.26109    341.92325   -365.42541    38760.619 
   82500    294.04174   -1434.6313    426.08798    307.93351   -196.21693    38760.619 
   82600    293.73101   -1447.4743    423.89736    291.50872   -149.02593    38760.619 
   82700    297.30318   -1441.1961     429.4303    319.31305   -225.22749    38760.619 
   82800    307.77958   -1425.5359    448.82849     401.2762    128.78221    38760.619 
   82900    307.00291    -1409.225    442.09057    407.37185    136.39334    38760.619 
   83000    298.67369   -1407.4082    456.42251    386.22916    124.78869    38760.619 
   83100    302.09041   -1400.8603    438.41001    390.06186    325.07112    38760.619 
   83200    295.02926   -1410.0174    439.28379    350.16451   -10.351733    38760.619 
   83300    306.31218   -1424.8107    409.91529    356.51833   -314.23816    38760.619 
   83400    308.97074   -1385.1245    431.17308    429.36516   -386.57913    38760.619 
   83500     306.5128   -1387.2478     447.6138      432.678   -164.90817    38760.619 
   83600    291.50305   -1365.1273    437.14796    377.13134   -95.390769    38760.619 
   83700    284.57172   -1381.6395    440.41367    332.85202   -163.29775    38760.619 
   83800    295.98657   -1407.5858    444.09879    361.69711   -193.62064    38760.619 
   83900    300.91704   -1440.3946    441.97173    348.83592   -116.46697    38760.619 
   84000    304.82623   -1415.9696     447.0901     395.8814    -9.657911    38760.619 
   84100    296.05275   -1464.9873    417.84341    278.33658    255.30191    38760.619 
   84200    300.01619   -1439.1978    450.75695    354.78465    89.158348    38760.619 
   84300    296.28281   -1429.2706    452.02844    349.26827    166.14694    38760.619 
   84400    293.52208    -1416.646    418.71037    316.21463    206.83717    38760.619 
   84500    302.27283   -1398.4761     426.7655    381.61832    181.14291    38760.619 
   84600    300.81969   -1466.8213    426.20096    306.20252    345.29461    38760.619 
   84700     300.9606   -1461.4812    432.91173    318.88434   -12.648288    38760.619 
   84800    302.36856   -1441.5679    452.42026    364.60979    291.90626    38760.619 
   84900    305.29221   -1454.8409    422.75729    334.76356    471.23031    38760.619 
   85000    306.84026   -1463.7373    430.01184    340.05258    374.68086    38760.619 
   85100      300.086   -1439.4431    416.89133    320.98631    809.01267    38760.619 
   85200    296.60067   -1468.2023    423.87622    283.60754    562.32419    38760.619 
   85300    301.64671    -1438.277    428.27593    340.52453    324.02214    38760.619 
   85400    299.67402   -1458.2042    428.56845    312.05778    698.59908    38760.619 
   85500    310.19608   -1473.6354    426.91064    342.07792    613.21612    38760.619 
   85600    295.32944   -1446.7142    429.89806    305.42596    191.83336    38760.619 
   85700    288.57561   -1462.7792    410.18358    239.40838    400.07529    38760.619 
   85800    311.31363   -1505.5606    425.07219    313.31776    468.61219    38760.619 
   85900    295.89155    -1472.558    444.71168    296.91242     60.16334    38760.619 
   86000    297.53439   -1459.0626    449.70554    322.75695    280.95951    38760.619 
   86100    295.41026    -1480.916    445.36713    287.05501    373.65171    38760.619 
   86200    297.70095    -1488.112    421.49774    266.24551   -74.254615    38760.619 
   86300    302.21118   -1454.1346    420.16967    319.08793    120.81944    38760.619 
   86400    304.29034   -1421.8691    451.29145      391.784   -194.05205    38760.619 
   86500    299.04229   -1438.3249    421.49563    322.03587   -70.942233    38760.619 
   86600     308.5309   -1472.6337    422.34638    331.06001   -23.511839    38760.619 
   86700    312.40477    -1454.502    439.17539    383.36476    466.46243    38760.619 
   86800    292.15299     -1424.26    461.93977    345.70034   -221.01327    38760.619 
   86900    302.83637   -1415.6636    439.02766    379.21601   -87.095061    38760.619 
   87000    295.85356   -1424.7717    441.25724    341.07424   -196.73137    38760.619 
   87100    302.04835   -1455.7958    438.07176    334.59977    146.63239    38760.619 
   87200     293.3874   -1452.9878    432.71962    293.27902    585.01881    38760.619 
   87300    299.67197   -1422.8103    428.45572    347.32978    439.71537    38760.619 
   87400     295.7675   -1400.3855    432.71999    356.53785   -487.17898    38760.619 
   87500     298.5383    -1419.585     449.6364    366.66007   -299.53448    38760.619 
   87600    296.46013    -1430.481    427.53718    324.36057   -92.782306    38760.619 
   87700    297.08339   -1412.7638    457.03404    374.36505    174.97426    38760.619 
   87800    302.34756   -1409.6805    432.90274    376.88573   -124.17673    38760.619 
   87900    296.86235   -1364.7129    449.50742     413.8997     293.5944    38760.619 
   88000     302.3037   -1442.6466    428.19606    339.01652   -193.21054    38760.619 
   88100    299.48667   -1409.5546    430.51597    361.81611   -362.09822    38760.619 
   88200    308.69494    -1387.957    461.49654    455.62128   -252.17397    38760.619 
   88300     302.5476   -1410.7985    446.73999    390.50058    40.280594    38760.619 
   88400    300.38815   -1384.8637    422.34786    382.37503    261.30995    38760.619 
   88500    291.67935   -1414.7135    437.03931    328.22583    111.06296    38760.619 
   88600    305.60791   -1422.0729    417.08668    363.27436   -186.61521    38760.619 
   88700    290.87032   -1387.1161    448.01692    363.17865    280.81651    38760.619 
   88800    298.57001   -1414.0855    419.12601    341.79118    152.10113    38760.619 
   88900    302.04027   -1433.2744    426.83305    345.84627   -144.75824    38760.619 
   89000    298.58089   -1365.4978    440.23913    411.54075    270.53519    38760.619 
   89100    307.17857   -1380.7519     445.5896    440.13046    452.21804    38760.619 
   89200    304.77709   -1410.1721    414.07031    368.43916    637.99915    38760.619 
   89300    297.25243    -1423.664    437.30105    344.48873     380.2837    38760.619 
   89400    295.46369   -1412.4854    439.32868    349.68644   -86.355795    38760.619 
   89500    307.77355   -1430.6909    419.92005    367.18573    361.95117    38760.619 
   89600    305.13702   -1404.3112    427.40039    389.24152    189.06445    38760.619 
   89700    293.77427   -1355.8058    445.25109     404.7246    67.238753    38760.619 
   89800    299.22367   -1369.5245    436.00039    406.15315     -184.484    38760.619 
   89900    297.05593   -1381.5009    440.07583    388.54687    30.486021    38760.619 
   90000    295.96228   -1409.5979    439.27717    354.75465    17.316096    38760.619 
   90100    299.69313   -1414.8761    447.48824    374.39123    296.95126    38760.619 
   90200    306.01604   -1446.6079    436.42036    359.90031    348.78228    38760.619 
   90300    305.59552    -1375.819    422.57162    414.95773    223.23027    38760.619 
   90400    306.70513    -1368.495    457.26617    461.94421    205.70747    38760.619 
   90500    308.39412   -1369.9302    460.80552    471.61028    200.23247    38760.619 
   90600    297.16215   -1375.7787    439.79854    394.46726    502.88048    38760.619 
   90700    294.31859   -1389.9131    435.22591    363.02913    764.78009    38760.619 
   90800    305.30601    -1402.004    424.98384    389.88876   -38.688454    38760.619 
   90900    305.63835   -1380.3028    449.79072    437.88483    -199.6589    38760.619 
   91000    306.41509   -1401.4351    457.93097    428.37039    -448.1653    38760.619 
   91100    293.63363   -1343.9792    433.07082    403.74133   -638.19018    38760.619 
   91200    305.26595   -1359.3521    439.52536    446.90283   -1045.2097    38760.619 
   91300    304.28421   -1374.0315    439.94207    428.24475   -337.31073    38760.619 
   91400    286.58262   -1380.5101    461.83459    364.40552    42.275696    38760.619 
   91500    294.31305   -1421.4506    436.30474    332.54568     85.95139    38760.619 
   91600    307.27055   -1387.9321    428.41618    416.18868    111.75989    38760.619 
   91700    295.39654   -1399.7432    440.89056    363.68985   -24.415696    38760.619 
   91800    300.57059    -1461.514    435.67253     319.8662    130.52476    38760.619 
   91900    304.83279   -1474.4757    428.05702    318.37159    39.596013    38760.619 
   92000     306.5513    -1430.916    434.08184    375.65018   -10.167062    38760.619 
   92100    285.13782   -1493.7625    416.63937    199.48928    79.090945    38760.619 
   92200    295.25734   -1447.5397    429.96841    304.34798    47.397611    38760.619 
   92300    299.77162   -1441.8315    449.73758    350.03658    124.20518    38760.619 
   92400    303.88428   -1434.8939      445.155    370.80472    524.84935    38760.619 
   92500    296.38987   -1422.2478    413.67628    318.41832    257.18825    38760.619 
   92600    298.85584   -1418.8889      456.098    375.23951    364.10188    38760.619 
   92700    301.93566   -1403.9176    428.98861    376.89031     -84.0841    38760.619 
   92800    287.50967   -1412.3092    456.53983    331.46221    64.516889    38760.619 
   92900     303.7127   -1420.7919    437.11137    376.09491   -221.24036    38760.619 
   93000    306.69425   -1451.9085    434.32849    355.54439   -338.69294    38760.619 
   93100    294.09411   -1428.1691    445.90421    334.44643   -79.158083    38760.619 
   93200    294.71889    -1415.158    434.65831    339.00886    38.045548    38760.619 
   93300    288.46723   -1420.5307    441.49674    312.48475    447.14615    38760.619 
   93400    307.54341   -1442.2973       429.67    364.29893    158.31853    38760.619 
   93500    289.15411   -1426.5693    448.08754    316.11229    -334.2744    38760.619 
   93600    308.22236   -1431.0696    451.78521    400.68152   -504.07698    38760.619 
   93700    288.58293   -1431.9778    450.01465    310.07363   -678.58496    38760.619 
   93800    289.40044   -1411.9272    432.60475    316.37445   -698.11309    38760.619 
   93900    309.87582     -1377.25    439.26008    449.37883   -47.956469    38760.619 
   94000    294.11932   -1420.6692    435.45287    331.60781   -100.08858    38760.619 
   94100    305.21801   -1407.1205    422.69281    382.08727    2.8849555    38760.619 
   94200    297.48791   -1438.2111     434.7329    328.42773    130.09513    38760.619 
   94300    303.10474   -1458.0951    435.77443    334.73282     639.5618    38760.619 
   94400     295.0218   -1405.0931    460.97416    376.74582    248.68423    38760.619 
   94500    301.47619   -1421.8637    439.86476     367.7632    598.73585    38760.619 
   94600    306.38206   -1405.9328    417.49431    383.28811    528.08468    38760.619 
   94700    303.39293   -1381.8123    429.18156    405.71303     657.4133    38760.619 
   94800    304.19061   -1417.8737     478.8481     422.8895    710.65211    38760.619 
   94900    297.87742   -1451.8218    406.63151     288.4596   -17.971852    38760.619 
   95000    296.64313   -1426.5923    450.21998    351.75134    593.69846    38760.619 
   95100    297.73013   -1469.4271    451.27509    314.83841    576.09403    38760.619 
   95200    294.41369   -1437.5782    440.63577     321.1997    606.80166    38760.619 
   95300    300.89678    -1466.716    435.98592      316.438    902.29841    38760.619 
   95400     313.1831    -1469.198    451.77672    384.75484    98.616027    38760.619 
   95500    289.12517   -1479.3569    428.32714    243.43472    271.47156    38760.619 
   95600     305.3436   -1486.6898    451.05879    331.44621    206.12516    38760.619 
   95700    295.85787   -1429.1068    441.95639    337.45753    252.95235    38760.619 
   95800    300.72051   -1436.0963    432.28152    342.56408    264.94142    38760.619 
   95900    302.15916   -1438.7585     430.0901    344.15155    138.84025    38760.619 
   96000    300.28804    -1472.368    454.86773    326.94238   -160.46288    38760.619 
   96100    298.66402   -1452.7249    464.13913    348.58584   -77.046874    38760.619 
   96200    304.15034   -1460.6081    424.56658    325.69325    415.57042    38760.619 
   96300    301.76022    -1470.116    436.51723    317.43512    470.32808    38760.619 
   96400    294.46163    -1456.661     469.7404    331.43619   -129.47954    38760.619 
   96500    299.17208   -1404.7415    463.62331    398.32813    338.76524    38760.619 
   96600     302.0982   -1448.7116    449.12267    352.95808   -310.35049    38760.619 
   96700    301.49174   -1429.1566    440.97119     361.6464    185.71851    38760.619 
   96800    309.91168   -1424.1684     442.6564    406.01733    563.19097    38760.619 
   96900    309.94324   -1397.1984    467.63104    458.10324   -63.065614    38760.619 
   97000    299.16908   -1433.5854    453.36535     359.2128   -391.18468    38760.619 
   97100    297.21363   -1447.2264    423.33028    306.78182   -312.98036    38760.619 
   97200    302.91671   -1457.2422    445.37692     344.3463    -688.4435    38760.619 
   97300    314.94344   -1466.2978    424.49155    368.25119   -204.60107    38760.619 
   97400    299.78208     -1432.21     445.2077    355.17509   -114.59772    38760.619 
   97500    305.51382   -1422.3326    455.45174    400.95843   -219.38957    38760.619 
   97600    303.32637   -1427.4696     453.8009    384.37708    -60.95874    38760.619 
   97700    301.76389    -1404.932    468.78016     414.8984    23.716875    38760.619 
   97800     307.8169   -1391.9368    443.11773    429.33161    164.70448    38760.619 
   97900    297.64984   -1455.3262    435.29616    312.60087    346.26116    38760.619 
   98000    302.88699   -1454.3288    445.06229    346.81209    814.48355    38760.619 
   98100    293.05973   -1459.5548      475.182    327.70743    614.94233    38760.619 
   98200    294.56552   -1445.1331    462.80618    336.49494    410.70652    38760.619 
   98300    305.62171   -1445.9135     455.9686    378.37752    609.15142    38760.619 
   98400    300.10679   -1423.8802    446.61093    366.36182   0.11539573    38760.619 
   98500    298.89611   -1414.5281    463.71815    387.40072   -224.98238    38760.619 
   98600    298.30371   -1432.2485    427.77571    331.08557   -9.9818694    38760.619 
   98700    307.05963   -1473.6147    433.63059    334.77613    113.29794    38760.619 
   98800    306.05627   -1440.8085    469.56543    399.02495   -138.88801    38760.619 
   98900    299.51597   -1450.3109    436.30926     326.9843    3.2553242    38760.619 
   99000    293.21596   -1473.6883    432.78093    271.87231    153.83452    38760.619 
   99100     303.5373    -1470.406     465.9109    354.49501    26.957497    38760.619 
   99200    297.07543   -1500.1251    420.69577    250.62986    667.89982    38760.619 
   99300    292.16571   -1465.7261    432.73843    275.08981    406.04682    38760.619 
   99400    309.20823   -1476.8695    468.35018    375.86055    1227.7917    38760.619 
   99500    299.37259   -1444.9767    456.62798    351.99527    494.92371    38760.619 
   99600    307.93365   -1453.4465    438.91109    364.13793     483.2059    38760.619 
   99700    290.32134   -1460.3629    431.37255    270.82954    292.74923    38760.619 
   99800    308.76176   -1430.4721    462.87512    414.78401    243.64197    38760.619 
   99900    304.08767   -1459.5046    463.36004    365.30971    144.81097    38760.619 
  100000     301.1953   -1492.5329    424.39874    280.37043   -132.58809    38760.619 
  100100    300.79391   -1485.9266    445.53817    306.31906   -430.46855    38760.619 
  100200    308.13914   -1480.9111    441.82603    340.50832   -542.06949    38760.619 
  100300     294.5507   -1479.7221    461.61753     300.6509    -403.8032    38760.619 
  100400    289.07338   -1491.1115    425.82756    228.94869   -705.96123    38760.619 
  100500    310.15103   -1470.5296    459.52216    377.59357     2.892522    38760.619 
  100600    309.07588   -1508.3467    470.94666    346.38728   -26.622306    38760.619 
  100700    300.53048   -1460.9989    435.19974    319.72892    79.417031    38760.619 
  100800    295.83389   -1454.9106    432.80602    302.39606   -597.75125    38760.619 
  100900    300.71003   -1474.3231    453.25559    325.26437   -246.99151    38760.619 
  101000    296.52642   -1480.7915    442.18148    288.99119   -433.09417    38760.619 
  101100    294.03913   -1474.9935    429.12543    270.59705   -589.02492    38760.619 
  101200    301.80347   -1478.2723    445.37211    318.32724   -365.93011    38760.619 
  101300    305.40766   -1490.2268    433.23805     310.3753    160.94407    38760.619 
  101400    303.61807   -1472.0305    413.92134    301.24253    488.84873    38760.619 
  101500      302.442    -1518.172    440.74969    276.66393    405.27017    38760.619 
  101600    299.26386   -1476.6859    436.96854    300.13981    267.60762    38760.619 
  101700     296.8013   -1476.1246    467.96218    320.66944   -2.9700138    38760.619 
  101800    297.07668   -1501.7456    452.26342    280.58263    570.39413    38760.619 
  101900    292.75579   -1484.6712     453.7213     279.7695    366.87974    38760.619 
  102000    310.33775   -1466.1061    487.97409    411.30489    808.56475    38760.619 
  102100    301.23635   -1428.1091    449.62642     370.2057    590.09297    38760.619 
  102200    306.79799   -1464.9256    433.84778    342.51102    487.21112    38760.619 
  102300    298.00635   -1456.8729    462.17683      339.531    332.17586    38760.619 
  102400    307.89807   -1443.8418    466.00723     400.6795    287.73926    38760.619 
  102500    303.70364   -1467.5925     450.8392    342.98162    271.63799    38760.619 
  102600    303.11608   -1486.0367    453.60314    324.67068    626.89214    38760.619 
  102700    304.64063   -1415.8587    444.13297    392.20423      403.955    38760.619 
  102800    303.66286   -1424.2163    460.27019    395.60619    659.11875    38760.619 
  102900    306.15656   -1457.0303    456.72788    370.41458    188.46699    38760.619 
  103000    296.53239   -1491.4452    454.04007    290.22275    968.23073    38760.619 
  103100    287.73795   -1462.6283    477.10661    302.73197    1001.6558    38760.619 
  103200    296.71326   -1436.2199    455.47274    347.69056    1072.0365    38760.619 
  103300    306.59333   -1431.4788    415.78761    356.98135    702.85948    38760.619 
  103400      303.333   -1439.4619    453.98356    372.59713    694.93168    38760.619 
  103500    312.07275    -1483.915    441.32122    354.61104    159.31026    38760.619 
  103600    307.65258   -1477.7613    439.50199    339.15559    397.31924    38760.619 
  103700    302.17455   -1458.5479    452.23833    346.57928    193.98727    38760.619 
  103800    298.72499   -1435.4628    473.39289    375.37464    249.70353    38760.619 
  103900    299.37365   -1438.6834    462.05357    363.71889    246.09433    38760.619 
  104000    298.54548    -1432.736    466.25283    370.15767    315.68146    38760.619 
  104100    309.60372   -1447.0857     487.5973    426.66215   -84.372157    38760.619 
  104200    293.55054    -1443.902    418.65558    289.03121   -548.16543    38760.619 
  104300    291.98959   -1437.3633    481.65701    351.58273   -470.17832    38760.619 
  104400    302.67823   -1456.9708    419.32698    317.50013   -510.64141    38760.619 
  104500    302.11967   -1407.5924    471.21978    416.27055   -307.23149    38760.619 
  104600    298.53661   -1422.4527    452.93529    367.08371   -615.11073    38760.619 
  104700    304.69221   -1443.2413     442.6715    363.59107   -268.47463    38760.619 
  104800    303.12983   -1451.5251    425.31666    330.95741    220.83649    38760.619 
  104900    307.47745   -1500.4497    460.03861     336.2198    234.21866    38760.619 
  105000    310.20734   -1481.9757    448.21162    355.08897    721.38144    38760.619 
  105100    299.48923   -1486.9699    450.76301    304.65933   -47.163189    38760.619 
  105200    288.52206   -1495.7098    465.54995    261.60443    447.14773    38760.619 
  105300    300.24221   -1508.1025    450.84838    286.98327    45.953488    38760.619 
  105400    309.42387   -1478.6835    453.98988    360.65172    620.39075    38760.619 
  105500     295.5448   -1451.3964    467.94616      339.756    191.51345    38760.619 
  105600     301.6675   -1483.7511    442.47003    309.33764     208.7332    38760.619 
  105700    295.51698   -1454.1531    440.45148    309.38009    330.91318    38760.619 
  105800    294.22029   -1443.7917    446.20728    319.69179    253.42491    38760.619 
  105900    299.86249   -1492.3048    445.47034    295.70291   -48.784625    38760.619 
  106000    299.80132   -1541.4215    455.01213    255.85412   -466.89496    38760.619 
  106100    306.49837    -1439.785    452.65304    385.11535   -346.40701    38760.619 
  106200    303.10698   -1456.7968    451.75568    352.02244   -138.72447    38760.619 
  106300    293.41985   -1422.4056      458.993    350.27987   -608.51882    38760.619 
  106400    308.69993   -1429.5238    456.23814     408.8185   -678.38843    38760.619 
  106500    307.77771   -1422.8965    456.39701    411.47569      236.821    38760.619 
  106600    296.05534   -1405.1294     452.9815    373.34418    35.183129    38760.619 
  106700    302.06164   -1390.9679    473.30949    434.72499   -48.632396    38760.619 
  106800    287.79093   -1452.6368    468.06766    303.92165    221.08025    38760.619 
  106900    307.43566   -1488.7506    449.99691     337.6901    156.95824    38760.619 
  107000    304.67074   -1402.5575    438.85231    400.35951    34.941378    38760.619 
  107100    297.31956   -1400.7744    467.10788    397.48572    87.955622    38760.619 
  107200    301.07521   -1434.6116    456.48885    369.84423    545.60795    38760.619 
  107300    292.43591   -1442.3512    458.80293    325.73902    203.85859    38760.619 
  107400    296.17064   -1407.8999    441.53474     359.6431   -132.61823    38760.619 
  107500    304.73006   -1418.5179    463.53792    409.35037      230.471    38760.619 
  107600    301.94049   -1417.3678    457.54375    392.01689    34.580716    38760.619 
  107700    299.41385   -1429.1669    457.86956    369.23132   -161.01022    38760.619 
  107800    302.62808   -1447.3076    437.13327    344.74509    34.509353    38760.619 
  107900    297.94049   -1441.9849    462.01132    353.95868    292.16192    38760.619 
  108000    294.97081   -1425.9352    472.57456    367.27583    528.26143    38760.619 
  108100    296.90206   -1390.6719    465.25858    403.86966   -20.698754    38760.619 
  108200    301.17249   -1401.6053     470.1238    416.92096    331.88348    38760.619 
  108300    298.49437    -1454.883    435.32689    316.85595    114.92403    38760.619 
  108400    297.85776    -1474.204    420.85743    280.21524    191.80232    38760.619 
  108500    297.35705   -1442.3684    443.23318     332.1848   -325.00732    38760.619 
  108600    293.03858   -1444.6441    467.83743    335.17882   -157.82659    38760.619 
  108700    299.40774   -1484.5452    458.44576    314.40193    100.13487    38760.619 
  108800    297.15974   -1451.2307    456.34259    335.54851    553.53711    38760.619 
  108900    289.74965   -1465.5074    420.35637    252.10941    182.72857    38760.619 
  109000    308.92151   -1460.9365    449.78389    371.94361    735.71788    38760.619 
  109100    296.63288   -1470.9829    457.43894    314.53383    143.64039    38760.619 
  109200    304.23095   -1438.3169    470.97313    394.75189    162.80372    38760.619 
  109300    312.98263   -1493.9338    452.64909    359.99384   -138.57385    38760.619 
  109400     294.1886   -1449.1384    445.09547    313.09136    -442.3571    38760.619 
  109500     300.0911   -1459.9254    445.02382    328.65932    173.88417    38760.619 
  109600     299.2635   -1472.6253     466.1501    333.38037    248.72143    38760.619 
  109700    297.85017   -1473.4402    440.96136    301.04905   -354.48078    38760.619 
  109800    299.59506   -1468.4797    418.83571    291.69608   -57.485056    38760.619 
  109900    307.97276   -1475.2275    486.24915    389.87005    564.44216    38760.619 
  110000    295.65893   -1461.5469    452.08743    314.25783    349.04162    38760.619 
  110100    298.33461   -1418.5012     457.6975     374.8931    817.84883    38760.619 
  110200    305.31316   -1464.5222     469.3388     371.7576    190.97177    38760.619 
  110300    287.28685   -1427.3895    463.82282    322.66732    -387.5549    38760.619 
  110400    292.62531   -1431.1174    468.70164    347.71946    226.34052    38760.619 
  110500    298.18919   -1492.3449    442.35464    285.05544    259.44419    38760.619 
  110600    296.94612   -1455.9005    466.84621    340.42595   -155.01966    38760.619 
  110700    293.53136   -1517.1451    464.78603    261.83275    27.218722    38760.619 
  110800    295.30356     -1502.92    448.38802    267.59421    846.94254    38760.619 
  110900     301.4289   -1463.6049    470.44883    356.39434    201.84629    38760.619 
  111000    298.79226   -1458.2528    459.28228    338.77527    242.46542    38760.619 
  111100    298.24205   -1468.3212    444.81387    311.77508   -178.75884    38760.619 
  111200    297.35364   -1429.4395    459.55733    361.42257   -819.23973    38760.619 
  111300    297.31429   -1421.1446    462.44026     372.4243    -665.8636    38760.619 
  111400    296.30453   -1434.0426    440.93589    333.50102     115.3648    38760.619 
  111500    298.43915   -1453.9059    484.96995    367.22886   -251.31944    38760.619 
  111600    308.05501   -1410.8607    464.68282    433.03886   -279.65092    38760.619 
  111700    297.04996   -1433.1674    448.13718    344.91498    -315.8183    38760.619 
  111800    303.21819   -1448.1128    469.01504    378.46367    29.335398    38760.619 
  111900    293.40612   -1486.2475    449.81236    277.19591    -483.9589    38760.619 
  112000    294.61485   -1526.9805     440.8384    232.90071   -616.49822    38760.619 
  112100    294.19003   -1492.9138    461.52938    285.75635   -300.16746    38760.619 
  112200    299.05742   -1446.1154    483.64769    376.46521   -79.014378    38760.619 
  112300     296.2131   -1456.2367    457.56528    327.52695   -106.74101    38760.619 
  112400    299.18404   -1473.3195    465.03228    331.21257   -206.01263    38760.619 
  112500    308.34056    -1452.677    475.22953    403.04775   -253.53409    38760.619 
  112600    295.99466   -1493.6217    503.98632    335.58506   -393.03579    38760.619 
  112700    301.38808   -1482.7055    485.02531    351.68753   -499.62686    38760.619 
  112800    285.93858   -1508.3983    460.87179    232.67105   -346.03143    38760.619 
  112900    296.47002   -1508.2181    469.49467    288.62522   -449.68308    38760.619 
  113000    297.75541    -1473.932     441.5495    300.72104   -380.37998    38760.619 
  113100    300.97832   -1478.0522    478.82271    348.30363   -615.42086    38760.619 
  113200    287.36885   -1484.9211    497.15273    298.83276   -647.01963    38760.619 
  113300    305.07012   -1466.8067     467.3104    366.35659   -436.43655    38760.619 
  113400    295.07932   -1468.2281    453.22094    306.11505   -654.01604    38760.619 
  113500    303.40091    -1424.945    468.83326    402.26772   -631.61224    38760.619 
  113600     301.1351   -1446.2239    472.78816    374.79934   -540.14047    38760.619 
  113700    294.03657   -1449.9711    471.80379    338.28635   -465.86763    38760.619 
  113800     295.8419   -1468.1757    486.98356    343.34429   -564.73466    38760.619 
  113900    296.64027   -1414.5834    466.08423    379.61173   -866.20179    38760.619 
  114000    293.94314   -1419.7309    450.27852    346.58294   -851.52322    38760.619 
  114100     311.5753    -1487.958    469.56942    376.58912   -414.05411    38760.619 
  114200    308.38587   -1463.2605    491.46264    408.90024    96.806595    38760.619 
  114300    290.63995   -1446.2636    453.06404    308.04688   -52.168407    38760.619 
  114400    295.07211   -1436.0282    471.88791    356.94967   0.22806064    38760.619 
  114500    304.03927   -1429.7167    464.40516    395.92598    265.50641    38760.619 
  114600    295.05897   -1465.0165    446.99562    303.01025    -78.56145    38760.619 
  114700     297.2291   -1488.5116    464.37296    306.60855   -280.21983    38760.619 
  114800    295.79027   -1501.2483    459.56778    282.62477   -334.63712    38760.619 
  114900    307.78278   -1452.6586    474.50302    399.84228   -360.65383    38760.619 
  115000    289.98825   -1447.9171    440.87691    291.28845   -609.23348    38760.619 
  115100    304.27027   -1435.7813    468.78251    395.27293   -370.92252    38760.619 
  115200    305.99224   -1459.9302     482.4226    392.47373   -295.38558    38760.619 
  115300    292.28884   -1491.5401    430.24035    247.32908   -449.86359    38760.619 
  115400    298.13875   -1474.8247    463.30943    323.30462   -502.26962    38760.619 
  115500    300.14962   -1460.9153    463.79165    346.69925   -713.80779    38760.619 
  115600    301.19788   -1487.8564    460.99408    321.65384   -163.28501    38760.619 
  115700    295.85811   -1513.6412    465.24856    276.21642    84.008536    38760.619 
  115800    290.82544   -1492.1699    443.58739     253.4944    23.904212    38760.619 
  115900    293.73929   -1479.6562    447.32162    282.78811    -221.9478    38760.619 
  116000    294.22345   -1485.6167    448.60644    280.28013   -252.55925    38760.619 
  116100    302.67936   -1523.2681    448.29379     280.1747    213.18395    38760.619 
  116200    301.07196   -1479.3787    465.01141     333.5851    71.999254    38760.619 
  116300    297.61619   -1494.9277    449.91791    287.47046    201.57611    38760.619 
  116400    301.44588   -1446.9725    455.01746    357.67143   -137.75692    38760.619 
  116500    305.84047   -1470.7441    483.25856    381.81631   -217.07635    38760.619 
  116600    289.55888   -1484.5704    450.03048    261.86633    -151.2618    38760.619 
  116700    293.92342   -1458.6665    474.00588    331.28644    82.784992    38760.619 
  116800      300.065   -1483.3038    442.95784    303.09809    90.763175    38760.619 
  116900     300.9302   -1477.8998    464.76617    334.18407    102.18655    38760.619 
  117000    304.69055   -1509.6587    450.05042    304.54508     508.5494    38760.619 
  117100    297.08996   -1523.0742     466.0617    273.11175    234.18872    38760.619 
  117200    304.20557   -1522.1159    458.08191    297.94808    494.61771    38760.619 
  117300     302.3783   -1497.7501    453.47845    309.52941    70.895013    38760.619 
  117400    313.28461   -1482.0284    447.65834    368.26046   -18.318858    38760.619 
  117500    306.99773    -1428.594      458.689    404.57806   -89.415801    38760.619 
  117600    302.57725   -1474.8942    480.94445    360.74208    -115.9429    38760.619 
  117700    311.76587   -1480.9699    417.83742    332.69838    232.84981    38760.619 
  117800    308.17442   -1447.0362    486.17245    418.88763   -320.59617    38760.619 
  117900    305.51794   -1443.8201    450.32719    374.36483   -449.73476    38760.619 
  118000    296.84432    -1477.769    451.01164    302.26712   -235.95815    38760.619 
  118100    304.81176   -1456.3329      469.496    377.85919   -261.59942    38760.619 
  118200    298.55144   -1491.5634     467.3828    312.48689   -256.58186    38760.619 
  118300    292.47504   -1473.9492    459.26569    294.77891    79.389479    38760.619 
  118400    293.00659   -1470.8833    478.44827    319.40722   -295.54579    38760.619 
  118500    290.81973   -1444.2156    472.39295    330.22868   -369.83274    38760.619 
  118600    296.72096   -1469.6119     469.4823    328.34257   -417.26527    38760.619 
  118700    304.27755   -1485.3964    448.34552    325.25349   -427.95534    38760.619 
  118800    300.75011   -1509.5805     476.9479    313.87878   -4.2302724    38760.619 
  118900    301.16686   -1526.6025    450.73063    272.50534    80.931551    38760.619 
  119000    292.47427   -1511.7876    494.94367    292.61507    391.11823    38760.619 
  119100    303.83152   -1520.9897    464.51677    303.83452    430.77195    38760.619 
  119200    306.12693   -1521.1605     448.4072     297.8311     298.9238    38760.619 
  119300     299.9666   -1498.2249    449.94374    294.72232   -268.95174    38760.619 
  119400     286.5509   -1495.2807    439.54766    227.20591   -353.76072    38760.619 
  119500    306.75012   -1541.9712    466.67649    298.07975    -11.21818    38760.619 
  119600    304.78454   -1524.8015     457.4818    297.25455   -461.60192    38760.619 
  119700    302.46354   -1503.1312    434.57424    285.62573   -238.31567    38760.619 
  119800    301.37057   -1529.2812    455.74272    275.75079    205.79507    38760.619 
  119900    295.92596   -1527.6669    438.89907    236.14502    103.98525    38760.619 
  120000    292.91761   -1528.7192    454.56497    237.28962    163.03408    38760.619 
  120100    288.64558    -1499.934     476.3055    268.68874    188.59786    38760.619 
  120200    299.94017   -1494.0062    456.58616     305.4651    190.65161    38760.619 
  120300    303.87443   -1462.5451    453.72172    351.67617    84.714197    38760.619 
  120400    290.06573   -1483.7404    451.91703    266.85215   -59.265186    38760.619 
  120500    301.80158    -1506.112      472.239    317.34598   -104.67453    38760.619 
  120600    304.46423   -1488.3505    430.80736    305.59703    89.251508    38760.619 
  120700    299.46911   -1513.4475    460.89049    288.21916    296.39417    38760.619 
  120800    305.00868   -1461.2293    464.99875    369.34726    328.20596    38760.619 
  120900    308.52509   -1519.3938     488.3334    350.26091    703.16035    38760.619 
  121000    286.49388   -1516.7987    470.17002    236.05501    234.62387    38760.619 
  121100    300.24074   -1477.4198    465.92564    332.73665     84.39549    38760.619 
  121200    306.76618   -1541.2802      481.392    313.55819   -328.55389    38760.619 
  121300     296.8865   -1541.6029    446.93314    234.54355    32.954077    38760.619 
  121400    307.20974   -1553.5015     495.4788    317.40963   -131.00506    38760.619 
  121500    293.66182   -1519.9943    439.48767    234.26924   -25.033188    38760.619 
  121600    295.24214   -1514.3084    459.10442    266.64727    279.83133    38760.619 
  121700    292.35322   -1537.6691    451.04302      222.291    478.03041    38760.619 
  121800    290.50693   -1498.0934    476.35737     278.9148   -256.11119    38760.619 
  121900    294.95168   -1536.3345    454.31332    238.52961   -42.599396    38760.619 
  122000    300.53914   -1480.0686    467.74151    333.23974    184.83178    38760.619 
  122100    298.08281   -1502.5423    461.97709    294.00417   -68.724443    38760.619 
  122200    296.29485   -1486.7937    446.05135      285.822    361.83862    38760.619 
  122300     301.1643   -1497.6832    487.32831    338.01085   -203.04537    38760.619 
  122400    294.08498   -1527.2282     434.0629    223.50515     -351.008    38760.619 
  122500    301.10113   -1511.9081     472.1951    308.36997   -436.61467    38760.619 
  122600    301.28061   -1528.5108    469.17051    289.54621   -529.54152    38760.619 
  122700    302.96237   -1451.2767    469.09031    374.22965   -247.20559    38760.619 
  122800    290.82292   -1469.3266    479.26322     312.0022   -388.59249    38760.619 
  122900     296.2734   -1488.6771    462.17524    299.96649   -211.74444    38760.619 
  123000    298.19788   -1486.5527    490.08864    338.62051    158.51207    38760.619 
  123100    299.62074   -1491.2796    448.92088     299.0963    61.787531    38760.619 
  123200    286.81806   -1461.0039    467.11382    290.24505   -327.59246    38760.619 
  123300    301.69932   -1479.9357    457.69481     328.5203    102.68994    38760.619 
  123400    300.44036   -1467.2574    471.52719    349.39435   -511.68625    38760.619 
  123500    307.57974   -1462.3845    483.10275    397.80714    187.30148    38760.619 
  123600    303.94248   -1465.9597    478.01054    372.85505   -178.55388    38760.619 
  123700    302.09062   -1457.9275    482.65988    377.24543    583.08212    38760.619 
  123800    300.83858   -1460.7817    477.57708    363.70286    689.88337    38760.619 
  123900    298.39239   -1492.2322    470.88845    314.61174    144.07313    38760.619 
  124000    306.29285   -1471.0191    492.27464    392.58275    608.75196    38760.619 
  124100    292.21924   -1503.0127    472.33333    277.63783    254.77526    38760.619 
  124200    298.35903   -1477.1576    462.06805    320.71657    370.08327    38760.619 
  124300    309.04394   -1475.7911    488.57158    396.42481    308.40456    38760.619 
  124400    291.26312   -1481.2207    469.61224    292.42797    77.505603    38760.619 
  124500    295.06491   -1496.5885     461.1947    285.66391   -118.62892    38760.619 
  124600    301.21454   -1495.8822    465.72117    318.42967   -461.04863    38760.619 
  124700    301.93368   -1473.6102    458.87353    337.07377   -426.57192    38760.619 
  124800    294.96473   -1492.1876    483.52267    311.94426    166.72805    38760.619 
  124900     298.9936   -1455.6782    496.40692    379.37592    371.40193    38760.619 
  125000    297.39791   -1504.3118    458.22554    285.41675     195.1792    38760.619 
  125100    298.51618   -1462.4293    477.05895     351.1393     244.6296    38760.619 
  125200    296.39572   -1452.2113    459.67539    334.48007    -136.6085    38760.619 
  125300    291.68987   -1452.8601     493.3087    346.39566   -203.82136    38760.619 
  125400    303.10807   -1520.4199    467.61499     304.2635   -465.62023    38760.619 
  125500    287.99225   -1478.5549    466.69501    277.53236   -26.690176    38760.619 
  125600    295.00035   -1467.9047    463.30218    316.16614   -303.96018    38760.619 
  125700    287.02382   -1448.2553    462.76606    299.56715   -219.29235    38760.619 
  125800    295.27599   -1487.3367     470.5065    305.17259   -930.38855    38760.619 
  125900    304.59763   -1523.4054    457.72688    298.05894   -29.738447    38760.619 
  126000    297.01895   -1498.6823    450.81675     281.9408   -217.69431    38760.619 
  126100    304.71996    -1504.745    466.54894    326.08908   -84.209766    38760.619 
  126200    300.00653   -1478.6558     462.5658    327.09222   -55.218042    38760.619 
  126300    296.62882   -1516.2123    473.19814    285.04545   -158.83885    38760.619 
  126400    295.92387   -1503.7062    461.89491    283.09215    298.59158    38760.619 
  126500    301.18832    -1468.183    500.60737    380.89774   -309.70111    38760.619 
  126600    298.74739   -1487.3077    484.24166    334.47876    395.25572    38760.619 
  126700    300.05916   -1478.1333    454.74578    320.03032   -237.68484    38760.619 
  126800    306.79498   -1453.3701    493.84758    414.05283    -471.4799    38760.619 
  126900    290.69382   -1451.4794     495.8956     345.9038   -454.40814    38760.619 
  127000    298.15944   -1412.4466    482.28197    404.74789   -592.18594    38760.619 
  127100    287.41217   -1465.2079    479.93517    301.52232    314.68989    38760.619 
  127200    295.37728   -1463.9648    483.18931    341.68081    685.46605    38760.619 
  127300    307.71827    -1454.362    465.39462    388.74166    894.25798    38760.619 
  127400    294.13839   -1459.9034      461.408    318.41419    299.41268    38760.619 
  127500    294.11828   -1473.4831    475.79386    319.13027    112.31737    38760.619 
  127600     295.2086   -1442.0865    466.97496    346.58957   -386.67279    38760.619 
  127700    296.37358   -1486.8165    452.39058    292.49096   -200.90411    38760.619 
  127800    307.85904   -1484.5056    452.34303    346.17678    12.033103    38760.619 
  127900    296.80168   -1495.9746    483.50099    316.35998   -121.14667    38760.619 
  128000    296.20692   -1486.1294    452.41079    292.45212    2.1975785    38760.619 
  128100    299.74219   -1451.7536     476.7634     367.0085     358.9709    38760.619 
  128200     294.0589   -1466.4552    459.80873     309.9072    208.91783    38760.619 
  128300    303.35295   -1510.7156      453.599    301.04811  -0.26455255    38760.619 
  128400    298.62242   -1468.3483    443.49236    312.12935   -316.57894    38760.619 
  128500    290.31138   -1465.0624    502.07652    336.78945   -378.97704    38760.619 
  128600    288.07721   -1496.9387    435.46286    228.29673   -342.07623    38760.619 
  128700    294.71449    -1491.998    464.99235    292.48322   -667.80273    38760.619 
  128800    308.66639   -1479.4615    458.49262    360.98508   -573.93523    38760.619 
  128900    293.75524   -1487.1363    470.80218    298.85994   -253.17997    38760.619 
  129000    313.92429   -1531.1254    458.60769    332.97682   -394.28594    38760.619 
  129100    292.39916   -1537.7292    469.84858     241.2421    199.22443    38760.619 
  129200    300.58358   -1552.7298    462.42985    255.46587    166.91363    38760.619 
  129300    307.14852   -1533.9039    460.45403    301.70831    206.96827    38760.619 
  129400    298.09305   -1553.3185    450.58903    231.88577    226.90278    38760.619 
  129500    301.76834    -1524.017    467.42193    294.47509    422.05492    38760.619 
  129600    309.79311   -1541.3391    466.01866    311.67802    31.928023    38760.619 
  129700    299.00452   -1548.5611    470.75218    260.88718   -283.14665    38760.619 
  129800    301.26452   -1525.2404    431.72435    255.29843   -701.46617    38760.619 
  129900    300.75342   -1489.1818    470.90704    328.25148   -372.71395    38760.619 
  130000    297.78256   -1511.7234    468.97153    290.47326   -307.43209    38760.619 
  130100     286.8046   -1503.5125    477.13737    257.69976   -464.21438    38760.619 
  130200    308.89051   -1502.5334    457.00352    337.42752    34.184825    38760.619 
  130300    307.77118   -1483.2257    467.82247    362.54273    222.80659    38760.619 
  130400    293.82308   -1522.4263    465.12122    258.19276     117.3266    38760.619 
  130500    307.40578   -1480.1356    498.18965    394.36399   -24.537016    38760.619 
  130600    310.33902   -1447.9272    456.19111    397.70653    108.21032    38760.619 
  130700    310.08409   -1484.1476    469.63596    373.78962    322.14805    38760.619 
  130800    308.08489   -1511.0471    444.12222    312.42567    396.64145    38760.619 
  130900    303.85874    -1481.234    480.75517    359.95045     504.3364    38760.619 
  131000    293.69941   -1481.7622    482.91929    316.10126    362.09454    38760.619 
  131100    297.49512   -1488.4205    475.70339    319.22113    930.98653    38760.619 
  131200    305.79298   -1468.1865    467.04864    367.95138    511.98167    38760.619 
  131300     296.9358   -1469.3763     484.6285    344.68628    410.32075    38760.619 
  131400    296.59175    -1472.195    477.03241    332.73108    194.06674    38760.619 
  131500    297.56073    -1411.107    475.70787    396.83286    265.98363    38760.619 
  131600    302.59357   -1432.8633    474.24148    396.14304    746.34159    38760.619 
  131700    297.17374    -1476.642    477.37079     331.2281    378.67476    38760.619 
  131800    296.94464   -1482.9571    455.13475    301.65126    471.51832    38760.619 
  131900    291.54727   -1458.9162    487.38003    333.77241    345.57042    38760.619 
  132000    296.96128   -1490.0288    498.77256    338.29188   -34.326218    38760.619 
  132100    296.45381   -1466.0236    462.36853    323.62101    -34.84292    38760.619 
  132200    293.05381   -1456.7548    455.32214      310.621    162.92522    38760.619 
  132300    292.27609   -1428.6778    466.15258    346.04652   -984.56668    38760.619 
  132400    287.93394   -1447.7176    465.21855     306.6321   -615.29213    38760.619 
  132500    305.78384   -1479.1696      500.421    390.29966   -187.24418    38760.619 
  132600    296.12995   -1472.9399    478.63696    331.52312    503.81538    38760.619 
  132700    308.47765   -1474.3832    464.49851    371.22429    170.71662    38760.619 
  132800    304.88868   -1507.6519    479.74315    337.13173    54.193337    38760.619 
  132900    307.61186   -1507.3444     460.5996    330.48789    384.09297    38760.619 
  133000    291.64333   -1505.3633    485.65081    286.02626    415.72166    38760.619 
  133100    299.90197     -1520.35    493.85366    316.21773    63.818737    38760.619 
  133200     295.7297   -1513.7594    461.24329    271.51797    381.07781    38760.619 
  133300    299.29731   -1460.9988    462.87813    341.88625    174.64738    38760.619 
  133400    305.35382   -1420.4339    490.54604    437.23518   -279.71912    38760.619 
  133500    306.33691   -1413.9201    461.53783    419.14219   -637.35872    38760.619 
  133600      291.786   -1388.7778    477.75044    395.35017   -283.57723    38760.619 
  133700    306.90551   -1461.9451    454.55385    366.67891   -305.79155    38760.619 
  133800    295.01474   -1460.9581    463.94643    323.82141    194.69504    38760.619 
  133900    293.69032   -1457.5311    501.10695    358.47929    224.59596    38760.619 
  134000    309.49566   -1457.1235    466.65484    395.19813    181.62667    38760.619 
  134100    288.29569   -1468.1867    461.87121    284.43525   -48.212993    38760.619 
  134200    306.71332   -1433.8652    468.26474    407.60925   -327.50469    38760.619 
  134300    296.61048   -1499.5833    463.94261    292.33682   -465.22561    38760.619 
  134400    296.05811    -1490.765    478.96597     313.7054   -23.402315    38760.619 
  134500    300.29365   -1454.9725    469.38329    358.87847   -19.274329    38760.619 
  134600    292.51273   -1486.8411    475.86981    298.65988    101.25075    38760.619 
  134700    305.30697   -1471.7125    472.61847    367.81918    11.514711    38760.619 
  134800    299.40501   -1479.7289    485.92728    346.68752    -385.4336    38760.619 
  134900    291.32333   -1490.5068    445.86869    259.66794   -400.04174    38760.619 
  135000    302.54887   -1481.6147    487.85662    360.80668    164.68206    38760.619 
  135100     301.8245    -1494.116    466.68907    323.89468    352.63348    38760.619 
  135200    296.02219   -1494.8006    477.90274    308.44583    212.94409    38760.619 
  135300    297.22148    -1461.747    453.74604    322.71218    -179.4796    38760.619 
  135400    302.60204   -1480.6002    487.31297    361.51554   -211.25304    38760.619 
  135500     297.2054   -1499.1546    442.98464     274.4711   -260.01986    38760.619 
  135600    295.28234   -1484.5134     454.3583    291.87615   -439.99891    38760.619 
  135700    292.87891   -1484.0166    488.83405    316.08812    -374.7509    38760.619 
  135800    299.58567   -1508.3512    475.41319    308.36001    241.86836    38760.619 
  135900    299.16645   -1498.4105    464.97159    305.98211    71.904572    38760.619 
  136000    306.72295   -1483.3007    475.43356    365.38573    243.35246    38760.619 
  136100    302.64475   -1480.4071    474.62887    349.21578    100.70657    38760.619 
  136200    289.96606   -1483.5974    470.90668    285.53859   -395.15466    38760.619 
  136300    300.70968   -1493.6636    462.55024    315.21699    141.37936    38760.619 
  136400    305.18318   -1499.9277    435.45524    301.88652   -62.770415    38760.619 
  136500    313.32192   -1474.9194    464.52107    392.39924   -708.88076    38760.619 
  136600    298.93747   -1480.6659    468.47684    326.20677   -691.91618    38760.619 
  136700    297.14189   -1484.1012    470.64899    316.90451    -260.8259    38760.619 
  136800    307.24895   -1465.0374    505.70076    416.27121   -279.95429    38760.619 
  136900    301.74305   -1452.9139    488.48153    386.52454    163.44113    38760.619 
  137000    291.76416   -1486.6371    466.52798    286.17054    -204.4798    38760.619 
  137100    307.15092   -1439.9089     512.3357    447.59572    168.55854    38760.619 
  137200    291.06348   -1456.9617    480.53051    326.71147    -40.00396    38760.619 
  137300    299.25439   -1455.4572    469.95483    354.31243   -3.4000624    38760.619 
  137400    308.77727    -1462.132    478.51564    398.83405   -200.05998    38760.619 
  137500    300.13553   -1444.0964    475.26196    374.92539   -179.49591    38760.619 
  137600     292.0434   -1460.4065    500.25232    347.37575   -389.44406    38760.619 
  137700    300.20564   -1461.3236    469.82166     352.5718   -344.31622    38760.619 
  137800    292.40042   -1506.9412    455.00402    257.19112   -916.28162    38760.619 
  137900    296.88236   -1489.8347     479.0103    318.37038   -624.36603    38760.619 
  138000    301.51533   -1472.4259    463.87124    341.38276   -571.05472    38760.619 
  138100    311.90264   -1458.7165    494.85259    432.57933   -192.32366    38760.619 
  138200    303.95941   -1478.6427    482.74595    364.98325    37.800526    38760.619 
  138300     307.4359   -1473.3829    471.17322    374.23517    688.50992    38760.619 
  138400    296.13254    -1448.221    484.21196    361.82861    396.53551    38760.619 
  138500    303.75285   -1487.6132    489.72498    362.06697    257.31994    38760.619 
  138600    301.31965   -1464.6913    473.82405    358.19401   -37.433477    38760.619 
  138700    302.83426    -1435.517    453.91376    374.23925     -642.369    38760.619 
  138800    300.86245   -1460.5408    481.53419    368.00773   -940.71779    38760.619 
  138900     306.5042   -1443.7221    470.01441    398.56579   -359.76342    38760.619 
  139000    298.74512   -1469.6501     496.8124    364.69699   -191.63229    38760.619 
  139100    308.49813   -1461.9619    471.93305    391.17183   -144.04317    38760.619 
  139200    298.35659   -1431.7324    482.09087    386.15361   -364.47919    38760.619 
  139300    300.73327   -1442.9633    511.58966    415.06237   -255.84389    38760.619 
  139400    303.25902   -1446.0557    480.68599    392.37454   -391.63763    38760.619 
  139500    294.74849   -1454.2084    479.83507    345.26776   -350.21998    38760.619 
  139600    295.79782   -1437.5736    485.97375    372.73926    76.158752    38760.619 
  139700    297.15947   -1445.7871     497.9915    382.63985    667.93035    38760.619 
  139800    293.46903    -1432.548     481.4376    362.80227    490.47644    38760.619 
  139900    298.80479   -1461.8919    491.76633    367.67628     1011.716    38760.619 
  140000    305.93955   -1489.1393    476.70839    357.31451    486.40782    38760.619 
  140100    310.19644   -1472.9773    490.71731    406.54425    710.37439    38760.619 
  140200    304.44991   -1462.8215    467.21874    367.47322    118.66906    38760.619 
  140300    298.44645   -1490.5141    448.64463    294.32799    10.602757    38760.619 
  140400    302.96811   -1508.1219    495.66281    343.98272    263.42963    38760.619 
  140500    297.27939   -1511.3673    438.90432    258.50937     96.98571    38760.619 
  140600    294.84372   -1506.8146     471.7529    285.00571    129.68969    38760.619 
  140700    304.46616   -1521.9264    484.96103    326.18341   -197.42988    38760.619 
  140800    305.11596   -1475.5284     463.9988    354.52851     394.9297    38760.619 
  140900    289.93427   -1475.8387     456.7886    279.03686   -148.64947    38760.619 
  141000    298.71579   -1434.0534    455.44034    358.79033   -92.362973    38760.619 
  141100    295.61506   -1457.5431    471.35583    337.33356   -88.000691    38760.619 
  141200    303.60978   -1449.6625    473.26424    382.91635    247.22452    38760.619 
  141300    294.85571   -1443.0198    478.02363    355.12495    272.26242    38760.619 
  141400    309.91935   -1451.5241    478.16947    414.20911   -43.417691    38760.619 
  141500    297.56879   -1453.1923    468.23249    347.30826   -271.23088    38760.619 
  141600    298.03229   -1461.1998    468.28627    341.42965   -69.073997    38760.619 
  141700    298.81672   -1441.7054    484.37835    380.52824   -596.94031    38760.619 
  141800    301.71833   -1472.5612    478.26489       356.55   -84.513563    38760.619 
  141900    291.56242   -1448.1749     483.8657    341.06733    6.5735262    38760.619 
  142000    305.27272   -1419.8307     485.7594     432.6886    580.52063    38760.619 
  142100    296.99422   -1462.4657    468.24405    335.47388   -252.14871    38760.619 
  142200    307.09459   -1424.1839    511.14185    461.87468     160.4078    38760.619 
  142300    296.23276    -1417.049     480.0663    389.30369   -112.97447    38760.619 
  142400    293.25147   -1397.4998    479.75419    395.19306    95.977153    38760.619 
  142500    287.84349   -1445.9677    486.96826    329.72676    184.90887    38760.619 
  142600    290.21991   -1449.9719    500.87109    350.26505    139.09676    38760.619 
  142700    300.38695   -1421.2057    498.81914    422.49887     462.0261    38760.619 
  142800    288.65212   -1435.0845    497.00299    354.26505    958.27941    38760.619 
  142900    310.24019   -1425.6088    518.08827     481.4796    442.58113    38760.619 
  143000    300.57978   -1452.8326     450.7444    343.66063   -410.56071    38760.619 
  143100    293.85685   -1453.8215     472.4975    334.32506   -61.044706    38760.619 
  143200    307.64812    -1377.094    492.98393    493.28492    476.43526    38760.619 
  143300    293.12816   -1377.9652    482.17736    416.59876   -91.288519    38760.619 
  143400    295.70971   -1399.8642    494.90729    418.98767   -232.79772    38760.619 
  143500    305.41985    -1405.408    497.67583    459.68648   -388.53918    38760.619 
  143600    297.94723    -1378.945    476.97118    431.98863   -493.88078    38760.619 
  143700    293.43604   -1391.8158    472.50834    394.45761   -338.25727    38760.619 
  143800    308.35674   -1427.2136    485.65483    439.00887   -52.102467    38760.619 
  143900    298.26076   -1455.5327      471.708     351.5414     27.13697    38760.619 
  144000    307.68838   -1433.8464    495.68083     439.4097    17.540457    38760.619 
  144100    287.78009    -1426.083     510.0746    372.43392   -229.01026    38760.619 
  144200    296.50946   -1447.8501    472.11561    351.79074   -496.54944    38760.619 
  144300    300.73369    -1414.095    503.57692    435.91975    -421.4039    38760.619 
  144400    299.94659   -1436.3904     476.4341     382.9576   -689.74745    38760.619 
  144500    309.49269   -1487.2058     466.4172    364.86489   -454.95565    38760.619 
  144600    304.16543   -1454.9121    482.50362    389.39394   -472.62226    38760.619 
  144700    302.37213   -1456.9264    494.38486    391.23188   -389.46618    38760.619 
  144800    292.06236   -1456.7483    481.08944    331.95595    -368.8598    38760.619 
  144900    307.78094    -1470.429    467.35588    374.91654   -900.66874    38760.619 
  145000    310.10903   -1446.2147    488.12048     430.3187   -345.46253    38760.619 
  145100    304.88127   -1515.6535    482.66374    332.01751    282.80354    38760.619 
  145200    293.18577    -1476.778    457.65072     293.5172     262.4363    38760.619 
  145300    290.10046   -1479.7727    484.64394    303.70224    100.99863    38760.619 
  145400    294.38946   -1482.3835    486.10922    321.75934    184.93247    38760.619 
  145500    290.71451   -1476.2682    490.54239    315.85445    576.23559    38760.619 
  145600    291.43691   -1480.5165    463.83711    288.13514    458.06737    38760.619 
  145700     300.3048   -1442.2302    492.76724    395.05466    684.34927    38760.619 
  145800    292.38663   -1488.2052    459.56006    280.42147    271.51231    38760.619 
  145900    306.36915   -1518.3206     443.1824    296.53061    64.598059    38760.619 
  146000    308.26942   -1517.3642    457.10739    319.91986     452.9539    38760.619 
  146100    301.79935   -1514.4497    475.47941    312.23876    763.49707    38760.619 
  146200     298.0184   -1497.7686    459.13089    295.64327    437.13706    38760.619 
  146300    298.38185    -1499.853    488.63234    324.68766    352.85806    38760.619 
  146400    307.20602   -1475.7012    460.41369    360.12809    79.154726    38760.619 
  146500    312.81059   -1510.1021    472.25637    362.66254   -454.14238    38760.619 
  146600    295.01606   -1547.4752    476.78999     250.1538   -587.93055    38760.619 
  146700      299.041   -1510.3412    471.75632    300.27452    20.523539    38760.619 
  146800    297.78303   -1494.4337    475.16744    313.96097    208.86869    38760.619 
  146900    290.67708   -1526.2397    447.38386    222.55682   -96.888313    38760.619 
  147000    296.75342   -1508.3535    489.34452    309.60849   -426.94948    38760.619 
  147100    295.71672   -1438.2355    477.97286    363.71338   -190.85371    38760.619 
  147200    297.37234   -1540.7526    493.85814    284.49408       449.74    38760.619 
  147300    302.22578   -1489.0919     494.0264    358.05273     386.3515    38760.619 
  147400    298.43692   -1529.2962    473.09093    279.94953     370.9829    38760.619 
  147500    300.08702   -1560.1986    460.75346    244.09744    386.89611    38760.619 
  147600    291.52981   -1542.8712    453.53706    215.89635     159.4866    38760.619 
  147700    303.03801   -1529.8112    474.62227    301.56582    285.44496    38760.619 
  147800    297.19729   -1534.2701    452.38736    248.72208   -236.88672    38760.619 
  147900    305.43559   -1514.0689    473.58803    327.00825    -484.8304    38760.619 
  148000    301.66332    -1538.047    485.60087    298.15383   -295.42412    38760.619 
  148100    307.84835   -1541.8731    455.08657    291.50492   -445.55959    38760.619 
  148200    294.28418   -1536.2711    470.39333    251.68453   -762.31875    38760.619 
  148300    295.02173   -1468.2877    485.67067     338.2474    -59.64025    38760.619 
  148400    306.70652   -1521.5048     468.1081    319.78257   -525.40102    38760.619 
  148500      301.007    -1544.033     478.5861    282.21464   -132.09161    38760.619 
  148600    300.91037    -1526.863    466.24725     286.6132    443.03485    38760.619 
  148700    299.88208   -1514.4715    489.13176    317.28534     969.5978    38760.619 
  148800    310.21869   -1560.8065    472.53769    300.63505    326.63672    38760.619 
  148900    303.57136   -1564.2176    465.31911    260.24413    590.86294    38760.619 
  149000    294.06513    -1527.528    508.31032    297.36387    340.03282    38760.619 
  149100    305.96522   -1502.5988    484.97099     352.2325  -0.91582146    38760.619 
  149200    297.05725   -1518.0619    457.93176    269.84765   -158.45325    38760.619 
  149300    291.13189   -1535.8323    496.91668    264.53327   -521.05848    38760.619 
  149400      298.282   -1534.0973    458.56151    259.92538   -557.64167    38760.619 
  149500    295.22419   -1553.4328    465.60988    233.94796   -655.32204    38760.619 
  149600    285.63509   -1552.1552    457.37112    184.05475   -150.91978    38760.619 
  149700     290.4699     -1554.87    465.52107    211.13612   -103.98134    38760.619 
  149800    300.17549   -1486.5438     498.6392    356.03405   -172.11384    38760.619 
  149900     300.1351   -1480.4856     470.1654    333.43766   -210.04854    38760.619 
  150000     304.4833   -1520.7787    488.33714    330.78393    72.711899    38760.619 
  150100    301.66153   -1556.4771    472.07874    266.19363    584.46043    38760.619 
  150200    298.29551   -1553.1073    475.97541    258.38985    413.64161    38760.619 
  150300    299.66003   -1511.5199    486.61803    316.72902    573.38688    38760.619 
  150400    307.80868   -1534.7462    452.27909    295.64673    39.950073    38760.619 
  150500    305.88137   -1482.2714    475.11422    362.32779    343.51231    38760.619 
  150600    300.38079   -1501.3358    494.57208    338.09416    55.188811    38760.619 
  150700    307.01833   -1476.7331      452.212     350.0542    101.74958    38760.619 
  150800     305.9677   -1474.2372    487.79203     383.4263   -219.41764    38760.619 
  150900    295.52791   -1519.8251    490.57578    293.88133   -350.90567    38760.619 
  151000    300.84245   -1525.1018    457.35192    279.17495   -370.76097    38760.619 
  151100    304.84614   -1477.3595    477.61012    365.10067   -27.144238    38760.619 
  151200    292.88858   -1507.4004    473.04471     276.9582    397.98909    38760.619 
  151300    295.74675   -1518.0133    474.64476    280.74197    499.02382    38760.619 
  151400     290.6676   -1491.1546    492.46082    302.67642    575.75662    38760.619 
  151500    293.37531   -1505.8725       444.63    252.25064    334.91278    38760.619 
  151600    290.93213   -1484.3999    527.99912    346.15376    86.352867    38760.619 
  151700    306.93163   -1493.4681    445.69512    326.41419   -78.959256    38760.619 
  151800    300.09802   -1508.1475    482.23438    317.67879     175.6049    38760.619 
  151900    292.19192   -1480.1988    462.89726    290.89329   -402.03865    38760.619 
  152000    295.41893   -1495.0317    471.22172    298.83273   -740.25122    38760.619 
  152100    305.66313   -1452.7579    472.61669     388.3666   -176.86523    38760.619 
  152200    301.30452   -1477.5115    489.56219    361.04432   -188.11355    38760.619 
  152300    290.94628    -1459.049    463.02665    306.59553   -139.69077    38760.619 
  152400    298.79436   -1503.9155    471.62504    305.46471    57.856468    38760.619 
  152500    296.55134   -1457.1069    471.01002     341.6159    271.19903    38760.619 
  152600    306.82832   -1522.8997    491.85384    342.67873    710.40645    38760.619 
  152700    290.15484   -1499.3421    472.28186     272.0142    321.26991    38760.619 
  152800    291.73615   -1514.3207    463.14574    254.97937   -77.320831    38760.619 
  152900    303.81977   -1517.7245    472.17369    314.70395   -474.61831    38760.619 
  153000    297.21371   -1498.7317    454.22523    286.17183   -860.51954    38760.619 
  153100    305.16747   -1481.6196    478.92843    363.59747   -545.21214    38760.619 
  153200    305.09122   -1507.7791    474.41998    332.58818   -71.592649    38760.619 
  153300    308.24431   -1471.6908     447.7754     356.1488     299.6266    38760.619 
  153400    294.54654   -1466.6746     464.3525    316.41477    262.28781    38760.619 
  153500    299.05419   -1465.9757    482.64242    355.58514    533.55628    38760.619 
  153600    301.49648   -1451.0177    479.86962    378.70495    678.45951    38760.619 
  153700    296.68954   -1438.5223    459.75549    349.56463    385.48964    38760.619 
  153800    299.96131    -1455.945    501.29176    388.32656   -249.03555    38760.619 
  153900    292.75266   -1475.4107    474.41345    309.70817   -437.83235    38760.619 
  154000    300.56753   -1500.5177    485.34604    330.52231   -724.74483    38760.619 
  154100    306.20591    -1506.912    476.74617     340.7721   -1012.7402    38760.619 
  154200    294.77946   -1541.6234    431.80563    209.96197   -954.69001    38760.619 
  154300    297.09665   -1457.7189    484.45782     356.8931    -1112.447    38760.619 
  154400    306.96929    -1486.388    469.65392    357.62168   -737.12926    38760.619 
  154500    294.66938   -1494.5203    484.46569    309.23225    2.9926628    38760.619 
  154600    298.96079   -1488.5464    466.55741    316.51129    172.63778    38760.619 
  154700    302.50776   -1491.0461    480.77587    344.11052    819.99801    38760.619 
  154800    291.53579    -1515.193    477.43663    267.50093    624.29265    38760.619 
  154900    300.77391   -1467.7599    500.68248    379.54055    834.89729    38760.619 
  155000    294.97728   -1462.3688    463.93045    322.22703    485.13833    38760.619 
  155100    307.96451   -1456.3127    471.13448    393.63328    61.995813    38760.619 
  155200    301.08572   -1430.9843    493.19144    410.22109   -85.750326    38760.619 
  155300    298.44098   -1430.9539     475.3383    380.55741    660.66735    38760.619 
  155400    307.38922   -1451.5316    486.02588    410.73019    673.17369    38760.619 
  155500    306.26285   -1458.8067    450.21542     362.6016    525.41707    38760.619 
  155600    310.14416   -1453.8361    501.40742    436.14157    14.836737    38760.619 
  155700    299.96357   -1484.0677    498.76106    357.68321    174.93906    38760.619 
  155800    304.94086   -1418.9555    480.89704    427.21568   -54.353041    38760.619 
  155900     301.6046   -1411.3172    495.35231    434.37222   -144.29733    38760.619 
  156000    298.54414   -1433.8926    486.47032    389.21252   -57.457374    38760.619 
  156100    289.27039   -1429.4697    467.85237    333.49731     243.9113    38760.619 
  156200    305.79444   -1464.5821     493.0034     397.5171    236.20678    38760.619 
  156300    303.36061   -1465.7041    473.06642    365.56136    539.63847    38760.619 
  156400    298.88223   -1478.7033    480.53509    339.98035   -117.32026    38760.619 
  156500    295.48847   -1501.4003    471.03954    292.59339    -443.6183    38760.619 
  156600     302.6189   -1462.8625    465.66025    357.67607   -146.19665    38760.619 
  156700    301.73022   -1498.3802    466.34275    318.86204   -440.79043    38760.619 
  156800    292.67162   -1511.8573     461.3184    259.80364   -814.59434    38760.619 
  156900    291.18975   -1462.3038    473.83273    315.23691   -618.27334    38760.619 
  157000    297.32893   -1519.5401    473.98616    285.64018   -652.66075    38760.619 
  157100    306.05225   -1510.6182    480.89088    340.52271   -204.73444    38760.619 
  157200    310.43337   -1530.4133     460.8853    320.33701      126.121    38760.619 
  157300    299.26004    -1475.611    497.31069    361.53979    119.02685    38760.619 
  157400    301.96117   -1474.2481    502.47085    380.15622    25.540473    38760.619 
  157500    298.96233   -1484.0279    486.59277      341.072    7.3058972    38760.619 
  157600    300.54704   -1497.2729    512.58181    360.91116    809.97262    38760.619 
  157700    299.61635   -1512.8686    479.26655    307.83326      1180.02    38760.619 
  157800    311.55599   -1493.9575    469.49868    370.43247    782.83536    38760.619 
  157900    301.73137    -1537.382    494.51259    308.03528    378.56841    38760.619 
  158000    300.03259   -1509.0165    449.52446    283.80684    537.17128    38760.619 
  158100    291.17752   -1549.1678    485.77165    240.25708    277.51777    38760.619 
  158200    315.29615   -1535.5938    465.42051    341.46323    431.74137    38760.619 
  158300    308.06507   -1506.5186    491.51708    364.26028    589.36015    38760.619 
  158400    301.76726   -1504.4133     498.4149    345.06696   -9.6089807    38760.619 
  158500     304.2861   -1467.0386     466.9202     362.2242   -209.03954    38760.619 
  158600     304.0394   -1481.2687    463.67249    343.64188   -578.59429    38760.619 
  158700    308.66622   -1490.3553    489.86037    381.45822   -78.381511    38760.619 
  158800    294.17019    -1491.796    465.41222    290.66816   -185.07979    38760.619 
  158900    295.71618   -1529.3171    470.47674     265.1332   -123.06264    38760.619 
  159000    306.39457   -1532.6005    466.70528    305.88741   -249.11543    38760.619 
  159100    298.02649   -1493.5373     456.6219    297.40188    31.408802    38760.619 
  159200    301.84594   -1532.2874    470.07113    289.20138   -414.25667    38760.619 
  159300    292.38076   -1509.5727     451.5591    251.02674   -202.00228    38760.619 
  159400    299.70513   -1533.8698    464.72261    272.68562    125.69679    38760.619 
  159500    302.24699   -1574.5377    450.61342    229.28886   -131.33704    38760.619 
  159600    302.41123   -1489.1062    475.70556    340.54791   -88.174996    38760.619 
  159700    291.61057   -1494.2652     472.9228    284.24966    291.01239    38760.619 
  159800    300.16287   -1521.9085    464.73969    286.71336    671.20974    38760.619 
  159900    304.72222   -1488.3685    461.62259     337.5493    67.780195    38760.619 
  160000    291.15951   -1531.3865    472.79974    244.98578     297.9917    38760.619 
  160100    303.08592   -1511.0865     488.2186    334.10132    177.43793    38760.619 
  160200    300.76548   -1472.2698    489.11957    363.43001     929.7045    38760.619 
  160300    310.86124   -1500.8205     477.0448    368.00499    494.83164    38760.619 
  160400     288.7961    -1482.665    493.26742    303.59363    89.652594    38760.619 
  160500    302.63655   -1492.2815    475.65578     338.3316   -59.661118    38760.619 
  160600    310.58294   -1523.0698    434.25358     301.7185   -162.65127    38760.619 
  160700    292.53954   -1482.3026    457.74565    285.19423   -180.07862    38760.619 
  160800    296.59454   -1506.4707    471.95478    293.39023    141.75664    38760.619 
  160900    295.76944   -1533.2309    457.99174    248.97286   -216.32877    38760.619 
  161000    299.86222   -1520.8875    469.43904    291.08773    374.36929    38760.619 
  161100    305.79019    -1490.385    477.66273    356.35451    568.47387    38760.619 
  161200    301.15112   -1522.6836    477.72216    303.34536    145.98217    38760.619 
  161300    294.49155   -1473.0157    451.44902    296.92405      61.3546    38760.619 
  161400    294.54853   -1530.6852      464.494    252.55462     198.0691    38760.619 
  161500     300.3413   -1510.9696    472.04149    305.75294    273.63676    38760.619 
  161600    288.15733   -1523.0638    462.05661    229.12409   -316.94592    38760.619 
  161700    295.18683   -1499.9447     447.2969    268.95577   -311.58318    38760.619 
  161800    294.67147   -1551.3395    476.86538    244.82214    780.63243    38760.619 
  161900     301.4366   -1510.4345    463.98491    303.13532    633.87217    38760.619 
  162000    294.62874   -1487.4422    448.22308    279.88583    308.56288    38760.619 
  162100    293.96601   -1472.3755    497.30939    341.07166    535.26916    38760.619 
  162200    298.75998   -1523.0406    464.26472    278.82538    416.11597    38760.619 
  162300    307.82475   -1479.8421    482.04689    380.39056    559.12757    38760.619 
  162400    293.98922   -1507.1956     473.8873     282.9334    221.04714    38760.619 
  162500    296.31558   -1483.7743    484.21178    327.09471   -124.98744    38760.619 
  162600      293.955    -1483.408    437.63923    270.31971   -395.90918    38760.619 
  162700    305.16319   -1465.8259    488.98087     389.4245   -111.04819    38760.619 
  162800    305.71096   -1481.0786    465.57462      353.218   -179.67543    38760.619 
  162900    294.94623   -1505.1816    437.00653    252.35137   -189.39331    38760.619 
  163000    303.13604   -1519.0269    474.28024    312.44695    15.023551    38760.619 
  163100    305.01102   -1497.1657    462.22328    330.64585   -289.16791    38760.619 
  163200    294.28318   -1474.3917    443.82791    286.99407   -262.70959    38760.619 
  163300    301.35375   -1469.7419    481.56283    361.03495     47.51182    38760.619 
  163400    306.36839   -1505.4237    451.25119    317.49291    88.150956    38760.619 
  163500    302.24026   -1505.3946    459.77916    307.56761      75.2324    38760.619 
  163600    294.63182   -1545.4823    458.50529    232.14175    398.48389    38760.619 
  163700    301.18484   -1509.6948    482.03452    320.79745    878.09882    38760.619 
  163800    291.84444   -1472.5577    463.42046    297.50189   -40.165344    38760.619 
  163900    293.63034   -1486.4435    451.73538    279.92679    71.586895    38760.619 
  164000    302.37871   -1505.9695    469.53239    317.36579    536.83629    38760.619 
  164100    306.34436   -1514.1473    458.54451    315.95508    933.73158    38760.619 
  164200    299.42821   -1518.5488    450.91534     272.9596    230.26874    38760.619 
  164300    303.93645   -1494.0826    503.13132     369.8259    251.61008    38760.619 
  164400    293.34318   -1515.2834    479.66723    277.73305   -4.6193265    38760.619 
  164500    299.80472   -1531.7598    454.70679    265.22567      283.887    38760.619 
  164600    298.40631   -1564.3289    443.19349    214.88231   -33.780645    38760.619 
  164700    300.70056   -1523.1578    450.47926    273.61102   -433.71688    38760.619 
  164800    295.48446   -1524.1013    448.77578    247.61061   -208.20302    38760.619 
  164900    304.80708   -1566.8231    459.57756    257.42963    77.357278    38760.619 
  165000    293.63348   -1566.0616    446.65015    195.23753    561.80699    38760.619 
  165100    302.21237   -1555.5183    464.84568    262.38561   -507.28294    38760.619 
  165200     303.2456   -1553.0382    472.31813    276.96402    178.33192    38760.619 
  165300    295.06126    -1585.567    432.63973    168.11413   -71.200363    38760.619 
  165400    296.31047   -1506.7495    454.34245    274.22724   -99.941477    38760.619 
  165500    311.37176   -1511.9517    467.40825    349.52292   -93.477115    38760.619 
  165600    294.43403   -1506.1793    458.50667    270.56056   -147.17542    38760.619 
  165700    292.26953   -1496.2591    488.13101    300.41421    462.12708    38760.619 
  165800    302.32959    -1500.105     452.4161    305.89405    142.06975    38760.619 
  165900    306.79777   -1518.3917    459.70878    314.90496   -307.08643    38760.619 
  166000    287.69664   -1500.0162    457.67965    245.73208   -249.15662    38760.619 
  166100    303.05386   -1501.6473    474.74364    329.92205    51.740967    38760.619 
  166200    308.27133   -1536.9419     447.7807    291.02403   -352.35797    38760.619 
  166300    309.14795   -1549.9672    454.31573     288.4585   -738.92057    38760.619 
  166400    291.29203   -1562.3397    457.83197    199.65817   -1038.7095    38760.619 
  166500    300.50401   -1555.4848    442.36123    232.28596   -143.30759    38760.619 
  166600    301.10043   -1543.0767    446.41195    251.41513   -91.309407    38760.619 
  166700    290.48416   -1536.3031    468.70815    232.95394   -311.90513    38760.619 
  166800     304.9206   -1499.1044    475.36149    341.44054   -31.583978    38760.619 
  166900    300.30249   -1470.9623    444.69965    318.24461   -306.64195    38760.619 
  167000    300.71856   -1426.9273    500.91806    420.36089   -213.96541    38760.619 
  167100    308.16599   -1421.2185    478.02093    436.51601   -519.67951    38760.619 
  167200    296.63939   -1456.5737    460.99733    332.53064   -1029.3392    38760.619 
  167300    298.66086   -1430.0103    451.43552    358.58272   -918.15462    38760.619 
  167400    286.50506   -1460.9742    469.86682    291.62641   -932.49298    38760.619 
  167500    300.78683   -1492.7823    451.33258    305.22605   -349.82202    38760.619 
  167600    299.74877   -1482.7192    480.56998      339.879    55.043823    38760.619 
  167700    292.99606   -1466.3547    468.10869    313.54916   -147.58427    38760.619 
  167800    307.34991   -1471.7862    472.31842    376.59204    35.815471    38760.619 
  167900    297.18808   -1479.8334    469.91115    320.64128     87.42461    38760.619 
  168000    296.34823   -1483.2232     431.7526    275.33283   -96.474733    38760.619 
  168100     298.1707   -1506.8778    451.31105     279.3962   -8.2869621    38760.619 
  168200    297.15984   -1489.2181    458.64013    299.85911    6.6802168    38760.619 
  168300    298.85914   -1494.8359    464.94138    308.15069    376.70581    38760.619 
  168400    304.94851   -1513.2922    441.94388    293.96006    381.17882    38760.619 
  168500    292.95337   -1486.5696    477.49455    302.52898    431.96571    38760.619 
  168600    304.10404   -1483.0091    483.77324    362.29167    842.87103    38760.619 
  168700    298.02769    -1474.758    463.30692    322.87157    565.10396    38760.619 
  168800    295.05052   -1446.9814    475.67458    349.68651    561.01371    38760.619 
  168900    309.27073      -1450.2    469.26508    403.72477    124.49752    38760.619 
  169000    298.33992   -1478.5612    465.30882    322.46817    423.46735    38760.619 
  169100    300.60986   -1467.3798    462.29205    340.79572   -257.92339    38760.619 
  169200    295.82825   -1486.3744    431.23742    269.33834    -900.3286    38760.619 
  169300    292.29898   -1449.4616    458.18014    317.39269   -681.88637    38760.619 
  169400    297.49205   -1477.4254    468.76856    323.26761   -61.742686    38760.619 
  169500    305.22357   -1502.5882    472.10813    336.05973   -142.04813    38760.619 
  169600    291.42215   -1458.4344    478.63518    324.94927    115.99883    38760.619 
  169700    305.57549   -1468.2029    450.17728    350.08984    282.61034    38760.619 
  169800    304.00485     -1461.01    483.26126    383.33467   -161.87918    38760.619 
  169900    306.58604   -1415.8947    449.90554    406.65069   -602.49879    38760.619 
  170000    310.48567   -1413.2256    498.10246    474.97607   -474.40744    38760.619 
  170100    306.58611   -1422.7329    453.46311    403.37039   -15.714655    38760.619 
  170200     293.9714   -1439.3481    470.74931    347.56312   -22.475742    38760.619 
  170300    298.89532   -1461.3182    477.89141    354.78038    568.63318    38760.619 
  170400    301.28115    -1466.255    460.92192    343.55584   -154.28269    38760.619 
  170500    292.72365   -1443.8127    476.69038    343.45319    9.2314212    38760.619 
  170600    295.54736   -1463.2559    497.78335    357.74514    180.55588    38760.619 
  170700    296.12969   -1472.4811    472.04957    325.39341    528.63943    38760.619 
  170800    287.41423    -1483.329    458.83958    262.31484   -309.84092    38760.619 
  170900    290.27931   -1471.1261    485.18706    313.69271   -675.07346    38760.619 
  171000    304.24626   -1437.2972    502.28772     427.1548   -214.39101    38760.619 
  171100    302.59011   -1388.4496    462.48729    428.78703   -275.44491    38760.619 
  171200    303.62671   -1436.3813    486.74985    409.75897   -57.422968    38760.619 
  171300    310.71222    -1425.066    489.84072    455.88825    175.72193    38760.619 
  171400    304.04492   -1482.3162    453.85277    332.79939    235.40005    38760.619 
  171500    299.89173   -1433.6783    475.38365    384.37364    845.34334    38760.619 
  171600    300.46809   -1457.2925    476.03041    363.98667    688.98391    38760.619 
  171700    307.90917   -1399.1562    478.81969    458.22726     136.5347    38760.619 
  171800    302.83249   -1470.9611    449.81136    334.68483    161.27742    38760.619 
  171900    311.26396   -1465.4535     460.1105    388.24078    325.99746    38760.619 
  172000    304.33072   -1499.2375    455.18809    318.49302    500.13879    38760.619 
  172100    292.24607   -1518.9212    468.32582    257.84192    1054.0951    38760.619 
  172200    304.20145   -1503.5297    450.27452    308.70847    918.82011    38760.619 
  172300    309.04456   -1491.8658    432.09887     323.8802    697.27653    38760.619 
  172400    310.98236    -1534.039    437.04897      295.333    371.30293    38760.619 
  172500    297.62183   -1507.2989    471.78426    296.99085   -108.05592    38760.619 
  172600    288.56241   -1537.7042    466.16735    220.40801    599.76452    38760.619 
  172700    297.48104   -1527.8847    463.41632    267.40683     178.9986    38760.619 
  172800    300.60776   -1503.5018     477.5163    319.88853    431.09151    38760.619 
  172900    294.96651   -1478.6008    452.74418    294.76062    688.23998    38760.619 
  173000    309.98518   -1522.3064    445.85843    311.41045    376.86393    38760.619 
  173100    297.86989   -1534.1901    476.62079    276.04684     20.74094    38760.619 
  173200    309.27766   -1538.4344    457.16285     303.4192    56.534557    38760.619 
  173300     302.2512   -1526.4069    464.90089    291.72596   -62.694975    38760.619 
  173400    299.48605   -1519.0252    443.74373    265.57052   -199.13792    38760.619 
  173500    302.44193   -1512.0632    465.70549    307.72828   -2.2645943    38760.619 
  173600    295.73804   -1512.5787    451.39834    262.89108    174.22827    38760.619 
  173700    304.85672   -1483.2203    433.47541    315.15249   -293.61334    38760.619 
  173800    301.31636   -1477.1077    451.81058    323.74946    96.052005    38760.619 
  173900     293.8786   -1477.3671    479.39716    317.77651   -5.3005632    38760.619 
  174000    302.30055   -1534.8396    432.45389    251.06723    83.705995    38760.619 
  174100    297.65855    -1491.115    454.49342    296.04832    234.08067    38760.619 
  174200    300.36757   -1497.6846    476.02505    323.13911    212.07018    38760.619 
  174300    296.92347   -1526.3589    464.37516    267.39511   -69.349425    38760.619 
  174400    291.05917   -1535.8523    469.88031    237.15127   -62.991052    38760.619 
  174500     304.7298   -1524.4638    472.92534    312.79066   -102.08527    38760.619 
  174600    303.04096   -1494.8747    463.11019    325.00337   -266.78595    38760.619 
  174700    294.08406    -1477.102    477.70986    317.27422   -716.17896    38760.619 
  174800    300.18183   -1467.4755    454.93455    331.42616   -92.685271    38760.619 
  174900    307.28022   -1501.1123    465.43627    340.07179   -587.83909    38760.619 
  175000    292.19434   -1483.1916     455.6455    280.65959   -247.84541    38760.619 
  175100    309.43517   -1516.5303    466.08151    334.94712    162.15528    38760.619 
  175200    303.03628   -1542.6839    461.22357    275.28657    782.15453    38760.619 
  175300    302.94466   -1509.3833    459.26021    306.21373   -23.126156    38760.619 
  175400    307.06922   -1504.3424    457.59114    328.05193    599.94882    38760.619 
  175500    299.78318   -1514.1914    463.26955    291.26044    209.98517    38760.619 
  175600    294.71853   -1503.8618    448.77212    264.41729   -67.619926    38760.619 
  175700    298.22654   -1491.3442    478.57423     322.4429    10.358687    38760.619 
  175800    309.82691   -1474.2006    437.56905    350.51823    66.467096    38760.619 
  175900    298.12403   -1460.3707    472.69227    347.07555    64.279175    38760.619 
  176000    292.44715   -1476.6514    468.03113    300.71733    19.609915    38760.619 
  176100    306.12838   -1514.9283     457.2654    312.92793    352.81726    38760.619 
  176200    293.50813   -1511.2514    463.84933    266.68567    74.097482    38760.619 
  176300    290.22644   -1522.2879    463.57967    240.68677   -306.52191    38760.619 
  176400     297.0673   -1516.2982    467.22973    280.95427    104.40345    38760.619 
  176500    294.33433   -1499.0098    480.82584    299.60284   0.59040837    38760.619 
  176600    300.16203   -1512.8047    489.55476    320.62846   -91.397948    38760.619 
  176700    304.18475   -1507.5275    468.87348    323.23489   -36.293144    38760.619 
  176800    304.97086   -1515.0958     455.4239    305.73655   -657.50153    38760.619 
  176900    301.07672   -1498.0048    457.84066    307.80959   -178.06034    38760.619 
  177000    295.21153   -1526.0072    440.85126    236.55823   -642.00051    38760.619 
  177100    303.52466   -1502.4565    478.39126    334.86828   -332.65614    38760.619 
  177200    294.21242   -1493.2385    449.22474    273.22726    152.32329    38760.619 
  177300    304.55038   -1520.1579    466.11458    309.48257   -102.70037    38760.619 
  177400    313.63995   -1530.5583    492.43253    366.09574     282.5119    38760.619 
  177500    292.69735   -1506.4576    469.30046     273.3006    443.18215    38760.619 
  177600    306.45027   -1474.6725    476.72216    374.08169    610.19905    38760.619 
  177700     302.9291   -1516.6201    471.11453    310.76153    237.97318    38760.619 
  177800    301.85916   -1548.2634    444.84418    248.05756    135.05178    38760.619 
  177900    301.53925   -1519.3272    480.85488    311.57219   -220.40243    38760.619 
  178000    298.09199   -1508.1778    471.08526    297.51796   -60.550051    38760.619 
  178100    294.73419   -1465.9811    467.44669    321.04261    -662.7214    38760.619 
  178200    300.24824   -1479.7567    460.75592     325.2637   -288.32524    38760.619 
  178300    292.67394    -1521.793    468.69346    257.25339   -279.97846    38760.619 
  178400    311.64697   -1480.9912     476.6309    390.93827   -55.579436    38760.619 
  178500    302.97218   -1503.3052    472.73476    325.88958   -932.97203    38760.619 
  178600    302.68701   -1523.3763    440.83451    272.64145     14.96656    38760.619 
  178700    295.55816   -1544.7767    476.64278    255.13214    -145.9939    38760.619 
  178800    299.74591   -1543.3803    461.64799    260.28309    290.16163    38760.619 
  178900    293.03634   -1512.0059    464.46749    264.43708    632.76847    38760.619 
  179000     297.0056   -1555.6834    469.10411    243.16728    364.19139    38760.619 
  179100     291.8131   -1522.1626    481.54504    265.88128    350.10108    38760.619 
  179200    304.50898   -1540.3681     482.2701    305.24255    303.32496    38760.619 
  179300    292.31737   -1529.2391    464.02361    243.54105     112.1486    38760.619 
  179400      307.942   -1528.4008     459.0869    309.39682   -212.42268    38760.619 
  179500    302.04746    -1513.343    471.84048    310.81733    -239.7102    38760.619 
  179600    303.56294   -1473.5941     456.7589    342.26975   -115.19976    38760.619 
  179700    307.28773   -1471.5327    479.40124    383.65002   -213.02425    38760.619 
  179800    305.39878   -1485.8687    487.57384    369.02945    631.32584    38760.619 
  179900    304.01284   -1485.1735    475.29071    351.23642    424.64711    38760.619 
  180000    290.11256   -1553.1718    464.04501    209.75838    90.921548    38760.619 
  180100    310.47466   -1509.8514    489.55449    369.75299    238.49302    38760.619 
  180200    304.20952   -1457.5648    476.27075    380.70573    282.71722    38760.619 
  180300    296.80426     -1484.07    478.25905    323.03419    30.366437    38760.619 
  180400    292.73267   -1453.5553    470.40508     327.4657    9.3406816    38760.619 
  180500     298.2298   -1434.5492    513.10651    413.78481     137.2554    38760.619 
  180600    296.92567   -1483.0109     460.3416    306.71943   -273.12673    38760.619 
  180700    305.95139   -1471.6332    481.09552     379.2607    124.45697    38760.619 
  180800    307.90596   -1471.9654    481.42802    388.01205   -157.35459    38760.619 
  180900    298.22415   -1510.1861    447.78125    272.79734    91.368697    38760.619 
  181000    307.17967   -1480.4232    484.11282    378.98734    41.633059    38760.619 
  181100    302.91747   -1465.1892    485.75064    376.77646    777.12926    38760.619 
  181200    295.24217   -1467.0378    469.94176    324.75527    616.25064    38760.619 
  181300    305.26161   -1445.1852    470.13006    391.65504    725.50697    38760.619 
  181400     300.3702    -1466.269    454.45168    332.99313    342.87201    38760.619 
  181500    293.58418   -1460.7653    458.86295    312.52593    812.40221    38760.619 
  181600    303.91392   -1498.0001    499.46056    362.13673    156.77589    38760.619 
  181700    297.63948   -1489.7203    460.79213    303.65639    479.13731    38760.619 
  181800    295.49476   -1517.7282      488.335    293.58908    171.65673    38760.619 
  181900    306.58538   -1517.5313    463.55236    318.65801    827.35636    38760.619 
  182000    288.60096   -1540.0447    435.58936    187.66217    281.77128    38760.619 
  182100    301.55084   -1497.7286    493.67754    346.04538     82.95462    38760.619 
  182200      304.392   -1524.2441    477.31706    315.88971     100.3905    38760.619 
  182300    300.66907   -1498.9614    478.64802    325.83518   -195.66001    38760.619 
  182400     307.5649   -1524.0649    487.25139    340.20885   -115.93015    38760.619 
  182500    304.28822   -1458.6148     488.3311    392.06847   -428.75609    38760.619 
  182600    303.44297   -1463.9074     469.4045    364.06492    -828.7614    38760.619 
  182700     295.3797   -1456.3339     469.8138    335.94701   -395.59561    38760.619 
  182800    293.75786   -1461.5993    507.80433    361.41087    231.28478    38760.619 
  182900    312.27126   -1488.4906    478.64806    388.25104    385.86807    38760.619 
  183000     296.9693   -1445.4603    486.74783    370.87153     42.89181    38760.619 
  183100    285.07516   -1470.1413    489.15695    295.34747    149.62106    38760.619 
  183200    293.48678   -1532.3794    463.58631    245.19908   -316.33679    38760.619 
  183300    309.46888   -1514.2347    474.46277    345.77492   -386.24254    38760.619 
  183400    303.55772   -1491.3101    450.21664    317.98811   -361.63598    38760.619 
  183500     298.3617   -1513.7899    468.96325    290.99143   -527.62477    38760.619 
  183600    305.37788   -1535.9586    461.06674    292.33887   -409.92383    38760.619 
  183700    296.89266   -1558.4274     484.9303    255.74385   -575.80194    38760.619 
  183800    304.37258   -1501.1781    483.19918    344.75087   -82.312617    38760.619 
  183900    293.65662   -1572.3522    467.67945    210.07982    504.39728    38760.619 
  184000     304.8726    -1547.044    463.93453    281.85905    209.12059    38760.619 
  184100    293.90381   -1545.4256    483.13868    253.57236    281.99332    38760.619 
  184200    295.44244   -1530.9098    465.52065    257.35889   -337.29784    38760.619 
  184300     291.6504   -1544.7629    464.90561    225.91312   -711.16323    38760.619 
  184400    307.29829   -1520.5604    472.52373    327.79211   -786.96559    38760.619 
  184500    292.06687   -1540.7192    463.76181    230.67759   -393.72005    38760.619 
  184600    297.55829   -1469.1695    495.28047    358.33208    -616.3662    38760.619 
  184700    301.55312   -1533.3341    481.26556    298.03802   -329.51776    38760.619 
  184800    308.15263   -1515.9848    484.22444    347.89345    284.98774    38760.619 
  184900    304.02059   -1548.5512     459.8993    272.50196    250.65946    38760.619 
  185000    299.31142   -1514.1766    473.51963    299.41319    69.293011    38760.619 
  185100    292.11946   -1486.0043    468.86358    290.72974   -152.22692    38760.619 
  185200    304.72104   -1519.8823    474.55585     318.9635   -239.75106    38760.619 
  185300    311.93076   -1553.7445    472.31447    315.13912   -101.79828    38760.619 
  185400     299.9482   -1509.1468    466.79877    300.57303    -322.1636    38760.619 
  185500     302.5823   -1498.6393    450.39863    306.47377    144.55128    38760.619 
  185600     298.2504   -1541.4145    481.35491    275.26015   -270.76365    38760.619 
  185700    299.92869   -1517.8338    456.89804      281.898    -234.5023    38760.619 
  185800    305.53384   -1481.3152    460.70841    347.32219   -237.97896    38760.619 
  185900    306.68864   -1519.1188    446.80138    300.78177   -63.133659    38760.619 
  186000    309.49299   -1490.2245    474.15664    369.58694    -67.68719    38760.619 
  186100    296.55366   -1565.9531    480.43942    242.20949   -197.65608    38760.619 
  186200    296.95838   -1578.1295    446.89909    198.30477   -455.07538    38760.619 
  186300    302.17634   -1537.4228    461.00712    276.48123   -203.90591    38760.619 
  186400    293.82497   -1515.6066    468.64457    268.54427   -621.40227    38760.619 
  186500    305.37772   -1520.0422    470.51678    317.70464   -391.27187    38760.619 
  186600    304.52018    -1574.531     473.3002    262.15979   -343.10185    38760.619 
  186700    308.88206   -1508.6256    476.53124    350.82518    132.07502    38760.619 
  186800    308.81053   -1492.0578    456.22653    346.76807   -89.478668    38760.619 
  186900    308.15506   -1526.6874    481.71452    334.69179    545.55304    38760.619 
  187000    303.70569   -1555.1532    456.40807    260.99892    487.58393    38760.619 
  187100    297.67166   -1546.4588    462.56791    248.83775    455.35833    38760.619 
  187200     304.1619   -1556.5624    484.85674    290.08091     1002.992    38760.619 
  187300    293.63951   -1526.7805    467.74821    255.64367    431.38064    38760.619 
  187400    301.47774   -1544.2419    480.63486    286.16211    589.93347    38760.619 
  187500    301.55783   -1550.8987    471.36214    270.59111   -1.1526029    38760.619 
  187600     302.1179   -1523.1769     486.6821    316.14041    676.62483    38760.619 
  187700    299.77768   -1516.9829    480.77815    305.95284    429.72638    38760.619 
  187800    297.14727   -1474.9256     482.2039    337.65913    21.798357    38760.619 
  187900    303.05068   -1494.0347    465.96282    328.73956    200.73091    38760.619 
  188000    303.74995   -1499.2552    483.12997    343.81693   -203.35436    38760.619 
  188100    297.49226   -1479.4986    462.51684    314.94363   -94.176625    38760.619 
  188200    306.62336   -1466.8676    470.61897    376.55829   -64.916358    38760.619 
  188300    297.28742   -1481.8089    483.15719    332.35666    25.352887    38760.619 
  188400    296.62698    -1510.901    468.32423     285.4746   -494.10916    38760.619 
  188500    292.94021   -1518.2278    479.83248    273.14974   -454.90322    38760.619 
  188600    305.31451   -1496.7121    471.28052    341.51539    91.155729    38760.619 
  188700    304.02448   -1501.1089    466.42025    326.48267    446.07822    38760.619 
  188800    289.24145   -1530.6045    476.53339    240.91392    149.41804    38760.619 
  188900    314.16817   -1533.5963    477.39359    350.38366    585.57037    38760.619 
  189000    293.89443   -1548.4367    459.08637     226.4669    108.25752    38760.619 
  189100    299.95348   -1533.0689    471.53895    281.41475    97.923055    38760.619 
  189200    305.38079     -1533.29     465.2606    299.21433   -124.28846    38760.619 
  189300     308.3216    -1562.057    456.08512     274.4384    1.1724586    38760.619 
  189400    311.06008   -1542.1862    476.38143    326.86617   -165.76353    38760.619 
  189500      302.409   -1557.4156    451.65208    248.17505    -147.2711    38760.619 
  189600    299.26178   -1534.9673    474.12908    279.00966   -242.69742    38760.619 
  189700    303.55161   -1589.5991    455.83034    225.28545   -54.550081    38760.619 
  189800    297.03867   -1552.4281    452.80606    230.27257    51.987231    38760.619 
  189900    302.37151   -1529.5522     460.3363    284.55479   -167.54515    38760.619 
  190000    293.49641   -1552.4382     454.8192    216.41625   -198.71417    38760.619 
  190100    292.11077    -1553.489    457.73471    212.07725    -140.3595    38760.619 
  190200    300.79929   -1530.9188    449.34528    265.15809    -7.951005    38760.619 
  190300    304.29743    -1545.576    457.72792    274.54531   -130.28671    38760.619 
  190400    309.96489   -1547.7581    465.38903     305.3985   -239.42593    38760.619 
  190500    293.26775   -1567.4366    445.42521    191.00013   -142.71127    38760.619 
  190600    303.44647   -1553.8477    456.98682    261.72259   -799.42146    38760.619 
  190700    300.98657   -1558.7186     473.0846    261.93608   -702.23683    38760.619 
  190800    291.78182   -1528.7436    447.68111     225.2963   -854.29363    38760.619 
  190900    301.24829    -1483.093    470.68496    336.33376   -625.88163    38760.619 
  191000    304.29758   -1533.9442     477.9773    306.42712   -535.57472    38760.619 
  191100    301.49847   -1550.4301     460.9803    260.41208   -306.79094    38760.619 
  191200    307.45793   -1524.7482    474.96974    326.76499   -94.887976    38760.619 
  191300    285.20187   -1528.0815    470.29413    219.11181   -156.35539    38760.619 
  191400    309.86433   -1508.1432    474.22249    353.39664   -60.236776    38760.619 
  191500    304.47781    -1504.912    474.46727    332.75621    105.24436    38760.619 
  191600     288.1456    -1484.608    478.43785    283.90865   -380.70676    38760.619 
  191700    294.08008   -1424.3397     469.5337    361.84249   -58.054087    38760.619 
  191800    297.62232   -1470.0446    479.14994    341.61309    399.24795    38760.619 
  191900    302.72537   -1490.5692    448.56747    313.35321    401.99744    38760.619 
  192000    297.80829   -1462.3946    467.06509    338.01079    453.88921    38760.619 
  192100    298.77062   -1454.7585    489.11602    372.00635    615.29583    38760.619 
  192200    294.72258    -1514.598    462.74807    267.67509    61.897988    38760.619 
  192300    297.38279   -1500.3122    483.52491    314.64797     948.9364    38760.619 
  192400    297.80881   -1491.6076    477.15646    318.89151    244.96152    38760.619 
  192500    299.14309   -1504.5502    452.12006    286.88632    191.91026    38760.619 
  192600     296.5981   -1477.3673    484.90104    335.45585   -314.08795    38760.619 
  192700    318.66032   -1463.2555    471.05478    434.49781   -99.720408    38760.619 
  192800    296.38247   -1446.0644    481.23624    362.12853   -608.49151    38760.619 
  192900    296.13563   -1405.8542    496.10032    416.09764   -674.29151    38760.619 
  193000    307.28588   -1472.4283    477.73481    381.07962    125.97728    38760.619 
  193100     309.1418   -1500.5361    451.10513    334.65155    342.94636    38760.619 
  193200    302.33004    -1453.285    471.16929    371.46932    343.72776    38760.619 
  193300    289.01663    -1462.754    464.04748      295.272   -84.313065    38760.619 
  193400    300.53075    -1505.317    478.36915    318.58144    242.60628    38760.619 
  193500    304.90666     -1501.98    449.27247    312.41347   -504.40306    38760.619 
  193600    299.90226   -1505.4263     463.0002    300.28932    143.14108    38760.619 
  193700    296.07259   -1489.9942    460.67504    296.25015     38.15338    38760.619 
  193800    291.62937   -1513.3428    477.71953    270.05292    469.44876    38760.619 
  193900    303.84658   -1508.4883     471.9026    323.78909    448.33754    38760.619 
  194000     305.6708   -1502.3352    477.53046    343.73747    656.37876    38760.619 
  194100    292.40429   -1568.2376    458.80145    199.70949    531.07503    38760.619 
  194200    307.28144   -1572.5734    456.67505    259.85494    714.64089    38760.619 
  194300    303.60791   -1545.1744    458.48474    272.61657    278.75552    38760.619 
  194400    303.56797   -1521.2617    478.24752    316.11323    257.93657    38760.619 
  194500    305.71209   -1526.2748    471.83272    314.28499    399.28272    38760.619 
  194600    291.45132   -1561.4028    488.83876    232.31507    102.33595    38760.619 
  194700    303.47992   -1509.8278    436.64625    285.55168    22.508975    38760.619 
  194800    293.63449   -1482.3201    444.16384    276.49718   -434.45422    38760.619 
  194900     303.3165    -1515.432    469.05679    311.62632   -487.32665    38760.619 
  195000    300.01304   -1477.6026    477.93637    343.54514   -304.70324    38760.619 
  195100    300.97892   -1450.1277    458.92524    356.33329   -107.08941    38760.619 
  195200    303.88753   -1533.5442    452.96853    279.98246   -212.25872    38760.619 
  195300    303.94285    -1516.405    470.17276    314.57365   -81.328732    38760.619 
  195400    304.61495   -1483.6001    471.29966    351.51454    440.34098    38760.619 
  195500    292.69466   -1503.1472    466.45094    273.74945    54.301939    38760.619 
  195600    305.79912   -1502.7359    468.23287    334.61368    162.08459    38760.619 
  195700    306.96509   -1518.0477    472.86103    329.15027    713.85817    38760.619 
  195800    295.01148   -1529.0445    477.11947    268.89349    962.32617    38760.619 
  195900    297.45974   -1505.1256    458.14779    284.80207    299.56645    38760.619 
  196000    302.71739   -1488.2902     479.8089    346.83796   -387.16889    38760.619 
  196100    306.74099   -1508.7549    470.97973    335.55844    160.40483    38760.619 
  196200    308.19897   -1511.7181    450.66529    318.80841    20.152516    38760.619 
  196300    304.24179   -1561.5806    451.06188    251.62557    154.97612    38760.619 
  196400    298.87177   -1518.9327     466.2391    285.40807   -146.48964    38760.619 
  196500    299.72387   -1497.8631    468.97352    313.02715    233.07612    38760.619 
  196600     295.4764   -1509.1657    496.52158    310.25589    342.05553    38760.619 
  196700    298.69232   -1533.8355    446.56864    250.03149   -199.91728    38760.619 
  196800    299.95374   -1499.7803    486.82618    329.99181    100.23327    38760.619 
  196900    286.41725   -1464.7752    466.70435    284.26981    396.49731    38760.619 
  197000    301.74007   -1545.7301    468.55235    273.76581    216.40638    38760.619 
  197100    304.71914   -1492.4814     451.3964    323.19645   -268.63038    38760.619 
  197200    296.59749     -1537.52    447.70443    238.10376   -1014.4488    38760.619 
  197300    306.25985   -1539.5344    468.10823     299.7533   -437.28523    38760.619 
  197400    298.81765   -1506.2324    479.40981    311.03681    165.78253    38760.619 
  197500    299.92169   -1540.5598    473.12439    275.36701     -95.2323    38760.619 
  197600    315.34745   -1520.9769    457.13892    348.02831    161.01844    38760.619 
  197700    308.56501    -1552.313    468.49508    297.68217    83.167719    38760.619 
  197800    307.57425   -1560.5261     459.7025    276.24061    364.62615    38760.619 
  197900     303.6897   -1549.0212    483.24188    293.89317     608.9389    38760.619 
  198000    306.84794   -1566.1901    460.22985    267.85214    563.80507    38760.619 
  198100    304.70248   -1543.1488    450.17981    271.23784    561.33696    38760.619 
  198200    296.00467   -1547.5735    457.37582    235.06756   -56.693831    38760.619 
  198300      295.212   -1500.1951    468.59266    290.11385   -835.69891    38760.619 
  198400    296.53604    -1515.196    472.01859    284.46685   -646.86754    38760.619 
  198500    294.61495   -1509.3003    453.13985    262.88275   -260.50759    38760.619 
  198600    304.43747   -1505.6775    487.77571    345.11851    314.00442    38760.619 
  198700    290.57923   -1485.5345      474.542    289.98208    -133.3033    38760.619 
  198800    305.26283   -1448.7659    462.51122    380.46096    101.81941    38760.619 
  198900    310.67981   -1455.8018    486.03677    421.20339   -178.00612    38760.619 
  199000    299.94724    -1470.821     470.4375    342.53331    286.33399    38760.619 
  199100    299.91311   -1493.8968    456.66526    305.53243     341.2388    38760.619 
  199200     293.1505   -1464.9444    480.30511    327.84732    118.36228    38760.619 
  199300    305.52614   -1532.4856    454.20937    289.61831    212.19802    38760.619 
  199400     298.3077   -1514.5073    488.47438    309.54338   -295.47752    38760.619 
  199500    299.15237   -1473.4148     463.7025    329.64575    111.62734    38760.619 
  199600    303.60502   -1468.9785    487.85394    378.16877    215.44472    38760.619 
  199700     294.5848   -1485.9346    488.56222    321.53585    22.240791    38760.619 
  199800    296.94449   -1502.8705     471.5204     298.1229   -72.024312    38760.619 
  199900    301.49686    -1454.334    471.34163    366.86235   -426.61694    38760.619 
  200000    291.49682   -1432.6094    487.29088    359.76424   -115.82585    38760.619 
  200100    306.90379   -1488.9646    472.75581    357.85371   -93.550622    38760.619 
  200200      303.745   -1502.7388    494.79917    351.98038    102.51445    38760.619 
  200300    293.92103    -1489.604    469.67021    296.00257    59.876344    38760.619 
  200400     288.1185   -1527.5415    494.85807    257.27403    443.19229    38760.619 
  200500    305.12179   -1518.4917    463.97453    311.56701    730.93373    38760.619 
  200600    305.20396     -1508.38    468.01859    326.09064    515.75029    38760.619 
  200700    299.07615   -1502.1457    456.41611    293.28713    542.77877    38760.619 
  200800    305.06836   -1517.9626    485.70811    333.59046    724.95294    38760.619 
  200900    297.27723   -1498.9733    462.43543     294.4248    845.53098    38760.619 
  201000    293.14434   -1462.8393    483.36573    332.98548    514.31414    38760.619 
  201100    297.43841   -1445.9008    508.22485    394.00838    306.06827    38760.619 
  201200    298.40343   -1451.6312    443.93339    328.30709     138.2127    38760.619 
  201300    302.57208   -1467.0555    467.62607    355.23924    112.19147    38760.619 
  201400      306.526   -1451.3158    480.31156    401.36679    493.11622    38760.619 
  201500    301.22213   -1428.7324    462.85651    382.74879   -205.87803    38760.619 
  201600    304.95766   -1451.6757    463.87673     377.5504    -298.5864    38760.619 
  201700    299.56773   -1440.7977    478.89926    379.31917   -602.27234    38760.619 
  201800    295.55649   -1439.2263    479.79526    363.82763   -702.57394    38760.619 
  201900    289.81793   -1417.4736    525.29502    405.38749   -396.54449    38760.619 
  202000    300.95423   -1427.9192    478.77988    398.28593   -407.11485    38760.619 
  202100    311.25415   -1460.5102    489.15425    422.18391   -566.94313    38760.619 
  202200    303.46434   -1483.3999    463.94015    339.20371   -365.56785    38760.619 
  202300    293.08363   -1468.1729    470.98757    315.00192   -164.02959    38760.619 
  202400    303.06103   -1440.3686    507.05671    423.54585     65.11795    38760.619 
  202500    297.01004   -1420.4457    502.84987    412.17053   -111.51035    38760.619 
  202600    306.53444    -1471.252     464.5097    365.66654    126.96227    38760.619 
  202700    299.60433   -1525.4567    460.93814    276.86298    683.64203    38760.619 
  202800    300.40311   -1483.4861    477.79168    339.26338    197.73824    38760.619 
  202900    300.41249   -1474.9073    467.46959    337.56206     165.6076    38760.619 
  203000    306.67998   -1458.4115    471.76187    386.41077     249.6701    38760.619 
  203100    299.00617   -1476.5355    472.51922    334.68716   -190.02991    38760.619 
  203200    299.81098   -1501.2401    441.38685    282.45349   -305.59053    38760.619 
  203300    307.02924   -1508.3408    454.05555    320.33891    615.06465    38760.619 
  203400    293.81253    -1464.821    475.00669    325.63633   -33.759959    38760.619 
  203500    298.75879   -1421.6748    478.34003    394.26112   -350.67482    38760.619 
  203600    305.35999   -1427.6481      470.926    410.42852   -157.58004    38760.619 
  203700    300.61017   -1451.7488     465.4644    359.60043    46.534996    38760.619 
  203800    305.27863   -1424.0783    479.32037    422.02839    362.90389    38760.619 
  203900    302.67326   -1483.5932    466.37791    337.90638    237.06682    38760.619 
  204000     310.3824   -1465.5759    494.65626    418.71724    395.13411    38760.619 
  204100    307.59565   -1486.2042    480.37306    371.32896    653.37932    38760.619 
  204200    296.52278   -1499.6885    460.90148    288.79786    421.63462    38760.619 
  204300    296.13783   -1464.7015    471.32004    332.47988    833.72428    38760.619 
  204400    297.05887   -1480.3056    461.88474    311.56412     750.0527    38760.619 
  204500     299.0372    -1471.605     473.8669    341.10429    772.65075    38760.619 
  204600     300.4373   -1468.7592    469.01389    345.36552    123.13976    38760.619 
  204700    300.61889   -1470.6562    442.06363    317.33131    25.068489    38760.619 
  204800    295.38972    -1468.482    481.31998    335.34994   -105.91774    38760.619 
  204900    304.88574   -1477.3235    470.58371    358.28754   -208.13792    38760.619 
  205000    294.52358   -1447.9952    479.10515    349.74401   -490.25679    38760.619 
  205100    291.74527   -1470.9666    458.77998    294.00847   -243.00228    38760.619 
  205200    296.56458   -1456.2151    457.92525    329.48215   -701.99099    38760.619 
  205300    289.80291   -1480.4618     502.2291     319.2661   -839.22574    38760.619 
  205400    282.19026   -1474.4797    481.39919    270.33517   -157.14991    38760.619 
  205500    293.43921   -1491.5172    494.08765    316.34965   -185.21175    38760.619 
  205600    295.98751   -1525.1879    451.56543    251.56592    69.754526    38760.619 
  205700    294.23577   -1515.8303    491.84639    293.36164     662.4996    38760.619 
  205800    310.38137   -1511.6023    480.87933    358.90925    475.47994    38760.619 
  205900    301.37708   -1448.3757    460.81955    361.76235    641.00406    38760.619 
  206000    297.22369   -1472.0094    469.49646    328.20999    734.74009    38760.619 
  206100    296.73526   -1479.1242    455.30166    304.71365    465.37372    38760.619 
  206200     301.4376    -1500.434    485.75542    334.91077    524.86374    38760.619 
  206300    295.75869   -1474.3836    464.00682    313.78709    98.390959    38760.619 
  206400    293.40344   -1470.8554    475.98139      318.745    244.29245    38760.619 
  206500    307.59139   -1469.5942    470.11364     377.6605    8.9139486    38760.619 
  206600    305.07126   -1439.3023     474.1725    400.72809   -356.84727    38760.619 
  206700    295.00562   -1468.4612     467.3551    319.68614   -460.31593    38760.619 
  206800    290.02729   -1491.4288    470.87756    277.95223   -308.00949    38760.619 
  206900     307.5228   -1485.1473    478.80227    370.48887   -245.01075    38760.619 
  207000    299.09633   -1477.5177     476.1816    337.77103   -521.19145    38760.619 
  207100    288.07605   -1522.1014    441.55472     209.2207   -528.45784    38760.619 
  207200     301.9911   -1474.1237    497.41873    375.36258   -340.99618    38760.619 
  207300    294.56412   -1481.5416    459.84572    297.11974     342.8765    38760.619 
  207400    297.67666   -1536.3389    462.62299    259.03506     852.8973    38760.619 
  207500    297.06944   -1549.7543    459.68286    239.96095      346.032    38760.619 
  207600    292.46127   -1546.2112    486.99564    250.18528    487.34967    38760.619 
  207700    301.05456   -1494.4253    478.08815    331.53733     652.6859    38760.619 
  207800     305.3591   -1512.1725    443.11597    298.09014    758.09888    38760.619 
  207900    297.39471   -1542.3739    467.18944    256.30425    361.59495    38760.619 
  208000    304.98567   -1515.4118    494.48519    344.54813    1092.5788    38760.619 
  208100    296.48546   -1513.4764    482.25102     296.1924    1185.4548    38760.619 
  208200    291.66306   -1555.7087    435.97012    186.08844    189.91825    38760.619 
  208300    301.94353   -1494.1486    484.73001    342.43592    585.30683    38760.619 
  208400    304.73437   -1486.5871    477.79617    355.55865    649.73038    38760.619 
  208500    301.75269   -1520.9862    483.99495    314.00884    271.11198    38760.619 
  208600    301.40198   -1508.6877    442.20104    282.94325   -292.49694    38760.619 
  208700    306.39494    -1497.911    494.35745    368.23079    88.819407    38760.619 
  208800    299.79715   -1538.9285    463.35251     266.6688   -547.72433    38760.619 
  208900    304.75472    -1499.717    443.62691    308.35059   -942.88943    38760.619 
  209000    298.24309   -1499.8193    474.27538    309.74316   -866.25137    38760.619 
  209100    305.49843     -1511.73    448.98733    305.02781   -960.26004    38760.619 
  209200    306.19236   -1578.5389    452.17536    244.51379   -1008.1032    38760.619 
  209300    306.65574   -1490.7443    455.95885    338.16643   -997.45037    38760.619 
  209400    299.78576   -1510.3738    457.20452    289.02454   -866.61658    38760.619 
  209500    307.82519   -1471.3367    460.19148    367.04256   -645.03592    38760.619 
  209600    291.68733   -1454.2436    466.90195    318.59406   -548.65696    38760.619 
  209700     303.9732   -1456.6071    469.06537    373.40004   -332.51172    38760.619 
  209800    291.66142   -1489.5564    459.29719    275.56055   -177.86756    38760.619 
  209900    314.44912    -1516.165    471.05377    362.73309   -259.66605    38760.619 
  210000    310.53587   -1556.4858    442.41345    276.25167    721.13022    38760.619 
  210100    294.27315   -1572.3619    449.89405    195.04502   -165.72818    38760.619 
  210200    290.87216   -1544.6829    465.37309    222.97626    -65.34512    38760.619 
  210300     291.1977   -1536.8228    482.57561     249.4964   -193.06628    38760.619 
  210400    302.38324   -1525.1653    461.71865    290.37654   -252.97741    38760.619 
  210500    298.90059    -1535.561    452.08847     254.7582   -525.31063    38760.619 
  210600    302.53164   -1493.8202    494.77172    355.43918   -31.013952    38760.619 
  210700    297.56141   -1510.0674    463.39517     285.5628    183.26864    38760.619 
  210800    307.45772   -1501.0683      470.436    345.91028   -116.02312    38760.619 
  210900    307.05284   -1530.3056    464.54063    308.96482    87.123199    38760.619 
  211000    296.43839   -1523.4109    469.25814    273.05429   -308.09351    38760.619 
  211100    308.06568   -1475.0922    479.26405    383.43637   -395.24956    38760.619 
  211200    295.44432   -1502.6534      490.149    310.25199   -508.89246    38760.619 
  211300    301.18557   -1500.0633    464.66071    313.05844   -633.66292    38760.619 
  211400    293.72647   -1508.5596    448.82304    255.32869   -1095.2221    38760.619 
  211500    294.58551   -1553.8794    437.17787    202.20988    -1243.264    38760.619 
  211600    295.74103   -1525.0889    441.92346    240.91935   -1102.7542    38760.619 
  211700    311.58896   -1524.0456    482.25719    353.25039   -360.13175    38760.619 
  211800    298.47778    -1493.224    458.14869     301.2625    151.02743    38760.619 
  211900    299.06469    -1544.895    479.18871    273.25918     36.09753    38760.619 
  212000      308.904   -1501.7768    481.46981    362.71081    118.86023    38760.619 
  212100    293.83834   -1524.2447    483.30709    274.62855    683.00774    38760.619 
  212200    305.56627   -1489.7598    453.84279    332.15719    344.22055    38760.619 
  212300    310.04792   -1468.3844     482.0696    401.82457    534.32137    38760.619 
  212400    294.12735   -1519.5315    501.45537    298.78393    220.84268    38760.619 
  212500      295.406   -1522.5616    469.03825    269.06148    582.93774    38760.619 
  212600    296.52983   -1470.4885      466.347    323.47498    447.33001    38760.619 
  212700    297.87906   -1475.8916    479.64034    337.40592    593.97803    38760.619 
  212800    301.04931    -1481.034    459.46925    326.28623    811.71213    38760.619 
  212900    301.71198   -1484.1686    469.29607    335.94532     288.0144    38760.619 
  213000     301.1867   -1492.5962    455.00108    310.87098    73.210816    38760.619 
  213100     311.2024   -1498.9923    477.01135    371.32723    83.978084    38760.619 
  213200     302.1179   -1454.5221    459.29723    357.41032   -199.06682    38760.619 
  213300    305.94584   -1488.4906    460.19497    341.47795   -634.72663    38760.619 
  213400    293.50659   -1487.3842    459.71866    286.41533   -1066.8612    38760.619 
  213500    295.43973   -1463.6454     461.1137     320.2042   -653.57768    38760.619 
  213600    303.98417    -1428.668    474.53601    406.85882   -643.18388    38760.619 
  213700    302.13031   -1468.5937    457.48091    341.57798   -953.47963    38760.619 
  213800    291.46271   -1459.8979     460.8242    305.85633   -1271.1943    38760.619 
  213900    304.30832   -1445.1027    460.74025    378.07962   -469.15353    38760.619 
  214000    306.95544    -1481.196    466.39796    359.49572   -115.43509    38760.619 
  214100    298.21276   -1466.9572    442.17101    310.36501   -262.01588    38760.619 
  214200    302.91414    -1483.113    483.49225    356.57943   -162.21576    38760.619 
  214300    300.20561   -1476.5112    492.83772    360.40012   -199.71669    38760.619 
  214400    299.01997    -1483.397    457.55599    312.92425    110.36882    38760.619 
  214500    300.25235   -1514.5103    467.09834    296.87089   -103.52597    38760.619 
  214600    290.88402   -1520.9478    489.41545    270.80676    200.85758    38760.619 
  214700     290.1628   -1499.1477    460.06351    260.02595   -73.594303    38760.619 
  214800    306.66645   -1528.4161    477.78253    322.36634   -256.52599    38760.619 
  214900     308.6882   -1494.8078    425.00461    312.24847   -226.69638    38760.619 
  215000    301.73833   -1489.3089    471.80176    333.42866   -528.14358    38760.619 
  215100    299.91574   -1514.5407    477.43535    305.67039     25.27325    38760.619 
  215200     300.0476     -1511.14    468.79297    301.01915    383.78484    38760.619 
  215300    296.40549   -1477.7392    477.64865     326.9692    581.95938    38760.619 
  215400    305.63306   -1486.1597    475.04066    357.25421    367.11688    38760.619 
  215500    294.94753   -1476.6564    477.87543    321.75123  -0.28812155    38760.619 
  215600    306.97232   -1494.5003     471.9683    351.83734   -26.925954    38760.619 
  215700    295.47327   -1456.6906    474.81365    341.00911   -379.90718    38760.619 
  215800    312.85316   -1452.9114    506.84997    454.63752   -194.55592    38760.619 
  215900    298.27327   -1478.7065    455.54045    312.25607    21.484242    38760.619 
  216000    307.91783      -1456.9    475.45586    397.15838   -373.64421    38760.619 
  216100    294.68155   -1477.2247    456.21498    298.33165    19.897535    38760.619 
  216200    297.91051   -1469.8027    474.60855    338.60383    2.7143768    38760.619 
  216300    295.53405   -1544.2889    499.09144    277.96068    876.22757    38760.619 
  216400    301.03378   -1518.4837    465.67133    294.96906     505.9731    38760.619 
  216500    309.00216   -1466.5592    469.49168    386.38976    614.42357    38760.619 
  216600    300.97164   -1499.9084    477.78449    325.37932    136.26021    38760.619 
  216700    300.75286   -1523.8592    446.45927    269.12375    103.51887    38760.619 
  216800    308.19892   -1492.9848    460.42933    347.30558   -34.691938    38760.619 
  216900    294.45273   -1460.5644    496.63326     354.3858   -134.01104    38760.619 
  217000    297.87816   -1469.5614     475.8056    339.89742   -550.39335    38760.619 
  217100    303.10555   -1524.6253    475.36878    307.80059   -291.05293    38760.619 
  217200    295.72565   -1482.2072    486.05682    327.86561    81.723603    38760.619 
  217300     309.7401   -1510.5862    471.68922    347.86414    23.786301    38760.619 
  217400    301.62501   -1486.9936     474.1792    337.61406   -10.674492    38760.619 
  217500    302.16639   -1520.6113    473.32611    305.56713   -136.92076    38760.619 
  217600    298.93533    -1478.386    443.92008    303.92035    -471.1862    38760.619 
  217700      306.028   -1463.4749    477.38659     384.0531   -790.55389    38760.619 
  217800    305.79652    -1462.345    469.90647    376.66648    -123.3765    38760.619 
  217900    306.32752   -1476.1444    479.58383    374.92183   -125.64367    38760.619 
  218000     297.1904   -1459.3473    468.01149    339.23814   -194.54623    38760.619 
  218100    293.05459   -1498.6983    450.55635    263.91518   -242.93844    38760.619 
  218200    289.23573   -1486.5403    448.86492    257.28411     37.98575    38760.619 
  218300    301.05354   -1483.5702    457.83129    322.13097    123.48167    38760.619 
  218400    308.05065   -1562.2029    488.42685    305.42112    1015.7374    38760.619 
  218500    294.24863   -1556.8043    483.94205    244.54089    750.26352    38760.619 
  218600    307.52453   -1520.6671    481.72959    337.90413    677.35588    38760.619 
  218700    297.35031   -1478.5511    479.46998     332.2088    632.95901    38760.619 
  218800    298.60804   -1518.2564    482.82445    301.48898     835.3036    38760.619 
  218900    296.43093   -1559.7468    464.88445    232.31128    648.14004    38760.619 
  219000     302.0888   -1552.2569    477.08638    277.33437    9.9454062    38760.619 
  219100    294.01416   -1549.0458     454.6257    221.93319    131.64475    38760.619 
  219200    292.88494     -1542.99     459.3767    227.68431   -565.56535    38760.619 
  219300    305.63876   -1529.7489    450.73336    289.38315   -16.494845    38760.619 
  219400    294.14323   -1527.8399    458.32492    247.41623   -772.95077    38760.619 
  219500    300.56045   -1546.6147    470.45941    269.50691   -574.41177    38760.619 
  219600    298.76492   -1537.7279    467.79536     267.6908   -736.35738    38760.619 
  219700     297.2942   -1545.2783    480.02961    265.78993   -67.228447    38760.619 
  219800    308.21284   -1512.3948    488.26144    355.78998   -238.68567    38760.619 
  219900    293.24753   -1502.3631    447.73561    258.29351   -655.28773    38760.619 
  220000    303.76444   -1485.1072    479.11022    354.01012   -869.99255    38760.619 
  220100    297.39529   -1468.1317    474.18927    337.54884   -208.95224    38760.619 
  220200    299.88758   -1510.7361    480.44012    312.35372    224.47847    38760.619 
  220300    286.90881   -1533.3076    474.95438    226.18821    62.209104    38760.619 
  220400    297.94168   -1502.3114    495.75309     327.3792    270.10423    38760.619 
  220500     294.7293   -1505.1187    467.72181    282.15831    523.29132    38760.619 
  220600    295.05433   -1500.6449    445.09794    265.46338    856.64102    38760.619 
  220700    295.20155   -1535.2382    479.89806    266.32938   -361.99494    38760.619 
  220800    291.44903   -1527.4883    474.54686     251.9274   -491.74645    38760.619 
  220900    291.88166   -1484.2564    465.00177    287.55112   -1215.1117    38760.619 
  221000    303.95986   -1501.9286    465.83646    324.78981   -893.00046    38760.619 
  221100      298.125   -1480.2617    482.23689    336.73354   -708.58485    38760.619 
  221200    299.65782   -1495.8095    466.77771    312.58921   -643.09838    38760.619 
  221300    303.49007   -1484.3998     475.0105    349.38939   -353.36992    38760.619 
  221400    307.60751   -1493.1716    468.18695    352.22858    67.708934    38760.619 
  221500     305.7609   -1486.2747     473.4772    356.14809    302.76974    38760.619 
  221600    305.13984   -1488.7168    446.84876    324.29692    273.04417    38760.619 
  221700    302.15696   -1479.3789    486.90952    360.34073    278.04202    38760.619 
  221800    295.30776   -1514.4308     489.9318    297.64603    39.795882    38760.619 
  221900    303.70366   -1518.4033    502.93214    344.26374    430.12629    38760.619 
  222000    293.80848   -1502.2428    469.17065    282.36031    503.22007    38760.619 
  222100    296.50364   -1491.4518    501.43831    337.48572    612.37006    38760.619 
  222200    301.65682   -1409.6552    494.79572    435.71138    109.05608    38760.619 
  222300    298.63483   -1468.3282    490.37787    359.09058    363.69456    38760.619 
  222400    304.15488   -1493.1721    472.79965    341.38267   -2.2862127    38760.619 
  222500    308.57234   -1488.9815    480.99316    373.54454    594.15015    38760.619 
  222600    294.99342   -1522.7274    469.94915    267.95947   -14.851467    38760.619 
  222700    301.90797   -1488.3019    484.03329    347.42673   -12.947757    38760.619 
  222800    312.12595    -1465.996     471.7751    403.22218   -102.43553    38760.619 
  222900    307.25705   -1450.6051    476.61567    401.65468   -499.02139    38760.619 
  223000    298.81802   -1502.5016    462.12738    297.48688   -402.70242    38760.619 
  223100    303.98963   -1513.1424    457.14994    305.02283   -138.25193    38760.619 
  223200    299.66632    -1494.111    471.46647    319.01455   -61.541603    38760.619 
  223300    304.34851   -1479.4142     455.3145    338.52238    -158.9752    38760.619 
  223400    305.57407   -1481.6043     454.7914    341.29618    130.87234    38760.619 
  223500    296.20504   -1487.2445    453.81224    292.73005   -514.65295    38760.619 
  223600    293.59192   -1516.0912    460.83697    259.20863   -204.63486    38760.619 
  223700    293.19887   -1493.5845    486.96959    306.08828   -866.36867    38760.619 
  223800    302.92472   -1502.0349    478.56009     332.7727   -547.02183    38760.619 
  223900    293.01454   -1535.1557     473.7814    250.50357   -239.69644    38760.619 
  224000    297.67923   -1536.5441    451.12007    247.33852   -138.21747    38760.619 
  224100    299.25749   -1492.2124    449.41608     297.0324   -177.01536    38760.619 
  224200     297.0419   -1460.2325    478.41092    348.08753   -614.85755    38760.619 
  224300    313.60121    -1465.539    455.38503    393.89409   -544.83969    38760.619 
  224400    300.50016   -1491.6443    450.02411    303.77212   -280.50174    38760.619 
  224500    299.14822   -1539.3309     480.6831    280.69159   -56.554487    38760.619 
  224600    285.49018   -1524.9808     448.5979     201.8071   -281.97697    38760.619 
  224700    297.33344   -1493.5106    451.00035    288.70408    63.597072    38760.619 
  224800    303.52112   -1485.4989    458.33502    331.75374   -325.73439    38760.619 
  224900     301.0433   -1485.4722    438.40824    300.76013   -610.18375    38760.619 
  225000    290.59283    -1499.382    450.57241     252.2258   -397.03153    38760.619 
  225100    291.63125   -1514.5157    434.40464    225.57362   -171.25691    38760.619 
  225200    288.33877   -1494.3019    491.68604    288.32774      -37.179    38760.619 
  225300    307.52951   -1465.6865    450.19596    361.37346    6.0343833    38760.619 
  225400    304.29019   -1486.5289    441.24729    317.07936    609.19442    38760.619 
  225500    309.27834   -1479.6597    472.46196    377.49608    136.18688    38760.619 
  225600    301.95802   -1487.4604    450.97822    315.43722    23.806837    38760.619 
  225700    313.26552   -1493.1306    432.61958    342.03403   -173.22996    38760.619 
  225800    303.78047    -1499.047    480.93271    341.96457   -357.84857    38760.619 
  225900     286.0581   -1553.6962    473.36604    200.40248   -327.45194    38760.619 
  226000    307.60973   -1541.4183     459.6863    295.49109    339.49387    38760.619 
  226100    306.17694   -1582.6137    459.31089    247.50543      527.195    38760.619 
  226200    301.82187   -1502.9561    457.96431    306.31807    671.52361    38760.619 
  226300     306.4342   -1497.7948    466.65709    340.82238    1048.2591    38760.619 
  226400    305.89971   -1544.4188     488.9718    314.12003    646.42079    38760.619 
  226500     309.9822   -1547.3802     439.4699    279.93481    772.91746    38760.619 
  226600    296.03199   -1559.5527    451.15381    216.98867    206.18416    38760.619 
  226700    301.60581   -1518.7348    443.64104    275.24872    118.67499    38760.619 
  226800    297.75075   -1520.8231    440.81406    253.07371    595.67029    38760.619 
  226900    292.13179   -1557.5175    458.57882    208.98698    615.85957    38760.619 
  227000     299.5275   -1546.8921    478.78511    272.93051    171.57311    38760.619 
  227100    303.29027   -1539.8111    436.40778    254.48077    289.24009    38760.619 
  227200    305.15771    -1558.989    456.77165    264.02764    84.246223    38760.619 
  227300    291.51516   -1516.2255    466.20142    255.14076   -58.012846    38760.619 
  227400    296.79292   -1555.8413    455.20868    228.16168      -126.08    38760.619 
  227500    307.11469     -1557.65    454.01669    271.37343   -461.64044    38760.619 
  227600    291.95072   -1551.5348    452.43203    208.01224   -619.00372    38760.619 
  227700    310.27245   -1502.1428    452.74139    339.74318    409.51192    38760.619 
  227800     300.8705   -1498.5688    449.00791    297.48953    100.99053    38760.619 
  227900    305.54865   -1524.4611    441.68834    285.22253    738.64105    38760.619 
  228000    294.81691   -1514.7774    474.07299    279.24302   -458.26135    38760.619 
  228100    305.03208   -1482.0403    429.05137    312.69364   -499.51109    38760.619 
  228200    305.25866    -1477.108    462.41906    352.00801   -35.762274    38760.619 
  228300    296.80491   -1506.4626    462.55309    284.93849   -263.31724    38760.619 
  228400    299.23212   -1484.1988    478.67578    334.19205   -221.82472    38760.619 
  228500    295.31513   -1496.9449     482.7252    307.95825   -23.080386    38760.619 
  228600       299.35   -1514.1258    465.02525    291.14227    175.66623    38760.619 
  228700    293.83829   -1529.5498    454.31633    240.33245   -99.541617    38760.619 
  228800    294.56411   -1528.6494    464.33379    254.49998     107.5145    38760.619 
  228900    302.94845   -1509.9053    447.45868     293.9071   -193.47628    38760.619 
  229000    296.92525   -1498.9097    464.57038    295.04753    333.84278    38760.619 
  229100    301.61768   -1540.6576    446.69357     256.4316   -148.08056    38760.619 
  229200    292.40402   -1499.2599    447.84575    257.73031   -33.132685    38760.619 
  229300    293.43943   -1545.7648    470.12593    238.14133   -672.45344    38760.619 
  229400     291.5687   -1518.0252    460.64308    248.02251   -194.96412    38760.619 
  229500    297.36013   -1500.6821     468.8877    299.53943   -682.35664    38760.619 
  229600    294.74676   -1535.3396      435.538    219.83172   -434.90626    38760.619 
  229700    304.23972   -1519.6061    424.53734     267.0662   -410.10939    38760.619 
  229800      307.585   -1512.3566    448.73016    313.48591   -257.95581    38760.619 
  229900    302.45268   -1525.2609    427.78497     256.6582   -156.10863    38760.619 
  230000    304.76934   -1566.7746    473.32095    271.05249    481.61276    38760.619 
  230100    304.35055   -1512.1835     455.7518    306.19947     610.4779    38760.619 
  230200    289.90163   -1531.7161     429.6887    195.91346     145.2194    38760.619 
  230300    310.38217   -1521.6859    467.12732    335.07724    532.83441    38760.619 
  230400    299.82739   -1486.9022    443.88608    299.36411    927.87543    38760.619 
  230500    302.45322   -1480.8546    449.25486    322.53678     349.5914    38760.619 
  230600    288.20272   -1452.0829    466.84261    305.09425    35.570664    38760.619 
  230700    289.92382   -1480.0924    449.80738     267.7551    114.84984    38760.619 
  230800    301.13691   -1539.2488    467.56159    276.55593   -19.503289    38760.619 
  230900    304.40365   -1494.9962    482.79373    350.66647    17.076115    38760.619 
  231000    301.38282   -1492.8443    432.38711    288.88692    532.83801    38760.619 
  231100    296.06563   -1473.8955    469.57685    321.21947    249.30829    38760.619 
  231200    293.71812   -1522.4809     465.2731    257.82016   -208.91024    38760.619 
  231300    296.53896   -1496.7259    457.29444    288.22589   -327.11003    38760.619 
  231400    312.09396   -1523.4324    458.17402    332.04137   -183.37744    38760.619 
  231500    299.71818    -1530.725     434.5421    245.70841   -349.36049    38760.619 
  231600    305.58243   -1506.5923     456.7088      318.263    135.56473    38760.619 
  231700    303.84761   -1529.9514    449.31364    279.74167    32.198714    38760.619 
  231800    289.28525   -1549.0769    447.78374    193.88803    152.05455    38760.619 
  231900    309.94993   -1511.8146    443.86612    319.75214    492.86224    38760.619 
  232000     302.4767   -1520.7127    494.37955    327.90852    278.66588    38760.619 
  232100    282.67152   -1533.1294    441.27384    173.71479    563.09067    38760.619 
  232200    310.60998   -1465.4536    458.33544    383.53758    70.583605    38760.619 
  232300    298.56336   -1484.1518    462.03132    314.60047     454.4052    38760.619 
  232400    297.80244   -1494.2409    457.04196    296.11516   -242.14076    38760.619 
  232500    307.80628   -1511.6037    447.66417     314.1635    68.207462    38760.619 
  232600    301.34929   -1487.6635    466.65902    328.18951    351.78042    38760.619 
  232700    297.74666   -1448.0602    470.66164    355.66591    60.742839    38760.619 
  232800    308.17502   -1446.7646    458.67113     391.6606   -259.40821    38760.619 
  232900    295.71797   -1424.0903    448.04213     347.9334    -468.9096    38760.619 
  233000    298.68545   -1432.2577    462.47034    367.48018   -646.36835    38760.619 
  233100    292.00359   -1478.6581    468.13417    296.82775     -813.404    38760.619 
  233200    299.28453    -1450.719     477.2873    366.51804   -221.02873    38760.619 
  233300    296.11475   -1456.9941     476.8559    345.61991     457.4396    38760.619 
  233400    296.88282   -1479.9362    480.82338    330.08404    263.33746    38760.619 
  233500    301.78529   -1486.7213    452.22822    316.65296    528.28669    38760.619 
  233600    301.26199    -1486.955    478.81847    340.66668    104.19053    38760.619 
  233700    295.09679   -1478.8854    488.05886    330.37392    245.64347    38760.619 
  233800    312.37152   -1463.8406    472.59536    407.29724    571.64115    38760.619 
  233900    298.26373   -1474.3787    453.21524      314.216   -17.186059    38760.619 
  234000    293.84276   -1498.0773    462.99562    280.50431    733.61492    38760.619 
  234100    310.58503   -1436.9167    476.31012    429.93749    256.11302    38760.619 
  234200    303.93729   -1469.7764    489.08719    380.09172    428.84782    38760.619 
  234300    299.75573   -1493.7102    466.07383    314.42305    235.60262    38760.619 
  234400    304.72208   -1492.4854    469.41278    341.22198    125.68933    38760.619 
  234500     306.7531   -1510.0632    447.84656    311.17124    195.33726    38760.619 
  234600    304.33567   -1503.6763     457.2534    316.14169   -194.83329    38760.619 
  234700    308.70028    -1490.515    477.56613    369.15685   -133.14671    38760.619 
  234800    297.28715   -1468.9205     472.7924    334.87899    245.06502    38760.619 
  234900    297.86247   -1500.1779    471.22854    304.63351     344.0372    38760.619 
  235000    296.54271   -1492.1949    477.86096    313.34017    218.53281    38760.619 
  235100    304.17327   -1462.7848    460.66383     359.7165     609.8402    38760.619 
  235200    306.57939   -1495.6455    469.72033    346.68494    98.894995    38760.619 
  235300    299.05212   -1526.9629    458.77661    270.72294   -110.14498    38760.619 
  235400    294.90964   -1496.6451    460.67821    284.39566   -231.20748    38760.619 
  235500    315.89164   -1462.7166    456.16268    407.74878     6.178509    38760.619 
  235600    309.87595   -1475.5277    470.54889    382.39062   -245.17662    38760.619 
  235700    303.81153   -1485.1915     459.1219     334.1483    273.79535    38760.619 
  235800    302.97659   -1520.2959    461.59928    297.78311   -42.388654    38760.619 
  235900    273.84945   -1472.2126     456.9789    210.83871   -387.60709    38760.619 
  236000    298.17157   -1449.3182    482.72701    368.37558    243.76404    38760.619 
  236100     308.6991    -1470.814    479.52164    390.80806    359.06326    38760.619 
  236200    293.95266   -1473.8937    461.63681    303.82109    215.71728    38760.619 
  236300    302.80703   -1517.3605    468.63624    306.99634    -32.27748    38760.619 
  236400    291.74158   -1479.8486    469.91382    296.24376   -68.739223    38760.619 
  236500    308.63461   -1501.8143    446.53072    326.52807   -166.51706    38760.619 
  236600    293.54111   -1458.6127    450.95827    306.58096   -164.37785    38760.619 
  236700    304.34665   -1476.4901    481.44665    367.57031     87.21073    38760.619 
  236800     303.9438   -1477.4474    467.26206    350.62474   -132.98671    38760.619 
  236900    300.20119   -1486.3303    456.93735    314.66078   -540.91774    38760.619 
  237000    308.85026   -1506.3272    456.46686    332.91687    29.303447    38760.619 
  237100    295.94687   -1446.5018    485.17244    363.67712     152.9564    38760.619 
  237200    297.54381   -1519.8483    460.03641    272.34429   -12.251783    38760.619 
  237300    305.11291   -1519.8305    442.07602    288.28988   -54.261748    38760.619 
  237400    291.53391   -1516.5491    470.38614    259.08588   -556.02494    38760.619 
  237500    304.99816   -1536.1181    463.99317    293.40568    -651.9378    38760.619 
  237600    310.10564   -1520.4376    441.35787    309.31803    230.01395    38760.619 
  237700    306.12948   -1509.9128    448.70421    309.38717   -326.26991    38760.619 
  237800    301.33583   -1467.9776    467.39471    348.55085    -395.5848    38760.619 
  237900    305.93323   -1489.4908    451.39932    331.62568    61.812839    38760.619 
  238000    292.10039   -1482.4098    476.90144     302.2767    505.53028    38760.619 
  238100    304.49771   -1494.6734    484.17005     352.7867    43.356052    38760.619 
  238200    300.53813   -1517.8862    445.44477    273.12088    408.41112    38760.619 
  238300    307.67942   -1498.4314     488.1313    367.23503    -86.54024    38760.619 
  238400     290.1845   -1493.0386    471.17827    277.34696   -162.20043    38760.619 
  238500    304.58344   -1482.8011    456.45383    337.32663   -306.07769    38760.619 
  238600    305.81074   -1507.6606    434.57779    296.08593   -643.45697    38760.619 
  238700    301.14172   -1480.4979    462.83297    330.59977   -1116.3553    38760.619 
  238800    297.69586   -1466.3763    453.71304    320.17376   -548.50376    38760.619 
  238900    293.15416   -1474.8013    478.22768    315.92932   -416.20679    38760.619 
  239000    304.68262    -1481.842    458.76615    341.04213   -246.49517    38760.619 
  239100     296.8154   -1479.2951    437.81003    287.40989      19.1549    38760.619 
  239200    299.43202   -1459.1643    473.09436    354.54012   -154.81721    38760.619 
  239300    305.14315   -1469.9347    452.66068    348.90578    50.003645    38760.619 
  239400    293.92636   -1474.6442    488.92399    330.24006    214.91599    38760.619 
  239500    301.88355   -1476.3445    447.50449    322.74597    419.74562    38760.619 
  239600    299.13333   -1507.1477    433.19716    265.32221   -469.87303    38760.619 
  239700    292.93015   -1469.4502     476.8876    318.93742    458.98858    38760.619 
  239800    312.13875   -1479.5859     471.0456    388.95999    449.44736    38760.619 
  239900    290.84658   -1505.0249    461.79691    258.94356   -69.160397    38760.619 
  240000     294.7575   -1505.0888     464.9356     279.5282    61.894189    38760.619 
  240100    292.90323   -1455.8284    459.34928    314.90039    164.80279    38760.619 
  240200    290.89579   -1493.8978    458.70189     267.1959    45.498877    38760.619 
  240300    298.84703   -1504.7216    483.25269    316.52202    181.05026    38760.619 
  240400    293.37546   -1488.1385    472.45082    297.80609    499.12335    38760.619 
  240500    307.44693   -1500.5596    469.47027    345.40488    288.87251    38760.619 
  240600    295.81029   -1513.8048     456.0118    266.60197    176.58675    38760.619 
  240700    307.86931   -1472.0402    448.67836    355.02342    282.86496    38760.619 
  240800    300.06956   -1502.7915    463.54251    304.21542   -541.12712    38760.619 
  240900     300.9239   -1496.4674    465.86146    316.68353   -169.90717    38760.619 
  241000    298.03053   -1480.2667    474.06544    328.13406   -501.00089    38760.619 
  241100    292.99332   -1485.7696    468.45224    294.46551   -807.03275    38760.619 
  241200    297.31734   -1491.4786    463.48048     303.1442   -576.23017    38760.619 
  241300    291.19666   -1441.6565    473.91684    335.99921   -730.55422    38760.619 
  241400    306.21193   -1450.4356    482.55173    403.08108   -156.52257    38760.619 
  241500     297.0531    -1455.291    473.51708    348.18531   -317.29153    38760.619 
  241600    310.23708   -1510.7776    457.22637    335.43497    132.09678    38760.619 
  241700    305.86582   -1491.2437    458.43194    336.60353    204.13634    38760.619 
  241800    292.55293   -1493.2455    461.48563    278.05132    152.76584    38760.619 
  241900    303.94173   -1545.1185    471.22154    286.90387    219.70813    38760.619 
  242000    307.02587   -1514.1668    493.96575    354.40803    337.29843    38760.619 
  242100    317.34309   -1535.9614    437.63129    322.47092   -19.707219    38760.619 
  242200    305.79502   -1487.8023    451.64969    332.94571    420.14627    38760.619 
  242300     306.9253   -1505.7414    465.03359    333.45103     156.4954    38760.619 
  242400    309.73894   -1525.9645    460.95958    321.75101    -332.0224    38760.619 
  242500    304.04399   -1513.7846    437.61672    285.09081   -367.36612    38760.619 
  242600    300.66834   -1531.5294    476.96635    291.58225   -16.733241    38760.619 
  242700    291.86606   -1506.1945    441.75102    242.29246    549.62794    38760.619 
  242800    298.11445   -1475.4895    478.91572    338.13733    538.47822    38760.619 
  242900    302.84183   -1499.0476    448.93383    305.76264    478.37783    38760.619 
  243000    301.19737   -1550.9107    464.55885    262.16199    512.01598    38760.619 
  243100    307.97073    -1510.813     486.8404    354.86675    493.79502    38760.619 
  243200    292.90193    -1521.316    447.80885    237.86655    128.14502    38760.619 
  243300    296.21281   -1531.6624    445.40355    239.93824   -195.29868    38760.619 
  243400    297.66573   -1486.7797    466.62573    312.54816    132.57513    38760.619 
  243500    303.03365   -1513.9296    463.99301    306.79861   -144.30922    38760.619 
  243600      308.373   -1530.6481     461.4185    311.41077   -287.74069    38760.619 
  243700    300.42084   -1485.8487    474.89492    334.08339   -323.84283    38760.619 
  243800    298.99745   -1463.2956    475.44074     350.8095    129.92575    38760.619 
  243900    289.99712   -1510.1298    460.91061    249.14916    293.97138    38760.619 
  244000    295.86202   -1532.7637     446.8262    238.68902    -6.414986    38760.619 
  244100     299.6563   -1521.2171     461.3923    281.78937    258.02361    38760.619 
  244200    299.06648   -1506.3412    465.08911    297.72132    382.76823    38760.619 
  244300    309.83595   -1482.5959    454.32729     358.9217    284.65203    38760.619 
  244400    306.74743   -1461.6506    458.45694    370.16885    446.25779    38760.619 
  244500    292.30831   -1445.7589    458.87413    321.83117   -229.24642    38760.619 
  244600    288.27521   -1487.5121    456.77117    259.91809   -283.28086    38760.619 
  244700    301.18921   -1529.2278    451.46672    270.71621   -38.867581    38760.619 
  244800    289.55011   -1538.6337    456.49446    214.22777   -685.84468    38760.619 
  244900    291.49357   -1539.5461    453.33204    218.85416   -171.91827    38760.619 
  245000     313.4781     -1540.12    423.04497    286.42183   -404.31722    38760.619 
  245100    303.57906   -1508.1056    474.50285    325.57438    28.265453    38760.619 
  245200     297.0603    -1538.462    450.32911    241.85857   -17.137561    38760.619 
  245300     303.0429   -1530.2217    468.60829    295.16318   -300.38455    38760.619 
  245400     296.8001   -1500.1784    453.46752    282.11561    81.116804    38760.619 
  245500    312.44317   -1486.2363    482.20114    394.82815    90.879344    38760.619 
  245600    304.46709   -1510.9368    463.75002    315.96618    36.285288    38760.619 
  245700     302.2714   -1553.7513    444.90968    244.48084   -308.81401    38760.619 
  245800    302.99996   -1533.0714    432.69509    256.20806    118.72936    38760.619 
  245900    305.53924   -1543.6055     461.6128    285.96049    251.47166    38760.619 
  246000    304.75283    -1533.863    480.58817    311.15745    995.29488    38760.619 
  246100    294.15002   -1479.9745    454.76167    291.74881    747.07462    38760.619 
  246200    297.96868   -1481.7076    456.56291    308.91378    441.92554    38760.619 
  246300    307.11088   -1481.0709    458.90715     352.8259    845.54767    38760.619 
  246400    309.63953   -1518.4408     448.3422    316.21231    544.92731    38760.619 
  246500    302.10706   -1486.3613    474.84542     341.0708    203.61548    38760.619 
  246600    288.47466   -1474.1072    454.15902    271.60389   -357.70703    38760.619 
  246700    296.78716   -1491.1258    446.31331    283.95611    -249.7772    38760.619 
  246800    298.21916   -1466.0327    454.20019    323.34743    451.33053    38760.619 
  246900    300.78981   -1495.8155     451.6789    302.55251    269.61437    38760.619 
  247000    293.82952   -1499.7461    470.29642    286.07694   -33.045035    38760.619 
  247100    296.58153   -1509.6186    458.06209     276.2914    276.05329    38760.619 
  247200    302.82783   -1476.3034    440.63661    320.14695    410.35862    38760.619 
  247300    317.68298   -1518.7252    439.64896    343.24656   -122.65189    38760.619 
  247400    298.94435   -1478.7173    481.72623     341.4356    163.11673    38760.619 
  247500    307.03861   -1497.0441    457.25114    334.87311   -394.03725    38760.619 
  247600    291.35911   -1499.6894    442.51251    247.28934   -344.60629    38760.619 
  247700     300.4787   -1515.1705    449.74986     279.8756   -674.74799    38760.619 
  247800    296.88734   -1523.2519     446.9254    252.89051   -331.60627    38760.619 
  247900    298.80868   -1482.3267    473.21239    328.70493    292.53712    38760.619 
  248000    312.31892   -1493.4773    426.50726    331.33692   -147.36484    38760.619 
  248100    300.61702   -1491.5948    452.76754    307.08828   -42.479577    38760.619 
  248200     304.5758   -1501.1211    450.06247    312.58102    260.67137    38760.619 
  248300    287.88122   -1482.9746    476.49858    282.41906    161.53355    38760.619 
  248400    303.17482   -1460.6957    457.17548      353.847   -124.65209    38760.619 
  248500    305.53757   -1458.1085    488.04529    397.88246    12.165182    38760.619 
  248600    296.63259   -1449.7408    464.71881    343.05456    298.24006    38760.619 
  248700    314.58696   -1472.9472    474.65668    410.17089    -127.2336    38760.619 
  248800    300.39701   -1463.0035    442.06925    323.99618    340.97194    38760.619 
  248900    305.28385   -1502.8063    459.50761    323.51101    438.86469    38760.619 
  249000    308.57393   -1467.7038    437.70838    351.54461   -20.976835    38760.619 
  249100    300.37562   -1469.5868    444.90864     320.1566   -580.89974    38760.619 
  249200    297.42029   -1450.0124    474.06584    355.65657   -601.29714    38760.619 
  249300    305.74792   -1479.1461    440.45767    330.19904   -405.86809    38760.619 
  249400    305.34629   -1485.2865     436.1989    318.00167   -309.70429    38760.619 
  249500    304.01675   -1525.8344    440.02714    275.32944   -78.317215    38760.619 
  249600    307.54172   -1470.8055    451.14007    357.25319   -23.267151    38760.619 
  249700    298.12774   -1419.0395    458.45546    374.18647    -596.8392    38760.619 
  249800    291.82288   -1430.6055    461.13378    337.07089   -652.32143    38760.619 
  249900    291.32832   -1461.3034    479.77341    322.79838    -1242.299    38760.619 
  250000    287.21306   -1433.9802    446.82916     298.7526   -644.52149    38760.619 
  250100    303.51193   -1442.5571    476.86301    393.18247   -952.00463    38760.619 
  250200    305.35963   -1459.2924    469.09888    376.95549   -319.19525    38760.619 
  250300     298.9388   -1407.1308    476.95063    408.22167    -276.0335    38760.619 
  250400    291.03157   -1412.7381    469.56888    359.83056     -601.125    38760.619 
  250500    298.56686   -1416.2522    453.02309    373.50743    -209.5705    38760.619 
  250600    307.16183   -1427.4173    452.06493    399.86543   -386.20901    38760.619 
  250700    291.82708   -1428.1343    483.90648    362.33364   -102.93581    38760.619 
  250800    294.13115   -1436.4988    481.21349    361.59186    245.09074    38760.619 
  250900    303.63162   -1458.6023    445.77136    346.58146    448.41078    38760.619 
  251000    297.00566   -1475.7972    454.81015    308.75977    412.62288    38760.619 
  251100    310.35986   -1483.6152    463.27755    369.19822    546.86142    38760.619 
  251200    315.13874   -1478.8925    475.74552     407.7848    591.78514    38760.619 
  251300    303.25894   -1480.9645    493.09282    369.87218    593.88201    38760.619 
  251400     309.7167   -1473.6453    461.53973    374.55077    509.42122    38760.619 
  251500     305.9577   -1513.2035    442.48522    299.10845     603.0919    38760.619 
  251600    306.62782    -1469.729    470.73758    373.83548    321.29074    38760.619 
  251700    296.18243   -1463.5304    467.93733    330.46802    635.47914    38760.619 
  251800    288.52809   -1458.7997    453.03292    286.02444    484.87273    38760.619 
  251900    298.47528   -1434.9524    478.20405    379.57821   -57.614728    38760.619 
  252000    295.64524   -1467.0133    475.89819    332.54081    -134.8796    38760.619 
  252100    298.08583   -1434.2278    473.35038    373.70545    500.12462    38760.619 
  252200    301.51608   -1459.9796    459.81005    349.77117    123.28859    38760.619 
  252300    292.61145    -1482.454    473.16198    300.78112    70.793259    38760.619 
  252400    304.30076   -1475.0517    458.93547    346.29202     161.9422    38760.619 
  252500    298.79967   -1464.4702    461.72252    335.03127    574.45418    38760.619 
  252600    312.48543    -1510.381    485.76639    374.43786    806.50382    38760.619 
  252700    304.23766   -1453.4594    443.00742    351.67376     259.9966    38760.619 
  252800    294.60588   -1447.4057    480.38064    351.97755    -111.7413    38760.619 
  252900    293.71568   -1437.3883    472.07352    349.70221   -144.37862    38760.619 
  253000    286.49878   -1486.3058    470.85453    267.25441    -526.9917    38760.619 
  253100    305.07719   -1490.4343    443.17227    318.62246   -802.24929    38760.619 
  253200    299.15879   -1489.1775    470.41679    320.62609   -21.821911    38760.619 
  253300    303.77767   -1492.6279     468.6432    336.08161    323.40712    38760.619 
  253400    308.70622   -1495.3464    469.89437    356.68021    382.88435    38760.619 
  253500    308.22121   -1502.1442    455.75052    333.56717   -454.46333    38760.619 
  253600    297.88962   -1488.4259    451.09747    296.37607    350.32133    38760.619 
  253700    292.60763   -1515.6687    453.29274    247.68009    324.21702    38760.619 
  253800    306.45219   -1519.5772    459.71644    312.17987    555.69459    38760.619 
  253900    306.71894   -1520.3273    459.06738    311.97495    140.05554    38760.619 
  254000    298.85045   -1497.5942    450.66093    291.07304    220.62677    38760.619 
  254100    297.33041   -1511.2521    457.59763    277.54629   -20.279239    38760.619 
  254200    298.35851   -1498.1735    488.50058    326.13079    300.70344    38760.619 
  254300    306.76214   -1475.9915    458.35502    355.79187    -47.67313    38760.619 
  254400    324.06293    -1491.645    438.87163    398.11361    221.26187    38760.619 
  254500    288.39224   -1450.0388    491.21844    332.36269   -949.79272    38760.619 
  254600     292.4539   -1440.7987    491.76833    360.33743    -769.2175    38760.619 
  254700    294.52141   -1471.1084    472.94289    320.45892    198.71645    38760.619 
  254800    301.43883   -1455.5691    486.27735    380.30315    197.56885    38760.619 
  254900    300.20652   -1476.4834    478.38261    345.97685    264.43286    38760.619 
  255000     299.7053   -1476.1604    463.82412    329.49726    239.55817    38760.619 
  255100    305.62943   -1480.7656     451.2975    338.88884   -244.05945    38760.619 
  255200    302.03584   -1509.6824     465.2913    307.87677    414.52622    38760.619 
  255300    292.62983   -1467.3745    477.52574    320.30671     -7.80407    38760.619 
  255400    305.77244   -1502.1228    460.36086    327.23526    321.26134    38760.619 
  255500     293.7264   -1508.4859    450.04335    256.62241   -152.58374    38760.619 
  255600    306.38093   -1485.5809     486.9013    373.04193   -509.83765    38760.619 
  255700    296.77975   -1509.5463    462.73586    281.92496   -536.29977    38760.619 
  255800    296.53706   -1539.2628    465.49227    253.87827   -145.77153    38760.619 
  255900    298.97632   -1539.9544    458.70337    257.31875   -478.69033    38760.619 
  256000     304.1598   -1532.4965    441.60464    270.88527   -369.29926    38760.619 
  256100    299.33066   -1513.3333    443.03182    269.85477   -391.44767    38760.619 
  256200    300.24389   -1488.6021    464.04589    319.68875   -688.04588    38760.619 
  256300    304.10507   -1504.2431    465.55917     322.8482    24.324064    38760.619 
  256400    302.40874   -1490.9556    477.85992    340.84164    348.81055    38760.619 
  256500    311.80474   -1467.7879    460.96654    389.18361   -155.35827    38760.619 
  256600    297.07793   -1475.6152    466.72978      321.185    242.60997    38760.619 
  256700    310.58114   -1504.4592    446.61244    332.67986   -49.753407    38760.619 
  256800    313.72776   -1494.8912    471.83899    381.56236   -20.712418    38760.619 
  256900     295.9228   -1478.5226    488.46156     334.8376     158.9605    38760.619 
  257000    301.04514   -1456.1177    476.00256    367.71715   -526.30017    38760.619 
  257100    299.14319    -1470.354     459.6406    328.60353    125.96624    38760.619 
  257200    300.86438   -1415.4872    482.12527    413.66105    333.91858    38760.619 
  257300    291.15913   -1461.5653    482.91904    324.92458   -220.08194    38760.619 
  257400    302.76141    -1488.934    461.35752    327.93983    56.556562    38760.619 
  257500    304.17678   -1472.0001    467.78688    357.63993    49.265343    38760.619 
  257600    295.82103   -1478.4155    464.54522    310.57274   -199.85326    38760.619 
  257700    303.75602   -1483.6507     463.1255    339.44421   -115.61126    38760.619 
  257800    300.73741    -1437.751    493.26038    401.96391    506.63965    38760.619 
  257900     291.5731   -1473.0901    491.87665    324.21083    684.53064    38760.619 
  258000    300.08028   -1487.5687     480.3162    336.25994    552.75546    38760.619 
  258100    295.37634   -1464.9601    459.14618    316.63814    261.95102    38760.619 
  258200    296.92645   -1497.4703    479.86258    311.78442      346.129    38760.619 
  258300    295.30227   -1485.5299    476.96478    313.55537   -31.382518    38760.619 
  258400     308.9319   -1511.0899    441.96197    314.01478    44.206369    38760.619 
  258500    298.13863   -1461.5765    474.09183    347.33463    342.21289    38760.619 
  258600    292.76512   -1483.6704    473.45677    300.54757    368.75428    38760.619 
  258700    291.21559   -1488.4395    494.77072    310.15486    60.327313    38760.619 
  258800     304.6386    -1490.392    467.08021    340.60902   -165.79895    38760.619 
  258900    307.10859   -1441.5056     482.3492    415.82302   -129.50566    38760.619 
  259000    294.88693    -1475.599    483.36148    328.02337    51.655541    38760.619 
  259100    313.08961   -1475.2397    465.96284    392.48067    596.29078    38760.619 
  259200    304.98808   -1455.4284    469.51153    379.56861    129.40053    38760.619 
  259300    296.99589    -1439.814    466.17713     356.0662    146.86012    38760.619 
  259400    307.86254   -1459.2312    477.44029    396.56411    145.29071    38760.619 
  259500    297.65655   -1433.5474     482.7218    381.83537    113.93042    38760.619 
  259600    303.79659   -1509.0909    475.26417    326.32429   -178.98912    38760.619 
  259700    290.24513   -1505.4602    450.30639    244.32491   -152.35391    38760.619 
  259800     298.0968   -1472.6988    480.52172    342.45499    5.9823386    38760.619 
  259900    308.56821   -1482.9952    470.04151    368.56074    452.91539    38760.619 
  260000    302.69411   -1527.3302    475.91238    303.79719    87.821884    38760.619 
  260100     291.4906   -1537.9921    483.50649    250.56932   -137.85954    38760.619 
  260200    301.42748   -1502.9065    446.42521     293.0628    116.06156    38760.619 
  260300    308.28024   -1554.6042    457.66108      283.282   -300.31919    38760.619 
  260400     289.7053   -1499.8947    479.21641    276.38359   -180.28975    38760.619 
  260500    300.81688   -1512.1602    475.66137    310.31152    303.87583    38760.619 
  260600    295.51883   -1515.1233    442.26564    250.23235    180.58603    38760.619 
  260700    305.14524    -1522.552    476.97966    320.61679    327.49552    38760.619 
  260800    304.58231   -1505.9407     458.9634     316.6915    584.33101    38760.619 
  260900    293.82256    -1535.597    427.52227    207.42076   -693.31527    38760.619 
  261000    303.62616   -1510.0886    478.11611    327.41544     166.9067    38760.619 
  261100     301.2151   -1530.0871    460.13628    278.64243    10.670728    38760.619 
  261200    286.73604   -1512.5125    460.55402    231.80943   -494.58619    38760.619 
  261300    305.30821   -1507.6033    455.89889    315.21434    441.32725    38760.619 
  261400    309.13474   -1538.4576    486.73237    332.32569    485.53334    38760.619 
  261500    298.82274   -1552.2783    438.90044    224.50434    538.23549    38760.619 
  261600    298.40243   -1523.6025    494.92097    307.31892    795.18529    38760.619 
  261700    308.38768   -1540.9258    468.16525    307.94561    816.97926    38760.619 
  261800     295.1423   -1546.4882    472.50277    247.41878    806.34052    38760.619 
  261900     292.5258   -1572.0118    454.47118    192.14912    885.60789    38760.619 
  262000    305.60282   -1574.6452    464.61568    258.20831    884.58721    38760.619 
  262100    296.03834   -1548.5631    465.10649    241.95941   -40.480822    38760.619 
  262200    304.63597   -1527.3921    455.16382    291.68079    338.62562    38760.619 
  262300    300.46285   -1545.5621    472.37834    272.04156   -75.356373    38760.619 
  262400    303.90984   -1498.9531    481.15859    342.86355    328.31418    38760.619 
  262500    303.40118   -1563.0124    491.44558    286.81386    240.76348    38760.619 
  262600     303.6262    -1555.734    475.86141    279.51558   -33.239199    38760.619 
  262700    296.70201    -1524.885    447.06231    250.56464   -104.00357    38760.619 
  262800    302.11372   -1542.5914    459.37069    269.39582   -514.75376    38760.619 
  262900    299.49269   -1516.1345    468.40606    293.15328   -535.74679    38760.619 
  263000    291.90634   -1528.4821    469.63214    248.06637    158.64843    38760.619 
  263100    299.92549   -1472.7923    467.27317     337.3003   -426.73728    38760.619 
  263200    307.18445   -1469.2648     473.6798    379.73402   -247.66262    38760.619 
  263300    295.66162   -1458.9195    463.06926    327.87908    79.194339    38760.619 
  263400    310.03455   -1507.9041    479.23642    359.41174   -127.66262    38760.619 
  263500    301.91535    -1478.979    463.38614    336.13548   -13.101089    38760.619 
  263600    298.93427   -1465.7478    460.80178     333.4355   -139.62504    38760.619 
  263700     291.0008   -1508.7678    456.10999    250.20417   -254.90857    38760.619 
  263800    294.37301   -1486.0004    466.56022    298.51985   -67.390488    38760.619 
  263900    301.95968   -1459.6199    468.69068    360.99765   -9.2501728    38760.619 
  264000    295.66364   -1485.2567    484.17674    322.65844    3.3759581    38760.619 
  264100    301.99178   -1505.0723    468.90926    315.90756   -247.50087    38760.619 
  264200    292.26279   -1506.5784    449.29101    251.22473    -48.16395    38760.619 
  264300    291.78589    -1516.251    460.10887    250.23491   -165.91427    38760.619 
  264400    300.92545   -1488.4545    455.76801    314.60988    275.06749    38760.619 
  264500    308.02291   -1463.1075    471.72328    387.68881   -409.74441    38760.619 
  264600    298.30614   -1464.8134     459.8053    330.56118    313.05837    38760.619 
  264700    308.61312   -1488.3426    466.15713    359.53003   -357.21591    38760.619 
  264800    299.76434   -1503.2583    488.61155    327.45114   -294.48086    38760.619 
  264900    294.07385   -1495.6338    455.72039    276.70716   -162.73098    38760.619 
  265000    298.98136   -1506.3977    468.10219    300.29691    68.911693    38760.619 
  265100    299.60018   -1494.6467    460.65695    307.37321   -619.98685    38760.619 
  265200    299.38176   -1500.2993    463.11772    303.20345   -100.36896    38760.619 
  265300    306.55292   -1460.2041    477.28827    389.57574    -325.6797    38760.619 
  265400    308.30931    -1460.868    461.38215    380.86938   -607.70826    38760.619 
  265500    287.24803   -1502.9239    446.14745    229.28375   -661.37727    38760.619 
  265600    302.13253   -1497.7363    464.08188    319.04627   -369.77767    38760.619 
  265700    294.32644   -1475.9641    460.86453    302.65187   -159.16297    38760.619 
  265800    297.85176   -1490.6073    480.31381    323.24149    426.24934    38760.619 
  265900    295.11589   -1487.5967    493.07686    326.76616    493.93741    38760.619 
  266000     307.8448   -1506.0988    462.68422    334.86101    629.72058    38760.619 
  266100    299.62665   -1473.9168     474.5981    342.16281     230.8783    38760.619 
  266200    307.14986   -1471.6133    471.68112    375.23201    316.32517    38760.619 
  266300    299.35933   -1472.3343    467.08903    335.03931   -322.93319    38760.619 
  266400    297.02592   -1452.8532    489.09077    366.07512    310.18086    38760.619 
  266500    302.99588   -1465.6749    454.11568    345.00687    -94.08805    38760.619 
  266600    292.24947   -1471.3308    472.80139    309.92307    419.90114    38760.619 
  266700    307.06027   -1506.7526    461.31585    329.32634   -594.93744    38760.619 
  266800    309.58647   -1522.8688     466.7362     329.9407   -236.52496    38760.619 
  266900    294.39841    -1479.325    469.12044     307.8691   -306.01997    38760.619 
  267000    289.12896    -1467.725    472.25716    299.01359   -466.50629    38760.619 
  267100    305.34644   -1492.7149    453.26332    327.63839   -320.57428    38760.619 
  267200    305.06065   -1458.3395    467.58461    375.05555   -811.84151    38760.619 
  267300    295.17691   -1493.4401    455.57033    283.68945   -207.66772    38760.619 
  267400    293.55855   -1484.2259    490.77025     320.8578   -107.89634    38760.619 
  267500    297.32518   -1503.7763    481.15517    308.55627   -392.32394    38760.619 
  267600    301.92263   -1478.7522    466.81449    339.82322   -273.58347    38760.619 
  267700    290.86071   -1471.6152     481.0676     311.6872   -34.032457    38760.619 
  267800    300.40777   -1513.7591    470.56101    301.78062   -670.68336    38760.619 
  267900    306.52218   -1525.7641    465.16088    311.75069   -336.00178    38760.619 
  268000    294.26437   -1527.6224    475.51068    265.36182   -36.024718    38760.619 
  268100     303.2636   -1484.4103    482.91284    356.26725   -83.684404    38760.619 
  268200    300.81918   -1474.6503    487.28012    359.45047   -391.82804    38760.619 
  268300    310.45587   -1495.2063    450.30429     345.0638    300.69974    38760.619 
  268400    295.72952   -1503.0591    459.48518    280.45934   -102.54161    38760.619 
  268500     307.5323   -1499.9957    457.02029    333.90104    -3.545932    38760.619 
  268600    293.80796   -1494.6224    455.15386     275.9616    -281.9856    38760.619 
  268700    309.82479   -1476.6621    469.37682    379.85506   -373.74171    38760.619 
  268800    300.95065   -1515.6515    468.88868    300.64638    71.434739    38760.619 
  268900    298.63124   -1498.2569    459.35417    298.12212     409.1375    38760.619 
  269000    300.98366   -1488.7289    478.46954    337.29765   -114.50366    38760.619 
  269100    309.17782   -1515.7501    462.09979    330.59344   -480.25301    38760.619 
  269200    304.06865   -1461.7855    465.81527    365.39882    251.68876    38760.619 
  269300    302.68552   -1409.5556     464.6476    410.26854   -153.13533    38760.619 
  269400    291.54613    -1486.512    466.02128    284.81282   -372.38547    38760.619 
  269500    301.44779   -1462.1931    476.64081    364.08271    30.908113    38760.619 
  269600    305.43033   -1472.0696    466.83933    362.23534   -267.78246    38760.619 
  269700    307.86577    -1434.503    516.81401     460.6805    162.37247    38760.619 
  269800    295.80164   -1486.9196    517.00389     354.4405   -118.56882    38760.619 
  269900    298.88525   -1422.1386    494.76678    410.79028   -533.99042    38760.619 
  270000    298.82987   -1443.3869    473.83258     368.3598   -330.66011    38760.619 
  270100    299.90547    -1443.151    468.07919    367.65795   -314.82722    38760.619 
  270200    309.92621   -1434.2086    442.83322    396.21905    106.85517    38760.619 
  270300    291.36462   -1415.7219    502.69758    391.46657     15.43082    38760.619 
  270400    298.85291   -1431.8568    492.37045    398.53087    278.15437    38760.619 
  270500    290.76705    -1461.658    472.75982    312.91727      187.831    38760.619 
  270600    293.70435   -1449.9949    470.93026    335.90165   -200.70837    38760.619 
  270700    300.61436   -1448.2323    483.95663     381.6279    121.32504    38760.619 
  270800    301.53818    -1460.983    441.12682    330.18349   -444.66878    38760.619 
  270900    310.52897   -1454.8098     506.0158    441.49905   -493.34835    38760.619 
  271000    302.75865   -1455.9099     457.7297    357.32377   -355.57768    38760.619 
  271100    307.97865   -1433.8469    465.20568    410.23357    -266.1439    38760.619 
  271200    308.35591   -1448.0303    461.40748    393.94104   -259.79619    38760.619 
  271300    311.45345   -1438.7637    458.66202    414.33047   -46.324153    38760.619 
  271400    311.06855    -1479.135    480.46695     394.0408   -699.05099    38760.619 
  271500    298.91634   -1486.3769    455.71645    307.64084   -218.87022    38760.619 
  271600    306.40215   -1462.1156    472.98513    382.68616    291.86564    38760.619 
  271700    303.10892   -1450.3581     479.3309    386.04499    17.108445    38760.619 
  271800    301.23999   -1463.3156    505.34232    390.73135    -34.26706    38760.619 
  271900    300.40666   -1476.2032     465.5838     334.3543     6.366319    38760.619 
  272000    288.59293   -1458.8001    465.18629    298.46769    115.62468    38760.619 
  272100    298.92299   -1478.4328     482.5829    342.48115     160.6147    38760.619 
  272200     305.8224   -1484.7555    478.11373    362.57922    440.97674    38760.619 
  272300     295.7015   -1480.3877    482.90258    326.42276   -194.11965    38760.619 
  272400    302.69626   -1433.3966    483.25848    405.08649   -555.02656    38760.619 
  272500     301.1778    -1447.572    481.36525    382.21943   -467.06183    38760.619 
  272600     306.0943   -1464.3771    462.02963    368.09082   -1181.2791    38760.619 
  272700    297.65628   -1477.8941     455.8262    310.59183   -163.00492    38760.619 
  272800    298.11725   -1467.6848    472.30297    339.34177   -567.29247    38760.619 
  272900    306.45641   -1459.4701    483.04466    395.63407   -714.02775    38760.619 
  273000    303.61333   -1479.5198    474.71705    354.52778   -1082.0323    38760.619 
  273100    305.77447   -1453.5709    473.91496    389.35041    47.740168    38760.619 
  273200    311.33808   -1452.6868    471.52418      412.753   -227.81765    38760.619 
  273300    289.67838   -1476.6665    487.93091     308.2057   -206.57658    38760.619 
  273400    298.14893    -1485.751    470.99164    320.10615    10.529033    38760.619 
  273500    288.87949   -1464.7473    453.44265    282.05985   -161.95967    38760.619 
  273600    291.86623   -1510.5183    476.15871    272.37709   -57.114377    38760.619 
  273700    303.83973   -1496.4284    482.22636    346.14214    161.11018    38760.619 
  273800    296.33624   -1519.6913    483.92171    290.98011   -2.8529432    38760.619 
  273900    301.10511   -1495.9333    467.40974    319.57725    243.07119    38760.619 
  274000    298.25645   -1493.0526    513.82154    356.11575    408.14257    38760.619 
  274100    303.12232   -1510.4167    485.42204    332.13757     589.7925    38760.619 
  274200    298.49756   -1498.7975    467.61786    305.24666    1017.8322    38760.619 
  274300    296.71248   -1454.2594     487.7629    361.93774    367.66636    38760.619 
  274400    304.44725   -1426.0082    498.15325    435.20916   -85.171935    38760.619 
  274500    306.77394   -1426.2282    491.97247    439.22543    426.69851    38760.619 
  274600    297.92991    -1433.638    475.66725    375.91409    115.65301    38760.619 
  274700    303.16032   -1451.0695    490.25369    396.48649    -195.3545    38760.619 
  274800    297.61472   -1492.8281    489.63289    329.27843   -375.04528    38760.619 
  274900    299.34564   -1510.1012    451.89411    282.01621    290.75448    38760.619 
  275000    306.29322   -1482.2948    460.77695    349.81101     285.6375    38760.619 
  275100    293.79983   -1500.6968    498.77362    313.47054   -47.236813    38760.619 
  275200    305.62546   -1501.8318    481.46376    347.97111   -135.78976    38760.619 
  275300    291.36449   -1467.9437    473.39345    309.94008   -84.523287    38760.619 
  275400    296.33438   -1460.7691    478.80954    344.78179   -247.44151    38760.619 
  275500    299.90299   -1484.4034    491.78247    350.09778   -156.18385    38760.619 
  275600    291.89518   -1443.3404    461.48728    325.01322   -393.11918    38760.619 
  275700    310.91553   -1453.4548    479.66108    418.23006   -476.28876    38760.619 
  275800    302.54534   -1473.1787    483.50348    364.87373   -911.18978    38760.619 
  275900     301.9163   -1441.3172    487.35843    397.77387   -588.65731    38760.619 
  276000    300.62326   -1454.6536    488.43966    379.72949   -531.40542    38760.619 
  276100    300.84498    -1429.577    491.03831    408.39746     179.8529    38760.619 
  276200     303.1346   -1463.0746    470.46199    364.57455    375.01598    38760.619 
  276300    301.24595   -1452.0496    487.93896    384.62067    5.1768345    38760.619 
  276400    293.38724   -1486.4008    469.15202    296.29772   -106.57776    38760.619 
  276500    305.03934    -1486.564    454.57436    333.72539   -133.33797    38760.619 
  276600    301.89993   -1465.8088    483.77176    369.62233   -329.23839    38760.619 
  276700    302.63184   -1464.6655    467.10897    357.37973    248.71993    38760.619 
  276800    314.19622   -1458.4111    480.41262    428.71355   -224.46119    38760.619 
  276900    304.82309   -1459.8205    462.52304    367.44933   -5.3518124    38760.619 
  277000    300.93891    -1452.899    489.58481    384.04251   -463.68064    38760.619 
  277100    292.61887   -1429.2762    484.67427    365.50452   -190.41413    38760.619 
  277200    291.62601   -1408.3245    470.83192    368.16862   -460.05234    38760.619 
  277300    295.34589   -1409.8306    484.03414    396.51928   -414.74141    38760.619 
  277400    302.22896   -1409.4731    487.31323    430.97263    -189.4986    38760.619 
  277500    291.83603    -1417.367    507.77784    397.01229   -444.94539    38760.619 
  277600    304.78275    -1422.552    504.44301    446.45729    93.474756    38760.619 
  277700    295.42225   -1419.7893    477.37223    380.24053    179.23693    38760.619 
  277800    312.18818   -1418.6929     487.9925    467.02126    186.98544    38760.619 
  277900    308.02245   -1414.8887    483.36289    447.54508   -14.850477    38760.619 
  278000    310.14937   -1436.7108    519.51438    471.39713    470.96194    38760.619 
  278100      297.519   -1453.1033    485.82445    364.76626    112.12378    38760.619 
  278200    299.32735    -1446.951    483.84354    377.03398    138.95554    38760.619 
  278300    302.89958    -1460.599    474.75858    370.29452   -588.18296    38760.619 
  278400    288.77199   -1437.2402    470.03984    325.68287   -387.42686    38760.619 
  278500    296.41198   -1460.8299    464.39895    330.65785   -87.562646    38760.619 
  278600    295.20495   -1498.1719    461.58918    285.10196    8.1939836    38760.619 
  278700    297.64138    -1506.914    467.05599    292.73507    113.47057    38760.619 
  278800    300.77276   -1498.8292    494.21567    341.99926    402.41563    38760.619 
  278900    295.19781   -1465.3497    464.85315    321.15624    -247.2274    38760.619 
  279000    305.63478   -1467.8067    450.52477    351.09902   -379.72195    38760.619 
  279100    291.80118   -1458.9475     486.8278    334.32574    84.618372    38760.619 
  279200    289.49552   -1464.7554    498.89767     330.2649   -319.38797    38760.619 
  279300    300.76673   -1510.5678     481.3614    317.37944    746.10477    38760.619 
  279400    294.26076   -1435.3515    478.40735    360.51323    646.78477    38760.619 
  279500    287.39582   -1450.4435    504.42781    340.70619   -92.910827    38760.619 
  279600    294.76363   -1476.8735    485.83488    328.67021   -262.47214    38760.619 
  279700    284.25122   -1462.6754    454.97621    264.94372   -355.62388    38760.619 
  279800     307.7271   -1479.0804    471.78763    370.45582    147.29298    38760.619 
  279900    298.03812    -1466.129    479.76843    348.00878    91.210715    38760.619 
  280000     301.3356   -1488.7037    452.59687    313.02592    183.15557    38760.619 
  280100    306.29509   -1486.6745    467.92782    352.59059    313.68555    38760.619 
  280200    291.49929   -1476.1706    476.91258    305.83579    215.61682    38760.619 
  280300    305.05282   -1503.9439     454.0358    315.86731   -292.34756    38760.619 
  280400    295.75237   -1485.4107    467.71169    306.43662   -372.16016    38760.619 
  280500     303.6977    -1467.766    477.93149    369.87374   -461.42623    38760.619 
  280600    300.50771   -1487.4495    478.68951    336.66614   -495.31359    38760.619 
  280700    302.00034   -1484.7226    461.43407    328.82038   -713.16445    38760.619 
  280800    297.48918   -1458.7285    474.97724    348.16034   -881.53013    38760.619 
  280900    289.82951   -1477.6993    462.33428    282.25292   -482.03176    38760.619 
  281000    311.00849   -1477.0142    464.31481    379.74057   -302.13465    38760.619 
  281100    302.71199   -1471.4374    483.41054    367.26823   -131.88582    38760.619 
  281200    301.16062   -1455.0787    473.92165    367.19222    569.30097    38760.619 
  281300    311.71545   -1489.9934    502.30444    407.91615    431.99552    38760.619 
  281400    297.47557   -1489.2264    477.27622    319.90051    397.60424    38760.619 
  281500    296.18679   -1503.9135    466.73559    288.90272    284.16937    38760.619 
  281600    294.35269   -1509.7577    463.08831    271.19966     230.1234    38760.619 
  281700    304.78778   -1501.2969    458.49502    321.78692    705.29059    38760.619 
  281800    311.77269   -1475.1941    488.99185    409.65921    172.26406    38760.619 
  281900    301.63021   -1463.9735    479.72011    366.19835    247.94081    38760.619 
  282000    304.01105   -1506.1633    452.94258    307.89042    -376.8279    38760.619 
  282100    309.37426   -1482.7803    439.17777    341.52065    36.599651    38760.619 
  282200    290.76871   -1468.7907    499.40061    332.43276   -617.08603    38760.619 
  282300    299.04286   -1473.5877    508.97634    374.25631   -45.192806    38760.619 
  282400    294.70124    -1491.488    468.69394    296.63542    221.05672    38760.619 
  282500    300.57424   -1486.1431    474.47228    334.05313    147.54953    38760.619 
  282600    294.44599   -1470.1095    466.43471    314.61187   -76.311688    38760.619 
  282700    308.11163   -1444.5371    507.49616    442.42922   -164.84446    38760.619 
  282800     311.6032   -1444.5247    477.25341    427.83129    -319.2168    38760.619 
  282900    294.21852   -1472.2929    486.77808    331.75343   -187.32811    38760.619 
  283000    296.80783   -1453.8803    500.50806    375.48884    140.87176    38760.619 
  283100    302.46794   -1463.9866    472.20257    362.41839   -105.66631    38760.619 
  283200     300.8554   -1517.2487    479.75431    309.48836   -190.31642    38760.619 
  283300    286.68864   -1490.6899    458.14152    251.00737    91.107037    38760.619 
  283400    308.99776   -1565.9088    452.02056    269.54928     73.21462    38760.619 
  283500    295.19065   -1524.8736    464.14317    260.89032    275.29882    38760.619 
  283600    294.53417   -1541.2348    479.50818    256.95492    677.29257    38760.619 
  283700    300.17462   -1522.5773    464.16276    285.52028    456.01152    38760.619 
  283800    309.04092   -1514.6999    484.96687     353.8978    389.34892    38760.619 
  283900    285.94061   -1524.6961    485.89535    241.40586    500.06517    38760.619 
  284000    303.08927   -1537.5915    473.97605    293.36878    377.03348    38760.619 
  284100    289.58202   -1504.1427    462.59534    254.96257     75.82477    38760.619 
  284200    298.08317   -1527.5965    492.91339    299.88788    63.570837    38760.619 
  284300    292.48422   -1546.1608    450.81903    214.16181   -458.91996    38760.619 
  284400    307.87494   -1534.0937     477.5313    321.84811   -427.98202    38760.619 
  284500    299.70258   -1515.8389    473.48287    299.46536   -300.72025    38760.619 
  284600    291.68606   -1519.8325    473.01342    259.11092    30.762648    38760.619 
  284700    305.33173   -1496.1329    473.06783    343.95906    308.86273    38760.619 
  284800    298.52234   -1495.0023    476.85426    318.38926    -386.0486    38760.619 
  284900    299.17479   -1490.6046    465.92398    314.77778   -485.34591    38760.619 
  285000    309.24828   -1509.2567    452.97107    328.27362   -495.24492    38760.619 
  285100    304.91521   -1544.8737    469.91867    290.20425   -7.1530257    38760.619 
  285200    305.30719   -1528.8227    486.35254    324.44409    39.136254    38760.619 
  285300    292.10199   -1499.5102    505.41456    313.69658   -200.58305    38760.619 
  285400    308.17323   -1503.9132    489.35764    365.19041    -479.2597    38760.619 
  285500    295.76582   -1535.5798    479.38661    268.00264    61.995985    38760.619 
  285600    298.42934   -1508.0509    458.91472    286.98471    87.222888    38760.619 
  285700    306.15821   -1517.4787    485.66708    338.91272    4.2960511    38760.619 
  285800    308.14744   -1481.1105    482.28573    380.80576   -491.12691    38760.619 
  285900    309.53609   -1474.1123    471.11446    382.84989   -608.21611    38760.619 
  286000    289.52478    -1458.929    494.51697    331.84154    -842.6086    38760.619 
  286100    297.88853   -1485.0029    464.04791    312.74457   -872.08095    38760.619 
  286200    304.21971    -1489.724    466.30646    338.62787    -515.3081    38760.619 
  286300    288.36831   -1479.7099    493.79216    305.15818    34.052261    38760.619 
  286400    292.59427   -1506.4869    493.76117    297.27047    740.52727    38760.619 
  286500     297.3991   -1505.7772    492.50879    318.23992    203.43615    38760.619 
  286600    294.20639   -1490.6691    478.58531    305.13023   -35.790682    38760.619 
  286700    313.02906   -1544.1684    494.59749    351.91546   -100.95671    38760.619 
  286800    292.49143   -1496.2587    485.64607    298.92315   -566.27258    38760.619 
  286900    298.32116   -1499.9719    466.88698    302.55161   -625.10866    38760.619 
  287000    297.06256   -1520.8552     475.3997    284.54605   -557.40077    38760.619 
  287100    318.77556   -1501.0313    488.38523    414.56842   -779.68729    38760.619 
  287200     303.7385   -1492.0648    452.53208    320.35825   -408.30879    38760.619 
  287300    308.84877   -1539.1617    482.96652    326.57531   -377.38727    38760.619 
  287400    296.53577   -1497.6325     489.3929    319.40347    432.54628    38760.619 
  287500    308.81552   -1514.2245     485.9452     354.3423   -180.45749    38760.619 
  287600     305.2086   -1506.1389    466.52902    326.86299      252.184    38760.619 
  287700    293.68019   -1570.3582    483.29137     227.7913    70.058779    38760.619 
  287800    304.07364   -1533.5194    483.50187    311.37387    565.63035    38760.619 
  287900    301.60196   -1544.5081    494.66161    300.47877    368.64924    38760.619 
  288000    312.96089   -1573.6057    452.75426    280.32978    238.42821    38760.619 
  288100    305.64561   -1535.2086    453.77095     286.9917   -86.987573    38760.619 
  288200    303.32784   -1548.5723     469.4008    278.88084    687.04299    38760.619 
  288300    296.14306   -1571.2367    475.96704    230.61513    488.32251    38760.619 
  288400    298.86469   -1565.0598    495.01915     268.0294    737.65955    38760.619 
  288500    296.69573   -1557.2532    472.33239    243.43844   -251.25095    38760.619 
  288600    305.18503   -1509.3025    482.92118    339.98595   -152.65539    38760.619 
  288700    297.29935   -1549.0901    472.85191    254.82353   -161.79536    38760.619 
  288800    306.77746   -1552.9762    496.79518    317.31585    266.39144    38760.619 
  288900    294.62549   -1543.0566    496.44693    272.48071     551.8321    38760.619 
  289000    297.50557   -1583.2841    469.44894    218.14987    671.67428    38760.619 
  289100    303.67674    -1586.822      483.982    256.77441     415.5154    38760.619 
  289200    308.11749   -1558.5608    464.85052    285.78615     18.51786    38760.619 
  289300     294.3755   -1524.7301    483.97331    277.21433   -300.48743    38760.619 
  289400    300.72159   -1549.9598    491.45769    287.88157   -187.73478    38760.619 
  289500     291.4065   -1541.9299    491.26308    254.01157   -190.29675    38760.619 
  289600    294.39572   -1534.1001    496.99764    280.95916   -216.83136    38760.619 
  289700    293.76508   -1589.0079    457.07223    183.30249   -298.91167    38760.619 
  289800    300.06235    -1585.196    453.73084    211.96698     118.5284    38760.619 
  289900    300.65374    -1585.504    477.03236     237.6083   -149.23387    38760.619 
  290000    304.50176   -1570.0953    453.21603     246.4289   -200.50486    38760.619 
  290100    296.46925   -1531.2689    477.32817    273.40453   -319.43014    38760.619 
  290200    299.11391   -1569.0752    464.23605    234.34671    93.382769    38760.619 
  290300    295.75488   -1592.1422    459.02626    191.03094   -200.62038    38760.619 
  290400    301.69871   -1562.5452    485.37952    273.59278    402.82484    38760.619 
  290500    301.46122   -1563.2965    465.33334    251.73197   -111.00412    38760.619 
  290600    310.71998   -1537.2687    482.05009    335.92963    211.34566    38760.619 
  290700    302.60436   -1535.5739    455.66348    274.90275    132.28163    38760.619 
  290800    304.21698   -1550.3851    480.33665     291.9847   -256.37692    38760.619 
  290900    307.32625   -1517.6663    451.15548    309.44314   -585.73091    38760.619 
  291000    310.93867   -1539.6954    471.58364    324.01565    791.63654    38760.619 
  291100     293.0842   -1550.2607    467.77188    229.70094    183.72301    38760.619 
  291200    292.34261   -1527.1738    493.15154    274.84725    238.84374    38760.619 
  291300    304.74513   -1495.1772     474.8109    344.03146    191.42069    38760.619 
  291400     306.6254   -1536.2118    450.69447    287.29878    580.96478    38760.619 
  291500    300.88744    -1528.829    464.91977    283.21698    450.12167    38760.619 
  291600    300.69588   -1549.8516    473.95466     270.3716    142.00648    38760.619 
  291700    294.61291   -1517.2772    441.65225    243.40912    88.470778    38760.619 
  291800    290.62518   -1514.0757    468.36028    255.46486   -53.437132    38760.619 
  291900    310.63395   -1521.3668    459.64549    329.04178   -210.85406    38760.619 
  292000    298.76524   -1516.6555    469.97695    290.94625    17.706405    38760.619 
  292100    306.52562   -1512.3013    468.25113    328.31919   -586.73184    38760.619 
  292200    314.81415   -1516.6565    464.69892    357.52101   -426.20877    38760.619 
  292300    314.89984   -1503.5158    467.77822     374.1246   -563.13761    38760.619 
  292400    296.18236   -1485.8861    460.99565    301.17032   -478.22041    38760.619 
  292500    311.22251   -1478.0108    499.30724    414.69464   -295.73288    38760.619 
  292600    302.36849   -1470.5013    468.08245    351.33831   -239.11592    38760.619 
  292700    307.25596   -1517.2296    470.73644    329.14606   -341.58151    38760.619 
  292800    301.39403     -1479.17    472.15765      342.382   -671.43434    38760.619 
  292900    308.18866   -1482.2607     466.9557    364.51012   -323.30936    38760.619 
  293000    302.67164    -1504.855    493.83273    344.09219   -211.30113    38760.619 
  293100    296.34102   -1521.2428    470.53044    276.05879    679.08602    38760.619 
  293200    306.58145   -1516.4445    453.75494    309.92978     170.3245    38760.619 
  293300    302.58867   -1477.4718    473.60177     350.8729    179.32594    38760.619 
  293400    299.82373   -1534.5234    475.86028    283.70068   -119.75484    38760.619 
  293500    308.85648   -1487.6502    490.31047    385.46528    -599.7757    38760.619 
  293600    286.96705   -1506.1582    467.58919    246.23321   -14.228883    38760.619 
  293700    300.17818   -1518.3912    472.52859    298.08817   -403.00672    38760.619 
  293800    293.96277   -1510.7112    447.29087    252.70289   -166.97776    38760.619 
  293900    306.01223   -1511.9788    485.47497      343.567   -241.59048    38760.619 
  294000    306.08366   -1537.5084    465.21276    298.09502    295.57261    38760.619 
  294100    286.71781   -1477.3393    489.22265    295.56961   -33.206134    38760.619 
  294200    300.65217   -1473.7148    498.80553    371.16357     62.08915    38760.619 
  294300    296.90619    -1508.924    461.52943    281.90684   -521.63086    38760.619 
  294400    293.76438   -1476.2731    462.31105    301.27303    398.18722    38760.619 
  294500    310.69295   -1485.2834    490.42919      396.173    354.75725    38760.619 
  294600    291.25297   -1493.7274     458.7949    269.05851     -243.217    38760.619 
  294700    294.92089   -1455.2838    465.13065    330.25974    194.15107    38760.619 
  294800    292.30523   -1456.3819    494.04061    346.36086    719.86147    38760.619 
  294900    290.97145   -1441.6958    454.79761    315.83241   -10.645488    38760.619 
  295000     298.6744   -1455.8299    448.84203    330.23018   -52.815654    38760.619 
  295100    306.85342   -1442.3302    473.31077    404.81752    53.731998    38760.619 
  295200    298.85124   -1501.2884    467.09015    303.81159    192.45132    38760.619 
  295300    295.88463    -1499.878    484.01899    308.86878   -126.58536    38760.619 
  295400    295.56393   -1512.9053    471.94066    282.32731   -90.465585    38760.619 
  295500    302.62596   -1492.7906    477.40169    339.52096    218.05118    38760.619 
  295600    295.19151   -1480.8293    464.02041    304.81566   -192.81561    38760.619 
  295700    297.90459   -1480.9113    458.31026    311.17049   -159.13976    38760.619 
  295800    294.12487   -1517.4667    472.23033     271.6127    154.09186    38760.619 
  295900    306.00189    -1513.063    482.03984    339.00132    236.35873    38760.619 
  296000    304.04436   -1523.0547    457.85841    296.06409    54.075872    38760.619 
  296100    295.81619   -1481.6569    478.97707    321.74146    398.68264    38760.619 
  296200    299.94259   -1517.1225    440.89841    266.67191   -35.082705    38760.619 
  296300    300.39266   -1512.4616    495.79266    328.24206   -140.11491    38760.619 
  296400    290.15062   -1525.2273    464.09687     237.9252   -23.223332    38760.619 
  296500    303.18608   -1499.6186    476.49953    334.29856    469.68468    38760.619 
  296600    290.01059   -1528.7083    486.49104    256.21137    63.995507    38760.619 
  296700    303.08628   -1512.9004    469.92435    313.99478    66.383069    38760.619 
  296800    303.27349   -1535.3117    457.02788    279.52518    562.58149    38760.619 
  296900    308.11178   -1576.4647    465.58406    268.59027    602.89804    38760.619 
  297000    295.03384   -1554.1837    463.87548    230.61035    419.96748    38760.619 
  297100    300.43042   -1532.4697    457.00313    269.61352   -1.1911945    38760.619 
  297200    309.06828    -1477.195    476.91092    383.46921    395.60201    38760.619 
  297300    300.77163    -1506.717     481.1847     321.0754    183.78181    38760.619 
  297400    303.47603   -1510.3111    473.20995    321.61459    408.28555    38760.619 
  297500    298.35272   -1518.1558    483.78368    301.40571    496.37804    38760.619 
  297600    302.32468   -1514.6392    494.21793    333.13969    424.00455    38760.619 
  297700    299.94805   -1521.1408    471.89687    293.67651    387.32519    38760.619 
  297800    292.17642   -1517.8284    480.19832    270.49538    233.61254    38760.619 
  297900    296.15652   -1516.5005    466.16006    275.60465    391.42364    38760.619 
  298000    308.37597   -1503.3134    459.92122    337.26154   -387.59585    38760.619 
  298100    297.24633   -1531.3218    461.19566    260.69822   -480.09745    38760.619 
  298200    311.27956   -1544.9922    448.14845    296.80988   -169.56272    38760.619 
  298300    299.30413   -1544.5001    485.91044    281.44782    421.38658    38760.619 
  298400    300.53373   -1577.1535    462.41521    230.80432    225.17597    38760.619 
  298500    289.20505   -1585.5733    458.88098    168.12977   -1.2853234    38760.619 
  298600    299.11105   -1515.3229    470.98664    294.83676   -115.51927    38760.619 
  298700    292.23937   -1535.0942    488.83602    262.14913   -277.08612    38760.619 
  298800    305.37635    -1526.077    457.47835    298.62523   -364.26567    38760.619 
  298900    297.70222   -1488.1757    454.34627    299.03601    18.178175    38760.619 
  299000    306.21137   -1473.9036    509.57422    406.63299    27.217443    38760.619 
  299100    294.58367   -1490.3661    465.39017    293.92716   -44.923431    38760.619 
  299200    292.20259   -1533.0642    480.23663    255.41505    -108.6174    38760.619 
  299300    298.47796   -1490.3372    460.90933    306.91069    2.2337512    38760.619 
  299400    313.06248   -1477.8976    465.40685     389.1453    72.628132    38760.619 
  299500    312.44012   -1507.6302    474.65912    365.87858    41.839142    38760.619 
  299600    304.10301   -1500.9327    474.00804    334.59828    126.76807    38760.619 
  299700    296.11717   -1523.3427    488.74534    291.17148   -191.82433    38760.619 
  299800    294.59191   -1449.0136    465.09386     335.0203   -33.743652    38760.619 
  299900    304.82264   -1463.2402    498.88664    400.39129   -443.79657    38760.619 
  300000    303.37583   -1460.2328    477.08119     375.1156   -467.35881    38760.619 
  300100     299.2637    -1488.923    489.92267    340.85609   -813.02334    38760.619 
  300200    303.25558   -1500.9419    474.54196    331.32887   -647.46867    38760.619 
  300300    310.46137   -1483.2933    459.47548    366.17257    198.24327    38760.619 
  300400    296.46933   -1479.9287    460.47598    307.89279   -484.04067    38760.619 
  300500    299.99896   -1452.2681    505.25438    396.13459   -54.177097    38760.619 
  300600    302.30792   -1488.7327    451.24326    315.99656   -306.18468    38760.619 
  300700    303.83792   -1484.2344    497.72192    373.82357   -537.25564    38760.619 
  300800    301.09257   -1504.0036    460.65918    304.70019   -50.826826    38760.619 
  300900    299.14629   -1527.9675     486.1685    297.53182    549.31306    38760.619 
  301000    294.79862   -1515.8507    485.40366    289.41844    697.95761    38760.619 
  301100    300.49043   -1479.1614    461.87687    328.06423    834.94556    38760.619 
  301200     292.1591   -1543.6483    488.60102    253.00065    635.91908    38760.619 
  301300    297.17942   -1518.2621     460.7215    272.98417    561.83383    38760.619 
  301400    296.33623   -1504.5099    464.21146    286.45119   -128.87052    38760.619 
  301500    304.21579   -1506.6849    482.33118    337.67411   -21.664737    38760.619 
  301600     292.7087   -1514.7851    495.04294    290.76641   -145.87756    38760.619 
  301700    296.49844    -1475.255    474.25802    326.47891    171.39178    38760.619 
  301800    298.69779   -1478.1595     464.2181    323.38133   -319.07432    38760.619 
  301900    295.02356   -1480.6845    473.20773    313.39582   -552.73823    38760.619 
  302000    304.39849   -1516.5405    478.42741    324.73269   -367.58887    38760.619 
  302100    302.71298    -1518.811    476.57087    313.05936    329.62735    38760.619 
  302200    302.24943   -1497.2993     485.1339    341.05871    313.97602    38760.619 
  302300    299.93139   -1465.4153    479.79847    357.22897    239.56033    38760.619 
  302400    289.80975   -1447.8124    497.62159    347.33862   -196.79748    38760.619 
  302500    302.33859   -1464.8473    460.17251    348.94853     -526.358    38760.619 
  302600    295.63078   -1467.9442     478.6044    334.25139    172.46423    38760.619 
  302700    303.04332   -1522.6687     483.9491    318.05891    286.68497    38760.619 
  302800    298.92878   -1500.1179    489.36138    327.60049    316.56995    38760.619 
  302900    305.13125    -1499.221    468.58915    335.49467     957.7987    38760.619 
  303000    300.28435   -1483.6243    499.55241    360.35423    510.26408    38760.619 
  303100    300.73583   -1532.6687     473.2487    287.02747    947.75514    38760.619 
  303200    302.22076   -1514.1504    484.26145    323.20681    228.30095    38760.619 
  303300     287.0231   -1476.3243    496.20432    304.93318    71.521638    38760.619 
  303400      304.145   -1470.3625    488.96189    380.31026   -221.56698    38760.619 
  303500    296.49787   -1468.0524    449.31619     308.7372    -269.6759    38760.619 
  303600    299.28805   -1435.6553    482.92708    387.23727   -1116.1361    38760.619 
  303700    292.74465    -1464.295    504.84722    351.22176   -525.90441    38760.619 
  303800      297.987   -1485.7855    495.72247     344.0774   -526.94624    38760.619 
  303900    301.88732   -1489.8873    464.15256    325.86812   -120.90292    38760.619 
  304000    307.64605   -1494.6437    509.94345    392.68541    132.41005    38760.619 
  304100    298.16522   -1497.7991    482.47919    319.61847    -312.0629    38760.619 
  304200    301.45148    -1510.906    462.77835    301.52391    -31.01285    38760.619 
  304300    301.42572   -1519.8671    477.87216    307.54124   -679.91834    38760.619 
  304400    294.54667   -1491.1176    438.44736    266.06723   -529.33684    38760.619 
  304500    301.43304   -1488.2963    483.47358     344.7462   -491.20109    38760.619 
  304600    292.59031   -1477.5226    463.35354     295.8095   -407.52048    38760.619 
  304700    302.50006   -1493.6028    463.57687    324.32028   -152.42695    38760.619 
  304800    294.30767   -1517.0283    482.44851     283.0877    123.36308    38760.619 
  304900    303.69319    -1480.218    502.04166    381.51169   -98.053094    38760.619 
  305000    308.59069   -1536.0299    469.01369    314.59883   -776.11543    38760.619 
  305100    297.43318   -1486.8208    478.77952    323.61967   -1013.6261    38760.619 
  305200      305.069   -1526.9681    471.54929    310.42903   -832.90731    38760.619 
  305300    305.21941   -1521.2166    455.09447    300.39909   -514.91434    38760.619 
  305400    303.66967   -1557.7816    445.23476    247.03598   -419.44957    38760.619 
  305500     303.5682    -1534.313    486.48327    311.29878     213.8544    38760.619 
  305600    297.72511   -1504.5392    469.79452    298.22326   -31.408077    38760.619 
  305700     305.4908    -1518.246    481.33324    330.82355   -320.79678    38760.619 
  305800     300.5646   -1510.6991    475.65632    310.63801    318.73746    38760.619 
  305900    292.83174    -1488.816    509.45032    331.69372    470.02844    38760.619 
  306000    293.43935   -1509.5147    480.60874    284.87388    64.618283    38760.619 
  306100    307.46059   -1459.8304    484.70223    401.42726    224.79908    38760.619 
  306200    295.71044   -1527.4414    493.60569    290.11219    11.697343    38760.619 
  306300    297.07399   -1499.3771    473.85217    304.52784    20.416763    38760.619 
  306400    296.79493   -1512.7095     484.2875    300.38138        256.9    38760.619 
  306500    305.41001   -1516.9294      479.605    330.05023    258.78102    38760.619 
  306600    303.43314   -1517.2794    488.91365    330.15799    346.47998    38760.619 
  306700    299.30116   -1492.3748    482.15067    329.80008     271.5814    38760.619 
  306800    307.39331   -1509.3357    478.64841    345.56685    224.23606    38760.619 
  306900    287.42729   -1519.1991    498.50509    266.16882    456.59556    38760.619 
  307000    306.05561   -1512.1679    455.20199     313.2991    639.78213    38760.619 
  307100    310.95639   -1529.8598    481.01995     343.3668    21.226659    38760.619 
  307200    295.11892    -1538.161    467.72445    250.86302   -16.517871    38760.619 
  307300    311.60882   -1520.5763    470.03223    344.58374     46.16829    38760.619 
  307400    298.91517   -1547.5069    471.36662    262.15575   -100.92963    38760.619 
  307500    314.36805   -1516.2971    469.39009    360.57431   -289.85062    38760.619 
  307600    301.35599    -1486.308    489.14183     352.0578   -417.17693    38760.619 
  307700    292.91113   -1499.2533    447.02506    259.18666   -218.92867    38760.619 
  307800    292.30253   -1509.0486    501.04071    300.68215   -978.14215    38760.619 
  307900     307.2074   -1456.4199    510.67648    429.67839    -913.9481    38760.619 
  308000     299.2082   -1488.4131    471.54834    322.74325   -745.77699    38760.619 
  308100    299.62225   -1475.8092    469.58768    335.24027   -1132.5145    38760.619 
  308200    295.82434   -1493.5503    480.62447    311.53205   -948.51792    38760.619 
  308300    296.77829   -1466.9321    501.62911    363.42584   -502.62692    38760.619 
  308400    292.82457   -1489.0321    472.69421     294.6894    -312.4684    38760.619 
  308500    302.61239   -1465.4434    500.67667    390.08239   -821.92024    38760.619 
  308600    302.34248   -1527.3118    451.62529    277.95421   -244.65514    38760.619 
  308700     306.3667   -1495.0014     480.1151    356.77155    96.539114    38760.619 
  308800    299.63384   -1487.2268    488.26912    342.55602   -339.65035    38760.619 
  308900    295.69031   -1457.3649    496.09172    362.58455   -204.75166    38760.619 
  309000     309.5121   -1531.1266    457.81806    312.43186    240.43913    38760.619 
  309100    297.07372   -1496.8555    493.05125    326.24727    558.41509    38760.619 
  309200     294.2457    -1499.927    511.95221    329.41522    582.79985    38760.619 
  309300    305.72731   -1463.2297    498.48268     404.0482    1031.7915    38760.619 
  309400    306.43233   -1518.9608    469.43589    322.42677    400.86016    38760.619 
  309500    300.07852    -1496.723    487.21711    333.99862    480.19154    38760.619 
  309600    303.17059   -1512.6833    476.51891     321.1839    158.16622    38760.619 
  309700    298.05987   -1505.9399     469.7008    298.22762    141.52327    38760.619 
  309800    304.57104   -1499.6736     519.2445    383.18925   -8.3702125    38760.619 
  309900    309.73348   -1524.1358    480.62589    343.22162    162.83106    38760.619 
  310000    295.56707   -1545.6584    475.00714    252.65475   -49.238143    38760.619 
  310100    295.33073   -1490.5088    499.69312    331.43225    173.98916    38760.619 
  310200     303.7925   -1482.9999    490.44408    367.57682    448.45137    38760.619 
  310300     301.3555   -1524.1176    496.62017    321.72442   -403.99327    38760.619 
  310400    295.71979   -1509.6635    499.38198    313.70826    277.03427    38760.619 
  310500    301.39196   -1488.8974    489.52278    350.01047    522.13879    38760.619 
  310600     298.6159    -1488.938    482.56996    330.58813    111.58755    38760.619 
  310700    302.95758   -1490.9347    485.87701    351.33694   -151.44844    38760.619 
  310800    306.31574   -1446.6933    514.84032    439.57674    259.41529    38760.619 
  310900    290.66817   -1485.8258    491.31233    306.85929   -368.63942    38760.619 
  311000    295.53626   -1483.6339    493.87931    333.41345   -111.43883    38760.619 
  311100    307.16075   -1448.8966     504.6554    430.97177   -381.67233    38760.619 
  311200    298.85425   -1456.4705    496.97421    378.52697   -131.12487    38760.619 
  311300    303.55166   -1469.0604    488.21934    378.21335   -477.83413    38760.619 
  311400     300.7549   -1447.1289    504.67758     404.0815   -427.09956    38760.619 
  311500     295.7011   -1484.0045     500.2534    340.15497   -227.81428    38760.619 
  311600    296.51126   -1492.4802    494.07144    329.12461    11.285614    38760.619 
  311700    299.04215   -1515.8474    481.42435    304.44151     127.5012    38760.619 
  311800    298.26602    -1526.206    486.40238      295.586    384.43347    38760.619 
  311900     311.8026    -1545.317    494.98055    345.65893    105.80684    38760.619 
  312000    294.58521   -1516.3935    486.94678    289.46336     364.9293    38760.619 
  312100    301.86154   -1513.1184    520.77967    359.14874   -199.33684    38760.619 
  312200    289.59595   -1557.6719    458.70711    197.60744    -121.6191    38760.619 
  312300    308.45246   -1521.1819    511.06386    370.87809   -3.2233989    38760.619 
  312400    290.08937   -1510.9769    481.46839    269.27286   -317.90936    38760.619 
  312500    302.24294   -1522.5254    472.74851    303.41815   -672.90675    38760.619 
  312600    301.36912   -1496.3235    518.48742    371.44666    -503.1708    38760.619 
  312700    298.69546   -1514.5543    505.05056    327.80859   -581.57996    38760.619 
  312800    293.74147   -1545.4008    488.93792    258.66964   -15.292064    38760.619 
  312900    296.00977   -1549.5519    501.03641    276.77257    143.85899    38760.619 
  313000    300.60881   -1568.2791    500.66361    278.26323   -129.76791    38760.619 
  313100     307.2762   -1564.1449    490.14429    301.72921    218.73134    38760.619 
  313200    289.25879   -1563.0026    483.64266    215.70278   -30.078669    38760.619 
  313300    298.46816   -1590.5463    484.46998    230.21838   -151.42185    38760.619 
  313400    301.98856   -1580.9184    487.55144    258.68921    586.12553    38760.619 
  313500     299.5755    -1577.845    496.15215    259.55958     518.0866    38760.619 
  313600    298.76845   -1582.4048    487.10006    242.33438    680.64752    38760.619 
  313700    291.48127   -1601.5311     485.7204    189.20248   -144.08527    38760.619 
  313800    295.62206   -1590.6566    501.14676    234.04234   -73.469151    38760.619 
  313900    298.90244   -1610.7286    468.51442    196.02488   -72.354134    38760.619 
  314000    304.23663   -1579.9452    475.09143    257.26739   -131.90647    38760.619 
  314100    291.42743   -1553.7974    488.18344    239.15813   -739.84498    38760.619 
  314200    297.96988   -1561.6362    484.00809    256.43568   -338.87031    38760.619 
  314300    296.78615   -1574.4691    479.41051    233.70549   -358.48131    38760.619 
  314400    298.72894   -1569.8992    465.91795    233.48097   -630.89505    38760.619 
  314500    296.77262    -1600.942    481.22986    208.99131    -522.6145    38760.619 
  314600    308.54279   -1589.7299    476.26634    267.93699   -240.02393    38760.619 
  314700    299.37528   -1582.2425    506.34778    264.46126    188.52769    38760.619 
  314800    299.52982   -1569.9409    485.46153    256.56854    431.14891    38760.619 
  314900    296.49256   -1571.7005    463.81979    219.56882    465.35002    38760.619 
  315000    300.17793   -1556.1178    472.70313    260.53502    402.78039    38760.619 
  315100    300.82471   -1588.9287    488.33775    246.25447   -80.808129    38760.619 
  315200    292.17342   -1574.6432    475.66298    209.13184   -105.57084    38760.619 
  315300    286.15277   -1549.7774    507.12108    238.50018    39.752199    38760.619 
  315400    305.32693   -1582.7255    463.39905    247.67613    99.605979    38760.619 
  315500    308.08032   -1574.1978    502.38254    307.51477    579.07067    38760.619 
  315600    301.34207   -1560.4467    478.56726    267.28224    203.63963    38760.619 
  315700    297.78833   -1546.7954    510.95786    297.41345    121.80434    38760.619 
  315800    300.32572   -1548.3601    507.14798    303.39922    176.49474    38760.619 
  315900    298.59503   -1610.5648    487.14696    213.44491    350.90359    38760.619 
  316000    291.49363   -1564.4625    506.74063    247.34661    181.10767    38760.619 
  316100    303.20017   -1563.3933    486.67009    280.75756   -86.504664    38760.619 
  316200    300.39166   -1577.4782    491.56411    258.99242   -329.42587    38760.619 
  316300    305.04842   -1540.7938    462.50315    287.46503   -793.85565    38760.619 
  316400    294.34102   -1577.6505    483.43389    223.60017   -563.22643    38760.619 
  316500    302.66641    -1575.174    480.71713    260.63408    308.12538    38760.619 
  316600    302.31551   -1554.1471    474.41785    273.79067   -591.96083    38760.619 
  316700    285.74949   -1548.4752    464.21055    195.08634   -111.24926    38760.619 
  316800    298.30504   -1533.8399    498.13198    299.85649    298.83101    38760.619 
  316900    300.51512   -1584.5796    476.45043    237.33008    146.70868    38760.619 
  317000    294.70044   -1520.8065    475.41857    274.03799    71.526722    38760.619 
  317100    301.82498   -1523.9323    502.70923    330.10069    353.50032    38760.619 
  317200    301.17712    -1525.192    483.52712    306.75831   -94.914441    38760.619 
  317300    302.83839   -1506.6947    489.04046    338.20671      152.401    38760.619 
  317400    293.29784   -1531.7292    491.43985    272.85694    215.87301    38760.619 
  317500    304.55308   -1527.0237    507.71031    344.22458    193.13516    38760.619 
  317600    303.25154    -1514.106    491.71544    335.32021    30.284813    38760.619 
  317700    306.74686   -1525.0682    487.01128    335.30302    138.09546    38760.619 
  317800      302.014   -1541.0047    458.20466    269.36999    209.89324    38760.619 
  317900    299.94128    -1567.828    496.26653    271.32866   -56.663299    38760.619 
  318000    295.82376   -1550.3466    504.39012    278.49876    336.57813    38760.619 
  318100    301.40344   -1581.8432    492.42539     260.0186    404.91572    38760.619 
  318200    308.27346   -1568.9086    487.22561    298.51176    238.90776    38760.619 
  318300    306.59676   -1550.2674    476.77778    299.19818   -246.38362    38760.619 
  318400    310.73033   -1577.2513    481.23126     295.1746   -371.64039    38760.619 
  318500    302.75462   -1564.7786    473.08415    263.79142   -585.21801    38760.619 
  318600     289.9948   -1565.5758    481.85518    214.63735   -71.747412    38760.619 
  318700    309.73691   -1575.9111    482.38887    293.22465    496.88113    38760.619 
  318800    290.74816   -1569.8075    452.70045     184.6238   -227.01414    38760.619 
  318900    306.21761   -1549.7739    462.74771    283.96421   -18.406314    38760.619 
  319000    306.33176   -1514.9612     503.1397    359.67994    193.41274    38760.619 
  319100    300.29698   -1504.4936    487.02032    327.00939     557.8385    38760.619 
  319200    317.84732   -1542.3344    459.64899    340.37322    1112.5617    38760.619 
  319300    297.86429   -1563.7261    493.97061    263.83559    290.72091    38760.619 
  319400    289.89942   -1560.2489    505.51955    243.20161    326.33156    38760.619 
  319500    304.42717   -1552.3262    469.30741    279.95541    421.62046    38760.619 
  319600     301.7015   -1547.0492    482.67064     286.3924   -313.25346    38760.619 
  319700       297.52   -1568.4482    486.18154    249.78293   -222.91723    38760.619 
  319800    283.33093   -1570.6446    477.43979    175.31786   -550.24314    38760.619 
  319900    296.71428   -1559.2613    474.05814    243.23906   -338.82132    38760.619 
  320000    295.99466   -1578.9691    464.90354     211.1548   -879.14691    38760.619 
  320100    293.21471   -1574.1734    469.83192    208.43263   -610.61651    38760.619 
  320200    297.52325   -1502.8015    500.71191    329.97461   -523.81518    38760.619 
  320300    308.35973   -1543.0485    488.37999    325.91251   -137.71688    38760.619 
  320400    298.03585   -1501.4411    494.49662    327.41467    203.48876    38760.619 
  320500    295.56996   -1479.7896    493.02683    336.55612    813.97996    38760.619 
  320600    309.90386   -1517.2339    466.85226    337.11273    690.05908    38760.619 
  320700    308.37871   -1527.6969    486.23815    339.20726    646.11669    38760.619 
  320800     294.2753   -1529.7267    491.62859     279.4244    831.55515    38760.619 
  320900    297.93301   -1555.0226     471.5076    250.38377    455.95522    38760.619 
  321000    293.15491   -1531.1935    471.96101    253.27391    480.15764    38760.619 
  321100    303.21185   -1565.4453     474.8217    266.90943    174.34557    38760.619 
  321200    299.78494   -1546.0557    492.09505    288.22945    409.34618    38760.619 
  321300    297.17572   -1554.7984    474.00005    249.70982    179.93462    38760.619 
  321400    291.84422   -1549.4597     478.7737    235.95211   -689.78664    38760.619 
  321500    305.81368   -1544.7057     475.2947    299.77089   -760.43525    38760.619 
  321600    297.03419   -1496.0637    466.77264    300.58354   -755.25151    38760.619 
  321700    294.29263   -1573.1712    472.47759    216.90651   -634.09397    38760.619 
  321800    292.28704    -1556.683    494.08627    246.02402   -492.39917    38760.619 
  321900    307.24656   -1555.4304    471.30118    291.46792   -517.81831    38760.619 
  322000    301.63253    -1555.177    477.79367    273.07882    -752.0482    38760.619 
  322100    289.66264   -1572.5612    475.94999     200.2596   -1065.5473    38760.619 
  322200    300.95102   -1590.6749    467.15224    223.88827   -683.31457    38760.619 
  322300    298.22701    -1572.058     491.9013    255.05836   -323.82635    38760.619 
  322400    299.90907   -1523.5895    476.68484    295.84127   -482.03767    38760.619 
  322500    295.47226   -1524.1741    495.48312    294.19053   -18.736931    38760.619 
  322600    290.59262   -1553.0705    470.12131    218.08533    4.0645997    38760.619 
  322700    298.41909   -1494.6385    474.77721    316.21369  -0.21353497    38760.619 
  322800    298.15154   -1508.6682     482.4157    308.62457   -177.52021    38760.619 
  322900    307.84555    -1503.066    494.97345     370.1864   -598.17091    38760.619 
  323000    308.96497   -1517.0012    481.72219    348.01175   -663.13122    38760.619 
  323100    304.39302   -1525.3088    472.30708    309.81961   -355.52863    38760.619 
  323200    297.64024   -1545.8684     491.3663    278.08585   -123.34962    38760.619 
  323300     296.9065   -1522.2625    486.84449    293.88488   -173.06329    38760.619 
  323400    292.63932   -1548.4001    495.93021    257.72808    325.11489    38760.619 
  323500     310.0896   -1515.2628    491.05349    364.11662      361.913    38760.619 
  323600    301.49387   -1537.6286    504.92323    317.13595    212.48715    38760.619 
  323700    292.63418   -1523.6118    490.66954    277.23264    133.60861    38760.619 
  323800    297.89097   -1527.8077    479.68023    285.58306    4.7143882    38760.619 
  323900    295.91581   -1513.9965    537.82072     348.6916   -346.78737    38760.619 
  324000    291.08566   -1560.0592     456.8134    199.99611   -797.34706    38760.619 
  324100    301.41186   -1570.5263    506.10542    285.05329   -788.43713    38760.619 
  324200    291.37219   -1514.8013     465.9965    255.71995   -842.41263    38760.619 
  324300    289.94581   -1560.2018    487.18201    225.11882   -196.64603    38760.619 
  324400    304.30077   -1527.8464    485.22685    319.78879    85.624855    38760.619 
  324500    312.26647   -1535.6673    492.61529    355.02017    371.51099    38760.619 
  324600    298.91185   -1523.5976    506.78633    321.46991    467.21662    38760.619 
  324700    312.54181   -1517.5624    466.30917    348.05172     415.6559    38760.619 
  324800    316.10784   -1536.5861    491.80996    370.49451    459.67295    38760.619 
  324900    303.52589   -1519.1634     484.0747    323.85036    130.20445    38760.619 
  325000    296.11189   -1517.7822    487.08752    295.05058    -200.6951    38760.619 
  325100    303.62014   -1535.8501    491.72713    315.23802    79.061388    38760.619 
  325200      295.926   -1519.5825    453.87901    259.20955   -672.38874    38760.619 
  325300     298.8061   -1535.6493    495.02592     297.1843    182.52348    38760.619 
  325400    302.33817   -1512.4019    490.59594    331.81542   -772.19056    38760.619 
  325500    301.74038   -1529.4305    490.43072    311.94523   -395.62076    38760.619 
  325600    298.01331   -1513.9747     481.2854     301.5689   -215.50163    38760.619 
  325700    286.77403   -1513.2123    510.63811    281.36378   -381.88382    38760.619 
  325800    295.24863   -1551.4658    450.66457    221.07903   -814.16765    38760.619 
  325900    288.17748   -1563.6037    472.64737    199.26518   -417.36589    38760.619 
  326000    309.72525   -1530.4408    487.98574    344.23958   -477.79615    38760.619 
  326100    305.73928   -1501.0043    475.11274    342.95723   -719.20562    38760.619 
  326200    294.13375   -1539.6002    486.03353    263.32204   -405.46093    38760.619 
  326300    303.27524   -1565.7414    452.32958    244.40498   -700.79278    38760.619 
  326400    298.47386   -1597.8251    501.38593    239.88105   -379.61635    38760.619 
  326500    298.07686   -1556.0974    494.05109    272.49648   -185.43672    38760.619 
  326600    299.68989   -1566.4929    494.66391    269.93554    129.58383    38760.619 
  326700    311.96842   -1554.0394     499.2637      341.962    791.01065    38760.619 
  326800     300.6092   -1554.5409    485.10498    276.44464    158.51939    38760.619 
  326900    292.72509   -1537.6184     482.0863    255.04989     402.6722    38760.619 
  327000    288.28221   -1566.4824     505.4892    229.69717    352.94639    38760.619 
  327100    299.35841   -1560.3998    455.71503    235.59571    62.727512    38760.619 
  327200    297.27624   -1535.5307    512.53018    307.95772   -884.93927    38760.619 
  327300    302.42602    -1565.523    447.25577    235.74755    115.08185    38760.619 
  327400     304.0258   -1595.2326    488.24126    254.18593   -117.59966    38760.619 
  327500    298.90589   -1569.8464    491.39837    259.80651    107.04819    38760.619 
  327600    303.56107   -1552.9887    497.48526    303.59307   -82.276557    38760.619 
  327700    305.51426   -1551.3238    516.15489    332.67235    599.78361    38760.619 
  327800    303.13662   -1545.3796    480.09817    291.91478     120.8367    38760.619 
  327900    300.00962   -1537.3854    489.84327      295.654    489.30978    38760.619 
  328000    287.83306   -1524.9586    534.55016    298.27101    134.71451    38760.619 
  328100    297.31488   -1531.9573    485.70267    284.87659    49.200873    38760.619 
  328200    309.69678   -1526.1169    472.18918    332.63945   -171.85662    38760.619 
  328300    298.73111   -1543.1693    497.75628    292.05888   -84.303663    38760.619 
  328400    290.08513   -1562.9314    466.06958    201.90054   -212.63327    38760.619 
  328500    290.57616    -1516.957    513.29578    297.29954   -58.955682    38760.619 
  328600    308.15853   -1515.7158    512.80477    376.76912   -462.59847    38760.619 
  328700    291.84973   -1504.8146    483.24064    285.08884    -160.7078    38760.619 
  328800    290.18028   -1502.8886    498.53227    294.83205   -85.271405    38760.619 
  328900     296.5352   -1589.5804    448.32869    186.38872    160.42919    38760.619 
  329000    297.80378   -1547.9167    495.61506    281.01849     32.11665    38760.619 
  329100    285.13345   -1496.7137    473.49357     253.3727    144.49917    38760.619 
  329200    295.23056   -1501.6833    488.23953    308.35565    1265.9183    38760.619 
  329300    297.03874   -1537.4829    501.02098    293.43296    911.88786    38760.619 
  329400    296.53683   -1514.2085    502.66333    316.10262    848.82069    38760.619 
  329500    296.03139   -1543.3327    482.64625    264.69834    310.28449    38760.619 
  329600    294.65763   -1551.7171    475.88482    243.40202    367.70884    38760.619 
  329700    289.64395   -1514.2551    491.77134    274.30339   -249.70429    38760.619 
  329800    302.56913    -1507.581    487.86348    334.93792    44.927743    38760.619 
  329900    303.02657   -1513.0552    500.13646    343.78474    55.098966    38760.619 
  330000    288.41226   -1528.9162    461.42503    223.78147    286.88404    38760.619 
  330100    302.65346   -1553.2895    503.50627    305.24977    923.65464    38760.619 
  330200    300.19021   -1571.5277    478.39547     250.8724    672.36815    38760.619 
  330300    297.73679   -1528.4536    496.07146     300.6381   -100.58221    38760.619 
  330400    297.90261   -1538.6437    491.45002    286.56895    226.08094    38760.619 
  330500    304.84707   -1528.9841    492.37523    328.24534   -199.49862    38760.619 
  330600    301.32445    -1533.787    471.08269    286.37849   -265.46391    38760.619 
  330700    302.72229   -1537.7309    484.91073    302.52106   -130.20166    38760.619 
  330800    300.47037   -1517.5167    475.18665    302.92888   -280.42334    38760.619 
  330900    304.71047   -1532.6186    507.42702    339.05105   -430.74776    38760.619 
  331000    299.95084   -1544.4593    512.38322    310.85678   -240.89683    38760.619 
  331100    286.06918   -1558.8229    457.17414    179.13352    84.233716    38760.619 
  331200    301.32959   -1594.0763    498.10531    253.13483   -549.00942    38760.619 
  331300    298.46819   -1558.8797    480.57613    257.99127   -187.99178    38760.619 
  331400     300.9143    -1559.507    480.63696     268.3764    360.92742    38760.619 
  331500    305.64395   -1578.4721    497.67915    287.62905    575.97568    38760.619 
  331600    289.09895   -1587.8318     488.8373    195.35258    46.178796    38760.619 
  331700    294.67063   -1621.5873    469.66808    167.37323    302.11401    38760.619 
  331800    295.34768   -1639.1645    457.05543    140.21471    -118.5295    38760.619 
  331900    297.56652   -1607.4506    488.91114    213.71841    136.65008    38760.619 
  332000    305.44139   -1584.1698     500.2285     283.5738     160.7939    38760.619 
  332100    310.62507   -1576.5846    465.19509     279.3338    11.673524    38760.619 
  332200    288.74386    -1603.487    476.91243     166.1827    123.95277    38760.619 
  332300    311.49026   -1615.6477    475.23471    254.18398    426.37296    38760.619 
  332400    300.74688   -1612.8222    449.17874    182.85348    207.88106    38760.619 
  332500    299.23308   -1597.4341    500.27946    242.56476   -165.53522    38760.619 
  332600    290.38003    -1586.972    491.44978    204.56042   -286.08941    38760.619 
  332700    305.19127   -1607.8209    481.37221     239.9466   -239.87317    38760.619 
  332800    298.68547   -1580.4209    480.96153     237.8083    200.75964    38760.619 
  332900    290.28104   -1662.6418    465.81412    102.81184    67.997071    38760.619 
  333000    294.75686   -1620.4183    463.94223     163.2025   -220.41431    38760.619 
  333100    302.63449   -1607.0915    479.79158    227.64815   -31.520391    38760.619 
  333200    289.91409   -1599.6519    467.04281     165.3875    273.83571    38760.619 
  333300    285.11479   -1547.0669     479.9612    209.40356    250.91616    38760.619 
  333400    297.30787   -1557.3266    489.44015    263.21348   -198.41366    38760.619 
  333500    312.23816   -1603.4257    458.44305    252.96278   -7.7247428    38760.619 
  333600    301.74591   -1616.0068    444.64105    179.60396   -863.50033    38760.619 
  333700     285.3314    -1580.344     495.4155    192.55059    -93.14129    38760.619 
  333800    293.60234   -1629.7672    480.46972     165.2121    127.36833    38760.619 
  333900    300.53923    -1628.892    477.41538    194.09064     131.2481    38760.619 
  334000    300.65922   -1614.5737    461.69479    193.22554   0.39824266    38760.619 
  334100     294.9167   -1618.3873    478.93629    180.94319   -671.61208    38760.619 
  334200    309.23757   -1548.2956    453.24342    289.45908   -249.86595    38760.619 
  334300    307.66907   -1573.5123    470.31162     274.2881   -737.75977    38760.619 
  334400     309.6772   -1577.0406    498.22905    307.66803   -351.39269    38760.619 
  334500    312.94772   -1533.9991    472.75682    339.87997    258.46244    38760.619 
  334600    290.55929   -1539.2134    478.33118    240.00312    141.05705    38760.619 
  334700     306.4305   -1546.4951    491.50742    316.95583    272.69547    38760.619 
  334800     300.9767   -1538.6449    506.77236    315.65334     489.2164    38760.619 
  334900    308.69136   -1514.6787    498.48303    365.87009    265.75901    38760.619 
  335000    306.55769   -1517.5853    476.36315    331.29081    79.773314    38760.619 
  335100    293.71472   -1512.4861    465.62048    268.14712    13.403557    38760.619 
  335200    306.84311   -1517.5772     485.2554    341.46906     105.9044    38760.619 
  335300    305.45373   -1552.5502    489.57479    304.59496   -743.76926    38760.619 
  335400    308.14798    -1553.765    484.09974     309.9677    -697.4387    38760.619 
  335500    306.60282   -1513.8044    489.18825     348.0988   -566.96582    38760.619 
  335600    304.53773   -1499.0038     481.2728    345.73821   -489.95566    38760.619 
  335700    283.71909   -1480.2859    486.07873    276.05336   -245.45754    38760.619 
  335800    298.28301   -1516.5793    483.68517    302.57156    66.715763    38760.619 
  335900    294.08301   -1562.7684     492.5969    246.49014   -91.550527    38760.619 
  336000    296.83317   -1558.9327     462.2472      232.289   -330.37692    38760.619 
  336100    294.78801   -1518.4647    528.05711    329.41042      422.286    38760.619 
  336200    296.85538    -1475.186     487.2256    341.11362    32.079662    38760.619 
  336300    302.03694   -1500.5605    496.20157    347.91379   -411.01777    38760.619 
  336400    309.04503   -1511.7721    457.95525    329.83229    588.79633    38760.619 
  336500    303.14319   -1555.4338    513.15064     314.9425    599.60321    38760.619 
  336600    294.70905   -1523.4797    456.30313    252.28787    873.85501    38760.619 
  336700    289.66029   -1520.4177    495.55342    271.99597    51.263852    38760.619 
  336800    294.70505   -1499.3428    508.39336    328.49711    258.10091    38760.619 
  336900    292.55546   -1497.3237    490.23942     302.7382    253.48422    38760.619 
  337000    297.90302   -1532.0584    492.48788    294.19392    415.25401    38760.619 
  337100    301.52981   -1505.1452    486.54645    331.40351    879.05297    38760.619 
  337200    296.00174   -1571.5612    486.87262    240.56358    912.14609    38760.619 
  337300    304.79093   -1536.6776    496.57124    324.49647    527.03779    38760.619 
  337400    312.83688   -1539.7354    457.23666    318.12724    723.93166    38760.619 
  337500     296.1026   -1512.7514    500.10382    313.05615    487.72271    38760.619 
  337600    302.04507   -1541.1746    485.31137    296.44593    490.26089    38760.619 
  337700     289.8086   -1544.2386    463.97896    217.26461    672.27633    38760.619 
  337800    298.60587   -1539.5853    486.44561     283.7716    522.98168    38760.619 
  337900    303.92616    -1540.934    466.76537    286.56253    827.60307    38760.619 
  338000      292.459   -1561.1395    469.60566    217.85674   -175.68646    38760.619 
  338100     290.8616   -1508.1094    489.42347    283.55287   -372.16753    38760.619 
  338200    307.94836   -1539.2005    456.31939    295.85812    -656.2283    38760.619 
  338300    292.54139   -1534.7068    460.55309    235.60581   -904.00042    38760.619 
  338400    306.25156   -1538.8012     499.6875    332.02866   -418.25401    38760.619 
  338500    295.21951   -1544.0809     484.8008    262.46986    208.10905    38760.619 
  338600    299.94313   -1526.2736    479.81267    296.43749    172.84491    38760.619 
  338700     289.3492   -1519.7148    475.97469    251.72738    5.7355964    38760.619 
  338800    307.90458   -1491.8015    488.66627    375.40802    212.55235    38760.619 
  338900    308.99943   -1453.1003    488.17453    418.51926    68.590393    38760.619 
  339000    293.68659   -1464.6461     498.3426    348.58324   -21.536056    38760.619 
  339100    298.67439   -1457.5172    487.70048    367.40126   -360.11533    38760.619 
  339200     286.0832   -1473.6102    485.68319    292.91801   -411.20568    38760.619 
  339300     294.3113   -1486.9273    459.65178    290.40816    151.66334    38760.619 
  339400    298.55436    -1450.741    506.37534    392.31497   -122.17306    38760.619 
  339500    288.72948   -1505.3456    488.54559    275.89286    750.80965    38760.619 
  339600    301.05881   -1492.0989    476.54632     332.3409    802.91231    38760.619 
  339700    297.67396   -1460.9486    471.12121    342.91148    388.06441    38760.619 
  339800    295.46975   -1464.1188     484.1867    342.93813    77.157923    38760.619 
  339900    295.77028   -1517.9527    470.26444     276.5275   -124.20506    38760.619 
  340000    302.98694    -1455.148    472.82454     374.2026   -18.254247    38760.619 
  340100    289.61292   -1468.5095    492.94168    321.08038   -104.97559    38760.619 
  340200    311.86551   -1487.5764    516.87444    425.57502   -318.41895    38760.619 
  340300    295.88019   -1491.8614    468.62061    301.46715   -656.88945    38760.619 
  340400    303.47572   -1487.5733    493.90256    365.04366   -199.02026    38760.619 
  340500    309.64487   -1496.8959    490.99462    380.43355    128.00223    38760.619 
  340600    301.19033    -1475.108     485.1644    358.53874    45.279939    38760.619 
  340700    304.65549   -1500.0407    445.08596    309.04166    509.91903    38760.619 
  340800    302.79695   -1526.8886     491.5497    320.33651    133.74959    38760.619 
  340900    297.31057   -1525.6477    491.80781    297.27208    395.20346    38760.619 
  341000    300.06766   -1528.8483    464.68613    279.29375   -193.72949    38760.619 
  341100    303.95884   -1581.8819    470.93635    249.93191    317.01106    38760.619 
  341200    300.67033      -1528.1    469.32381    287.37802   -120.18023    38760.619 
  341300    302.43818   -1535.2519    447.66151    266.47882     104.7834    38760.619 
  341400    297.83087   -1493.0251    470.02786    310.44421   -236.43685    38760.619 
  341500    309.55989    -1501.283     495.6117    380.28298   -245.67074    38760.619 
  341600    297.79393   -1532.1777    465.33464    266.43296   -43.961825    38760.619 
  341700    303.08563   -1511.9031    485.90819    330.97298   -97.196344    38760.619 
  341800     302.2742   -1514.4207    467.71026    306.62459    53.508718    38760.619 
  341900    294.08032   -1486.2862    499.80788    330.17128    327.74691    38760.619 
  342000    300.32841   -1481.9269    473.85119    336.54759   -152.90887    38760.619 
  342100    289.20749   -1502.0312    469.98129    262.78315     63.02561    38760.619 
  342200    301.42773   -1481.9374     475.0792    342.68702    187.83129    38760.619 
  342300    302.97605   -1505.5822     469.1826    320.07772    170.27134    38760.619 
  342400    297.92642   -1490.2586    474.85093    318.46152    -288.9675    38760.619 
  342500    289.07889   -1498.1735    495.75165    291.83542    67.480956    38760.619 
  342600    310.64092   -1509.0186    477.41145    359.18709   -126.74954    38760.619 
  342700    300.88394   -1483.9327    472.64364    335.82151    5.4321584    38760.619 
  342800    303.67846   -1476.3199    456.62747    339.92963    167.55999    38760.619 
  342900    293.94805   -1534.9338    448.88047    230.00405    45.501803    38760.619 
  343000    310.51025   -1522.8477    456.89801    324.25953    425.30593    38760.619 
  343100    298.38492   -1516.5404    478.05707    297.43865    51.571481    38760.619 
  343200    292.13892   -1510.7402    470.46088     267.6782    219.18757    38760.619 
  343300    301.66534   -1468.9065    475.22636    356.92883    464.83509    38760.619 
  343400    312.25617   -1477.3011    481.19142    401.91634    503.21824    38760.619 
  343500    294.43574   -1482.5862    472.18408    307.83867    51.094835    38760.619 
  343600    300.48533   -1493.2397    486.89749    338.98366    141.40723    38760.619 
  343700    305.54655   -1520.3347    473.87276      321.524    160.54882    38760.619 
  343800    308.83002   -1494.8052    434.62896    322.51026    245.17323    38760.619 
  343900    306.03918   -1514.1568    491.87313    347.90777    344.69447    38760.619 
  344000    290.73744   -1497.8235    478.13635    281.99571    101.92276    38760.619 
  344100    306.96682   -1480.9496     480.7141    374.10917    477.36537    38760.619 
  344200    305.25795   -1511.7977    459.60607    314.50212   -127.35169    38760.619 
  344300     296.4458   -1415.9625    482.42516    393.70292   -531.74603    38760.619 
  344400    302.09795   -1465.5728    468.09515    355.06821   -505.52777    38760.619 
  344500    300.96838   -1490.1826    471.31221    328.61825    155.89157    38760.619 
  344600    291.50626   -1457.1855    467.66917    315.60871    64.664992    38760.619 
  344700    306.76807   -1468.6762    511.21104    415.98967   -203.32579    38760.619 
  344800    295.30729   -1466.3064    466.16583    322.00241   -40.926815    38760.619 
  344900    299.24363   -1482.0183    474.97894    332.72726    79.595071    38760.619 
  345000    301.10896   -1479.8209    459.42597    327.72312   -365.58171    38760.619 
  345100    307.00177   -1491.5808    469.44705     352.3674   -253.42233    38760.619 
  345200    297.33745    -1473.496    467.50454    325.24082   -435.55283    38760.619 
  345300    320.26965   -1474.3647    428.34821    387.88736   -833.17926    38760.619 
  345400    307.09582   -1469.7855    489.22452    394.36127   -1035.4409    38760.619 
  345500    299.35028   -1439.7977    449.78015    350.22659   -603.38373    38760.619 
  345600    303.84252   -1478.6214    487.84897    369.58421   -420.75296    38760.619 
  345700    290.79288   -1472.5789    473.06766    302.41986   -194.79466    38760.619 
  345800    300.58824   -1427.1821    466.29182    384.89643    177.14875    38760.619 
  345900    301.40445   -1451.8486    460.13938     357.7318   -542.34763    38760.619 
  346000    296.75269   -1456.4497     475.7741    347.93863   -568.79514    38760.619 
  346100    297.96071   -1503.6358    454.44481    284.83171   -373.99319    38760.619 
  346200    307.90505   -1495.0315    466.91346    350.42724   -15.928538    38760.619 
  346300    300.34144   -1500.7923    460.15209    304.04151   -4.6601663    38760.619 
  346400    299.77155   -1508.7834    439.00246    272.34923   -375.05245    38760.619 
  346500    308.50859   -1506.5051    452.59283    327.33524   -316.66894    38760.619 
  346600    296.06753   -1502.8827    450.15098    272.81491   -846.50749    38760.619 
  346700    297.35209   -1457.9757    471.40034    344.72244    128.14969    38760.619 
  346800    307.45374   -1507.7463    471.14323    339.92162   -150.91718    38760.619 
  346900     297.7116   -1511.1377    464.11063    285.88039   -207.44551    38760.619 
  347000    296.89008   -1503.2035    503.27365    329.29955   -38.963239    38760.619 
  347100    299.77924   -1484.6693    456.64939    314.14473    134.93527    38760.619 
  347200     300.2615   -1468.4725    462.93126    338.78257    241.11178    38760.619 
  347300    299.90452   -1480.5815    465.50507    327.64913   -114.21559    38760.619 
  347400    298.26214   -1502.1222     461.3068    294.55692    162.48056    38760.619 
  347500    301.57075   -1449.9326    484.10564    384.35864    169.17784    38760.619 
  347600    297.91056   -1433.8663    453.01165    352.94352   -65.296055    38760.619 
  347700    295.49684   -1445.1776     467.1306     344.9446    162.82328    38760.619 
  347800    298.27421   -1458.7356    476.34541    353.03618    240.71381    38760.619 
  347900    302.85946   -1492.8679    463.19738    326.28483    301.65917    38760.619 
  348000    291.10672   -1442.5252    458.61768    319.42871   -340.30968    38760.619 
  348100    294.53014   -1455.6579    490.41076    353.41636   -676.83413    38760.619 
  348200    303.94275   -1437.0915    446.98222    370.69618     189.7577    38760.619 
  348300    295.29193   -1480.6716    472.20355    313.60606    118.65442    38760.619 
  348400    296.54684   -1474.2702    466.00976     319.4322    379.90128    38760.619 
  348500    309.91332   -1501.2709    468.52112    354.78697    142.98285    38760.619 
  348600    295.55471   -1481.8728    455.50121     296.8791    227.73983    38760.619 
  348700    305.41523   -1497.3785    462.81447    332.83393    599.44441    38760.619 
  348800    297.63127   -1506.7816    467.98347    293.74965    421.39976    38760.619 
  348900     296.8044   -1509.0424    464.15448    283.95782    329.33968    38760.619 
  349000    298.57877   -1539.9367    459.10006    255.95332    353.63488    38760.619 
  349100    313.85489   -1478.4631    467.96266    394.68331    508.50736    38760.619 
  349200    307.82039   -1524.0273    452.18572    306.32468    299.96679    38760.619 
  349300    289.21919   -1539.1529    456.79433    212.52687   -235.72621    38760.619 
  349400    307.43154   -1537.3399    448.49134    287.57677    433.28272    38760.619 
  349500     308.4515    -1534.649    465.81844    312.16127    596.37844    38760.619 
  349600     300.9824   -1497.5026    460.03972    310.08854   -132.87578    38760.619 
  349700    290.38946   -1485.3465    462.87202     277.6504    45.539311    38760.619 
  349800    292.36923    -1455.688    467.33615    320.63682   -260.34354    38760.619 
  349900    290.52523   -1492.5632    466.25627    274.42583   -160.17364    38760.619 
  350000    305.29845   -1514.8112    467.02228     319.0862   -178.89582    38760.619 
  350100    297.41835   -1480.3555    465.71874    316.95776   -352.97029    38760.619 
  350200    289.17357   -1488.8307    448.18938    254.03979    -377.2855    38760.619 
  350300    307.17968   -1493.9241    460.64153    342.01516   -515.90363    38760.619 
  350400    293.30484   -1522.1643    445.23189    236.24515   -531.64452    38760.619 
  350500    290.98936   -1494.6029    469.55211    277.75997   -32.717069    38760.619 
  350600    290.10959   -1497.8248    463.64165    264.68872   -366.85396    38760.619 
  350700    314.38544   -1471.2286    449.75423    386.08479   -617.67281    38760.619 
  350800    299.33966   -1466.6267    451.59255    325.16235   -325.51116    38760.619 
  350900     298.6334   -1456.0479    476.23197    357.21855   -985.87047    38760.619 
  351000    303.26127   -1457.7674    450.34972    350.33659   -808.54549    38760.619 
  351100    285.65708   -1485.1711    460.80605    254.57218   -41.859047    38760.619 
  351200    300.71397   -1512.4853    464.34443    298.20873    66.544633    38760.619 
  351300    301.63279     -1503.48    445.60658     292.5899    320.86745    38760.619 
  351400    307.80974   -1470.8858    489.99084    397.22363    30.558258    38760.619 
  351500     298.5097   -1506.4744    462.18468    292.19094    148.12777    38760.619 
  351600    306.60568   -1497.6832    465.65855    340.70314    261.23016    38760.619 
  351700    311.01572   -1505.5909    462.19323    349.07468    475.31743    38760.619 
  351800    304.88736   -1525.5209    459.92932    299.44298    273.29767    38760.619 
  351900    290.56356    -1534.182     452.6233    219.34567    184.48433    38760.619 
  352000    305.90023   -1535.6116    477.47482    311.43259    361.41497    38760.619 
  352100     302.5764    -1499.142    464.67422    320.22021    526.88237    38760.619 
  352200    303.67495   -1489.5368     473.7789    343.84853    881.60904    38760.619 
  352300    297.65303   -1477.5426    450.77512    305.87776    166.79855    38760.619 
  352400    291.70582   -1498.7498    460.28021    267.54886    733.86706    38760.619 
  352500    306.57087   -1516.3313    446.11121    302.35193    655.83199    38760.619 
  352600    301.68089   -1543.2945     451.2908    258.67496    431.37266    38760.619 
  352700    303.49408   -1520.8915    461.11576    299.02094   -44.828126    38760.619 
  352800    289.60837   -1506.9188    504.21301    293.92211    269.58648    38760.619 
  352900    294.24512   -1521.0241    448.27928    244.64254   -522.99178    38760.619 
  353000    309.16712     -1492.27    447.33483    339.26068   -439.92016    38760.619 
  353100    294.53277    -1468.803    473.26061    323.13293   -170.11519    38760.619 
  353200    299.20929   -1489.4148    476.57467    326.77277    437.70041    38760.619 
  353300    290.59222    -1482.918    473.60863    291.72333   -65.091789    38760.619 
  353400    305.65661   -1502.9236    440.43574     305.9908    -36.29023    38760.619 
  353500    306.98334   -1473.1726    452.79439    354.04048   -147.51866    38760.619 
  353600    294.28253   -1520.9633    437.91753    234.50915   -811.60597    38760.619 
  353700    299.46406   -1508.4285    474.09104    306.41607   -141.41873    38760.619 
  353800    292.04274   -1557.1561    454.99103    205.36191    33.331766    38760.619 
  353900    298.84622   -1528.2865    455.89959    265.60045    576.14915    38760.619 
  354000    298.19735    -1520.693    470.93009    285.31933    290.20377    38760.619 
  354100    304.60046   -1473.9511    463.22132    353.02028    547.55802    38760.619 
  354200    302.57754   -1532.1445    449.51046    272.05913    84.569749    38760.619 
  354300    306.52779   -1523.3969    470.78587    319.76802    151.90734    38760.619 
  354400    308.43225   -1550.6152    444.33974    274.63025    88.140055    38760.619 
  354500    307.72251   -1529.0953    466.37174    315.00445   -196.88458    38760.619 
  354600    290.55716   -1565.2508    427.30261    162.92759   -23.417061    38760.619 
  354700    303.45115   -1524.4544    473.39541     307.5454    22.026534    38760.619 
  354800    310.75977    -1538.231    450.60966    303.70507    983.33282    38760.619 
  354900    294.41051   -1588.3537    440.88238    170.65658    206.70135    38760.619 
  355000    299.70004   -1530.2944    450.97154    262.48721   -201.48421    38760.619 
  355100    305.75708   -1532.1606    466.60531    303.37316    159.27272    38760.619 
  355200    311.63575   -1526.4034     449.4773    318.32223    121.31933    38760.619 
  355300    298.42773   -1562.7168    464.31495    237.71177    67.899006    38760.619 
  355400    292.61622   -1563.3582    455.45427    202.19062   -143.97595    38760.619 
  355500    300.64758   -1489.2841    460.06155    316.82978    273.39574    38760.619 
  355600    295.30231   -1510.6377    444.84528     256.3282    -317.7334    38760.619 
  355700    303.08705   -1563.2233    465.94016    259.69113    83.655588    38760.619 
  355800    293.99584   -1530.2863    460.48492    246.46993    140.58384    38760.619 
  355900    300.47486   -1504.2933    450.77014    291.75587   -410.28955    38760.619 
  356000    296.90983   -1492.4305    462.53461    299.42187    108.11465    38760.619 
  356100    280.32118   -1507.5112    452.47947    200.01571   -356.78775    38760.619 
  356200    302.33563   -1526.7408    443.68677    270.55599   -234.01751    38760.619 
  356300     296.3372   -1509.4776    468.32863    285.60501   -210.53651    38760.619 
  356400    296.22611   -1471.8625    437.86737    292.26153    -511.0048    38760.619 
  356500    299.97505   -1506.8118    449.64803     285.8775   -401.57165    38760.619 
  356600    300.80825   -1494.6861    463.31222    315.39783    32.173376    38760.619 
  356700    298.95836   -1507.7683    438.70802    269.42915    104.44617    38760.619 
  356800    300.17625   -1511.0919    475.75599    308.60623    -101.7971    38760.619 
  356900    291.38359   -1467.5712    487.51915    324.52377    417.41437    38760.619 
  357000    297.43089   -1442.9848    453.16002    341.82587   -286.59482    38760.619 
  357100     289.0616   -1436.6199    477.21157    334.77147   -488.33153    38760.619 
  357200    290.28293   -1508.5095    455.24147    246.37991     40.99436    38760.619 
  357300    308.63131   -1459.9804    467.30121    389.11778    377.94658    38760.619 
  357400    298.60648   -1502.8831     477.9774    312.00829    15.941003    38760.619 
  357500    304.30771   -1528.7997    475.02261    308.66229   -13.393301    38760.619 
  357600    272.89831   -1506.5945    445.74521    160.96469   -278.98816    38760.619 
  357700    308.80592   -1520.5212    497.92842    359.98591   -69.517433    38760.619 
  357800    288.77276   -1484.7793    450.80274     258.9101    222.43356    38760.619 
  357900     290.1409   -1504.7244    478.29924    272.58693     255.9829    38760.619 
  358000    304.95442   -1516.3432    461.43395    310.42559    475.30464    38760.619 
  358100    299.85393   -1501.7964    459.98464    300.68725    899.44214    38760.619 
  358200    294.09781   -1512.8926    469.69801    273.53324    726.55748    38760.619 
  358300    286.38067   -1502.5122    442.97516    222.63984    462.91251    38760.619 
  358400    300.99347   -1499.2733    442.69944     291.0271    441.66392    38760.619 
  358500    300.96634   -1498.7916    481.23094     329.9188    23.796561    38760.619 
  358600    306.37334   -1498.0405    496.17867    369.82576    91.894223    38760.619 
  358700    304.00914   -1486.8982    463.49571    337.70015   -315.27615    38760.619 
  358800    308.64742   -1496.3607    485.12765    370.63603    233.27503    38760.619 
  358900    291.51021   -1479.1228    454.69235    280.71227   -24.177917    38760.619 
  359000    295.26518     -1486.12     464.5574    300.39174    253.69462    38760.619 
  359100    305.40298   -1506.7547    469.26191    329.85028   -4.1057454    38760.619 
  359200    298.31851   -1498.4267    471.31697    308.51495    228.67371    38760.619 
  359300    291.18741   -1442.0982    460.41315     322.0124    235.05797    38760.619 
  359400    289.37506   -1465.4301    457.53318     287.6863     306.4013    38760.619 
  359500    304.66462   -1461.4759    475.69367    378.25509   -489.66653    38760.619 
  359600    305.94725    -1454.627     467.9803    383.13324     219.6781    38760.619 
  359700    296.86891     -1480.56    469.72977    318.30432    403.38508    38760.619 
  359800    302.26158   -1512.9013    463.56108     303.9383    489.04589    38760.619 
  359900     293.7454    -1528.568    478.33249    264.91455    110.56731    38760.619 
  360000    302.19485   -1535.4209    467.03126    284.59004    571.87717    38760.619 
  360100    303.45848    -1499.999    478.82266    337.46087    323.84812    38760.619 
  360200    295.45003   -1520.2978    459.81115    262.29532   -329.75133    38760.619 
  360300    302.97028   -1486.9092    434.53524     304.0775   -70.015958    38760.619 
  360400    304.65701   -1505.7002    470.59352    328.89653   -70.923086    38760.619 
  360500    301.32578   -1471.4049    459.44155    337.12541   -98.514239    38760.619 
  360600    303.45775   -1486.8214    479.38691    351.19942     251.4026    38760.619 
  360700    303.39515    -1501.294    470.42398    327.48362    -482.6303    38760.619 
  360800    301.39533   -1538.9936    466.19768    276.60425   -383.15507    38760.619 
  360900    300.13071   -1531.8589    465.06657     276.9459    234.37612    38760.619 
  361000    301.57749   -1546.2814    476.96524    280.89952    288.68358    38760.619 
  361100    312.59166   -1513.4989    454.68331    340.71251    506.00933    38760.619 
  361200    311.02742   -1551.4346    460.04485    301.13493    489.25157    38760.619 
  361300     300.6935   -1533.0846    462.28024    275.45356    539.58058    38760.619 
  361400    294.87951   -1517.2712    447.88063    250.83708    712.19273    38760.619 
  361500    300.97351   -1574.3313    448.85331    222.03361    454.78261    38760.619 
  361600    302.01835   -1559.0595    459.76304    252.89299    255.59113    38760.619 
  361700    307.91723   -1535.3577    482.38522    325.62736    45.465705    38760.619 
  361800    302.51252   -1478.1674    482.70844    358.94298   -74.200157    38760.619 
  361900     294.9072   -1528.0583    469.71618    262.00948   -190.93405    38760.619 
  362000    293.34667   -1507.4651    445.55651     251.4563   -532.31579    38760.619 
  362100    287.77635   -1495.7323    488.63862    281.33192   -189.09107    38760.619 
  362200    293.54564   -1540.4786    469.31024    243.08729   -736.52509    38760.619 
  362300    293.35214   -1520.7276    453.78646    246.44825   -615.05906    38760.619 
  362400    308.88374    -1516.365    484.34027    350.90239   -170.60477    38760.619 
  362500    291.53179   -1475.8722    468.24795    297.61511    139.38258    38760.619 
  362600    297.51904   -1486.7166    488.93143    334.26019   -117.17866    38760.619 
  362700    297.68525   -1535.8369    486.44611    283.39872    279.61636    38760.619 
  362800    305.58201   -1494.6382    473.06426    346.57074    374.83105    38760.619 
  362900    294.04822   -1491.9918    486.95364    311.46769    527.74999    38760.619 
  363000    303.40708   -1495.2218    486.04189    349.22716    197.54927    38760.619 
  363100     308.3404    -1487.386    464.33506    357.44346   -185.67653    38760.619 
  363200    300.33609   -1501.6479    476.42542    319.43526   -191.69086    38760.619 
  363300    296.29343   -1511.8616    471.77108    286.46758    1.9333282    38760.619 
  363400    306.85763   -1478.7867    492.28706    387.35619   -35.028428    38760.619 
  363500    296.34702   -1471.2315    486.19611    341.76262   -38.626652    38760.619 
  363600    292.70057   -1473.3986    449.13234    286.20593   -106.55715    38760.619 
  363700    306.30831   -1488.6597    491.05952    373.79625   -306.85143    38760.619 
  363800      295.754   -1452.0528     456.3409    328.43099   -156.76334    38760.619 
  363900    311.89107   -1474.0284    501.10394    423.46697    87.945527    38760.619 
  364000    299.58215   -1480.8769    464.21221    324.61748    24.166721    38760.619 
  364100    287.95675   -1488.3431    488.17253    289.06268    228.90595    38760.619 
  364200    296.63432   -1518.0249    464.80238     274.8618   -160.24239    38760.619 
  364300    297.34942   -1488.1311    475.35409    318.50888   -310.36347    38760.619 
  364400    294.41557   -1495.6474    476.00911    298.51227   -228.48007    38760.619 
  364500    303.77154   -1473.9972    470.22978    356.27142    219.42953    38760.619 
  364600    293.54153   -1457.7991     468.0238    324.46197    67.518108    38760.619 
  364700    297.85263    -1445.701    500.49028    388.32809    706.84239    38760.619 
  364800    289.85912   -1451.6673    470.73189    316.81513    -38.08466    38760.619 
  364900    312.50893   -1453.6188    462.94185    408.48075   -43.413436    38760.619 
  365000    296.69893   -1465.0552    478.60934    341.92765    137.52859    38760.619 
  365100    295.69521    -1450.223    477.42204     351.0788   -428.46532    38760.619 
  365200    288.76881   -1471.3459    466.08422    287.60724   -457.51551    38760.619 
  365300    293.40592   -1460.0181      489.315    342.92706   -133.51003    38760.619 
  365400    291.69911   -1435.7307    466.75221    337.00995    252.27231    38760.619 
  365500    304.44504    -1498.502     461.0828    325.63505    115.28252    38760.619 
  365600    304.84698   -1477.1795    464.34204    352.01627     245.7998    38760.619 
  365700    302.01011   -1505.6529    473.25388    319.75358   -145.97216    38760.619 
  365800    300.12531    -1487.199    438.08582    294.60085   -155.83249    38760.619 
  365900    303.36999   -1470.4431    472.75429     360.5522    33.708007    38760.619 
  366000    304.97575   -1504.3087    467.44521    328.56679      51.5443    38760.619 
  366100    288.53988   -1448.1476    469.70805    313.40442   -21.873298    38760.619 
  366200    297.65076   -1471.1394     481.5352    343.03086   -309.78032    38760.619 
  366300    301.16977    -1471.529    463.45422    340.31553   -131.09038    38760.619 
  366400    291.07994   -1508.3621    444.13432    238.98857    -163.2357    38760.619 
  366500    297.44912   -1503.3296    488.51527    316.91795    354.90377    38760.619 
  366600    296.27119   -1540.8029    474.13916    259.79471     414.1223    38760.619 
  366700      304.493   -1513.0075    459.31236    309.57384   -157.33816    38760.619 
  366800    297.48204   -1527.7191    451.63056    255.79111   -432.92339    38760.619 
  366900    309.75183   -1500.5111    442.26652    328.56912   -416.68883    38760.619 
  367000    299.21785    -1486.441    450.25708    303.46731   -171.56769    38760.619 
  367100    297.28114   -1503.9843    469.53371    296.52964    -1078.453    38760.619 
  367200    300.13929   -1546.4777    428.21881    225.51771   -468.34901    38760.619 
  367300    295.03461   -1514.1844    457.82699    264.56471   -689.48408    38760.619 
  367400    297.81629   -1514.9309    448.73746    267.18277    107.01387    38760.619 
  367500    294.84799   -1514.1299     468.6189    274.57553    37.032458    38760.619 
  367600    302.76283   -1523.8524    446.16704    277.83732    240.58844    38760.619 
  367700    302.31453   -1546.0597    464.75461    272.21048    329.08895    38760.619 
  367800    291.94032   -1512.8591    478.90741    273.11673    187.31714    38760.619 
  367900    299.74642   -1515.2068    486.91288    313.72376    549.50328    38760.619 
  368000     301.8581   -1563.2274    443.64642    231.89111   -144.25627    38760.619 
  368100    302.85573   -1517.1273    453.17445    291.98578    489.39551    38760.619 
  368200    296.58887   -1438.9753    470.95884    359.86433    336.51096    38760.619 
  368300    301.93353   -1450.1931    446.30133    347.91801   -267.10983    38760.619 
  368400    296.53665   -1442.8195     491.7895    376.61696   -552.44956    38760.619 
  368500    305.19355   -1446.0007    469.33705    389.74178   -675.45357    38760.619 
  368600    303.18825   -1451.3825     454.6665    360.71139   -688.25671    38760.619 
  368700    301.96776   -1497.0278    469.47503    324.41021   -18.938518    38760.619 
  368800    314.74527   -1462.5745    445.07194    391.66759    243.02672    38760.619 
  368900    311.32699    -1475.852    460.59038    378.60429    120.27984    38760.619 
  369000    295.67379   -1494.9088    491.22196    320.09697    189.71057    38760.619 
  369100    297.78409   -1503.1898    456.50953    286.55171    851.28526    38760.619 
  369200    297.49004   -1465.0952     454.3154    321.13573    354.38717    38760.619 
  369300    293.20396   -1493.9304    451.67542      270.471   -140.66474    38760.619 
  369400    302.47854   -1496.2027    465.16677     323.2139    75.364539    38760.619 
  369500    304.48042    -1511.685    473.23518     324.7628    -471.3488    38760.619 
  369600    304.36375   -1501.3948    445.44753    306.74305   -275.76918    38760.619 
  369700    297.95302   -1494.0594    463.38767    303.31656   -430.70864    38760.619 
  369800    296.05521   -1479.6988    473.30506    319.09776   -221.33821    38760.619 
  369900    298.03667   -1501.7617    464.00371    296.60484   -474.82716    38760.619 
  370000     293.8036   -1485.4246    479.31798      309.304   -24.825315    38760.619 
  370100    312.91128   -1513.3773    459.62652    347.20832    21.831846    38760.619 
  370200     305.0633    -1491.761    457.82368    331.88495    565.73462    38760.619 
  370300    306.07192   -1503.9654     483.4216    349.79427    509.52484    38760.619 
  370400    300.44182   -1522.5814    447.20187    269.75164    35.818849    38760.619 
  370500    301.24452   -1542.1555    454.53115    261.10062    362.25148    38760.619 
  370600    292.23667   -1517.2393    481.98821    273.14414    683.39709    38760.619 
  370700    303.25346   -1511.7495    455.68814    301.65798     593.0524    38760.619 
  370800    291.56234   -1538.5378    452.98755    219.82581    711.24469    38760.619 
  370900    290.32273   -1496.5675    476.81622    280.07493     198.0429    38760.619 
  371000    304.23623    -1482.146      455.337    335.31035    414.20104    38760.619 
  371100    305.21926   -1482.8359    469.52106    353.20566      350.386    38760.619 
  371200    301.50726   -1477.7413    454.04911    326.20913    418.81726    38760.619 
  371300    315.75356   -1517.8938    477.58832    373.37901    245.92518    38760.619 
  371400    297.35365    -1521.326    456.19499    266.17381    552.61961    38760.619 
  371500    287.88514   -1541.2664    441.20895    188.85526    186.74535    38760.619 
  371600    294.49793   -1564.4839    464.98502    219.02039    113.01672    38760.619 
  371700    299.59628    -1566.572    468.88653    243.66006    341.50349    38760.619 
  371800    307.32627   -1518.2146    455.86534    313.60477    225.84255    38760.619 
  371900    300.47909   -1524.3399    466.11317     287.0712    150.03772    38760.619 
  372000    295.69015   -1490.4134    473.63876    307.08234    10.215263    38760.619 
  372100    292.96619   -1511.9649    458.34335    258.03985    110.24207    38760.619 
  372200    299.08363   -1488.7546    454.57581    304.87147   -166.16132    38760.619 
  372300    307.38595   -1452.2563    465.62112    389.58606     527.3692    38760.619 
  372400    300.66928   -1528.0647      484.424    302.50884    122.32842    38760.619 
  372500    293.85465   -1545.7288    444.13132    214.04177    100.20128    38760.619 
  372600    290.89144   -1536.8489    478.49702    244.02052   -454.69029    38760.619 
  372700     301.4883   -1480.2926    457.65803    327.18178    -659.6733    38760.619 
  372800    288.75835   -1488.7702    466.68449    270.73646   -626.16536    38760.619 
  372900    299.92549   -1477.9169    448.50678    313.40924   -271.85462    38760.619 
  373000    304.29232   -1492.8299    457.99922    327.53983   -513.05059    38760.619 
  373100    288.88067   -1451.5236    473.15029    314.99647    23.401239    38760.619 
  373200    298.56945   -1460.6359    456.57563    332.68794   -9.8013977    38760.619 
  373300     299.9464   -1473.8795    454.82214     323.8557    364.57979    38760.619 
  373400    303.44191   -1472.8312    470.22077    355.95263   -125.14332    38760.619 
  373500     298.8583    -1466.761    464.60719    335.88764   -325.83799    38760.619 
  373600      296.224   -1457.5917    483.27155    351.92702    -777.8068    38760.619 
  373700    305.26471    -1463.647    469.44955    372.52662    -215.3309    38760.619 
  373800    301.38597   -1470.1819     451.4953    330.67165   -497.08795    38760.619 
  373900    300.62185   -1485.1901    462.63723    323.38432   -467.38094    38760.619 
  374000    300.53702   -1469.5406     455.7358    331.75251   -524.78951    38760.619 
  374100    294.03892   -1495.5874    473.21071    294.08751   -559.09163    38760.619 
  374200    291.40997   -1481.6568    428.11437    251.15147   -121.17379    38760.619 
  374300    304.60348   -1485.7473    444.20427    322.22059   -79.323384    38760.619 
  374400    300.29736    -1498.333    501.83811    347.98943    63.917234    38760.619 
  374500    297.45191   -1508.3184    447.02229    270.44869    791.93243    38760.619 
  374600     309.0573   -1518.0286    456.53552    322.21112    1065.4913    38760.619 
  374700    290.02816   -1512.2907    459.53907    245.75569    376.81183    38760.619 
  374800    295.82405    -1545.102    471.09979    250.45432    712.21913    38760.619 
  374900    304.65408   -1502.6356    471.30794    332.66246    702.17283    38760.619 
  375000    291.89227   -1469.4908    436.54667    273.90919    140.39876    38760.619 
  375100    291.04896   -1508.5377    462.23316     256.7731    -131.7742    38760.619 
  375200    294.32692   -1501.9575    476.91963    292.71571   -293.29223    38760.619 
  375300    297.92153   -1488.1623    432.49422    278.17928    453.18598    38760.619 
  375400    298.33755   -1479.0888    477.52367    334.14474    96.627851    38760.619 
  375500    301.62724   -1496.3579    421.37919    275.45973    245.29192    38760.619 
  375600    298.30292   -1471.1382    456.70472    321.12141    151.45886    38760.619 
  375700    309.41805   -1448.9278    468.35831    404.74978    135.41449    38760.619 
  375800    301.51466   -1451.5167     474.9772    373.39495      222.799    38760.619 
  375900    295.38088   -1453.7339    460.32714    329.06565   -542.87749    38760.619 
  376000    298.36619   -1449.4269    446.54649     332.9577   -314.17484    38760.619 
  376100    307.68397   -1410.8389    488.06322    454.77983   -8.6518748    38760.619 
  376200    296.57687   -1482.8334    466.22938    311.22299   -651.74022    38760.619 
  376300    296.10858   -1453.0921    420.85131    293.48964   -276.46703    38760.619 
  376400    298.48651   -1447.7207    450.86355    339.51968   -457.01921    38760.619 
  376500    294.23286   -1480.4757    439.31996    276.17681   -655.18465    38760.619 
  376600    289.30059   -1476.2757    455.84317     274.8173   -628.22182    38760.619 
  376700    300.94235    -1454.197    438.74037    331.91547   -493.53749    38760.619 
  376800    299.55936   -1430.2602    445.92563    356.84555   -707.59107    38760.619 
  376900    294.97591   -1453.4799    439.20382    306.38313   -502.32414    38760.619 
  377000     304.9529   -1480.8385    465.90304    350.39253   -234.87618    38760.619 
  377100    296.33881   -1469.4406    447.86819    305.18879   -331.45031    38760.619 
  377200    298.97591   -1445.7546    445.32979     338.1432    315.09641    38760.619 
  377300    296.46217   -1495.2875    455.05595    287.08198    336.09808    38760.619 
  377400    307.16504   -1480.4373    468.28314    363.07795    1127.3865    38760.619 
  377500    294.73479   -1467.2604    434.45618    286.77546    761.86122    38760.619 
  377600    292.61161   -1432.3065    450.99653    328.76389     667.3071    38760.619 
  377700    309.91933   -1436.9468     462.7584    413.37521    634.95264    38760.619 
  377800    307.38562   -1425.2655    484.34591    435.30014    577.16483    38760.619 
  377900    294.02704   -1439.3145    447.55239    324.64887   -143.41654    38760.619 
  378000    298.80158   -1461.1101    447.25231    323.92966   -597.58494    38760.619 
  378100    308.72689   -1443.8652    467.51492    405.87455   -142.11334    38760.619 
  378200    290.05835   -1443.8857    455.04332     309.8001     78.37021    38760.619 
  378300    308.00318   -1491.7738    453.96258    341.17348   -366.50769    38760.619 
  378400    298.78249    -1472.061     464.4997    330.14068   -8.1697467    38760.619 
  378500    309.66904   -1441.1767    442.28459    387.55093     -59.4995    38760.619 
  378600    301.91737   -1453.6769    458.47015    356.53072   -361.82215    38760.619 
  378700    292.17729   -1452.6949    448.75192    304.18637   -278.12742    38760.619 
  378800    309.45912   -1423.1913    458.39135    420.70324   -109.79219    38760.619 
  378900    312.40242   -1450.8962    455.94212    403.72672   -103.40256    38760.619 
  379000    296.66335   -1491.9701    437.76417    274.00827   -135.91371    38760.619 
  379100    291.27387    -1488.209    436.31894    252.19454   -13.133106    38760.619 
  379200    309.56529   -1486.6182    420.09286    319.45316    127.09008    38760.619 
  379300    302.55425   -1497.6649    456.29052    313.21447    225.83648    38760.619 
  379400    296.34533   -1513.8646     439.4441    252.36994    418.85581    38760.619 
  379500    316.72795   -1458.8995    461.47283    420.62028    529.91492    38760.619 
  379600     299.0402   -1489.0547    443.00283    292.80392    547.09809    38760.619 
  379700    291.28624   -1503.7151    456.42782    256.85273   -68.215065    38760.619 
  379800    293.20065   -1503.2577    411.40441    220.85783    349.97822    38760.619 
  379900    308.61259   -1472.9759    440.31382    349.05105    77.027901    38760.619 
  380000    297.75548     -1466.99    468.10186    334.21575   -477.00922    38760.619 
  380100    301.96709   -1495.3703    447.03509    303.62484    203.18885    38760.619 
  380200    295.95747   -1499.0122    427.63565    253.67738   -298.47894    38760.619 
  380300    305.47854   -1473.7057    447.58628    341.56194   -100.48919    38760.619 
  380400    290.22603   -1445.6927    447.12711    300.82765   -662.21175    38760.619 
  380500    302.13437   -1468.3588    448.92243    333.27254   -61.906463    38760.619 
  380600    299.62598   -1434.2224    460.98505    368.24114   -52.418946    38760.619 
  380700    314.08136    -1442.555    454.87221    418.51495    100.35764    38760.619 
  380800    302.59324   -1452.1082    459.20328    361.85843    69.609071    38760.619 
  380900    292.61438   -1439.8528    437.36764    307.60112    587.22457    38760.619 
  381000    303.21703   -1427.4358    462.68914    392.80955     732.0839    38760.619 
  381100    306.94453   -1449.6937    464.78416    389.33535    770.06977    38760.619 
  381200    297.46872   -1458.0012    460.76289    334.58175    1003.0708    38760.619 
  381300    300.58007   -1490.2532    460.16952    315.66638    484.88803    38760.619 
  381400    303.12031   -1490.1707    430.79733    297.74986    143.66864    38760.619 
  381500    302.83947   -1486.3205    456.35135    325.89661   -177.75145    38760.619 
  381600    302.76527   -1482.2256    452.63246    325.94047    -19.85557    38760.619 
  381700    303.46659   -1484.9116    454.92914    328.69111    332.38696    38760.619 
  381800    308.13005    -1447.851    450.64497     382.3467    -164.8062    38760.619 
  381900    290.22146   -1497.7405    452.56758    254.19985   -4.9108966    38760.619 
  382000    308.03583   -1443.9087    479.16427    414.38643    -409.5983    38760.619 
  382100    306.49525   -1428.7626    449.55022    393.02106   -562.54122    38760.619 
  382200    306.10714   -1421.9181    465.25185    413.82947   -583.63952    38760.619 
  382300    313.98325   -1427.2693    458.31357    436.80272    -477.8329    38760.619 
  382400    306.34863   -1432.9363    440.36889    379.00957   -300.20733    38760.619 
  382500    296.81201   -1433.1264    483.92814    379.68153   -354.35377    38760.619 
  382600    301.64973   -1445.3282    476.00275    381.21369    148.96722    38760.619 
  382700    293.37315   -1434.2566    480.78666    360.01351    324.19768    38760.619 
  382800    298.42029   -1445.6634    462.94609    353.36309   -306.41922    38760.619 
  382900    298.76236    -1409.092    461.00141    389.52133    339.02857    38760.619 
  383000    297.02539   -1426.6181    482.92089    386.13795   -49.751898    38760.619 
  383100    304.46747   -1464.2965    457.20599    356.06413    84.635199    38760.619 
  383200    312.90202   -1448.9602    433.99176    385.94922   -40.215094    38760.619 
  383300    296.84374   -1438.7903    479.38644    369.61804      88.4682    38760.619 
  383400    301.50479   -1454.0073    468.81295    364.69587   -36.262168    38760.619 
  383500    291.06078   -1477.6944    453.21433    278.65051   -644.72116    38760.619 
  383600    295.77301    -1480.758    467.69563    311.16566   -589.07294    38760.619 
  383700    306.56628   -1472.7006    481.68092    381.53167   -245.82729    38760.619 
  383800    302.30184   -1525.2805    444.42124    272.59949    43.701731    38760.619 
  383900    296.19214   -1526.0487    467.74594    267.80183   -102.76948    38760.619 
  384000    307.13182   -1504.5509    479.47686    350.00935   -327.85273    38760.619 
  384100    311.97564   -1457.4133    447.24998    386.60669    336.30388    38760.619 
  384200    299.52122   -1426.8955    460.73265    374.84659   -409.59524    38760.619 
  384300    303.97971    -1468.245    479.54796    372.27384   -639.74761    38760.619 
  384400     305.4464   -1455.9898    486.61981    398.16753   -403.62268    38760.619 
  384500    307.06302   -1431.4069    471.26092    414.62938   -385.05551    38760.619 
  384600    302.34115   -1483.4202     440.5272    310.74171   -669.25003    38760.619 
  384700    294.46358   -1447.1322    458.35624    329.58952    -543.0978    38760.619 
  384800    299.40907     -1482.49    444.39664    302.41397   -336.44569    38760.619 
  384900    306.54909   -1449.7911    463.67592    386.35927   -176.36116    38760.619 
  385000    292.50186   -1493.2613    467.43582    283.75701    -114.7274    38760.619 
  385100    302.67814   -1445.8622     483.8799    393.16118    85.673361    38760.619 
  385200    293.06887   -1425.8719    458.01101    344.26022   -82.994029    38760.619 
  385300     310.3838   -1407.7726    471.11465    452.98518   -437.01738    38760.619 
  385400    293.60956   -1424.8599    466.90491    356.58686   -188.54752    38760.619 
  385500    302.08095    -1426.351    453.23821    379.35704   -330.17137    38760.619 
  385600    301.30323    -1429.657    454.51812    373.84894    83.083303    38760.619 
  385700    300.51238   -1425.6559    441.32055    361.11164   -50.246956    38760.619 
  385800    299.42953   -1465.2508    442.01254     317.3606   -363.27037    38760.619 
  385900    291.02801   -1422.8665     478.7606    358.87791    467.05806    38760.619 
  386000    296.20983   -1445.8791    449.53752    329.84215    424.86538    38760.619 
  386100    299.62447   -1458.3063    483.61789    366.78326   -266.53952    38760.619 
  386200    300.94906   -1431.1128    468.39881    384.68807   -1126.5665    38760.619 
  386300    300.93353    -1465.444    448.44537    330.33399   -188.11887    38760.619 
  386400    302.27117   -1463.8475    471.63948    361.11347   -212.43674    38760.619 
  386500    292.89274   -1447.6398    451.29099    314.98372  -0.75487357    38760.619 
  386600     287.8265   -1460.3873    477.48154    305.74432    -429.5694    38760.619 
  386700    305.87681   -1456.3164    472.21265    385.36081   -162.16438    38760.619 
  386800    291.73377   -1466.3162    456.41087    296.23832   -605.26128    38760.619 
  386900     302.2595   -1463.2472    456.18357     346.2056    447.18635    38760.619 
  387000    297.42574   -1475.6925    441.02146    296.95656    751.40933    38760.619 
  387100    297.86362   -1466.9793      471.294    337.90282     624.6783    38760.619 
  387200    291.43222   -1456.8447    474.59309    322.54194    842.46611    38760.619 
  387300    289.05105   -1483.7847    469.50983    279.85774    771.43396    38760.619 
  387400    299.25264   -1470.7703    462.87744    331.91409    543.01633    38760.619 
  387500    303.07467   -1481.8956    458.63413     333.6574    412.68967    38760.619 
  387600    297.33945   -1519.1996    446.15139    258.19308    541.18107    38760.619 
  387700    298.12885   -1467.1055    447.64353    315.31359    613.05469    38760.619 
  387800     297.0026   -1474.6428    479.03823    334.12856   -312.31285    38760.619 
  387900    299.83009   -1499.8031    428.10547    270.69472   -28.872436    38760.619 
  388000    301.08137   -1433.2612    462.08995    376.82321   -146.05117    38760.619 
  388100    296.49385    -1420.649    444.82687    351.63325   -713.54993    38760.619 
  388200    306.11941   -1468.5987    463.52249     365.4745   -350.93302    38760.619 
  388300    297.88289    -1428.948    457.55976    362.28605   -403.76509    38760.619 
  388400    299.31104   -1486.0159    458.25249    312.30503   -1025.7066    38760.619 
  388500     298.3961   -1451.8973    477.38736    361.46216   -299.11412    38760.619 
  388600    295.66053   -1471.4276    468.91628    321.21308   -556.99766    38760.619 
  388700    302.16284   -1457.8413    450.89026     345.8854   -6.9277007    38760.619 
  388800    291.26659   -1487.5508    465.00063    281.50186    281.61866    38760.619 
  388900    297.07375    -1459.228    475.59329    346.41695    622.19996    38760.619 
  389000    294.81214   -1531.8068    459.05589    247.17514    702.07659    38760.619 
  389100    307.49583   -1472.3211    472.47093    376.86298    834.69728    38760.619 
  389200    297.26759   -1483.8533    465.81882    312.88508   -487.40567    38760.619 
  389300    301.77589   -1494.8431    466.18925    322.45016    52.561403    38760.619 
  389400    295.55917   -1480.2574    474.51912    317.53236   -47.889383    38760.619 
  389500    302.39261   -1520.5667    447.51089    280.80935   -417.10788    38760.619 
  389600    291.08028   -1490.2214    458.16518     271.1616   -241.81484    38760.619 
  389700      301.445   -1485.0016    455.91542    320.53638    596.06076    38760.619 
  389800    299.27166   -1495.3095    477.08671     321.6693    597.23102    38760.619 
  389900       292.61   -1514.4097    456.91337    252.57032    211.39483    38760.619 
  390000    303.38307   -1514.8333    464.66488     308.1312   -126.10918    38760.619 
  390100    298.62734   -1496.6238    461.07852    301.46206   -220.18342    38760.619 
  390200     298.6701   -1468.1044    462.93501    332.02939   -371.18755    38760.619 
  390300    298.10957   -1436.7757    482.86005    380.77352   -898.43374    38760.619 
  390400    306.67136   -1437.4112    454.91613    390.52678    -482.5075    38760.619 
  390500    301.23318   -1462.0307    452.92958    339.57309   -371.46614    38760.619 
  390600    295.32481   -1452.9227    469.41111     338.7098     17.89624    38760.619 
  390700    307.60647    -1438.863    450.56995    388.91549   -84.619314    38760.619 
  390800    305.30503   -1464.4994    479.37613    381.78127   -103.45485    38760.619 
  390900    293.44451   -1456.1561    463.94293    321.58978   -48.397369    38760.619 
  391000    299.52197   -1443.9129    455.61745    352.71731    138.82901    38760.619 
  391100    298.72584   -1447.2085    480.22153    370.46137    413.17716    38760.619 
  391200    300.89966   -1495.6641     441.3272    292.84404    704.29423    38760.619 
  391300    304.62604   -1493.8084    507.37158    377.42777    1117.1253    38760.619 
  391400    303.71521   -1478.3431    461.11169    342.55525     841.6972    38760.619 
  391500    298.46954   -1493.0437    453.03155    296.28877    588.93846    38760.619 
  391600    289.97797   -1455.3896     488.2854    331.17841    15.012857    38760.619 
  391700    310.18884   -1497.5339    452.38069    343.61709   -247.22941    38760.619 
  391800    312.16156   -1499.8231    445.09378    342.87312   -367.86576    38760.619 
  391900    304.03872   -1501.3272    462.91038    322.81825   -332.28085    38760.619 
  392000    301.41638   -1460.3116    461.13024    350.31304   -485.00421    38760.619 
  392100    308.47885   -1482.1657    457.66016    356.60877   -136.37992    38760.619 
  392200    298.75616   -1521.5987    456.37668    272.36214   -250.20694    38760.619 
  392300    300.68886   -1475.9868    464.34496    334.59527    300.35265    38760.619 
  392400      300.712   -1501.3488    463.70784    308.69981    81.351581    38760.619 
  392500    298.81637   -1523.4499    443.71408    258.11789    442.82128    38760.619 
  392600    299.83618   -1573.1196    453.52384    222.82375    477.50814    38760.619 
  392700    301.70448   -1474.2248      494.113    370.67247     482.6312    38760.619 
  392800    317.15055   -1479.4068    449.32243    389.85473    555.41168    38760.619 
  392900    299.62891    -1470.643    473.45908    344.30769     266.4962    38760.619 
  393000    302.09145   -1473.0598    450.75527    330.21228   -329.00225    38760.619 
  393100    311.53046   -1476.4846    466.54839    384.84069    179.09681    38760.619 
  393200    313.85834   -1468.0568    464.92569    402.06812    401.89524    38760.619 
  393300    295.36468   -1535.2466    474.22786    261.38107    343.77085    38760.619 
  393400    305.41503   -1513.4236    446.56176    300.53522    322.28475    38760.619 
  393500    308.12488   -1444.7743    469.41791    404.17317    229.56851    38760.619 
  393600    290.60079   -1498.3791    420.35086    223.04285   -237.27054    38760.619 
  393700    299.22144    -1512.549    436.27762    263.39585   -298.55752    38760.619 
  393800    307.36519   -1499.9179    468.52992    344.74031    157.06276    38760.619 
  393900     297.5939   -1547.4556    477.06275    261.98762    73.368559    38760.619 
  394000     307.3336   -1529.3779    466.15681    312.76581    -167.0459    38760.619 
  394100    296.46144   -1503.0967    453.20791    277.42141   -397.38231    38760.619 
  394200    303.35469   -1536.2296    449.16284    271.10576   -42.119461    38760.619 
  394300    301.02498   -1524.1858    465.92931    289.48552   -12.130438    38760.619 
  394400    299.56597    -1514.336    456.58184    283.45562   -373.71143    38760.619 
  394500    306.45425   -1516.2172    443.62752    299.46011   -277.42577    38760.619 
  394600    308.43757   -1551.6046    472.92607    302.25091    317.57454    38760.619 
  394700    295.19586   -1547.8064    429.66288    203.50047   -171.21283    38760.619 
  394800    301.84393   -1520.2747    472.09639    303.23025     162.7089    38760.619 
  394900     301.1078   -1497.2622    481.67639    332.52704    287.98487    38760.619 
  395000    293.76737   -1538.3701    468.68589    245.56418    228.05588    38760.619 
  395100    291.38804   -1543.3703     457.3046       218.53    221.45101    38760.619 
  395200    301.10001   -1497.6893    480.37465    330.76332   -139.68982    38760.619 
  395300    293.17465   -1453.9591    471.52978    330.16541    82.239437    38760.619 
  395400    293.10517    -1467.274    461.54224    306.55188   -261.97161    38760.619 
  395500    307.36698   -1469.2185    448.57299    355.49079    178.97156    38760.619 
  395600    304.99467   -1459.4486    489.63237     395.6988    25.800802    38760.619 
  395700    294.69662    -1515.353    452.77331     256.8291   -181.56745    38760.619 
  395800    305.04509   -1533.1395    445.13946     277.7407   -48.989025    38760.619 
  395900    303.20316   -1454.8177    472.37283    375.04927    363.15388    38760.619 
  396000     297.7309   -1450.9601    465.03064     347.0644     116.4297    38760.619 
  396100    293.54138   -1403.5693    460.99582    371.66314   -40.595181    38760.619 
  396200    290.79329   -1438.8134    473.75333    336.87281    68.936623    38760.619 
  396300    297.82003   -1482.5417    469.15836     320.0095   -562.33401    38760.619 
  396400    300.12248   -1438.9656    459.30891    364.04467   -162.73512    38760.619 
  396500    300.67287   -1438.0367     431.0018    339.13067   -204.86534    38760.619 
  396600    305.14356   -1460.7943    511.96177    417.34905    322.08405    38760.619 
  396700    297.56552   -1471.0913    452.36189    313.52405    397.22581    38760.619 
  396800    301.39275   -1511.2439    440.82476    278.96952     602.7145    38760.619 
  396900    303.56136   -1502.8091    461.72726    318.01598    406.77892    38760.619 
  397000    303.75007    -1470.729     452.5108    341.72453    647.03916    38760.619 
  397100    290.57084   -1528.8357    440.14779    212.24907    340.47276    38760.619 
  397200    299.80063   -1529.3773    450.00892    262.89199    67.621377    38760.619 
  397300    300.71263   -1507.2823    452.97559    292.03686   -26.420571    38760.619 
  397400    292.01326   -1496.2105    456.26395    267.44842   -453.37578    38760.619 
  397500    290.65525   -1516.1319    455.80544     240.9884   -79.143693    38760.619 
  397600    306.94981   -1504.2463    470.05263     340.0749   -1.5306127    38760.619 
  397700    297.68723   -1522.9364    463.83161     273.6935    69.539204    38760.619 
  397800    299.07372   -1563.8845    430.35569     205.4771    258.49843    38760.619 
  397900    298.29682   -1533.8312    478.92333    280.61972    136.99095    38760.619 
  398000    294.20973   -1497.9113    455.47872    274.79635   -105.28155    38760.619 
  398100    309.74379   -1501.8939    435.61676    320.50051   -116.42568    38760.619 
  398200      296.682   -1488.3604    462.07913    302.01645    151.94503    38760.619 
  398300    302.79945   -1484.8641    466.72141    337.54391    114.59761    38760.619 
  398400    290.09232    -1471.395    477.53905    304.93866     207.7472    38760.619 
  398500    287.63053   -1451.0625    482.27865    318.98882   -53.390529    38760.619 
  398600    302.59298   -1437.0008    485.71466    403.47614    -108.1905    38760.619 
  398700    300.77596   -1472.4029    437.92336    312.14754   -375.39032    38760.619 
  398800    303.39866   -1429.0118    452.33137    381.68896     56.89788    38760.619 
  398900     292.3431   -1468.4558    476.27351    316.68948   -47.159985    38760.619 
  399000    294.81495   -1470.7483    434.55795    283.74824   -447.55242    38760.619 
  399100    301.46543   -1447.1456     422.5838    325.15219   -82.756406    38760.619 
  399200    299.34924   -1434.3115    484.69465    390.62258   -34.720184    38760.619 
  399300     304.7992   -1437.1923    475.04639    402.49395    267.74364    38760.619 
  399400    292.06933   -1453.7795    449.76632    303.63281   -13.782333    38760.619 
  399500    305.50151   -1429.4974    475.12786    413.41466   -432.60874    38760.619 
  399600    290.17575    -1422.425    466.79557    343.53864   -234.34126    38760.619 
  399700     298.4822   -1448.2259    465.95831    354.08994   -279.24388    38760.619 
  399800     297.2788   -1489.8008    458.93567    300.10454   -262.44839    38760.619 
  399900    308.76466   -1438.3461    462.57606    406.62393    -258.4717    38760.619 
  400000    295.09663   -1454.3785    419.23973      286.061   -366.61931    38760.619 
  400100     302.4699   -1464.8143    477.94754    367.34438    402.03045    38760.619 
  400200    307.92563    -1464.903    462.79526    376.52973    640.79354    38760.619 
  400300    294.76786   -1486.2866     451.6844    285.12561    66.844395    38760.619 
  400400    310.10631   -1477.2849    444.75047    355.86637   -58.524308    38760.619 
  400500    294.49583   -1492.9855    440.38272    265.90711    51.548331    38760.619 
  400600    298.39987   -1459.4676    440.35189    316.87325    414.47832    38760.619 
  400700    294.82202   -1469.4637    432.57847    283.08507    116.37115    38760.619 
  400800    312.17557   -1500.4368    462.95365    360.18207    297.36349    38760.619 
  400900    289.66082   -1502.5578    461.30701     255.6119    154.39886    38760.619 
  401000    303.85715   -1469.7159    451.12583    341.83209    245.11975    38760.619 
  401100    304.17199   -1488.2341    424.79975     298.3974   -45.201517    38760.619 
  401200    302.67657   -1458.9127    451.12415    347.34792   -279.26222    38760.619 
  401300    298.84016    -1497.245    459.68927    300.40446   -564.97365    38760.619 
  401400    296.23127   -1493.9854    458.04648    290.34078   -369.26642    38760.619 
  401500    292.39935   -1435.9675    429.28062    302.43663   -460.47166    38760.619 
  401600    296.78104    -1423.288     494.6494    400.10256   -212.73769    38760.619 
  401700     296.0211   -1488.6767    434.08157    270.74364    217.97714    38760.619 
  401800    286.43142    -1452.816    473.49563     303.0837     125.3382    38760.619 
  401900    295.90779   -1488.0907     430.6379    267.37864    590.82587    38760.619 
  402000    299.74772   -1486.5238     452.0423    307.54197    659.46289    38760.619 
  402100     308.3034   -1481.5901     456.0266    354.76528    385.87005    38760.619 
  402200    294.43887   -1464.7558    457.69185    311.19095   -200.74711    38760.619 
  402300    303.19077   -1463.5291    454.17591    348.08548   -47.673734    38760.619 
  402400     295.7279   -1509.0442    443.06222    258.04403   -278.79501    38760.619 
  402500    305.69225    -1471.473    439.80868    336.97395    365.09749    38760.619 
  402600    299.23943    -1466.404     489.3051    362.64887   -12.557106    38760.619 
  402700    304.54903   -1484.2194    441.22621    320.52666    -63.63733    38760.619 
  402800    309.40603   -1445.2802    435.77152    375.75682   -57.207124    38760.619 
  402900    301.11219   -1467.6899    433.59426    314.03685    50.488944    38760.619 
  403000    298.53075   -1490.4649    453.23704    299.34703    108.75885    38760.619 
  403100    308.37832   -1495.1367    453.11011    338.63762    846.26591    38760.619 
  403200     304.3431   -1458.8195    436.31046    340.08876    30.031446    38760.619 
  403300    304.19854   -1526.9042     439.3852    274.43163    509.70593    38760.619 
  403400    296.28473    -1506.358    454.94686    275.10792    174.80749    38760.619 
  403500    301.16746   -1528.9188    429.65974    249.12086    510.98535    38760.619 
  403600    308.21036   -1499.7444    438.67548     318.8433    466.29941    38760.619 
  403700    305.00101   -1552.2182    449.97059     263.2958    1448.8994    38760.619 
  403800    301.32229   -1497.6123    458.61281    310.07367    653.14266    38760.619 
  403900       289.84   -1504.7909    440.17465    233.04871     113.7491    38760.619 
  404000    297.80125   -1484.4866    444.61605    293.43825    265.49051    38760.619 
  404100    290.31584   -1499.3431    446.20205     246.6542    288.10218    38760.619 
  404200    303.22482   -1493.0712    449.19083    313.71071    543.84399    38760.619 
  404300     294.3231   -1505.2805    439.29013    251.74613    445.26779    38760.619 
  404400       300.68   -1467.3334    449.29995      328.164    154.45943    38760.619 
  404500    288.58572   -1528.8131    448.73356    211.96972    171.79492    38760.619 
  404600    309.28806    -1524.209     451.0697    311.59802    216.79752    38760.619 
  404700    298.94152   -1524.1666    456.09308    270.34048    114.16362    38760.619 
  404800    293.63973   -1519.8997    437.98942    232.76667    212.11735    38760.619 
  404900    299.24423   -1526.1292    416.71854    230.35866    315.02519    38760.619 
  405000    288.87316   -1498.5385    432.64227    227.43999    114.82757    38760.619 
  405100    306.40447   -1489.2537    445.87707    328.45029    385.91955    38760.619 
  405200    300.69121   -1460.9678    424.53772    309.81765   -207.63218    38760.619 
  405300    292.97593   -1486.1055    433.63687    259.23639   -119.94808    38760.619 
  405400    288.91881   -1445.9097    455.64931    303.28017   -229.34661    38760.619 
  405500    296.81624   -1449.0846    452.98659    332.80074    114.87874    38760.619 
  405600    296.80634   -1460.6792    417.14232    285.31758   -154.86045    38760.619 
  405700     292.4676   -1461.6573      418.606    266.37781   -108.17563    38760.619 
  405800     296.2619   -1447.3774    423.68649    302.72593   -364.79457    38760.619 
  405900    303.20116    -1469.153    432.19593    320.52808    124.77168    38760.619 
  406000     296.8179   -1466.9854    446.08965    308.01039    301.21945    38760.619 
  406100    293.24349   -1463.2616    431.48107    281.12237    811.86533    38760.619 
  406200    293.45282   -1416.1182    472.50696    370.22887    375.28993    38760.619 
  406300    301.37356   -1437.8847    472.76657    384.18449   -254.05614    38760.619 
  406400    307.46563   -1447.4117    439.02142    368.18771   -7.4864718    38760.619 
  406500    297.96614   -1461.8258      444.252    316.47332    74.806221    38760.619 
  406600     300.0462    -1517.347    425.03468    251.04751    273.46157    38760.619 
  406700    303.82229   -1510.5699    482.10638    331.80254   -644.81617    38760.619 
  406800    299.90912   -1459.9615     457.9015    340.68609   -147.51233    38760.619 
  406900    305.11747   -1432.3315     455.7486     389.4819    123.49796    38760.619 
  407000    310.01383   -1430.8185    447.41947    404.58763   -39.796482    38760.619 
  407100    307.59125   -1450.9591    471.28012    397.46136    197.70669    38760.619 
  407200    309.10345   -1438.9251    428.82522    373.81087   -114.04941    38760.619 
  407300    301.09317   -1476.9599    468.69676     339.7842   -493.35666    38760.619 
  407400    305.46735   -1457.3583    425.11347    335.38644   -418.40839    38760.619 
  407500    293.76957   -1497.3997    439.12684    256.98537   -422.79748    38760.619 
  407600    302.74644   -1493.2702    450.31671    312.49582   -636.17654    38760.619 
  407700     308.5563   -1491.9558    448.05738    337.56268   -288.90443    38760.619 
  407800    300.21012   -1515.7104    469.91829    298.30167   -376.53994    38760.619 
  407900    301.44409   -1508.6536    420.07041    261.03522   -467.16723    38760.619 
  408000    298.71298   -1470.5205    446.38109    313.25142   -729.16275    38760.619 
  408100    305.11618   -1509.7692    452.38479    308.67463   -331.13028    38760.619 
  408200    295.35112   -1470.5992    455.09042    306.83039    4.7346976    38760.619 
  408300     296.2941    -1512.205     425.9524    240.30843     351.2593    38760.619 
  408400    301.59131   -1467.1726    459.89262    342.99758    755.23644    38760.619 
  408500    304.06111   -1469.9313    454.62951    346.03354     149.1798    38760.619 
  408600    296.99372   -1471.9717    422.19472    279.91636   -70.443377    38760.619 
  408700    303.77398   -1457.8491    461.97483    364.17545   -117.31235    38760.619 
  408800    303.55581   -1508.3151    420.46922    271.22706    -631.1486    38760.619 
  408900    300.79959   -1487.2153    442.64861    302.16616   -351.01866    38760.619 
  409000     286.6319   -1539.0786    453.01345    197.23651    -231.2635    38760.619 
  409100    299.55638   -1516.3161    465.47046    290.32122   -655.49269    38760.619 
  409200    285.58763   -1499.5646    438.92721    217.98884   -414.93551    38760.619 
  409300    309.73102   -1461.1089    445.63845    371.25004   -16.439257    38760.619 
  409400    299.17757   -1523.5001     444.8842    260.85497      146.495    38760.619 
  409500    291.14739   -1559.9804    445.79989     189.3378    151.01656    38760.619 
  409600    300.04487   -1512.1199    447.55848    278.79249  -0.53919376    38760.619 
  409700     305.7056   -1459.6413    483.30566    392.36238    74.236774    38760.619 
  409800    308.40897   -1485.8529     439.9601    334.90867   -316.32315    38760.619 
  409900    300.31941   -1470.8259    457.91136     331.6685    163.82674    38760.619 
  410000    299.85253   -1449.3491    483.92616    377.06982   -87.103894    38760.619 
  410100    295.63862   -1422.1964    467.51674    368.94663   -395.67838    38760.619 
  410200    301.50525   -1426.6861     472.7154    395.92157   -270.87256    38760.619 
  410300    294.59132   -1407.5275    423.23694    334.64688   -369.89446    38760.619 
  410400    301.45553   -1428.3601    489.05056    410.36013     318.7193    38760.619 
  410500    291.97313    -1416.937    477.02333    367.30161    210.85324    38760.619 
  410600    290.77958   -1360.4434    496.56573    437.99383    338.03342    38760.619 
  410700    287.94059   -1416.8071    460.74569     333.0995   -33.730636    38760.619 
  410800    303.00145   -1402.1955    476.47738    430.87291    140.27195    38760.619 
  410900    299.76648    -1427.242    459.26761    374.13313    -113.8181    38760.619 
  411000    306.94243   -1461.5673    457.95657    370.62477    120.82713    38760.619 
  411100    289.75009   -1446.9031    479.60166    329.96096    180.50305    38760.619 
  411200    288.78624   -1431.4839     455.4477    316.91082   -122.81588    38760.619 
  411300    294.41335   -1443.0503    427.93972    303.03006    229.77211    38760.619 
  411400    299.13683   -1476.0693    466.61174    329.83084    765.12746    38760.619 
  411500    307.01821   -1479.8573    464.60802    359.32547    477.26082    38760.619 
  411600     290.5003   -1513.2629    434.74874    222.10704    120.60178    38760.619 
  411700    300.96093   -1500.1038    442.87057    290.22204    107.56324    38760.619 
  411800    299.96976   -1496.1721    468.95816    315.80369   -421.58811    38760.619 
  411900    301.25353   -1499.2282    422.19863    271.73572   -338.93704    38760.619 
  412000    311.37938   -1513.4989     451.5946    332.19625     78.20974    38760.619 
  412100    294.02537   -1524.3451    434.17608    226.23455    355.02325    38760.619 
  412200    289.65321   -1509.5946    472.11832    259.35226    675.53892    38760.619 
  412300    307.37677   -1483.6575    480.42321    372.94585    903.79507    38760.619 
  412400     286.8937   -1456.6935    479.49524    307.27549    27.514622    38760.619 
  412500    308.04336   -1479.2285    440.29927    340.23535   -81.528831    38760.619 
  412600     294.8452   -1448.3326    437.84699    309.58844   -333.00743    38760.619 
  412700    295.75036    -1450.641    468.43885    341.92444    -234.7586    38760.619 
  412800    308.77275   -1462.3909    436.21722    356.25645    227.34421    38760.619 
  412900    303.20498   -1414.7419    480.66429    423.42464   -38.308651    38760.619 
  413000    302.83591    -1434.698    490.21332    411.36523    151.28589    38760.619 
  413100    295.84519   -1407.9112    477.78608     394.4261   -5.0498113    38760.619 
  413200    296.81698   -1401.0682    489.36615    417.20003   -453.54047    38760.619 
  413300    294.56125   -1446.7272    453.61751    325.69308   -91.065052    38760.619 
  413400    306.41214   -1474.9161    492.67914    389.62438    353.93561    38760.619 
  413500    303.46035   -1471.8165    454.54609    341.37517    21.115358    38760.619 
  413600    294.83279   -1520.6309    445.99496     245.3826   -17.279041    38760.619 
  413700    303.57245     -1492.18    466.27322     333.2407    650.67311    38760.619 
  413800    308.84739   -1470.8766    443.57382    355.46151    264.44914    38760.619 
  413900    291.88541   -1514.8858    470.47397    262.41067    652.25331    38760.619 
  414000    294.16858    -1527.069    450.43186    240.40763    413.17929    38760.619 
  414100    294.56515   -1504.1793    494.59623    309.23719    515.67905    38760.619 
  414200    302.40433   -1489.9695    466.06638    330.01448    371.88756    38760.619 
  414300    301.56216   -1476.4742    473.18822    346.86113   -92.225555    38760.619 
  414400    299.91213    -1445.707     476.5037    373.55627    7.2943803    38760.619 
  414500    303.14648   -1488.3009    461.50049       330.44    480.31255    38760.619 
  414600    297.80766   -1479.4615    474.81547    328.69147   -29.102483    38760.619 
  414700    300.31606   -1457.2217    467.21507    354.56145    67.366913    38760.619 
  414800    298.05297   -1478.3313     483.3798    339.48429   -7.2956368    38760.619 
  414900    294.64364   -1486.1542    485.75755    318.77504   -699.73852    38760.619 
  415000    290.39519   -1479.7723    468.44008     288.8183   -293.65974    38760.619 
  415100     298.4426   -1455.8848    467.27233    347.56783   -411.32521    38760.619 
  415200    306.23253   -1457.4994    466.99399     380.5517   -352.57533    38760.619 
  415300    299.80231   -1470.3707    475.73382    347.63108   -98.824822    38760.619 
  415400    298.89205   -1512.7476    451.55698    277.00191   -99.789179    38760.619 
  415500    298.56498   -1517.2788    487.72921    307.17857    105.16398    38760.619 
  415600    293.63132   -1518.7564    469.82233    265.70518    39.486918    38760.619 
  415700    298.01163   -1522.9446    469.60121    280.90738    290.83297    38760.619 
  415800    307.35344   -1516.3776    462.25942    321.95753    325.09067    38760.619 
  415900    292.65109   -1468.8141    460.42712    301.86368    743.76195    38760.619 
  416000    302.06969   -1516.9537    505.00366    340.46928    676.14099    38760.619 
  416100    317.02933   -1465.2866    465.44371    419.55345    583.66632    38760.619 
  416200    302.54252   -1476.6672    499.51272    377.38189    432.73381    38760.619 
  416300    303.41376   -1501.9473    473.21747    329.70721    295.23363    38760.619 
  416400    297.97561    -1489.976    466.29465    310.40808    165.99831    38760.619 
  416500    294.68681   -1514.1117    477.50891    282.76214   -214.28172    38760.619 
  416600    298.51528   -1477.4184    476.46065    335.54794   -264.68659    38760.619 
  416700    291.24758   -1442.1639    479.17884    340.98184   -188.95272    38760.619 
  416800    310.48575    -1507.664    460.08031    342.51587   -409.48541    38760.619 
  416900    305.86633   -1476.9114     471.9738    364.48005    250.87152    38760.619 
  417000    297.28841   -1476.1371     484.9236    339.79921     -121.717    38760.619 
  417100     302.8136   -1425.5057    453.73832     383.9826   -285.67201    38760.619 
  417200    290.95799   -1464.2388    475.86366     314.2952   -309.20626    38760.619 
  417300    302.23927   -1481.8473     472.7328    344.06415   -175.55609    38760.619 
  417400     295.0798   -1462.1385    483.51247    342.49842    169.96451    38760.619 
  417500    296.51721   -1482.1629    456.29381    301.69082   -185.40195    38760.619 
  417600    294.57408   -1494.1046     458.1504    282.90598   -163.72683    38760.619 
  417700    310.80538   -1542.2963    480.21613    329.45041   -84.089433    38760.619 
  417800    303.32491   -1543.2385    451.07025    265.87094    230.07811    38760.619 
  417900    298.22683    -1534.254    492.86073    293.82097    199.79509    38760.619 
  418000    300.13275   -1559.6871    445.59284    229.65313   -431.14541    38760.619 
  418100    289.84549    -1537.228    452.36234    212.82384   -86.035262    38760.619 
  418200    317.77616   -1463.8729    495.93265    454.79977    -114.3699    38760.619 
  418300    302.13775   -1507.1485    466.90847    312.48401    -208.0939    38760.619 
  418400    306.82809   -1484.3209    482.12147    371.52412   -89.556663    38760.619 
  418500     309.7103   -1495.6132    476.45609     367.4706    248.73309    38760.619 
  418600    291.85745   -1480.8061    483.80635    309.69769   -117.70875    38760.619 
  418700    306.39957   -1493.3356    488.70183    367.17128    156.86986    38760.619 
  418800    290.87121   -1528.0437    477.86481    252.10289    762.71961    38760.619 
  418900     314.1375   -1543.9929    477.20897    339.66523    927.09423    38760.619 
  419000     290.4329   -1520.3236    470.15134    250.14715    867.70485    38760.619 
  419100    299.33682    -1516.165    496.53137    320.55024    640.74932    38760.619 
  419200    292.74907   -1568.0406    453.87766    196.52643    373.06889    38760.619 
  419300    294.11696   -1533.0841    448.95377    232.68328    255.54231    38760.619 
  419400    299.17317   -1552.1132    482.60728    269.94518    589.09519    38760.619 
  419500    307.10695   -1516.4381    476.53052    335.06452    170.00534    38760.619 
  419600     297.0268   -1527.7271    495.16102    297.27541    312.36937    38760.619 
  419700     290.9306   -1554.7631    437.24784    185.03248    270.67336    38760.619 
  419800    300.10475   -1548.9254    466.41342    261.10998    211.99659    38760.619 
  419900    306.86284   -1540.6811    463.21611    296.41417   -31.227274    38760.619 
  420000    289.14807   -1523.6726    469.54915    240.44359    151.32134    38760.619 
  420100    308.42046   -1460.3409    483.89554    404.40757    309.82672    38760.619 
  420200    292.67282   -1478.2024    493.30847    325.45402    27.646783    38760.619 
  420300    294.79463   -1504.1428    480.86839    296.57324   -50.904685    38760.619 
  420400    301.83278   -1488.2944    484.37604    347.44033    91.517537    38760.619 
  420500    308.70909   -1480.1026    485.17553     387.2181   -360.59213    38760.619 
  420600    293.79013   -1495.5074    468.08027    287.92318    215.93176    38760.619 
  420700    295.48318   -1490.3421    450.23845    282.82682   -91.502852    38760.619 
  420800    295.67614   -1474.7084    469.62544    318.71138    891.01888    38760.619 
  420900    297.21398    -1505.269    481.83519    307.24576    234.89147    38760.619 
  421000    293.49409   -1467.9091    482.58469    328.70043    359.62777    38760.619 
  421100    309.02668   -1498.1653    485.74848    371.15021    249.18101    38760.619 
  421200    290.56095   -1491.6972    462.89122    272.08675    240.71607    38760.619 
  421300     301.0731   -1495.2139    482.39129    335.13484   -14.207556    38760.619 
  421400    302.17677   -1491.9924    495.16535    356.07173    443.31382    38760.619 
  421500    287.61776    -1510.318    490.06092    267.45844    222.40789    38760.619 
  421600    292.72424   -1510.9025    504.18383    303.85944    159.82288    38760.619 
  421700    295.20668   -1498.2758    448.52444    271.94107    115.45505    38760.619 
  421800    296.84608   -1496.2785    492.80869    325.56252   -115.48005    38760.619 
  421900    302.12713   -1514.6123    467.59626    305.66051    240.53363    38760.619 
  422000    305.68913   -1469.0856    480.94315    380.48182    108.32243    38760.619 
  422100     288.1762   -1478.4612    482.22954    293.98409    165.41286    38760.619 
  422200    298.84923   -1525.3206    474.80349    287.48371    113.31059    38760.619 
  422300    302.67414   -1506.8834    482.90162    331.14386    -71.96659    38760.619 
  422400     291.9464   -1516.6973    481.66908    272.06743    69.295071    38760.619 
  422500    300.56512   -1500.1176    484.35169    329.91721   -419.73044    38760.619 
  422600    291.50861   -1567.3146    477.56847     215.3894   -86.291931    38760.619 
  422700    292.13917   -1541.9278    486.38153    252.41236   -260.70863    38760.619 
  422800    298.71959   -1507.8292    469.43478    299.02595   -168.44981    38760.619 
  422900    300.56776   -1479.8456    494.89466    360.74402   -37.788099    38760.619 
  423000    291.15692   -1486.2228    496.17847     313.5166      494.598    38760.619 
  423100    291.15658   -1501.2716    486.87216    289.16005    317.88396    38760.619 
  423200    301.96659   -1493.6805    484.42152    342.69883    748.77114    38760.619 
  423300    293.50942   -1477.1471    496.69217    333.63856    470.44875    38760.619 
  423400    293.78349   -1444.4955    460.32663    331.15178    101.49166    38760.619 
  423500    299.69764   -1502.2372    501.70314    341.26528   -32.859383    38760.619 
  423600    298.34546   -1489.0392    490.71063     337.4168     20.33207    38760.619 
  423700    298.03107   -1493.4442    477.28366    318.17724    157.06123    38760.619 
  423800    298.21773   -1492.7046    482.81894    325.28787   -394.31905    38760.619 
  423900    303.26834   -1487.3997    498.19927    368.58557   -383.81804    38760.619 
  424000    308.87089   -1467.0956    496.28746     412.0614    14.565747    38760.619 
  424100    302.27605   -1527.7929    487.82164    313.37201   -75.686773    38760.619 
  424200    305.70273   -1499.0521    485.12883    354.76181   -426.98613    38760.619 
  424300    307.50419   -1506.2539    470.49573    340.99246    -723.5745    38760.619 
  424400    294.77014   -1527.8037    476.37143    268.30575    -142.5125    38760.619 
  424500    295.80803    -1509.466    495.46924    310.38802   -297.73966    38760.619 
  424600    307.46481   -1519.9765    496.70301    353.30084     183.7331    38760.619 
  424700    302.92013   -1508.0017     490.2244    338.44969   -302.61935    38760.619 
  424800    293.53775   -1563.8676    470.45176     220.8045    123.08624    38760.619 
  424900     299.4367   -1552.2199    459.61115    248.02231   -87.919522    38760.619 
  425000    295.43056   -1534.3656    511.58816    299.91734   -544.15808    38760.619 
  425100    304.24668    -1535.336    483.92531    310.75542   -680.91331    38760.619 
  425200    302.46183   -1527.1801    451.87656    278.87154   -100.54438    38760.619 
  425300    296.93672   -1536.4975      484.217    277.15767   -179.24552    38760.619 
  425400    300.33246   -1574.3556    490.50829    260.79412    306.81144    38760.619 
  425500     316.0571   -1564.6261    454.87902    305.29644    136.60337    38760.619 
  425600    298.42231   -1576.0766    500.66487     260.6777    411.87057    38760.619 
  425700    291.03686    -1523.203    483.78058      263.601    480.24032    38760.619 
  425800    307.04211   -1529.2744    500.28582    345.69317    802.09749    38760.619 
  425900    298.10436   -1556.5718     484.5921    262.68623    843.21401    38760.619 
  426000    296.53841   -1558.6751    466.05261    235.03233    331.40336    38760.619 
  426100     298.5178    -1552.235    499.52921    283.81117    326.50159    38760.619 
  426200    306.65136   -1542.4703    499.83018    330.29223    609.05419    38760.619 
  426300    301.49462   -1552.9041    499.81492    296.75555    511.05005    38760.619 
  426400    299.96521   -1569.2655    462.74338    236.47511    316.01051    38760.619 
  426500    288.71011   -1541.1599    476.99672    228.44295     158.6716    38760.619 
  426600    300.10744   -1493.8924     471.2283     320.9699     130.5497    38760.619 
  426700    297.28378   -1516.3964    479.73048     294.3261   -56.400048    38760.619 
  426800    299.56935   -1523.2728    473.69031    291.64242    282.27685    38760.619 
  426900    300.13856   -1541.9128    486.24196    288.10251    115.42409    38760.619 
  427000    307.28079   -1541.6073    485.73992    319.88301    690.43592    38760.619 
  427100    300.64457   -1526.8868    509.14187    328.29391    832.40557    38760.619 
  427200    295.59092    -1467.617    483.57258    339.36839      931.292    38760.619 
  427300    302.10703   -1496.4682    492.43038    348.54875     617.7097    38760.619 
  427400    298.00373   -1479.4015    468.40798    323.22185    508.90772    38760.619 
  427500    299.04836   -1500.0025    500.62374     339.5136    648.95059    38760.619 
  427600    303.02437   -1525.9618     456.8307    287.56254    386.56024    38760.619 
  427700    297.68366   -1515.6304    467.50605    284.65803    293.93909    38760.619 
  427800    311.76537   -1561.9519    469.06477    302.94154    421.40929    38760.619 
  427900    296.23763   -1517.5311     451.9514    260.72854   -219.27435    38760.619 
  428000    306.13122   -1493.2994    466.91835    344.22248    295.48435    38760.619 
  428100    297.42437   -1539.7662    454.21374    246.06897   -267.76631    38760.619 
  428200    297.65164   -1506.4825    473.12872     299.2852   -305.31464    38760.619 
  428300    302.06758   -1533.5669    486.20702    305.05007   -457.98975    38760.619 
  428400    296.03499   -1513.5276    470.03946    281.91286   -560.41304    38760.619 
  428500    304.39978   -1518.0426    468.51114    313.32013   -34.371984    38760.619 
  428600    306.40858   -1530.2385    476.85454    318.46146    -312.9829    38760.619 
  428700    293.32967    -1496.106    499.92243    317.10519   -863.49802    38760.619 
  428800    310.57152   -1473.9331    463.78882    380.33924    -633.1915    38760.619 
  428900    299.57184   -1463.7577    453.51636     330.9947   -742.06483    38760.619 
  429000    307.99755    -1485.579    491.18635    384.56682   -790.96545    38760.619 
  429100    296.31021   -1460.0546    471.60089    338.17943   -397.94077    38760.619 
  429200    297.15876   -1514.4006    473.01446    289.04617   -512.87439    38760.619 
  429300    300.58154   -1497.3715    475.15817    323.54337   -470.47879    38760.619 
  429400    290.21798   -1469.4882    476.11793    305.98693    399.11572    38760.619 
  429500    302.11534   -1494.7209    504.00343    361.90626     1041.576    38760.619 
  429600    298.38412   -1516.7485    476.01121    295.18115    447.66878    38760.619 
  429700    301.45568   -1477.3892    502.93419     375.2153    557.45895    38760.619 
  429800    295.85395   -1432.5778    514.54982    406.56238    58.535963    38760.619 
  429900    307.58298   -1475.0764    461.58836    363.61531   -58.247969    38760.619 
  430000    304.53335    -1493.055    492.68908    363.08366     649.0788    38760.619 
  430100     308.4232    -1484.882    490.48502    386.46817    914.40656    38760.619 
  430200    305.95627   -1508.0912    489.88358    351.61268   -32.733019    38760.619 
  430300    301.64962   -1471.8336    468.48832    347.19336    179.52026    38760.619 
  430400    299.57659   -1498.9169    486.25299    328.59345    516.51138    38760.619 
  430500    303.69577   -1481.9083    486.91947    364.71082    757.23376    38760.619 
  430600    286.53154   -1473.8533    477.39231    286.39134    213.14324    38760.619 
  430700    308.41715   -1463.3711    497.14901    414.61596    292.67267    38760.619 
  430800     290.7041   -1469.8184    463.35402    295.06921    220.19531    38760.619 
  430900    308.59845   -1478.6024     525.2869    428.33429    187.02898    38760.619 
  431000    296.17469   -1430.4139    476.04642    371.65897   -357.69365    38760.619 
  431100    311.49343   -1435.8373    481.79243    440.56625   -470.62343    38760.619 
  431200    302.59715    -1499.696    470.38921    325.47409   -682.85837    38760.619 
  431300    304.07782   -1492.7431    471.35621     340.0233   -402.37167    38760.619 
  431400    299.67639   -1501.4205     454.9556    295.23926    -182.8503    38760.619 
  431500    299.70416   -1472.6709    516.95919    386.11674   -163.42086    38760.619 
  431600    287.53559   -1480.6958    469.81017    276.46202    216.38478    38760.619 
  431700    302.92555   -1453.2415    486.87291    389.88263   -113.60425    38760.619 
  431800    295.17678    -1464.627    493.03186    349.96344   -164.44473    38760.619 
  431900    298.17215   -1469.6076     461.3837    326.74551    8.9446641    38760.619 
  432000    301.25708   -1471.2141    488.36327     365.9303   -26.514097    38760.619 
  432100    307.51006   -1458.9454    495.36008    413.19158    169.00235    38760.619 
  432200    304.68965   -1470.7339    479.15423    372.56971   -49.758504    38760.619 
  432300    315.74944   -1485.3376    520.64723    448.97568    303.16335    38760.619 
  432400    284.99783   -1497.7845    452.60233    230.80352    190.97466    38760.619 
  432500    296.34437    -1464.786    488.63867    350.63881    245.28246    38760.619 
  432600    292.91304    -1459.146    474.71985    326.99724    317.88884    38760.619 
  432700    300.06496   -1478.3169    480.00989    345.13679    339.49648    38760.619 
  432800     306.2645   -1508.5185    480.08484     342.7666    187.71829    38760.619 
  432900    302.03589   -1482.0649    463.47578    333.67887   -311.79767    38760.619 
  433000    279.58317   -1448.4782    496.75456    300.01966   -291.20369    38760.619 
  433100    307.80122   -1439.3557     489.8559    428.58071    265.53059    38760.619 
  433200    311.10847   -1471.5992    505.16977    426.45812   -32.573372    38760.619 
  433300    290.77346   -1457.2584    487.72451    332.31032   -603.12921    38760.619 
  433400    303.04794   -1455.0736    479.77919    381.50479   -127.52359    38760.619 
  433500    306.99113   -1479.9377    468.55962    363.07548    6.9186166    38760.619 
  433600    301.03188   -1460.4018    484.22764    371.59878   -33.887659    38760.619 
  433700    301.51357   -1481.6539    472.68211     340.9578    257.42817    38760.619 
  433800    303.50999    -1523.641    459.34749    294.57437    22.290141    38760.619 
  433900    297.60777    -1480.981    487.69078    339.15237   -98.978302    38760.619 
  434000    292.57424   -1471.3975    489.36783    327.87684   -603.89193    38760.619 
  434100    313.08059   -1463.3778    471.86883    410.20818   -15.224396    38760.619 
  434200    303.50187   -1455.8137    485.87978    388.89764   -295.43168    38760.619 
  434300    311.01539   -1503.8095    480.80017    369.46152   -361.13847    38760.619 
  434400    284.43704   -1514.3815    483.76934    242.86277   -848.09777    38760.619 
  434500     303.9044   -1480.9995    476.63976    356.27396   -536.86385    38760.619 
  434600    296.74518   -1497.4138    491.07805    322.24486   -228.83768    38760.619 
  434700    283.52989   -1500.5075    505.91191     274.8178   -123.21483    38760.619 
  434800     310.0532   -1484.6747    494.53259    398.02087   -1.6896574    38760.619 
  434900    301.54117   -1504.5628    484.01495    329.50519   -161.64802    38760.619 
  435000    295.75565    -1516.079    498.00951    306.08085    722.89535    38760.619 
  435100    303.62767   -1515.9156    507.10743    350.58654    336.60934    38760.619 
  435200    307.34102   -1506.3025    467.39873    337.11625    140.10294    38760.619 
  435300    298.16797   -1480.8318    483.82332    337.94224   -398.84153    38760.619 
  435400    301.61531   -1502.3332    481.14834    329.20018    -326.8937    38760.619 
  435500    292.71278   -1487.8453    485.85342    308.53498    -670.0772    38760.619 
  435600    309.22619   -1532.3449    457.41964    309.53497   -503.41194    38760.619 
  435700    299.79636   -1501.9649     491.5572    331.83352   -486.31997    38760.619 
  435800    296.40837   -1514.3683     476.1673    288.87163   -913.51098    38760.619 
  435900    298.98365   -1513.7587    484.75129    309.59526   -86.674287    38760.619 
  436000    303.23415   -1507.2402    459.19179    309.58445   -10.596685    38760.619 
  436100    300.61949   -1471.5823    476.94999    351.29427    236.99687    38760.619 
  436200    303.67075   -1482.1777    498.11235    375.52225   -14.573771    38760.619 
  436300    303.39446   -1532.3357    463.09543     289.1103    27.571379    38760.619 
  436400    296.18504   -1525.5069    463.56428    264.13011    510.19912    38760.619 
  436500    299.19653    -1558.667    468.89327    249.78199    44.141052    38760.619 
  436600    295.13555    -1501.315    474.15524    294.21429    15.653789    38760.619 
  436700    295.22246   -1507.7522    475.68402    289.69495   -336.16582    38760.619 
  436800    300.02654   -1568.5108    465.10789    239.86891   -299.56321    38760.619 
  436900     306.8767    -1536.199    459.48608    297.22827    -184.2527    38760.619 
  437000    294.41984   -1525.7738    474.46674     266.8626    180.84001    38760.619 
  437100      300.299   -1479.2168    482.36126    347.63616   -262.61801    38760.619 
  437200    314.40266   -1527.5672    468.38809    348.45719    225.23817    38760.619 
  437300    291.12514    -1500.526    484.95375    287.84644   -292.83464    38760.619 
  437400    301.16275   -1516.3575    449.20092    281.20222   -441.93614    38760.619 
  437500    303.51452    -1532.004    467.56599    294.45014   -98.642043    38760.619 
  437600    300.16483   -1512.4436    451.00174    282.44918   -212.97501    38760.619 
  437700    288.94501   -1513.5969     490.1802    270.24121    152.09211    38760.619 
  437800    303.68725   -1569.7042    451.92959    241.88689    95.368292    38760.619 
  437900     300.3768   -1496.9323     450.6551    298.56279    91.520346    38760.619 
  438000    302.25781   -1548.8019    453.36722    257.82692    66.265142    38760.619 
  438100    307.50103   -1532.8075    480.86357    324.79257     406.1674    38760.619 
  438200    304.74958    -1534.846    485.28915    314.86086    163.30319    38760.619 
  438300    299.01869   -1505.5451     462.6985    295.91292   -229.43702    38760.619 
  438400    308.40959   -1570.6888    450.12402    260.23945   -111.02788    38760.619 
  438500    294.24346    -1539.282    467.19402    245.29201    237.07621    38760.619 
  438600    303.05727   -1539.0175    488.50603    306.32952   -13.963297    38760.619 
  438700    307.00387   -1522.5609    464.50915    316.45879   -25.284337    38760.619 
  438800    300.65583   -1495.7598    490.92883    341.25828    105.72857    38760.619 
  438900    301.40954    -1534.185    472.82629    288.10505    24.665703    38760.619 
  439000     299.6439   -1509.2605     485.4177    317.71587    241.85788    38760.619 
  439100    306.17874   -1512.1012    470.22719    328.94228   -197.60026    38760.619 
  439200    298.05051   -1472.1776     483.1123    345.35954    314.90769    38760.619 
  439300    296.07439   -1523.0615    476.20414    278.72003    346.57039    38760.619 
  439400     303.2156   -1493.1576    477.61525    342.00744    117.64217    38760.619 
  439500    308.81287   -1491.7413    470.27534    361.14382      146.996    38760.619 
  439600    296.00495    -1498.301     452.8397    279.80515   -95.631302    38760.619 
  439700    305.44375   -1549.8196    472.04876    289.75481    49.634855    38760.619 
  439800    296.33096   -1511.3355    460.07734     275.4679    -21.55104    38760.619 
  439900    305.21981   -1521.8494    453.09648    297.77012    -463.8595    38760.619 
  440000    302.61857   -1531.8136    454.81778    277.88099    -299.0685    38760.619 
  440100    307.76109   -1479.4445    477.10639     375.5627   -465.00667    38760.619 
  440200    296.23808   -1493.7228     448.9966    281.58401   -351.13681    38760.619 
  440300    294.99839   -1488.3257    491.04262    323.47686    -303.9635    38760.619 
  440400    296.21179   -1492.8415    458.62691    291.97789   -375.58871    38760.619 
  440500    302.63416   -1537.2979    472.04595    289.69462    515.17007    38760.619 
  440600      304.166   -1546.9301    476.51127    291.38606    125.03571    38760.619 
  440700    298.31872   -1530.0721    479.90719     285.4607     339.6081    38760.619 
  440800    290.34794   -1536.3287    491.83149    255.44185    125.92306    38760.619 
  440900    306.50498   -1521.2174    494.17396     345.2335    377.00617    38760.619 
  441000    293.16939   -1518.8301    485.20227    278.94335    484.05505    38760.619 
  441100    295.82131   -1510.3667    475.03468    289.11226    3.1180586    38760.619 
  441200    289.01191   -1530.7465    490.59477    253.80564    227.33678    38760.619 
  441300    306.47225   -1538.4657     497.0667    330.73147    112.41959    38760.619 
  441400    295.39864   -1540.8117    477.15275      258.893    946.08988    38760.619 
  441500    295.43548   -1571.7886    484.33267    235.26092    836.47929    38760.619 
  441600    298.65252   -1545.9292    481.43456    272.62543    592.98641    38760.619 
  441700    297.60815   -1493.0918    478.82243    318.17495    962.28324    38760.619 
  441800    299.43358   -1494.5598    502.87886    348.93607    832.94763    38760.619 
  441900    301.31446    -1509.546    473.30154    312.79365     344.4361    38760.619 
  442000    308.63257   -1481.1702    478.30866    378.94098    677.56683    38760.619 
  442100    305.17058   -1483.2032    474.36504    357.46439    481.43988    38760.619 
  442200     307.4047   -1505.1712    478.88497    350.01897    454.59275    38760.619 
  442300    288.76679   -1487.7988    474.43629    279.49746    70.540874    38760.619 
  442400    307.32264   -1496.6747    508.72125    387.98432    346.92486    38760.619 
  442500    312.87863   -1516.2588    457.40563    341.95976     165.3678    38760.619 
  442600    314.43398    -1534.263    468.68976    342.20328    442.19168    38760.619 
  442700    310.39966   -1529.0337    450.31708     310.9975    153.49151    38760.619 
  442800    300.06878   -1557.3238    472.76819    258.90532    173.32276    38760.619 
  442900    293.26226   -1531.8875    481.10524    262.20466   -376.19668    38760.619 
  443000    301.35164   -1556.4513    457.39253    250.14575   -215.42774    38760.619 
  443100    303.45315    -1540.671    471.43444    289.37678   -552.10705    38760.619 
  443200    304.98143   -1530.7595    488.04946    322.74577   -238.51291    38760.619 
  443300    305.66081   -1499.4456    487.28289    356.33475    -606.5922    38760.619 
  443400    299.36719   -1537.8223    489.69541     292.1929   -360.57166    38760.619 
  443500    282.50197   -1533.9583    459.45619    190.30913   -136.17092    38760.619 
  443600    303.29877   -1502.7525     478.0158    333.18554   -115.90525    38760.619 
  443700    293.99083   -1490.0393    498.72518    324.93478    206.33518    38760.619 
  443800    313.52363   -1495.6193    475.29771    383.37915    133.57298    38760.619 
  443900    300.04116   -1480.9505    475.91706    338.30392   -23.464435    38760.619 
  444000    304.14667     -1510.05    489.04263    340.71103    24.494039    38760.619 
  444100     308.1611   -1544.2202    475.42272    310.89421   -115.81615    38760.619 
  444200    286.09796   -1497.2255    485.66271    269.34831   -207.89762    38760.619 
  444300    309.10201   -1493.0046    445.94104    336.84073   -12.869845    38760.619 
  444400     297.6787   -1511.4988     462.0305    283.29188   -848.39202    38760.619 
  444500    299.72351   -1518.5516    509.48113    332.84464   -40.423733    38760.619 
  444600    293.39491   -1538.1996    459.34203    234.72325     276.3606    38760.619 
  444700    294.29223   -1524.6701     492.8091    285.73737   -82.702635    38760.619 
  444800    297.57942   -1529.1617    467.13826    270.29223   -136.94667    38760.619 
  444900    296.08119   -1502.2405    502.71141    326.07872    328.32578    38760.619 
  445000    312.70755   -1517.2781    480.96804    363.73694    500.81629    38760.619 
  445100    305.33936   -1534.5994    476.79551    309.25442    241.38677    38760.619 
  445200    293.22548   -1530.8715    476.69672    258.64748    564.11473    38760.619 
  445300    298.94871   -1505.4028    472.51255    305.55592   -27.878297    38760.619 
  445400    300.31924   -1515.1142    459.56074    289.02886   -114.72948    38760.619 
  445500    300.36054   -1557.4982    460.31313    247.58218    91.605087    38760.619 
  445600    298.03146   -1552.0179    464.01593    246.33755    -213.5082    38760.619 
  445700    304.19773   -1506.0624    480.13848    336.02309   -573.76143    38760.619 
  445800    301.28348   -1522.6787    453.92483    280.14554   -589.92634    38760.619 
  445900    301.28294    -1520.087    457.52725    286.33718    -103.3415    38760.619 
  446000    298.60165   -1518.5467    485.86972    304.21542   -199.73278    38760.619 
  446100    298.88827   -1534.2179     474.0134    277.97106   -266.93354    38760.619 
  446200    300.75107    -1489.295    482.01679    339.23747   -42.405534    38760.619 
  446300     296.2858   -1509.0227    475.41871     292.9199    398.36627    38760.619 
  446400    288.64216   -1527.5771    464.48137     229.2062    73.329543    38760.619 
  446500    291.34809   -1526.4741    467.18928    245.13211    209.11072    38760.619 
  446600    298.40763   -1534.0233    487.39461    289.39506    343.12189    38760.619 
  446700    306.18058   -1545.1702    460.96238    286.61673    289.42819    38760.619 
  446800    308.33601   -1493.0423    481.21874    368.65121    430.89016    38760.619 
  446900    302.54274   -1517.5014    484.94299    321.97892   -192.17113    38760.619 
  447000    298.74827   -1510.4697    498.94413    326.02326    708.24841    38760.619 
  447100     307.8848   -1545.9245     462.8069      295.337    1046.4943    38760.619 
  447200    298.55691   -1580.1279    485.77289    242.33701     497.7188    38760.619 
  447300    290.03653   -1499.2139    477.98605    277.31701    496.36306    38760.619 
  447400    296.86409   -1494.5489    484.72559    319.28969    35.891587    38760.619 
  447500    302.67621   -1489.0254    481.46365    347.57314   -393.56098    38760.619 
  447600    297.24667   -1552.4258    478.66872     257.0688   -564.30699    38760.619 
  447700    299.28542   -1534.8452    484.20417    289.31269   -172.84713    38760.619 
  447800    302.95403   -1537.5893    477.64423    296.43368   -46.307057    38760.619 
  447900    291.09154   -1543.4535    491.07342    250.88815    885.44947    38760.619 
  448000    279.95068   -1510.4349    477.99648    220.95027    16.909234    38760.619 
  448100    290.25427   -1520.1897    461.31578    240.64567     409.9679    38760.619 
  448200    301.83808   -1498.0169      472.408    325.77353    125.16579    38760.619 
  448300    307.35202   -1481.1167    487.44149    382.39411    148.70159    38760.619 
  448400    298.33066   -1523.3077    488.49401    300.86541    259.12669    38760.619 
  448500    303.52864   -1507.6189    495.14633     346.4788    627.24976    38760.619 
  448600    306.90063   -1522.0424    481.10528    333.11124     487.1409    38760.619 
  448700    303.87716   -1543.5272    481.66197    298.64654     278.4354    38760.619 
  448800    294.41341   -1498.5318    488.77155    308.38058     368.3687    38760.619 
  448900    297.02296   -1524.8165    456.23566    261.24345    847.79017    38760.619 
  449000     302.2883   -1540.4098    484.18542    297.17375    615.86649    38760.619 
  449100    311.23176   -1526.8565    488.47914    355.06225     428.1242    38760.619 
  449200    312.61048   -1494.9801    482.21004     386.8423    183.55297    38760.619 
  449300    299.19537   -1524.9098    473.39776     288.0385   -146.27557    38760.619 
  449400    301.18021    -1512.428    465.94237    301.95139    -51.66174    38760.619 
  449500    291.07904   -1571.2551    492.63067    224.58785    -80.83668    38760.619 
  449600    307.98234   -1523.1252    438.64658     294.4127     137.9051    38760.619 
  449700    300.22287   -1556.5266    463.37595    251.00018    393.35298    38760.619 
  449800    299.40518    -1521.382    470.05869    289.16653    845.02424    38760.619 
  449900    301.78895   -1553.9103    477.40517    274.65731    573.57911    38760.619 
  450000    288.88289   -1594.4967    451.96238    150.84537    580.37397    38760.619 
  450100    290.12881   -1540.4806     464.1498    222.62717    252.61578    38760.619 
  450200    290.03645   -1534.5225    517.97473    281.99666    371.09862    38760.619 
  450300    309.24925   -1531.4795    467.78276    320.86686    219.39031    38760.619 
  450400    297.10136   -1559.5627    461.88818    232.50078    15.356694    38760.619 
  450500    307.21503   -1553.6107     470.7489    292.59419    498.95393    38760.619 
  450600    288.66841   -1538.8503    456.55386    210.12306   -140.04695    38760.619 
  450700    315.15905    -1529.671    492.37723    373.72896   -326.78015    38760.619 
  450800    303.22194   -1531.7126     448.0514      273.917   -381.61983    38760.619 
  450900    297.61712   -1514.9504    472.42076    289.95478   -239.49887    38760.619 
  451000    294.57041   -1507.4374    472.65302    284.05942   -512.79451    38760.619 
  451100    302.52338   -1522.2288    459.02008    291.24186   -137.59172    38760.619 
  451200    300.49063   -1510.8853    473.06592    307.53029    29.150607    38760.619 
  451300    307.76772   -1525.7523    484.00912    336.18727    477.52095    38760.619 
  451400    306.37551   -1512.8697    488.41485    347.24249   -156.86198    38760.619 
  451500    294.94047    -1486.371    495.14842    329.27805    401.23498    38760.619 
  451600    302.71678   -1535.9005    464.66166    284.07771    187.69669    38760.619 
  451700    298.20283   -1521.4598     492.9409    306.58785    308.83788    38760.619 
  451800    306.23172   -1536.0607    472.01843    307.01119    481.55563    38760.619 
  451900    294.26813   -1585.2616    474.77564    207.00445    872.14694    38760.619 
  452000    303.40726   -1522.8546    459.17456    294.72784    625.70435    38760.619 
  452100    292.97335   -1542.3866    476.73542    246.04224   -80.384579    38760.619 
  452200    305.20016   -1553.0184    472.11882     285.5355   -263.66186    38760.619 
  452300    290.18205   -1536.8166    473.54103    235.92073   -323.30917    38760.619 
  452400    292.83343    -1521.317    454.77206    244.52209   -517.18883    38760.619 
  452500    302.66051   -1532.9138    442.20867    264.35945    -178.9335    38760.619 
  452600    313.60211   -1495.2259    496.01272     404.8389   -117.42287    38760.619 
  452700    302.89789   -1521.3596    455.74668    290.51443    44.717938    38760.619 
  452800    309.59624   -1542.8103    472.07666    315.38339   -198.53999    38760.619 
  452900    303.34378   -1537.0049    468.48659    289.60537   -101.17143    38760.619 
  453000    302.13104   -1518.5187    477.71845     311.8938   -114.84414    38760.619 
  453100    298.15385   -1514.5122    459.48917    279.86444   -305.87764    38760.619 
  453200    293.60918   -1551.7683    467.47115    230.24305    202.76464    38760.619 
  453300     300.1413   -1538.6947    484.03519    289.12607   -212.39414    38760.619 
  453400    298.54604     -1550.62    457.54519    243.56856    687.93578    38760.619 
  453500    299.99466   -1590.7543    473.78823    226.16306    367.75818    38760.619 
  453600    299.53523    -1593.596    439.35024    186.82637     -32.8202    38760.619 
  453700    302.56513   -1549.7448    451.63466    256.52739   -129.28604    38760.619 
  453800    288.97939   -1525.9397    451.53834    219.41047   -308.81544    38760.619 
  453900    298.85116   -1489.7421    484.44157    332.70891   -224.41615    38760.619 
  454000    310.29839   -1509.4991    469.95201    349.71364   -429.60544    38760.619 
  454100     308.2447   -1463.5331    463.50577    380.03867   -687.63439    38760.619 
  454200    305.47088   -1484.3305    457.57849    340.89512   -523.30393    38760.619 
  454300    314.71651    -1489.511    454.28679    373.81724   -9.5476567    38760.619 
  454400    305.05743   -1522.6734    457.20305    300.32571    13.856836    38760.619 
  454500    287.77711   -1519.0727    470.83964    240.19588     262.2286    38760.619 
  454600    298.34843   -1511.7858    497.87243    321.84523    406.13296    38760.619 
  454700    288.76588   -1523.9649    479.76847    248.65938    347.78983    38760.619 
  454800    302.11065   -1504.9111    449.19906    296.89074    283.87082    38760.619 
  454900    302.37207   -1493.9532    459.98865    319.80862   -268.44215    38760.619 
  455000    298.87269   -1459.3567    476.32342    355.07252   -181.90111    38760.619 
  455100    290.80807   -1488.2064    477.10821    290.90093   -209.41383    38760.619 
  455200    300.69281   -1519.6255    496.82952    323.45885   -34.927251    38760.619 
  455300    306.59455   -1442.7191    472.57404    402.53294   -588.84433    38760.619 
  455400    305.54364    -1440.999    475.19124    402.16513   -720.28106    38760.619 
  455500    298.11103   -1456.6492    475.59513    353.64175    -410.7024    38760.619 
  455600    301.66622   -1471.8391    454.57155    333.34541   -342.85441    38760.619 
  455700    291.23323   -1505.0629    463.02673    261.86652   -178.85886    38760.619 
  455800    300.53612   -1508.1073    478.13081    315.57687    608.20125    38760.619 
  455900    296.69333   -1479.3701    464.67148    313.64986     253.8541    38760.619 
  456000    306.93548   -1512.6855    455.25581    316.77468    247.62676    38760.619 
  456100    289.10782   -1514.7557    482.77277    262.40384     -55.8526    38760.619 
  456200    305.68919   -1460.2512    486.94012    395.31339    207.25609    38760.619 
  456300    295.66922   -1441.0773    443.86971    326.55573   -92.728822    38760.619 
  456400    305.72028   -1454.3007    488.89135    403.35436   -236.79144    38760.619 
  456500    295.42695   -1428.7009    469.35283    363.33054    18.838198    38760.619 
  456600    302.46427   -1447.3309    460.24376    367.09886    129.67891    38760.619 
  456700    298.90722   -1466.9605    474.21927    345.51917    378.99918    38760.619 
  456800    293.85871   -1478.4523    468.76904    305.97415    505.46572    38760.619 
  456900    290.90917   -1524.5673    456.72995    234.61436    274.68572    38760.619 
  457000    293.84858   -1530.5416    481.99241    267.06289    739.90938    38760.619 
  457100    304.61936   -1505.9023    493.35728    351.28964     330.3638    38760.619 
  457200    290.30818   -1477.6838    467.04384    289.12107    128.77187    38760.619 
  457300    304.84875   -1482.0409    466.56118    349.38201    195.15341    38760.619 
  457400     303.6718   -1469.7279    502.57988     392.4443   -17.096211    38760.619 
  457500    292.97759   -1518.8957    456.40984    249.22654    187.20985    38760.619 
  457600    284.13082   -1515.5744    487.38818    243.91766   -184.16336    38760.619 
  457700     293.1092   -1490.9614    479.84852    301.18877    94.595648    38760.619 
  457800    301.41875   -1494.9433    464.27062    318.83237    56.396585    38760.619 
  457900    315.96848   -1474.9971    472.00144    411.65104   -383.05934    38760.619 
  458000    300.96917   -1482.7489    467.14358    331.88679   -139.90011    38760.619 
  458100    284.06425   -1502.4733    429.94857    199.28113    71.201612    38760.619 
  458200    296.04596   -1480.9175     479.1561    323.68862   -754.93309    38760.619 
  458300     293.6581   -1514.9315     477.4626    277.29029   -154.33385    38760.619 
  458400    302.29097   -1510.6405     477.5312    320.30077    198.32675    38760.619 
  458500    307.60407   -1490.8379    501.75496    388.11482    154.13147    38760.619 
  458600     295.9299   -1503.4792    451.39478    272.84605    339.23484    38760.619 
  458700    304.32512   -1477.8168     454.9131    339.61365    295.24886    38760.619 
  458800    299.32838   -1479.1235    473.82345    334.84597   -127.59477    38760.619 
  458900    302.18723   -1464.9108    470.99337    359.02818   -42.111208    38760.619 
  459000    308.19931   -1473.6511    493.19367    399.40532    36.839094    38760.619 
  459100    293.59383   -1545.6088    466.90977    235.77245     18.27025    38760.619 
  459200    301.42895   -1487.9869    450.22894    311.79273    670.32676    38760.619 
  459300    294.89329   -1531.5501    468.77726     257.5165    224.11672    38760.619 
  459400    293.82606   -1502.8982    466.56181    279.17484    619.32887    38760.619 
  459500    298.53119   -1480.4527    460.28494    316.40908    308.52148    38760.619 
  459600    309.80632   -1509.7115    442.24637     319.5925     60.51408    38760.619 
  459700    307.27404   -1508.0757    478.18796    345.83239    357.24379    38760.619 
  459800    294.53263   -1486.0386     473.0736    305.70964    257.34375    38760.619 
  459900    312.46435   -1498.8451    500.11011    400.22312    253.66485    38760.619 
  460000    307.21046   -1492.5991    447.47704    330.31349   -81.309122    38760.619 
  460100    305.52821   -1515.5948     474.9962    327.30519    -175.2265    38760.619 
  460200    303.04876   -1511.8204    471.98461     316.9671    147.19155    38760.619 
  460300    297.37989    -1486.524    482.00787    326.90618     207.1032    38760.619 
  460400    298.83952   -1496.8316    486.43789    327.56361   -75.529999    38760.619 
  460500    282.57576   -1468.3431    473.54445    270.34299    77.478619    38760.619 
  460600    305.59588   -1444.6706    467.99098    391.52717    153.99292    38760.619 
  460700    295.24429   -1440.7917    473.50617    354.57529    121.66309    38760.619 
  460800    307.31064   -1470.7019    480.26863    385.45078   0.04268329    38760.619 
  460900    312.29158    -1424.925    452.68856    425.94819   -114.09472    38760.619 
  461000    303.48099   -1464.1056     467.4733    362.10568    35.504224    38760.619 
  461100    302.92469   -1445.2085     482.5097    393.54857    20.133781    38760.619 
  461200    297.02706   -1508.6545    481.54297    302.73113    349.38777    38760.619 
  461300    315.96925   -1534.8023    476.45073    356.29852   -133.60193    38760.619 
  461400    290.18971   -1515.1867    464.67683    248.72073   -596.91887    38760.619 
  461500    298.91844   -1511.9686    488.37913    314.72126    55.609308    38760.619 
  461600    309.33617   -1507.9292    463.34993    340.37335   -182.24354    38760.619 
  461700    306.03285   -1528.8264    425.35305     266.6898   -577.47705    38760.619 
  461800    302.84325   -1535.7354    473.79162    293.93896   -672.73429    38760.619 
  461900    298.06683   -1539.3773     461.6597    256.78025   -832.44768    38760.619 
  462000    286.48661   -1530.0118    450.56981    203.20913   -182.38853    38760.619 
  462100    298.80148   -1515.8481    450.84116    272.78011   -356.26739    38760.619 
  462200    304.58476   -1502.4013    453.08083    314.35927    -532.0921    38760.619 
  462300    302.41811   -1538.7518     448.3606    263.58811   -213.27603    38760.619 
  462400    286.78296    -1499.654    466.04453    250.36851   -112.06821    38760.619 
  462500    305.61321   -1488.4022    481.42943    361.31159   -496.45194    38760.619 
  462600    293.46278    -1495.738    454.21735    272.36406   -109.79747    38760.619 
  462700    305.28415   -1524.6699    459.70041    301.84157    119.65885    38760.619 
  462800    298.49867   -1590.5381    457.62096    203.51413    538.92117    38760.619 
  462900    310.08578    -1588.173    433.59704    233.73291    772.12623    38760.619 
  463000    297.48975   -1549.0514    454.73171    237.59444    1106.1211    38760.619 
  463100    300.84993   -1543.5835    459.78809    263.16285     463.1696    38760.619 
  463200    294.93011   -1555.7278    466.62837    231.35478    100.56005    38760.619 
  463300    292.19954   -1557.5829    466.51752    217.16357   -42.104314    38760.619 
  463400    305.20414    -1558.763    439.48142     247.1713    64.908534    38760.619 
  463500    298.77537    -1520.757    474.81517    291.72824   -93.787279    38760.619 
  463600    296.09795   -1541.6971    467.90516    251.89087     128.6591    38760.619 
  463700    315.84423   -1496.2185    475.57925    393.45122    76.780534    38760.619 
  463800    309.77817   -1463.3757    477.72673    401.28262     46.82823    38760.619 
  463900    292.54264   -1471.1508     475.8231    314.43743   -140.79707    38760.619 
  464000    297.65482   -1532.4917    469.16164    269.32318    798.99924    38760.619 
  464100    293.60015   -1490.4949    486.57067    310.57549    338.95941    38760.619 
  464200    292.92498   -1510.5461     485.4209    286.35168    138.39856    38760.619 
  464300    292.21284   -1485.3373    469.25308    292.20432   -87.915654    38760.619 
  464400    309.54263   -1520.2791    472.65731    338.25528    -246.2593    38760.619 
  464500    296.37628   -1515.7679    457.96173    269.12284    113.23716    38760.619 
  464600    298.69028    -1482.483    471.02704    325.83318    1047.5648    38760.619 
  464700    285.79769   -1509.0309    493.72597    264.26184    1209.9239    38760.619 
  464800    301.24011   -1517.0269     485.2523    316.93054     1078.564    38760.619 
  464900    298.30678   -1535.5611    477.62445    277.63552    929.62781    38760.619 
  465000    294.27204   -1525.3054    475.15241    267.35497    568.81709    38760.619 
  465100     305.9484   -1512.9436    481.22956    338.07104    384.11941    38760.619 
  465200    302.62411    -1530.714    474.19425    298.38187     300.8948    38760.619 
  465300    294.22359   -1534.7384    482.30098    264.85355    119.02693    38760.619 
  465400     292.4441   -1554.2023    456.03084    211.15247     104.5063    38760.619 
  465500    307.29318   -1559.2565    449.38581    265.93517    157.10723    38760.619 
  465600    305.34582   -1538.4559    471.05523    299.68646    154.06322    38760.619 
  465700    290.53709    -1551.744     451.5666    200.60851    143.97609    38760.619 
  465800    295.17426   -1479.6257    490.08146    332.00308    136.82538    38760.619 
  465900    300.20417   -1512.0044    476.73843    308.80113   -198.66724    38760.619 
  466000     301.2172    -1496.663    467.79885    319.73847    303.31282    38760.619 
  466100    312.92253   -1555.5881    488.64618    334.06757    141.83074    38760.619 
  466200    306.39787   -1555.3825    456.55811    272.97301    33.658357    38760.619 
  466300    307.92453   -1551.9419    438.05756    264.74818    530.04286    38760.619 
  466400    294.66766   -1529.8278    467.31704    256.76846   -57.089763    38760.619 
  466500    300.94209   -1515.6501    462.44438    294.16518    -436.0179    38760.619 
  466600    302.95249   -1520.2383    459.67294    295.80644   -359.09542    38760.619 
  466700    292.89907   -1517.3005    482.05964    276.11999   -608.77111    38760.619 
  466800    311.10611   -1496.6093    464.26433    360.53203   -429.48669    38760.619 
  466900    293.28861   -1479.6418    471.76848    305.23163   -308.02244    38760.619 
  467000    290.62483   -1501.9825    461.65551    260.85169   -373.41279    38760.619 
  467100    297.76126   -1553.4683    472.95846    252.61995   -59.260771    38760.619 
  467200    299.64884   -1527.5356    496.91945    310.96467    256.77016    38760.619 
  467300     295.5524    -1492.388    476.85333    307.70567   -152.73994    38760.619 
  467400    298.97139   -1489.7836    460.01884    308.78301    238.87441    38760.619 
  467500    305.88328   -1486.1015     501.5886    384.98058   -278.57566    38760.619 
  467600    300.43963   -1445.2754    475.43725    375.28317    42.478814    38760.619 
  467700    294.48502   -1458.5633    506.29525    366.19345    374.45789    38760.619 
  467800    302.98873   -1414.3093    469.78353    412.00834    132.95194    38760.619 
  467900    303.78629   -1471.3688    472.39691    361.13296   -105.09945    38760.619 
  468000    308.06964   -1488.6243    478.35607    369.01396   -582.00347    38760.619 
  468100    301.26885   -1495.4584    474.46802    327.84348    -418.1853    38760.619 
  468200    300.95003   -1493.9312    474.83617     328.3114   -423.50581    38760.619 
  468300    298.24735   -1477.0058    463.89542    322.19569   -340.86645    38760.619 
  468400    297.64643   -1503.5172    465.91207    295.01047   -726.27149    38760.619 
  468500    304.47684   -1499.8828    489.34579    352.65958   -202.39337    38760.619 
  468600     296.7891   -1488.3855    461.64618    302.03795   -242.13468    38760.619 
  468700    303.11796    -1514.715    474.51521    316.91292   -325.68165    38760.619 
  468800    300.97947   -1506.8441    470.09079    310.78492   -468.65984    38760.619 
  468900    298.70899   -1502.0159    477.81967    313.17666    -119.4018    38760.619 
  469000    292.50981   -1478.1159    496.26552    327.76775   -556.10637    38760.619 
  469100    289.65313   -1515.2418    467.46012    249.04651   -664.46628    38760.619 
  469200    306.49367   -1480.2882    490.57643    382.51451   -477.88088    38760.619 
  469300    300.46155     -1502.26    486.54096    329.50043   -550.14126    38760.619 
  469400    302.69564   -1510.2624    446.25726    291.21673   -347.53474    38760.619 
  469500    308.73475   -1495.4841    462.26675    349.04264     -149.043    38760.619 
  469600    282.98138   -1516.3999    483.48451    234.04223   -364.24537    38760.619 
  469700    300.87196   -1534.7751    453.50866    265.79044   -83.459846    38760.619 
  469800    314.09457   -1516.4432    464.48783    354.30154    212.37748    38760.619 
  469900    308.28521   -1504.9878    491.37261    366.63215    112.86282    38760.619 
  470000    290.47491   -1438.0408    482.42842    344.89511    87.369656    38760.619 
  470100    299.84666   -1482.1938    466.73447    327.00714    33.559573    38760.619 
  470200    308.25059   -1529.0733    465.88162    316.90065    214.33783    38760.619 
  470300    297.46272   -1513.0431    472.58837     291.3384   -337.02132    38760.619 
  470400    304.57993   -1554.1671    472.29538    281.78641   -460.42059    38760.619 
  470500    312.80603   -1508.9387    494.95446    386.50366    414.80108    38760.619 
  470600     301.2104   -1519.3028    472.32707    301.59641    206.26547    38760.619 
  470700    294.33299   -1484.9009    510.84729    343.72721   -51.491212    38760.619 
  470800    299.74441   -1500.9488    461.58084    302.64068    405.81402    38760.619 
  470900     299.5682   -1498.8997    461.41756    303.73761   -195.60061    38760.619 
  471000    302.39025    -1486.357    476.51198    344.00955    -12.15102    38760.619 
  471100    294.61387   -1433.3149    485.25119    370.97466   -256.95355    38760.619 
  471200    299.21348   -1485.3874    488.08405    342.32829   -168.26914    38760.619 
  471300    301.94212   -1475.6327    483.48204    359.69751   -423.27047    38760.619 
  471400    308.37675   -1453.2322    466.77051     394.1955   -597.34798    38760.619 
  471500    308.35768    -1488.975    472.49332     364.0901   -464.38413    38760.619 
  471600    302.67207   -1487.5621    465.16335    332.71754   -683.75123    38760.619 
  471700    299.34849   -1498.6281    462.03066    303.63869   -483.35298    38760.619 
  471800    289.32849   -1523.6144    491.55833    263.31867   -956.32717    38760.619 
  471900    300.64274   -1469.4698    480.51964    357.08047     67.33758    38760.619 
  472000    309.02834   -1457.8665    461.19258    386.90059    404.17185    38760.619 
  472100    308.95731   -1487.4281    457.22464    353.05297    33.796833    38760.619 
  472200    295.31933   -1442.5255    473.15517    352.82653    -268.3697    38760.619 
  472300    300.11721   -1439.1207    473.27221    377.82933    -700.0587    38760.619 
  472400    301.62405   -1489.7785    497.39935      358.045   -601.05541    38760.619 
  472500    293.38916   -1460.6527    468.09082    320.99317   -299.47112    38760.619 
  472600    300.52225   -1438.5938    476.17646    383.07385   -550.31201    38760.619 
  472700    309.33497   -1464.8253     474.7627    394.88468   -715.38654    38760.619 
  472800    292.10039   -1457.6687     489.1454    339.26173     324.6668    38760.619 
  472900    303.12471   -1477.5284    483.25284    362.86734    331.76193    38760.619 
  473000     293.5601   -1452.9406    485.17857    346.55845    92.000596    38760.619 
  473100    310.09736   -1446.3139    479.36751    421.41435       47.578    38760.619 
  473200    294.55135   -1427.7093    505.51345    396.56257    196.46615    38760.619 
  473300    294.11332   -1478.1092    482.10129    320.78939    13.892388    38760.619 
  473400    295.82717   -1489.0447    501.71479     337.1406    634.88875    38760.619 
  473500    305.01025   -1493.3698    490.46717    362.68221    287.56794    38760.619 
  473600    299.93615   -1471.2324    470.97041    342.60511    88.380986    38760.619 
  473700    305.13039   -1487.2864    481.89477    360.73103   -646.86522    38760.619 
  473800    300.54929   -1491.7191    466.29791    320.19108   -735.34293    38760.619 
  473900    291.79164   -1493.7583      454.546    267.19039   -685.86392    38760.619 
  474000    300.93039   -1505.9056    509.45567    350.86861    -421.8083    38760.619 
  474100    298.17316   -1519.4603    461.18315    276.69675   -60.479733    38760.619 
  474200    300.03948   -1492.2086    466.78959    317.91073   -196.35586    38760.619 
  474300     294.6632   -1534.8323    456.15375    240.58065   -608.01413    38760.619 
  474400    303.54486   -1529.8849     467.6698    296.80891   -792.70554    38760.619 
  474500     300.3101   -1457.8342    463.13331    349.84053   -1284.8979    38760.619 
  474600    310.32772   -1492.7028    494.34197    391.03125      -679.58    38760.619 
  474700    307.82015   -1496.6635     483.4325    364.93424   -578.00135    38760.619 
  474800    294.66122   -1451.8386    492.44653    359.85828    38.063383    38760.619 
  474900    296.63907   -1450.2946    476.96518    354.77615   -288.36642    38760.619 
  475000    299.06677   -1497.6006    486.12113    327.49532   -581.51709    38760.619 
  475100    308.96309   -1475.3255    460.48103    368.43785   -508.86579    38760.619 
  475200    308.65062   -1531.4629    474.89367    325.31413   -225.51734    38760.619 
  475300    296.61776   -1475.8814     496.3101    348.43879    88.903368    38760.619 
  475400    291.69772   -1495.7732    470.03727    280.24636   -507.41668    38760.619 
  475500    299.95573   -1472.3371    475.54898    346.16666     -426.669    38760.619 
  475600     287.6279   -1473.5059    486.77435    301.02943   -512.74993    38760.619 
  475700    291.17713   -1477.3142    489.12962    315.46694   -540.33613    38760.619 
  475800    291.21991   -1485.5214    474.35792    292.67948    -597.7863    38760.619 
  475900    291.96815   -1504.4659    470.48306    273.21016   -329.76264    38760.619 
  476000    310.99208   -1496.6363    477.10694    372.83711   -377.72413    38760.619 
  476100    299.27611   -1512.6763    477.02915    304.26488   -98.440451    38760.619 
  476200    293.38942   -1481.9186    484.79249    316.43017   -232.12958    38760.619 
  476300    297.62559   -1500.2681    471.99905    304.25334    -77.08556    38760.619 
  476400    296.71514   -1457.4605    474.04672    345.03234   -274.04952    38760.619 
  476500    303.72289   -1506.5019    477.41387    330.73304   -182.93598    38760.619 
  476600    305.86092   -1559.4936    455.95431    265.85409   -97.224887    38760.619 
  476700    305.54488   -1479.9547    475.15781    363.18156   -344.32903    38760.619 
  476800    302.37018   -1537.2088     464.2196    280.77558   -123.57006    38760.619 
  476900    291.71844   -1515.9579    471.01979    261.13684   -201.57659    38760.619 
  477000    292.90616   -1514.3359    486.39164    283.44838    260.77481    38760.619 
  477100    291.20375   -1487.1814    499.53125    316.12053    341.39045    38760.619 
  477200    307.48357   -1472.0398    462.71291    367.33145    288.58958    38760.619 
  477300     297.1807   -1484.0383    481.07969    327.57193   -363.98705    38760.619 
  477400    300.31633   -1491.9719    507.92665    360.52406    18.534132    38760.619 
  477500    294.64209   -1516.5789    469.41434    272.00009    2.9245684    38760.619 
  477600    292.68363   -1539.1147    471.28095    242.56253   -121.53349    38760.619 
  477700    291.66981   -1487.6771    464.82265    283.00282   -165.40053    38760.619 
  477800    299.65841    -1493.904    472.47164    320.19127   -42.480211    38760.619 
  477900    310.63076   -1503.9804    482.68801    369.45641   -370.69843    38760.619 
  478000    298.01058   -1530.0078    437.64248    241.88069    177.89672    38760.619 
  478100    296.76948   -1520.3165    482.04484    290.41771    468.65107    38760.619 
  478200    295.21731   -1467.3408    465.49821    319.89753    672.31239    38760.619 
  478300    309.89354   -1471.8767    484.46152    400.03298    507.22012    38760.619 
  478400    304.15205   -1519.1078    470.61997    313.25465    403.30274    38760.619 
  478500    300.03064   -1478.8259    480.27348    344.73775    161.01285    38760.619 
  478600    305.67438   -1519.7551    484.76104    333.56412    302.90029    38760.619 
  478700    292.16086   -1522.6928    460.82858    246.19154     23.50442    38760.619 
  478800    300.73711   -1494.1532     468.9642    321.26417   -486.64035    38760.619 
  478900    305.10723   -1446.4551    464.10681    383.67067   -573.23287    38760.619 
  479000    292.42586    -1504.444    449.15002     253.9483   -1045.9306    38760.619 
  479100    312.24386   -1469.2014    491.76687    420.53646   -475.47971    38760.619 
  479200    294.72768   -1495.2389    475.96978    300.27879   -342.70221    38760.619 
  479300    301.06096   -1443.5791    480.65721    384.98119   -197.61653    38760.619 
  479400    301.80545   -1478.7365     481.4103    353.91012   -321.47267    38760.619 
  479500    298.33019    -1523.722    502.52201    314.47697   -579.43107    38760.619 
  479600    300.02117   -1519.2635    476.16084    300.14512    47.409054    38760.619 
  479700    311.83046   -1512.2807    450.44607    334.28547    31.324072    38760.619 
  479800    306.80351   -1518.0626    477.54946    333.10035     553.1622    38760.619 
  479900    288.38498   -1498.0885    464.85692    257.91893    247.98869    38760.619 
  480000    301.27385   -1479.6615    484.62073    353.81547    485.35482    38760.619 
  480100      304.459   -1496.4881    480.61049    347.23917    45.374985    38760.619 
  480200    297.24812   -1539.7807    451.40179    242.45345    -449.7925    38760.619 
  480300    300.17676   -1528.6686    467.84755    283.12332   -212.32717    38760.619 
  480400    303.09755   -1511.5544    467.65283    313.11971   -93.905085    38760.619 
  480500    307.61932   -1489.8282     450.0611    337.49898   -95.787651    38760.619 
  480600    292.24664   -1470.2303    490.25299    328.46255     36.16482    38760.619 
  480700    297.42859   -1512.6992    483.38316    302.32435    103.19254    38760.619 
  480800    311.73195   -1496.7915    460.28251    359.17002   -418.44145    38760.619 
  480900    302.60194    -1500.299    495.46969    349.97306   -380.22414    38760.619 
  481000    300.39173   -1511.9191    474.83996    307.82774   -598.79803    38760.619 
  481100    309.83654   -1484.4061    446.14637    348.93324     284.6887    38760.619 
  481200    299.70995   -1487.5642    461.93328    316.22353    162.44242    38760.619 
  481300    287.13443   -1515.8121     473.6814    243.42094   -468.21806    38760.619 
  481400    306.39454   -1509.6159    469.73934    331.90594   -244.63465    38760.619 
  481500    291.71425   -1513.9351    473.85776    265.97896   -150.51613    38760.619 
  481600    288.73316   -1500.3215    452.78432    245.17225   -114.59117    38760.619 
  481700    296.92588   -1496.6011    478.77983    311.56834   -298.01651    38760.619 
  481800    304.11765   -1512.5592    457.87471    306.90393   -111.96596    38760.619 
  481900    300.64561   -1509.0051    497.04276     334.0812   -411.44808    38760.619 
  482000    298.26812    -1483.098    489.07855    341.37961   -320.01234    38760.619 
  482100    295.61301   -1501.5329    466.35717    288.33596   -261.52443    38760.619 
  482200    293.38072    -1501.634    503.32414    315.20748    129.40045    38760.619 
  482300    292.74664   -1523.6472     483.8706    270.90181   -370.40801    38760.619 
  482400     298.0218   -1503.9413    473.41164    303.76665     416.1228    38760.619 
  482500    296.68374   -1482.8065    470.89282    316.39183   -47.647639    38760.619 
  482600    298.98069   -1471.2598    491.15485    358.48444     -726.548    38760.619 
  482700    302.29151   -1515.5251    463.78712    301.67452   -68.881717    38760.619 
  482800    295.84757   -1498.9714    474.68247    300.27285   -493.97146    38760.619 
  482900    291.33308   -1509.4204    469.09921    264.02844   -246.55143    38760.619 
  483000    306.32941   -1514.2298    475.39511    332.65619   -473.88762    38760.619 
  483100     300.3201   -1537.8798    468.17294    274.87929     -310.903    38760.619 
  483200    300.40376   -1492.5495     442.4489     294.8601   -229.88621    38760.619 
  483300    291.67578   -1516.4917    470.84168    260.23399   -390.10663    38760.619 
  483400    298.88258   -1509.8873    452.94672    281.20955    260.00836    38760.619 
  483500    306.90607   -1511.2772    474.09417    336.88967    31.858021    38760.619 
  483600    303.21438   -1550.2624    458.50003    265.78195     34.80062    38760.619 
  483700      302.926   -1526.8787    457.65141    287.02596    232.87859    38760.619 
  483800    296.65327   -1490.2822    494.38467     332.2716    142.99412    38760.619 
  483900    310.25824   -1484.7748    478.25981    382.56596   -31.609194    38760.619 
  484000    296.33921   -1505.3248    468.60685    290.04507    112.45632    38760.619 
  484100    299.62344   -1501.9238    466.98803    306.53129   -21.033413    38760.619 
  484200     301.6478   -1488.2125    499.77472    362.09271   -180.73891    38760.619 
  484300    293.96314   -1492.7254    476.43608    299.83558     197.4427    38760.619 
  484400    301.18182   -1511.3169    445.50865    282.63597   -113.72838    38760.619 
  484500    309.42084    -1531.144    476.07939    330.26713    228.20572    38760.619 
  484600    310.26119   -1511.9166    476.96122    354.13878     136.9119    38760.619 
  484700    295.44627   -1502.5531     489.8472    310.05922    51.296163    38760.619 
  484800    295.43801   -1541.7292    475.73679    256.73576    166.26146    38760.619 
  484900    298.76962   -1517.6371    492.72269    312.72996    717.37387    38760.619 
  485000    298.01261   -1530.6728    466.20229    269.78459    819.61285    38760.619 
  485100    299.13184   -1488.2221    490.13025     341.1743    695.95035    38760.619 
  485200    300.99165   -1533.4485     467.7601    281.90441    392.18514    38760.619 
  485300    298.06927   -1533.3061    475.18995    276.39263    445.04232    38760.619 
  485400    307.99745   -1506.7724    484.15829    356.34494    576.71301    38760.619 
  485500    298.29797   -1497.6272    456.14522    294.05072    74.696143    38760.619 
  485600    303.15833    -1488.976    499.14471    367.46215    56.022578    38760.619 
  485700    297.69996   -1500.5399    465.18285    297.49829   -328.20992    38760.619 
  485800    309.53968   -1493.4634    491.49373    383.89417   -104.31843    38760.619 
  485900    296.62709   -1508.1938    471.99007    291.84814   -286.99494    38760.619 
  486000    302.30816   -1490.5677    505.22935    368.14872   -624.39256    38760.619 
  486100    289.84078   -1492.4925     465.2281    270.40405     -82.2803    38760.619 
  486200     290.8598   -1519.9371    483.66472     265.9583   -522.73564    38760.619 
  486300       307.46   -1501.6586    468.33926    343.23338   -407.01917    38760.619 
  486400    299.12787   -1462.7598    465.20489    341.69347   -657.12191    38760.619 
  486500    291.74556   -1463.9337    461.20437    303.46711   -343.60151    38760.619 
  486600    305.34975   -1443.1487    510.93355    434.88958   -242.10122    38760.619 
  486700    301.02263   -1423.3422     481.0525    405.44184   -305.22415    38760.619 
  486800    295.70538   -1487.0943    468.93302    305.76401   -324.61089    38760.619 
  486900    289.86755   -1491.2038    471.52858    278.11306   -349.79579    38760.619 
  487000    302.59116   -1478.2039    466.00688    342.55709   -4.1086344    38760.619 
  487100    293.74307   -1437.0038    491.15365    369.28954   -100.58335    38760.619 
  487200    309.29364   -1422.9763    484.13458    445.92059    361.88428    38760.619 
  487300    295.28092   -1431.9023    486.43047    376.55303   -236.53323    38760.619 
  487400    295.02564   -1446.2117    488.36059    363.03086    212.26048    38760.619 
  487500    287.58023   -1443.8011    463.23464    306.98105    342.77077    38760.619 
  487600    299.05534   -1468.4473    501.74424    372.22054    702.87872    38760.619 
  487700    306.44663   -1496.4443     481.4914    357.06274    561.73894    38760.619 
  487800    298.46945   -1501.8979    476.40826    310.81077    963.28809    38760.619 
  487900       310.65   -1470.9679    495.96173     415.8288    559.57347    38760.619 
  488000    288.96144   -1490.6386     497.9977    301.09048    485.94471    38760.619 
  488100     294.2593   -1452.4744    488.34544    353.32189    332.61717    38760.619 
  488200    286.33765   -1449.6858    493.31771    325.61618    174.32003    38760.619 
  488300    302.75204   -1425.6524    476.01528    405.83721    190.94935    38760.619 
  488400    304.08805   -1471.6041    469.25945    359.11127    378.04226    38760.619 
  488500    291.04819   -1496.6524    495.55567    301.97745    2.7677771    38760.619 
  488600    303.77527   -1500.3708    476.90035    336.58509    532.33777    38760.619 
  488700     298.5912   -1513.2313     491.5453    315.15953     374.0178    38760.619 
  488800    301.90829   -1482.7157    487.36488    356.34594    565.62069    38760.619 
  488900     296.1038   -1492.0143    480.73005    314.42481     433.5354    38760.619 
  489000    302.33956   -1524.8871    482.08249      310.823    608.37025    38760.619 
  489100    295.43445    -1534.653    467.55273    255.61194    955.52889    38760.619 
  489200    307.29609   -1494.1074    484.32207    366.03359    240.30129    38760.619 
  489300    292.47134   -1489.2026    507.93452    328.17773    237.43712    38760.619 
  489400     296.1824   -1486.9581    464.21767    303.32054   -3.8066131    38760.619 
  489500    299.11021   -1478.9169    475.39077    335.64312   -689.31766    38760.619 
  489600    301.76096   -1499.9313    490.42899    341.53482   -181.29002    38760.619 
  489700    315.73227   -1503.3688    504.91709    415.13746   -353.34636    38760.619 
  489800    305.69372   -1505.7066    475.91524    338.85345   -57.088565    38760.619 
  489900    298.02382   -1501.1276    478.36124      311.539    238.07138    38760.619 
  490000    288.75502   -1494.2443    496.05241     294.6153    -151.9305    38760.619 
  490100    303.56611   -1504.7576     473.4036    327.76516     9.150038    38760.619 
  490200    299.58487   -1477.9794    506.04892    369.36388    6.3414585    38760.619 
  490300    299.59572   -1468.5057    511.28381    384.12107    255.26375    38760.619 
  490400    300.59621   -1499.8497    486.67979    332.65237   -37.798179    38760.619 
  490500    301.38503   -1474.8258    494.71187    369.24008   -353.27484    38760.619 
  490600    307.68329   -1517.5145    490.84664    350.88463   -246.69951    38760.619 
  490700    295.55358   -1516.5505    461.79473    268.48984   -282.39764    38760.619 
  490800    294.01124    -1496.866    479.08297    298.55725   -238.14204    38760.619 
  490900     299.9663   -1502.5372    486.33641    326.80137    427.89119    38760.619 
  491000    299.90044   -1500.3054    487.48177     329.8836    111.84346    38760.619 
  491100    301.55467   -1496.7601    505.59618    358.94957    292.63144    38760.619 
  491200    298.69335   -1489.0901    467.35874    315.57153    220.07526    38760.619 
  491300    300.69987   -1532.6091    464.35844    278.03574    585.44467    38760.619 
  491400    299.91124   -1523.0986    513.14138    332.79837    277.77181    38760.619 
  491500     302.8488   -1514.8961    467.05859    308.07007   -96.821287    38760.619 
  491600     305.9826   -1467.5622    479.20059    381.57658   -201.83688    38760.619 
  491700    302.44725   -1523.2288    476.29725    307.17828    176.85475    38760.619 
  491800    302.29159   -1550.4676    455.24157     258.1868   -421.73509    38760.619 
  491900     303.4004   -1513.8088    463.30241    307.87083   -225.01916    38760.619 
  492000    303.90916   -1510.8774    481.72343    331.50098    113.95207    38760.619 
  492100    298.72596   -1544.5955    492.30796    285.16136    448.16555    38760.619 
  492200    300.19797   -1512.7541    471.93373    303.21899    101.61206    38760.619 
  492300    308.85856   -1515.8863    474.39962    341.32765    194.25448    38760.619 
  492400    297.01398    -1541.664    463.01801    251.13813     137.6819    38760.619 
  492500    300.64817   -1534.7278    487.49451    298.82166    399.73723    38760.619 
  492600    294.36682   -1498.0458    453.27742    273.16393    274.75208    38760.619 
  492700    303.64218   -1546.4975    460.94594    273.90817   -88.492159    38760.619 
  492800    300.86736   -1494.4983    474.57399    327.11207    288.26042    38760.619 
  492900    300.09712   -1514.6881    501.85533    330.75502   -108.01365    38760.619 
  493000    288.17347   -1499.5474     469.4843    260.14044    82.879334    38760.619 
  493100    305.57957    -1524.243    472.81084    316.70153    227.76909    38760.619 
  493200    302.37825   -1518.5942    503.25995    338.46658    477.88697    38760.619 
  493300    306.38408   -1525.4015    470.83563    317.16976    104.68163    38760.619 
  493400    302.80072   -1501.2948     464.8019    319.19946   -361.82927    38760.619 
  493500     307.3416    -1541.752    471.61235    305.88299   -439.05262    38760.619 
  493600    299.45136   -1554.3617     473.3324    259.66733   -835.52311    38760.619 
  493700    288.73881    -1543.799    469.59523    218.53087   -943.04256    38760.619 
  493800    285.15246   -1534.5804    478.31934    220.41693   -963.97823    38760.619 
  493900    294.94677   -1533.6272    460.87548    247.77713   -667.34141    38760.619 
  494000    302.70857   -1526.2678     460.0619    289.07385   -192.23124    38760.619 
  494100    295.54513   -1528.4503    482.32977    277.08722   -672.74878    38760.619 
  494200    303.12736    -1510.116    487.41107    334.44979   -235.82252    38760.619 
  494300     296.8598   -1518.3649    467.61445    278.34333    350.50404    38760.619 
  494400    298.11895   -1517.1696    481.52392    299.08551    536.38695    38760.619 
  494500     299.1024   -1507.1928    485.26812     317.2096    271.50877    38760.619 
  494600    302.63512   -1517.4305     507.5384    345.05884    91.198447    38760.619 
  494700    307.64362    -1507.716    463.89687    333.55573   -1.4566772    38760.619 
  494800    299.31726   -1505.3084    488.66946    323.45733   -87.600301    38760.619 
  494900    301.97165   -1490.6045    483.36013     344.7361   -174.28048    38760.619 
  495000    302.95909   -1493.4141    523.44888     386.4362    640.50957    38760.619 
  495100    291.00929   -1483.2653    481.04611    300.68081    -210.1089    38760.619 
  495200    293.08457     -1560.04    462.80317     214.9546   -280.96827    38760.619 
  495300    291.55687   -1498.3954    460.30641    267.26263   -326.92045    38760.619 
  495400    300.22086   -1518.5845    511.65357    337.21088   -79.756395    38760.619 
  495500    303.25504   -1472.7108    475.51044    360.52598    50.486853    38760.619 
  495600    307.81775   -1475.7387    471.45778    373.87348   -485.62241    38760.619 
  495700    296.90334   -1531.7442    462.61862    260.16318   -409.52622    38760.619 
  495800    296.67447   -1545.2974    483.63245    266.59913    -986.7845    38760.619 
  495900     305.1041   -1508.0647    468.78534    326.72555   -490.64296    38760.619 
  496000    309.22274   -1541.2173    443.72995    286.95752   -516.24773    38760.619 
  496100    295.02394   -1523.0027    476.69985    274.57144   -344.49345    38760.619 
  496200    289.86311   -1489.8237    459.01647     266.9611   -412.78221    38760.619 
  496300    299.66952   -1534.2536    477.09658    284.51634   -86.947107    38760.619 
  496400    308.92476   -1478.0021     497.1074    402.21608   -400.66154    38760.619 
  496500    306.11038   -1507.8927    473.53823    336.15578   -183.61946    38760.619 
  496600    296.15017   -1497.3618    481.53134    310.08622   -551.06832    38760.619 
  496700    295.31202   -1516.4424    488.03404    293.75569   -782.84564    38760.619 
  496800    304.73934   -1558.1959     498.2854    304.46136   -413.96371    38760.619 
  496900    301.68862   -1526.9648     473.8863    297.63482   -199.06841    38760.619 
  497000    297.19365   -1536.3673    464.87492    259.09612   -233.07003    38760.619 
  497100    311.05391   -1532.1401    450.69814    311.20137    51.156319    38760.619 
  497200     300.3234   -1488.0874    444.27432    300.78785    50.850931    38760.619 
  497300     295.6616   -1531.2038    478.58223    271.10765   -241.09647    38760.619 
  497400    284.26792   -1522.4827    486.49408    236.72906    -326.9231    38760.619 
  497500    297.43407   -1519.9566    475.27006    286.97831    182.71568    38760.619 
  497600    306.64487   -1566.4422     493.2353    299.69641    573.18253    38760.619 
  497700    307.34303   -1536.0732    502.92306    342.87896    221.31257    38760.619 
  497800    303.06768   -1551.1239     455.0787    260.84237    146.92955    38760.619 
  497900    311.03252   -1522.8349    483.61317    353.32578     36.96562    38760.619 
  498000    292.76442   -1553.9287    452.05835     208.8877   -78.804612    38760.619 
  498100    287.98274   -1562.4632    479.26522    206.15165    64.651922    38760.619 
  498200    292.33775   -1514.8604    475.61273    269.60008   -350.68335    38760.619 
  498300     300.9949    -1528.316     490.4806    309.77199    94.480208    38760.619 
  498400    293.14824   -1543.5458    477.54733      246.478   -115.04472    38760.619 
  498500    308.95341   -1483.0322    468.50819    368.71498    37.810682    38760.619 
  498600     297.5344   -1490.0732    473.57649    315.61735   -381.12755    38760.619 
  498700     307.4745   -1480.1743    499.92044     396.3638   -333.61236    38760.619 
  498800    303.79841   -1506.0621    472.60045    326.69753   -357.77446    38760.619 
  498900    305.13654   -1531.9678    481.06462    315.24709    379.41292    38760.619 
  499000    298.20805   -1556.6771    460.85804    239.31108    22.225686    38760.619 
  499100     296.8199   -1539.8645    459.78211    248.83273    536.83626    38760.619 
  499200    307.75517   -1538.6255    471.36891    310.61766    79.350769    38760.619 
  499300    292.06449   -1495.7889     485.3028    297.13819   -22.041705    38760.619 
  499400    307.27356   -1462.8054    476.64822     389.5608    402.28128    38760.619 
  499500    297.72464   -1486.8529    499.27041    345.38333    104.53594    38760.619 
  499600    291.55815    -1463.226    496.68343    338.81476    421.57288    38760.619 
  499700    310.30448   -1524.9841    476.01754    340.32142    662.28519    38760.619 
  499800    304.03935   -1505.4662    485.86757    341.63927    494.11944    38760.619 
  499900    292.44803   -1519.3103    481.14332    271.17456     349.5853    38760.619 
  500000    302.09829   -1496.6358    518.34278    374.25444    464.80465    38760.619 
  500100    303.68203   -1503.7098    471.92396    327.85225   -35.302997    38760.619 
  500200    312.24312   -1461.7868    470.63985     406.8207   -77.435233    38760.619 
  500300    304.70613    -1468.681    490.36324    385.90543   -934.27201    38760.619 
  500400    297.23531   -1490.3969    493.42832    333.80637   -997.79408    38760.619 
  500500    305.21078    -1501.628    449.75061     314.6052   -154.91842    38760.619 
  500600    304.02757   -1508.1114    497.14802    350.22177    151.01621    38760.619 
  500700    284.40442   -1517.6203    462.44778    218.15629    232.37387    38760.619 
  500800    310.94841   -1555.4848    479.15952    315.84573    663.51545    38760.619 
  500900    287.99429    -1566.078     482.5274    205.85074   -233.47358    38760.619 
  501000    298.27478   -1580.8733    470.56045    225.11603    -317.6968    38760.619 
  501100    306.92703   -1562.6456    452.78585    264.30682    356.37097    38760.619 
  501200    293.22827   -1534.6321    466.35917    244.56188   -169.99853    38760.619 
  501300    293.14511   -1550.7169     479.6727    241.41822   -680.57408    38760.619 
  501400    304.75564   -1539.0779    479.67333    305.04025    -628.6977    38760.619 
  501500    306.45069   -1529.9909    454.94888    296.99184   -505.04235    38760.619 
  501600    290.58252   -1536.7738    496.78528    261.00082   -131.31478    38760.619 
  501700     287.3775   -1528.3989    447.60273    205.84362    17.292747    38760.619 
  501800    298.35731   -1537.0513    464.48925    263.23636   -619.94426    38760.619 
  501900    290.31966   -1560.2066    460.97802    200.58386   -846.64676    38760.619 
  502000    294.64773   -1498.5828    465.32867    285.93583   -883.74652    38760.619 
  502100     307.0617   -1528.2859    490.08423    336.56782   -403.28442    38760.619 
  502200    301.43749   -1540.7075    482.24031    291.12168   -741.10957    38760.619 
  502300    298.70729   -1487.2391    493.42177    343.54803   -245.66201    38760.619 
  502400    281.30082   -1544.4677    480.77468    195.74044   -827.05336    38760.619 
  502500    297.85146   -1525.1481    471.42869    279.81415   -800.22459    38760.619 
  502600    302.56603   -1498.6949    484.72438    340.67109   -117.39266    38760.619 
  502700    303.60572   -1506.0099    460.32759    313.61411    295.11207    38760.619 
  502800     298.6392   -1528.5044    496.71582    305.27194    912.89507    38760.619 
  502900    301.29799   -1505.5221    496.19045    339.63271    1229.6787    38760.619 
  503000    302.30803   -1563.6804    476.39791    266.20398    1021.5922    38760.619 
  503100    310.44333   -1511.1128    463.66955    342.46644    821.75542    38760.619 
  503200    303.01301   -1503.0059    494.09488     347.7318    526.59323    38760.619 
  503300    301.39893   -1485.3385    487.81094    351.88875   -32.311158    38760.619 
  503400    291.17938   -1540.6825    475.22631    238.20538   -96.648739    38760.619 
  503500    293.83423   -1539.0185     461.5058    238.03506   -294.11825    38760.619 
  503600    297.55215   -1500.6246    470.58581    302.15475     337.8768    38760.619 
  503700    297.35605    -1532.472     462.8186    261.66223    466.62376    38760.619 
  503800    307.08462    -1523.456    488.53976     339.9559    202.88076    38760.619 
  503900    302.55079   -1544.5003    477.98748    288.06056    451.01752    38760.619 
  504000    300.17099   -1542.0545    464.82387    266.68798    482.82103    38760.619 
  504100    301.42807   -1539.8294    488.94727    298.66457    379.45145    38760.619 
  504200    296.27068   -1551.4023     481.7067    256.76056   -515.83491    38760.619 
  504300    307.56535   -1536.9938    460.92972    300.96032   -343.71309    38760.619 
  504400     298.9886   -1563.2191    509.47104    284.87676   -220.12265    38760.619 
  504500    310.68756   -1541.0202     467.4298    317.41272   -604.73163    38760.619 
  504600    309.62512   -1535.9515    466.75365    317.04852    -784.5065    38760.619 
  504700    298.61311   -1551.3848    465.88853    251.44738   -362.11956    38760.619 
  504800    296.75257   -1506.9106    491.11256    312.81563   -504.65982    38760.619 
  504900    295.82717   -1543.5368    477.81501    258.74868   -169.24368    38760.619 
  505000    312.90306   -1561.6545    452.08604    291.35389   -88.034417    38760.619 
  505100    306.14629   -1556.8508    482.87982    296.70008    268.59158    38760.619 
  505200    297.32098    -1541.546    476.16122     265.7738   -54.602953    38760.619 
  505300     293.2432   -1513.9515     487.8841    286.83418   -122.21267    38760.619 
  505400    294.34757   -1512.5681     515.6757    320.95362    462.94513    38760.619 
  505500    300.12508   -1550.4087    483.17642    276.48078    63.318854    38760.619 
  505600    303.06964   -1508.9756    507.24257    355.16329    603.93344    38760.619 
  505700    301.77385   -1545.8509    499.55402      304.798    645.33059    38760.619 
  505800    295.33551    -1580.859    496.30404    237.71425    397.63227    38760.619 
  505900    304.22665   -1591.0527    493.74764    264.77144    545.81869    38760.619 
  506000    311.75594   -1584.4261    469.77503    281.13535   -319.98909    38760.619 
  506100    298.63016    -1584.134    465.47711    218.36311   -470.37352    38760.619 
  506200    289.43738    -1568.402    476.11617    203.57644   -511.75763    38760.619 
  506300    299.75088   -1598.6919    481.75314    225.09886   -401.37158    38760.619 
  506400    305.38099   -1590.7351    471.81298    248.32257    50.499629    38760.619 
  506500    293.45743   -1579.7656     479.8676    213.96273   -135.56924    38760.619 
  506600    288.38559   -1574.3872    489.36387    206.12988   -337.26482    38760.619 
  506700    297.50653   -1597.0226    479.18012    214.14682    111.56802    38760.619 
  506800    294.54922   -1580.8606    478.21559    216.10388   -32.105071    38760.619 
  506900     296.1595   -1558.2663    458.88709    226.57921    303.25213    38760.619 
  507000    302.05623   -1559.5125    486.39695    279.24357    201.75722    38760.619 
  507100    296.88561   -1551.0623    493.25312     271.4001   -228.81681    38760.619 
  507200    302.21949   -1558.3132    478.34103    273.11783   -214.32662    38760.619 
  507300    294.34177   -1536.7828    492.76576    273.80312   -23.535407    38760.619 
  507400    303.68656   -1541.9861    499.24195    316.91426   -588.53807    38760.619 
  507500    298.76833   -1557.5143    481.27056    261.39487   -388.34926    38760.619 
  507600    306.31251   -1581.2096    495.71585     285.9215   -252.03655    38760.619 
  507700    298.31502   -1550.6149    490.09283    275.08696    188.08917    38760.619 
  507800    293.94911    -1555.151    488.00806    248.91918    282.08179    38760.619 
  507900    293.82113   -1595.0636    492.69528    213.12082    212.01897    38760.619 
  508000    301.76489   -1586.3951    467.37299    232.03263   -160.83433    38760.619 
  508100      304.112   -1573.7599    481.19323    268.99647    32.190758    38760.619 
  508200    297.91943   -1572.5717    459.63267    220.89896    759.80401    38760.619 
  508300    302.50212   -1596.6359    483.80273    241.52233    764.81357    38760.619 
  508400    307.67717   -1540.9431    478.98678    315.56868    549.17976    38760.619 
  508500    307.29457   -1579.0177    477.43747    274.23186    622.35276    38760.619 
  508600    285.80354   -1619.5895    489.18153    149.18496    226.91413    38760.619 
  508700    305.23423   -1572.5886    467.40266    261.40162    1019.9648    38760.619 
  508800    309.41471   -1594.9121    503.82395    294.21618    493.49987    38760.619 
  508900    300.95849   -1557.6251    500.85616    290.67543    172.14552    38760.619 
  509000    298.49372   -1582.2675    474.34679    228.48848   -86.586398    38760.619 
  509100    294.63651   -1578.5072    473.35269     213.9852    525.19123    38760.619 
  509200    290.83299   -1562.1655    488.06761    228.01278   -336.52515    38760.619 
  509300    298.32225   -1503.0736      497.546    330.11388   -127.18949    38760.619 
  509400    310.14851   -1593.6145    464.80583    259.78107   -370.19768    38760.619 
  509500    292.87557   -1585.5447    509.24949    234.96049   -807.05997    38760.619 
  509600    299.69212   -1601.0046    469.57089    210.34081   -57.475958    38760.619 
  509700    291.56133    -1595.048    521.39703    231.72064   -144.09518    38760.619 
  509800    296.61313   -1571.4861     490.0947    246.59798    226.71893    38760.619 
  509900    299.63292   -1538.0817    498.25179    301.67963   -194.57221    38760.619 
  510000    301.03257   -1561.8246    505.49263    291.44406    273.05965    38760.619 
  510100    308.31831   -1567.9186    496.58747    309.06437     -17.5274    38760.619 
  510200     303.7205   -1563.3408    495.70117    292.17075    226.81025    38760.619 
  510300    287.78943   -1588.0195    474.50077    174.96541    62.936714    38760.619 
  510400    303.73609   -1570.2909     503.4796    293.06884     259.2804    38760.619 
  510500    301.64798   -1602.2831    482.06788    230.31603    524.67082    38760.619 
  510600    294.27268   -1567.5148    524.65923    274.65524    411.33854    38760.619 
  510700    295.08893   -1569.1542    518.01292    270.02405    149.39887    38760.619 
  510800    295.82629   -1563.4255    492.69548    253.73659   -23.206843    38760.619 
  510900    301.92826   -1551.0965    480.81223    281.50185   -454.01636    38760.619 
  511000    300.25685   -1535.2306    495.17253    304.24491   -163.35661    38760.619 
  511100    294.33089   -1525.8197    498.19205    290.14374   -832.39793    38760.619 
  511200    297.95758   -1537.7931    482.75167    278.96728    -131.7475    38760.619 
  511300    297.67024   -1536.2064    510.20405     306.7199    452.06616    38760.619 
  511400    299.59261   -1575.8205    522.96844    288.47694    306.45612    38760.619 
  511500    316.09007   -1540.0068    500.67167    375.85598    432.60584    38760.619 
  511600    300.01048   -1537.3293    522.03959    327.91018    1111.6816    38760.619 
  511700    304.27918   -1531.6072    495.71537    326.41982    237.24498    38760.619 
  511800    292.00987   -1513.0493    485.58512    279.91567    374.92607    38760.619 
  511900    302.12104    -1531.119    524.86225    346.39248    135.03655    38760.619 
  512000    292.29381   -1555.4071    508.31191    261.55586   -206.72302    38760.619 
  512100    298.98388   -1539.6048    487.95086    286.94971   -220.23153    38760.619 
  512200    302.09174    -1568.756    477.98518    261.74723    173.54918    38760.619 
  512300     290.7881   -1522.7348    499.60199    278.77691   -6.5834219    38760.619 
  512400    309.33281   -1540.8826     471.6666    315.72163    543.65206    38760.619 
  512500    297.71765   -1527.3636    504.32512      309.896    204.74057    38760.619 
  512600    294.93775   -1539.0578    494.13725    275.56785    446.11088    38760.619 
  512700     306.1985     -1540.75    490.69095    320.84573    312.54522    38760.619 
  512800    299.04059   -1569.1785    512.36118    282.04025    196.10729    38760.619 
  512900    299.21346   -1546.6491    473.98059    266.96302    45.833334    38760.619 
  513000     308.8907   -1538.0423    499.69663    344.61257    314.78353    38760.619 
  513100    300.50318   -1639.5791    466.17436    172.00107     608.9456    38760.619 
  513200    301.80319   -1618.4245    495.95156    228.75327   -335.57456    38760.619 
  513300    304.28431   -1578.2135     485.2517    269.37279   -253.27151    38760.619 
  513400    306.58935   -1627.2241    462.07357    207.50411   -18.631661    38760.619 
  513500    285.49772   -1584.5422    504.03352     197.7151    -70.52022    38760.619 
  513600    285.25506   -1629.8994    485.37713    132.61506   -432.65436    38760.619 
  513700    298.53795   -1607.1101    488.80301    218.30005   -233.17612    38760.619 
  513800    308.88661   -1619.0195     485.4695    249.38998    22.213345    38760.619 
  513900     317.6197   -1624.2616    497.76309    295.54106    -213.6133    38760.619 
  514000    304.38222   -1582.8151    453.32637     233.2843   -150.60014    38760.619 
  514100    303.72908   -1588.1914      491.531     263.1884   -216.93054    38760.619 
  514200    293.59104   -1606.3579    494.46642    202.56744   -124.67625    38760.619 
  514300    305.81471   -1602.7446    467.55688    233.99879   -179.17875    38760.619 
  514400    296.86096   -1608.7912    493.52991    213.83768   -125.64771    38760.619 
  514500    308.05409   -1578.3916    466.80666    267.62769    104.58447    38760.619 
  514600    309.54629   -1573.8226    488.82954    300.90038   -150.82454    38760.619 
  514700    307.49846   -1563.8015    499.37205    312.29552   -234.61602    38760.619 
  514800    300.08754   -1600.7661    497.03274    239.81156   -836.39418    38760.619 
  514900    306.14635   -1589.7015    478.19975    259.16956   -923.58537    38760.619 
  515000    302.46265    -1642.195    483.55207    195.53576   -104.39586    38760.619 
  515100    290.44838   -1617.0055    482.48321    165.86642    -606.4189    38760.619 
  515200    301.65371   -1615.2287    503.60446    238.93273     285.6568    38760.619 
  515300    300.45859   -1606.3157    491.39177    230.28228    798.81954    38760.619 
  515400    295.82348   -1593.6779    469.79243    200.56854    351.79655    38760.619 
  515500    301.00688   -1591.5033    485.07839    241.23606    232.12539    38760.619 
  515600    299.02795   -1584.6697    481.24337    235.37463    520.68233    38760.619 
  515700     305.0037   -1594.2347    478.63545    249.95626    720.24978    38760.619 
  515800    303.27665   -1622.4024    486.16377    221.58454     444.9255    38760.619 
  515900    297.94761   -1576.7434    500.87139    258.09208    702.11873    38760.619 
  516000    308.36113   -1534.0948    489.04751    335.53997    247.83516    38760.619 
  516100     300.9014   -1541.7198    497.52469    302.99367    126.69551    38760.619 
  516200    286.65419   -1549.8893    478.45915    211.97128   -227.76235    38760.619 
  516300     299.4171   -1549.4517     474.5807    265.67221    10.485181    38760.619 
  516400    285.55737   -1546.6541    537.80658     269.6433     578.7382    38760.619 
  516500    298.97122   -1609.9856    482.54766    211.10904    443.04788    38760.619 
  516600    294.35297   -1578.6013    479.14481    218.41378    79.358974    38760.619 
  516700    295.49286   -1549.9054     484.8772    257.94555   -293.65492    38760.619 
  516800    296.42403   -1521.8074    492.59044    297.92581    469.68845    38760.619 
  516900     298.5662   -1515.2868    500.59439    322.04121   -23.956866    38760.619 
  517000    296.02535   -1556.9561    480.78819    249.18991   -303.84083    38760.619 
  517100    306.34962   -1539.2314     478.0894    310.43937    135.35483    38760.619 
  517200    301.87769   -1530.4216    510.07858    331.21672     231.2339    38760.619 
  517300      316.667   -1596.7138    499.29429     320.3546    967.93189    38760.619 
  517400    303.58746   -1623.9393    493.07891    228.35428    258.12604    38760.619 
  517500    297.67128   -1589.1994    472.00513    215.53263   -573.83484    38760.619 
  517600     303.7781   -1593.9105    493.55402     259.7117   -833.19152    38760.619 
  517700    299.64361   -1570.5638    490.51314    261.50669   -209.03926    38760.619 
  517800    302.86217   -1577.5554     499.5697    277.98174    -64.36507    38760.619 
  517900     307.2346   -1572.8438    503.68901    306.38885    177.29018    38760.619 
  518000    295.96397   -1537.1247    500.25568    288.21396    309.49906    38760.619 
  518100    313.22135    -1564.483    498.52945     336.3938    1126.7754    38760.619 
  518200    298.19946   -1546.1953    498.46659    287.36293     115.1015    38760.619 
  518300    297.06543    -1556.832    492.28205    265.46452    26.406424    38760.619 
  518400    303.18252   -1592.8571    497.23445    261.77908   -126.52679    38760.619 
  518500    308.36135   -1591.1036    480.84963    270.33429   -114.24091    38760.619 
  518600    305.83051   -1546.1702    503.56777    326.65476   -16.478819    38760.619 
  518700    302.56594   -1557.8501    494.95912     291.7502    61.393339    38760.619 
  518800    296.86767   -1549.2205    507.49165    287.40013    120.25082    38760.619 
  518900     302.2729   -1565.7054    482.85693    270.48075     10.80448    38760.619 
  519000    304.52296   -1583.2411    501.36681    281.52887    287.61562    38760.619 
  519100      306.015    -1574.345    490.65092    286.38919   -14.052994    38760.619 
  519200    293.29908   -1548.8987    504.12987    268.38296   -324.17239    38760.619 
  519300    300.62999   -1584.2241    492.64875    254.39825    115.95396    38760.619 
  519400    296.26107     -1562.31    513.27851    277.38171   -154.72655    38760.619 
  519500    300.38635   -1590.6695    509.18792    263.40124     63.65662    38760.619 
  519600    300.11792   -1570.0649    502.34589    275.96199    222.22678    38760.619 
  519700    290.86582   -1570.3912    469.04028     200.9067   -191.58033    38760.619 
  519800    288.18461    -1536.259    512.90129    266.89573   -48.907199    38760.619 
  519900    291.48341    -1568.278    471.79366    208.53836   -324.33013    38760.619 
  520000    290.17546   -1567.6341    504.82213    236.35482   -98.578371    38760.619 
  520100     299.3945   -1565.5889    490.40304    265.25623   -460.15593    38760.619 
  520200    292.95398   -1530.3222    504.46741    285.75198   -186.86297    38760.619 
  520300    302.86412    -1551.572    493.22473    297.62895    -30.24097    38760.619 
  520400    307.27886   -1514.5786    476.04702    337.21018    -214.8344    38760.619 
  520500     313.5969   -1527.1692    475.90986    352.76939    -1039.575    38760.619 
  520600    290.53207   -1523.6076    507.35952    284.51529   -982.98795    38760.619 
  520700    307.77384   -1528.2177      483.381    333.12122   -764.12896    38760.619 
  520800    311.18377   -1538.4018    500.98337    355.80629    329.73161    38760.619 
  520900    303.40802   -1584.1933     516.2453    290.46328    -91.84837    38760.619 
  521000    312.06574   -1513.9472    508.65026    391.87651     701.1334    38760.619 
  521100    300.08929   -1540.4488    481.60296    284.70696    50.851316    38760.619 
  521200    295.40463    -1566.774    488.83507    244.63979   -154.58867    38760.619 
  521300    303.24912   -1546.0591    505.79947    317.44028    77.563383    38760.619 
  521400    294.42263   -1554.3236    486.06997    249.92854    8.8553506    38760.619 
  521500    301.07874   -1529.2039    493.07276    311.85157   -491.52254    38760.619 
  521600     295.9863   -1526.7933    495.84799    294.23767   -242.55935    38760.619 
  521700    306.59397   -1508.7867    499.58719    363.47592   -58.222353    38760.619 
  521800    309.70573   -1545.2129    503.60495    344.99931    234.74933    38760.619 
  521900     300.0527   -1577.3283     487.6178    253.67847    442.16337    38760.619 
  522000    309.57907   -1557.9762    492.07583    320.13976    33.414673    38760.619 
  522100    290.07956   -1548.1523    501.08587    251.67099    62.492211    38760.619 
  522200    300.12957    -1530.973    485.25338    298.01356   -83.326649    38760.619 
  522300    298.21083   -1497.4927    538.58417    376.23408   -379.34635    38760.619 
  522400    297.02861   -1457.0656    490.52043    363.30435   -410.43185    38760.619 
  522500    306.46211   -1491.7961    495.99519    376.28408   -135.76854    38760.619 
  522600    298.89954   -1530.7016    511.06746     318.5919    3.8890266    38760.619 
  522700    307.70089    -1539.056    487.56412    326.13935    244.94977    38760.619 
  522800    301.08023   -1522.4686     506.0463    331.56707     30.70872    38760.619 
  522900    298.55242   -1522.9255    511.09093    324.83737     218.1953    38760.619 
  523000     307.6074   -1542.6144     500.1787    334.77693    121.02259    38760.619 
  523100     290.7913   -1534.9115    488.02758    255.04008      143.969    38760.619 
  523200    305.91074   -1500.1946     493.2592      362.681   -128.98649    38760.619 
  523300    303.79672   -1503.6844    477.02738    333.49461    345.82668    38760.619 
  523400    295.02371   -1564.7679    480.25275    236.35818   -51.119511    38760.619 
  523500    288.59497   -1542.8036    496.95234    246.23943   -9.6613818    38760.619 
  523600    295.15849   -1563.5504    494.11378    252.04008    202.05879    38760.619 
  523700    295.73735   -1562.5123    505.57362     267.1297    605.31355    38760.619 
  523800    295.55573   -1601.4493     483.4751    205.28106     769.1881    38760.619 
  523900    294.97188   -1600.6735    470.40059    190.36827    569.05152    38760.619 
  524000    309.10279   -1609.2122    509.64277    284.33835      286.602    38760.619 
  524100    291.70795   -1607.7979    491.97879    190.20891    139.50762    38760.619 
  524200    299.63601   -1637.2877    471.07395     175.3096    305.23027    38760.619 
  524300     289.5338   -1605.2293    481.35003    172.41473    528.00774    38760.619 
  524400    297.02714   -1594.5569    497.60303    232.88907    865.28959    38760.619 
  524500    296.59231    -1613.887    471.97266     185.9818    186.32459    38760.619 
  524600    306.62671   -1587.4341    482.46311    267.85102     50.26966    38760.619 
  524700    294.80002   -1584.6697    487.00362    222.20565   -389.23896    38760.619 
  524800    292.49512   -1614.5196    476.56542    171.59811   -206.84999    38760.619 
  524900    306.96965   -1567.7041    489.37655     296.0298    117.89653    38760.619 
  525000    308.84358   -1555.7189    496.77495    323.80333    223.86275    38760.619 
  525100    295.86837   -1578.4842    488.98554     235.1563     33.69481    38760.619 
  525200    285.38182   -1541.1635    498.03468    234.57596    37.563616    38760.619 
  525300     300.4612    -1579.255      509.438    275.40092     483.1918    38760.619 
  525400    298.32626   -1593.3285    497.89274    240.22364    573.62107    38760.619 
  525500    298.11731   -1607.2438    483.91252    211.39254     372.8238    38760.619 
  525600      305.681   -1616.4636    496.82656    248.95085    256.98249    38760.619 
  525700    298.14511   -1619.2835    523.42326     238.9881    318.72526    38760.619 
  525800    310.20522   -1575.4735    489.64346    303.01356    1122.5582    38760.619 
  525900    292.30536   -1592.1381    519.53418    236.09881   -205.00299    38760.619 
  526000    306.03748   -1539.5726    476.84511    307.45636   -52.656199    38760.619 
  526100     294.4679   -1585.6647    497.70163    230.42169   -447.18334    38760.619 
  526200    305.30732   -1569.6735    496.46353     293.7049    34.978045    38760.619 
  526300    310.02051   -1579.2285    483.78658    292.57468    -54.82152    38760.619 
  526400    284.63083   -1597.3296    493.39835    170.41131   -380.95444    38760.619 
  526500    304.97066   -1615.1908    498.95939    249.17609   -613.90039    38760.619 
  526600    294.58282    -1595.932    482.62779    205.59515   -405.35997    38760.619 
  526700    294.57666   -1597.1676    479.80097    201.50516   -274.56949    38760.619 
  526800    296.27249     -1607.15    497.90306    217.21733   -318.27416    38760.619 
  526900    297.36348   -1584.3035    482.00041    229.04576   -554.97129    38760.619 
  527000    313.71225   -1591.3785    481.59972    294.76637    118.86592    38760.619 
  527100    296.54123    -1553.674    501.67268    275.66619    558.89939    38760.619 
  527200    308.57631   -1619.1981    480.34761    242.70016    445.19885    38760.619 
  527300    309.40102   -1617.0225    490.92471    259.14523    740.84851    38760.619 
  527400    306.72588   -1581.8848    519.94839    311.32958    365.80171    38760.619 
  527500    293.35602   -1604.3644    482.96041    192.00276     413.5113    38760.619 
  527600    304.07643   -1599.4969    486.24228    248.14932    598.05426    38760.619 
  527700    304.71847   -1527.3817    514.92798    351.82471    552.61361    38760.619 
  527800    292.18019   -1519.9932    490.05579    278.20494    537.78582    38760.619 
  527900    304.48362   -1570.0929    486.54251    279.67659   -211.88949    38760.619 
  528000    300.21576   -1530.4939    519.46547    333.09059    379.94333    38760.619 
  528100    304.33569   -1558.0941    505.14467    309.61527    109.69407    38760.619 
  528200    294.89458   -1548.2667    481.23065    253.25912    113.25861    38760.619 
  528300    291.64777   -1549.9542    496.04544    251.84978     434.3617    38760.619 
  528400    298.10837   -1571.8925    488.83163    251.62295    48.336608    38760.619 
  528500     297.3619   -1569.1007    501.22264    263.46371    33.712448    38760.619 
  528600    311.77353   -1611.2495    509.82932    294.44498   -136.24725    38760.619 
  528700    304.99704   -1612.8036    504.40707    257.12916     166.3977    38760.619 
  528800    310.46165   -1607.9069    486.39489     268.4796   -92.016307    38760.619 
  528900    289.78362    -1572.509    503.68047    228.58391   -612.92298    38760.619 
  529000    303.90181   -1604.4985    510.16887    266.29252    10.795161    38760.619 
  529100    299.50673   -1598.7571    507.97558    250.16308   -73.437893    38760.619 
  529200    295.23798   -1588.6449    469.85198    203.03966   -746.60878    38760.619 
  529300    297.78665   -1566.5629    512.06435    278.74491   -380.44198    38760.619 
  529400    289.83468   -1596.3582     467.5013    168.78415   -43.657683    38760.619 
  529500    308.42339   -1579.6368    474.88603     276.1152    177.99328    38760.619 
  529600    296.64373   -1561.6826    498.65233     265.0961   -411.63659    38760.619 
  529700    289.38563   -1541.7371    490.17906     244.0726   -480.55365    38760.619 
  529800    302.30416   -1591.2394     503.2016    265.43137   -580.77013    38760.619 
  529900    306.70111   -1593.7935    490.03965    269.40123   -326.04844    38760.619 
  530000    299.13239   -1580.4811    517.38101    276.16849   -102.37148    38760.619 
  530100    303.44929   -1592.3018    492.96732    259.26163   -426.22183    38760.619 
  530200    295.03105   -1582.5217    479.95477     218.3392   -561.67958    38760.619 
  530300    288.95778    -1569.455    514.45108     238.7111   -148.11557    38760.619 
  530400    307.41409   -1532.2141     504.6362    348.76931   -195.41603    38760.619 
  530500    300.28998    -1556.874    486.70514    274.28246   -592.81062    38760.619 
  530600    299.59516   -1573.5324    467.87746    235.68554   -438.11914    38760.619 
  530700     301.0686   -1582.1657    473.22398    238.99563   -620.13394    38760.619 
  530800    302.57498    -1582.294    497.25106    269.63872   -434.98569    38760.619 
  530900    301.18064   -1555.8367    493.05763    285.65992   -354.73616    38760.619 
  531000    298.70409   -1541.4329    479.05999    274.97812   -331.85206    38760.619 
  531100    300.90681   -1547.7314    510.06983    309.55139   -568.74961    38760.619 
  531200    309.89426   -1589.7466    501.90545    299.61023    230.61372    38760.619 
  531300    314.59417   -1583.9421    472.86162     297.4132   -30.823533    38760.619 
  531400    308.47104   -1625.1833    496.35234    252.24833   -70.963655    38760.619 
  531500    305.99493   -1558.1501    505.09905    316.94235   -4.3736242    38760.619 
  531600    300.89461   -1525.6694    496.27354    317.76252   -72.386733    38760.619 
  531700    306.39732   -1562.0976    519.23686     328.9342    160.90877    38760.619 
  531800    297.50496   -1573.5696    479.54083    237.95351   -773.23715    38760.619 
  531900    302.16964    -1585.892     473.8754    240.85028   -741.97388    38760.619 
  532000    293.74116   -1629.4511    478.65675    164.33675   -431.96841    38760.619 
  532100    303.83744   -1597.0322     499.0385     262.3402   -542.63146    38760.619 
  532200    290.07351   -1576.9112    478.68534    200.48451   -345.36936    38760.619 
  532300    300.46179   -1618.4511    480.33174    207.10113    -333.5554    38760.619 
  532400    298.35117    -1537.763    494.53721    292.54512   -467.40866    38760.619 
  532500    304.11101   -1561.1108    478.64475    279.09267   -649.16399    38760.619 
  532600    259.17166    -1572.796    526.00825    113.56956   -862.89459    38760.619 
  532700    306.07126   -1577.8827      486.691    279.14335    69.744802    38760.619 
  532800    304.02434   -1569.9969    478.34265    269.51647    282.79161    38760.619 
  532900    296.81381   -1613.4669    460.57561    175.99663   -423.74818    38760.619 
  533000    289.95666   -1597.3357    484.93917    185.79065   -718.82862    38760.619 
  533100     308.4323   -1591.0261     493.0732    282.95304   -344.52164    38760.619 
  533200    303.16756   -1578.5636    487.71272    266.48384   -212.95932    38760.619 
  533300    292.18107   -1581.6663    492.44589    218.92592     175.4996    38760.619 
  533400     304.3561   -1591.6378    468.50125     239.5195   -96.651556    38760.619 
  533500    301.40974   -1564.3819    490.24598    275.32875   -49.821154    38760.619 
  533600    290.10675   -1613.3653    489.10957    174.60342   -468.98243    38760.619 
  533700    298.59956   -1646.5015    489.57929    179.96079    227.82441    38760.619 
  533800     283.2267     -1646.47     470.6579    92.243883   -19.722117    38760.619 
  533900      296.982   -1619.9449    493.28327    202.97923   -67.711149    38760.619 
  534000    303.97777   -1587.6064    477.10158    250.45736   -265.01942    38760.619 
  534100    294.85397   -1591.2907    482.47456    211.29716    411.57707    38760.619 
  534200    298.08314   -1586.1648    485.27164    233.67776    1005.6489    38760.619 
  534300    299.35048   -1593.7356    478.00019    224.50961    481.76857    38760.619 
  534400    308.15894   -1578.3791    512.91125    314.21413    500.14541    38760.619 
  534500    298.27513   -1557.7942    503.72295    281.35925    1125.6747    38760.619 
  534600    304.69733    -1582.106    482.18369    264.26152    199.17847    38760.619 
  534700    299.26063   -1606.6118    483.82927    217.06022     137.4804    38760.619 
  534800    307.39164   -1574.2887    496.29926    298.25723    344.29949    38760.619 
  534900    302.30024   -1571.9139     486.0796     267.6173   -60.452245    38760.619 
  535000    301.87349   -1582.1645    486.33749    255.71398   -5.4219894    38760.619 
  535100    301.06317   -1516.6735    506.47621     337.7157    171.70921    38760.619 
  535200    303.08667   -1539.4947    495.89557    313.37342   -45.014173    38760.619 
  535300    299.15506   -1539.0596     498.6065    298.91694    -290.2887    38760.619 
  535400    300.85468   -1527.5025     498.8786    318.35565   -44.361882    38760.619 
  535500    305.94585     -1526.93    523.81713    366.66078   -44.868625    38760.619 
  535600    297.67048   -1537.5434    493.77766    288.95757    454.81175    38760.619 
  535700    299.01499   -1584.9281    525.36229    279.17715    61.852182    38760.619 
  535800     296.8485    -1555.807    501.06562    274.30177    207.14018    38760.619 
  535900    310.31662    -1526.153    495.47685    358.66616    443.65476    38760.619 
  536000    300.51708   -1506.4908    505.52604     344.5033    222.02546    38760.619 
  536100    300.00879   -1532.2642    502.01276    312.94088    983.08857    38760.619 
  536200    305.63924   -1552.4799     498.7699     314.6909    1210.8919    38760.619 
  536300    296.38441   -1540.6294    508.31518    294.65117    1343.8604    38760.619 
  536400    297.94787   -1549.4245    490.16813    274.70889    799.24312    38760.619 
  536500    302.63142     -1569.43    490.51796    276.02234    810.90744    38760.619 
  536600     303.8051   -1560.9092    487.03341    286.31337    851.47614    38760.619 
  536700    297.71539   -1580.1596    477.16971    229.93454    482.62929    38760.619 
  536800    297.19281   -1529.5503    480.03867    281.07314    405.03579    38760.619 
  536900    300.45298   -1568.6787    494.97436    271.47675    450.02131    38760.619 
  537000    302.93017   -1557.8559    493.12464    291.54061   -326.66315    38760.619 
  537100    299.37759    -1572.184    479.23942    247.42184    308.87434    38760.619 
  537200    299.54598   -1562.0561    508.38144    287.44565   -180.28828    38760.619 
  537300    299.60166   -1504.1832    512.93406    350.12046   -189.87231    38760.619 
  537400      297.652   -1552.9809    489.10147    268.76116     429.2571    38760.619 
  537500    306.76932   -1538.0824    498.44646    333.82448   -108.03531    38760.619 
  537600    308.37495   -1540.2368    497.87652    338.28884    -307.0373    38760.619 
  537700    299.20091   -1552.1112    498.14003    285.60413   -894.17539    38760.619 
  537800    302.09519   -1583.1955    471.37099    240.70907   -523.48834    38760.619 
  537900    297.04255   -1574.5977    481.61705    236.93129    176.85963    38760.619 
  538000    308.96646   -1592.0663    487.97511    279.20628   -62.614058    38760.619 
  538100    297.12194   -1591.6407    499.66893    238.29567   -183.17745    38760.619 
  538200    294.02757   -1538.8452    506.78676    284.35498   -199.18672    38760.619 
  538300    301.81495   -1581.6361    483.09115    252.73392   -835.55404    38760.619 
  538400     305.2068   -1551.4616    482.44203    297.44527   -630.53849    38760.619 
  538500    307.85288   -1567.2352    484.74666    295.82322   -635.60264    38760.619 
  538600    287.98627   -1539.3725    490.80329    240.79619   -606.67049    38760.619 
  538700    307.13274   -1605.6498    506.72438    276.16218   -77.738321    38760.619 
  538800    309.46209   -1583.3727    459.54516    261.68896    116.84193    38760.619 
  538900    309.80843   -1599.0811     475.9855    263.97144    92.243446    38760.619 
  539000    309.64234   -1564.7772    495.15717    316.70341    57.317164    38760.619 
  539100    308.99381   -1573.3616    490.06005    300.11831    297.30148    38760.619 
  539200    311.63887   -1545.5896    466.03561    315.70832   -201.23124    38760.619 
  539300    294.51958   -1532.2086    516.47499    302.88262    24.050789    38760.619 
  539400    299.20869   -1575.4563    480.82603    244.97991    332.77546    38760.619 
  539500    305.12106   -1570.9756    480.22609    275.33139    139.59975    38760.619 
  539600    305.80674   -1555.7554    475.48946    288.88486    70.759964    38760.619 
  539700    292.36405    -1598.528     481.8814    192.31887    -430.2836    38760.619 
  539800    306.42248    -1606.722    476.44021    241.62584   -382.93238    38760.619 
  539900    291.86129   -1582.4429    475.74518     200.0168   -622.15521    38760.619 
  540000     293.1086   -1581.3942    482.14353    213.04836   -589.39626    38760.619 
  540100    290.66513   -1549.6424    492.85796    244.57477   -492.25819    38760.619 
  540200     291.9716   -1530.3227    510.60339    287.48909   -341.18504    38760.619 
  540300     295.3919   -1507.0781    506.39278    321.83639   -543.97515    38760.619 
  540400    303.58058     -1527.26    484.90164    316.82555   -359.52531    38760.619 
  540500    299.68358   -1519.0873     496.2488     318.8978   -376.26196    38760.619 
  540600    300.89288   -1508.8897    512.91284     351.1737   -963.31045    38760.619 
  540700    298.94814   -1536.7097    487.52045    289.25436   -621.39587    38760.619 
  540800    301.33705    -1518.043    491.19707    322.29325    15.737242    38760.619 
  540900     293.9063    -1523.681    489.99204    282.18146   -597.43838    38760.619 
  541000    300.20375   -1494.4786    493.52723     343.1139    265.16164    38760.619 
  541100    301.06641   -1494.0059    526.98477    380.90634    120.01288    38760.619 
  541200    301.30438   -1493.7778    488.94788    344.16299    379.94592    38760.619 
  541300    307.40615     -1529.34    505.26317    352.23484    213.40431    38760.619 
  541400    300.30279   -1538.6421    484.29308    290.15968   -99.344464    38760.619 
  541500    307.26003   -1549.7266    495.56914    321.49999   -298.58609    38760.619 
  541600    297.10717    -1555.321    477.94572    252.82599    12.543115    38760.619 
  541700    306.21628   -1552.1179     514.3619    333.22841   -40.224854    38760.619 
  541800    302.55547   -1568.0163    494.47522     281.0532    210.20021    38760.619 
  541900    300.50297   -1539.2252    526.48138    332.66107    89.417582    38760.619 
  542000     292.0728    -1549.608    495.81783    253.87139   -32.504338    38760.619 
  542100    310.06441   -1545.3208    486.45728    329.34964    140.58218    38760.619 
  542200    302.68613   -1538.4509    494.36456    311.09295    108.33141    38760.619 
  542300    294.44483   -1535.6003    523.33406    306.01525   -320.62187    38760.619 
  542400    291.64956   -1503.3748    498.51775    300.90956   -215.14906    38760.619 
  542500    302.06255   -1515.1912    490.66467    327.86084   -522.52986    38760.619 
  542600    301.03392   -1581.9703    503.45447     269.2662   -186.79174    38760.619 
  542700    305.71316   -1532.0462    474.63797    311.32363   -234.33095    38760.619 
  542800    306.42276   -1516.0281    491.87541    347.75618   -308.06846    38760.619 
  542900    298.69839    -1527.256    493.33759      303.407    58.142754    38760.619 
  543000     287.5872   -1564.0521    502.92542    226.45205     49.78137    38760.619 
  543100    305.83806   -1524.5697    507.76502    352.48638   -11.589749    38760.619 
  543200    302.07581   -1570.9689    474.94581    256.42375   -249.48521    38760.619 
  543300    304.62589   -1559.5871    471.35023    275.62705   -640.84878    38760.619 
  543400    287.64455   -1555.5804    495.41503    227.67014   -33.253492    38760.619 
  543500    289.25427   -1533.2837    486.67447     248.4332    85.575411    38760.619 
  543600    311.72507   -1543.7583    521.89542    373.78531    168.69161    38760.619 
  543700    289.49325   -1578.2099    496.93524    214.83782   -463.73339    38760.619 
  543800    298.20161   -1568.2727    487.17351    254.00205   -479.82464    38760.619 
  543900    292.78304   -1567.9882    481.15187    224.00509   -440.74927    38760.619 
  544000    298.48411   -1542.4666    501.50956    295.40907    142.38499    38760.619 
  544100    305.29438   -1534.3197    478.68262     311.2198    170.78366    38760.619 
  544200    289.12406   -1530.1281    494.67105    259.00249    -228.8308    38760.619 
  544300    295.64037   -1524.0988    504.42048    303.95582    47.166513    38760.619 
  544400    305.96491   -1503.5793    475.59671    341.87638     207.8468    38760.619 
  544500    298.16042   -1544.2825    511.79949    302.43384   -116.81423    38760.619 
  544600    309.52997   -1529.8841     506.1584    362.09463    458.81784    38760.619 
  544700    298.49239   -1515.3476    501.59436    322.64993    943.39174    38760.619 
  544800    302.81271   -1497.0868    507.79262     366.4518    715.09613    38760.619 
  544900    299.83908    -1499.433    509.07426    352.07379    35.015478    38760.619 
  545000    296.13556   -1501.1008    469.58105    294.33149   -479.43958    38760.619 
  545100    305.18565   -1525.3974    505.04669    346.01934    149.52617    38760.619 
  545200    307.57945   -1534.2607    516.14898    358.97583    9.4672179    38760.619 
  545300    304.64109   -1512.0151    501.31442    353.23134    70.408394    38760.619 
  545400    306.77833   -1564.6031    472.08065    280.97839   -542.95087    38760.619 
  545500    302.49918   -1531.3995    478.70755    301.65029    -821.3357    38760.619 
  545600     308.0439   -1526.3175     474.9154    327.76492   -295.99951    38760.619 
  545700    298.39047    -1540.441     486.3623    281.86818   -406.10337    38760.619 
  545800    298.77024    -1529.973    522.55724     330.2314   -334.94531    38760.619 
  545900    301.94962   -1505.0998    493.54141    340.32343     -390.762    38760.619 
  546000    299.82302   -1528.2609    507.74615    321.84589    129.89131    38760.619 
  546100    296.02149   -1568.9542    499.01548    255.40176    107.93631    38760.619 
  546200    300.97291   -1564.5643    445.90076    228.84535    179.23385    38760.619 
  546300    304.43405   -1550.4812    510.64347    323.16731    510.90449    38760.619 
  546400    304.47578   -1539.9768    475.79703    299.01214     187.8367    38760.619 
  546500    292.52864   -1533.6429    517.96075    294.02027   -368.08253    38760.619 
  546600    291.38419   -1576.9376    487.45899    215.09988   -358.49015    38760.619 
  546700    290.47515   -1600.2065    491.34326    191.64536   -895.77696    38760.619 
  546800     298.4099   -1585.5071     481.1263    231.65309   -315.81756    38760.619 
  546900    306.16084   -1586.5425    475.51285    259.70655   -181.50331    38760.619 
  547000    306.00956   -1613.8741    470.73081    226.91555   -37.821559    38760.619 
  547100    306.18364   -1576.2273    499.55914    294.17005    25.068283    38760.619 
  547200    303.79036   -1585.9039    484.09704    258.31628   -6.7085676    38760.619 
  547300    317.35937   -1589.8987    487.21247    318.18771    443.85318    38760.619 
  547400    293.53176   -1581.9231    457.07859    189.34902   -87.370487    38760.619 
  547500    290.11491   -1590.3777     511.5733    220.09125    264.48849    38760.619 
  547600    302.73635   -1610.6423     483.1108    227.87267    237.23842    38760.619 
  547700    298.56858   -1583.0621    447.70822    201.39037   -139.64166    38760.619 
  547800    303.15397     -1554.33    493.12896    296.07289   -104.59927    38760.619 
  547900    299.02988   -1551.5375     476.3609    263.63298   -551.16698    38760.619 
  548000    295.70374    -1514.347    481.10963    290.68051    151.09518    38760.619 
  548100    297.33059   -1555.3682     476.8823     252.7157   -139.15267    38760.619 
  548200    305.92133   -1554.8265    471.22112    286.05848   -165.95472    38760.619 
  548300    301.17522   -1571.9499    478.64488    255.10969    531.92049    38760.619 
  548400    300.52457   -1551.5013    492.70128    286.70164    218.96854    38760.619 
  548500    291.99608   -1585.0182    453.20148     175.5013   -135.98032    38760.619 
  548600    297.18332   -1598.5236    488.23661    220.25521   -622.87678    38760.619 
  548700    301.10551   -1566.8866    469.43197    250.64791    88.223419    38760.619 
  548800     303.2628   -1580.5348    466.14648    243.37282    252.73917    38760.619 
  548900    307.98204   -1559.6961     490.3277     309.5216    17.552059    38760.619 
  549000    303.65662   -1552.3666    478.24703    285.40475   -271.35203    38760.619 
  549100    303.76244   -1580.0941    458.91644    238.82052   -244.24918    38760.619 
  549200    303.68622   -1544.8595    518.99667    333.79406   -504.40201    38760.619 
  549300    304.00473    -1539.131    479.93503    301.88689   -783.64558    38760.619 
  549400    291.01318   -1543.3904    465.15322    224.68026   -581.19304    38760.619 
  549500    306.79589   -1529.7017    464.78878    308.66653   -771.52071    38760.619 
  549600    297.77103   -1566.6766    466.83679     233.3337   -404.73912    38760.619 
  549700      303.385   -1553.8168     479.1218     283.6133    7.7049914    38760.619 
  549800    304.66225     -1530.72    485.90607    319.21275   -20.997245    38760.619 
  549900    296.03556   -1545.0233    489.00596    269.38615   -117.42025    38760.619 
  550000    300.88368   -1551.9367    496.07712    291.24976   -189.86486    38760.619 
  550100    308.27537   -1591.6745      464.025    252.55377    -150.9002    38760.619 
  550200    303.62701   -1572.6237    483.77758    270.54562   -292.61329    38760.619 
  550300    299.12843   -1561.8611    484.81955     262.2093    208.06082    38760.619 
  550400    287.90901   -1527.7842    465.28139    226.51671    52.109725    38760.619 
  550500    295.16443   -1547.3605    456.45984     230.6027   -3.7076706    38760.619 
  550600    309.95196   -1537.7735    497.49157    347.42778    392.79151    38760.619 
  550700    296.11795   -1560.2292    490.35841     255.9016    17.048435    38760.619 
  550800    291.78511   -1582.2849    476.15508    200.24372   -6.8510151    38760.619 
  550900    291.34122   -1558.6513    479.83471    225.56953   -196.45814    38760.619 
  551000    296.37521   -1562.6186    477.84108    242.14665    353.74926    38760.619 
  551100    297.48415   -1548.4765    487.28436    270.69694   -29.637959    38760.619 
  551200    307.98042   -1559.6897    459.46557    278.65864   -50.471565    38760.619 
  551300    303.98125   -1550.7634    476.48955     286.7039   -23.067148    38760.619 
  551400    301.71712   -1547.7914     484.2933    287.34279    59.169534    38760.619 
  551500     297.5631   -1529.5743     506.0632    308.73149    142.61801    38760.619 
  551600    301.39956   -1587.5854    472.75267    234.58637    997.51293    38760.619 
  551700     289.9999   -1584.9565    496.31373    209.73803    664.09003    38760.619 
  551800    305.43299   -1526.0119    478.12539      319.591    380.87436    38760.619 
  551900    302.39781   -1590.1272    460.09269    223.85391    125.38178    38760.619 
  552000    309.35755   -1570.9216    501.00481    315.13161    70.359704    38760.619 
  552100    281.96658   -1524.2281     473.8028    211.98889   -427.98796    38760.619 
  552200    300.05777   -1543.3589    501.10047     301.1532   -389.13521    38760.619 
  552300    300.47569   -1510.6639    485.24244    319.86134    -204.5333    38760.619 
  552400    306.86075   -1502.2173    455.87688    327.52935   -256.48254    38760.619 
  552500    306.07209   -1527.6201    472.82851    315.54725    540.33091    38760.619 
  552600    308.73514   -1540.6378    494.15922    335.78316    915.26045    38760.619 
  552700    303.41224   -1528.7325    493.93467    323.63235    1161.9477    38760.619 
  552800    295.12951    -1540.586    490.60683    271.36777    949.04226    38760.619 
  552900    293.15012   -1547.5164    468.25505    233.22353    158.70968    38760.619 
  553000    301.79616   -1542.9642    507.89167    316.12218    401.09957    38760.619 
  553100    289.54436   -1524.8889    471.10813    242.56047   -138.24962    38760.619 
  553200    309.80183   -1512.3118     467.3805    342.10628   -120.95038    38760.619 
  553300    305.82334   -1556.6421    481.89694    294.47998    -327.3827    38760.619 
  553400    299.53044   -1521.2379    488.02844    307.84128   -313.53705    38760.619 
  553500    303.31503   -1501.5509    467.43781    323.88193   -34.230733    38760.619 
  553600    307.80658    -1528.792    485.91847    335.23092    89.014077    38760.619 
  553700    299.30385    -1541.462    485.55282    284.12709    142.37125    38760.619 
  553800    294.22422   -1528.0527    465.20805     254.4492    249.99913    38760.619 
  553900    301.47109   -1495.5761    516.14305    370.30627    41.049236    38760.619 
  554000    295.47591   -1495.7592    475.20687    302.34554   -76.812602    38760.619 
  554100    297.74262   -1506.1168    481.78215    308.71169   -159.04183    38760.619 
  554200    300.32919   -1515.7752    480.89692    309.74858    82.844598    38760.619 
  554300    295.58043   -1533.5279    460.58304    250.42097   -131.30057    38760.619 
  554400    298.35237   -1550.7859    468.73627     253.7266    15.494995    38760.619 
  554500    304.16604   -1519.2432    476.21369    318.77556   -327.38893    38760.619 
  554600    296.64781   -1535.6538    470.31451    262.80534    170.07503    38760.619 
  554700     306.5937    -1546.806    482.28704    308.15521    685.68292    38760.619 
  554800    283.89985   -1526.0881    468.33834    213.32003    50.489345    38760.619 
  554900     297.6331   -1537.5926    515.43738    310.40076    444.59302    38760.619 
  555000    299.11926   -1483.1559    470.96467    327.01858     514.5191    38760.619 
  555100    302.51377   -1497.9669      499.266    355.70666    213.86354    38760.619 
  555200    298.09061   -1549.6436    507.97942    292.94018    22.960781    38760.619 
  555300    293.45736   -1501.6932    512.23986    324.40716   -133.80723    38760.619 
  555400    301.36731   -1484.7497    474.45827    338.98328   -226.97319    38760.619 
  555500    295.78789     -1477.81    472.52568     319.0103    20.389155    38760.619 
  555600    308.54118   -1460.4339    475.65103    396.61047   -303.36773    38760.619 
  555700    302.40114   -1535.6913    467.78631    285.99837    54.303459    38760.619 
  555800     291.1668   -1495.8718    496.79753    304.53098    415.11317    38760.619 
  555900    298.57461   -1525.3399    473.27841    284.70973    856.85263    38760.619 
  556000     291.6724   -1515.4227    482.13027     272.5764    616.97923    38760.619 
  556100    296.44769   -1578.6097    486.02878    234.66781    322.08942    38760.619 
  556200    308.93971   -1548.8789    500.16751    334.46631    824.44773    38760.619 
  556300    295.69071   -1539.3121    471.61729    256.16473    632.27173    38760.619 
  556400    304.55643   -1535.3483    493.57601    321.78071    723.53381    38760.619 
  556500    299.27595   -1471.3927    484.66978    353.18837   -75.565274    38760.619 
  556600    303.32745   -1510.9518     466.7858    313.88462    102.23201    38760.619 
  556700     299.4755   -1519.4744    459.03011    280.36048   -369.16467    38760.619 
  556800    297.11223   -1504.3651    486.29577    312.15461   -161.12376    38760.619 
  556900    298.37027   -1517.2319    462.25317    280.87776   -263.77611    38760.619 
  557000    297.49132   -1505.1371    445.09837    271.88253   -609.05739    38760.619 
  557100    312.87619   -1509.0238    466.26289    358.04112   -556.43551    38760.619 
  557200    300.28703   -1538.1426    486.01529    292.31078   -265.80824    38760.619 
  557300    293.17506   -1494.9352     453.4499    271.11124    -131.9545    38760.619 
  557400    307.36731   -1453.5588    502.76165    425.34068    36.561503    38760.619 
  557500    306.96628   -1501.3733    468.21798    341.18699   -243.48087    38760.619 
  557600    294.49577    -1490.161    482.58512    310.93373   -477.68342    38760.619 
  557700    302.47109   -1510.5262    459.78216    303.47247   -455.87314    38760.619 
  557800      294.213   -1478.4131    476.86734    315.69782   -492.27023    38760.619 
  557900    305.58293   -1519.6622    496.60419    345.09077   -268.44094    38760.619 
  558000    298.93922   -1530.3058    466.33986    274.43781     91.47747    38760.619 
  558100    296.56879   -1498.8995    484.24012    313.13145   -63.347392    38760.619 
  558200    290.40537   -1526.0851    476.42601    250.53704    321.93665    38760.619 
  558300     315.3545   -1510.7945    491.70058    392.80388    83.197015    38760.619 
  558400    293.65008   -1500.3244    491.81476    306.21363    -106.9542    38760.619 
  558500    309.82218      -1542.1    487.29716    332.32577    277.87893    38760.619 
  558600     300.5288    -1504.834    515.89389    356.58038    563.48434    38760.619 
  558700      293.817   -1498.5216    479.58093    296.52991    298.21562    38760.619 
  558800    308.51716   -1454.9563    480.20505    406.53454     428.2375    38760.619 
  558900    297.97333   -1468.6804    485.32053    350.71935   -26.726383    38760.619 
  559000    288.93611    -1483.789    454.51966    264.34872   -638.58706    38760.619 
  559100    294.27182   -1468.5763    492.12315    341.05374   -351.26452    38760.619 
  559200     300.3985   -1461.0713    492.82855    376.69443   -594.73219    38760.619 
  559300    292.91662   -1455.2409    487.66601    343.86462   -341.72584    38760.619 
  559400    313.73302   -1462.9697    475.00541    416.67389   -416.75273    38760.619 
  559500    296.16962   -1471.2818    480.87214    335.59403   -262.71053    38760.619 
  559600    304.18188    -1478.414    498.04866    381.51072   -10.870131    38760.619 
  559700    305.51971   -1501.7189    464.82924    330.97605    -112.9367    38760.619 
  559800     304.8241   -1476.8216    499.09251    387.02223   -123.89594    38760.619 
  559900    290.68362     -1496.46    468.06051    273.04239   -8.5576633    38760.619 
  560000    293.77637   -1480.8582    483.88391     318.3144    589.27697    38760.619 
  560100    306.93289   -1476.5512    473.35219    370.99375    184.68493    38760.619 
  560200    299.41871   -1458.0486    483.39664    365.89847    46.786535    38760.619 
  560300    299.64171   -1457.0108    503.30985    387.84796   -275.60522    38760.619 
  560400    302.53597   -1470.9771    486.00422    369.53409   -224.74078    38760.619 
  560500    300.71745   -1487.2753    455.05953    314.14943   -315.85746    38760.619 
  560600    304.74941   -1488.9071    484.61279    360.12267    529.48866    38760.619 
  560700    295.87753   -1482.7656    498.78245    340.71279   -334.22094    38760.619 
  560800    305.46547   -1448.1213    489.22643    408.72798    300.15356    38760.619 
  560900    291.59798   -1483.4173     483.3714    305.48981   -600.61711    38760.619 
  561000    287.89335   -1507.4485    510.22596    291.72688   -449.49622    38760.619 
  561100    295.42519   -1460.4414    484.19425     346.4236   -724.03324    38760.619 
  561200    302.55133   -1484.8477    458.94733    328.67538   -2.7151645    38760.619 
  561300    310.96343   -1484.6053     479.0087    386.64164    184.57489    38760.619 
  561400    296.20281   -1484.1548    455.92021    297.91776     557.8383    38760.619 
  561500    305.03272   -1487.0838    517.45362    396.05518    463.90622    38760.619 
  561600     299.7317   -1537.0884    482.04356      286.907    104.86664    38760.619 
  561700    297.82563   -1478.1903    498.95289    354.18055   -220.69864    38760.619 
  561800    292.86609   -1518.4915     462.3247    255.04643   -361.99589    38760.619 
  561900    298.23641   -1490.9253    487.40344    331.73527   -245.86038    38760.619 
  562000     300.5042   -1483.2787    484.45936    346.59105   -734.85168    38760.619 
  562100    302.73969   -1500.0981    465.15593    320.47688   -1026.7878    38760.619 
  562200    296.39227   -1496.7156    484.16422    314.44917     -156.799    38760.619 
  562300      300.068   -1485.6044    485.07324    342.92633    217.66472    38760.619 
  562400    305.24694   -1488.4719    466.85328    345.02582    88.333051    38760.619 
  562500    301.44619   -1535.5888    478.70787    292.74696    57.707301    38760.619 
  562600    304.23554   -1487.3186    483.38803     358.1857     -198.217    38760.619 
  562700    303.42432   -1493.6141    476.83571     341.7059   -114.51194    38760.619 
  562800    302.68122    -1478.643    482.72026    359.23457     19.31853    38760.619 
  562900    296.72412   -1488.5358    477.57382    317.52437   -113.46173    38760.619 
  563000     306.6382   -1492.2135    488.47587    369.13578   -634.31378    38760.619 
  563100    310.00801   -1443.3539    475.28117    419.88787   -228.71028    38760.619 
  563200    299.09781   -1474.3081    478.77443    343.58004   -894.61371    38760.619 
  563300    306.19039   -1481.1131     482.4686    372.22399   -490.49737    38760.619 
  563400    297.47177   -1499.2735    459.13255    291.69276    -247.0401    38760.619 
  563500    299.10081   -1524.4539    512.11489    326.78818    51.341757    38760.619 
  563600     288.6393   -1502.0427    450.06579    240.31226    347.09474    38760.619 
  563700    305.58028   -1512.0295    474.64727    330.75474    399.73135    38760.619 
  563800     300.7361   -1561.2133    452.40516    237.64049   -66.766734    38760.619 
  563900    311.77625    -1559.504    441.05079     277.4241    -437.6046    38760.619 
  564000    290.20272   -1527.5474    471.16441    242.90584   -563.03184    38760.619 
  564100     288.2144   -1526.6013    496.61629    260.40174    18.457017    38760.619 
  564200    304.18477   -1571.3839    462.57833    253.08335    140.00232    38760.619 
  564300    291.57379   -1556.8094    477.32291    225.94089    142.43624    38760.619 
  564400    308.45371   -1507.2651    494.92676    368.66343    137.54018    38760.619 
  564500    306.30408   -1522.7208    463.37038    312.02706    317.37813    38760.619 
  564600    294.80528   -1547.1595    463.94843    236.68423    354.37929    38760.619 
  564700    297.56197   -1486.5449    459.53317    305.22581    436.83838    38760.619 
  564800     301.7563   -1482.8923    459.55382    327.67786    458.34971    38760.619 
  564900    301.42517   -1474.8957    475.64314    350.28116    442.83992    38760.619 
  565000    304.70144   -1467.7761     476.8428    373.26886     393.7963    38760.619 
  565100    305.93773   -1482.0913    466.29967    353.94561   -192.49926    38760.619 
  565200       300.01   -1496.7894    452.04416    298.45256   -477.35813    38760.619 
  565300    302.78608   -1528.2771    465.67951    293.02919   -34.523478    38760.619 
  565400    308.28567   -1532.1282    467.97466    316.09583   -52.466066    38760.619 
  565500    295.76161   -1494.4414    472.56895    302.30452    159.59883    38760.619 
  565600    296.96163   -1477.4579    470.45618    322.54798    103.26126    38760.619 
  565700    306.97794   -1471.5206    444.67151    347.54533    253.10732    38760.619 
  565800    295.65309   -1499.6321    478.16808    302.22704   -33.287347    38760.619 
  565900    293.11316   -1494.2905    475.54577    293.57463   -428.03533    38760.619 
  566000    298.16988   -1495.9308    477.90104    316.92947    71.904897    38760.619 
  566100    296.55902   -1434.1409    469.88882    363.49507   -234.82691    38760.619 
  566200    285.01094   -1489.4021    454.42078    241.06306    -731.8046    38760.619 
  566300    302.06587   -1496.7539    482.06563      337.714   -220.39398    38760.619 
  566400    303.70212   -1499.5917    458.71908    318.85542   -680.43244    38760.619 
  566500    294.29596   -1526.1647    448.75065    240.20101   -365.63246    38760.619 
  566600    300.80779   -1513.0453    441.84488    275.56919   -447.90306    38760.619 
  566700    296.16807   -1513.7439     459.6883    271.94113   -800.21928    38760.619 
  566800    299.14775   -1506.5974    465.96184    298.70176   -195.42075    38760.619 
  566900    289.20524   -1493.6774    473.05122    274.19683   -221.43968    38760.619 
  567000    306.97867    -1481.461    477.97703    370.91379   -372.13766    38760.619 
  567100    303.58013   -1484.3425    473.89468    348.73413   -122.17887    38760.619 
  567200     292.5537   -1481.9131    440.71821    268.61966   -277.97529    38760.619 
  567300    298.49898     -1468.89    480.86476    348.40746    11.031354    38760.619 
  567400    302.15019   -1483.6388    466.46877    335.60973       141.54    38760.619 
  567500    294.74119   -1468.6071    460.07642    311.07769    378.14718    38760.619 
  567600    304.06956   -1481.1938    463.47728     343.6566   -110.56208    38760.619 
  567700    300.57173   -1498.4979    454.09124    301.30609     264.6927    38760.619 
  567800    300.02936   -1504.0723     438.7601    277.97221   -31.357472    38760.619 
  567900    307.48576   -1493.0639     462.6132     346.2174    362.18596    38760.619 
  568000    294.22257   -1484.6618    455.43048    288.05511   -3.8231578    38760.619 
  568100    294.93885   -1499.3807    436.38782    257.50043   -438.75486    38760.619 
  568200    296.87694   -1482.7647    483.03621    329.44204   -696.33219    38760.619 
  568300    309.97896   -1467.4394    454.43387    374.82506    -627.1289    38760.619 
  568400    294.51322   -1482.0336    487.09696    323.65106   -284.63764    38760.619 
  568500    300.56809   -1522.7545    459.51874    282.46063   -76.799884    38760.619 
  568600    291.79078   -1509.2436    487.55838    284.71369   -504.04708    38760.619 
  568700    291.86561   -1510.6769     466.4617    262.51871    153.85432    38760.619 
  568800    304.32659   -1536.2798    443.16303    269.40719    2.9040289    38760.619 
  568900    306.83208   -1509.5373    461.44484    325.64896    45.213093    38760.619 
  569000     299.4557   -1571.6037    433.18326    202.29566     57.65483    38760.619 
  569100    294.38004    -1538.406    462.97019    242.55564   -96.141546    38760.619 
  569200    295.11026   -1550.3621     435.9566    206.85523   -440.00901    38760.619 
  569300    307.51692   -1570.6102    435.48273    241.68008     -737.327    38760.619 
  569400    302.32524   -1534.5955    454.98042    273.94847   -831.91971    38760.619 
  569500      298.817   -1516.3107    457.67392    279.21971   -708.49631    38760.619 
  569600    299.69962   -1492.1029    471.66818    321.37344   -1003.4922    38760.619 
  569700    306.70358   -1526.6787    456.20735    302.69477   -515.37798    38760.619 
  569800    296.86141   -1521.2752    463.95866    271.78445    -681.9964    38760.619 
  569900    299.41092   -1556.0116    459.37676    243.88077   -525.60358    38760.619 
  570000    298.59115   -1532.9884    462.46184    266.31875   -193.23416    38760.619 
  570100     307.0567   -1516.3566     473.9042    332.29475    15.558075    38760.619 
  570200     295.1015   -1516.9437    461.04556    265.32344    221.58915    38760.619 
  570300    297.24108   -1527.7631    475.92894    278.96667    56.145321    38760.619 
  570400    313.25807   -1541.9505     478.8572    339.41841   -313.41307    38760.619 
  570500    293.94647   -1575.9574    471.73643    211.82934    -212.8408    38760.619 
  570600    296.90531   -1556.3236    474.75778    247.73169   -575.18827    38760.619 
  570700    303.11137   -1534.5234    469.06597     291.6257   -647.08229    38760.619 
  570800    305.42163   -1524.5468    450.94189     293.8217    -732.9263    38760.619 
  570900    307.02123   -1560.3077    457.72287    272.00343   -743.57641    38760.619 
  571000    306.45963   -1551.7615    482.19655    302.50892   -810.72105    38760.619 
  571100    292.59052   -1539.4949    458.08966    228.57424   -833.15435    38760.619 
  571200    302.04293    -1570.572    464.36624    246.09379    -766.1686    38760.619 
  571300    304.92005    -1513.468    507.44826    359.16122   -502.79687    38760.619 
  571400     284.9116   -1478.5921    447.39751    244.40493   -627.33907    38760.619 
  571500    301.65797   -1511.7209    475.38071    314.23581   -366.17733    38760.619 
  571600    299.06429   -1535.2387    504.03884    307.76381   -363.67688    38760.619 
  571700    295.32237   -1502.4866    455.39228    275.11607   -79.665656    38760.619 
  571800    309.65395   -1522.0412    498.06052    362.39479    60.050435    38760.619 
  571900    295.66436   -1483.3909    473.84561    314.19633    -210.9396    38760.619 
  572000    300.55394   -1486.7938     494.7211    353.56035   -112.00848    38760.619 
  572100    294.66329   -1511.8988    468.36023    275.72109    224.10021    38760.619 
  572200    297.85605   -1504.9231    471.97473    300.60585    592.67454    38760.619 
  572300    308.04021   -1508.8899    483.59502    353.85561    478.33171    38760.619 
  572400    295.91448   -1498.7977    478.40407    304.46773     381.9743    38760.619 
  572500    284.09943   -1508.2491    465.82521    229.53947    235.32763    38760.619 
  572600    290.07333    -1530.348    490.46057    258.82213   -280.30233    38760.619 
  572700    293.86803   -1488.0559    490.18472    317.82789   -518.01658    38760.619 
  572800     309.0649   -1502.9972     488.0326    368.77359    523.45223    38760.619 
  572900    296.11103   -1510.7554    484.19709    299.18303    490.81784    38760.619 
  573000    287.38437   -1510.8211     507.3115    283.16098    152.98723    38760.619 
  573100    296.47772   -1476.4823    497.55213    348.45297    737.72767    38760.619 
  573200    302.95821    -1453.702    483.84283    386.53823    153.48723    38760.619 
  573300    294.57787   -1473.5828    484.62304    329.91738   -177.29473    38760.619 
  573400    302.12133   -1450.3646    496.57824    398.86422    50.933823    38760.619 
  573500     297.9954   -1521.5963    491.07615    303.65792    207.33202    38760.619 
  573600    306.57197   -1524.2426    460.11588    308.45023    205.35406    38760.619 
  573700       311.53   -1484.9515    480.46333    390.28664    222.51077    38760.619 
  573800     301.2166   -1467.7981    491.66161    372.46347    206.94242    38760.619 
  573900    304.09535   -1481.5458    502.48166    382.42444    149.37833    38760.619 
  574000    299.13379   -1475.3006    483.45085    347.42515   -40.995814    38760.619 
  574100    308.52542    -1468.116     470.9996    384.20641   -626.27988    38760.619 
  574200    300.87397   -1461.9394    502.10288    387.22941   -539.47209    38760.619 
  574300    308.37314   -1461.7079    479.94877    398.88188   -322.60634    38760.619 
  574400    300.15349   -1509.6637    477.96734    312.14387   -674.01574    38760.619 
  574500    299.85961   -1487.1155    479.54369    334.95264   -294.13907    38760.619 
  574600    301.86632   -1466.4403    500.57263    385.64117   -278.99169    38760.619 
  574700    297.68854   -1510.5845    474.37368     296.5934   -231.27117    38760.619 
  574800    291.66536   -1515.9623    487.75255    277.62756    557.97213    38760.619 
  574900     304.9742   -1496.9007    482.52057    351.04323    523.22735    38760.619 
  575000    305.73688   -1483.8692    484.30656     369.2754    460.60936    38760.619 
  575100     296.8717    -1498.033    495.13317    326.24718    448.16416    38760.619 
  575200    302.02879   -1510.9796    474.46063    315.71734    626.23961    38760.619 
  575300    294.23775   -1500.0151    493.68793    311.02722     497.0773    38760.619 
  575400    300.38621   -1499.7496    478.59535    323.72791    19.801905    38760.619 
  575500    298.04097   -1537.4302    478.50214    275.45405   -395.80715    38760.619 
  575600     300.9731   -1521.4766    466.26058    292.29373    180.14815    38760.619 
  575700    303.46826   -1513.1102    499.19346    344.76431    571.88293    38760.619 
  575800     308.7871   -1537.3783    465.64232    310.75843    632.85208    38760.619 
  575900     297.8936   -1525.4212    454.08786    262.38898    736.91998    38760.619 
  576000    301.15708   -1513.2705    489.22615     324.2891   -214.54217    38760.619 
  576100    285.97486   -1498.9599    480.28198    261.68211   -192.81772    38760.619 
  576200    300.84091   -1505.9942    479.75176     320.6755   -70.116455    38760.619 
  576300    306.99906   -1521.8625    464.25613    316.88267   -284.12327    38760.619 
  576400    304.93741    -1521.986    461.14483     304.4175   -631.21479    38760.619 
  576500    301.18956   -1526.5949    485.91062    307.79462   -302.29614    38760.619 
  576600    297.55353   -1506.8062    475.14134    300.53485   -28.659023    38760.619 
  576700    292.37473   -1490.1578    461.07439    279.92993   -311.19568    38760.619 
  576800    296.30459   -1508.7238    481.42634    299.31055    23.141228    38760.619 
  576900    298.70968   -1504.3557     496.2691    329.28947   -114.91121    38760.619 
  577000    300.53622    -1474.777    475.54191    346.31871    304.21257    38760.619 
  577100    297.95976   -1501.1703    458.19421    291.04237    102.40337    38760.619 
  577200    305.87714   -1465.7397    483.43381    387.16014   -308.16161    38760.619 
  577300    310.17583   -1479.1798    501.80947    411.34164    40.906666    38760.619 
  577400    295.19576   -1469.6058    484.30626    336.34401   -256.75813    38760.619 
  577500    292.97988   -1459.6913    488.23698    340.26834   -310.37651    38760.619 
  577600     306.4639   -1499.2046    467.83319    340.72157    -63.71089    38760.619 
  577700    293.72442    -1494.892    468.23122    288.39539   -424.86584    38760.619 
  577800    301.03536   -1504.2435    471.24496    314.78998   -186.23717    38760.619 
  577900    306.56091   -1471.2818    497.14013    398.38574    396.46604    38760.619 
  578000    299.49424   -1471.8438    507.41228     376.4571    158.12504    38760.619 
  578100    295.05275   -1458.0528    467.47131    330.42182    211.94345    38760.619 
  578200    303.29081    -1471.622    473.46057    359.72505   -24.829032    38760.619 
  578300    305.19852   -1444.3634    468.25823    390.32253    188.20805    38760.619 
  578400    289.57792   -1506.8147    460.93776    250.61461    643.59716    38760.619 
  578500    310.00693   -1483.0251     505.6162     410.5469    643.63072    38760.619 
  578600    301.37606   -1426.7825    498.72796    421.25934    208.85055    38760.619 
  578700    308.94167   -1459.8531    483.23187    406.56519   -179.51749    38760.619 
  578800    300.41783   -1432.2316    463.22582    376.01796   -211.30829    38760.619 
  578900    309.49099   -1461.3104    508.26535    432.60082    471.40125    38760.619 
  579000    292.11679   -1461.0387      454.487     301.3068   -133.00758    38760.619 
  579100    301.00546   -1486.9997    475.61948    336.27442    43.647594    38760.619 
  579200    304.19867   -1521.6922    447.85538    288.11441   -93.535993    38760.619 
  579300    302.68265   -1492.1774    463.68198    326.66833   -338.59584    38760.619 
  579400    299.16961   -1495.0622     478.7449    323.11788     9.060665    38760.619 
  579500    298.10297   -1411.6904    474.98956     397.9588   -98.214978    38760.619 
  579600    301.83078   -1450.9831    459.26369    359.63032    2.6807247    38760.619 
  579700    302.75505   -1503.1047    493.39171     345.7749     59.08047    38760.619 
  579800    292.99093   -1509.8921    453.61859    255.49866   -85.471356    38760.619 
  579900    293.71074   -1502.2548     465.3975    278.13759   -157.17904    38760.619 
  580000     302.8451   -1480.3656    467.30917    342.83457   -103.66361    38760.619 
  580100    297.73268    -1460.575     476.9871    349.41389   -179.11367    38760.619 
  580200     295.9739   -1495.2855    473.29081    303.13272   -472.34615    38760.619 
  580300    303.20345   -1493.4648    482.87843    346.90906   -198.95268    38760.619 
  580400    309.96368   -1511.0418    458.21315    334.93354    125.22684    38760.619 
  580500    296.60203   -1514.3471    455.84882    269.44144    207.26129    38760.619 
  580600    300.02526   -1524.8893    470.27591    288.65274   -139.49751    38760.619 
  580700    302.40863   -1565.1435    452.39614    241.18954   -206.98964    38760.619 
  580800    294.45154   -1502.7439    454.72071    270.28838   -530.69426    38760.619 
  580900    299.36384   -1482.3328    467.98457     325.9566   -828.30848    38760.619 
  581000     304.3395   -1494.4392    457.74645    325.88892   -307.84783    38760.619 
  581100    298.04941   -1505.9122    461.28814    289.79581   -325.93193    38760.619 
  581200    303.62044   -1463.8579    481.87452    377.37902   -220.11264    38760.619 
  581300    300.96564   -1512.7036    455.92178    290.69453   -427.55957    38760.619 
  581400    303.97665   -1496.9521    487.09699    351.10206   -131.35375    38760.619 
  581500    298.15678   -1492.9024     457.3182    299.31642   -397.59403    38760.619 
  581600    299.46321   -1491.7077      448.868    297.90995   -568.24964    38760.619 
  581700    303.69509   -1503.0726    461.67137    318.29529   -761.97829    38760.619 
  581800    298.79791   -1491.8343    455.15383    301.09059    -543.6478    38760.619 
  581900    304.85068   -1441.9138    472.41599    395.37252   -794.69162    38760.619 
  582000    296.82983   -1463.7841    477.99352    343.16903   -516.69134    38760.619 
  582100    291.56706   -1495.3757    461.74584     271.7674   -683.54854    38760.619 
  582200    302.67977    -1508.203    483.39478    330.34258   -888.44743    38760.619 
  582300    308.57018   -1485.3183    470.88714    367.09211   -735.67183    38760.619 
  582400    301.61971   -1442.0669    488.29101    396.62887   -635.71716    38760.619 
  582500    294.55246   -1482.4926    482.81155    319.08233   -492.26866    38760.619 
  582600    307.38213   -1473.8733    484.77621    387.10702    312.38541    38760.619 
  582700    302.55048   -1449.9384    490.21391    394.84749    179.37526    38760.619 
  582800    305.71628   -1445.3448     484.8863    408.28725    514.04503    38760.619 
  582900    303.28422   -1416.7585    480.53585    421.63442    229.38671    38760.619 
  583000    306.27513   -1408.3811    469.65562    432.52236    242.05605    38760.619 
  583100    296.72153   -1459.4432    462.94255    331.97409    27.131649    38760.619 
  583200    306.31729   -1474.1274    460.34935    357.65854    314.61917    38760.619 
  583300    285.93939   -1465.3129    475.35723    290.24548    284.36785    38760.619 
  583400    303.15698   -1431.9051    484.30263    409.68493    257.18806    38760.619 
  583500    294.30514   -1479.3452    468.25219    306.56306    320.43254    38760.619 
  583600    292.71991   -1444.1213    488.37619    354.81367    486.65029    38760.619 
  583700    301.55461   -1482.2922    471.05421    338.87527    242.13381    38760.619 
  583800    302.24315   -1471.8325    461.44173    342.80517    -130.3592    38760.619 
  583900    309.98613   -1423.9125    501.32982    465.27995    281.93896    38760.619 
  584000    297.42906   -1488.5875    453.92881    296.98378   -71.983085    38760.619 
  584100    307.96598   -1451.3809    463.38165    390.81892    371.28551    38760.619 
  584200    306.03295   -1435.5914    481.95846    416.53064   -56.885764    38760.619 
  584300     301.7888   -1430.1029      436.849    357.90793    394.34186    38760.619 
  584400    305.72808    -1498.278    496.20779    366.72846   -54.157111    38760.619 
  584500    289.79734   -1486.5881     467.6255    278.51128    10.976082    38760.619 
  584600    296.56815   -1482.3552      422.253    267.68581   -272.66373    38760.619 
  584700    303.38885   -1449.8884    490.78758    399.22467    31.698834    38760.619 
  584800    298.07866   -1525.3735    445.83876    255.01606    202.87901    38760.619 
  584900    294.17462   -1521.1791    448.26146    244.15417   -958.40378    38760.619 
  585000    308.90813    -1509.689    464.27376    337.62106   -318.64196    38760.619 
  585100    291.74035     -1493.05    480.31468    293.43779    96.436488    38760.619 
  585200    307.38107   -1489.8216    469.98571    356.36352   -431.85754    38760.619 
  585300    296.09288   -1478.7118    454.24076    301.18912   -246.04621    38760.619 
  585400    296.54037   -1443.7957    469.11493     352.9829   -476.82971    38760.619 
  585500    292.95295   -1452.2116     464.1312    323.52175   -455.40992    38760.619 
  585600    297.30788   -1451.4673    486.68916    366.32173    74.410842    38760.619 
  585700    299.37988   -1530.3625    450.79224    260.80638    515.91256    38760.619 
  585800    298.59578   -1517.0273    472.66212     292.5009    358.56513    38760.619 
  585900    305.36692   -1513.7912    462.50723    315.89772    473.88421    38760.619 
  586000    289.34075   -1488.5959    470.29455    277.12834    338.84417    38760.619 
  586100    304.63928   -1511.2228    478.96766    331.66873   -16.728374    38760.619 
  586200    289.92114    -1489.643    472.12058    280.50579    94.359832    38760.619 
  586300    295.64844    -1468.767    477.65382    332.55716   -122.70011    38760.619 
  586400    285.41088   -1465.1047    464.47425    277.20446   -71.397766    38760.619 
  586500    289.71205   -1456.5868    462.25432    302.75954   -157.61622    38760.619 
  586600    294.43596   -1444.5459    506.10163    379.79759   -24.751095    38760.619 
  586700      292.303   -1481.5974     456.7006    283.79534    32.492855    38760.619 
  586800    296.00401   -1483.9899    450.60066    291.87302   -248.97343    38760.619 
  586900    301.90857   -1496.7651    478.38766    333.32058    126.49638    38760.619 
  587000    296.80817   -1485.3382     456.3552     299.8796   -443.03836    38760.619 
  587100    299.29664   -1478.2384    467.97656    329.74204   -843.54172    38760.619 
  587200    304.12952   -1426.9206    481.71998    416.44096   -507.27589    38760.619 
  587300    305.01056   -1448.7388    424.03576    340.88312   -211.90609    38760.619 
  587400    299.76305   -1423.7839    486.70251    405.01076    -292.6037    38760.619 
  587500    296.42408   -1452.0302    466.63004    341.74278    56.505843    38760.619 
  587600      304.123   -1469.4364    463.63877    355.81474    146.91735    38760.619 
  587700    307.69675   -1452.2544    471.39455    396.75286    216.37269    38760.619 
  587800    302.61719   -1459.8961    468.61144      363.586   -276.71197    38760.619 
  587900    305.71633   -1453.6458    458.81612    373.91632   -102.85112    38760.619 
  588000    287.87557   -1453.1081    484.31422    320.07594    18.349465    38760.619 
  588100    293.16901   -1489.0926    444.63138    268.10831   -181.30933    38760.619 
  588200    311.41738   -1511.8973    460.98288     343.3562    692.88347    38760.619 
  588300     296.2019    -1466.288    470.48362    330.34392   -209.51135    38760.619 
  588400    301.41851   -1478.5442    471.75219    342.71193   -375.24694    38760.619 
  588500     300.5983    -1504.131    473.14869     314.8494   -944.53334    38760.619 
  588600     302.2616   -1485.1262    460.01362    328.16596   -582.48219    38760.619 
  588700    299.74868   -1484.6252    457.06177    314.46434   -743.07357    38760.619 
  588800    298.65055   -1476.5074    468.88503    329.48895   -933.26478    38760.619 
  588900    290.87213   -1509.3865    475.49817    268.39759   -652.67884    38760.619 
  589000    303.06797   -1539.2065     456.6319    274.31423    99.591974    38760.619 
  589100    295.79463    -1492.919    463.00098    294.40677   -478.72303    38760.619 
  589200    291.14541   -1447.2952    474.14561     330.3598   -599.89814    38760.619 
  589300    305.87153   -1498.9994    446.84168    317.28315   -678.32942    38760.619 
  589400    306.01363   -1525.3555     473.7726    318.49417   -92.453574    38760.619 
  589500    301.35809   -1510.3399    442.23476    281.12828   -72.179027    38760.619 
  589600    308.03168   -1480.5188    463.41783    362.01134    44.332031    38760.619 
  589700    297.63596    -1480.786     473.5477     325.3305    192.91827    38760.619 
  589800    298.00119   -1493.5245     466.1283    306.80778   -9.2732772    38760.619 
  589900      292.349   -1450.8471    451.29148    309.34254     83.95539    38760.619 
  590000    306.31798   -1490.6524    480.24026    361.02758   -545.60682    38760.619 
  590100     292.1575   -1462.0169     462.9827    309.00655   -394.01721    38760.619 
  590200    292.33932    -1476.676    482.38823    314.56701    355.11544    38760.619 
  590300    306.03534   -1478.9268    466.55601    357.80346    206.46744    38760.619 
  590400    294.33016   -1476.5291    465.28517    306.52418     195.3014    38760.619 
  590500    295.50742   -1509.0036    478.96021    292.99553   -153.76971    38760.619 
  590600    292.95306   -1495.9093    464.78553    280.47882    297.12578    38760.619 
  590700    305.58571   -1495.8152    457.96905    330.31511    110.92869    38760.619 
  590800    292.37661   -1489.3107    460.96406    280.67507    399.54762    38760.619 
  590900    295.48737   -1459.8232    479.02311    342.14906      299.653    38760.619 
  591000    293.88131   -1477.5761    446.78501     284.9674    226.91512    38760.619 
  591100    313.44659   -1501.9537    454.85847     356.2605    500.36431    38760.619 
  591200    294.27345   -1493.4821    468.18515    292.21726   -197.42765    38760.619 
  591300    288.45198   -1515.4247    445.34346    221.36924   -225.76193    38760.619 
  591400     291.9819   -1535.8767    475.81562    247.19348   -68.377688    38760.619 
  591500    299.14188    -1561.484    454.80865    232.63576   -188.39415    38760.619 
  591600    294.47856   -1563.5147    448.19072    203.10858   -278.51482    38760.619 
  591700    296.32633   -1558.0494    459.48688    228.14281    374.68044    38760.619 
  591800    311.15613   -1544.8848    435.06747    283.28358   -56.622717    38760.619 
  591900    311.02559   -1524.7619    443.18328    310.93785    421.07223    38760.619 
  592000    297.41883   -1537.0903    457.66477    252.17112    244.78483    38760.619 
  592100    306.95539   -1495.8204     463.5666    342.03974   -135.05132    38760.619 
  592200    297.95334    -1539.154    469.00471    263.84051    420.46578    38760.619 
  592300    297.75473   -1529.7769    477.77823    281.10186    455.26233    38760.619 
  592400    295.76475   -1578.1622    473.31266    219.34153    669.80201    38760.619 
  592500    301.85288   -1552.5242    444.54024    243.46473   -253.59521    38760.619 
  592600    301.51319   -1535.6767    456.27724    270.52836   -385.98607    38760.619 
  592700    290.05814   -1520.4118    481.82174    260.05153    188.89423    38760.619 
  592800    295.12159   -1522.6159    459.82621    258.52183    161.06734    38760.619 
  592900    299.31159   -1525.1849    453.21239    268.09836   -222.65223    38760.619 
  593000    298.71446   -1521.0501    453.40057    269.74794    167.62344    38760.619 
  593100    291.80729   -1513.0161    477.29867    270.75532    716.74491    38760.619 
  593200     296.7509   -1564.2701    436.67156    201.00769    46.569184    38760.619 
  593300    293.41981   -1514.2439    459.32265    258.77104     227.0824    38760.619 
  593400    314.37074   -1536.5152       475.37     346.3482    164.56965    38760.619 
  593500    302.04253   -1569.5199    469.95049    252.72838    321.44762    38760.619 
  593600    310.88929   -1567.1865    461.35004    286.06984    430.82556    38760.619 
  593700    307.43615   -1539.3242    444.91247    282.03424    70.794272    38760.619 
  593800    296.36195   -1533.8675    461.20413    254.20142   -111.71067    38760.619 
  593900    297.56828   -1536.9543     450.7039    246.01534    79.748829    38760.619 
  594000    304.78894   -1560.4915    482.40763    286.51011    625.80175    38760.619 
  594100    298.03373   -1551.0291    446.55953    229.88008    343.10365    38760.619 
  594200    297.10425   -1559.7569    438.47497    208.90629    521.17504    38760.619 
  594300     305.7397   -1562.3171    473.67798    280.21156    752.02638    38760.619 
  594400    291.39072   -1508.0663     443.0799    239.62137     549.4636    38760.619 
  594500    302.55465   -1532.0792    460.82062    283.33197    436.88986    38760.619 
  594600    292.24216   -1510.5917    483.69971    281.52777    266.09482    38760.619 
  594700    308.72018    -1527.955    446.91138    301.15121    42.893685    38760.619 
  594800    305.63982   -1501.7242    457.97004    324.64935   -317.50862    38760.619 
  594900    307.52295   -1522.1757    461.56032    316.21921    62.966357    38760.619 
  595000     304.6294   -1491.2469    470.45794    343.09069    368.02533    38760.619 
  595100    294.88842   -1494.1213    461.19193    287.33821   -90.609904    38760.619 
  595200    299.05689   -1555.5537    454.62474    238.00155   -270.69452    38760.619 
  595300    293.00434   -1550.4212    456.99564    218.40668    545.00955    38760.619 
  595400    294.76756   -1583.4107    455.42752    191.74324    958.66491    38760.619 
  595500    310.76934   -1526.7297    462.75147    327.39098    1528.1922    38760.619 
  595600    303.27402   -1509.7571    472.86616    320.92046     878.1778    38760.619 
  595700    301.71206   -1464.5988    502.14313    388.36256    757.42301    38760.619 
  595800    305.60325    -1481.674    469.48445    356.05021    480.33686    38760.619 
  595900    293.68994   -1501.4156    461.06581    274.55194      795.401    38760.619 
  596000      300.947   -1490.2278    464.05353    321.21861    652.50109    38760.619 
  596100    293.76226   -1538.5307    453.29879    229.99366    125.28914    38760.619 
  596200     299.1287   -1477.8696    475.44687    336.82934   -522.56658    38760.619 
  596300    302.40526   -1456.8884    452.17011    349.20344   -90.724284    38760.619 
  596400    304.19802   -1460.0646    428.84628       330.73   -439.63645    38760.619 
  596500     312.4735   -1462.7634    481.07927    417.31499   -632.61462    38760.619 
  596600    289.74207   -1455.5743    474.77948    316.43159   -430.63825    38760.619 
  596700    304.19693   -1441.1391    474.40485    395.20921    54.096825    38760.619 
  596800    306.65581   -1420.1663    478.20125    430.98715     23.15576    38760.619 
  596900     293.4675   -1449.2137    468.15959    332.85169    113.38896    38760.619 
  597000    297.43414   -1452.3456    479.01936    358.33899   -227.03158    38760.619 
  597100    293.51883   -1457.0479    487.79762    344.88541    -591.0114    38760.619 
  597200    304.30582   -1450.2827     452.2047     364.3529   -38.028723    38760.619 
  597300    305.53227   -1419.5595    474.86735    423.22985    133.52476    38760.619 
  597400    298.13469   -1451.9619    452.07089     334.9107   -223.10284    38760.619 
  597500    307.27694   -1482.6625    455.80901    348.87964    415.20491    38760.619 
  597600    308.35017    -1465.618    459.14353    374.06371    32.441911    38760.619 
  597700    303.20978   -1471.0051    459.90366    346.42228    263.79533    38760.619 
  597800    303.31221   -1452.4908    467.87519    373.36672    674.32342    38760.619 
  597900    296.97246   -1440.7503    475.18266    364.03053    1131.3366    38760.619 
  598000    311.38427   -1440.3491    463.55625    417.32952    659.45639    38760.619 
  598100    294.53244   -1435.3497    443.39019     326.7143    315.61506    38760.619 
  598200    296.98664   -1455.6697    446.03702    320.02898    367.58296    38760.619 
  598300    298.37732   -1507.1543    462.51731    291.25105    363.24904    38760.619 
  598400    297.63943   -1503.9021    445.26624    273.94849    346.33715    38760.619 
  598500    306.51993   -1480.8965    465.69613     357.1435    116.75069    38760.619 
  598600    293.15642   -1517.0214    449.88202    245.37367    197.75219    38760.619 
  598700    291.21944   -1534.3381    463.15799    232.66073    -168.1411    38760.619 
  598800    300.43202   -1540.8234    484.44329    288.70715   -118.01614    38760.619 
  598900    297.94283   -1516.6644    452.35098    269.62924   -197.16121    38760.619 
  599000    300.36492   -1492.3708    449.80598    302.22197   -78.169713    38760.619 
  599100    297.29399   -1505.5351     462.0291    287.53172   -233.85597    38760.619 
  599200    302.46736   -1492.8596    449.57354    310.91371    175.96838    38760.619 
  599300    300.11879   -1474.0065    470.29756    339.97597    300.14577    38760.619 
  599400    304.05957   -1472.5492    462.51244     351.2917    768.04645    38760.619 
  599500    302.73707   -1465.3805    469.18129    359.20813    500.03497    38760.619 
  599600    295.82636   -1503.3644    451.68443     272.7869    340.44369    38760.619 
  599700    296.53213   -1455.0249    473.66103    346.26286    63.614821    38760.619 
  599800    302.39278   -1437.6842    468.25346    384.43512    102.95179    38760.619 
  599900    292.56341    -1456.449    476.01973    329.42879    291.70866    38760.619 
  600000    303.69248   -1454.2502     453.8203    359.25499    542.43328    38760.619 
  600100    308.84946   -1420.4752    439.06164    401.36005    63.637424    38760.619 
  600200    300.68629   -1422.6545    471.95911    395.53031   -249.48706    38760.619 
  600300    300.26118   -1428.9519    476.52951    391.89991    430.43325    38760.619 
  600400    299.25339   -1455.7176    462.94775    347.04045    272.22826    38760.619 
  600500    302.97814   -1440.9094    465.19429    380.77158    89.820298    38760.619 
  600600    291.99695   -1448.1489    447.04385    306.21689     299.5149    38760.619 
  600700    300.82735   -1461.1753    474.23292    359.91482   -63.730291    38760.619 
  600800     308.0654   -1461.3299     453.1911    371.12439   -34.596889    38760.619 
  600900    295.37155   -1474.5394    470.23218    318.12339    182.90271    38760.619 
  601000    302.59679   -1457.5196    476.81336    374.07311    17.989431    38760.619 
  601100     307.2053   -1453.7998    464.36194    385.97457    136.12529    38760.619 
  601200     295.0394   -1482.6055    484.24584    322.58388   -131.90448    38760.619 
  601300    306.87881   -1476.6999    459.38992    356.64071   -524.42237    38760.619 
  601400    304.96876   -1477.8125    475.92745    363.51399    49.091069    38760.619 
  601500     298.6963   -1485.4451    446.94308    298.81406    154.61302    38760.619 
  601600    291.92788   -1463.9471    477.24648    320.31206     14.12814    38760.619 
  601700    297.95762   -1474.5822    476.81451    336.24123    336.63037    38760.619 
  601800    304.59414   -1473.4603    443.72046    333.98197    250.08631    38760.619 
  601900    304.98383   -1482.6855    480.34691    363.12788    384.48724    38760.619 
  602000    297.08948   -1465.3391    470.21801    335.00102    405.71336    38760.619 
  602100    297.89566      -1471.5    459.09492    321.32638    468.48048    38760.619 
  602200    305.39309   -1477.4381     440.3146    330.17537   -420.63737    38760.619 
  602300    310.88138   -1485.3773    456.49227    362.98583    446.32448    38760.619 
  602400     298.3246   -1455.2049     483.6213     364.0683   -140.07109    38760.619 
  602500    297.48816   -1502.3356    450.77046    280.34192    -134.0298    38760.619 
  602600     302.0999   -1470.7609    451.52704    333.32074   -283.61359    38760.619 
  602700    295.21072   -1460.0797    481.65484     343.2857      -438.35    38760.619 
  602800    298.98524   -1474.3777    459.81634    324.04837     85.39302    38760.619 
  602900    300.78606   -1497.1492    460.32251     309.8457   -279.61498    38760.619 
  603000    306.09227   -1510.6682    461.83325     321.5942   -232.33595    38760.619 
  603100    297.50767   -1539.8849    465.84489    257.95436   -258.84647    38760.619 
  603200    301.55365   -1530.0334     466.1215    286.19707    72.495585    38760.619 
  603300    292.24958   -1519.9451    470.38666    258.89454   -340.98268    38760.619 
  603400    288.49391   -1540.7463    443.26987    194.16182     354.0618    38760.619 
  603500    302.49185   -1548.9021    471.26666    276.67398   -325.30472    38760.619 
  603600    290.24403   -1510.6196    466.82346    255.67768   -229.42398    38760.619 
  603700    306.29737   -1528.6901    433.05192    275.70926   -120.29942    38760.619 
  603800    307.67493   -1480.5223    449.24402    346.23675    248.56774    38760.619 
  603900    303.55123   -1482.3176    467.69655    344.43143     174.9414    38760.619 
  604000    295.71377   -1439.1033    463.40895    348.26851    254.04869    38760.619 
  604100    291.80123   -1455.2494    463.44524    314.64151   -63.569533    38760.619 
  604200     306.6115   -1508.6988    470.67618    334.73125   -165.36649    38760.619 
  604300    305.42213   -1513.4811     453.8125    307.76029   -326.86418    38760.619 
  604400    292.37926   -1483.9089    468.18176    293.30653    -495.7057    38760.619 
  604500    299.88506   -1459.7171     447.4695    330.39077    -41.13967    38760.619 
  604600    292.78518   -1443.3326    447.61865    315.13703   -596.94737    38760.619 
  604700     293.8317   -1476.9066    454.50783    293.13768   -816.62214    38760.619 
  604800    301.31305   -1507.4066    451.59332     293.2185   -181.99868    38760.619 
  604900    304.78002   -1488.7143    456.20207    332.04173    -4.070725    38760.619 
  605000    288.83147    -1499.227    473.03625    266.95877    154.00444    38760.619 
  605100    304.70825   -1536.4399    476.15853     303.9513    559.87095    38760.619 
  605200    291.70636   -1494.1789    445.00155    256.84354     112.3115    38760.619 
  605300    296.71501   -1480.7614    469.07888    316.76302    131.88915    38760.619 
  605400     296.0037   -1507.0951    463.56794    281.73365    67.456738    38760.619 
  605500    304.82768    -1495.203    465.19272    334.75712   -257.06413    38760.619 
  605600     294.5865   -1497.7877    459.93933    281.06746   -172.34545    38760.619 
  605700    302.61457   -1517.1732    463.14099    300.82665   -11.466748    38760.619 
  605800    297.25673    -1491.124    465.47353    305.22044     42.32079    38760.619 
  605900    295.85043   -1529.5413    458.62029    253.65362   -594.21653    38760.619 
  606000    309.01956     -1508.12    441.17141    316.58657   -939.99238    38760.619 
  606100    301.18941   -1454.4944    466.34524    360.32907   -112.01926    38760.619 
  606200    306.88108   -1450.6883    466.43055    389.70301    -451.8899    38760.619 
  606300    300.00389   -1455.0235    468.75443    356.90133   -160.60772    38760.619 
  606400    304.50211   -1489.4047    457.97832    331.88342    17.623591    38760.619 
  606500    305.68683   -1482.5553    452.07053     338.1292    -326.8623    38760.619 
  606600    296.11887   -1477.7619    451.13153    299.14612    -362.1151    38760.619 
  606700    301.23299   -1477.4477     487.0772    358.30283    345.45784    38760.619 
  606800    298.37423   -1497.0394    417.81818     256.6529   -271.52961    38760.619 
  606900    287.38002    -1457.431     473.6605     302.8806    102.00022    38760.619 
  607000    295.46146   -1481.5136    463.41065    304.73022   -312.32552    38760.619 
  607100    313.20484   -1476.2792    428.43132    354.42557   -354.24269    38760.619 
  607200    318.05337   -1476.3982    465.20053    412.78348    265.48883    38760.619 
  607300     300.3773   -1445.9224    432.83079    331.75063    120.99806    38760.619 
  607400    303.13776   -1472.9669    459.02923    343.26361    153.48843    38760.619 
  607500    306.50101   -1488.3958    464.75244    348.61582   -35.749084    38760.619 
  607600    292.91744   -1498.0578    456.04623    269.43155   -75.973122    38760.619 
  607700    313.88953    -1491.239    445.05538     359.1553    -239.2218    38760.619 
  607800    304.95061   -1472.1476    474.90634    368.07648   -211.07858    38760.619 
  607900    299.39557   -1491.0431    457.55681    306.96059   -323.09145    38760.619 
  608000    283.16907   -1470.2903    434.20803    231.71572   -146.78659    38760.619 
  608100    298.21598   -1430.6403    472.79044    377.31575    12.497112    38760.619 
  608200    287.70785   -1398.7152    474.55802    363.96175     309.3638    38760.619 
  608300    299.25871   -1440.9761    478.24707    377.10507   -239.75819    38760.619 
  608400    305.95254   -1457.9383      471.674    383.53932   -577.11718    38760.619 
  608500    286.67105   -1457.6534    453.71657    279.54009   -11.208727    38760.619 
  608600    297.24871   -1450.3023    469.51627    350.04896   -241.17405    38760.619 
  608700    306.05609   -1468.6168    453.83934     355.4897    292.75912    38760.619 
  608800    295.02974   -1443.9587    471.01019    347.95178    67.824933    38760.619 
  608900    298.98857   -1439.1274    481.41928    380.91648     164.1427    38760.619 
  609000    296.26642   -1440.7177    468.96043    354.67982   -495.47164    38760.619 
  609100      308.674   -1470.1262    451.24672    363.10861    -129.2709    38760.619 
  609200    298.18274   -1461.0877    478.92506    352.85423    -173.9487    38760.619 
  609300     306.1888   -1455.8654    465.43859    380.43459   -1.2772446    38760.619 
  609400    290.74974   -1499.6388    465.91925    268.01846   -4.7812833    38760.619 
  609500    305.08941   -1492.3101    458.85895     332.4881   -144.01811    38760.619 
  609600    290.93258   -1495.3064    459.56028    266.81046   -468.05839    38760.619 
  609700    308.40135    -1493.952    469.45785     356.2732    90.684611    38760.619 
  609800    299.40822   -1479.1681      475.037     336.3724    -252.3425    38760.619 
  609900    315.93882   -1473.5244    454.27289    395.26241   -170.79474    38760.619 
  610000    301.54021   -1457.1293    447.92742     340.8469   -515.30816    38760.619 
  610100    298.92763   -1483.6978    478.19839    332.85241   -266.00953    38760.619 
  610200    308.48032   -1500.1299    435.44485    316.43589   -45.361487    38760.619 
  610300    301.05924   -1492.6871    478.63831    333.84659   -256.30371    38760.619 
  610400    300.10999   -1437.5483    468.82075    374.91789    -137.5882    38760.619 
  610500    298.08387   -1502.1891    443.99292    276.37798    104.78822    38760.619 
  610600    297.43603   -1493.7028     454.1834     292.1543    350.86395    38760.619 
  610700    311.55814   -1495.8061    456.96052    356.05526    856.95821    38760.619 
  610800    297.28302   -1503.2097    442.77008    270.54904    514.08647    38760.619 
  610900    298.13338   -1466.9679    469.06946     336.8974    336.06469    38760.619 
  611000    310.73789   -1439.5932    458.29325    409.92851    5.9463104    38760.619 
  611100    302.34047   -1451.8384    466.71107    368.50437    275.81349    38760.619 
  611200    302.83902   -1452.4194    461.47658    364.92094     84.41183    38760.619 
  611300    298.51161   -1489.5251    480.30704    327.27115    293.98848    38760.619 
  611400    298.52983   -1462.8424    465.99698    339.72544    333.87966    38760.619 
  611500    305.20381   -1424.2172    471.48859    413.72281    423.67416    38760.619 
  611600    298.72454   -1430.6461    490.66911    397.46549    254.74753    38760.619 
  611700    299.35919   -1455.4428    462.81318    347.65441    114.21115    38760.619 
  611800    308.62486   -1454.8528    469.68935    396.60452   -74.137265    38760.619 
  611900    294.56958   -1500.0304    480.56319    299.37283   -239.81439    38760.619 
  612000    299.90853   -1477.6254    453.68026    318.79833    10.146662    38760.619 
  612100    305.72428    -1466.036    508.05666     410.8023    100.83715    38760.619 
  612200    292.48263   -1518.7083    430.88121    221.66934    132.45654    38760.619 
  612300    307.38871   -1485.5491    438.85487    329.53936    507.43506    38760.619 
  612400    299.83587   -1448.4905     481.2571    375.18481    447.98173    38760.619 
  612500    289.43916   -1488.1619    452.69034    260.39865    500.94337    38760.619 
  612600    300.45976   -1452.3292    469.48331    362.36554    906.20123    38760.619 
  612700    312.23592   -1427.0988    446.99796    417.83452    738.63032    38760.619 
  612800     295.8237    -1429.713    486.53332    381.27524      58.5881    38760.619 
  612900    294.54979   -1441.0393    498.14334    375.85545    669.35288    38760.619 
  613000    296.67363   -1443.4659    467.68236    352.47669    224.86914    38760.619 
  613100    302.59627   -1421.8799    479.92243    412.81949   -144.57466    38760.619 
  613200    296.24344   -1423.0704    480.43365    383.69744   -307.92464    38760.619 
  613300    288.29556   -1429.7114    460.26183    321.30057    96.360901    38760.619 
  613400    289.42579    -1432.298    475.47657    338.98901   -238.58502    38760.619 
  613500    292.82234    -1438.407    465.85919    338.46954    28.991997    38760.619 
  613600    297.49474   -1444.2847    478.63625    366.28807   -117.31879    38760.619 
  613700    299.13426   -1407.8158    478.99694    410.45806   -508.88432    38760.619 
  613800    308.53104   -1390.0172     475.7394    467.07022   -678.11474    38760.619 
  613900    311.80926   -1409.7627    471.53014    457.79253    145.21772    38760.619 
  614000    290.83996   -1424.1988    494.70655    372.64966   -48.469506    38760.619 
  614100    304.07355   -1405.6508    495.55838    451.29856    440.32643    38760.619 
  614200    312.99332    -1393.487    483.71095     491.5503    739.59848    38760.619 
  614300    292.96834   -1468.1283    477.78734    321.33005    316.14292    38760.619 
  614400    297.60662   -1473.1953    462.04181    321.28389     205.5701    38760.619 
  614500     298.2631   -1419.9689      468.314     383.7217    337.57552    38760.619 
  614600    295.95796   -1442.4404    459.12734    341.74297    511.81745    38760.619 
  614700    303.02582   -1467.8705    503.45204     392.2817    328.97143    38760.619 
  614800    303.19161   -1474.2297    452.26326    335.47601      579.758    38760.619 
  614900    301.84641   -1475.8628    481.52954    357.08648     339.9268    38760.619 
  615000    290.46752   -1469.4194    472.65507    303.71006    191.26719    38760.619 
  615100    300.62699   -1466.5964    469.78754    349.15126   -359.44963    38760.619 
  615200     295.9476   -1425.3683    482.55641    382.19788    349.93786    38760.619 
  615300    299.13968    -1426.212    494.09965    407.18888   -508.60817    38760.619 
  615400    292.67833   -1439.5242    471.53865    342.38707   -457.10444    38760.619 
  615500    299.12535   -1451.1303      476.361    364.46771   -286.50878    38760.619 
  615600    297.16116    -1418.791    486.43203    398.08402   -62.502391    38760.619 
  615700    296.22866   -1478.8416    489.12616     336.5526   -236.68081    38760.619 
  615800    289.42465   -1448.9462    478.69271    325.55187    274.73359    38760.619 
  615900    298.77736   -1432.8654    455.42631    360.23988   -131.66062    38760.619 
  616000    306.18599   -1442.3542    461.46884    389.96342    130.13717    38760.619 
  616100    298.60806   -1470.4704    466.16328    332.61397    300.51148    38760.619 
  616200    293.78527     -1452.78    491.24502    353.79356    412.45733    38760.619 
  616300    302.76586   -1424.6945    459.47331    390.31509    -245.0628    38760.619 
  616400     303.2001   -1410.6754    499.49186    446.29685    110.17997    38760.619 
  616500    303.97214   -1454.1378     498.9355    405.73471    176.59949    38760.619 
  616600     300.3553   -1442.2927    471.73613    374.18713    297.88249    38760.619 
  616700    294.11751   -1417.6522    485.30588    384.46971   -177.74498    38760.619 
  616800    309.49393    -1437.745    473.34318    421.25713    75.202294    38760.619 
  616900    296.32279   -1470.9737    469.37262     325.0884    665.60942    38760.619 
  617000    288.16261   -1443.0772     489.0072    336.08492    675.77384    38760.619 
  617100    296.47956   -1429.2217    470.19771    368.36744    255.86939    38760.619 
  617200    301.29348   -1414.5384    474.77443    409.18017    569.82325    38760.619 
  617300     307.7252   -1439.0402    485.99275    424.69267    730.48074    38760.619 
  617400    295.46141   -1459.3118    468.72107    332.24219   -149.39958    38760.619 
  617500    306.63461   -1466.6127    480.63447    386.87908   -490.24574    38760.619 
  617600    284.71266   -1436.0738    465.58793    304.22303    -657.1005    38760.619 
  617700    306.52528   -1428.7598    465.18016    408.78821   -599.26783    38760.619 
  617800    304.54449   -1425.8109     480.2849    417.97351   -404.88913    38760.619 
  617900    294.90357   -1414.3664    477.92252    383.89155    51.529513    38760.619 
  618000    304.21672   -1465.6977    470.10616    366.44052   -28.343771    38760.619 
  618100    309.32161   -1435.6939    473.64311    422.83674   -292.29185    38760.619 
  618200    301.63994   -1470.4254    484.84609    364.91596   -182.92382    38760.619 
  618300    296.00489    -1484.248    468.50976    309.52796   -136.93643    38760.619 
  618400    295.11448   -1495.8335    480.78039    306.22653    30.998357    38760.619 
  618500    299.15277   -1475.8458    465.94882    329.46283    236.05086    38760.619 
  618600    291.94975   -1491.2431     478.6582    294.52572    337.50906    38760.619 
  618700    299.64754   -1502.7306    471.12671    309.97112   -377.90654    38760.619 
  618800    299.98934   -1476.6073    468.56123    335.05922   -360.93219    38760.619 
  618900    293.93468   -1455.7865    472.82229    333.03331   -559.40442    38760.619 
  619000    311.33529   -1500.0032    477.80743    371.70731   -870.98901    38760.619 
  619100    291.68732   -1527.0954    453.88164     232.7219   -308.00834    38760.619 
  619200    298.28655   -1498.3027    479.25482    316.43374   -379.67649    38760.619 
  619300    292.09845   -1531.5147    476.76478    253.02643   -159.12016    38760.619 
  619400    295.27938    -1518.609    469.44486    272.85381    261.09993    38760.619 
  619500    299.51071   -1555.9029     463.1387    248.19815   -63.400668    38760.619 
  619600    308.46391   -1561.7673    472.16182    291.44195     274.9306    38760.619 
  619700    296.09961   -1479.2859    474.43634    320.84072    227.53437    38760.619 
  619800     297.3195   -1503.7462    495.53235    322.93813    455.88971    38760.619 
  619900    298.69319   -1509.4669    442.46904    270.30431    230.23651    38760.619 
  620000    302.96062    -1502.058    498.71954    353.06979    515.97506    38760.619 
  620100    294.68093   -1522.1395    488.36159    285.56063    -89.77248    38760.619 
  620200    312.42534   -1504.5806    480.81213    375.01498    269.14688    38760.619 
  620300    297.16401   -1507.6007    480.22193    303.07701    -196.2046    38760.619 
  620400    288.78218   -1525.8773    452.11679    219.16829   -742.65002    38760.619 
  620500    298.09866   -1521.0397    445.52058    259.12121   -544.14186    38760.619 
  620600    300.05043   -1514.2727    456.61842    285.72445   -62.702502    38760.619 
  620700    297.10619   -1530.5549    444.60533    244.24732   -37.943884    38760.619 
  620800    302.57915   -1507.8125    459.77881    306.66666    323.41788    38760.619 
  620900    301.17274   -1558.2203    459.52118    249.70441    64.926112    38760.619 
  621000    297.62923   -1515.5457    463.29335    280.28632   -260.93696    38760.619 
  621100    303.26194   -1472.8131    452.94351    337.88769   -428.91962    38760.619 
  621200    302.36769   -1496.6704    470.06531    327.14844   -243.91607    38760.619 
  621300    300.39288   -1486.0051    467.03418    325.94112   -11.190761    38760.619 
  621400     290.1199   -1494.6821    463.85822    268.09418     89.55793    38760.619 
  621500    296.43376   -1539.8916    450.04658    237.34133    30.437834    38760.619 
  621600     290.6598   -1502.1364    489.39588    288.59481   -112.08909    38760.619 
  621700    300.93159   -1476.7993    493.63291     364.1575    10.512819    38760.619 
  621800    292.63172   -1492.5461    475.28045    292.89824   -22.488643    38760.619 
  621900    301.07906   -1472.8272      471.866     347.0229   -188.19425    38760.619 
  622000    298.00782   -1471.4907    482.12042    344.86335    279.56797    38760.619 
  622100    296.72506    -1495.976    438.69909    271.21362    155.82687    38760.619 
  622200    298.34185   -1513.5986    481.86188    303.99244    55.666928    38760.619 
  622300    305.43094   -1472.9833    482.00645    376.49141   -571.76883    38760.619 
  622400    296.03291   -1466.9723    467.20787    325.62721   -383.13339    38760.619 
  622500    295.51676   -1417.6966    491.04418    396.42829   -647.50571    38760.619 
  622600     309.2933   -1461.3236    461.44574    384.88289   -60.184068    38760.619 
  622700    293.61329   -1460.2571    480.07125    334.37272    105.25346    38760.619 
  622800    300.71054   -1473.0033    477.92285     351.2538     347.2037    38760.619 
  622900    303.29092   -1433.3712     487.2212    411.73702    398.32481    38760.619 
  623000    294.90394   -1469.6568     470.9551     321.6354    38.648471    38760.619 
  623100    297.52807   -1467.0136    478.98051    344.05265    781.42498    38760.619 
  623200    294.26289   -1497.1419    466.47745     286.8025    841.08495    38760.619 
  623300    295.20307   -1449.6736    486.56244    358.56512     1109.842    38760.619 
  623400    324.43284   -1493.5339    463.31188    422.32112    1207.6114    38760.619 
  623500    293.42968   -1464.9002    495.11549    343.95178    1545.8242    38760.619 
  623600    302.50997   -1508.1321    466.34748    312.60599    228.79368    38760.619 
  623700    304.72663   -1471.2947    480.56882    373.58905     661.8966    38760.619 
  623800    299.63529   -1469.5105    476.89276    348.90235    197.09841    38760.619 
  623900    300.51741   -1484.3225    446.89263    308.03965   -280.64841    38760.619 
  624000    303.47659   -1472.2192    469.60301    356.10214    -40.08867    38760.619 
  624100    300.06138   -1459.8584    481.54002    365.10948   -223.10613    38760.619 
  624200    309.50292   -1426.5381    474.76512    433.92624   -15.350607    38760.619 
  624300    299.81436    -1474.935    460.69725    328.08412   -181.84182    38760.619 
  624400    301.36647   -1480.0294    462.49054    331.73204   -303.82065    38760.619 
  624500     294.2046   -1517.0718    440.67075    240.80498    378.95176    38760.619 
  624600    305.70776   -1469.9926    474.10939    372.82443    78.484164    38760.619 
  624700    291.38457   -1500.4695    458.83262    262.94334   -157.18792    38760.619 
  624800    309.29216   -1508.2942    488.85495    365.31638    13.756176    38760.619 
  624900    294.14969   -1506.3253    440.86238    251.49727    175.36838    38760.619 
  625000    288.61759   -1495.5519    486.21221    282.85231   -341.72054    38760.619 
  625100     295.5708   -1526.1038    468.10166    265.32056   -134.79903    38760.619 
  625200    305.60385   -1518.5672    456.70269    306.37786     223.1321    38760.619 
  625300    306.03099   -1484.1829    489.36913    375.34105    336.80678    38760.619 
  625400    296.02595    -1519.828    442.81309     248.3456    541.94173    38760.619 
  625500    297.06829   -1503.3361    473.19403    299.88513    723.37596    38760.619 
  625600    286.61307   -1499.2699    474.83363    258.78108    202.18753    38760.619 
  625700    301.85326   -1480.8864      457.968    328.53201     166.3977    38760.619 
  625800     311.4678   -1510.9714    474.78441    358.30939    173.46907    38760.619 
  625900    305.53024   -1534.2644    471.78876    305.43728    540.17178    38760.619 
  626000    291.92739   -1502.7253    459.87003    264.15525     187.7695    38760.619 
  626100    301.72622   -1462.9114    471.13052    359.10074    712.22376    38760.619 
  626200    300.45696   -1460.9991    500.64219    384.84201    696.71043    38760.619 
  626300    315.45532   -1497.5036    471.15685    386.00247    252.91602    38760.619 
  626400    297.27197   -1484.0837    471.98285    318.83826   -320.75215    38760.619 
  626500    289.28035   -1463.9501    481.40453    312.61369   -829.53569    38760.619 
  626600    293.26955   -1441.8783    477.49507    348.63638   -341.25181    38760.619 
  626700    291.96119   -1488.7859    490.96249     309.3384   -739.04173    38760.619 
  626800    302.89712   -1469.1947    462.51462    349.44389   -142.88181    38760.619 
  626900    308.00719   -1470.1582    476.52843    385.37285    -218.6607    38760.619 
  627000     302.3164    -1486.623    463.72495    330.62583   -528.62903    38760.619 
  627100     298.1436   -1485.6682    476.94393    326.11733    -258.9026    38760.619 
  627200    297.39104   -1499.5319    466.81778    298.75813   -190.36437    38760.619 
  627300    286.84925   -1470.3042    476.15754    290.12816   0.10333921    38760.619 
  627400    306.75214   -1517.2237     483.0174    339.17724   -403.99142    38760.619 
  627500    295.06241   -1526.5942    468.43145    262.88379   -316.45501    38760.619 
  627600    291.21343   -1522.1354    454.46188    236.14047   -516.04415    38760.619 
  627700     292.5322   -1526.7626     474.5717    257.52747    64.064391    38760.619 
  627800    305.61508   -1500.3802    467.70779    335.62026    -138.0098    38760.619 
  627900     295.4981   -1520.5822     484.2788    286.69379    484.74264    38760.619 
  628000    287.97934   -1511.2685    482.60171    260.66757    663.50575    38760.619 
  628100    297.98342   -1493.5708    498.06227    338.61589    1103.4968    38760.619 
  628200    306.22135   -1485.9295    467.40065    352.47822    1053.5049    38760.619 
  628300    303.72366   -1503.2023    454.01188    310.63403    1149.7083    38760.619 
  628400    298.26227   -1481.0913    475.26105    329.54264    695.51089    38760.619 
  628500    304.59985   -1481.7286     459.9811    341.99983    155.50327    38760.619 
  628600    297.32969   -1477.1349    513.50473    367.56735     284.9321    38760.619 
  628700     289.5858   -1509.9877    483.63356    270.17264    95.928111    38760.619 
  628800    298.02354   -1524.2521    466.33884    276.39078    156.24783    38760.619 
  628900    305.53125   -1512.8519    492.99011    348.05555   -246.32912    38760.619 
  629000    291.85524    -1496.534    443.96398    254.11747   -333.67417    38760.619 
  629100    312.70598   -1502.3336    504.06598    401.77229    68.147374    38760.619 
  629200    306.59874   -1507.5036    475.64759    340.84071   -267.55024    38760.619 
  629300    295.04233   -1497.4449    473.92119    297.43296   -275.55465    38760.619 
  629400    296.65187   -1515.8306    471.08487    283.41711   -361.62274    38760.619 
  629500    304.75785   -1505.1188     502.5991    361.93504   -200.15872    38760.619 
  629600    296.05619   -1520.4936    496.76307    301.76536    420.56204    38760.619 
  629700    296.58106   -1518.9289    474.32115    283.23807   -96.843631    38760.619 
  629800    308.60643   -1490.2561    490.50526    381.93464    368.96487    38760.619 
  629900    295.15162   -1542.9092    489.44233    267.97912    299.99063    38760.619 
  630000    302.82486   -1504.2422    469.71109    321.26932    343.37783    38760.619 
  630100    300.55276   -1521.9492    481.92486    305.60341    132.72795    38760.619 
  630200    306.67449   -1511.0199    457.55891    319.57492    123.88836    38760.619 
  630300    296.43941    -1513.248    465.44441      279.408    836.89959    38760.619 
  630400    303.29276   -1508.8808    502.12421    351.13876     1063.701    38760.619 
  630500    305.12184   -1554.8031    482.40185    293.68317    918.53693    38760.619 
  630600    303.39096    -1509.998    469.14559    317.48248    577.18936    38760.619 
  630700    299.25838   -1505.4158    464.94029    299.35716    397.60145    38760.619 
  630800    305.79608   -1518.4014    461.25827    311.95999    304.76014    38760.619 
  630900    287.21902   -1500.0291    495.86103    281.76219    307.00174    38760.619 
  631000    296.84288   -1481.2837    483.08805    330.82239   -111.87999    38760.619 
  631100     294.2985   -1489.5905    477.14308    305.17899   -93.514699    38760.619 
  631200    300.17939   -1516.9001    493.02516    320.08123    467.41615    38760.619 
  631300    306.01632   -1528.6354    478.96892    320.42266    812.02309    38760.619 
  631400    298.83612   -1553.8933    471.68913    255.73792    739.28424    38760.619 
  631500    302.15295   -1522.5689    469.61598    299.83923     421.8899    38760.619 
  631600    309.35806   -1523.4478    469.32058    330.92344   -49.769633    38760.619 
  631700    298.82467   -1508.7101    467.51928    296.69999   -482.88736    38760.619 
  631800    302.87215   -1517.5626    474.56142      313.011   -533.15311    38760.619 
  631900     298.8962   -1484.7336    444.76106    298.23856   -583.90699    38760.619 
  632000    304.53505   -1456.0844    488.28407    395.65694   -590.38886    38760.619 
  632100    295.46823   -1442.2679    469.04887    349.64447   -274.15292    38760.619 
  632200     312.0246   -1489.0832    491.95069    399.85677    36.254503    38760.619 
  632300    296.11564   -1503.6055    477.19787    299.35435    442.83624    38760.619 
  632400    299.75931   -1495.6487     486.9654    333.39216   -4.8858239    38760.619 
  632500    304.26054   -1461.2405    486.21505    387.20274   -45.941774    38760.619 
  632600    306.16246   -1473.4069    485.69166     383.0282   -224.52972    38760.619 
  632700    303.35992   -1504.7479    460.36635     313.8144    170.38336    38760.619 
  632800    301.59558   -1497.8681    516.29448    368.72313   -423.19513    38760.619 
  632900    305.30569   -1479.7282    489.69362    376.87292    619.19743    38760.619 
  633000    302.48441   -1476.5066    453.13731    330.90688    651.26873    38760.619 
  633100    301.80614   -1467.3772    497.05706    380.91933    337.36941    38760.619 
  633200    288.47009   -1485.5007    495.46967    301.50055    149.30317    38760.619 
  633300    297.11116   -1453.5047    511.11182    387.82631    64.442156    38760.619 
  633400    294.86773   -1490.3092    450.89172    280.75749    8.0351488    38760.619 
  633500      304.325    -1481.315    473.59773    354.79949    102.65286    38760.619 
  633600    303.85398   -1479.7779    484.09143    364.72147   -62.095068    38760.619 
  633700    286.86911    -1447.924    482.63253    319.07218   -246.21858    38760.619 
  633800    298.12685   -1446.8899    491.64648    379.52315   -64.179699    38760.619 
  633900    308.56844    -1459.538    484.41917    406.39664   -41.796806    38760.619 
  634000    297.53306   -1484.4057    484.14943    331.85178     156.5719    38760.619 
  634100    308.26113   -1475.2175    483.01159    387.93369     535.9774    38760.619 
  634200     313.3501   -1477.6725    481.59653    406.84783    714.12561    38760.619 
  634300    300.68978   -1512.7744    471.32063    304.78748    643.15721    38760.619 
  634400    294.87688   -1498.2107    476.73612    298.74135    823.24025    38760.619 
  634500    293.43503    -1530.777     461.1242    244.10773     255.1549    38760.619 
  634600    301.19549   -1542.2868    486.97072    293.18931     479.3115    38760.619 
  634700    298.50992   -1554.2701    443.20939    225.42096    485.90647    38760.619 
  634800    307.56648   -1570.8405    454.43057    260.61959   -122.10663    38760.619 
  634900    302.84512   -1528.1539    473.17806     300.9153   -52.435391    38760.619 
  635000    299.84258   -1529.6806    472.29337    285.06097    304.08808    38760.619 
  635100    298.31711   -1499.1476    476.03411     312.5049    566.27315    38760.619 
  635200    294.16549    -1540.215    482.86797    259.68381   -199.78938    38760.619 
  635300    301.73233   -1515.9853    483.02629    317.94987    304.43454    38760.619 
  635400     307.1659   -1503.7496    458.42852    329.91495    236.29241    38760.619 
  635500    304.38815   -1518.4757     479.8796    324.20347   -187.07899    38760.619 
  635600    298.89972   -1542.4457    463.12306     258.9042   -277.00594    38760.619 
  635700    300.81129   -1484.5504    496.06968    358.30455   -164.56975    38760.619 
  635800    303.68594   -1504.6537    489.68185    344.68379   -113.38406    38760.619 
  635900    293.05374   -1482.6856    485.74505    315.11287   -241.37742    38760.619 
  636000    302.87271   -1515.0109    473.89957    314.90329    31.047536    38760.619 
  636100    292.27773   -1496.1818    468.84367    281.24085   -322.57062    38760.619 
  636200    304.49126   -1479.9972    493.89067    377.15461   -76.448193    38760.619 
  636300    307.91313   -1480.6645    483.88964    381.80663   -111.01552    38760.619 
  636400     309.4132   -1463.8901    469.80832    391.21582   -121.81434    38760.619 
  636500    292.07226   -1475.0299    475.70375      308.333   -532.39165    38760.619 
  636600    295.97067   -1486.1533    466.83536    305.79508   -163.32852    38760.619 
  636700    290.77837   -1505.8415    484.72747    280.75214    140.91911    38760.619 
  636800    301.14073   -1532.0595     460.4964    276.69718    1035.5875    38760.619 
  636900    313.13273   -1497.5934    477.89553    382.25265    933.12327    38760.619 
  637000    297.13493    -1465.594     503.9788    368.71037    81.533116    38760.619 
  637100    299.09386   -1461.3021    490.04401    367.83798      173.687    38760.619 
  637200    303.70362   -1495.6101    508.15598    372.28065   -199.55327    38760.619 
  637300    302.47303    -1495.535    461.86707    320.55729   -349.59525    38760.619 
  637400    290.91113   -1519.6737    485.83539     268.6222   -6.4253803    38760.619 
  637500    297.42609   -1484.1045    498.26831    345.79298   -59.825928    38760.619 
  637600    303.22708   -1484.3474    482.76924    356.02306    371.35271    38760.619 
  637700    292.02341   -1464.4698    494.33126    337.30192    87.070795    38760.619 
  637800    294.75018   -1487.7927    483.96518    315.82113    104.43473    38760.619 
  637900    300.68938     -1489.61     480.2363    336.86578    252.42737    38760.619 
  638000    288.49339   -1442.5898    494.23728     343.2834    189.43172    38760.619 
  638100    302.62141   -1436.4145    501.41436     419.8894    614.29788    38760.619 
  638200    306.75916   -1482.9304    466.45677    356.94129    306.78653    38760.619 
  638300    285.95291   -1415.4053    498.14608    363.00249    -88.75505    38760.619 
  638400    293.80703   -1409.6181    483.19287    389.00082    116.91051    38760.619 
  638500    303.63894   -1435.1745    476.73202    401.00272    361.06374    38760.619 
  638600    302.20435   -1473.2413    484.60561    364.38661   -105.47377    38760.619 
  638700    301.10075   -1461.4367    480.90939    367.55392    266.93246    38760.619 
  638800    307.66181   -1453.5418     495.7764    419.69084    207.39983    38760.619 
  638900     297.3441   -1468.0767    467.86537    331.05079    43.424863    38760.619 
  639000    292.91694    -1477.188    509.59201    343.84496    179.23003    38760.619 
  639100    310.45291   -1502.0801    463.93945    351.81186    30.655629    38760.619 
  639200    299.69623   -1425.1361    480.69883    397.35567   -209.89565    38760.619 
  639300    297.20839   -1479.2934    484.30178    335.66289    23.678112    38760.619 
  639400    296.23116   -1475.6154    462.57575     313.2396   -258.84993    38760.619 
  639500    305.83694   -1492.3914    479.75894    356.65356   -314.77959    38760.619 
  639600     300.5164   -1483.7546     443.4111    305.12152    135.88496    38760.619 
  639700    302.39763   -1467.5795     479.9654    366.27352   -375.97249    38760.619 
  639800    304.07143   -1455.9836     480.5088    385.90669   -810.87962    38760.619 
  639900    297.27807   -1470.7992    470.12413     330.2914   -663.49424    38760.619 
  640000    301.13272   -1494.7962    491.76951    345.19773    -600.4755    38760.619 
  640100    301.35577   -1458.0716    494.09696    385.24835    -1097.209    38760.619 
  640200    315.68771   -1510.1041    462.98395    366.26947   -330.15702    38760.619 
  640300    304.22005    -1495.908    484.98251    351.12144   -104.06837    38760.619 
  640400    294.68968   -1481.7253    485.58599    323.23844   -103.04831    38760.619 
  640500    294.90593   -1476.9143    491.54793    334.97956    268.65386    38760.619 
  640600    301.84007   -1484.7067    465.24521    331.92981   -258.81256    38760.619 
  640700    310.97753   -1481.4135    484.44931    395.33714    375.77435    38760.619 
  640800    301.52506   -1499.7085     499.6374     349.9099    429.05449    38760.619 
  640900    297.21504   -1484.6974    483.98765    329.97451    768.75896    38760.619 
  641000    306.99586   -1481.2352    505.58665    398.82616    716.94723    38760.619 
  641100    297.38809   -1490.1985    473.03104    314.29158    765.26716    38760.619 
  641200    306.51014   -1514.2645    480.75423    338.78975    347.15158    38760.619 
  641300    292.41411   -1497.9143    469.88599    281.16131    199.52879    38760.619 
  641400    314.34067   -1487.2514    487.31707     407.4244   -16.333823    38760.619 
  641500    297.12672   -1489.7946    463.99372    304.48793   -631.62204    38760.619 
  641600    292.21688   -1470.5036    503.95102    341.75397   -160.08371    38760.619 
  641700    311.55453   -1453.8559    443.99359    385.02237    449.44634    38760.619 
  641800    314.49119   -1469.8629    465.55963    403.72938    205.01373    38760.619 
  641900    301.02939   -1469.3693    485.54804    363.94044    248.24968    38760.619 
  642000    310.48393   -1443.9903    472.34818    418.44929    440.88692    38760.619 
  642100    304.08342   -1452.8886    473.35241    381.89897    489.98984    38760.619 
  642200    307.21158   -1460.5804    449.47404    364.33419    228.44093    38760.619 
  642300    312.09586   -1477.0037    469.78239    390.08696    618.24958    38760.619 
  642400    299.60894   -1504.4981    473.90352    310.80759    628.61899    38760.619 
  642500    298.54124   -1482.5821      485.335    339.37481    571.21011    38760.619 
  642600    308.78538   -1537.8989    457.67596    302.26374    185.29241    38760.619 
  642700    285.49112   -1536.4058    429.95852    171.74693   -192.59264    38760.619 
  642800    299.43503   -1538.0314    463.78549    266.37768   -348.30061    38760.619 
  642900    308.45214   -1473.8903    465.83893    372.94337    51.197516    38760.619 
  643000     304.4162   -1498.5372    462.81643    327.20437   -154.21839    38760.619 
  643100    314.98373   -1465.9079    452.60206    396.93195    172.67544    38760.619 
  643200    296.27455   -1495.2884    471.78184    302.96697   -183.76581    38760.619 
  643300     294.8633   -1504.1468    450.06309    266.07139   -270.43853    38760.619 
  643400    292.49965   -1498.5064    499.50022    310.56646    12.612928    38760.619 
  643500    290.28956   -1471.2389    485.81303    314.25179    319.62356    38760.619 
  643600    282.24334     -1480.31    469.85552    253.19884    216.62377    38760.619 
  643700    300.91835   -1509.0918    475.11746    313.29026    -166.7225    38760.619 
  643800     307.9725   -1505.9605    453.16187    326.04867    273.10236    38760.619 
  643900     309.7701   -1529.6084    440.76118    298.04825    414.11344    38760.619 
  644000    306.56423   -1552.3023     451.8456    272.08557    479.73695    38760.619 
  644100    298.13196   -1497.9333    480.58201    317.43815    136.36394    38760.619 
  644200    294.06424   -1474.1007    468.37921    310.85605    117.29539    38760.619 
  644300    303.85647   -1519.3392    456.16232    297.24223    92.118393    38760.619 
  644400     311.8876   -1534.5994    465.97343     327.7499    43.972177    38760.619 
  644500    293.00358   -1551.6513    464.82743    225.00496     -297.307    38760.619 
  644600    302.77867   -1537.0535    470.56021    289.10032   -229.18196    38760.619 
  644700    291.30019   -1498.7792    456.98583    262.40906    456.57131    38760.619 
  644800     301.5881   -1500.2042    472.73801    322.79706    384.17755    38760.619 
  644900    298.02039   -1526.8642    449.87128    257.29702    311.60648    38760.619 
  645000    287.68331   -1496.9265    463.12734    254.20984    360.03642    38760.619 
  645100    305.65044   -1485.3191    493.38247    376.51434   -171.75619    38760.619 
  645200    299.14802   -1487.4484       467.99    319.88019    176.31697    38760.619 
  645300    308.19889   -1479.4911    460.14425    360.51406    114.29422    38760.619 
  645400    306.45004   -1505.2079    477.82199    344.64509   -213.44115    38760.619 
  645500    286.78928   -1478.1421    490.12661    295.99075    220.58433    38760.619 
  645600     311.7886   -1467.2375    466.28931    394.98444    538.99836    38760.619 
  645700    293.11323   -1474.9414    480.89327    318.27159    185.48548    38760.619 
  645800    306.77715   -1490.0694    445.76557     329.1917    76.315201    38760.619 
  645900    287.51926   -1487.7482    471.39556    270.92186    -319.0119    38760.619 
  646000    305.67924   -1479.4449    468.44328    357.57834   -330.40478    38760.619 
  646100    296.89705   -1459.0846    476.73239    346.90828   -250.73368    38760.619 
  646200    290.27303   -1500.6659    476.17304    275.11084   -242.92409    38760.619 
  646300    304.28872   -1528.1355    484.39573    318.61457   -17.129733    38760.619 
  646400    298.75538   -1526.8902    474.18395    284.87439   -178.62431    38760.619 
  646500    304.32225   -1488.2141    452.29332    326.58371    177.00632    38760.619 
  646600    307.34357   -1510.8143    459.72175    324.93892    474.29056    38760.619 
  646700    307.26007   -1521.7071    442.64013    296.59068   -96.934771    38760.619 
  646800    305.06545   -1520.1804     468.6629    314.31447    24.259698    38760.619 
  646900    288.55359   -1511.5329    476.77256    257.14511    -70.50897    38760.619 
  647000    310.32688   -1512.5223     441.1139    317.97987     -11.5397    38760.619 
  647100    296.04866   -1514.1852    456.73567    268.01263    597.85361    38760.619 
  647200    297.54634   -1500.3038    460.98196    292.84568    172.88585    38760.619 
  647300    307.91122   -1531.9327    492.25135     338.8916    223.64384    38760.619 
  647400    305.04234   -1540.5741    463.97274    289.12714    162.74513    38760.619 
  647500    292.11471    -1526.015    465.06575    246.89994   -291.62911    38760.619 
  647600    303.17743   -1510.5089    455.00909    301.87914    -47.48793    38760.619 
  647700    293.81253   -1491.7772    460.30516    283.97864     214.9758    38760.619 
  647800     302.7308   -1516.2417    478.24334    317.38097    259.60517    38760.619 
  647900    293.12394   -1491.0496    463.53265    284.85076    277.03207    38760.619 
  648000    310.48893   -1478.7246    450.94706    362.33625      468.669    38760.619 
  648100    304.39666   -1490.9834    471.09137    342.94557     763.3519    38760.619 
  648200    300.01769   -1474.3529    474.92558    343.80492    516.10973    38760.619 
  648300    294.00789   -1482.3936    464.08872    298.02043    428.92824    38760.619 
  648400    292.82788   -1496.9069    447.28906    261.42436    48.318388    38760.619 
  648500    301.15609   -1489.5556    467.94799    326.72141    75.661352    38760.619 
  648600    300.99116   -1516.7485    455.09455    285.93668    -331.3307    38760.619 
  648700    301.61895    -1510.451     430.3255    270.27581   -248.31008    38760.619 
  648800    309.88071   -1476.4462    452.02319    362.96765    294.63016    38760.619 
  648900    297.81338   -1498.8775    480.35695    314.84261   -497.01824    38760.619 
  649000    312.67569   -1485.0707    452.31596     367.1496    -384.2463    38760.619 
  649100    290.55845   -1495.9411    461.16448    266.10489    80.266462    38760.619 
  649200    305.10999   -1512.2318    460.60583    314.40541    239.74688    38760.619 
  649300    310.18316   -1549.4371    439.85182    279.15949   -169.36428    38760.619 
  649400    300.67145   -1507.9161    468.98344    307.22656   -440.41434    38760.619 
  649500    293.54488   -1546.0883    460.62569     228.7897   -566.66777    38760.619 
  649600    297.78393   -1517.2804    464.81289    280.76373   -109.21484    38760.619 
  649700    297.93685   -1514.6765    475.86166    295.10111   -383.18958    38760.619 
  649800     289.8238   -1504.9033    449.79633    242.48534    -245.1399    38760.619 
  649900    305.44715   -1497.9795    487.97763    357.53893   -36.538439    38760.619 
  650000     290.2229    -1472.064    453.32541    280.64068    151.10675    38760.619 
  650100    293.41404   -1467.3518    469.59458    315.90928   -480.69271    38760.619 
  650200    296.98596    -1515.486    470.61307    284.78568     189.1659    38760.619 
  650300    309.31239   -1464.3661    464.26402     384.7441   -410.52904    38760.619 
  650400    303.11938   -1508.0922    454.94429    303.97108    -464.6366    38760.619 
  650500    301.87776   -1486.2296    468.53491    333.86542   -449.11029    38760.619 
  650600     298.2566   -1548.2699    467.23972    254.31728   -461.99857    38760.619 
  650700    317.76564   -1523.4997    443.52479    342.71797    253.24295    38760.619 
  650800    298.63693   -1533.6366    461.91894     265.3327   -424.86965    38760.619 
  650900    308.72549    -1486.056    460.10139    356.26396    167.82549    38760.619 
  651000    289.01565   -1506.2404    463.60667    251.34035   -190.13897    38760.619 
  651100    292.13016   -1475.1468    479.93268    312.70418    615.21355    38760.619 
  651200    297.99899   -1499.4424    491.20635    325.95812    109.34647    38760.619 
  651300    303.82843   -1497.0935    466.61231     329.8124   -59.169099    38760.619 
  651400    300.29185   -1520.1211    467.98965    292.32823    54.794961    38760.619 
  651500    304.06241   -1503.1204    495.40789    353.62864    64.479099    38760.619 
  651600    305.73646   -1456.0306    433.85406    346.65963   -47.710848    38760.619 
  651700    307.86785    -1505.884    483.97649    356.47121    483.83913    38760.619 
  651800    295.33167   -1478.4487    460.88971    304.69308    127.34265    38760.619 
  651900    310.08397   -1462.6778    454.96266    380.58561    508.93968    38760.619 
  652000    294.95537   -1537.4508    464.28748    247.40404    340.29269    38760.619 
  652100    294.11927   -1493.2635    495.00783    318.56825    392.78386    38760.619 
  652200     301.4728   -1496.8019    481.64694     334.5921    171.07339    38760.619 
  652300    291.83985   -1509.2033    469.45776    266.87307   -22.705237    38760.619 
  652400    297.14766    -1509.192    488.51136     309.7019    131.66883    38760.619 
  652500    293.62009   -1511.0226    467.38166    270.94805   -57.808679    38760.619 
  652600    301.56797   -1512.3478     452.2609    290.08618   -68.502224    38760.619 
  652700    309.61656   -1490.8374    451.56117    346.93181    -420.0399    38760.619 
  652800    295.53043   -1489.0775    465.87258      299.937   0.71381988    38760.619 
  652900    309.42831    -1441.556    467.55521    411.36445   -91.103018    38760.619 
  653000    293.44723   -1472.9572    479.56484     320.4227   -444.42878    38760.619 
  653100    303.24144     -1457.52    475.11333    375.25883   -366.28533    38760.619 
  653200    304.45379   -1451.9927    489.98703    401.08772   -18.391755    38760.619 
  653300    294.61896   -1505.6569    446.81338    260.21765    184.28261    38760.619 
  653400    307.13964   -1444.2191     461.8047    392.70405     20.55969    38760.619 
  653500    295.42172   -1513.3211    463.84575    273.17987   -797.94853    38760.619 
  653600    299.81984   -1496.1116    472.32405    318.55887   -575.21464    38760.619 
  653700    314.43987   -1489.2729    470.38077    388.91075   -391.70203    38760.619 
  653800    304.05144    -1493.995    443.41344    310.71046   -583.77871    38760.619 
  653900    290.24826   -1507.0721    469.61163    262.03226   -337.53074    38760.619 
  654000     299.7375   -1461.8071    486.16757    366.33825   -262.24015    38760.619 
  654100    298.20871     -1486.87    478.85631    327.11939   -10.491374    38760.619 
  654200    299.53984   -1456.7263    476.89695    361.26341     217.7987    38760.619 
  654300    305.58577   -1461.8536    461.69144    367.99934    147.18304    38760.619 
  654400    296.82604   -1466.7712    478.89333    341.06482    712.70901    38760.619 
  654500     310.6755   -1489.9394    475.49955    376.50922    59.035569    38760.619 
  654600    302.70642   -1491.8282    457.07629    320.51826     110.0024    38760.619 
  654700    294.95938   -1491.8303     477.2118    305.96679   -99.973989    38760.619 
  654800    306.36134   -1499.4109    469.81302    342.03603     222.8963    38760.619 
  654900    304.54866   -1526.8421    459.09867    295.77478    813.13332    38760.619 
  655000    302.60716   -1516.7194    467.72567    305.83198    237.66962    38760.619 
  655100    303.03301   -1509.9458    471.78161    318.56813   -166.99024    38760.619 
  655200    313.09437   -1522.8223    422.94739    301.90393    448.89723    38760.619 
  655300      289.986   -1496.4042    461.91378    263.82814   -126.21571    38760.619 
  655400    301.12341   -1482.5394    446.40164    312.04497   -167.65295    38760.619 
  655500    301.39707    -1511.809    460.29847     297.8974     351.0713    38760.619 
  655600    292.55198   -1484.4588     480.3249    305.67306   -136.67578    38760.619 
  655700     288.5593   -1499.7265     471.6045    263.80898    344.45308    38760.619 
  655800    302.18416    -1486.118    471.98307    338.79698    114.73494    38760.619 
  655900    305.78607    -1503.056    470.56954    336.57175    237.81604    38760.619 
  656000    307.37468   -1474.1927    490.52059    392.49862    569.57612    38760.619 
  656100    292.07256    -1470.953    483.84981    320.55727    496.52459    38760.619 
  656200    300.91437   -1432.5136    472.32012    387.05328     244.7687    38760.619 
  656300    291.03759   -1457.2463    471.31433    317.09472    131.23216    38760.619 
  656400    314.12951   -1483.7805    437.53352    360.16634    9.0809764    38760.619 
  656500    302.45577   -1482.8727    455.33357    326.60877   -49.403045    38760.619 
  656600    304.14486   -1492.0214    473.36225    343.05116    522.40112    38760.619 
  656700    296.07079   -1513.8345    497.03649    308.76321    492.05138    38760.619 
  656800    297.77834   -1495.1365    460.11441    298.18412   -234.33644    38760.619 
  656900    298.39694   -1469.8091    482.81896    348.98573    437.42967    38760.619 
  657000    287.50401   -1464.9602    465.79503     288.0411   -59.375148    38760.619 
  657100    306.11451   -1503.5542    452.47814    319.45267   -428.58409    38760.619 
  657200     293.9903     -1444.32    493.86235    365.78885   -146.36266    38760.619 
  657300    301.08706   -1522.9561    463.28928    288.35314   -56.593617    38760.619 
  657400    300.86608   -1514.6853    451.69262    284.03788   -82.916615    38760.619 
  657500    308.01046   -1485.3524     479.6064    373.27127   -186.60723    38760.619 
  657600     292.0607   -1484.3611    466.27757    289.52379   -138.66713    38760.619 
  657700    307.24629   -1481.5853    479.22853    373.23913    606.07427    38760.619 
  657800     304.1012   -1493.7111    453.62768    321.43144     207.7766    38760.619 
  657900    298.48334   -1470.2358    454.40887    320.53571   -196.88967    38760.619 
  658000    291.82534   -1483.9313    475.70829    298.33055    314.19076    38760.619 
  658100     307.6318   -1490.1431    462.75385    349.93268    682.99836    38760.619 
  658200    304.43043   -1542.3651    443.81367    264.43746    590.35344    38760.619 
  658300    303.48173   -1471.0923    469.18824    356.83721    176.47346    38760.619 
  658400    297.97522   -1490.8134    468.33804    311.61242    391.00247    38760.619 
  658500    304.73139   -1465.5549    470.06067      368.842   -130.62005    38760.619 
  658600    305.22575   -1488.0682    461.31698    339.79843   -390.31611    38760.619 
  658700    300.21868   -1462.7013    470.19896    351.62971    155.88608    38760.619 
  658800    300.72846   -1473.1131    481.23369    354.53502   -59.547104    38760.619 
  658900    299.12815   -1469.9666    462.29371    331.57673    145.53908    38760.619 
  659000    300.57461   -1480.1046    484.47797    350.09905   -133.01039    38760.619 
  659100    301.98453   -1444.3786    492.17437    399.83392   -872.21696    38760.619 
  659200    295.93174   -1483.7114    469.12217    310.34945   -288.61503    38760.619 
  659300    294.54102   -1445.3663    459.38975    332.73562   -70.993634    38760.619 
  659400    303.74094   -1436.3466    477.66681    401.22201   -39.052505    38760.619 
  659500    301.92973   -1441.8052    482.35829    392.34588   -47.647529    38760.619 
  659600    314.36698   -1445.7067    483.95885    445.72861    224.34013    38760.619 
  659700    313.08873   -1461.7175    473.63156    413.66762    302.41282    38760.619 
  659800    299.76882   -1488.3091    487.15175    340.96061    448.35455    38760.619 
  659900    300.91339    -1500.624    445.59258    292.21098   -288.59769    38760.619 
  660000    307.87848    -1495.733    468.96976    351.66315   -638.02199    38760.619 
  660100    304.21022   -1477.4798    458.75821    343.28135   -299.70331    38760.619 
  660200    292.45323   -1428.4207    478.13939    359.08348    -1212.963    38760.619 
  660300    302.83015    -1450.873    458.09673    363.04782   -497.86666    38760.619 
  660400    306.76855   -1454.9726    454.71877    373.20315   -513.08416    38760.619 
  660500    303.63829   -1450.9346     451.3485    359.85615   -65.545176    38760.619 
  660600    298.65689   -1470.6306    471.67079    338.17987   -51.154447    38760.619 
  660700    296.54889   -1477.9812    469.07565    318.79627    102.41437    38760.619 
  660800    306.70875   -1477.2764    475.08977    371.00264    468.71647    38760.619 
  660900    299.00953   -1472.6369    476.46955    342.55117    588.28533    38760.619 
  661000    302.83065   -1441.8079    474.90842    388.92686    449.30932    38760.619 
  661100    302.67331   -1507.5057    475.62926    323.24541    -376.0331    38760.619 
  661200    295.06333   -1495.2165    480.36161    306.19572    296.79896    38760.619 
  661300    291.77836   -1510.1891    486.76245    282.91658    494.41282    38760.619 
  661400    308.98772   -1472.5679    449.79316    360.61788    222.54185    38760.619 
  661500    299.81693   -1461.9299    480.61528    361.01876   -21.075505    38760.619 
  661600    295.83894   -1485.0515     480.7723    320.24403   -203.14034    38760.619 
  661700    294.17125   -1513.4574    444.31993    247.91916   -202.71427    38760.619 
  661800    293.64929   -1512.3497    460.95735    263.32735    200.66447    38760.619 
  661900    292.14113   -1551.4265    470.01494     226.5559    135.66115    38760.619 
  662000      300.229   -1584.7724    462.95344    222.35932    57.178857    38760.619 
  662100    304.50565   -1567.5579    444.50806    240.27572     199.2197    38760.619 
  662200    305.21984   -1547.6053     476.2293    295.14717    135.26657    38760.619 
  662300    294.79045   -1516.0701    459.00565    262.76453    91.006009    38760.619 
  662400     300.7215   -1531.0491     433.2246     248.5588   -55.257829    38760.619 
  662500    292.45353   -1483.2971    476.64417    302.71322    9.8991816    38760.619 
  662600    300.83684    -1485.046    482.98924    344.84289     142.1674    38760.619 
  662700    296.54413   -1479.4509    475.20139    323.43096     218.3721    38760.619 
  662800    298.75019   -1491.7431    463.81434    309.62861   -62.420897    38760.619 
  662900    292.70165   -1495.0127    518.20544    333.66972    560.27087    38760.619 
  663000    296.86671   -1505.6765    465.85194    289.30011   -10.327363    38760.619 
  663100    290.42392   -1449.8781    471.13163    321.53271    232.23931    38760.619 
  663200    307.69561    -1446.607    467.42013    398.42072    16.288187    38760.619 
  663300    300.46335   -1520.8016    485.39588    309.82184    -249.1907    38760.619 
  663400    297.79637   -1478.5653    491.19759    345.91926   -277.03119    38760.619 
  663500    309.88291    -1462.699    472.66343    397.36497    -214.4007    38760.619 
  663600    293.36099   -1470.8043    479.56661    322.19128   -554.44554    38760.619 
  663700    298.18861   -1436.6434    473.02016    371.41981   -87.687785    38760.619 
  663800    296.22355   -1460.1995    479.48775    345.53347   -288.23935    38760.619 
  663900    296.78499   -1453.3382    492.22959    367.65022   -6.8170847    38760.619 
  664000    302.68564   -1496.9677    480.86247    339.07184    153.68332    38760.619 
  664100    302.97214   -1500.0208    440.28577    296.72474    -64.21999    38760.619 
  664200    303.57705   -1510.0642    460.68728    309.79121   -197.20367    38760.619 
  664300    305.20883   -1558.7424    444.65185    252.38327   -195.96842    38760.619 
  664400    303.52268   -1481.5371    476.56101    353.94857   -462.01646    38760.619 
  664500    291.91289    -1480.696    450.79438      277.044   -125.46148    38760.619 
  664600    302.95687   -1459.7319     479.9903    376.64987    306.20725    38760.619 
  664700    303.53189   -1473.3603    463.72805    349.33369    107.70493    38760.619 
  664800    304.60103   -1480.8569    422.22851    305.12425    188.78002    38760.619 
  664900    309.42221   -1499.3515    496.59781    382.58423    91.996171    38760.619 
  665000    296.38725   -1458.0217    441.90683    310.86323    555.81751    38760.619 
  665100    292.64473   -1463.6723    458.54852     305.0984    446.38619    38760.619 
  665200     295.6706   -1463.0919    463.55091    324.22855    578.07525    38760.619 
  665300    299.41373   -1481.0632     489.6475    349.11247     884.9183    38760.619 
  665400    308.59772    -1489.177    449.90505    342.37463    391.96108    38760.619 
  665500    292.77005   -1500.4585    462.35863    272.68336    394.52206    38760.619 
  665600    307.30558   -1497.7123    472.32265    350.47169    549.34225    38760.619 
  665700    291.61406   -1484.6328    470.13125    291.10614   -206.86463    38760.619 
  665800    300.93701   -1472.7503    451.37585    325.97375   -665.00139    38760.619 
  665900    302.49659   -1438.1527    487.98682    404.16476   -811.72776    38760.619 
  666000    302.22319   -1459.5037    461.77845    355.38136   -551.27703    38760.619 
  666100    299.02213    -1424.441      463.721    378.05492   -500.31063    38760.619 
  666200    300.49426    -1443.522    455.56684    357.41071   -626.37244    38760.619 
  666300    298.87664   -1434.2079    454.83247    358.74805   -436.59123    38760.619 
  666400    301.59989   -1406.4529    503.96238    447.82551    90.757029    38760.619 
  666500    303.75825   -1441.6262     448.3282     366.6814    280.20737    38760.619 
  666600    291.10687   -1471.5521    482.64811    314.43287    315.97341    38760.619 
  666700     300.9899   -1475.3662    443.61249    315.83128   -27.395209    38760.619 
  666800    297.22019   -1468.5829    498.28841    360.41285   -10.216493    38760.619 
  666900    307.17003   -1484.3205    471.63928    362.57329    -269.9774    38760.619 
  667000    309.04327   -1467.0448    458.73593    375.33241   -52.950412    38760.619 
  667100    299.18701   -1502.5169    429.68498    266.68115   -42.337162    38760.619 
  667200    310.66154   -1471.1904    500.08931    419.78552    255.20742    38760.619 
  667300     296.0744   -1439.1476    465.02754    351.45738    661.35128    38760.619 
  667400    306.39401   -1456.9204    466.80051    381.66024    379.39029    38760.619 
  667500    299.06164   -1505.7389    459.59159    292.80449    350.95858    38760.619 
  667600    315.98848   -1489.2969    478.06822    403.50756    828.73748    38760.619 
  667700    304.25987   -1463.4546    472.27143    371.04198    517.67262    38760.619 
  667800    293.41558   -1470.3797    463.25784     306.5516     89.29115    38760.619 
  667900    305.61161   -1449.6138    466.76847    385.43182   -100.86647    38760.619 
  668000    290.92155    -1480.639    464.01628    285.88443    506.82285    38760.619 
  668100    314.86852   -1445.8469    467.34737     431.2225    385.18267    38760.619 
  668200    300.03959    -1446.208    463.10737    360.22963    89.831923    38760.619 
  668300    292.06255   -1451.3898    459.17279    315.39861    185.75977    38760.619 
  668400    306.54026   -1455.5956     486.6112    403.45057    195.66164    38760.619 
  668500    293.58562   -1450.4239    453.22611    317.23691    440.16523    38760.619 
  668600    306.90148   -1485.0197    436.93452    325.96699   -5.2318731    38760.619 
  668700    297.07214   -1475.2719       461.05    315.82252    274.18173    38760.619 
  668800    300.57256   -1433.3218    469.73289    382.12755    306.62515    38760.619 
  668900    296.08063   -1467.8803    488.88022    346.60518    231.49167    38760.619 
  669000    306.17756   -1469.9247    457.82044    358.70677   -206.64635    38760.619 
  669100    285.86952   -1454.4878    475.63426    301.03481   -183.09243    38760.619 
  669200     296.4787   -1533.1949    445.95691    240.14959   -147.22567    38760.619 
  669300     293.1274   -1514.9074    457.02505    254.50081   -295.54703    38760.619 
  669400    305.02872   -1462.5539    462.66127     365.7749    60.199103    38760.619 
  669500    297.46945   -1487.4156    469.43807    313.84574    77.849038    38760.619 
  669600    305.55198   -1453.5468    465.27775    379.74118    332.17563    38760.619 
  669700    290.84766   -1436.7397    473.59217    339.02884   -261.29849    38760.619 
  669800    301.52008    -1497.093    472.19763    325.06336    228.17318    38760.619 
  669900    298.15599    -1496.809    479.17257    317.26058    142.98173    38760.619 
  670000    298.85071   -1491.5085    439.59798    286.09692    146.75614    38760.619 
  670100    294.18023   -1496.3993    440.86277    261.56038    69.333503    38760.619 
  670200    294.31702   -1472.5376    460.35407    305.52576    -305.8633    38760.619 
  670300    296.34369   -1453.3352    470.82621    344.27406   -293.92902    38760.619 
  670400    302.81344   -1480.0173    456.62929     332.3613    47.350826    38760.619 
  670500    290.64437   -1454.0349    447.54464    294.77595    479.39524    38760.619 
  670600    296.26543   -1468.4086    469.47629    327.50041    284.14331    38760.619 
  670700    304.09548   -1481.9399     454.3469    333.89624    663.86877    38760.619 
  670800    310.38515   -1446.1741    471.44853    414.92356    474.60278    38760.619 
  670900    301.57511   -1474.7545    500.02223    375.47277    570.89597    38760.619 
  671000    294.70241   -1459.5446    478.92403    338.81419    351.79782    38760.619 
  671100    293.52611   -1486.5358    464.56033    292.19273    532.03261    38760.619 
  671200    308.13146   -1418.8406    502.83619    463.55458    62.111256    38760.619 
  671300    291.87564   -1451.9736    458.08735    312.89261   -571.00674    38760.619 
  671400    301.94639   -1442.9645    473.62325    382.52606    -126.9873    38760.619 
  671500    297.34612   -1451.6247    464.76923    344.41563   -36.920501    38760.619 
  671600     294.4963   -1443.2162    482.97008     358.2659   -64.729669    38760.619 
  671700    306.85157   -1431.8674    473.46026    415.42153    368.99892    38760.619 
  671800     303.0554   -1453.6288    486.67228    389.87604   -80.179801    38760.619 
  671900    289.59522   -1445.0826     478.5167    330.00305    116.44984    38760.619 
  672000    300.16433   -1459.9815    474.96095    358.86821    83.559185    38760.619 
  672100    289.97328   -1467.8411    453.16807    283.58857    251.12373    38760.619 
  672200    287.99271   -1458.2873    465.01818    296.12514   -323.45961    38760.619 
  672300     298.4527   -1469.9595    448.07877    314.34471    -29.19714    38760.619 
  672400    304.28783   -1443.1362    474.77149     393.9856   -188.43064    38760.619 
  672500    310.22489    -1502.227    447.10515     333.8098    74.718832    38760.619 
  672600    292.38689   -1479.0264    482.74678    312.78813    57.437338    38760.619 
  672700    296.45377    -1457.609    463.37726    333.04423    313.83395    38760.619 
  672800    301.00122   -1476.5678    471.02194    342.08984    455.69106    38760.619 
  672900    295.39831   -1465.1398    453.90491    311.31552    51.212855    38760.619 
  673000    297.06852   -1469.3546    427.46151    288.13516   -627.43871    38760.619 
  673100    309.33376   -1438.9363    448.36809    394.37369   -460.23321    38760.619 
  673200    300.88583   -1387.0189    486.68236    446.78248   -599.45032    38760.619 
  673300    305.62839     -1436.78     439.8075    371.37978   -257.28248    38760.619 
  673400     299.8268   -1445.7774    455.86058    352.46075   -380.73059    38760.619 
  673500    294.95991     -1454.87    464.32139    330.03908   -412.17748    38760.619 
  673600    293.48271   -1475.7117    475.01949    313.28172     -922.249    38760.619 
  673700    301.36875    -1482.707    439.51534    306.08949    -581.6476    38760.619 
  673800    302.27869    -1483.317    473.96236    344.00047   -660.10109    38760.619 
  673900    299.77377   -1493.7258    457.81569    306.23003   -428.36996    38760.619 
  674000    300.72087   -1479.1062     451.6139    318.88813   -126.08032    38760.619 
  674100    291.83447   -1510.9447    452.57373    248.22353   -63.890643    38760.619 
  674200    314.48907   -1487.3055    463.52962    384.24724    263.74364    38760.619 
  674300    304.84328   -1491.6293    478.21623    351.42412    179.46138    38760.619 
  674400    293.34754   -1454.5308     469.8483     328.6863    742.75736    38760.619 
  674500     296.1044   -1452.6063    451.99357    325.09896     948.1488    38760.619 
  674600    293.43652   -1435.6496     481.0712    359.18872     852.0548    38760.619 
  674700    296.98394   -1461.1517    487.11463    355.61249    523.30768    38760.619 
  674800    293.25748   -1473.8782     441.1622    280.24957    411.77658    38760.619 
  674900    301.39956    -1457.268    470.73567    362.88677    890.37729    38760.619 
  675000    288.02684   -1444.5056    491.43128    336.47274    418.81812    38760.619 
  675100    301.51907   -1415.9063    481.77731    415.82518    466.89719    38760.619 
  675200    308.48133   -1453.0615    473.10509    401.16898    95.847253    38760.619 
  675300    292.68555   -1446.8515    476.66484    340.21827     -575.175    38760.619 
  675400    294.40214   -1441.6201    472.71229    349.18255   -174.43681    38760.619 
  675500    303.75847   -1443.7185    481.81122    398.07308   -744.29934    38760.619 
  675600    301.90627   -1467.2307    486.51281    370.96979   -126.61013    38760.619 
  675700    297.97615   -1462.6253    465.11385     336.5804    60.149668    38760.619 
  675800     305.9891   -1440.9753    502.90056    431.89254    335.40208    38760.619 
  675900    300.09556   -1478.7967     456.9938     321.7779   -437.90557    38760.619 
  676000    288.27875   -1455.0975    486.23011    321.80749   -132.03735    38760.619 
  676100    293.44804   -1448.2049    483.15118    348.76505    242.71126    38760.619 
  676200    298.73647   -1451.5089    483.28775    369.27485    173.25245    38760.619 
  676300    293.49285   -1468.6364    483.02769    328.41058   -214.90026    38760.619 
  676400    296.38395   -1460.4867    477.47273    343.94939    42.690074    38760.619 
  676500    297.07719   -1491.1974    463.68267    302.55232     263.4142    38760.619 
  676600    293.24288   -1485.3297    510.49339    338.06386    64.895262    38760.619 
  676700    291.47061   -1461.5883    488.82392    332.20106    187.13183    38760.619 
  676800    299.91878   -1462.0846    446.12605    326.83081   -59.305723    38760.619 
  676900    294.16777   -1485.0184    462.47588    294.49855   -74.574232    38760.619 
  677000    299.30109   -1492.0877    479.81412     327.7503   -385.50332    38760.619 
  677100    290.46424   -1464.1982    472.73117    308.99268    34.372302    38760.619 
  677200    302.46696   -1483.4008    465.94695    336.74416    241.16921    38760.619 
  677300    292.52298   -1486.2807    478.85847     302.2548    22.991205    38760.619 
  677400    307.06532   -1483.8204    462.45232    353.41765    348.27233    38760.619 
  677500    308.76078    -1500.152    472.74206    354.96661    396.21021    38760.619 
  677600    298.58305   -1463.1728    464.48045     338.1167     522.9344    38760.619 
  677700    308.15755   -1485.9768    461.53216    355.23117    222.09876    38760.619 
  677800    310.10045   -1498.7523    453.11641    342.73865    91.622405    38760.619 
  677900    315.50261   -1546.5412    478.78221      344.802    111.56993    38760.619 
  678000    306.66112   -1518.8431    454.79863    308.93152   -285.60891    38760.619 
  678100    303.07501   -1511.7045     452.4076    297.62352   -442.98467    38760.619 
  678200    283.37074   -1499.4778    457.34366    226.56673     -465.812    38760.619 
  678300    304.78027   -1543.2277    474.00268    295.33014   -426.36956    38760.619 
  678400    294.13334   -1522.5131    466.40863    260.78248    161.67081    38760.619 
  678500    291.96398   -1503.3808    450.46291    254.25647    394.69437    38760.619 
  678600    307.83906   -1510.8666     477.2629    344.64617    817.87815    38760.619 
  678700    294.98129   -1510.5854    448.33775     258.4357    370.07367    38760.619 
  678800    309.77496    -1491.687    459.40657    354.63686    430.85953    38760.619 
  678900    297.82851     -1479.75    464.78654    318.46743    418.73889    38760.619 
  679000    303.30483   -1509.0302    451.88036    300.79944    181.22271    38760.619 
  679100    305.78427   -1484.2354    473.47159    358.28637   -154.23223    38760.619 
  679200    291.26596   -1467.5775    498.53714     335.0088   -381.39871    38760.619 
  679300    303.80559   -1458.8454    448.98705    350.33294    -425.0975    38760.619 
  679400    298.20371   -1484.4699    436.66655    287.30732   -1033.1048    38760.619 
  679500    310.56406   -1450.9455    496.12894    435.63358   -1257.2957    38760.619 
  679600    297.35618   -1490.5856     463.3966    304.12718    243.69323    38760.619 
  679700    304.91737   -1492.5581    482.52899    355.13987   -75.772639    38760.619 
  679800    307.09097   -1499.7273    476.68082    351.85405    141.96626    38760.619 
  679900    300.67971   -1508.4624    452.24878    289.98254   -137.32167    38760.619 
  680000    294.71992   -1445.5753    485.18733    359.12516    178.72672    38760.619 
  680100    296.22776   -1487.7557    465.15074    303.65905    499.44602    38760.619 
  680200    300.32169   -1457.4149    473.04884    360.22721    296.24254    38760.619 
  680300    307.59557   -1439.6142    470.97442    408.51997    192.21054    38760.619 
  680400    292.41609   -1437.9835    475.38054    346.59561    428.11166    38760.619 
  680500    296.23752   -1483.4064    460.07116     302.9725   -312.05335    38760.619 
  680600    299.74018   -1525.6247    452.56161    268.92668   -340.99409    38760.619 
  680700    295.03521    -1517.255    465.02747    268.69722    -257.1686    38760.619 
  680800    298.82079   -1522.9423    466.77274    281.70394   -981.18589    38760.619 
  680900    296.67263   -1497.0062    464.01404    295.26365    -549.9891    38760.619 
  681000    299.27762   -1465.4718    460.81264    335.25962   -204.59963    38760.619 
  681100    302.36523   -1503.5947    494.08719    344.23504   -22.120913    38760.619 
  681200    295.64821   -1518.5762    438.60987    243.70291    -553.3212    38760.619 
  681300    301.65031   -1516.2859    487.47441    321.73023   -366.75661    38760.619 
  681400    292.43154   -1499.0218      453.494     263.7399    42.352953    38760.619 
  681500    287.44725   -1510.1433    447.35181    224.16064   -97.894031    38760.619 
  681600    305.74534   -1494.2967    503.16376    377.74298   -3.3151848    38760.619 
  681700    300.16444    -1475.284    465.87542    334.48067    251.82975    38760.619 
  681800    315.15638   -1431.3004    490.19755    469.90791     401.7433    38760.619 
  681900    291.22756   -1447.5132    473.55632    329.92042    466.74225    38760.619 
  682000    307.99655    -1457.764    469.13467    390.32562     1052.638    38760.619 
  682100    293.75926   -1487.7886    482.91576    310.33932    1052.3585    38760.619 
  682200    302.25437   -1521.5768     482.4973    314.16674     735.3549    38760.619 
  682300    306.87694   -1529.7782    454.20337    298.36749    481.06911    38760.619 
  682400    294.47862    -1536.978    443.78289    225.23765    272.50399    38760.619 
  682500    300.93943   -1502.0918    476.28754    321.55479    504.70827    38760.619 
  682600    293.16565   -1528.5972    446.41399    230.37117     367.4956    38760.619 
  682700    304.01932   -1498.3589    490.48904     353.2784    1089.9701    38760.619 
  682800    287.60369   -1497.6704    458.55909    248.54126    269.52518    38760.619 
  682900    272.91956   -1535.4594    452.43028    138.87998    206.04459    38760.619 
  683000    288.78775   -1531.0539    461.83367    223.73352    1004.1226    38760.619 
  683100    298.25396   -1525.6584    457.86927     267.5466     386.0571    38760.619 
  683200    292.33093   -1468.3921    505.87719    346.30227   -58.715303    38760.619 
  683300     293.1689   -1465.2886     459.1255    306.40588   -52.487957    38760.619 
  683400    304.74827    -1488.651    470.14823    345.90913    299.84573    38760.619 
  683500     288.6628   -1507.7371     459.8246    244.48187    409.21234    38760.619 
  683600     306.9352   -1533.5091    453.75684     294.4509   -190.56407    38760.619 
  683700    293.90581   -1553.5646    484.91488    247.21852   -642.17087    38760.619 
  683800    306.59939    -1526.185    466.79911    313.31372   -118.48351    38760.619 
  683900    287.18135   -1492.0632    484.72009    278.41856   -382.91539    38760.619 
  684000    304.44039   -1489.2357    482.42443    356.22215   -221.29504    38760.619 
  684100    301.43233   -1488.4198     452.2991    313.44514   -488.43993    38760.619 
  684200     292.0011   -1473.8906    466.22027    299.67023   -762.25513    38760.619 
  684300    308.17751   -1487.9472    472.01472    363.83273   -327.38504    38760.619 
  684400    305.32554   -1494.3086    486.27639    358.96418    15.069865    38760.619 
  684500    290.83442   -1521.5872    508.53996    289.06981    680.21005    38760.619 
  684600    287.37881   -1537.8278    455.75696     204.5749     353.7882    38760.619 
  684700    292.83432   -1516.5402    472.08874    266.61951   -79.887473    38760.619 
  684800    302.67645   -1544.3963    461.41356    272.15319    115.24463    38760.619 
  684900    298.35444   -1543.1931    471.70866    264.30108   -9.2622286    38760.619 
  685000    298.56619   -1526.1242    476.58705    287.19645    100.70574    38760.619 
  685100    303.26628   -1531.7948    484.16317    310.14504    259.36151    38760.619 
  685200    292.66954   -1505.0963    469.51623    274.75316    771.58382    38760.619 
  685300     300.1164   -1498.7768    455.16571     300.0631    880.29012    38760.619 
  685400    301.96534   -1490.0168    477.82364      339.759    542.21395    38760.619 
  685500    306.83698   -1511.2303     443.8424    306.37551    336.77475    38760.619 
  685600    301.65803   -1457.6631    497.24147    390.15471   -120.52325    38760.619 
  685700    299.65055    -1479.675    480.79542    342.70885   -232.62661    38760.619 
  685800    308.21553   -1499.0208     437.6544    318.56895   -144.04724    38760.619 
  685900    310.09749    -1463.143    489.42704    414.64532    201.38943    38760.619 
  686000     296.2713   -1474.0315    477.34355    329.77106    120.15802    38760.619 
  686100    307.59455   -1477.4385    455.10371    354.82034    4.1501329    38760.619 
  686200     293.4835   -1463.7604    480.22108    330.43819    62.469835    38760.619 
  686300    311.30331    -1469.102    465.87926    390.53719   -181.85414    38760.619 
  686400    287.28681   -1476.4135    492.76659    302.58687   -384.31707    38760.619 
  686500    306.76747   -1482.3862    464.80178    355.86773   -311.66115    38760.619 
  686600    299.22324   -1458.9385    471.51263    352.24943   -115.63258    38760.619 
  686700     298.1975   -1510.9604    477.16013    301.28262   -371.03896    38760.619 
  686800    297.98544   -1493.7315    454.71448    295.11643   -132.93069    38760.619 
  686900    290.93315    -1490.832    467.06596    278.79311   -119.07541    38760.619 
  687000     297.2386   -1463.2334    492.19418    359.75051    440.65451    38760.619 
  687100    296.29351   -1501.9223     491.9046    316.54067    421.28784    38760.619 
  687200    299.17859   -1469.4733    459.97509     329.9772    229.82872    38760.619 
  687300    292.51749    -1461.824    497.43494    345.26338    298.88423    38760.619 
  687400    309.14893   -1465.9174    466.53314    384.73018   -103.12338    38760.619 
  687500    306.69449   -1459.0228    469.54255    383.64517   -90.520662    38760.619 
  687600    295.94421   -1470.9423    483.12939    337.18158    5.4366852    38760.619 
  687700     295.2793   -1496.2938    478.88796    304.61179   -344.93009    38760.619 
  687800    297.50807   -1480.3408    483.77397    335.42941    252.37422    38760.619 
  687900    307.32191   -1503.2957    468.15637    340.79513    196.09861    38760.619 
  688000    300.67153   -1458.0019    460.38648    348.54415   -280.51269    38760.619 
  688100    291.53938   -1463.3491    476.70003    318.62418    51.550731    38760.619 
  688200    300.17212   -1440.3818    478.28826    381.83004    533.09676    38760.619 
  688300      302.326   -1438.4224    485.69667    400.84121    663.09176    38760.619 
  688400    301.92315    -1443.811    477.83545    385.78772    332.62547    38760.619 
  688500    307.60455   -1486.2096    486.69725    377.68756    245.86668    38760.619 
  688600    305.76478   -1485.0532    475.59029    359.50001   -73.887752    38760.619 
  688700    289.37944   -1478.0117    496.58877    314.17991    98.666429    38760.619 
  688800     311.8373   -1497.4995    476.95486    375.60607   -604.86668    38760.619 
  688900    308.35345   -1487.8099    485.08499    377.82795   -814.95732    38760.619 
  689000    286.57839   -1524.2785     466.7922    225.57576    -299.1426    38760.619 
  689100    306.09362   -1496.9681    462.47173     335.9389   -418.78571    38760.619 
  689200    304.90942   -1492.8482    480.53787    352.82301   -8.1714702    38760.619 
  689300    295.89388   -1497.2003    493.01934    320.58826   -121.66352    38760.619 
  689400     307.7513   -1491.0543    459.83851    346.64119    428.31468    38760.619 
  689500    295.68258   -1518.1992    500.77133    306.39528     487.5735    38760.619 
  689600    297.16025   -1492.3466    484.79248    322.88476    220.51824    38760.619 
  689700    292.76318   -1486.6858     485.1639    309.23057    206.94976    38760.619 
  689800    292.49516   -1543.7687    455.50287     221.2867   -119.23968    38760.619 
  689900    297.17645   -1502.3943    486.14803    314.26526   -68.886243    38760.619 
  690000    304.61815   -1530.9384    455.91634    288.80718   -627.57159    38760.619 
  690100    301.50396   -1529.7862    472.79354    292.89387   -352.26503    38760.619 
  690200    302.95828   -1504.3077    476.94388    329.03395   -100.87757    38760.619 
  690300     301.4467    -1513.159    462.06921    298.54038   -110.92324    38760.619 
  690400    302.37117   -1548.5425    492.29733    297.52394   -158.30233    38760.619 
  690500    291.10574   -1549.1234    477.57828    231.78669    113.91153    38760.619 
  690600    293.00165   -1546.9475    487.38325    252.25588    530.24313    38760.619 
  690700    297.39975    -1534.386    475.37375    272.49903    404.92911    38760.619 
  690800    314.70077   -1554.8011    482.70279    336.87263    202.19412    38760.619 
  690900    306.07392   -1551.6496    467.74874    286.44622   -129.36653    38760.619 
  691000    303.18002   -1551.4567    457.80686    263.74062   -2.7528878    38760.619 
  691100    288.03509   -1535.2167    453.90912    208.27637   -613.39826    38760.619 
  691200    298.20144     -1523.68    459.38463    270.80519   -320.32069    38760.619 
  691300    310.63827   -1534.8419    472.15183    328.09235     182.0163    38760.619 
  691400    299.85515   -1561.3105    471.53346    252.72741    40.752103    38760.619 
  691500     300.3075   -1524.7739    447.31139     267.0672    382.26282    38760.619 
  691600    294.34987   -1530.4386    469.98965    257.40745     8.692048    38760.619 
  691700     294.5052   -1544.2405    467.82552    242.13681     323.8523    38760.619 
  691800    304.93254   -1525.9863    462.50671    301.75725     843.7145    38760.619 
  691900    298.10509   -1498.6346    463.12674    299.16131     220.3707    38760.619 
  692000    302.07225   -1525.7753    473.71664    300.37216     42.52159    38760.619 
  692100    308.15354   -1523.9781    484.10661    339.78634    -201.6412    38760.619 
  692200    299.45651   -1518.2555    476.69774    299.16195     354.9329    38760.619 
  692300    293.52139   -1506.1169    486.65639    294.68658    344.35781    38760.619 
  692400     296.8824   -1545.2528    485.26449     269.2066    145.13829    38760.619 
  692500    304.71566   -1508.9225    483.12637    338.46972   -113.24391    38760.619 
  692600    303.23091   -1488.4982    448.24517    317.36532    -138.2452    38760.619 
  692700    294.37174   -1512.4175    462.06925    267.60603   -1003.1324    38760.619 
  692800    296.77258   -1500.5731    467.58048    295.71064   -35.597352    38760.619 
  692900    299.67837    -1533.083    451.79689    260.42688    491.25337    38760.619 
  693000    295.69012   -1528.1389    461.19331    256.91129    976.29086    38760.619 
  693100    301.26716   -1486.5576    464.33011    326.59881    325.39162    38760.619 
  693200    302.49451   -1541.6002     455.5112    268.23234    241.38417    38760.619 
  693300    289.82005   -1520.1405    481.22624    258.66127     302.8154    38760.619 
  693400    307.58994   -1479.0883    470.13494    368.18117    128.39843    38760.619 
  693500    302.65598   -1522.3771    454.54504     287.2122    22.853845    38760.619 
  693600    295.39701   -1493.8401    479.94983    308.65439    366.03865    38760.619 
  693700    305.01517   -1519.8034    475.04324    320.84667   -230.59811    38760.619 
  693800    298.28166   -1495.5861     485.0784    324.95199   -560.02626    38760.619 
  693900    299.17021    -1479.724    447.90377    307.61766   -815.04237    38760.619 
  694000    297.20886   -1542.6309    482.49122    270.51693   -140.97169    38760.619 
  694100     305.1125   -1544.6104    503.88544    325.31766   -442.97379    38760.619 
  694200    295.44841   -1518.1515    459.64633    264.26956   -49.243515    38760.619 
  694300    301.18161    -1497.509    448.78088    299.71512    -257.7534    38760.619 
  694400    304.84785   -1490.7657    488.22233    362.31433    30.441678    38760.619 
  694500    290.63067   -1522.4687    461.50715    240.24328   -300.89488    38760.619 
  694600    301.33704   -1481.7862    467.30634    334.65932    119.96776    38760.619 
  694700    305.56816   -1522.0026    449.54787    295.62787   -178.59871    38760.619 
  694800    308.21382   -1505.2535    484.83167    359.50596    294.89091    38760.619 
  694900    291.05718   -1518.3755    478.98869    263.72766    454.61024    38760.619 
  695000    310.26661   -1543.8599    468.48633    313.74483    1129.1068    38760.619 
  695100    295.99932   -1551.0669    490.80087    264.97525    1155.5206    38760.619 
  695200    302.31136   -1548.7872    461.31046    266.02458    577.88174    38760.619 
  695300     307.7605   -1525.5497    483.36894    335.71739    526.30612    38760.619 
  695400    310.96956   -1529.2591    466.96721    329.97377     549.0764    38760.619 
  695500    298.77346   -1519.4428    426.32981    244.54858   -65.707221    38760.619 
  695600    300.85833   -1502.9055    462.06283    306.15319   -418.87732    38760.619 
  695700    300.70011   -1513.8052    435.97084    268.45315   -681.02233    38760.619 
  695800    297.90108   -1448.6915    451.29996    336.36419   -1058.3905    38760.619 
  695900    301.92334   -1457.2113    499.05383    393.60663   -673.85073    38760.619 
  696000    292.46767   -1488.5964    451.72202    272.55505   -861.37661    38760.619 
  696100    311.98079    -1526.358    476.44272    346.87782    -698.6404    38760.619 
  696200    306.83825   -1507.1952    478.96159     345.5354   -79.469559    38760.619 
  696300    303.19021   -1526.1019    499.66854    331.00283   -406.07637    38760.619 
  696400    298.46431   -1544.7076    485.50851    277.07833    -386.9488    38760.619 
  696500    292.40791   -1532.2201    466.95969    243.90144    -313.7701    38760.619 
  696600    295.40689   -1536.2269     469.2089     255.5708   -431.25573    38760.619 
  696700     296.8271   -1527.3821    477.70899    279.27429   -536.94388    38760.619 
  696800    314.41608   -1513.8532    452.61095    346.45404   -264.57328    38760.619 
  696900    302.46114   -1568.3813     450.4682    236.25884     -58.3578    38760.619 
  697000    297.31681   -1522.2064    473.65299    282.58653   -61.943201    38760.619 
  697100    307.75626   -1518.1638    467.94795    327.66335    133.66868    38760.619 
  697200    299.81709   -1519.2115    481.09671    304.21934    182.80074    38760.619 
  697300    299.98922   -1515.4366    447.96192    275.63004    319.52016    38760.619 
  697400     304.2181    -1512.881    473.47591    322.63312    771.18592    38760.619 
  697500    305.39072   -1532.2133    478.74513    313.82003    1232.4796    38760.619 
  697600    301.31927   -1562.6517    479.45999    265.86786    691.80296    38760.619 
  697700    290.19342   -1576.8874    453.42238    175.78219    678.01926    38760.619 
  697800    286.41653    -1538.498    471.25784    215.09727   -28.635965    38760.619 
  697900    302.75763   -1498.5135     470.6807    327.66662   -377.63449    38760.619 
  698000    293.05551   -1489.9095    463.98633    286.13812   -145.51917    38760.619 
  698100    297.27808   -1521.0999    492.21339    302.07993   -208.59282    38760.619 
  698200    304.78618   -1521.0332    467.44065    310.98903    653.25137    38760.619 
  698300    293.94975   -1496.4439    459.30046    278.92148   -139.28002    38760.619 
  698400    301.65974   -1508.0654    485.43283    327.95141    -41.14692    38760.619 
  698500    306.12748   -1505.2739    469.82254     335.1355   -203.12392    38760.619 
  698600    302.44423   -1484.7818    465.75199    335.06647   -362.23431    38760.619 
  698700     306.2487   -1492.0036    508.85524    387.98125    60.136683    38760.619 
  698800    295.02339   -1447.3687    489.04072    362.54383   -2.8778141    38760.619 
  698900    287.98073   -1496.9276    504.95164    297.36471    183.15049    38760.619 
  699000    301.56845   -1494.8527    486.51271    341.83524    48.658392    38760.619 
  699100     302.3852   -1517.7616    513.38212    349.45246     531.8624    38760.619 
  699200    305.01797   -1520.9482    482.80181    327.47296   -389.53931    38760.619 
  699300    299.91584   -1434.4208    495.78057      404.136    85.670515    38760.619 
  699400    304.21965   -1466.9231    466.38836    361.51034    166.80218    38760.619 
  699500    299.48373   -1520.9822    506.41357    326.27291    362.86701    38760.619 
  699600    300.21212   -1543.3677    466.37566    267.11064      592.905    38760.619 
  699700    296.29435   -1500.9244    498.67033    324.30807    283.00909    38760.619 
  699800    301.05789   -1503.7394    465.13955    309.28952    94.238252    38760.619 
  699900    296.11564   -1539.4358    436.09519    222.42145   -124.06907    38760.619 
  700000    295.74089   -1529.7717    467.37525    261.68774   -370.85291    38760.619 
  700100    304.36759   -1507.2519    472.18593    327.64152   -179.55418    38760.619 
  700200    298.86511   -1505.3652     463.9076    296.61429    285.66394    38760.619 
  700300    308.63221   -1551.6227    497.43011    327.60837    154.88618    38760.619 
  700400    294.59601   -1593.1769    459.55552    185.33696      91.9513    38760.619 
  700500     289.5649   -1534.5807    458.44136    220.29391   -119.97677    38760.619 
  700600    304.64491   -1541.0442    480.65543     303.5603    64.406749    38760.619 
  700700    302.65797   -1486.5986     474.5451    342.99973   -290.52948    38760.619 
  700800     319.1608   -1508.6662    477.53907    397.81217    350.52133    38760.619 
  700900    299.56481   -1531.6485    499.86161    309.41769    262.63433    38760.619 
  701000    299.94074   -1496.1921    474.64291    321.33852    754.64894    38760.619 
  701100    285.07169   -1495.8634     484.5396    264.99253    703.38563    38760.619 
  701200    294.34823   -1475.4146    470.84377     313.2782    212.02558    38760.619 
  701300    298.22482   -1470.7734    474.71996    339.15183    29.170063    38760.619 
  701400    291.30501   -1491.0707     492.3215    305.47483    257.44861    38760.619 
  701500     287.9063   -1465.6577    467.23287    290.58261   -185.99884    38760.619 
  701600     293.9892   -1462.4463    482.50117    336.29648   -352.20136    38760.619 
  701700    303.72761   -1465.0279    476.29853    371.11283   -420.30144    38760.619 
  701800    297.89332   -1502.4042    445.01352    276.33031    -440.7837    38760.619 
  701900    305.98682   -1501.5336    486.39276     354.8162   -337.22626    38760.619 
  702000    302.57557   -1489.1082    491.54828    357.12438    231.51617    38760.619 
  702100    293.14988   -1479.8207    494.98964    327.65274   -266.43099    38760.619 
  702200    304.84336   -1538.4953    469.42891     295.7712   -200.38154    38760.619 
  702300     297.7028   -1521.5965    468.76368    280.03518   -727.41404    38760.619 
  702400    298.05923   -1536.8503    496.19038     293.8039   -647.66324    38760.619 
  702500    308.74563   -1552.8523    467.25356    296.70996   -596.13295    38760.619 
  702600    293.22017   -1517.1472    472.05139    267.70268    -578.4339    38760.619 
  702700      296.722   -1512.9592    467.68191    283.19955   -51.707075    38760.619 
  702800    303.88795   -1501.6658    478.76484    337.65913   -600.80415    38760.619 
  702900    294.91893   -1480.1433    486.03054    326.29136   -166.00641    38760.619 
  703000    296.00656    -1491.046    494.35408    328.58173   -707.15083    38760.619 
  703100    301.71816   -1452.9621    463.40878    361.29221   -696.72436    38760.619 
  703200     304.8484   -1503.9557    460.32714    321.23159   -580.57389    38760.619 
  703300    299.87243   -1525.7848    467.28213    284.07919   -472.94348    38760.619 
  703400    312.81746   -1431.9344    466.79598    435.40062   -449.94535    38760.619 
  703500     292.8826   -1503.8816    483.95133    291.35688   -220.76178    38760.619 
  703600    298.87705   -1475.1101    456.89438    319.90969   -128.88057    38760.619 
  703700    286.10771   -1478.1271    466.01548    268.84322   -24.540189    38760.619 
  703800    305.00442   -1482.5171    460.80379     343.8454     49.26959    38760.619 
  703900    299.65766    -1497.176    491.77233    336.21659     622.8953    38760.619 
  704000    297.67063   -1472.0136    520.10233    380.81272    468.19854    38760.619 
  704100    305.19996   -1480.2694     485.7944    371.95913    666.03561    38760.619 
  704200    293.64466   -1472.8569    486.32309    328.16524    585.14576    38760.619 
  704300    303.79631   -1451.3674    484.80765    393.59003   -284.71304    38760.619 
  704400    297.23986   -1494.5263    503.35511    339.62418  -0.28832443    38760.619 
  704500     290.7817   -1467.2006    466.12558    300.80609    163.59747    38760.619 
  704600    296.17155   -1459.5792    483.42456    349.85775    300.83913    38760.619 
  704700    292.37713   -1506.8849    478.10755    280.24668    722.92451    38760.619 
  704800    308.11698   -1475.0253    491.81294    396.28182    204.90563    38760.619 
  704900    297.57475   -1473.8418    460.43601    318.88892    126.35468    38760.619 
  705000    290.81642   -1407.9986    500.92405    394.96193    144.61221    38760.619 
  705100    305.42734   -1447.2651    466.87013    387.05716    376.22862    38760.619 
  705200    294.91725   -1481.7109    469.90225    308.58797    509.14287    38760.619 
  705300    304.77978   -1498.0007    504.74576    371.29802    398.33505    38760.619 
  705400    297.90056   -1461.6513    459.32278    331.42497    309.26357    38760.619 
  705500     302.7212   -1454.5687    474.39514    375.16268   -9.1112561    38760.619 
  705600    305.92034   -1454.2174    476.23302    391.67508   -221.54386    38760.619 
  705700    289.30567   -1458.9878    442.90501    279.18978   -136.07052    38760.619 
  705800    308.22972   -1455.3225    481.83635     406.5127    38.206808    38760.619 
  705900    303.03885    -1503.729    455.54223    308.57171    -720.4647    38760.619 
  706000    302.18544   -1492.2145    484.90174    345.62489   -595.40398    38760.619 
  706100    306.05005   -1467.9265    468.13468     370.4483   -653.18361    38760.619 
  706200    309.08361   -1469.5835    478.41791    392.65638   -687.79872    38760.619 
  706300    304.65325   -1477.6183    457.27698    343.64514   -505.41013    38760.619 
  706400      302.412   -1504.1858    457.83477    307.60093   -360.94426    38760.619 
  706500    295.88879   -1462.2274    490.96368    353.48272   -331.25488    38760.619 
  706600    288.59429   -1508.7765    434.14303    217.45422   -351.85543    38760.619 
  706700    303.79059   -1513.7483    463.66443    310.04029   -68.807926    38760.619 
  706800    291.26309   -1503.4356    456.79925    257.39995   -173.24345    38760.619 
  706900    295.12565   -1506.8337    464.72779    279.22379   -714.45201    38760.619 
  707000    310.90666   -1500.8601    460.69066    351.81464   -345.99777    38760.619 
  707100     296.9987   -1467.8399    453.45555    315.33133    -207.2493    38760.619 
  707200    300.89733   -1505.7639     476.0817     317.4883    125.18875    38760.619 
  707300    310.65684   -1481.0763    477.01812    386.80739    764.26554    38760.619 
  707400    296.03022    -1510.163    492.98027    308.19688    567.12527    38760.619 
  707500    291.99659   -1496.3531    482.07084    293.03808    534.80495    38760.619 
  707600    295.80946    -1489.007    478.64529    314.02954    302.63093    38760.619 
  707700    297.38252    -1547.129    461.38661    245.69169    -629.3944    38760.619 
  707800    308.34949   -1492.1058    453.21965    341.64903   -581.07883    38760.619 
  707900    303.81202    -1510.395     469.3293    319.15438   -278.11808    38760.619 
  708000     303.0677   -1504.9014    455.79996    307.78623   -497.91676    38760.619 
  708100    297.21019    -1516.416    475.82752    290.07404   -111.85689    38760.619 
  708200    299.82302   -1511.4003    450.94374    281.90411   -95.404051    38760.619 
  708300    297.68333   -1506.7217    481.12443    307.18359    93.886439    38760.619 
  708400    303.58208   -1529.8494     478.1747     307.5159    380.90464    38760.619 
  708500    306.41849   -1537.0204     478.6275    313.49687    683.87813    38760.619 
  708600    311.23626   -1496.1208    483.63058    380.96949    660.83631    38760.619 
  708700    297.67518   -1461.9025    498.86619    369.70804    343.43796    38760.619 
  708800    295.91259   -1479.7795     459.4909    304.56438   -667.76133    38760.619 
  708900    296.96484     -1477.53    516.64654    368.68055   -396.70706    38760.619 
  709000    308.25717   -1453.8491    463.04163    389.31436   -284.56263    38760.619 
  709100    304.36021    -1444.845     474.0895    391.91894    29.277018    38760.619 
  709200    301.24796   -1454.5732    500.47122    394.63837   -125.24958    38760.619 
  709300    295.81869     -1490.68    444.05581     277.8084   -16.180862    38760.619 
  709400    304.95912   -1492.9924    493.93846    366.30193   -681.82604    38760.619 
  709500    305.62439   -1468.2872    451.23223    351.27939   -162.63212    38760.619 
  709600    303.22931   -1471.0494     480.8355    367.39735    -279.3534    38760.619 
  709700    303.07113   -1506.3695      499.644     350.1775     504.5133    38760.619 
  709800    310.06435   -1502.1674    453.56067     339.6061    263.50788    38760.619 
  709900    310.14879   -1491.7098    467.47326    364.35436    195.97377    38760.619 
  710000    303.91218   -1489.8096    482.95544    353.81437    277.07008    38760.619 
  710100    305.65219   -1467.7971    455.74659    356.40833    113.45572    38760.619 
  710200    289.46608   -1503.4364     462.1559    254.71031    187.05552    38760.619 
  710300    285.25044   -1512.4202     474.0228    238.71925    196.58294    38760.619 
  710400    296.22793   -1482.6846    469.07349    312.65365     66.38849    38760.619 
  710500    296.31877   -1530.3919    466.40701    262.68662     52.83624    38760.619 
  710600    309.33584    -1518.583    450.99882    317.36697    124.69516    38760.619 
  710700    292.26673   -1492.6367    467.94535    283.83847   -430.65321    38760.619 
  710800    301.16824    -1470.005    463.13815    341.51658   -115.99409    38760.619 
  710900    302.67227   -1482.9095    454.51315    326.72089   -600.71549    38760.619 
  711000    301.85609   -1465.0124    451.27268    337.72329    174.36466    38760.619 
  711100    299.06513    -1472.167    458.18004    324.98045   -470.37295    38760.619 
  711200     297.7122   -1482.6391    464.62937    314.90037   -85.740709    38760.619 
  711300     310.7453   -1439.3484    481.61515    433.52834    13.908667    38760.619 
  711400    304.82654   -1485.4232    476.98495    356.32408   -79.779349    38760.619 
  711500    302.11759   -1479.9893    471.86145    344.50604     328.8566    38760.619 
  711600    291.86364   -1479.4773    495.22725     322.4751   -168.06923    38760.619 
  711700    302.98965   -1463.0861    458.19382    351.64589    289.12538    38760.619 
  711800    298.65956   -1442.6897    471.47542    365.93727   -157.75382    38760.619 
  711900    307.19337   -1434.1974     474.5515    415.71305   -117.23973    38760.619 
  712000    311.07882   -1445.2291    473.17625      420.702    -118.0439    38760.619 
  712100     300.3411   -1447.0642    431.52872    329.14471   -457.86535    38760.619 
  712200    297.83923   -1473.2466    456.17154    316.40381   -425.87587    38760.619 
  712300    297.04529   -1441.6976    467.97284     356.1995    -160.7809    38760.619 
  712400    291.85656   -1450.8199    454.53304    310.40651   -53.228071    38760.619 
  712500    301.58293   -1485.2441    466.03272    331.02862    408.07856    38760.619 
  712600    307.61628   -1448.6569    461.83901    390.43451    269.32076    38760.619 
  712700    290.37994   -1422.7726    474.45049    351.76018   -56.664631    38760.619 
  712800     296.1732   -1476.9415    494.21805    343.29627   -85.150487    38760.619 
  712900    302.17057   -1431.8746    457.83557    378.83199   -383.56382    38760.619 
  713000    303.01641   -1432.7742    465.00834    388.89219   -22.141341    38760.619 
  713100    295.85023   -1473.4973    462.85531    313.93179   -202.87571    38760.619 
  713200    294.08837   -1508.0279    450.13069    258.78836   -102.87327    38760.619 
  713300     301.6606   -1464.7119    463.63537     349.5113   -127.09954    38760.619 
  713400    307.94748   -1478.9706     455.7702    355.53485   -113.44104    38760.619 
  713500    301.11916   -1480.0857    471.67587    339.75381   -566.41679    38760.619 
  713600    299.90216   -1456.2702    450.43664    336.88144   -467.40943    38760.619 
  713700    299.64182   -1458.4761    490.81583    373.88905   -217.99388    38760.619 
  713800    302.00647    -1440.142    435.90823    347.90257   -478.09595    38760.619 
  713900    306.17575   -1507.8667    469.12452    332.06075    258.58226    38760.619 
  714000    305.43265   -1532.1892    456.18726    291.47405    383.13329    38760.619 
  714100    303.53771    -1512.843    440.67321    286.82213    130.42839    38760.619 
  714200    307.05189   -1545.9207    457.70462    286.50955   -183.81024    38760.619 
  714300     305.3278   -1471.0122    449.02319    345.01752   -258.39172    38760.619 
  714400    294.43639    -1475.206    465.83702    308.87476   -317.83785    38760.619 
  714500    307.67845   -1507.2646    477.93325     348.1994   -145.86688    38760.619 
  714600    310.22953   -1478.5129    435.75964    346.19917    170.98222    38760.619 
  714700     294.6481   -1466.1447    454.48533    307.53228    183.49752    38760.619 
  714800    302.25716   -1499.2018    461.40966    315.46654    287.77635    38760.619 
  714900    300.54017   -1483.2997    439.98098    302.25274    591.05842    38760.619 
  715000    298.00153   -1483.4009    440.66961    291.47423    266.62891    38760.619 
  715100    286.62633   -1474.8543    488.33368     296.7561    592.44083    38760.619 
  715200    294.52008   -1509.5011    472.35757    281.47485    89.649276    38760.619 
  715300    300.77006   -1520.4205    462.96675    289.14701    352.62478    38760.619 
  715400    296.96871   -1489.7152    445.05776    284.92393   -140.32585    38760.619 
  715500    290.27877   -1497.5772    474.86635    276.91849   -400.09588    38760.619 
  715600      307.918   -1502.0983    432.99582    309.50083    144.22235    38760.619 
  715700    301.49685   -1512.9986      447.932    284.78803    447.55283    38760.619 
  715800    311.89823   -1526.2957    457.12317     327.2509    396.50168    38760.619 
  715900    309.51521   -1519.6648    447.21405    313.30358   -182.53235    38760.619 
  716000     307.6774   -1505.3397    466.43603    338.62248     -702.592    38760.619 
  716100    303.63727   -1500.4418    454.38418     313.3801   -475.15282    38760.619 
  716200    290.04962    -1526.636    447.89217    219.85957   -548.09439    38760.619 
  716300    299.26656   -1484.0465    485.84064    341.66342    -274.9504    38760.619 
  716400    306.42101   -1426.8143    462.55198     407.6387    187.73562    38760.619 
  716500    304.46014   -1493.4534    456.00546    325.67386    185.78657    38760.619 
  716600    289.24954    -1501.884    469.58597    262.72326    263.52056    38760.619 
  716700    302.80034   -1485.7969    456.55792    326.45166   -7.2977405    38760.619 
  716800    306.69967   -1459.9779    468.06607    381.23678   -72.604169    38760.619 
  716900     305.2691   -1513.5865    465.20705    318.36425    228.24446    38760.619 
  717000    297.37041   -1521.8003    441.13253    250.71208   -2.2467983    38760.619 
  717100     284.5011   -1557.0201    431.93646    148.67801   -195.40689    38760.619 
  717200    297.75025   -1511.9279    422.19277    243.34535   -279.78457    38760.619 
  717300    296.73148   -1514.4442    448.28536    262.36049   -764.17444    38760.619 
  717400    292.56037   -1529.0119    455.93525    236.76783   -449.09247    38760.619 
  717500    299.48751   -1548.1264    434.48925     227.2214   -824.26123    38760.619 
  717600    298.81035   -1533.0157    426.35511    231.16618   -540.31322    38760.619 
  717700    307.83288   -1510.0522    418.30506    286.47508    -779.4457    38760.619 
  717800    302.78594   -1538.9063    447.12211    263.84199   -1149.7452    38760.619 
  717900    304.35507   -1522.7767    454.60722     294.4819   -798.33092    38760.619 
  718000    304.68568   -1538.7624    445.49984    270.86909   -436.44737    38760.619 
  718100     292.2871   -1517.9765    445.41961     236.0641    -469.4709    38760.619 
  718200    306.47852   -1528.3606    461.16539    304.96332    166.28439    38760.619 
  718300    293.19575   -1534.1146    479.30926    257.88386    156.63697    38760.619 
  718400    299.74314   -1502.6552    458.94281    298.29061    354.78572    38760.619 
  718500    315.08084     -1510.85    451.63356    351.45619    40.161561    38760.619 
  718600    293.99744   -1486.4399    461.07926    290.91779   -89.361599    38760.619 
  718700    297.02139   -1474.6532    468.94295    324.10697    -366.0321    38760.619 
  718800    300.26789   -1480.2431    445.00724     309.1165    13.539166    38760.619 
  718900    302.64785   -1464.0326    468.58389    359.55918    393.48824    38760.619 
  719000    307.59209   -1490.4712    476.98634    363.65927    340.38574    38760.619 
  719100    297.86909   -1495.5491    446.37147    284.43489    547.40903    38760.619 
  719200    297.50375   -1486.4103    436.19706    281.76358    592.60688    38760.619 
  719300    305.61779   -1454.7716    474.23133    387.76461    545.65292    38760.619 
  719400    303.24894   -1442.9846    459.44642    374.16091    392.00064    38760.619 
  719500    296.04754   -1462.8906    491.66451    354.23105    475.58511    38760.619 
  719600    304.23479   -1450.3455    493.89045    405.65791    101.23553    38760.619 
  719700    300.79123   -1458.4515    453.10868    341.35269    328.43073    38760.619 
  719800    291.20744   -1437.0121    483.79255    350.56761   -414.70026    38760.619 
  719900    308.75323   -1433.7369    473.59405    422.19987    93.911234    38760.619 
  720000     308.1746   -1454.1811    475.12893        400.7    62.997772    38760.619 
  720100    306.55597   -1507.2863    451.59877    316.81773   -221.60598    38760.619 
  720200    306.13899   -1479.8491    473.91018    364.69938    479.10297    38760.619 
  720300    301.07674     -1523.93    472.75334    296.79709    190.51142    38760.619 
  720400    305.19974   -1491.8416    443.77369    318.36526     14.79961    38760.619 
  720500    301.35992   -1517.8771    472.92899    304.29348   -655.28527    38760.619 
  720600     300.9319   -1483.2057    468.50015    332.61972   -1036.6081    38760.619 
  720700    298.27366   -1428.4378    476.60401    383.59005    259.09394    38760.619 
  720800    291.01038   -1487.7371    479.30663     294.4744    530.88995    38760.619 
  720900    298.63454   -1464.4522    447.28697    319.87439    745.36985    38760.619 
  721000    307.60814   -1484.1378    450.94068    344.01884    817.64588    38760.619 
  721100    306.75198   -1472.8109    477.83078    378.40272    193.46317    38760.619 
  721200    301.78889    -1434.437    440.11141    356.83654   -129.96004    38760.619 
  721300    299.66286   -1492.9105    459.71111    308.44415    -343.2533    38760.619 
  721400    288.11536    -1485.626    462.26347    266.58089   -410.02029    38760.619 
  721500    297.67861   -1477.6863    460.87229    315.94573    160.41147    38760.619 
  721600    293.17073   -1507.3347    459.41716    264.65961   -106.24252    38760.619 
  721700    308.15007    -1457.353    506.45885    428.74817    376.19698    38760.619 
  721800    299.17909    -1482.746    437.70406    294.43572   -169.79661    38760.619 
  721900    303.78071   -1490.9891    481.01014    350.10099   -277.59933    38760.619 
  722000    293.49139   -1528.3017     445.5218    231.23287    -919.4482    38760.619 
  722100    296.48414    -1537.013    428.84226    219.24115   -661.81889    38760.619 
  722200    306.32818   -1486.3814    479.14233    364.24626    145.23058    38760.619 
  722300    302.07062   -1479.2343    462.01138    335.20065    535.08703    38760.619 
  722400     290.7352    -1449.385     485.5412    337.82909    481.68971    38760.619 
  722500    296.75598   -1488.9785    474.34821     313.9987    247.23812    38760.619 
  722600    291.42321   -1502.7155    472.69863     274.7363   -10.134373    38760.619 
  722700    289.01875   -1509.5824    470.93801    255.34361   -372.24006    38760.619 
  722800    307.10851   -1521.9467    474.72296    327.75535     166.5373    38760.619 
  722900     304.2725   -1502.3491    472.95274    332.88542   -288.47635    38760.619 
  723000    302.38033   -1457.5926    461.69654    357.91406   -526.32579    38760.619 
  723100    300.41519   -1467.6031    493.03965    370.44843   -242.83831    38760.619 
  723200    297.73696   -1484.8014    466.77896    314.99853    314.70199    38760.619 
  723300    296.53886    -1515.309    472.13079    284.47867    305.87426    38760.619 
  723400    293.33041   -1483.1288    480.33168      310.495    164.97594    38760.619 
  723500    296.09942   -1539.6802    470.95442    256.96359    373.12601    38760.619 
  723600    292.61521   -1562.0503    464.50558    212.54527    863.20999    38760.619 
  723700     296.9172   -1543.8836    478.67071    264.13784     998.4328    38760.619 
  723800    304.40948   -1514.3602    448.35898    296.89383    273.92128    38760.619 
  723900    288.91876   -1487.0224     459.2024    265.72037    41.629821    38760.619 
  724000    304.10201    -1526.231    485.57514    320.86253   -82.037886    38760.619 
  724100    298.72325   -1501.2155     459.1113    295.33257    203.71689    38760.619 
  724200    299.59536   -1552.0621    435.70723    224.98648   -37.386454    38760.619 
  724300    309.66718   -1522.5685    484.54294    348.40913    725.82339    38760.619 
  724400    299.76263   -1505.6651    473.06833    309.49349    322.32596    38760.619 
  724500    297.19359   -1503.7127    457.49268    284.36818    112.98159    38760.619 
  724600     307.8175    -1459.419    479.26414    397.99847    165.35668    38760.619 
  724700    295.19827   -1493.2061    459.14271    287.59148    88.520325    38760.619 
  724800    295.43375   -1485.7087    449.24066    286.24104   -350.84898    38760.619 
  724900    296.37919   -1470.8165    478.05049    334.17605    120.46516    38760.619 
  725000    293.56129   -1480.5489    469.43768    303.21456   -291.83729    38760.619 
  725100    291.08186   -1469.1175     442.7133    276.82068     409.3656    38760.619 
  725200    304.93517   -1501.7135       470.23    333.76512    115.59048    38760.619 
  725300    291.92685   -1530.8283    464.54685    240.72667   -499.87156    38760.619 
  725400    294.53958   -1469.6367    454.74795    303.81702    25.911614    38760.619 
  725500    292.17645   -1487.8538    476.08105    296.35279    433.31887    38760.619 
  725600    286.06941   -1530.5022    458.38887    208.66992    49.100153    38760.619 
  725700    298.36941   -1500.8074    479.65902    314.70418     325.9471    38760.619 
  725800    292.30268    -1481.056    515.87841    343.51316     553.4429    38760.619 
  725900    308.01394   -1500.9185    464.36194    342.47626    575.79642    38760.619 
  726000    303.95296   -1484.3804     467.3003    343.77097    44.050944    38760.619 
  726100    299.99933   -1489.9738    478.56383    331.74008   -122.50041    38760.619 
  726200    302.28428   -1495.2159    468.15553    326.31972    333.17688    38760.619 
  726300    293.67478   -1491.0812    456.44049    280.19314   -100.13379    38760.619 
  726400     296.5407   -1490.4156     438.8128    276.06228   -318.64575    38760.619 
  726500    297.93278   -1456.1662    453.65293    331.38441   -305.77382    38760.619 
  726600    296.02782   -1501.4241    453.11066    277.05542   -205.33051    38760.619 
  726700     284.0966   -1520.6495    439.54491    190.84607   -191.02347    38760.619 
  726800    305.51167   -1523.1768     465.5809    310.23384   -333.21642    38760.619 
  726900    303.61727    -1511.888    458.35322    305.81339    175.32285    38760.619 
  727000    299.09165   -1526.5443    445.94955    258.49138  -0.26306564    38760.619 
  727100    302.06171   -1535.4237    461.90205    278.86198   -82.449749    38760.619 
  727200    293.00352   -1503.5947    465.78645    274.02028    103.10292    38760.619 
  727300     305.5546    -1457.968    470.69469    380.74864    246.24991    38760.619 
  727400    294.26735    -1498.323    457.52721    276.69115   -708.19626    38760.619 
  727500      310.316   -1487.5314    469.93145     371.7396   -115.49126    38760.619 
  727600    294.51612   -1479.8799    459.67479    298.39565   -308.04408    38760.619 
  727700    294.22006   -1468.7931    467.67742    316.15956   -449.99018    38760.619 
  727800    298.41077   -1488.9228    464.55865     311.6736    -593.1748    38760.619 
  727900     285.9233   -1467.4797    462.43953    275.08895   -830.39434    38760.619 
  728000    308.37679   -1465.0828    458.12853    373.70314   -140.03272    38760.619 
  728100    294.65863   -1483.4737    459.55925    295.32432   -224.71736    38760.619 
  728200    302.50117   -1509.3137    463.40148    308.43903    388.89023    38760.619 
  728300    292.35217   -1516.5204    468.86591    261.25784   -115.01179    38760.619 
  728400      299.179   -1562.2796    465.84821    243.04583    364.87718    38760.619 
  728500    290.61084   -1571.1023    444.29317    174.30692    174.71059    38760.619 
  728600    292.25722   -1550.7922    441.24245    198.93746    121.66622    38760.619 
  728700    299.57543   -1562.8788    461.92491    240.29823    121.20605    38760.619 
  728800    298.81376   -1556.5896    466.19485    247.44725    665.45301    38760.619 
  728900    304.11556   -1540.0368    459.15907    280.70135    265.27876    38760.619 
  729000    299.96389   -1570.9591    482.30934    254.34154   -25.251322    38760.619 
  729100    300.71405   -1559.6488    464.42185    251.12295     212.0694    38760.619 
  729200    306.62954   -1485.0649    467.63164    355.40143    -554.4489    38760.619 
  729300     293.1117   -1523.4676     454.7986    243.64385   -240.04353    38760.619 
  729400    302.99731   -1496.3383     479.6879    339.92211   -153.84301    38760.619 
  729500    297.70003   -1478.3245    483.16688    337.69801   -285.35277    38760.619 
  729600    302.54989   -1495.8034    455.03292    313.79889   -226.55688    38760.619 
  729700    292.75301   -1490.0759    486.20608     306.8371   -456.40837    38760.619 
  729800    302.87582    -1528.433    441.83929    269.43488    -253.9373    38760.619 
  729900    304.50236   -1545.0787    464.86779    283.09999   -252.41861    38760.619 
  730000    300.12369   -1529.3535     459.8545    274.20776    171.64286    38760.619 
  730100    293.53793   -1536.8069    461.95505    239.36933    838.56665    38760.619 
  730200     296.7948   -1495.2758    473.29672    306.82372    162.61294    38760.619 
  730300    293.31375   -1542.1779    453.02405    224.06365   -387.40004    38760.619 
  730400    294.11134    -1465.134    478.29883    329.95321   -654.14123    38760.619 
  730500    315.29546   -1514.1778    477.00386     374.4595   -277.36431    38760.619 
  730600    313.35607   -1450.7835    484.26622    436.43325   -35.623263    38760.619 
  730700    303.12359   -1480.5542    469.93391    346.51765   -289.55397    38760.619 
  730800    299.73482   -1493.5022    473.72629    322.18982   -394.69984    38760.619 
  730900    295.40991    -1488.253    453.25276     287.6021   -175.07652    38760.619 
  731000    294.97178   -1491.7653    449.99823    278.87372    -534.4238    38760.619 
  731100    294.95479    -1529.264    462.56334    253.86402   -138.51449    38760.619 
  731200    307.89573   -1503.5224    471.57118    346.55239   -367.88177    38760.619 
  731300    297.44783   -1518.5579    443.43426    256.60286   -338.23557    38760.619 
  731400    292.44436   -1505.0033    491.21193     295.5337   -191.99629    38760.619 
  731500    294.14665    -1503.893    464.81871    277.87224   -955.31955    38760.619 
  731600    306.39929   -1519.8493    472.06135    324.01583   -25.615803    38760.619 
  731700    290.20824   -1527.9722    462.28347    233.62485   -487.65351    38760.619 
  731800    291.33491   -1538.9801    449.81862    215.19638   -157.89106    38760.619 
  731900    304.97846   -1487.3518     481.0133     359.1039     -35.4358    38760.619 
  732000    298.18508    -1509.589    446.91425    272.35257   -178.74197    38760.619 
  732100     299.2695   -1508.1046    471.17636    302.95414     115.5305    38760.619 
  732200     301.5655   -1508.5765    466.29555     307.8811   -62.662981    38760.619 
  732300    298.71863   -1494.1593    447.93674    291.19354    361.44274    38760.619 
  732400    292.77481   -1524.9019    459.91931    245.82199     1.958004    38760.619 
  732500    307.61882   -1527.3934    480.14125    330.01161    414.51639    38760.619 
  732600     302.0281   -1545.3087     468.5551    275.47952    115.89763    38760.619 
  732700    304.56928   -1521.3447    459.64377    301.90954   -536.33355    38760.619 
  732800    301.61804   -1499.6351    449.57709    300.33924   -532.36609    38760.619 
  732900    297.01517   -1533.2728    463.79123    260.30786   -293.65668    38760.619 
  733000     305.6827   -1533.1449    434.95227    270.40279     101.9295    38760.619 
  733100    293.93165   -1539.9084     471.1917    247.26728    19.932132    38760.619 
  733200    306.43938   -1545.4317    482.57207    309.12359    365.99236    38760.619 
  733300    290.89653   -1584.9119    428.67486    146.15816    308.98873    38760.619 
  733400    303.76662   -1591.4098    467.98825    236.59528    351.64459    38760.619 
  733500    293.55537   -1584.7982    463.55437    193.05544    548.31694    38760.619 
  733600    299.32054   -1530.0947    452.40428     262.4206    588.21553    38760.619 
  733700    301.74876   -1520.6822    476.99793    307.29821    133.05218    38760.619 
  733800    298.27494   -1506.7233    442.90255    271.60882   -210.42375    38760.619 
  733900    306.78281   -1503.9549    472.73441    342.30041    138.78929    38760.619 
  734000     297.7686   -1522.7933    468.44851    278.81787    503.77611    38760.619 
  734100    316.30376   -1536.9849    465.90035    345.06327   -312.14645    38760.619 
  734200    293.18625   -1509.6311    470.42653    273.44212   -203.87632    38760.619 
  734300    309.63441   -1513.1254    460.75734    333.91991    138.36702    38760.619 
  734400    290.00848    -1534.017    464.47052    228.87276   -443.10929    38760.619 
  734500    294.90114   -1473.7454    481.02095    327.60005   -588.02492    38760.619 
  734600    306.64939   -1479.4547    447.76645    341.23523   -343.06061    38760.619 
  734700    288.18234   -1543.7352    445.42719    191.93526     150.6783    38760.619 
  734800    308.35612   -1534.4629    453.49146    299.59342    102.74888    38760.619 
  734900    300.30723   -1510.0805    434.90144    269.34949    259.75564    38760.619 
  735000    299.29362   -1546.8592    453.90153    247.03274   -103.83976    38760.619 
  735100    294.83634   -1494.3441    475.44657    301.13683    665.20951    38760.619 
  735200    288.84366   -1559.9445    462.21913    195.47874    644.34079    38760.619 
  735300    295.24419   -1532.7019    462.27946    251.43797    822.91364    38760.619 
  735400    303.47282   -1508.4646    483.02216    333.25894    375.32678    38760.619 
  735500    293.70963   -1468.0241    440.82874    287.79455    221.64245    38760.619 
  735600    304.31634   -1520.6972    450.00219    291.78302   -210.23451    38760.619 
  735700    293.11984   -1513.6984    450.69926    249.35014    -43.22034    38760.619 
  735800     302.6018   -1544.5722    454.81578    265.04534    242.60198    38760.619 
  735900     294.8379   -1526.6662    439.63915    233.01432   -497.73555    38760.619 
  736000    298.23561   -1489.5086    481.18012    326.92503    -112.1922    38760.619 
  736100    296.33483   -1514.8266    453.74878    265.66562   -86.794324    38760.619 
  736200    297.91079   -1569.5853    454.12616    218.34015   -274.75757    38760.619 
  736300    305.21126   -1556.1169    462.40086    272.76874   -433.92637    38760.619 
  736400    297.88668   -1502.1936    447.72103    279.21878   -61.469578    38760.619 
  736500    290.55694   -1511.8834    472.70446    261.69575   -17.986917    38760.619 
  736600    307.70336    -1487.707    479.31542    369.25076   -127.98472    38760.619 
  736700    296.23283   -1525.0224    460.17158    261.43586   -161.54985    38760.619 
  736800    290.55083   -1525.7363    450.85965    225.97079   -45.160426    38760.619 
  736900    303.69649   -1524.9553    464.92414    299.67168   -506.08289    38760.619 
  737000    294.98646   -1497.8311     469.3423    292.21771   -416.94877    38760.619 
  737100     307.6748   -1512.1364    444.43989    309.81788   -303.87457    38760.619 
  737200    300.85084   -1548.9271    475.78554    273.82076   -172.24857    38760.619 
  737300    290.15149    -1513.713    462.55342    247.89987    111.48018    38760.619 
  737400    305.99132   -1523.7609    467.44135    313.65763    339.64928    38760.619 
  737500     299.2992   -1505.8739    493.82495    327.96645    453.34024    38760.619 
  737600    286.83706   -1496.1695    481.39703    269.44777    274.74607    38760.619 
  737700    303.44957   -1504.5616    465.01579    319.05148    650.46435    38760.619 
  737800    292.67085   -1489.5139    446.85106    267.67626    461.71722    38760.619 
  737900    293.49983   -1470.2207     463.7838    307.61374    379.01995    38760.619 
  738000    307.93729   -1483.2545     476.6107    372.04588   -349.01542    38760.619 
  738100     292.2376   -1511.7572    448.06611    244.70829     90.20388    38760.619 
  738200    293.87992   -1480.3454    471.31869    306.72564   -47.700753    38760.619 
  738300    304.84538   -1479.4432     464.4803    349.88374   -14.142188    38760.619 
  738400    294.30186   -1497.3867    456.09827    276.35301   -315.79037    38760.619 
  738500    301.61646   -1501.1756    444.22267    293.43725    -789.3393    38760.619 
  738600    302.58368   -1501.8391    451.41647    304.29791   -431.94324    38760.619 
  738700    286.63644   -1483.7651    442.43466    241.99154   -544.70678    38760.619 
  738800    304.56974   -1471.8283    484.24328    376.02749   -274.96014    38760.619 
  738900     303.4037   -1496.6788    443.28601    304.99924   -274.28494    38760.619 
  739000    296.77587   -1481.7685    469.04377    315.99323    74.169437    38760.619 
  739100    301.89833   -1549.0442    462.50504    265.11302    171.48322    38760.619 
  739200    307.33807   -1501.7152     429.3001    303.59178    238.72711    38760.619 
  739300    307.36524     -1513.57    484.79235    347.35086    141.09277    38760.619 
  739400    301.39699   -1466.0311    466.66757    350.04408    357.12235    38760.619 
  739500    299.79741   -1527.7425    474.19668    288.70014   -396.97173    38760.619 
  739600    310.11189   -1535.1789    471.74611    324.99294   -593.04893    38760.619 
  739700    303.42473   -1500.0718    451.49288    309.90725    -479.4517    38760.619 
  739800    292.80647   -1493.0399    468.60165    286.50804   -497.23587    38760.619 
  739900    300.26638   -1509.0032    479.60797    314.95043    -328.0524    38760.619 
  740000    308.18877   -1515.5542    464.85609    329.11747   -344.97936    38760.619 
  740100    305.71042   -1468.7388    471.31067    371.29144    314.10353    38760.619 
  740200    297.91663   -1481.2847    473.25701    325.79767    418.40768    38760.619 
  740300    292.89187    -1510.495    460.40306    261.23675    227.05095    38760.619 
  740400    298.61816   -1511.4116     472.9774    298.53204     397.3677    38760.619 
  740500    305.47042   -1489.9773    445.28626    322.95396    196.83985    38760.619 
  740600    299.34314   -1522.2826    450.79931    268.72882   -266.17525    38760.619 
  740700    304.18978   -1482.7233    469.67446    348.86254   -91.278105    38760.619 
  740800    301.48549    -1493.143    467.52164    324.18247    176.50243    38760.619 
  740900    304.89592   -1472.3491    482.07838    374.80214   -366.31304    38760.619 
  741000    294.39205   -1461.1764    471.83058    328.69942   -335.29022    38760.619 
  741100    296.41599   -1459.5549    485.37143    352.92327    233.03111    38760.619 
  741200    306.78527   -1482.3242    461.32595    352.53358   -204.83047    38760.619 
  741300    297.31025   -1454.0725    473.93165     350.9697   -204.19896    38760.619 
  741400    294.41221   -1461.3737    470.79716    327.55895   -390.72622    38760.619 
  741500    301.36666   -1433.9593    483.13509     398.4476   -540.67054    38760.619 
  741600    295.86332   -1530.9725    458.76354    252.42343   -24.121551    38760.619 
  741700    309.36583    -1497.888    468.23919    355.43663    421.25268    38760.619 
  741800     298.0783   -1440.6307    476.84362    370.76213    344.15579    38760.619 
  741900    300.72288   -1508.8948    452.51613     290.0108    949.15772    38760.619 
  742000    300.33996    -1512.207    459.07992    291.54803     1461.669    38760.619 
  742100     297.2221   -1446.5891    470.22177    354.34853    1052.9422    38760.619 
  742200    305.49405   -1511.5531    456.67427    312.87201    763.29957    38760.619 
  742300     303.5738   -1493.9956    475.94456    341.10249    476.59354    38760.619 
  742400    301.53261   -1500.2169    420.75198    270.54981    435.40907    38760.619 
  742500    297.57893   -1539.7401    471.54135    264.11468   -541.28082    38760.619 
  742600     301.7639   -1523.0739    457.06967    285.04603   -310.78828    38760.619 
  742700    306.75995   -1500.4604    463.26229    336.22042    396.48218    38760.619 
  742800    304.42703   -1466.0216    469.87378    366.82583    100.08473    38760.619 
  742900     301.8691   -1420.7402    484.32053    415.10168   -234.30677    38760.619 
  743000    295.94994   -1455.7862    448.69808    317.93207   -590.45943    38760.619 
  743100    302.28786   -1486.7473    466.19411    332.84295    -1044.853    38760.619 
  743200    303.13445    -1443.885    466.68219    379.98364    164.94398    38760.619 
  743300    294.95331   -1470.7971    495.45142    345.21237     168.6938    38760.619 
  743400    294.06712   -1509.4249    445.21439    252.37996     92.10885    38760.619 
  743500    308.59768   -1534.5219    455.04555       302.17    350.01603    38760.619 
  743600    296.79479   -1533.8856    458.31096     253.2281    682.07613    38760.619 
  743700    299.95832   -1515.1669     455.3144    283.11389    451.55709    38760.619 
  743800    293.66451   -1526.7955    468.37907     256.3715    64.854522    38760.619 
  743900    294.85316   -1488.1932    482.32002    314.23647    484.84532    38760.619 
  744000    297.19475   -1525.7928    446.60904    251.40964    29.987684    38760.619 
  744100    301.97183   -1493.3849    478.39989    336.99617   -223.52209    38760.619 
  744200    289.58658   -1471.2073    470.68918    296.01221   -498.47489    38760.619 
  744300    293.77691   -1508.2229    462.95802    270.02624   -496.97283    38760.619 
  744400    301.84432   -1521.0127    460.96283    291.36046    445.64243    38760.619 
  744500    302.02173   -1540.6591    447.27313    258.81871    374.66275    38760.619 
  744600    298.68014   -1533.2102    481.30646       285.34    469.19786    38760.619 
  744700    299.30849   -1532.7119    432.93242    240.27753    187.67302    38760.619 
  744800    300.11761   -1526.4865    473.18167    290.37474    208.34352    38760.619 
  744900    303.43583   -1533.0364     440.7943    266.29371    386.13877    38760.619 
  745000    298.98564   -1467.0975    490.01996    361.53405    251.07341    38760.619 
  745100     296.4196   -1509.8087    444.94233    262.25655    139.20587    38760.619 
  745200     297.0155     -1528.99    460.35394    261.15483   -370.79809    38760.619 
  745300    298.01953   -1521.2826    475.01542    288.01891   -131.49004    38760.619 
  745400    287.30345    -1459.325    462.44686    289.43019   -399.71886    38760.619 
  745500    293.79951   -1430.0536    452.80559     338.1443   -334.75332    38760.619 
  745600    304.83532   -1499.3321    479.47505    344.94456   -27.712617    38760.619 
  745700    301.65743   -1504.8629    480.94937     326.6601    323.06541    38760.619 
  745800    295.63896   -1482.3952    457.78852    299.02123   -32.621107    38760.619 
  745900    291.16504   -1489.1771    466.95407     281.3743   -576.12095    38760.619 
  746000    289.65726   -1492.8706    479.37434    283.35041     127.1617    38760.619 
  746100    301.08704    -1513.095    478.14235     313.0672    246.60649    38760.619 
  746200    298.18136   -1529.8743     467.4104    272.54672    347.35186    38760.619 
  746300    300.14071   -1519.3215     466.6094    291.07085   -198.75386    38760.619 
  746400    310.10993   -1485.9174    437.93859    340.43812    198.51291    38760.619 
  746500    304.15917   -1495.4823    444.45315    310.74516   -324.47152    38760.619 
  746600    307.38804   -1505.6702    453.89315    324.45349   -335.73302    38760.619 
  746700    303.57847    -1517.615    462.10781    303.66727   -211.87835    38760.619 
  746800    300.10717   -1512.3344    434.51096    265.80935   -260.10511    38760.619 
  746900    298.38962   -1512.0496    473.22448    297.11799   -1.4056951    38760.619 
  747000    298.93483   -1530.7153    442.39952    250.06825    192.88271    38760.619 
  747100    289.63281   -1472.5918    468.81231    292.95773   -48.070589    38760.619 
  747200     305.8577     -1482.21    450.74022     337.9092   -140.89003    38760.619 
  747300    302.01144   -1472.8511    459.20853      338.516   -376.27075    38760.619 
  747400     304.3119   -1452.6952    460.22094    369.98384   -588.17665    38760.619 
  747500    300.73268    -1465.232    435.74909    316.95039   -229.94404    38760.619 
  747600    303.97118   -1511.4149    431.43132    280.94914   -833.06163    38760.619 
  747700    302.18469   -1512.4228     457.3452    297.85669   -660.07635    38760.619 
  747800    305.10124   -1471.3711     450.7899    345.41092   -298.51831    38760.619 
  747900    294.28005   -1454.2317    458.49261    321.80468    33.266918    38760.619 
  748000    310.71294   -1486.7243    478.33359    382.72604    -374.6222    38760.619 
  748100    300.32074   -1509.0105     437.2946    272.87309   -65.112139    38760.619 
  748200    299.61089   -1510.6889     448.2955    279.01746    54.068393    38760.619 
  748300    314.49791   -1520.0375    496.35715     384.3823    1.5345398    38760.619 
  748400    292.40499   -1483.1145    441.72198    267.75633   -12.583065    38760.619 
  748500    303.93704   -1506.1101    447.67113    302.34084   -472.88859    38760.619 
  748600     304.9957   -1469.9876    462.94187    358.47394   -161.74221    38760.619 
  748700    287.33961   -1453.6176    456.00186    288.85451   -298.95792    38760.619 
  748800     294.3281   -1437.2349    459.28283    339.80677    423.38149    38760.619 
  748900    302.74076   -1447.7543    463.11149    370.78102    442.00336    38760.619 
  749000    290.43132   -1436.0785    484.30991     348.5438     507.0833    38760.619 
  749100    301.24075   -1430.9926    457.32073    375.03618    98.412101    38760.619 
  749200    304.77457   -1425.2622    463.40193    402.66931    585.60237    38760.619 
  749300    301.64402    -1448.923    459.07003    360.66059    221.19861    38760.619 
  749400     300.9062   -1447.3736    462.91996    362.75655    825.93737    38760.619 
  749500    296.24019   -1480.2114    455.84079    301.94904    476.59886    38760.619 
  749600    302.86784   -1453.2256    458.26711    361.03438    334.94666    38760.619 
  749700    301.03431   -1461.0383    430.29862    317.04413    297.17167    38760.619 
  749800    310.30174   -1435.1319     465.7155    419.85933    156.60657    38760.619 
  749900    288.90828    -1457.448    495.07576    331.12119    185.72679    38760.619 
  750000    299.79476   -1481.6895    470.44102    330.98564    138.44149    38760.619 
  750100    291.64131   -1442.5229    438.27755    301.48428   -283.50492    38760.619 
  750200     309.3953   -1441.5418    448.43558    392.11118     -149.001    38760.619 
  750300    308.88277   -1455.5874    465.12547    392.46078   -273.93486    38760.619 
  750400    315.44071   -1444.6863    474.98115    442.57867    202.11159    38760.619 
  750500    313.66912   -1456.4104    483.11179    431.05352   -213.55894    38760.619 
  750600    296.29578   -1438.4007    425.65015    313.81797   -410.78244    38760.619 
  750700    290.70743   -1436.5517    450.51892    315.51574    32.604995    38760.619 
  750800    307.84574   -1419.2474    451.66588    410.69823    26.395358    38760.619 
  750900    289.44458   -1458.7906    450.17905    287.28298   -127.15765    38760.619 
  751000    287.03819   -1458.1656    454.26134    281.21645    497.81409    38760.619 
  751100    304.77644   -1467.3563    451.70879    348.89041   -304.53419    38760.619 
  751200    297.85696   -1511.6607    458.33842    280.23597   -158.30826    38760.619 
  751300    299.69022   -1523.4795    469.67345    287.96002    228.86799    38760.619 
  751400    293.86768   -1476.2584    468.59017    308.02925    390.08235    38760.619 
  751500     303.0441    -1470.534    454.70924    340.95718    374.22116    38760.619 
  751600     304.6424   -1482.0048    424.37284    306.30591   -22.181366    38760.619 
  751700    297.98452   -1524.7599     438.3463    247.71577   -301.97731    38760.619 
  751800    293.83776   -1493.0074    454.62925    277.18537    10.385466    38760.619 
  751900    295.47566    -1532.489    444.41852    234.82626    362.83362    38760.619 
  752000    310.73012    -1490.929    502.83073     403.0954    610.50029    38760.619 
  752100    301.58634   -1495.1605    460.65332    315.74814   -146.89235    38760.619 
  752200    288.41695   -1474.8337    452.00948    268.46948   -278.95812    38760.619 
  752300    287.36266    -1426.586    474.35427    334.34174   -351.12132    38760.619 
  752400    290.05081   -1437.2506    461.25531    322.61347     -723.513    38760.619 
  752500    299.53388   -1429.0452    460.98837    373.00931   -71.843623    38760.619 
  752600    298.60975    -1435.019    467.34071    369.25034   -356.46315    38760.619 
  752700     296.7108    -1418.466    469.94469     379.9054    146.80836    38760.619 
  752800    285.87305   -1442.9034     480.7169    317.71763    302.03938    38760.619 
  752900    309.35741   -1498.4265    476.76518    363.38646    296.60095    38760.619 
  753000    303.65617   -1482.5481    474.85544    351.82965    574.26683    38760.619 
  753100     297.8073   -1458.3513    461.10479    336.08945    215.67763    38760.619 
  753200     297.3357   -1471.8729    448.88526    308.23678    630.91057    38760.619 
  753300    289.48493   -1471.9149    471.35591    295.51618    276.46258    38760.619 
  753400    298.59388   -1484.0077    468.74813      321.598    272.08568    38760.619 
  753500    318.09247   -1455.1241    464.83904    433.87109   -409.28073    38760.619 
  753600     296.5815   -1467.8995    456.78211    316.73037     -688.099    38760.619 
  753700    299.22125   -1476.5919    447.75552       310.83    643.60886    38760.619 
  753800     299.4474   -1475.9869    452.79702    317.48907    461.59498    38760.619 
  753900    308.66098   -1474.0539    474.13394    382.00975    606.07202    38760.619 
  754000     307.5705   -1473.2565    468.14874    371.93971    857.03302    38760.619 
  754100    302.17827   -1526.2864    448.82954    275.44868   -210.88631    38760.619 
  754200    295.07513   -1474.8498    457.81113    304.06486   -65.286375    38760.619 
  754300     308.9875     -1510.12    439.56466    312.83631   -160.80803    38760.619 
  754400    300.95003   -1466.3031    475.30891    356.41221   -138.28077    38760.619 
  754500    293.14535   -1512.2331    422.36935    222.59977   -172.92672    38760.619 
  754600    307.76495   -1486.2169    467.23183    358.93301    247.34918    38760.619 
  754700    297.15671   -1484.6577    478.00936    323.77475     545.0646    38760.619 
  754800    290.45702    -1492.681    432.63969    240.38607    442.96213    38760.619 
  754900    295.91071   -1488.4528    471.30274    307.69449    200.23306    38760.619 
  755000    301.48093   -1517.2378    446.04463    278.59019    207.43797    38760.619 
  755100    299.61909   -1452.1812    457.53411    346.80055     23.54512    38760.619 
  755200    295.86984   -1465.1806    426.89123    286.37222    529.74962    38760.619 
  755300    306.86737   -1431.0058    491.53517    434.42879    958.62438    38760.619 
  755400    288.61521   -1453.7702    462.43984    300.85096    569.67901    38760.619 
  755500    296.26471   -1458.1369    453.62044    321.91298    1013.5568    38760.619 
  755600    300.12832   -1476.2128    449.69282    317.20751    592.96605    38760.619 
  755700    291.96843    -1434.862    460.85381    333.18604    421.71515    38760.619 
  755800    293.26475   -1439.4627    471.99533    345.53077    483.08435    38760.619 
  755900    298.51259   -1436.1875    463.78505     364.0912    122.52271    38760.619 
  756000    294.59257   -1435.5322    478.84924    362.26006    190.57026    38760.619 
  756100    297.59865   -1398.7239    461.40004    395.07789     55.29556    38760.619 
  756200    301.91573   -1384.6479    488.34272    455.42489    354.71482    38760.619 
  756300    305.16831   -1386.6959    469.81843    449.41496    61.800756    38760.619 
  756400    305.21429   -1390.5403    449.47808    425.43609   -96.426252    38760.619 
  756500     298.8927   -1383.8814    481.70059    436.01461   -387.43727    38760.619 
  756600    308.64364   -1404.4581    455.80016    433.19417    23.900654    38760.619 
  756700    287.76453   -1382.9661    468.37641    373.78295    80.577363    38760.619 
  756800      298.958   -1398.4476    467.04583    407.08598    247.94006    38760.619 
  756900    300.64064   -1389.6183    465.43153    421.83456    63.962831    38760.619 
  757000    293.07262   -1413.6035    470.74392    369.27825   -397.13009    38760.619 
  757100    291.99389   -1415.6274     436.6761    328.35692   -347.97531    38760.619 
  757200     307.1719   -1421.8428    465.82504    419.24512    561.61185    38760.619 
  757300    302.72185   -1436.1267    457.18915    376.40163    246.36221    38760.619 
  757400    306.87005   -1421.0871     464.8394    417.66376   -275.58059    38760.619 
  757500    300.13671   -1435.8766    459.86688     367.7554    -349.3023    38760.619 
  757600    301.67973   -1429.9878    433.43415    354.11983    -281.4456    38760.619 
  757700    303.32037   -1433.7682    448.81463    373.06531   -430.80585    38760.619 
  757800    305.22914   -1421.4385    470.36608    415.49239   -374.20617    38760.619 
  757900    295.04492   -1436.6086    450.63712     334.9968   -600.84645    38760.619 
  758000    302.79451   -1443.6197    447.79373    359.83855   -285.20633    38760.619 
  758100    299.90916   -1445.3348    434.42155      331.833   -454.04857    38760.619 
  758200    296.62063   -1412.1082    453.46414    369.37892    228.97259    38760.619 
  758300     289.4873   -1443.8632    477.53652    329.75916   -434.54161    38760.619 
  758400    309.95068   -1479.5822    468.20787    376.32968   -46.864268    38760.619 
  758500    301.14173   -1453.8789    462.05447    356.44033    505.78413    38760.619 
  758600    297.06181   -1468.1961    443.25877    305.06083    846.20172    38760.619 
  758700    298.50594    -1450.255    436.01608    322.22491    707.53777    38760.619 
  758800    300.22852    -1451.532    442.37528     335.0194    30.866366    38760.619 
  758900    291.06367   -1437.1289    464.80952    330.82415    367.98346    38760.619 
  759000    311.88236   -1451.1636     452.3956    397.58444    279.21903    38760.619 
  759100    305.97115   -1426.9746     453.5467    396.45897    154.30113    38760.619 
  759200    300.59025   -1452.8955    447.25548     340.1556    336.50829    38760.619 
  759300    296.60065   -1433.2137    456.14143    350.86126    150.10016    38760.619 
  759400    296.00663   -1452.8183    459.17795    331.63358    355.63463    38760.619 
  759500    306.74095    -1431.465     452.5888    394.45723   -317.15329    38760.619 
  759600    293.99661   -1431.1177    448.20184     333.3589   -358.81991    38760.619 
  759700    298.96368   -1443.6466    445.14484    340.01144    173.32137    38760.619 
  759800    299.37117   -1444.1948    470.45845    366.60131   -403.36503    38760.619 
  759900    307.55451    -1470.368    447.61563    354.22352   -224.23639    38760.619 
  760000    298.35958   -1462.9724    457.51984    330.35596     302.1788    38760.619 
  760100    301.97564   -1395.2202     465.0848    421.86292    282.63432    38760.619 
  760200    311.06418   -1433.8839    439.12126    397.92665   -317.99464    38760.619 
  760300    306.17449   -1433.2305    452.14217    389.70893    130.19082    38760.619 
  760400    306.91906   -1442.4258     451.4335    383.13854    205.58454    38760.619 
  760500    308.01657   -1465.8491    440.67024    353.86572    617.32073    38760.619 
  760600    299.05728   -1455.3284    462.22483    345.82868    568.86378    38760.619 
  760700    300.36826   -1427.1612    458.36617    376.00677    302.99623    38760.619 
  760800     305.4972   -1444.8241    459.96199    382.90286    192.44804    38760.619 
  760900    301.11827   -1441.5548    459.24946    365.85436   0.54687754    38760.619 
  761000    304.98625    -1429.941    451.47691    387.01322   -173.82902    38760.619 
  761100     289.9731   -1414.4889    461.16896    344.94082    213.42993    38760.619 
  761200    298.28459    -1419.465    476.18044    392.18827    311.21144    38760.619 
  761300    301.32026   -1504.4047    420.80784    265.46719    659.32348    38760.619 
  761400    301.35382   -1473.2742    486.00355    361.94363    56.820816    38760.619 
  761500    290.28818   -1498.9489    433.03444    233.75706    24.901234    38760.619 
  761600    309.77581   -1484.4132    455.13283    357.64064   -25.816489    38760.619 
  761700    297.87092   -1467.7205    449.04927    314.94952   -357.61811    38760.619 
  761800    298.86253   -1470.9229    438.57219    305.70964    15.176324    38760.619 
  761900    305.28008   -1469.4186    448.22276    345.59705    77.718855    38760.619 
  762000    301.11624   -1502.1084     419.4776    265.51976     -95.6295    38760.619 
  762100    305.39288   -1476.2592    489.02306    380.06169    246.90066    38760.619 
  762200    294.51103   -1456.4378    442.81413    304.95429    35.140595    38760.619 
  762300    302.09218   -1480.0227    449.98902    322.48637    270.48898    38760.619 
  762400    296.55892   -1425.3543     470.4678     372.8602    186.33761    38760.619 
  762500    301.72738   -1445.7144    464.70977    369.88216   -344.71766    38760.619 
  762600    309.98509   -1436.2026    452.36171    404.01711    325.73801    38760.619 
  762700    311.05743   -1469.0792    432.91852    356.49839    526.59278    38760.619 
  762800    291.95856    -1493.508     456.9823    270.62431   -62.490964    38760.619 
  762900    295.08377   -1471.2231    432.55254    282.47156    403.31034    38760.619 
  763000    301.99566    -1492.854    515.04816    374.28214    914.03286    38760.619 
  763100    297.95348   -1428.8256      447.081    352.24578    388.99906    38760.619 
  763200    308.16376   -1477.1063    456.98601    359.58332   -96.525983    38760.619 
  763300    301.45049   -1455.6383    458.61057    352.61935    23.880723    38760.619 
  763400    307.16753   -1471.3205    464.33624    368.25906    198.87107    38760.619 
  763500    298.34325   -1491.2916    442.09482    286.53868   -464.41399    38760.619 
  763600    304.19707   -1433.9544    435.58727    363.57691   -286.83069    38760.619 
  763700    294.75583    -1456.321    450.90698    314.25993   -800.35576    38760.619 
  763800    298.31001   -1453.7828    474.76261    356.56637   -232.11087    38760.619 
  763900    311.56178   -1469.9795    452.48108    377.41874   -179.53675    38760.619 
  764000    302.23063    -1475.651    453.98747    331.47633   -333.36221    38760.619 
  764100    295.93903   -1510.9333    446.51395    260.55196   -120.65644    38760.619 
  764200    304.87485   -1517.4396    460.75381    308.29282    164.01731    38760.619 
  764300    297.43589   -1500.7142    463.41858    294.37737    304.78059    38760.619 
  764400    305.30389   -1505.4514     462.3967    323.84478    302.66489    38760.619 
  764500     318.2668    -1533.446    440.40792    331.89861    133.51073    38760.619 
  764600    299.25947   -1536.4425    428.18782    231.58289    26.825044    38760.619 
  764700    303.80376    -1546.484    459.37361    273.07275    180.36824    38760.619 
  764800    307.61124    -1521.168    437.32646    293.38836    225.27083    38760.619 
  764900    304.78754   -1519.3939    433.24729    278.44105   -37.963904    38760.619 
  765000    300.10342   -1512.5562    471.90576    302.96557     14.10225    38760.619 
  765100    300.28837   -1518.1923    431.16975    257.42153   -130.88603    38760.619 
  765200    305.36018   -1493.8832    466.92444    340.19271   -607.43736    38760.619 
  765300    291.60551   -1493.1748     452.1147    264.50923    -640.2604    38760.619 
  765400    313.46591   -1473.3205    434.98141    365.10322    -588.2405    38760.619 
  765500    301.57832   -1496.3889    438.18413    292.01463   -397.99785    38760.619 
  765600    298.75412    -1499.321    444.60983    282.86379   -311.44017    38760.619 
  765700    299.26999   -1471.6037    479.58608      347.867    257.88548    38760.619 
  765800    291.77865   -1459.1076    462.85642    310.09341   -131.67408    38760.619 
  765900    298.25949   -1467.1334     472.6189    340.84594    -10.23965    38760.619 
  766000    296.78286   -1448.1077    485.27824    365.91986    171.65895    38760.619 
  766100    295.11593   -1472.1709    474.61808    323.73337    338.91296    38760.619 
  766200    297.52459   -1491.3355    457.53829    298.27294    160.26526    38760.619 
  766300    294.75737   -1469.2118    464.89491    315.36395    193.40064    38760.619 
  766400    295.43875   -1499.4041    492.18165    315.50903    242.56953    38760.619 
  766500    295.95982   -1511.6799    462.68195     276.0664    429.49551    38760.619 
  766600    301.02285    -1455.087    464.08019    356.72571     703.8498    38760.619 
  766700    292.86572   -1509.4928    475.06533    276.78406    609.22894    38760.619 
  766800    291.89482   -1479.7506    472.81848    299.93259    423.62357    38760.619 
  766900    296.06757   -1455.1376    447.21642    317.62565     96.48534    38760.619 
  767000    298.48324   -1471.7813    489.99913    354.58001    255.46221    38760.619 
  767100    296.34859    -1504.198    458.50095    281.10798   -77.032067    38760.619 
  767200    297.93915   -1509.3458    469.66872    294.24913    275.62104    38760.619 
  767300    304.39292   -1449.7498    483.21427    396.28538    94.088366    38760.619 
  767400    284.39716   -1491.0995    480.22783    262.42467   -211.10742    38760.619 
  767500    311.95212   -1465.7498    460.84925    391.76423    225.93491    38760.619 
  767600    312.41461   -1486.2437    470.60497    383.09674   -92.299179    38760.619 
  767700    295.00728   -1446.9261    478.24851    352.12212     105.3901    38760.619 
  767800    294.38717   -1465.6943      469.763    322.09209   -330.13519    38760.619 
  767900    298.28561   -1380.7625    478.74787    433.46272   -647.10423    38760.619 
  768000     293.0222   -1444.6406    463.77024    331.04183   -341.17897    38760.619 
  768100    299.61792   -1438.7038    452.30822    355.04677    -464.5386    38760.619 
  768200    305.22582   -1434.2997    480.05174    412.30198   -670.50681    38760.619 
  768300    291.36714    -1455.595    443.44343    292.35058   -458.48035    38760.619 
  768400     294.7193   -1486.2225    468.59434    301.88218    -543.6313    38760.619 
  768500     291.0487   -1464.3772    448.86498    287.56426   -658.27354    38760.619 
  768600    296.33828   -1464.0634    443.44475    306.14022   -602.07678    38760.619 
  768700    299.43618   -1468.3743    480.10453    352.35892   -532.36004    38760.619 
  768800    300.60488   -1456.1205    417.66265    307.40335   -747.43942    38760.619 
  768900    305.19768   -1508.6355    460.12322     317.9116   -760.72501    38760.619 
  769000    288.35085   -1472.3793    463.16066    281.77909   -268.92305    38760.619 
  769100    280.59897   -1505.5081    454.82303    205.60611   -489.32188    38760.619 
  769200    308.96113   -1472.5364    468.39043    379.12762    188.33903    38760.619 
  769300    294.47459   -1435.6583    446.75648    329.51291   -30.567208    38760.619 
  769400    295.77592   -1450.4125    475.97196    349.80058   -53.514421    38760.619 
  769500    307.52678   -1502.5122     469.3238    343.66339    262.19729    38760.619 
  769600    292.85461   -1492.8764    430.87277     249.1582    278.73167    38760.619 
  769700    305.25677   -1516.8642    489.48918    339.31344    618.85753    38760.619 
  769800    298.85785   -1521.9981     435.9357    251.97705     1071.347    38760.619 
  769900    294.05752   -1525.2134    462.46572    253.79985    381.21661    38760.619 
  770000    294.11383   -1486.9744    489.65916    319.48434    549.02745    38760.619 
  770100    300.48247   -1475.3022    461.54449    331.55545    137.87341    38760.619 
  770200    307.38959   -1439.6024    475.71781    412.35292    512.27101    38760.619 
  770300    300.13445    -1440.084    474.06918    377.74014     483.5711    38760.619 
  770400    303.15074   -1472.9645    496.26221    380.55707    803.79167    38760.619 
  770500    290.03034   -1515.5083    451.40946    234.41828    433.85758    38760.619 
  770600    304.48223   -1497.5503     455.4213    321.09168    515.01649    38760.619 
  770700    296.33037   -1502.9378    472.16893    295.95452    133.73245    38760.619 
  770800    298.77533   -1506.4939    471.31984    302.49589  -0.20163617    38760.619 
  770900    302.25313   -1513.2595    455.68691    295.66805   -556.79957    38760.619 
  771000     290.4827   -1490.4295    468.08929    278.20214   -505.04985    38760.619 
  771100    305.39419   -1486.8136    457.10759    337.59771   -392.28764    38760.619 
  771200     297.6688   -1472.2723    441.71713    302.16069   -519.46106    38760.619 
  771300    306.08603   -1496.6549    460.88945    334.63584   -537.03021    38760.619 
  771400    304.75029   -1495.0822    480.98086    350.31954    25.551063    38760.619 
  771500    288.72768   -1514.9472    479.06527    256.80295    38.282631    38760.619 
  771600    295.41836   -1536.9583    451.59822    237.28011   -96.631134    38760.619 
  771700    292.18696   -1533.3502    478.70183    253.52429   -11.821321    38760.619 
  771800    297.22874   -1527.5232    464.56635    267.78873   -213.54571    38760.619 
  771900    299.65406   -1520.5441     458.4345    279.49463   -133.01527    38760.619 
  772000    302.58896   -1489.0157    478.57047      344.299   -645.68192    38760.619 
  772100    308.73362   -1475.0543    472.01802    379.21867   -450.34653    38760.619 
  772200     296.2761   -1492.5411     471.0132    304.95258   -534.29202    38760.619 
  772300    287.63954   -1451.1188    469.40062    306.09489   -591.21157    38760.619 
  772400    301.58261   -1450.4445    464.39834    364.19243    20.730664    38760.619 
  772500    314.08681    -1486.685    452.29974    371.83688   -284.53342    38760.619 
  772600     293.1709   -1479.2849    486.68536    319.97839   -634.22143    38760.619 
  772700    294.27303   -1478.7001    475.21255    314.02485   -982.18147    38760.619 
  772800    295.46155   -1513.2691    472.31562    281.88014   -1039.0677    38760.619 
  772900    294.32662   -1518.6528    479.00669    278.10619   -939.76105    38760.619 
  773000    306.71321   -1530.0769    464.20412     307.3365   -817.12301    38760.619 
  773100    300.61332   -1525.7043    478.32207    298.51676   -1058.7295    38760.619 
  773200     308.0687   -1492.4118    460.59894    347.46514   -748.34008    38760.619 
  773300    309.32804   -1459.3272    494.36791    419.95704   -142.52951    38760.619 
  773400    295.91089   -1459.9912     466.1264    330.98049    150.70065    38760.619 
  773500    300.79846   -1482.3809    478.30311    342.65009   -314.39804    38760.619 
  773600    301.21587   -1527.1891    472.37936    293.78698   -218.56019    38760.619 
  773700    298.71903   -1498.2955    452.94863    292.07102   -237.03718    38760.619 
  773800    303.85128   -1465.5378    483.24586    378.10393   -699.68588    38760.619 
  773900    290.83356    -1487.858    471.05493    285.31017   -647.66684    38760.619 
  774000    291.32049   -1488.6944    472.33463    287.93357   -408.12837    38760.619 
  774100    307.21566   -1444.1241     470.6823    402.01703   -957.48719    38760.619 
  774200     302.4988   -1449.3078    466.25675    371.28947   -825.58078    38760.619 
  774300    310.13937   -1450.3967    441.51447    379.66658    -567.3115    38760.619 
  774400    295.85553   -1460.4541    483.87701    348.02041   -308.46691    38760.619 
  774500    307.21641   -1465.3645    475.65979    385.75748   -319.72088    38760.619 
  774600    299.83195   -1492.6119    467.07811    316.86684      -394.13    38760.619 
  774700    299.21281   -1415.6157    468.81257    392.82548    180.32478    38760.619 
  774800    302.14741   -1429.6628    459.21155    382.31612    621.00479    38760.619 
  774900    298.46361   -1489.6136    438.42128    285.08204    223.01079    38760.619 
  775000    308.52454   -1485.5664    443.58554    339.33801    553.23073    38760.619 
  775100    302.97237   -1491.0259    475.22613    340.66105    159.81374    38760.619 
  775200    297.97322   -1487.0787    482.56051    329.56055    166.35791    38760.619 
  775300    296.78555   -1567.0578    458.29834    220.00193    58.857829    38760.619 
  775400    312.41087   -1552.7083    467.25048    313.26089   -149.24806    38760.619 
  775500    297.83618   -1512.2619    469.12777    290.33106   -258.05067    38760.619 
  775600    305.38225   -1509.6836    452.84143     310.4081    100.58579    38760.619 
  775700    307.58735   -1472.5257    449.17175    353.76896    45.131295    38760.619 
  775800    299.21489   -1506.5669    464.34892    297.41992    333.72908    38760.619 
  775900     292.4097   -1532.4226    470.71167    247.45898    239.44109    38760.619 
  776000    296.67169   -1488.3776     479.6763    319.55027   -132.73125    38760.619 
  776100    297.88179   -1528.3429    481.74958    287.07612    109.33099    38760.619 
  776200    290.25726   -1490.5008    454.33736    263.36959    195.61104    38760.619 
  776300    302.91077   -1508.1907    465.90947    313.90377   -408.87703    38760.619 
  776400    298.43243   -1488.4214     457.9872     305.7005    165.66067    38760.619 
  776500    301.92914   -1478.1527    467.93375    341.57117    210.30591    38760.619 
  776600     294.3925   -1471.1843    453.46353    300.32644    -2.765338    38760.619 
  776700    293.62342   -1485.2869    468.24806    297.56513    91.556609    38760.619 
  776800    299.24182   -1474.9686    484.93512    349.72499   -244.28535    38760.619 
  776900    296.83532   -1495.6117    470.16126    303.53369    241.76096    38760.619 
  777000     305.4656   -1484.6813    491.58124    374.52342    463.53754    38760.619 
  777100    294.54667   -1486.3351     459.0921    291.49449    984.52602    38760.619 
  777200    293.83806   -1482.2098    488.20495    321.56006    872.42879    38760.619 
  777300    300.44678   -1497.8442     475.2299    322.53901    777.47665    38760.619 
  777400    310.06969   -1434.4526    464.78788    418.57205    800.27298    38760.619 
  777500     304.5924   -1502.5409    472.86408    334.03721    283.34422    38760.619 
  777600    292.24157   -1440.2133    483.66151    351.86538    118.76276    38760.619 
  777700    296.14202   -1467.6113    456.54969    314.81859   -392.41823    38760.619 
  777800    298.36518   -1459.8542    470.52867    346.50807     315.5029    38760.619 
  777900    292.57395   -1472.8898    462.11592    299.13142    155.12886    38760.619 
  778000    297.04318   -1454.2604    471.65916    347.31358   -36.383604    38760.619 
  778100    294.40038   -1487.8124    468.87148    299.14161     428.7078    38760.619 
  778200    297.66446   -1475.7208    457.86956    314.84511   -485.54001    38760.619 
  778300    302.60023   -1438.6751    478.40949    394.52914    137.36659    38760.619 
  778400    303.44521   -1473.5322    479.99949    365.04515   -42.633472    38760.619 
  778500     299.7772   -1478.6718    470.86349    334.34723    259.97966    38760.619 
  778600    304.30826   -1469.9509    458.40357    350.89454    373.00986    38760.619 
  778700    296.52054   -1468.7533    472.35165    331.17314    186.20059    38760.619 
  778800    301.77517   -1484.1619    468.55865    335.49751    348.09763    38760.619 
  778900    312.77928   -1510.2625    453.51531    343.62088    152.75289    38760.619 
  779000    306.47522    -1510.868    445.59236    306.86805   -212.07378    38760.619 
  779100    301.64244   -1473.2906    484.19512    361.41101    321.05781    38760.619 
  779200     298.8096    -1501.776    446.03477    282.08217    165.50942    38760.619 
  779300    307.56135   -1434.8027    492.05164    434.25542    402.16264    38760.619 
  779400    293.78039   -1462.8276    505.17834    357.65748     116.7029    38760.619 
  779500    291.11719   -1452.2046    501.14189    352.32037    -185.3556    38760.619 
  779600    295.58659   -1458.3743    465.15905    330.17819   -18.199356    38760.619 
  779700     289.3519     -1496.99    440.44457    238.93413   -354.77889    38760.619 
  779800    300.03548   -1453.4916     481.5321    371.35231   -847.90816    38760.619 
  779900    303.35913   -1454.6431    460.91796     364.4673   -650.15636    38760.619 
  780000    297.16951    -1466.662    463.07564    326.89402    -863.4622    38760.619 
  780100    302.63507   -1488.1329    454.29616    321.11393   -938.29941    38760.619 
  780200     308.6165   -1502.2811    453.12433     332.5738   -367.07044    38760.619 
  780300     292.5222   -1467.6349    486.11701    328.15571    294.74951    38760.619 
  780400    307.93261   -1473.8481    463.72113    368.54172   -216.78699    38760.619 
  780500    301.73604   -1451.2752    493.62306    393.27344    73.835335    38760.619 
  780600    310.65173   -1416.4577    488.28576    462.67078   -198.21327    38760.619 
  780700    297.69016   -1499.5117    471.38127    304.68101   -522.06878    38760.619 
  780800    296.50316   -1448.1473    466.64019    345.98987   -175.62301    38760.619 
  780900    292.12724   -1428.6313    468.19267    347.46663    226.09997    38760.619 
  781000    297.01362   -1482.7373    479.18241    326.22757    598.98889    38760.619 
  781100    292.96019   -1478.1854    475.13215    308.58134    225.89323    38760.619 
  781200    311.71131   -1496.3922    462.26407    361.45852    191.33249    38760.619 
  781300    284.19945   -1462.1481    472.59561    282.85863   -145.39692    38760.619 
  781400    296.80466   -1445.4072    469.69655    353.13626    22.709339    38760.619 
  781500    304.76287   -1479.6544    465.66105    350.48394    125.65291    38760.619 
  781600    299.44997   -1457.9348     470.6166    353.37218    123.54428    38760.619 
  781700    283.45528   -1475.3045    481.24108    275.01591    88.745877    38760.619 
  781800    301.16658   -1433.3648    476.99442    392.00557   -469.14214    38760.619 
  781900    301.94606   -1516.4159    461.13272    296.58265    83.523924    38760.619 
  782000    301.49993   -1495.7428     464.2204    318.34607    873.70124    38760.619 
  782100    291.49924     -1478.66    464.71648    291.15006    601.88667    38760.619 
  782200    292.12343   -1454.0577    500.91222    354.74277    278.15675    38760.619 
  782300     303.6897   -1482.2038    472.61004    350.07869    149.70269    38760.619 
  782400      297.079   -1525.6181    454.22427    258.68132   -32.521996    38760.619 
  782500    296.58762   -1505.3597    455.58408     278.0996    406.65523    38760.619 
  782600    301.99383   -1517.6186    484.11052    318.57161    377.01347    38760.619 
  782700    306.03705   -1540.5555    477.89115    307.51766    302.37612    38760.619 
  782800    301.06104   -1517.5919    458.17912    288.49072   -605.33061    38760.619 
  782900     295.9281   -1462.9907    455.68123    317.61285   -262.81993    38760.619 
  783000    309.25641    -1423.028    507.27444     468.8421   -154.09066    38760.619 
  783100    305.25124   -1405.9903    474.57044    435.24382   -246.98856    38760.619 
  783200    306.19274   -1444.4524    472.07022    398.49677   -61.689864    38760.619 
  783300    304.16306   -1509.5623    479.55207    331.78154    247.72351    38760.619 
  783400    301.21336   -1469.3504    469.43974     348.6748    599.15266    38760.619 
  783500    294.16915    -1506.619    471.79515    282.22338     575.2805    38760.619 
  783600    307.02744   -1491.4575     475.3796     358.5382    441.68611    38760.619 
  783700    301.74194   -1451.0667    468.72628    368.61159    734.52503    38760.619 
  783800    296.66628   -1443.9136    502.07634    386.39009    903.03773    38760.619 
  783900    296.32883   -1488.2079    465.23494    303.74359    406.85231    38760.619 
  784000    296.36697   -1472.1198    479.40821    334.17575    132.29977    38760.619 
  784100    300.02913   -1503.0385     484.0961    324.34104    78.749168    38760.619 
  784200    299.76004   -1520.8394    480.69952    301.93876   -24.169766    38760.619 
  784300    286.61993   -1515.9051    457.88513    225.22816   -158.16825    38760.619 
  784400    302.70624   -1498.0876    481.02494    338.20662    64.033934    38760.619 
  784500    302.61013    -1492.339    479.32171    341.82178    19.212974    38760.619 
  784600     302.3681   -1496.6471    451.43954    308.54786   -362.89546    38760.619 
  784700     309.2069   -1530.4412    459.96506    313.89775    -312.6008    38760.619 
  784800    320.31145   -1494.4183    463.35773     403.0304    -15.40983    38760.619 
  784900    292.27743   -1483.6492    456.21266    281.14118    81.861489    38760.619 
  785000    297.47115   -1481.9583    469.39627     319.2689    69.496532    38760.619 
  785100    304.53691   -1509.4227    471.66244    325.70535   -167.95371    38760.619 
  785200    315.31898   -1500.0902    467.19824    378.84679   -81.687564    38760.619 
  785300    314.34403   -1490.1561    471.84368    389.06135    209.60342    38760.619 
  785400    293.31901   -1470.5829    487.06422    329.72239    155.38058    38760.619 
  785500    294.76305   -1469.5775    462.60636    312.73509    278.98962    38760.619 
  785600    302.20427   -1461.1778    495.00438    386.84844   -258.57227    38760.619 
  785700    306.58989   -1507.1921    475.56553    341.03049   -145.63713    38760.619 
  785800    303.29695   -1486.9746    473.19113    344.13059   -87.719864    38760.619 
  785900    304.63632   -1537.7281    470.18243    296.36495   -159.06897    38760.619 
  786000    309.17317   -1509.3636    469.10004    343.95933   -311.54679    38760.619 
  786100    290.96602   -1533.7976    460.61304    229.52171   -237.29345    38760.619 
  786200    299.40165   -1548.4902    455.55934    247.54323    36.951381    38760.619 
  786300    307.60686   -1523.3399    464.82074    318.69109    442.64661    38760.619 
  786400    291.90795   -1519.6886    480.26438    267.49929    62.793967    38760.619 
  786500     300.9596   -1493.5914    456.07557     309.9335   -516.32018    38760.619 
  786600    297.50586   -1525.5082    458.17024    264.64835    12.107455    38760.619 
  786700    296.66296   -1546.6826    470.55611    252.08601   -100.46545    38760.619 
  786800    304.91604   -1509.6841    487.09384    342.57276    207.76098    38760.619 
  786900    297.76599   -1531.8793    466.11522    267.38687   -448.64658    38760.619 
  787000      310.403   -1495.7025      454.792    348.81855   -112.69026    38760.619 
  787100    287.03593   -1487.3777    488.69753    286.43045    65.011928    38760.619 
  787200    296.80798   -1499.7923    473.52213    302.59159    217.26917    38760.619 
  787300    302.72208     -1517.33    436.60878    274.61902    375.73926    38760.619 
  787400    300.76374   -1559.0784    498.03797    285.53193    231.94791    38760.619 
  787500    301.19488   -1506.3583    456.10888    298.25326    538.29926    38760.619 
  787600    296.11471   -1479.0766    495.70554    342.38683    263.92124    38760.619 
  787700    302.64195   -1472.2013    470.18363    352.96376     2.841721    38760.619 
  787800    301.33879   -1480.9738    464.59556    332.76874   -123.85899    38760.619 
  787900    297.55559   -1480.1819    492.26623    344.29325   -1.0963898    38760.619 
  788000    294.41913   -1517.8204    453.64652    253.99257   -164.71569    38760.619 
  788100    292.70557   -1489.3101    470.82032    292.00482    271.89808    38760.619 
  788200    304.65974    -1508.898    478.40041    333.51795    157.06691    38760.619 
  788300    304.56255   -1459.7958    485.53804    389.32255     762.0561    38760.619 
  788400    293.22478   -1479.7921    455.87735    288.90445    -32.52282    38760.619 
  788500     302.3069   -1487.3077    488.16445    354.33818   -362.16042    38760.619 
  788600    296.99096   -1460.3088    467.53334    336.90558   -158.64598    38760.619 
  788700    299.56186   -1501.2568    457.82552    297.76012    388.85152    38760.619 
  788800    304.55827   -1482.1337    484.82826    366.25576    198.30953    38760.619 
  788900    286.54022   -1493.9979    437.55553    226.44884   -480.96981    38760.619 
  789000    302.78025   -1517.4114    443.55791    281.74721   -625.75814    38760.619 
  789100     302.4688   -1443.8468    466.67465    377.03408    11.776325    38760.619 
  789200    299.94399   -1475.7759    471.25723    338.38357   -100.93362    38760.619 
  789300    295.36848   -1515.1993    465.81382     273.0314   -18.228904    38760.619 
  789400    302.09344   -1455.8929    468.96944    365.60225     59.92437    38760.619 
  789500    292.48511   -1462.4831    454.56606     301.5905    326.06259    38760.619 
  789600    296.54564   -1491.5863    468.31466    304.41557    337.00762    38760.619 
  789700    316.32501   -1463.0196    477.18898    430.41235    463.65237    38760.619 
  789800    296.04258   -1458.6103    469.52101    336.34568    200.76439    38760.619 
  789900    302.56352   -1473.2841    457.16625    338.51245   -268.84838    38760.619 
  790000    290.18423   -1505.7318    470.53953    264.01382   -227.27231    38760.619 
  790100    304.57165   -1485.1527    465.51735    343.98572   -375.33013    38760.619 
  790200     290.2966   -1498.9661     456.5607    257.30378   -621.48033    38760.619 
  790300    287.36881   -1476.5683    447.85223    257.88488   -633.85023    38760.619 
  790400    301.76855    -1535.149    470.09954    286.02162   -279.62815    38760.619 
  790500    302.56717   -1494.8468    488.59337    348.39327   -171.26418    38760.619 
  790600    303.04762   -1512.1528    456.41035    301.05531    440.11028    38760.619 
  790700    301.68373     -1528.52    472.38051    294.55191    567.59803    38760.619 
  790800     303.9742   -1516.3576    514.94177    359.53042    350.11615    38760.619 
  790900    297.08754   -1537.8899    468.12002    260.34351    151.08843    38760.619 
  791000    296.81129    -1491.815    478.36957    315.43119    97.094616    38760.619 
  791100    296.30873   -1547.2926     471.0447    250.37862    -548.1735    38760.619 
  791200    304.77943   -1493.0543    466.23358    337.73057   -539.96576    38760.619 
  791300    303.38435   -1504.9218    474.27268    327.65627   -1057.5549    38760.619 
  791400    288.37506   -1485.7665    495.96726    301.30689   -680.11113    38760.619 
  791500    310.74582   -1496.7071    435.39739    329.95419   -355.11129    38760.619 
  791600    303.40668   -1486.8703    471.45491    342.98989    124.89895    38760.619 
  791700    293.79002   -1527.7338    477.26442    264.88044    97.406641    38760.619 
  791800    307.04644   -1502.8097    482.83833    354.72978    318.24549    38760.619 
  791900    292.29113   -1469.4183    506.88161    346.10233    120.42448    38760.619 
  792000     291.5316   -1492.3041    482.35317    295.28753    127.07897    38760.619 
  792100    296.07364   -1529.2604    467.71903    264.03265    62.842432    38760.619 
  792200    297.59082   -1529.7532    460.58077    263.19422    22.164508    38760.619 
  792300    306.15283   -1531.9022    474.82612    313.62428     304.4615    38760.619 
  792400    286.43898   -1479.7713    487.29656    289.96317    164.37208    38760.619 
  792500    295.12556   -1451.0856    460.85367     331.0973   -282.32579    38760.619 
  792600    295.42508   -1466.5472    497.73324     353.8563   -66.957194    38760.619 
  792700     298.7264     -1466.93    484.61103    355.13186    284.97717    38760.619 
  792800    308.83097   -1466.5168    475.54245    391.71652   -95.992932    38760.619 
  792900    292.90091   -1496.6693    484.14778    298.84761   -419.73739    38760.619 
  793000     297.3136   -1471.7455    502.27431    361.65432   -649.36932    38760.619 
  793100     301.0746   -1466.2508    476.50625    358.21966   -955.04589    38760.619 
  793200    296.98501   -1495.6539    504.25965    338.26016    -749.6142    38760.619 
  793300    291.67307   -1442.6742    476.05959     339.2573   -593.40144    38760.619 
  793400    292.69346   -1483.5931    479.72225    306.56947   -139.62821    38760.619 
  793500    302.23471   -1495.3153     467.4115    325.25439    100.78112    38760.619 
  793600    301.50005   -1484.9583    464.95254    329.86324   -385.39012    38760.619 
  793700    293.01491   -1473.3508    481.51805     320.0468   -535.46932    38760.619 
  793800    297.89181   -1467.2869    458.36956    324.79693   -318.11632    38760.619 
  793900    295.03051   -1467.8223    494.77489    347.85635   -476.30341    38760.619 
  794000    313.17694   -1472.7504    461.89645    391.29452   -347.26775    38760.619 
  794100    301.72878   -1477.4066    452.11884    325.60527   -461.96036    38760.619 
  794200    301.22484   -1468.5618    489.17913    369.25416   -81.305097    38760.619 
  794300     293.5829   -1482.8358    501.91833    333.50506    29.136251    38760.619 
  794400    298.71621   -1461.6769    492.66901    368.39736   -83.168791    38760.619 
  794500    309.64887   -1469.7348    470.69439    387.31231   -79.778385    38760.619 
  794600    296.62813   -1476.2984    478.54707    330.30519   -257.39297    38760.619 
  794700    308.24319   -1496.1944    466.15611    350.02092   -493.05072    38760.619 
  794800     288.7955   -1471.2328    462.56242     284.3181   -484.15883    38760.619 
  794900    308.95176    -1460.163    463.83704    386.90571   -181.27284    38760.619 
  795000     301.2056   -1495.6434    491.16064    344.06797   -174.24193    38760.619 
  795100    309.19365   -1473.0233    462.82506    374.11637   -199.57426    38760.619 
  795200    308.74071   -1461.6373    460.68904    381.33847    117.80347    38760.619 
  795300    310.72203   -1471.1826    483.19606    403.17093    207.28784    38760.619 
  795400     291.4774   -1469.2911    492.98368    328.68838    169.80489    38760.619 
  795500    297.61021   -1451.3407    475.57754    356.69031   -210.05688    38760.619 
  795600    282.28732   -1429.3668    483.32445    317.80787   -586.00381    38760.619 
  795700    300.77093   -1435.0547    475.11328    386.66319   -87.119313    38760.619 
  795800    304.20397   -1442.8726    471.06549    390.16787    639.07113    38760.619 
  795900    293.69808   -1443.0099    473.52916    345.45749    28.171421    38760.619 
  796000    301.45309   -1469.8746    450.37402    330.15813   -386.30738    38760.619 
  796100    303.78089    -1510.199    464.07327    313.95496   -338.30626    38760.619 
  796200    290.56474    -1449.772    452.64537    303.78309   -1110.8781    38760.619 
  796300    295.93743   -1443.2922    460.88905    342.56104   -604.91505    38760.619 
  796400      298.447   -1497.1251    472.50732    311.58215   -685.76295    38760.619 
  796500    290.98021   -1500.3735    463.12689    265.52316    155.46768    38760.619 
  796600    305.69392   -1477.6893    463.35647    354.31282   -96.380327    38760.619 
  796700    309.17636   -1481.7647    476.15089    378.62334    140.79773    38760.619 
  796800    298.72199   -1488.6483    459.81337    308.59614    471.28546    38760.619 
  796900    307.45059   -1504.6078    466.79335    338.69622    340.29953    38760.619 
  797000    297.82049   -1521.9163    473.30169    284.78033   -18.890053    38760.619 
  797100    300.11432   -1487.0562    453.18403     309.7927    222.94787    38760.619 
  797200    308.27978   -1541.9824    457.93127    296.17191    385.21036    38760.619 
  797300    285.57806   -1544.6031    471.67935    205.65968    828.97923    38760.619 
  797400      349.856   -1499.9606    479.48887     545.8954    1206.0139    38760.619 
  797500    302.09284   -1484.3026    500.65953    368.87997    722.32054    38760.619 
  797600    300.38101   -1495.1644    477.75391    327.44835    934.38755    38760.619 
  797700    294.34103   -1520.3993    437.11729    234.53483    723.40839    38760.619 
  797800     304.9712   -1505.7592    491.01163    350.66238    475.84229    38760.619 
  797900    291.02568   -1508.6307    435.08372    229.42645    199.80783    38760.619 
  798000    303.53492   -1507.0394    481.67251     333.6126    -384.0199    38760.619 
  798100    303.75235   -1474.1588    459.68076    345.47492   -105.67302    38760.619 
  798200    297.50765   -1503.2324    466.08932    294.85129    20.203807    38760.619 
  798300    300.74146   -1482.6648    509.12698    372.93485     72.89929    38760.619 
  798400    304.91119   -1472.3039    460.13134    352.96874    187.84535    38760.619 
  798500      289.901    -1527.339     486.9732     257.5722    369.87158    38760.619 
  798600    292.92986   -1499.9357    468.80777    280.37082   -575.15957    38760.619 
  798700    305.75789   -1536.2426    469.48809    302.17761    57.247921    38760.619 
  798800    297.20543    -1518.306    463.18116    275.51635   -194.68724    38760.619 
  798900    302.05536   -1482.2525    477.43893    347.54163    49.652725    38760.619 
  799000      302.899   -1467.7693    469.88432    358.24735   -279.08474    38760.619 
  799100    305.83625   -1518.5942    470.60328    321.29206   -712.99692    38760.619 
  799200    300.12717   -1496.8279    430.07627    276.97079   -431.06518    38760.619 
  799300    300.80549   -1482.6839    477.51488    341.59027   -409.96449    38760.619 
  799400    286.20553   -1460.8066    475.86937    296.45544   -41.662457    38760.619 
  799500    294.96322   -1500.1596    471.72551    292.16838    473.29608    38760.619 
  799600    289.22146   -1469.8824    463.59761    288.61079    919.47463    38760.619 
  799700    302.33274   -1490.0302    467.97441    331.54128    703.74359    38760.619 
  799800    290.80045   -1463.1605    484.83101    323.63556    43.918838    38760.619 
  799900     301.2296   -1503.2849    466.95407    312.32728   -70.542543    38760.619 
  800000    305.99575   -1482.7537     440.2138    327.45709    38.081713    38760.619 
  800100    300.10982   -1483.6883    475.69089     335.6473   -184.07603    38760.619 
  800200    288.17351   -1456.8749    481.78099    315.10982    56.546981    38760.619 
  800300    288.57474   -1489.3748    453.36125    255.98655    350.18147    38760.619 
  800400    297.15296   -1502.3912    459.13129    287.14635    154.16477    38760.619 
  800500    299.45501   -1475.2725    495.95083    361.39135    357.38781    38760.619 
  800600    292.30615   -1481.1837    465.97873     293.5013   -64.582003    38760.619 
  800700    304.51843   -1527.4912    451.44846    287.34015     170.2462    38760.619 
  800800    293.24707   -1512.9238    489.43469    289.42982   -353.31965    38760.619 
  800900    304.28769   -1477.8362    455.00467    339.51821   -668.08997    38760.619 
  801000     291.0012   -1506.0901    456.65139     253.4251   -665.49007    38760.619 
  801100     291.6385   -1497.2725    461.52621     269.9708    -406.8921    38760.619 
  801200    291.82336   -1511.6682    470.76512    265.64161   -356.59666    38760.619 
  801300    296.34156    -1488.636    475.08134    313.21888   -432.83565    38760.619 
  801400    307.18964   -1489.9685    448.29771    333.67146   -77.690219    38760.619 
  801500    298.41539   -1470.9149    472.13246    337.27603    325.00759    38760.619 
  801600     301.7387   -1469.2384    469.26979    350.96889       389.78    38760.619 
  801700     304.2517   -1480.4174     478.0867    359.85788     620.5841    38760.619 
  801800    296.60421   -1455.4457    481.56551    354.06926     97.69799    38760.619 
  801900    303.33581   -1421.5348    468.80855    405.36172    24.381095    38760.619 
  802000    294.73426   -1471.3794    441.50042    289.69845   -281.95049    38760.619 
  802100    289.10984   -1430.6391    465.63855    329.39531   -632.16388    38760.619 
  802200    288.18498   -1460.4423    456.01488    285.82768   -338.11925    38760.619 
  802300    285.78303   -1478.8976    489.41248    290.01597   -361.97249    38760.619 
  802400    302.59095   -1450.3658    471.71864    376.10598   -78.678102    38760.619 
  802500     304.8968   -1461.1121    449.00375    352.96852   -704.00372    38760.619 
  802600    306.45792   -1449.4213    441.80832    364.45324    161.69676    38760.619 
  802700    296.67182   -1463.7863    465.55769    330.02354   -54.509506    38760.619 
  802800     297.8732   -1482.9579    487.56262     338.2357    133.79931    38760.619 
  802900    303.57477   -1472.3407    460.09249    346.90964    722.68818    38760.619 
  803000    285.86033   -1449.4482    447.96349    278.36253    835.54814    38760.619 
  803100    309.96505   -1480.3161     494.8855    402.33773    1431.3482    38760.619 
  803200    304.36356   -1533.3718    445.25118    274.56876    1054.2729    38760.619 
  803300    296.93876   -1468.0894    467.96174    329.31964    461.68463    38760.619 
  803400    292.27274   -1427.7261    497.64325    378.47386   -4.5396913    38760.619 
  803500    302.98758   -1468.2321    460.60052    348.89741    15.397188    38760.619 
  803600    303.00077    -1461.785    459.53481     354.3378    496.70615    38760.619 
  803700    298.12134   -1432.2486    477.63695    380.13027    392.07683    38760.619 
  803800    285.95741   -1455.5582    469.61479    294.33841   -392.92092    38760.619 
  803900    308.11196   -1512.7482    455.04242    321.76593    419.62204    38760.619 
  804000    301.09399   -1526.2941    468.47798    290.23488    329.58372    38760.619 
  804100    307.41318   -1474.6879    455.56373    357.21901    231.43981    38760.619 
  804200    306.81456   -1471.5312    475.58938    377.72115   -266.59745    38760.619 
  804300    297.05651   -1444.2947    473.15331    358.83306   -567.85201    38760.619 
  804400    298.91968   -1472.5233    450.86144    316.65434    65.100448    38760.619 
  804500     313.5764   -1481.3942    497.44449    419.98725   -45.107226    38760.619 
  804600    296.51931   -1447.2671    488.24507    368.54732    -395.1612    38760.619 
  804700    293.44693   -1460.1882    465.21768    318.84327   -543.03194    38760.619 
  804800    299.59726   -1428.9834    456.31589    368.68235     -499.971    38760.619 
  804900    302.64923   -1456.6888    452.70281    351.02814   -479.64067    38760.619 
  805000     307.7163   -1453.5866    463.98349    388.09715   -283.09202    38760.619 
  805100    303.69706    -1454.366    459.52349    364.86286   -550.37442    38760.619 
  805200    286.18346   -1428.7022    481.61408    334.20583   -644.67339    38760.619 
  805300    294.44291   -1461.6636    447.42198     304.0313    -623.8471    38760.619 
  805400    309.14534   -1404.1489    482.89994    462.84933   -432.94905    38760.619 
  805500    293.47113    -1435.965     465.4245    343.38158    130.17393    38760.619 
  805600    295.52256    -1483.449     473.5732    313.23098    179.58214    38760.619 
  805700    298.50889   -1460.8627    463.15914    338.77347   -122.46921    38760.619 
  805800    306.81562    -1428.895    468.47642    413.24922    362.70754    38760.619 
  805900    294.12552   -1446.5775    486.34516    356.61957    637.29921    38760.619 
  806000    295.31853   -1412.7208    463.70658    373.17902    301.32294    38760.619 
  806100     292.8004   -1456.2924    469.85293    324.47969    258.26894    38760.619 
  806200    290.04144   -1469.6289    498.77375    327.71162   -23.589657    38760.619 
  806300    304.32075   -1451.3157     477.9318    389.11389    182.88752    38760.619 
  806400    301.23911   -1489.5807    460.80035    319.92035   -164.78912    38760.619 
  806500    310.00316   -1429.2965    464.27985    422.92228    18.627234    38760.619 
  806600    294.84836   -1438.1565    484.60004    366.53176   -180.44181    38760.619 
  806700    294.80096   -1446.2664    473.06416    346.67372   -441.28449    38760.619 
  806800    297.74043   -1484.7006    476.64809    324.98405    -707.2455    38760.619 
  806900    297.37455   -1405.3232    457.11606    383.19129   -413.44035    38760.619 
  807000    299.68649   -1470.2865    484.08389    355.54678   -348.00952    38760.619 
  807100    306.79618   -1444.6116    482.29684    411.26596   -543.62445    38760.619 
  807200    305.98957   -1402.9927    491.01393     457.9906    46.930021    38760.619 
  807300    299.55555   -1384.8426    472.43849    428.75906    325.78129    38760.619 
  807400    300.11347   -1445.4096    491.16433    389.41582    192.05075    38760.619 
  807500    293.75056   -1469.7275    472.65639    318.10203   -226.81103    38760.619 
  807600    307.57636   -1423.1335    489.26623    443.20647    108.67795    38760.619 
  807700    301.05207   -1416.2152    486.86378    418.51191   -143.17223    38760.619 
  807800    297.56856   -1471.5479    468.10242    328.82154   -44.180881    38760.619 
  807900     303.1414   -1441.9948    483.89728    399.12007   -496.83554    38760.619 
  808000    294.00191   -1468.5477    469.24631    316.99715   -843.36877    38760.619 
  808100    288.89241   -1459.7798    455.16026    288.80282   -1068.5998    38760.619 
  808200    312.94886   -1424.0238    487.40399    464.50751   -144.99005    38760.619 
  808300    295.24954     -1489.46    460.53363    292.95797    293.43574    38760.619 
  808400    305.34625   -1468.3788    481.27448    379.98482    468.83456    38760.619 
  808500     294.5831   -1431.0167    468.97432    356.85825    355.28166    38760.619 
  808600    309.72101   -1398.6496    449.76779    437.79388    485.94759    38760.619 
  808700    308.22679   -1481.2081    468.09907    366.87677    160.46784    38760.619 
  808800    288.63857    -1487.624    466.63663    271.29852   -327.68674    38760.619 
  808900    298.46612   -1512.6985    460.82759    284.41462     158.9111    38760.619 
  809000    297.20765   -1480.5993    457.25049    307.30237    333.30449    38760.619 
  809100    299.73338   -1451.2452    481.56767    372.28173     311.5402    38760.619 
  809200    296.60045    -1462.265    468.83766    334.50525   -27.284884    38760.619 
  809300    302.00773   -1464.7936    469.11067    356.45909   -172.43628    38760.619 
  809400    306.79911   -1471.1494    489.56933    392.01379    9.7005139    38760.619 
  809500    296.05214   -1488.0849    467.20644    304.59933    144.81888    38760.619 
  809600    310.14593   -1493.5732    465.79825     360.8032    251.04945    38760.619 
  809700    308.14765   -1453.8183    462.12955    387.94279   -488.58083    38760.619 
  809800    302.83677   -1462.7992    470.00876     363.0633   -132.58483    38760.619 
  809900    295.12555   -1510.3277    477.37361    288.37512   -134.76695    38760.619 
  810000    295.16171   -1487.0258    470.06258    304.52793   -181.21887    38760.619 
  810100    298.53204   -1462.8813    465.91833    339.61773    29.569858    38760.619 
  810200    303.84866   -1471.3157    480.47955    369.54798    43.525208    38760.619 
  810300     295.7481   -1495.0531    468.24558    297.30892    93.418588    38760.619 
  810400    304.21181   -1467.2774    475.27244    370.00511    1018.0648    38760.619 
  810500    308.27579   -1435.2569    480.86873    425.81703    794.01389    38760.619 
  810600    296.34525   -1459.9099      462.346    329.22612    537.45941    38760.619 
  810700    298.00983   -1478.2216    477.46209    333.48318    613.38282    38760.619 
  810800    293.25676   -1500.4948    452.29769    264.76523   -134.55114    38760.619 
  810900    286.70128    -1472.156    495.59983    307.05613    143.25388    38760.619 
  811000    295.65485    -1478.876    464.61662    309.43956    198.85319    38760.619 
  811100    291.91657   -1448.7899     489.9829     348.1551   -179.57663    38760.619 
  811200    297.64969    -1457.509    488.09686    363.21806   -537.53963    38760.619 
  811300    298.35234    -1467.673    478.43688    346.54005   -96.752613    38760.619 
  811400    308.41766   -1495.7533    458.61023     343.6973     327.5021    38760.619 
  811500    303.25246    -1500.987    480.49319    337.22105    139.41745    38760.619 
  811600    298.57638   -1478.2802    463.69404    322.19307    223.06394    38760.619 
  811700    293.37812   -1449.7808     478.2207    341.94562   -29.645313    38760.619 
  811800    295.76448   -1400.8586    492.15527    415.48648    354.47636    38760.619 
  811900    298.61466   -1436.4916    491.41002    391.86902    492.31267    38760.619 
  812000    290.82916   -1480.0216    470.97163    293.04357    918.81282    38760.619 
  812100    305.38017   -1511.5959    475.45341    331.09855    792.66292    38760.619 
  812200    307.73113   -1489.4344    476.24829    364.58053    1137.4199    38760.619 
  812300    292.40868   -1463.1674    479.93668    325.93466    653.75965    38760.619 
  812400    307.87798   -1464.6699    466.52109    380.27537   -280.93534    38760.619 
  812500    295.68188   -1492.2738    474.25421    305.80046    135.92409    38760.619 
  812600    294.00501   -1485.9736    483.67429    314.01307     103.6402    38760.619 
  812700    304.08841   -1453.6133    469.64942    377.49368    127.61059    38760.619 
  812800    295.26221   -1485.7837    481.24745    317.40485    10.668021    38760.619 
  812900    310.96809    -1460.008    468.16156    400.41266   -369.73714    38760.619 
  813000    306.13377   -1468.2218    484.15708    386.55028    -160.0578    38760.619 
  813100    305.60565   -1473.3689    465.67329    360.55486    -537.9975    38760.619 
  813200    296.93599   -1472.7778    469.16583    325.82289   -68.899297    38760.619 
  813300    294.80908   -1491.7831    441.89431    270.02356   -168.38208    38760.619 
  813400    310.92084   -1526.4445    457.55861     323.1617   -206.97341    38760.619 
  813500      290.825   -1469.2286    467.72747    300.57378   -434.38077    38760.619 
  813600    295.30208   -1511.4044    448.33015    259.04535    58.865043    38760.619 
  813700    291.79414   -1495.9439    466.45676    276.92677   -218.44662    38760.619 
  813800    298.39573   -1461.5816    480.47167    354.86044   -316.49772    38760.619 
  813900    302.72736    -1504.982    458.05045    308.43237   -242.91504    38760.619 
  814000    295.03411   -1496.5936    444.31916     268.6454   -523.63637    38760.619 
  814100    318.79224   -1519.8551    484.10816    391.54228    354.56362    38760.619 
  814200    297.24663   -1527.0767    450.67468    254.42362    197.82086    38760.619 
  814300    307.66102   -1543.2245    457.50723    291.73543    260.47253    38760.619 
  814400    288.84131   -1496.9174    486.70519    282.98135       90.967    38760.619 
  814500    319.31835    -1521.564    483.29126    391.37197    183.21426    38760.619 
  814600     311.8576   -1487.5514    469.55453    378.24475   -157.70043    38760.619 
  814700    294.48708   -1481.0664    470.78594    308.19024    202.90413    38760.619 
  814800    303.08494   -1461.1166    494.79083    390.63911   -111.78051    38760.619 
  814900    305.58551   -1501.8896    470.52825    336.79905    145.38805    38760.619 
  815000    302.03603   -1508.8478    500.29481     343.7157    120.18366    38760.619 
  815100    297.57053   -1509.6786    473.27164    295.86889    883.05472    38760.619 
  815200    294.50301   -1526.8527    482.82662    274.51598    649.95672    38760.619 
  815300    300.56527   -1490.1925    472.19698    327.68834    400.64147    38760.619 
  815400     292.4686   -1533.0365    452.47022    228.86727    117.25526    38760.619 
  815500    303.34219   -1544.3299    491.16451    304.95116     462.4588    38760.619 
  815600    296.70956   -1511.1729    460.15703     277.4053    369.38153    38760.619 
  815700    307.34184   -1498.3117    452.39469    330.10678     262.3371    38760.619 
  815800    300.20331   -1509.9073     490.7027    324.85868    14.175847    38760.619 
  815900     301.4645   -1502.8257    493.83858    340.72269     505.2298    38760.619 
  816000    309.60763   -1508.7502    466.94019    344.35801     215.8649    38760.619 
  816100    291.85337   -1489.5496    475.54195    292.67145   -447.36307    38760.619 
  816200    304.55072   -1479.3607    483.09653    367.26323   -139.10719    38760.619 
  816300     297.3813   -1479.0649    480.01533    332.37904    491.70388    38760.619 
  816400    296.42418   -1514.9868    450.41577    262.57238     34.34348    38760.619 
  816500    284.29708   -1520.6505    490.42315    242.62088   -678.91159    38760.619 
  816600    299.55582   -1503.7915    492.23107    329.60393    414.93481    38760.619 
  816700    304.29236   -1495.7078    482.23313    348.89602   -138.78214    38760.619 
  816800    306.73869   -1498.6185    483.45477    358.15951   -33.444654    38760.619 
  816900    301.50722   -1508.5278     474.3601    315.73339    -164.3114    38760.619 
  817000    301.70906   -1510.7169    468.02429    308.11216   -100.70471    38760.619 
  817100    292.42476   -1465.2368    479.85758    323.85807     -637.666    38760.619 
  817200    296.04366   -1513.8761    433.32182    244.88549   -562.97989    38760.619 
  817300    294.50532   -1514.6423    474.18853    278.09859   -301.73428    38760.619 
  817400    288.87802   -1520.5161    471.73048    244.57229   -167.94392    38760.619 
  817500    307.56956   -1493.4747    475.13352    358.70214    62.486317    38760.619 
  817600    299.80982   -1485.6498    462.10857    318.76033    60.161776    38760.619 
  817700    313.22618   -1514.1631    451.81836    340.02418    101.96485    38760.619 
  817800    298.67264   -1496.0487    460.86198    302.02341    -124.9975    38760.619 
  817900    304.14577   -1471.4055    470.30309    360.61198   -44.770604    38760.619 
  818000    291.88409   -1465.4183    486.09472    327.49308   -266.55377    38760.619 
  818100    305.51879   -1497.1058    464.00213    334.75795   -559.01344    38760.619 
  818200    309.10262   -1465.4479    485.48261     403.9418   -1061.6212    38760.619 
  818300    294.09469   -1444.1517    500.93481    373.49704   -501.13335    38760.619 
  818400    300.09279   -1430.1878    484.09802    397.47871   -320.38325    38760.619 
  818500    305.75478   -1454.2987    470.48337    385.10288   -885.76411    38760.619 
  818600      308.461   -1428.2803    492.78638    445.54054   -452.58205    38760.619 
  818700    303.23181    -1420.587    479.77041     416.8058    235.43848    38760.619 
  818800    292.54876   -1483.9536    480.40358    306.24246   -23.690232    38760.619 
  818900    297.89428   -1501.8296    476.13779    308.03349    281.86405    38760.619 
  819000    294.37161    -1511.394    498.61272     305.1725    302.81555    38760.619 
  819100    292.51297   -1504.7077    457.68939    262.61391   -237.59949    38760.619 
  819200    306.03684    -1518.799    473.19717    324.57917    366.65085    38760.619 
  819300    296.43534   -1507.6179    482.25617    301.83161    629.44595    38760.619 
  819400    292.71691   -1507.2958    501.28321    304.53271    372.78489    38760.619 
  819500     312.0623   -1489.9969    464.02364    371.18481    482.02367    38760.619 
  819600    290.14852   -1507.5117    487.71154      279.246    96.296328    38760.619 
  819700    298.39033   -1469.1113    467.37709    334.21204    263.67743    38760.619 
  819800    297.79773   -1515.9944    468.65457    285.95324    205.29459    38760.619 
  819900    298.46739    -1510.143    456.19233    282.34052    643.58312    38760.619 
  820000    296.92553   -1506.2853    496.05307    319.15588   -141.36557    38760.619 
  820100    306.40703   -1521.6562    447.31668    297.49884    203.97169    38760.619 
  820200    296.03458   -1500.5302    485.50016    310.36911     -332.992    38760.619 
  820300    299.75064   -1509.8962    471.36386    303.50429   -615.12719    38760.619 
  820400    304.38028   -1505.9348    494.16725     350.9967   -339.24202    38760.619 
  820500    304.68206   -1492.8559    436.38592    307.64545   -161.92016    38760.619 
  820600    299.76516   -1511.8267    499.02946    329.30435   -443.28304    38760.619 
  820700    298.28216   -1537.6641    467.44229    265.24018   -464.92441    38760.619 
  820800    302.65506   -1557.4652    453.67774    251.25275    21.141817    38760.619 
  820900    296.30988   -1563.7177    488.59272    251.50668   -265.03019    38760.619 
  821000    286.35311   -1508.5237    461.29221    234.82197    198.78639    38760.619 
  821100     305.6955   -1522.2446    460.66407    307.07221   -324.99329    38760.619 
  821200     300.3677   -1494.9709    486.73424    336.56261   -33.214457    38760.619 
  821300    305.80572   -1479.6376     470.9211     360.4298   -380.85404    38760.619 
  821400    296.77002   -1522.9519    435.00863    240.74852   -419.32653    38760.619 
  821500    304.51335   -1520.0087    488.31742    331.66875   -404.99254    38760.619 
  821600    299.16404   -1506.4687    464.77311    297.71469   -393.18816    38760.619 
  821700    308.16628   -1543.0086    445.32673    282.03299   -203.78375    38760.619 
  821800    292.92587   -1516.7648    455.47064    250.18677   -420.66081    38760.619 
  821900    294.45778   -1527.4554    464.34547    255.22957   -279.23334    38760.619 
  822000    296.82057   -1494.7123    465.30737    299.51315    526.66093    38760.619 
  822100    301.68537   -1514.0982    503.58998    340.19051    333.52058    38760.619 
  822200    312.56443   -1511.0067    468.37968     356.7792    888.40778    38760.619 
  822300     291.7731   -1490.2107    475.83627    291.94533    599.79808    38760.619 
  822400    299.97117   -1491.4832    472.59649    324.13721    675.31708    38760.619 
  822500    295.75112   -1529.5459    480.60193    275.18611    15.342904    38760.619 
  822600    302.21537   -1501.5913    468.30001     319.7803    43.802624    38760.619 
  822700    300.25905   -1495.2191    472.20055    321.29426   -73.498564    38760.619 
  822800    304.17352   -1500.4347    461.21492    322.61886   -363.42894    38760.619 
  822900     303.3837   -1496.1613    491.60309    353.74423   -281.64258    38760.619 
  823000      311.291   -1523.9054    458.53752    328.33693    340.26504    38760.619 
  823100    295.78079   -1536.8438    452.87656    240.29568    284.93217    38760.619 
  823200    304.72629   -1518.5389    499.36733    345.14192    576.96627    38760.619 
  823300    307.94955   -1527.0121    461.91553    313.64799    407.35374    38760.619 
  823400    305.48787   -1538.4179    467.61829    296.92359    193.60907    38760.619 
  823500    291.73931    -1505.448    477.06705    277.78747    355.57505    38760.619 
  823600    305.31234     -1518.74    498.07115    346.26846    578.08531    38760.619 
  823700      311.262   -1485.9744    460.95221    368.55284    228.61711    38760.619 
  823800    298.31309    -1497.307     488.3332    326.62658    2.6801054    38760.619 
  823900    302.54951   -1506.5007    460.20841    308.27528    482.14338    38760.619 
  824000    306.98885   -1449.6928    481.10036    405.85088   -366.41841    38760.619 
  824100    295.83762   -1480.8519    474.22562    317.89097    61.135813    38760.619 
  824200    298.19006   -1479.4126    459.58492    315.22186    28.257725    38760.619 
  824300    306.78995    -1471.656    485.28292    387.17975    129.59005    38760.619 
  824400    304.67292   -1428.8855    457.97126    393.16027   -148.71335    38760.619 
  824500    305.58471   -1449.5667    506.45038    425.04038   -226.39262    38760.619 
  824600    304.54952   -1474.0857    479.26436    368.70069   -748.06038    38760.619 
  824700    298.93414   -1466.0934    479.17877    351.46633   -600.48636    38760.619 
  824800    308.15214   -1531.7649    458.34556    306.23221   -92.844471    38760.619 
  824900    300.38062   -1480.7261    455.96338    320.09439    131.76366    38760.619 
  825000    302.53904   -1500.5215    485.14071    339.13996    8.4356576    38760.619 
  825100    303.19467   -1506.6107     454.1036    304.94895    14.775121    38760.619 
  825200    298.84554   -1524.3615    449.41006    263.03288   -229.99405    38760.619 
  825300    303.63632   -1533.0554    468.06495    294.44304    -151.1228    38760.619 
  825400     307.8491   -1480.4023    472.82678    370.71927   -181.20846    38760.619 
  825500    302.69002   -1482.1757     472.6676    345.68856    276.03864    38760.619 
  825600    305.09841   -1498.8173    474.22797    341.39019   -106.53859    38760.619 
  825700    298.63244   -1512.5271    465.27707    289.78019   -556.74075    38760.619 
  825800    293.82793   -1492.3774    469.13941     292.2816   -330.24463    38760.619 
  825900    293.90513   -1511.1562    467.36166    272.07071   -436.49417    38760.619 
  826000     290.4059    -1463.331    466.99554    303.86306   -290.37434    38760.619 
  826100    299.11077   -1469.0974    472.35653    342.43086    230.51043    38760.619 
  826200     294.3708   -1476.9091    478.06122     319.1022   -318.82665    38760.619 
  826300    306.69905   -1481.0601    464.64167    356.72737   -540.94483    38760.619 
  826400    301.10304   -1416.6496    493.84111    425.28301    197.58234    38760.619 
  826500    305.80544   -1436.2231    456.63642    389.55826   -150.32645    38760.619 
  826600    297.39264   -1457.6447    475.29578    349.13047   -20.096096    38760.619 
  826700     293.6402   -1519.2356    469.19575    264.63926   -25.572177    38760.619 
  826800    297.75209   -1470.4325    508.75604    371.41225    -53.16595    38760.619 
  826900    298.13832   -1477.6147    497.25591    354.45912   -11.424763    38760.619 
  827000    301.77108    -1421.055    491.80854      421.836   -241.92847    38760.619 
  827100    291.95271   -1472.1435    472.77745    307.75783    225.90718    38760.619 
  827200    290.93711   -1436.1961    498.03467    364.41544    -171.2426    38760.619 
  827300    301.47565   -1446.8994    511.33236    414.19272   -34.517203    38760.619 
  827400    298.56461   -1464.6795    486.91137    358.95843    103.58906    38760.619 
  827500     302.1777   -1475.7454    487.60928    364.76684   -178.42218    38760.619 
  827600    299.45896   -1507.4692     453.6715      286.933   -61.911599    38760.619 
  827700    304.97597   -1471.3905    505.41261    399.45337    380.57352    38760.619 
  827800    296.87789   -1483.7345    466.09289    311.53311    270.60896    38760.619 
  827900    304.13939    -1504.255    502.58602    360.01674   -55.426759    38760.619 
  828000    299.56919   -1497.9664    491.94089    335.19867   -251.08756    38760.619 
  828100    308.73714   -1476.0387    477.28298    383.51495    249.23848    38760.619 
  828200     305.9802   -1488.6188    483.06083    364.36943   -479.04035    38760.619 
  828300    304.50634   -1439.8936    486.00572    409.44081   -352.46844    38760.619 
  828400    293.02303   -1511.0461    481.03095    281.90073   -475.97294    38760.619 
  828500     306.8517   -1483.8268    507.60032    397.60283   -141.03651    38760.619 
  828600    289.66746   -1482.1987    476.88955    291.58328   -670.54869    38760.619 
  828700    293.90752   -1482.2537    482.42494     316.0471   -93.906623    38760.619 
  828800    307.90868   -1512.3668    450.56637    316.76112   -273.74035    38760.619 
  828900    302.04891   -1503.8944    499.03849     347.4704   -132.53311    38760.619 
  829000    292.67563   -1496.3476    475.98885    290.00177   -208.54689    38760.619 
  829100    306.83928   -1493.0731    469.92726    350.62781   -280.70566    38760.619 
  829200    299.98725    -1519.156    470.35465    294.29462    98.549536    38760.619 
  829300    300.13294   -1477.9001    505.62196    371.47004   -29.834328    38760.619 
  829400    292.43823   -1454.4237    464.62051    319.49448   -115.99132    38760.619 
  829500    299.96731   -1508.2493    492.91752    327.67488    466.66778    38760.619 
  829600    293.13472   -1476.0991    467.77835    304.09523   -436.12238    38760.619 
  829700    292.68329    -1503.573    471.72017    278.54202   -135.69351    38760.619 
  829800    301.93073   -1520.8903    487.37366    318.28056   -191.40301    38760.619 
  829900    299.04115    -1502.345    487.09365    323.60869   -296.89519    38760.619 
  830000    288.84684   -1458.1484    502.32727    337.39723   -348.78543    38760.619 
  830100    295.71557    -1454.202    476.69499    346.46389   -184.09071    38760.619 
  830200    299.42192   -1503.5027    515.46535    352.52749    446.11106    38760.619 
  830300    299.02654   -1512.5387     469.3452    295.60115    913.00091    38760.619 
  830400    297.92571   -1511.7025    491.89688    314.06046    369.63499    38760.619 
  830500    301.17594   -1518.4933    466.46012    296.38473    798.43556    38760.619 
  830600    292.89751   -1496.2276    487.59948    302.72574    330.51241    38760.619 
  830700    297.59385   -1529.7223    466.68424    269.34217   -156.21561    38760.619 
  830800    309.71597   -1500.1013    487.00297    373.55478   -100.40137    38760.619 
  830900    290.96073   -1473.6251    506.95597    336.01352    130.90689    38760.619 
  831000    302.10784   -1497.4945    502.83886     357.9346      51.6212    38760.619 
  831100    299.98218    -1465.956    477.03822    354.15541   -182.87863    38760.619 
  831200    300.30055   -1475.6752    495.65215    364.47552    501.71116    38760.619 
  831300    296.62205    -1503.819    480.60203    304.81241    336.36741    38760.619 
  831400    289.57254    -1465.346    475.22593    306.34734    14.080871    38760.619 
  831500    309.08411   -1492.1582    492.03785    383.70379    400.39111    38760.619 
  831600    297.27984   -1441.8791    467.86836     356.9636    353.67548    38760.619 
  831700    291.95918   -1500.2171    462.22607    269.16179    490.24326    38760.619 
  831800    290.53533   -1477.4146    494.85346    318.21685     523.8236    38760.619 
  831900    297.76923   -1497.6439    485.33941    320.86099    574.55195    38760.619 
  832000    299.23131   -1532.0151    485.72242    293.41874    255.19039    38760.619 
  832100    299.85343    -1510.611    466.11264    297.99841   -60.065033    38760.619 
  832200    302.87497   -1498.2199    474.83518    332.64001   -416.16122    38760.619 
  832300    297.55977   -1499.8441    481.26227    313.64585   -198.99434    38760.619 
  832400    301.87049   -1477.5396     480.2359    354.22382    173.83229    38760.619 
  832500    290.27121   -1470.9567    494.98643    323.62523   -88.411749    38760.619 
  832600    300.41305   -1512.0838    465.35576    298.27425   -204.19019    38760.619 
  832700     293.6173   -1514.6359    478.39812    278.33871    221.91762    38760.619 
  832800     292.2857   -1515.2866    481.89759    275.22577    124.73469    38760.619 
  832900    303.66044    -1486.233     485.7389    359.04732   -76.136926    38760.619 
  833000    304.22252   -1486.5314    489.63035    365.15694   -42.529081    38760.619 
  833100    297.67322   -1494.5404     505.2662    343.46144    592.52639    38760.619 
  833200    294.99474   -1468.6533    496.25326    348.34348    100.68515    38760.619 
  833300     294.9511   -1479.0112    484.05935    325.59634    193.92596    38760.619 
  833400    300.54906   -1474.2727    496.71241    368.05099   -573.07871    38760.619 
  833500    296.80213   -1435.3899    505.27496    398.72064   -305.38241    38760.619 
  833600    299.57601   -1508.1481    481.46937    314.57601   -625.09562    38760.619 
  833700    302.01497   -1519.1338    464.37248    297.41304   -600.91315    38760.619 
  833800    303.91539   -1523.2083    466.34479    303.81937   -959.90013    38760.619 
  833900    305.00148   -1530.4865    471.81925    306.87824   -786.38853    38760.619 
  834000    302.79943   -1516.2975    457.70028    297.08936   -233.54148    38760.619 
  834100    304.63128   -1533.8375    477.75779    307.80839   -299.65316    38760.619 
  834200    296.38072   -1485.9201    513.26878    354.29749    41.440322    38760.619 
  834300    304.28064   -1467.3705    488.20534      383.153    286.76269    38760.619 
  834400    296.00413   -1447.5369    488.71083    366.43668   -259.27914    38760.619 
  834500    298.22182   -1482.8625    476.70436    329.03369     99.99242    38760.619 
  834600    298.17138   -1526.1569    470.69545    279.50448   -572.20126    38760.619 
  834700    301.69556   -1480.3272    500.20882    370.62596   -1041.0936    38760.619 
  834800    294.40904   -1466.5029    457.15166    308.77001    -368.4986    38760.619 
  834900    301.79592   -1475.2098    498.14169    374.12553   -167.64944    38760.619 
  835000    292.06053   -1464.8912    468.71576    311.43119    119.65004    38760.619 
  835100     302.6213   -1462.1328     507.9754    400.73161   -375.86027    38760.619 
  835200    293.58386   -1455.8498    489.94863    348.52566   -561.54166    38760.619 
  835300    312.48942   -1444.6432     481.2854    435.71256   -367.06858    38760.619 
  835400     304.1818   -1466.4456    467.86828    363.29831   -278.35483    38760.619 
  835500    305.30493   -1469.6624    488.66819    385.90989   -470.11157    38760.619 
  835600    301.80493   -1442.3705    476.34324    385.20673   -162.86562    38760.619 
  835700    294.09335   -1478.6663     493.8594    331.90105   -61.124793    38760.619 
  835800    295.23706    -1529.692    465.83155    257.96807   -14.150366    38760.619 
  835900    307.27387    -1522.569    460.64062    313.79098   -433.94282    38760.619 
  836000    298.46215   -1510.3462    498.30531    324.22687   -367.10976    38760.619 
  836100    297.91765   -1501.8888    480.98028    312.92142    390.98993    38760.619 
  836200    292.66102   -1503.0105    486.70075     293.9853    347.46615    38760.619 
  836300    309.44975   -1478.6243    482.45817     389.2951     819.4585    38760.619 
  836400    309.07373    -1506.786    471.32439    348.31605    360.62166    38760.619 
  836500    292.95089   -1518.7621    471.75997    264.59082     455.3847    38760.619 
  836600    302.40443   -1442.1645    484.35732    396.11094    361.24871    38760.619 
  836700    300.02759   -1488.6393    453.96146    308.59871    136.29115    38760.619 
  836800    289.55221   -1498.8247     492.3247    289.87642   -314.18409    38760.619 
  836900    300.29636    -1469.849    490.01145    364.64233    94.673056    38760.619 
  837000    301.81653   -1437.8038    493.56776    407.04986    -423.5342    38760.619 
  837100    313.43647   -1450.9035    517.02863    469.43561    73.395703    38760.619 
  837200    294.43081   -1459.6633    446.25622    304.81171    52.102645    38760.619 
  837300    303.33511   -1432.8972    515.97607    441.16378    44.042181    38760.619 
  837400    306.98695   -1487.6989    484.98181    371.71775   -193.58698    38760.619 
  837500    298.25178   -1455.3528    453.47703    333.45017   -112.09808    38760.619 
  837600    294.36786   -1469.1797    502.14374    350.90097   -178.14413    38760.619 
  837700    302.63907   -1494.3852    467.02887     327.6123   -205.58854    38760.619 
  837800    289.26991   -1463.6171    476.01877    307.51419    46.685587    38760.619 
  837900    295.57058   -1451.9513    473.95213    345.32256   -107.52447    38760.619 
  838000     286.4093   -1482.2821     474.1678    274.19077     -48.5176    38760.619 
  838100    295.87793   -1480.1242    490.85806    335.43169    266.10881    38760.619 
  838200    288.27904   -1488.5492    490.09698    292.22397    232.57358    38760.619 
  838300    293.86378   -1496.2002    486.59192    306.07178    361.92689    38760.619 
  838400    289.60468   -1524.5354    487.02956    259.10549   -19.671768    38760.619 
  838500    292.46174   -1515.2898    481.80731    275.92044   -293.52404    38760.619 
  838600    295.28125   -1508.7024    506.14327     319.4672    337.50196    38760.619 
  838700    308.11523   -1535.1003    456.63642    301.02246    315.98297    38760.619 
  838800      303.156   -1501.3799    501.35723    357.26037    437.65301    38760.619 
  838900    290.43239   -1533.9169    476.11614    242.51633   -280.66188    38760.619 
  839000    296.37202   -1527.4701    469.21543    268.65519   -478.68344    38760.619 
  839100      308.028   -1522.2703     479.2034    336.02887   -216.67615    38760.619 
  839200    295.27579   -1549.5027    468.97521    241.47443    174.27624    38760.619 
  839300    306.50353   -1504.3259     494.0417    361.98623   -389.52553    38760.619 
  839400    296.75933   -1495.9487     491.2122    323.90743   -128.95426    38760.619 
  839500    297.28173   -1478.0841    481.40666    334.30542   -69.877826    38760.619 
  839600    299.82215   -1468.6045    492.36108     366.1133   -450.47431    38760.619 
  839700    291.73756    -1464.651    500.18124    341.69081   -284.21124    38760.619 
  839800     311.9317   -1504.3562    481.22823    373.44543     32.60586    38760.619 
  839900    297.26511   -1473.3328    496.87816    354.45377    -369.8677    38760.619 
  840000    301.38243   -1475.6373    477.71875    351.42387    -659.6652    38760.619 
  840100    299.17875   -1514.9851    467.44165    291.93268   -786.55316    38760.619 
  840200    292.63534   -1484.6243    483.68653    309.24234   -533.93097    38760.619 
  840300    303.84443   -1457.4795    491.34835    394.23406    28.291001    38760.619 
  840400    298.12322   -1424.7518    497.95461    407.95316   -395.51682    38760.619 
  840500     302.7973    -1446.467    486.30466    395.51468   -354.41751    38760.619 
  840600    302.50186   -1448.1391      510.479    416.69415    244.06693    38760.619 
  840700    294.98081   -1469.8967    452.78612    303.57064    331.15482    38760.619 
  840800    310.84432   -1463.8579    474.96197    402.80896     447.1346    38760.619 
  840900    309.04789   -1502.4675    465.83217    347.02669    616.34498    38760.619 
  841000    312.43461   -1471.0938    485.98555    413.71668    92.044351    38760.619 
  841100    293.18943   -1494.1039     492.1177    310.67471    113.53487    38760.619 
  841200    300.95401   -1481.4745    484.04083    349.99062   -5.8356862    38760.619 
  841300    301.21875   -1460.2771    498.73579    387.06826    339.05522    38760.619 
  841400    308.18969   -1526.3175    492.16066    345.66286    554.67104    38760.619 
  841500    295.24002   -1519.5316    472.45137    274.76155   -148.64977    38760.619 
  841600     296.9332   -1491.5036      485.539    323.45783   -472.31356    38760.619 
  841700    303.02362   -1536.9064    466.57364    286.35753   -321.64765    38760.619 
  841800    309.91051   -1505.3242    474.31427    356.51421   -125.25389    38760.619 
  841900    293.33292   -1483.8723    471.27654     300.7075   -93.605209    38760.619 
  842000    288.80835    -1504.822    489.39194    277.61599   -79.107457    38760.619 
  842100    297.86972   -1469.6028    483.52034    347.53284    185.09515    38760.619 
  842200    303.06242   -1511.8506    491.28021    336.29365    192.76437    38760.619 
  842300    288.99779   -1496.4942    492.99448    290.39446     301.4302    38760.619 
  842400    291.73367   -1498.4707    469.83582     277.5083   -97.997185    38760.619 
  842500    305.63918   -1523.4648    491.81498    336.75081    -181.5495    38760.619 
  842600    299.58773   -1491.6512    502.96844     352.6244   -320.55999    38760.619 
  842700    296.80405    -1514.005    460.88978    275.72893   -220.71569    38760.619 
  842800    303.41507   -1517.6599    504.12005    344.90298     394.9778    38760.619 
  842900    300.67142   -1519.5523    471.41632    298.02307    155.24266    38760.619 
  843000    297.93862   -1538.8945    463.61088    258.64019    172.91856    38760.619 
  843100    306.52273   -1547.7937    495.74361    320.30634    321.28219    38760.619 
  843200    292.68577   -1560.3694    488.76022    238.79672   -78.185896    38760.619 
  843300    298.95707   -1499.4493    486.29838    325.33265   -580.39764    38760.619 
  843400    308.42931   -1460.7878    484.12974    404.23447   -493.38425    38760.619 
  843500    301.72214   -1478.0766    468.26303    341.04975   -629.35534    38760.619 
  843600    305.11131   -1474.5016    508.20283    399.73844   -566.93731    38760.619 
  843700     305.3138   -1502.4826    482.27514    346.73635   -370.86193    38760.619 
  843800    292.05784   -1486.9174    500.52848    321.20565   -628.79641    38760.619 
  843900    292.63179   -1498.4875    514.87325    326.55001   -158.43798    38760.619 
  844000    292.42458   -1465.2081    488.41002     332.4384     37.48803    38760.619 
  844100    293.39602   -1483.3927    495.36651    325.55962    -196.2962    38760.619 
  844200    297.99822   -1544.7743     458.0536    247.47003    193.34215    38760.619 
  844300    302.32268   -1539.1008    482.18321    296.63441   -547.21942    38760.619 
  844400    308.29921   -1512.8443    472.65858    340.12432   -395.66742    38760.619 
  844500    295.37559   -1536.4504    475.25629     261.2546    87.817936    38760.619 
  844600    294.35326   -1539.7451    456.92201    235.04849    -200.6262    38760.619 
  844700    299.99735   -1527.1773    475.76087    291.72475    463.18145    38760.619 
  844800    297.77938   -1520.5255    502.58126     315.2667    162.99284    38760.619 
  844900    304.67533   -1561.7326    470.09903    272.45173    196.89442    38760.619 
  845000    303.82634   -1529.9834    487.18767    317.48843    75.724013    38760.619 
  845100    302.87229   -1473.5323    479.34264    361.82306    94.288188    38760.619 
  845200     306.5889   -1522.7627       473.03    322.92001    508.13067    38760.619 
  845300    300.61319   -1479.8164    482.35667    348.43861    160.19101    38760.619 
  845400    291.63258   -1499.9226    482.16915    287.93713   -139.83499    38760.619 
  845500    308.00483   -1500.0519    488.27083    367.21095     367.2582    38760.619 
  845600    295.48723   -1492.1297      463.147    293.96584   -343.49266    38760.619 
  845700    309.86914   -1538.4657     498.8885     347.7617    -198.9742    38760.619 
  845800    290.75311   -1558.7024    450.32318     193.3738   -75.328173    38760.619 
  845900    303.20192   -1559.6319    488.40606    286.26274   -183.79419    38760.619 
  846000    300.24178   -1522.5098    481.17108    302.89675    -97.70133    38760.619 
  846100    306.58004    -1536.945    496.02084    331.68883    117.89159    38760.619 
  846200    305.21927   -1551.4292    471.45791    286.54929     308.1283    38760.619 
  846300    289.00438   -1567.5074    481.93536     208.3517    256.92108    38760.619 
  846400    288.52884   -1548.2099    488.55646    232.14118    268.11992    38760.619 
  846500     296.3188   -1546.1093    493.69145    274.25372    280.10102    38760.619 
  846600    295.03383   -1529.0662    491.15855    283.01101    11.680644    38760.619 
  846700    297.64132   -1532.3181     489.9435    290.21819    160.44429    38760.619 
  846800     299.6302   -1522.6817    448.97744    267.79314    -720.9595    38760.619 
  846900    304.40463   -1499.7896     482.7709    345.85466   -594.49856    38760.619 
  847000    295.78531   -1465.9549    487.31478    345.64296   -879.82048    38760.619 
  847100    299.39251   -1501.7508    490.02109    328.70347    -224.6104    38760.619 
  847200    300.99967   -1522.0402     462.7667    288.35524   -7.1396078    38760.619 
  847300    296.70542   -1496.7839    478.38654    310.00527    59.225549    38760.619 
  847400    306.62729    -1483.193    501.23823    390.86979     455.0552    38760.619 
  847500    301.81208   -1542.7742    481.08481    289.57661    182.66874    38760.619 
  847600    301.22214   -1539.2963    488.26741    297.59582   -137.06466    38760.619 
  847700    285.49634   -1530.5445    497.67393    245.34696    202.79492    38760.619 
  847800    300.30414   -1537.3977    488.21484    295.33183    11.345762    38760.619 
  847900    291.01417   -1515.3151    492.87532     280.4821    217.26243    38760.619 
  848000    295.32649   -1502.2766    488.42831    308.38065    127.55914    38760.619 
  848100    296.02279   -1522.4462    489.49009    292.39026     132.4764    38760.619 
  848200    313.31671   -1526.3674    509.84638     386.2533   -80.862871    38760.619 
  848300    286.58942   -1515.5451     487.8459    255.41226   -95.434176    38760.619 
  848400    300.37391   -1496.4251    496.79826    345.20025    557.24102    38760.619 
  848500    307.50726    -1499.626      503.349    380.48735    724.86449    38760.619 
  848600    293.67826   -1514.2317    502.51695    303.13471    744.19723    38760.619 
  848700    301.52293   -1518.7649     514.6482    345.85477    140.31631    38760.619 
  848800    302.32597   -1486.1918    474.16959    341.54455   -589.61628    38760.619 
  848900    307.83132   -1489.3834      475.182    364.01385     -926.413    38760.619 
  849000    291.88346   -1494.6474    490.47357    302.63997   -782.18432    38760.619 
  849100    299.62431   -1517.6789    482.63432    306.42641   -780.02512    38760.619 
  849200    299.80531   -1478.8089    491.99335    355.46573    74.143868    38760.619 
  849300    314.12574   -1488.4737    508.56423    426.48696    645.47267    38760.619 
  849400    294.14166   -1494.1538    497.09726    319.86762    376.36578    38760.619 
  849500    300.44892   -1488.7177     497.7776    354.22284    700.04094    38760.619 
  849600    302.62696   -1480.4413    488.33978     362.8129    1071.1678    38760.619 
  849700    300.25417   -1458.3952    493.89455    379.79031     697.3417    38760.619 
  849800    301.72602   -1480.5887    488.31939     358.6114    368.93149    38760.619 
  849900    304.37443   -1500.4717    480.04615    342.31253     -76.6525    38760.619 
  850000    296.39655   -1517.3613    485.38012    295.03861   -658.49374    38760.619 
  850100    306.53453   -1494.4801    467.12108    345.05025   -693.07842    38760.619 
  850200    303.65751   -1505.4404    476.68235     330.7703    -824.7714    38760.619 
  850300     295.8168   -1502.5987    481.95331    303.77869   -821.10405    38760.619 
  850400    305.29589   -1510.7293    478.43532    334.56964   -546.80748    38760.619 
  850500    291.10708   -1503.0665    486.03875    286.31014   -875.16921    38760.619 
  850600    308.44925   -1527.4071    503.32358    356.89831   -753.72189    38760.619 
  850700    309.86121   -1473.9791    489.50231    402.82657   -239.28053    38760.619 
  850800    295.01966   -1502.8784    496.99661    314.97336    96.807151    38760.619 
  850900    308.87544   -1506.7173    462.01754    338.19021    164.04098    38760.619 
  851000    296.46927   -1468.1294    494.07572    353.29166    -107.4113    38760.619 
  851100    300.08335   -1481.2563    479.31652    341.58639    -371.0217    38760.619 
  851200    300.80653   -1491.5268    468.36779    323.60495   -211.93585    38760.619 
  851300    315.46489   -1541.0306     457.9347    329.29618   -316.56934    38760.619 
  851400    304.76599   -1516.8442    461.46961    309.11661    -216.9607    38760.619 
  851500    300.09389   -1474.2878    474.38718    343.67269   -139.41071    38760.619 
  851600    291.77774   -1532.2783     486.7589    260.82113    50.781919    38760.619 
  851700     306.7831   -1471.9606    458.72025     360.2818    37.387753    38760.619 
  851800    307.47867   -1469.2174     475.1325    382.55142   -138.02078    38760.619 
  851900    298.23437   -1517.2317    475.03422    293.05046   -236.97749    38760.619 
  852000    295.13738   -1504.5667      465.853    282.66852   -20.845001    38760.619 
  852100    305.22458   -1508.5508    503.13994    361.13346    160.98015    38760.619 
  852200    308.50286   -1470.0037    462.72019    373.93836    74.568804    38760.619 
  852300     295.0521   -1473.7341    451.61835    298.88465   -423.28199    38760.619 
  852400    302.43975   -1456.3199    490.37762    388.13395   -606.35142    38760.619 
  852500    300.99316   -1477.6764    462.99914    332.92232   -921.88357    38760.619 
  852600    288.09583   -1520.9852    468.97373    237.84446   -395.37826    38760.619 
  852700    307.60712   -1499.4382    474.79322    352.56648     -389.374    38760.619 
  852800    300.63311   -1495.0237    467.19804    318.16191   -162.47005    38760.619 
  852900    295.65523   -1505.1215    473.38848    291.96773   -39.974679    38760.619 
  853000    300.14468   -1495.9129     486.4563    334.34415   -1.1499729    38760.619 
  853100    292.32879   -1497.7793    472.69035    283.71873   -124.10299    38760.619 
  853200    290.94409   -1466.6648    463.84429    299.78758    52.201327    38760.619 
  853300    299.85355   -1461.6469       488.94    369.79042    471.29479    38760.619 
  853400    297.56993   -1466.0742    453.71671     319.9157    691.97846    38760.619 
  853500    299.26872   -1484.8938    497.49791    352.48309    292.80555    38760.619 
  853600    299.84222   -1467.2538    503.73452    378.92734    437.46448    38760.619 
  853700    306.35064   -1491.4533    479.64671    359.77936    598.67742    38760.619 
  853800    296.55656    -1427.226    458.15442    358.66451    42.156508    38760.619 
  853900    295.81381   -1452.1129    487.70416    360.00193     452.4426    38760.619 
  854000    296.70657   -1461.2995    455.15128    322.25951    168.29986    38760.619 
  854100    299.05363   -1460.6397    456.95851    335.23473    263.87413    38760.619 
  854200    311.05178    -1475.186    490.88418    408.33194   -37.364132    38760.619 
  854300    295.80262   -1472.9031    482.94018    334.39764    125.16488    38760.619 
  854400    294.26642    -1494.247    472.32654    295.56231   -278.15035    38760.619 
  854500    307.56977   -1498.0495    472.55027    351.54501   -324.75632    38760.619 
  854600    303.20458    -1503.997    475.33357    328.83702   -291.17993    38760.619 
  854700    293.89286   -1511.7394    476.86115    280.93201    695.99087    38760.619 
  854800     304.1934   -1504.5413    454.70763    312.09395     379.1968    38760.619 
  854900    297.68394   -1499.9451     508.4794    341.31787    575.70578    38760.619 
  855000     298.7149   -1502.3877    505.64278    340.65446    441.11406    38760.619 
  855100    305.39571   -1527.8709    454.59042    294.03008    344.24836    38760.619 
  855200    303.81871   -1498.5767    480.58305    342.25644     408.2179    38760.619 
  855300    295.32722   -1496.9378    503.96206    329.25637    469.44291    38760.619 
  855400    294.42639   -1531.0848    477.04846    264.16269   -85.268891    38760.619 
  855500    305.32292   -1538.1779    461.70085     290.5076   -9.6216895    38760.619 
  855600    298.24119   -1524.3538    474.06936    284.99401   -640.02481    38760.619 
  855700    305.52426   -1539.3256    473.54714    302.10761   -680.62176    38760.619 
  855800     301.2499     -1545.08    457.28151    260.95052   -907.00904    38760.619 
  855900    304.74318   -1496.7094    464.11103    331.79071   -864.91869    38760.619 
  856000    302.38823   -1472.9401    496.84428    377.74972   -377.41787    38760.619 
  856100    300.62573   -1480.9758    451.64491    316.62366   -527.85865    38760.619 
  856200    302.67809    -1480.191     471.0374    345.98973   -122.31373    38760.619 
  856300    298.37761    -1457.536    499.43125    377.78454    -766.6756    38760.619 
  856400    294.06435   -1459.3148    495.95271      353.216    46.933286    38760.619 
  856500     300.1481   -1525.3314    481.08041    299.56511    116.25861    38760.619 
  856600     310.8939   -1507.5257    479.93746    364.33863   -324.36587    38760.619 
  856700    296.37801   -1526.8561    495.94102    296.02163   -904.10097    38760.619 
  856800     304.4054   -1503.0055    478.97881    338.85003   -473.78897    38760.619 
  856900    291.83046   -1511.9709    447.11271    241.71839   -1146.9898    38760.619 
  857000    304.47416   -1541.1872    502.41658      324.414   -840.46129    38760.619 
  857100    298.70764   -1498.1991    457.11024    296.27796   -793.36355    38760.619 
  857200    303.59203   -1531.9236    470.31087    297.62238    -324.8762    38760.619 
  857300    298.06336   -1509.3946    477.44955    302.53729    -692.6356    38760.619 
  857400    287.05218    -1526.435    466.66317    225.41154   -77.333186    38760.619 
  857500    300.16444   -1526.7536    481.72204    298.85772     154.1951    38760.619 
  857600    292.54538   -1542.2124    477.97286    245.53779    62.217129    38760.619 
  857700     299.8779   -1523.8018    452.25296    271.05747    613.27173    38760.619 
  857800    304.22937   -1506.5024    486.72336    342.30959    334.35715    38760.619 
  857900    292.58279   -1522.1599    497.12641    284.91138    107.49954    38760.619 
  858000    301.91493   -1472.7888    472.68725    351.62496    456.04704    38760.619 
  858100    311.84425   -1476.2553    487.37575    407.30231    318.65191    38760.619 
  858200     298.2698   -1472.3099    503.85797    366.95464     618.5453    38760.619 
  858300    292.53394   -1436.9636    491.04943    363.81196    153.26796    38760.619 
  858400    291.77171   -1456.1638    491.13106    341.28071    245.29565    38760.619 
  858500    293.52049   -1514.2339    492.67598    292.58517   -19.623217    38760.619 
  858600    301.32788   -1482.0264    462.32482    329.39654    255.91153    38760.619 
  858700    294.82116   -1483.2377    479.66288    316.39166   -373.55622    38760.619 
  858800    300.36714   -1479.8152    487.31811    352.29966   -115.17172    38760.619 
  858900    304.70527    -1481.179    500.20148    383.24184    99.929977    38760.619 
  859000     296.9827    -1482.225    474.30154    321.72052   -34.430279    38760.619 
  859100    287.60666   -1533.2655    478.35713    232.75748   -848.04925    38760.619 
  859200    303.38975   -1526.9457    468.81703    300.20087   -357.90354    38760.619 
  859300    301.45141   -1556.9907    481.36379    274.02432   -212.76776    38760.619 
  859400     291.2253   -1515.6153    497.14637    285.39816   -62.114276    38760.619 
  859500    308.73525   -1523.9069      512.378    370.73338   -139.32202    38760.619 
  859600    297.22654   -1476.9875    481.26979    335.01805    43.393537    38760.619 
  859700    306.10234    -1474.671    471.27309     367.0764    302.91181    38760.619 
  859800    284.22432   -1539.9481    509.55653     242.1309   -428.30382    38760.619 
  859900    299.59011   -1517.5895    455.86834    279.59668   -150.89941    38760.619 
  860000    307.63054   -1538.6427    482.13948    320.81304   -259.34745    38760.619 
  860100    309.41105   -1541.3302    489.60764    333.56542   -180.62915    38760.619 
  860200    294.70096   -1556.9521    461.17634    223.65246   -473.87554    38760.619 
  860300    303.14935   -1559.9006    462.23599    259.58856   -390.77908    38760.619 
  860400    294.93054   -1536.2081    496.64776    280.89578    59.413331    38760.619 
  860500    300.48263   -1541.9675    488.85402    292.20032    -32.09887    38760.619 
  860600    291.51851   -1570.7749    465.82879    200.23382     262.2223    38760.619 
  860700    302.56444   -1562.2966    486.32987    278.66772    29.499812    38760.619 
  860800    300.56962   -1523.8158    484.05483    305.94233    217.60163    38760.619 
  860900    307.21459   -1515.1097    459.16064    319.50492    378.34915    38760.619 
  861000    290.89854   -1572.7966    463.86452    193.47211    113.43746    38760.619 
  861100    310.61043   -1555.9112    471.46449    306.21112    361.12304    38760.619 
  861200    304.68036   -1538.1973    496.98681    322.89736   -31.747462    38760.619 
  861300    293.50823   -1511.7454    461.74478    264.08754   -216.35966    38760.619 
  861400    301.37853   -1507.3279    498.46581    340.46287   -149.78011    38760.619 
  861500    291.78617   -1546.5863    460.81268    220.60465   -124.70678    38760.619 
  861600    302.75001   -1522.2367     526.4609    359.68949   -119.96577    38760.619 
  861700    298.55104   -1557.0876    471.98289    251.56103    636.36115    38760.619 
  861800    300.36028   -1562.7385    534.83694    316.86452    181.40765    38760.619 
  861900    296.67505   -1540.5769    462.78358    250.47325     68.24906    38760.619 
  862000    303.56666   -1533.0861    472.31404    298.34946    287.26726    38760.619 
  862100    290.41831   -1550.5632    480.54378    230.23471    299.59786    38760.619 
  862200    303.28452   -1533.0481    470.60463    295.41497    222.64279    38760.619 
  862300    305.39069   -1506.3999    491.39621    352.28439    132.26714    38760.619 
  862400    292.75548   -1494.3381     503.9816    320.36157   -511.07541    38760.619 
  862500     292.6672   -1521.3002    478.27322    267.29577   -217.66564    38760.619 
  862600    293.93361   -1494.1414    487.35261    309.20391   -281.57967    38760.619 
  862700    296.37243   -1485.8069    494.17595    335.28085    131.47358    38760.619 
  862800    307.61828   -1520.2247    496.00769    353.04437    366.91889    38760.619 
  862900    289.96417   -1525.4725    491.73839    264.48671    538.01007    38760.619 
  863000    308.60793   -1494.5927    483.47108    370.57067    92.082859    38760.619 
  863100    300.82443   -1479.9059    467.90128    334.83952     15.15348    38760.619 
  863200    305.36667   -1502.8281    504.87745     369.2299    238.14746    38760.619 
  863300    296.14184   -1482.8213    470.64422    313.70223    89.037347    38760.619 
  863400     306.5791   -1521.8501    475.74984    326.50854     451.3169    38760.619 
  863500    300.85794   -1528.0579      476.996    295.93227    383.73894    38760.619 
  863600    302.12742   -1551.3834    471.33379    272.62825     620.2119    38760.619 
  863700    296.95528   -1494.3501    480.34569    315.51685    278.13888    38760.619 
  863800    300.42529   -1511.5469    472.56844    306.07864    40.861634    38760.619 
  863900     296.4193   -1504.9134      476.978    299.18619    404.17706    38760.619 
  864000    316.73111   -1520.7556    454.25708    351.56258     797.4788    38760.619 
  864100    302.49868   -1532.4105    491.62473    313.55425    -131.6525    38760.619 
  864200    295.46599   -1526.4529    450.78997    247.19049    152.22232    38760.619 
  864300    300.88059   -1510.6851    486.69247    323.10298    196.91653    38760.619 
  864400     311.4934   -1514.3486    484.24018    364.50261    32.904737    38760.619 
  864500    312.07213   -1498.3519     474.7439    373.59402   -205.94209    38760.619 
  864600    295.64723   -1563.2712    437.48107    197.87481    102.29513    38760.619 
  864700     305.9822   -1563.0052    480.52532    287.45648    117.27582    38760.619 
  864800    284.92634   -1539.3889    472.67305    208.94974   -193.34554    38760.619 
  864900    297.29856   -1554.5174    462.48748    239.02826   -130.12516    38760.619 
  865000    297.37496   -1521.8468    453.86897    263.42243   -81.565363    38760.619 
  865100    303.13019   -1526.7941    494.91229    325.28564   -33.642246    38760.619 
  865200    299.63823   -1560.7258    445.71948    226.52696   -240.29148    38760.619 
  865300    306.47036   -1573.1986    497.37988    296.30323    205.57202    38760.619 
  865400    296.47218   -1531.2696    482.34928    278.43799   -34.489071    38760.619 
  865500     288.8356    -1523.573    490.33159    259.92664   -683.72478    38760.619 
  865600    308.27084   -1499.8648    478.48439    358.80256   -1269.7025    38760.619 
  865700    300.48337   -1480.2139    464.75534    329.85858   -1192.7669    38760.619 
  865800    299.82367    -1546.998    476.70356    272.06913   -764.27724    38760.619 
  865900    299.91755   -1547.5906    480.26452    275.45775   -573.07845    38760.619 
  866000    303.46295   -1551.5129    476.94027    284.08463   -373.87643    38760.619 
  866100    295.20188   -1547.1371    460.07872    234.61264   -207.66399    38760.619 
  866200    304.83764   -1508.6855    470.36182    326.48829   -290.75359    38760.619 
  866300    295.67712   -1477.3264    476.00337    322.47568    195.65102    38760.619 
  866400    298.14934   -1545.5775    458.22181    247.51161   -448.90749    38760.619 
  866500    300.04316   -1535.7134    469.45082    277.08365    -578.9935    38760.619 
  866600    299.24055   -1497.5613    489.79681     331.9883   -901.02031    38760.619 
  866700     300.2664   -1488.6891    484.94409    340.60068   -332.35504    38760.619 
  866800    300.77179   -1499.2197     483.3047    330.69348   -879.52496    38760.619 
  866900    306.92902   -1438.8657    484.44172    419.75149   -497.49852    38760.619 
  867000     305.3541   -1495.9514    473.80638    344.97921    8.1099775    38760.619 
  867100    303.99449   -1496.6779     474.7126    339.07178    162.41734    38760.619 
  867200    301.57614    -1478.404    491.82417     363.6298    25.996555    38760.619 
  867300    296.71656   -1470.8112    496.09471    353.73601    8.1388765    38760.619 
  867400    297.01918   -1491.9479    476.36654    314.22598   -309.03108    38760.619 
  867500    308.32326   -1454.5935    473.68786    399.51205    119.27497    38760.619 
  867600    294.29269   -1454.6055     481.4463     344.4412   -131.69784    38760.619 
  867700    311.65716   -1484.8229    501.47435    411.99562    90.376248    38760.619 
  867800    295.60754   -1479.0718    452.86347    297.27881   -123.64023    38760.619 
  867900    303.19774   -1454.4822    495.79906    398.78668   -213.78594    38760.619 
  868000    313.44113   -1495.2701    480.36752    388.42872    81.408236    38760.619 
  868100    298.67316   -1450.0114    469.47465     356.6758   -428.14159    38760.619 
  868200    306.87113    -1468.667    481.64221    386.89149    357.53021    38760.619 
  868300    292.30199   -1459.6379    498.15789    347.20765   -61.749575    38760.619 
  868400    291.42009   -1415.9793    509.33308      398.093    23.111751    38760.619 
  868500     292.0437   -1464.1014    475.41073    318.84056   -21.182067    38760.619 
  868600    293.43255   -1460.7334    480.81321     333.8292   -87.368802    38760.619 
  868700     310.1968   -1465.6109    484.80671    408.00173   -31.838366    38760.619 
  868800    299.93071   -1462.5871    508.00308    388.25873     291.2197    38760.619 
  868900    301.30232   -1435.5402    473.13419    386.57776    482.58626    38760.619 
  869000    298.93717   -1478.1607    490.89469    351.12853    116.61506    38760.619 
  869100    309.19596   -1474.1185    482.57357    392.78005    382.79158    38760.619 
  869200    290.40855   -1479.6277    502.22711    322.80982    102.52182    38760.619 
  869300    298.37486   -1491.8264    465.83541    309.88599    156.09414    38760.619 
  869400    294.49337   -1499.0997    455.17299    274.57216    82.132364    38760.619 
  869500    299.97496   -1504.0081    478.38186    317.41472    415.86356    38760.619 
  869600    300.79925   -1529.7979     493.3076    310.24111    262.95635    38760.619 
  869700    302.55746   -1468.7476      482.182    368.03757   -24.823155    38760.619 
  869800    303.37745   -1472.2473    491.62191     377.6491    253.94755    38760.619 
  869900     301.3735   -1468.8901    503.16482    383.57709     484.9961    38760.619 
  870000    301.63605   -1485.9115    488.04911    352.61548    565.24389    38760.619 
  870100    302.46941   -1488.4852    467.37152    333.09529    566.11524    38760.619 
  870200      306.491   -1460.8191    492.72059    404.11589    329.05642    38760.619 
  870300     305.0788   -1497.0934    463.93981    332.73807    266.07306    38760.619 
  870400    297.75427   -1484.6392    493.43706    341.89637    338.48122    38760.619 
  870500    295.32209   -1459.8947     481.9643    344.27879   -28.650925    38760.619 
  870600    297.58674   -1439.0213     480.6793    374.00648   -34.747571    38760.619 
  870700    306.66141   -1442.9324    482.84402    412.88892    236.31577    38760.619 
  870800    299.64137   -1473.9101    458.87086    326.50816    98.819203    38760.619 
  870900    308.81092   -1455.5839    470.79996    397.81709    362.74295    38760.619 
  871000    297.42601   -1460.4759    495.35949    366.51237    323.22849    38760.619 
  871100    303.89856   -1481.7866    465.56839    344.38939     817.5834    38760.619 
  871200    298.62755   -1496.3545    488.58597    329.23978    806.99155    38760.619 
  871300    299.96679    -1488.784    468.86322    323.08357    638.30036    38760.619 
  871400    308.15122   -1499.0616    485.62755    366.21342    433.66826    38760.619 
  871500    297.50265   -1479.9941     471.8721    323.84994    -180.8613    38760.619 
  871600    295.45537   -1507.1416    466.68621    282.35049   -437.74402    38760.619 
  871700    294.32397   -1468.2428     495.8689    345.36652    35.495921    38760.619 
  871800    304.17476   -1467.9512    511.54296    405.43593   -131.72691    38760.619 
  871900    284.07314   -1487.4572    477.99138    262.37987   -881.05378    38760.619 
  872000    296.78309   -1487.8387    474.70315    315.61477   -502.71192    38760.619 
  872100    295.53591   -1471.7129    499.24755    350.70109   -802.73491    38760.619 
  872200    307.67968   -1473.2441    482.43215    386.72433   -678.89571    38760.619 
  872300    295.74137   -1481.1025    472.17307    315.15692    82.723936    38760.619 
  872400    304.09892   -1498.7622    510.83278    373.57517   -189.74836    38760.619 
  872500    294.73236    -1520.259    473.51549    272.82538    99.667859    38760.619 
  872600    295.91924   -1496.5203    498.17743    326.53981    654.32027    38760.619 
  872700    293.77905   -1474.0041     517.6781    358.97468    343.10665    38760.619 
  872800     295.2557   -1501.7905    475.77082    295.89231    204.15837    38760.619 
  872900    298.95453    -1516.853    463.29277      284.912    81.128384    38760.619 
  873000    298.00994   -1484.1072    476.41756     326.5535    -50.28083    38760.619 
  873100    303.04654   -1486.1888    464.92964    335.53371    192.22975    38760.619 
  873200    307.62278   -1477.0466    486.99109    387.22604    327.41227    38760.619 
  873300    293.29741   -1522.0296      481.813    272.92769    88.223757    38760.619 
  873400     293.0219    -1474.447    503.49414    340.95799    484.39715    38760.619 
  873500    303.29466   -1482.7732    478.33949    353.47006    447.81163    38760.619 
  873600    302.80282   -1466.2459    481.64192     371.0978    294.59507    38760.619 
  873700    299.49448   -1499.1807    480.63782    322.34683    150.30641    38760.619 
  873800    312.07129   -1509.2989     495.3581    383.25744    389.96603    38760.619 
  873900    301.05035   -1510.3835    489.51593    326.98802    45.429068    38760.619 
  874000    302.44602   -1506.3417    463.04514    310.80775   -605.29921    38760.619 
  874100    302.46432   -1505.8653    493.91579    342.23672   -302.10712    38760.619 
  874200    293.01543     -1512.83    455.66346    254.71531   -934.85454    38760.619 
  874300    307.26765   -1496.7272    486.37087    365.33525   -591.45431    38760.619 
  874400    299.30545   -1540.7047    500.27801    299.61671   -827.58755    38760.619 
  874500    306.17131   -1506.3216    473.98676    338.44819   -47.439079    38760.619 
  874600    296.93883   -1503.6614    493.41711    319.20331      129.107    38760.619 
  874700    292.11318   -1492.6481    479.44491    294.63909    321.73526    38760.619 
  874800    294.08976   -1522.1841    492.01796    286.52566    662.17105    38760.619 
  874900    302.73924   -1536.4282    473.45452    292.44335    1287.1852    38760.619 
  875000    309.38432   -1536.2725    485.89041    334.78613    499.28825    38760.619 
  875100    300.37677    -1472.394    493.94577    366.39161    723.15264    38760.619 
  875200    289.25478   -1467.3844    507.15277    334.81318    623.55889    38760.619 
  875300    296.62878   -1521.6474     474.5831    280.99519   -25.051215    38760.619 
  875400     306.5448   -1490.6221    483.98469     365.8178    274.29837    38760.619 
  875500    294.56303   -1535.3066    504.75215    288.25627    129.61064    38760.619 
  875600    294.91623   -1546.8966    479.44441    252.93986   -628.79455    38760.619 
  875700    305.43346   -1514.5835    479.45925    332.35535    -739.6618    38760.619 
  875800    303.76887   -1472.2242    458.93406    346.73681   -613.07908    38760.619 
  875900     308.7729    -1523.435    468.28599    327.28179   -615.74317    38760.619 
  876000    303.04286   -1564.6146    462.08743    254.24925   -226.63325    38760.619 
  876100    292.20769   -1554.3841    476.69481    230.57619   -545.72999    38760.619 
  876200    311.63025   -1522.7061    470.92226    343.43985   -722.16254    38760.619 
  876300    297.03281   -1520.1326    478.61644    288.35221   -428.56097    38760.619 
  876400    297.21057   -1529.0393    486.59928    288.22416    -167.1716    38760.619 
  876500    296.47875   -1493.0556    469.60517    303.93731    286.23063    38760.619 
  876600    305.64741   -1559.7218    497.57678    306.29248    68.375219    38760.619 
  876700     306.7862    -1538.662    479.80329    314.67735    477.40302    38760.619 
  876800    296.64418   -1529.0289    483.87277     282.9723    570.44781    38760.619 
  876900    304.46263   -1529.0359    458.24285    292.33994    588.34031    38760.619 
  877000    290.51161   -1519.8031    507.29957    288.16826   -18.577409    38760.619 
  877100    299.84026    -1561.031    473.18708    254.59391    688.10597    38760.619 
  877200    305.08134   -1533.2204     481.2853      313.968    119.00393    38760.619 
  877300    306.75121   -1494.0635    480.62694    359.94276    335.61727    38760.619 
  877400    297.67899   -1547.2056    501.96469    287.52053     43.11342    38760.619 
  877500    290.04995   -1527.9433    488.22223    258.88377    115.57386    38760.619 
  877600    300.30308   -1491.7056    476.72167    329.52601   -340.43898    38760.619 
  877700    294.57075   -1509.3673    470.08737    279.56535    -116.3276    38760.619 
  877800     285.7105   -1499.8266    510.83304     290.1829    195.88542    38760.619 
  877900    297.51149   -1502.3695    483.22782    312.86983   -420.12611    38760.619 
  878000    305.97992   -1513.1341    490.74964    347.54168   -21.262094    38760.619 
  878100      307.676   -1505.6456    485.65682    357.53103   -69.701898    38760.619 
  878200    292.70074   -1493.3936    476.87025    293.94962    474.30245    38760.619 
  878300    294.98709   -1530.1109    486.08714    276.68553    523.34978    38760.619 
  878400    304.69621   -1516.0079    469.42748     317.5983    377.84003    38760.619 
  878500    308.55675   -1514.1597     521.1476      388.451     8.477567    38760.619 
  878600    305.48586   -1518.8207    494.35006    343.24352    464.70098    38760.619 
  878700    303.31136   -1498.5222    489.60791    349.06427    403.38589    38760.619 
  878800    300.27244   -1467.7798    482.79388    359.38689    1299.6689    38760.619 
  878900    304.31916   -1537.7803    511.40823    336.11857    1143.4496    38760.619 
  879000    295.14038   -1488.9536    495.07537    327.51746     768.7182    38760.619 
  879100    299.44072    -1511.982    488.97804     317.6451    178.70146    38760.619 
  879200    304.35587   -1531.5602    482.07777    313.17258   -342.92219    38760.619 
  879300    299.12887   -1506.4175    473.21816    306.05342    156.59494    38760.619 
  879400    302.67783    -1507.067    484.79837    332.87353    49.620574    38760.619 
  879500    304.25513   -1477.6158    502.84921    387.43745    463.36825    38760.619 
  879600    297.81111   -1574.0601    488.72616    248.01904   -127.81496    38760.619 
  879700    313.27724   -1579.3105    496.25836    319.54547   -81.390027    38760.619 
  879800    296.47086   -1535.1414    478.37122    270.58227   -228.80966    38760.619 
  879900     306.3576   -1515.2338    518.78978    375.17313    157.33646    38760.619 
  880000    299.55258   -1530.0795    496.48408    307.55447    248.00099    38760.619 
  880100    298.21949    -1514.888    497.35042    317.64379    303.59592    38760.619 
  880200    293.50172   -1503.2351    498.91745    309.74143    118.51977    38760.619 
  880300    301.74995   -1509.9116    496.83207    337.90832    280.58899    38760.619 
  880400     295.1897   -1501.6182    479.32001    299.31824    77.424897    38760.619 
  880500    300.44668   -1513.7061    497.38502    328.83181   -250.75634    38760.619 
  880600    296.01599   -1508.6623     481.1792    297.83278   -168.74309    38760.619 
  880700    294.52291   -1488.8317    463.75029    293.54975    116.76412    38760.619 
  880800    301.34436   -1506.3684    481.33844      324.142    23.195916    38760.619 
  880900    305.34862   -1480.0729    487.99118    375.01806   -119.87422    38760.619 
  881000     299.2898   -1512.3438    493.46478    321.09429    90.046091    38760.619 
  881100     293.3049   -1564.0086    494.01543    243.18468    127.26842    38760.619 
  881200    289.85796   -1544.6635    485.84985     238.9316   -631.43374    38760.619 
  881300    295.42587   -1491.0927    493.92263    325.50379   -847.20583    38760.619 
  881400     298.5911   -1532.3711    474.99956    279.47356   -840.36415    38760.619 
  881500    311.40349   -1513.0409    481.22417     362.3917    -301.0699    38760.619 
  881600    307.39244   -1551.3957    484.37276    309.22729    316.69724    38760.619 
  881700    295.41489   -1519.8998    502.92177    305.64667   -210.09008    38760.619 
  881800    305.93214   -1534.4949    475.52912    310.74651   -226.67998    38760.619 
  881900    299.60242   -1547.1734    477.72606    271.92559    74.383694    38760.619 
  882000    298.97029   -1565.4511    472.29909    245.39082    207.74073    38760.619 
  882100    300.13343   -1577.8166     509.1537    275.08747    177.42396    38760.619 
  882200    296.78942   -1565.6496    454.60857    217.73761   -143.40477    38760.619 
  882300    303.02918   -1520.6595    494.89521    330.95086    9.9785285    38760.619 
  882400    301.92037   -1520.6148    467.01882    298.15492    334.14548    38760.619 
  882500    293.30498   -1533.8471    463.50024    242.83136    343.62102    38760.619 
  882600    304.36651   -1573.2942    507.79362    297.20207    515.97121    38760.619 
  882700    301.23456   -1587.9434    472.77897    233.51592    473.16289    38760.619 
  882800    299.01612   -1570.9792    472.84569    240.61455    219.96263    38760.619 
  882900    299.05892   -1596.0828    471.01474    213.87155    263.60577    38760.619 
  883000    295.52451   -1594.7067    469.88739    198.29611    62.923711    38760.619 
  883100    297.42126    -1541.484    473.31467    263.43823   -488.88012    38760.619 
  883200    295.59336   -1540.9674    481.94413    264.40046   -296.97982    38760.619 
  883300     309.0997   -1578.6797    452.27663    257.49091   -361.76292    38760.619 
  883400    306.19432   -1577.3228    468.14442    261.70774    71.046896    38760.619 
  883500     306.2925   -1554.3719    471.84177    288.79555   -576.59254    38760.619 
  883600    296.79826   -1502.7555    459.78058    285.84339   -332.90653    38760.619 
  883700    298.74149   -1545.9987    481.49057    273.01031   -381.74762    38760.619 
  883800    307.39198   -1544.9703    465.49961    296.77749   -693.33187    38760.619 
  883900    313.97108   -1530.5454    487.51472    362.67337   -20.093765    38760.619 
  884000    303.87118   -1558.5865     459.7583    261.65676     105.6286    38760.619 
  884100     293.8267   -1487.6637    499.37853    327.22885   -71.158703    38760.619 
  884200    291.30166   -1552.2958    496.08896     248.0021    115.35252    38760.619 
  884300    299.31581   -1585.7036    486.58691    240.97306    412.54039    38760.619 
  884400    306.32093    -1488.746    480.31962    363.02655   -172.99393    38760.619 
  884500    310.95675   -1529.3995    493.30243    356.11119   -553.68807    38760.619 
  884600    290.93465   -1534.4224    462.14395    230.28738   -510.21296    38760.619 
  884700    310.51189   -1519.7801    488.74914     359.1856   -721.79094    38760.619 
  884800    296.79626   -1535.6602    465.90516    259.05424   -595.29473    38760.619 
  884900    293.21004   -1549.8347    471.32281    234.24129   -490.14319    38760.619 
  885000    297.56589   -1548.1788    492.50218    276.57845   -87.646484    38760.619 
  885100    291.41624    -1536.835    483.75674    251.64372   -781.62144    38760.619 
  885200    290.08687   -1524.8704    487.43815    261.33791   -254.22719    38760.619 
  885300    305.74584   -1519.5496    493.01466    342.34318    592.59138    38760.619 
  885400    299.75118   -1566.3746    491.10447    266.76886    369.13648    38760.619 
  885500    297.81816   -1526.2657    488.88765    296.00645    632.40623    38760.619 
  885600    296.66014    -1539.088    482.56207    271.67396    775.98354    38760.619 
  885700    304.77545   -1520.7803    519.93241    363.68566    444.75453    38760.619 
  885800    303.95992   -1533.5374    472.41573    299.76059    1228.6316    38760.619 
  885900    305.70559   -1525.8659    477.93138    320.76341    513.08786    38760.619 
  886000    304.88603   -1539.4786    509.97263    335.52266    290.08863    38760.619 
  886100    303.23991   -1554.5211    436.56584    239.70338    427.85117    38760.619 
  886200     307.9837   -1544.8817    502.84663    336.86238    389.56224    38760.619 
  886300    298.92121   -1523.4301    468.84892    283.74194    213.33344    38760.619 
  886400     313.5473   -1518.1216     495.2376    380.92268    415.43411    38760.619 
  886500    304.19685   -1545.1266    467.99376    284.81025    635.32013    38760.619 
  886600    300.11821   -1581.0905      482.412    245.00371    259.01851    38760.619 
  886700    305.96218   -1534.7588    477.01488     312.1028    33.320597    38760.619 
  886800    302.44134    -1565.437    510.46357    299.10984    268.93818    38760.619 
  886900    297.96388   -1559.6196    499.85989    274.27725    193.76361    38760.619 
  887000    302.99009    -1544.333    478.43003    290.63723    586.27397    38760.619 
  887100    296.17101   -1550.3092    455.98563    231.68634    125.19658    38760.619 
  887200    297.95671   -1550.2437    510.84653    294.60765    382.40925    38760.619 
  887300    305.80352   -1548.6903    462.31173    282.75784    203.56232    38760.619 
  887400    305.62891   -1541.1065    501.49876    328.74689    300.38939    38760.619 
  887500    303.03255   -1592.8946    479.34252    243.17814   -483.43312    38760.619 
  887600    298.39147   -1569.7963    489.19732    255.35237    19.088497    38760.619 
  887700    307.57152   -1551.2627    509.21174    335.00108    -117.6583    38760.619 
  887800    299.12511   -1571.0643    478.35519    246.52689   -39.467311    38760.619 
  887900    293.69106   -1563.6586     487.2418    238.49002   -313.03082    38760.619 
  888000    308.14177   -1557.6376    478.44917    300.41668    79.433605    38760.619 
  888100    306.38479   -1572.6236    467.93317    267.04844   -489.17352    38760.619 
  888200    300.05269    -1573.881    474.22237    243.73026   -19.041385    38760.619 
  888300    301.88981   -1561.6271     500.1296    290.11649    200.86938    38760.619 
  888400     300.6023   -1542.4797    510.47626    313.84617   -34.957244    38760.619 
  888500      303.716   -1561.2858    481.63611    280.14051   -82.288178    38760.619 
  888600    291.32414   -1577.9639    469.87795    196.22375   -104.63991    38760.619 
  888700     304.9468   -1539.1892    496.82806    322.93952    485.71491    38760.619 
  888800    298.60996   -1522.5113    486.51335    300.93163    589.37571    38760.619 
  888900    293.06124   -1555.0331     468.7068    225.76061    240.86577    38760.619 
  889000    294.81567   -1552.1668    487.51183    255.28687    -92.84469    38760.619 
  889100    292.31269   -1500.4468     491.0725    299.36128    64.658663    38760.619 
  889200    309.73951   -1537.6865    471.20109    320.27309     227.7835    38760.619 
  889300    303.43098   -1506.6423    495.99151    347.86327   -238.94975    38760.619 
  889400    298.60902   -1521.3098    498.65636     314.2719   -683.63685    38760.619 
  889500    307.53266   -1516.4022     489.2262    349.70205   -311.64377    38760.619 
  889600    300.60912   -1502.1531    491.03311    334.76021   -2.0071193    38760.619 
  889700    302.94305   -1514.5134    481.92089    323.73701    -217.6788    38760.619 
  889800    295.98801   -1559.1061    494.03796     260.1225   -278.74356    38760.619 
  889900    305.53164   -1522.6499    505.02807     350.2973    201.17631    38760.619 
  890000    309.98287   -1538.5952     486.0229    335.27581   -8.8745712    38760.619 
  890100    304.14875   -1479.9848    496.27894    378.02182    555.71755    38760.619 
  890200    305.04697    -1505.072    503.24611     363.9233     546.2755    38760.619 
  890300    297.42083   -1479.1047    504.87678    357.37769     526.3724    38760.619 
  890400    298.58891   -1486.0894    512.51468    363.26061    231.43015    38760.619 
  890500    298.70154   -1509.5876    499.33488    327.08681    58.026871    38760.619 
  890600    296.73743   -1509.5514    510.27929    329.27382    151.99711    38760.619 
  890700    305.83575   -1501.9174    504.45954    371.82279    123.90686    38760.619 
  890800     290.8384   -1521.4686    481.03008     261.6964    317.00866    38760.619 
  890900    311.58094   -1509.2482    520.53665    406.29139    370.23525    38760.619 
  891000    306.35268   -1517.1251    510.47087    364.94089    342.45103    38760.619 
  891100    292.71463   -1505.7724    514.28826    319.05102    379.45289    38760.619 
  891200    311.31598   -1542.3612    476.26867    327.72412    163.78627    38760.619 
  891300     293.0998   -1508.1048    500.21418      304.369     249.4518    38760.619 
  891400    306.23031   -1494.1216    487.39902    364.32457     191.2796    38760.619 
  891500      284.437   -1478.4724    481.00795    276.01027    102.11501    38760.619 
  891600    299.64092   -1452.1666    500.38243    389.76122   -167.75707    38760.619 
  891700    288.34975   -1499.5001    508.39068    299.88337    349.25362    38760.619 
  891800    294.64529   -1478.5631    498.21998    338.83587    97.242279    38760.619 
  891900    289.12622   -1495.8946    501.58474    300.15932    -603.9535    38760.619 
  892000     290.8436   -1522.1578    487.42988    267.43024    79.676763    38760.619 
  892100    292.08565   -1530.3705    501.22507    278.57365     246.8984    38760.619 
  892200    298.15793   -1535.3112    510.10116    309.69574    27.496923    38760.619 
  892300    296.10825   -1527.8936    516.99712    314.83249    32.716441    38760.619 
  892400    300.21184   -1519.6481     501.5789    326.03225    594.59166    38760.619 
  892500    307.94184   -1531.4502     483.6539    330.91372    368.44055    38760.619 
  892600    309.69168   -1534.2994    505.07882    357.32384    78.382539    38760.619 
  892700    300.82247   -1535.3579    517.01628    328.49377   -1083.0963    38760.619 
  892800    303.75021   -1533.7676    481.75457    307.93032   -478.45689    38760.619 
  892900    303.00101   -1488.1099     520.1886    388.66778    59.893832    38760.619 
  893000    293.99269   -1514.0945    499.66026    301.82297    110.32224    38760.619 
  893100    302.45955    -1478.767    526.84258    402.24047     89.07034    38760.619 
  893200    292.41217   -1442.2339    501.06776    368.01485   -88.487115    38760.619 
  893300     295.1395   -1503.7682    504.27092    321.89443    780.75178    38760.619 
  893400    307.51973   -1515.2807    522.58879    384.12826    862.24422    38760.619 
  893500    293.32861   -1477.5849    493.18084     328.8799    722.01143    38760.619 
  893600    308.67962   -1458.3368    519.25034    442.92669    529.93036    38760.619 
  893700    294.22407   -1463.8462     502.0488    355.49576   -229.85207    38760.619 
  893800    305.43828   -1498.4604    515.30642    384.34719    -752.6585    38760.619 
  893900    287.59856   -1496.9113    497.21711    287.93539    -505.3047    38760.619 
  894000    292.08564   -1526.4605    471.30852    252.56706   -116.12256    38760.619 
  894100    302.19259   -1549.8641    479.97569    283.08118    47.235803    38760.619 
  894200    300.49006    -1556.337    483.53305    272.54319   -76.611051    38760.619 
  894300    303.48295   -1567.9207    469.70024    260.52635    171.56413    38760.619 
  894400    297.53685   -1523.3082    480.30159    289.11844     66.70485    38760.619 
  894500    303.55793   -1526.4731    499.30507    331.91446    454.44943    38760.619 
  894600    298.39368   -1556.9125     476.7169    255.76567    194.24341    38760.619 
  894700     291.3159   -1534.4866    495.91053    265.69671    119.44632    38760.619 
  894800    304.89293   -1528.6154    479.80948    316.25367    118.88063    38760.619 
  894900    299.21776     -1531.57    494.81171    302.89248   -164.88188    38760.619 
  895000    288.22683   -1530.5797    497.31737    257.18007   -248.34464    38760.619 
  895100    311.86333   -1494.6362     476.0111    377.64213    189.60964    38760.619 
  895200    298.20007   -1540.7277    493.09075    287.45742    71.641305    38760.619 
  895300    302.42371   -1526.8266    498.45665    325.63443   -170.22133    38760.619 
  895400    292.89259   -1544.3594     496.2152    263.18769    419.90756    38760.619 
  895500    297.03507   -1583.8066    499.76257    245.83446   -363.68197    38760.619 
  895600    303.00537   -1574.3165    477.78491    260.07702    196.29525    38760.619 
  895700     300.2046   -1586.9416    509.76434    266.89179   -25.893931    38760.619 
  895800    285.64632   -1553.9317    493.88628    218.84357    781.22846    38760.619 
  895900    295.72598   -1539.2298    520.35477    305.14239     790.0956    38760.619 
  896000    293.27962    -1536.731    497.24156    273.57522    351.89952    38760.619 
  896100    291.00197   -1561.8011    516.20037     257.2665    282.39949    38760.619 
  896200    291.32268   -1564.9864    495.67889    234.99556    463.74142    38760.619 
  896300    303.96398   -1574.3206    493.58135    280.16117    539.82197    38760.619 
  896400    308.79828   -1614.3687    495.02748    263.20325     1117.022    38760.619 
  896500    296.23361   -1567.3698    502.74726    261.66765    16.238213    38760.619 
  896600     306.2844   -1572.0269    495.41572    294.67822   -576.35857    38760.619 
  896700    303.80056   -1595.7265    475.98883     240.4311   -439.27039    38760.619 
  896800    296.91528   -1546.6505    478.50344    261.19509    -881.2903    38760.619 
  896900    295.61927   -1569.1536    473.89111    228.27724   -570.09327    38760.619 
  897000    301.53552   -1546.8445    470.49315    273.67647    -132.5442    38760.619 
  897100    293.48267   -1523.8196    492.58487    282.73909   -348.29808    38760.619 
  897200    292.66737   -1550.9727    484.75848    244.10935   -494.47354    38760.619 
  897300    294.05446   -1545.2223    496.45089    267.76237   -48.272658    38760.619 
  897400    304.33156    -1543.017    505.51452    325.04371   -15.487309    38760.619 
  897500    300.98725   -1543.0108    479.39077    283.95305    308.50779    38760.619 
  897600    305.26574    -1537.619    499.29588    328.40558    157.24394    38760.619 
  897700    299.49701   -1492.8162    511.30823    359.39302   -182.08055    38760.619 
  897800    301.03503   -1534.4155    493.13068    306.50216    -148.3723    38760.619 
  897900    289.16248   -1546.3128    482.15844    230.47713   -199.80255    38760.619 
  898000    306.27771   -1533.2342    472.71677    310.74198     354.3736    38760.619 
  898100    296.84344   -1541.2583    504.35901    292.12118    188.44681    38760.619 
  898200    298.95732   -1569.6472    459.52069    228.35823   -151.75731    38760.619 
  898300    288.24525   -1543.8604    513.48052    260.14505   -318.31584    38760.619 
  898400    298.65235   -1546.2814    453.56648    244.40439   -359.52101    38760.619 
  898500    289.90097   -1522.1967    489.02679    264.76791   -489.20575    38760.619 
  898600     296.0497   -1499.5112    498.06155    324.01719   -114.00927    38760.619 
  898700    303.38301   -1516.5542    479.25975    321.00493     317.4068    38760.619 
  898800    288.89225   -1541.1682     481.9108    234.16424    345.18071    38760.619 
  898900     300.4976   -1535.8822    484.54651    294.04514     528.0338    38760.619 
  899000    291.92655   -1540.3572     485.5638    252.21339    538.77312    38760.619 
  899100    294.51018   -1517.1713    466.36259    267.76541    162.88138    38760.619 
  899200    293.75689   -1511.7628    508.14845    311.58713    7.9754302    38760.619 
  899300    298.46496   -1481.5357     486.0019    340.74654    451.71783    38760.619 
  899400    298.00393   -1514.2252    476.29722    296.28825   -211.79143    38760.619 
  899500    311.61677   -1546.2391    511.66938    360.59359   -487.06249    38760.619 
  899600    296.36659   -1547.9531    470.18935    249.12188    1.2544016    38760.619 
  899700    303.03424   -1519.2023    483.53007    321.06561   -120.54833    38760.619 
  899800    299.46917   -1500.1701    491.19821    331.80448   -390.00103    38760.619 
  899900     303.0476   -1518.9128    476.48038    314.36525   -474.48019    38760.619 
  900000    309.70675   -1556.4529    502.04823    332.20719   -92.912627    38760.619 
  900100    298.89853   -1543.8388    466.70991    261.09265     437.3065    38760.619 
  900200    291.50496   -1520.0974    510.40875    295.43052    633.44841    38760.619 
  900300    299.16014    -1562.244     489.6467    266.79549    466.16198    38760.619 
  900400    291.72157   -1552.1443    464.06968    218.01441   -65.623058    38760.619 
  900500    305.36835   -1509.7046    474.59542    332.07883    144.85847    38760.619 
  900600    304.42069   -1553.6848    468.49004    277.75047     118.1348    38760.619 
  900700    298.62099   -1571.8834    485.24191    250.33747    703.51535    38760.619 
  900800    302.45132   -1544.7298    466.50631    275.90453    703.86702    38760.619 
  900900     304.7197   -1532.0998    493.98361    326.16769     471.1254    38760.619 
  901000    297.15389   -1521.2017    465.05533    274.26414    555.47804    38760.619 
  901100    301.93279   -1503.9841    488.15414    335.97652    341.00641    38760.619 
  901200    307.85115   -1494.5203     483.4225    367.20622    136.82102    38760.619 
  901300    298.35128   -1521.6908    498.10745    312.18806    90.248148    38760.619 
  901400    302.06978   -1469.2705    489.40225    372.55152    141.78362    38760.619 
  901500    305.45287   -1509.8978    467.11063     324.7793    68.627037    38760.619 
  901600    303.20194   -1488.2566    476.20883    345.44087    609.24646    38760.619 
  901700     296.9257    -1518.415    465.57638    276.55021    532.14413    38760.619 
  901800    293.01258     -1503.79    487.61672    295.69583    619.87865    38760.619 
  901900    308.90729    -1523.857    471.22014    330.39571     288.9367    38760.619 
  902000    293.77951   -1563.9227    464.78273    216.16281    366.10499    38760.619 
  902100    304.15401   -1544.2969    485.67486     303.1292    -74.38403    38760.619 
  902200    301.33243   -1517.6678    464.86599    296.31669   -70.834969    38760.619 
  902300    294.01018   -1498.5098    498.02165    315.84734   -394.14251    38760.619 
  902400    305.09523   -1550.2263    461.02474    276.76372   -551.55832    38760.619 
  902500    302.97687   -1544.2329    494.16079    306.40888    174.83418    38760.619 
  902600    296.54395    -1521.792    496.10889    301.99658    196.53738    38760.619 
  902700    295.68528   -1532.9671    494.84098    285.70914    449.83234    38760.619 
  902800    290.98822   -1565.1681    486.36145    223.99897    399.51343    38760.619 
  902900    305.26789   -1564.8611     469.1903    271.06748    629.95852    38760.619 
  903000    303.31253   -1559.7803    482.79557    280.99905    478.25414    38760.619 
  903100     296.3987   -1534.5278    474.45386    266.95538   -82.766602    38760.619 
  903200    297.19258   -1520.5185    470.82319    280.88837   -74.093751    38760.619 
  903300    312.96613   -1515.5325    462.34665    348.01883   -324.71559    38760.619 
  903400    294.03917   -1523.6286    500.69302     293.5297    312.45217    38760.619 
  903500    304.89467   -1492.7929    475.36025    347.63462    471.14929    38760.619 
  903600    291.06591   -1515.3523    467.92573    255.72698   -109.51362    38760.619 
  903700    296.32176   -1531.3855    473.10212    268.40145   -882.66359    38760.619 
  903800    296.61524   -1556.9571     460.9903    232.03206   -545.36763    38760.619 
  903900    308.58429   -1561.0889    461.01289    281.51031   -675.71997    38760.619 
  904000    297.26466   -1553.9724    475.52316    252.45713   -301.10865    38760.619 
  904100    296.62472   -1589.8054    469.29925    207.53513   -276.70335    38760.619 
  904200     307.3455    -1537.556    492.56457    331.04867    115.79063    38760.619 
  904300    292.79943   -1500.0667    492.70992    303.55799    225.09502    38760.619 
  904400    297.65726   -1526.0852    468.34617    274.92515    296.29787    38760.619 
  904500    314.34319   -1566.8242    483.13701    323.68277    429.05991    38760.619 
  904600    298.88603   -1557.6174    475.59082    256.13903   -138.25394    38760.619 
  904700    304.54511   -1572.6339    489.20627    280.07467    476.53453    38760.619 
  904800    305.11341   -1593.6787    463.21443    235.58245     644.6662    38760.619 
  904900    302.97416   -1585.6327    488.53232    259.36848    374.32055    38760.619 
  905000    295.37464   -1605.3561    497.55548    214.64386    901.22734    38760.619 
  905100    295.19271   -1513.0543    483.47222    292.04783    248.28029    38760.619 
  905200    291.81852   -1548.5864    488.44426    246.38095   -264.25254    38760.619 
  905300    301.15141   -1586.8487    473.23102    234.69038   -146.29576    38760.619 
  905400    299.19168   -1580.7303    473.74153    232.54526    331.93016    38760.619 
  905500    295.92994   -1555.7592    494.14491    263.31633    248.63112    38760.619 
  905600    304.40608   -1516.9623    485.25317     331.1707    604.51077    38760.619 
  905700    301.22147   -1540.1556    491.62922    300.09534    457.50528    38760.619 
  905800    294.72223   -1559.3989    483.33241    243.45706    518.59847    38760.619 
  905900     300.3773   -1514.8964    494.52631    324.47221    729.98863    38760.619 
  906000    295.35454   -1512.2964    489.67504    299.73314    259.85338    38760.619 
  906100    311.76943   -1536.3661    487.76768    347.24843    218.43416    38760.619 
  906200    290.01476    -1512.967     486.2166    271.69694   -39.421399    38760.619 
  906300    297.16273   -1535.3589    487.41842    282.50956   -601.29836    38760.619 
  906400    298.38729   -1513.8932    485.61447    307.65389   -745.60463    38760.619 
  906500    299.36923   -1504.3228    461.61869     297.6248   -732.97735    38760.619 
  906600    307.85391   -1496.7649    491.17658    372.72807   -486.78219    38760.619 
  906700    305.69731   -1530.7945    468.83098    306.69736    -22.30617    38760.619 
  906800    293.66503   -1517.6314    477.28016    274.43894    648.77059    38760.619 
  906900    298.70507   -1510.7795    490.16645    316.74233    375.81059    38760.619 
  907000    300.34576   -1554.3504    483.04455    273.39516    934.56473    38760.619 
  907100     306.9071   -1551.4511    499.77075    322.39698    653.99702    38760.619 
  907200     296.0462    -1514.637    464.00328    274.81748   -262.99635    38760.619 
  907300    299.99574   -1542.1814    468.64077    269.59336   -54.025426    38760.619 
  907400    306.33665   -1536.8226    482.65384    317.35459    224.48853    38760.619 
  907500    313.13545   -1513.0995    490.13027    378.99351    166.41926    38760.619 
  907600    293.93762   -1515.5155    510.33643    310.83157    705.76712    38760.619 
  907700    305.32215   -1504.5432    489.48919    351.92724    913.30466    38760.619 
  907800    291.41805   -1527.6996    501.29231    278.32285    613.66826    38760.619 
  907900    291.78729   -1545.2776    501.90347     263.0091    149.92289    38760.619 
  908000    290.44885   -1584.2042    468.07135    184.25799   -306.67011    38760.619 
  908100    303.21453   -1581.2062    480.52727    256.86605    -762.3128    38760.619 
  908200    298.79686   -1547.2599    470.93889    261.44534   -212.40582    38760.619 
  908300     304.0284   -1552.7064    481.86597    290.34838   -439.17171    38760.619 
  908400    304.98426   -1549.9332     480.8751    296.41039   -207.54719    38760.619 
  908500    287.32435   -1529.0857    468.92037    226.23655    137.94925    38760.619 
  908600    293.10596   -1512.7412    503.61229    303.15824    342.82446    38760.619 
  908700    305.96177    -1518.557    478.57738    329.86528    175.24924    38760.619 
  908800    294.29935   -1517.3803    492.57023     292.8201     60.08375    38760.619 
  908900    295.34385      -1513.7    495.78272    304.38928    75.715575    38760.619 
  909000    295.44904   -1535.6203    484.23108    271.38831   -712.24522    38760.619 
  909100    305.86371   -1539.2405    470.89378    301.05919   -407.90782    38760.619 
  909200    309.60344   -1533.1164    487.37474    340.40767   -523.67575    38760.619 
  909300    300.39146   -1556.1603    486.80799    275.55337   -513.70543    38760.619 
  909400    292.69738   -1522.2982    470.40527    258.56496   -816.98436    38760.619 
  909500    305.75097   -1546.8148    483.71189    305.79823   -1048.9039    38760.619 
  909600    292.27922   -1534.0023    496.82825    271.41169   -1000.6582    38760.619 
  909700    288.89263   -1560.6171    469.52537    202.33167   -829.23595    38760.619 
  909800    293.33389    -1542.047    466.93023    238.19083   -324.44552    38760.619 
  909900    301.02536   -1535.5398    494.61224    306.81611   -77.408178    38760.619 
  910000    307.41937   -1544.3604    480.75903    312.76944   -171.81264    38760.619 
  910100    290.66659     -1572.84    473.80319    202.32886   -436.43777    38760.619 
  910200     294.8962   -1590.7986    489.16798    218.67176   -233.62225    38760.619 
  910300    310.62679   -1559.6455    508.38815    339.47373    371.09367    38760.619 
  910400     306.8558   -1564.9637    497.77346    306.65743    352.74695    38760.619 
  910500    303.14633   -1557.9767    492.38768    291.65069     393.1654    38760.619 
  910600    292.23828   -1534.6784    486.86172    260.58571    144.13787    38760.619 
  910700    299.51053   -1528.2188    500.94906    313.69182    -20.32568    38760.619 
  910800    300.33614   -1497.9469     483.0269    329.73799    -319.6584    38760.619 
  910900    296.55069   -1530.0748    502.32652    299.96156   -134.41944    38760.619 
  911000    307.59788   -1526.6241     476.2696     326.8156   -233.81233    38760.619 
  911100    302.83168   -1485.3813    478.94286     349.3925   -555.48853    38760.619 
  911200    297.22182   -1514.7451    484.07798    300.04742   -261.92617    38760.619 
  911300    303.84552   -1551.4555    474.78218    283.69672    244.29018    38760.619 
  911400    296.75216   -1539.3764    495.79213     285.0276   -86.174427    38760.619 
  911500    297.23497   -1544.4275     494.6185    280.96447    179.13695    38760.619 
  911600    308.76044   -1578.8299     472.4179    275.96302   -274.63031    38760.619 
  911700    297.55889   -1580.2739    491.27041    243.22028   -607.07192    38760.619 
  911800    296.45071   -1570.6992     482.7779    239.34098   -323.78275    38760.619 
  911900    289.56698   -1543.1655      477.558    230.83507   -762.58381    38760.619 
  912000    306.21887   -1517.9458    498.68829     351.7385    209.33687    38760.619 
  912100    298.89757   -1565.6339    446.50229    219.08563    191.06902    38760.619 
  912200    294.96512   -1555.2823     493.9731    259.30178     15.59527    38760.619 
  912300    295.86419   -1605.3549    507.99486    227.27619    229.16286    38760.619 
  912400    300.33353   -1540.8725    468.05983    271.83357    552.84261    38760.619 
  912500    301.67324   -1525.8455    506.28453    331.08345    209.33344    38760.619 
  912600    303.84683   -1557.4541    467.48124    270.40306    287.96873    38760.619 
  912700    313.33692   -1573.3131     472.7098    302.26144    14.948653    38760.619 
  912800    298.67217   -1572.5994     512.7134    277.32213    581.86818    38760.619 
  912900    289.62797   -1552.3826     483.4053    227.73829    361.37227    38760.619 
  913000    300.83048   -1543.3807    473.82362    277.31412   -165.31639    38760.619 
  913100    295.75293   -1485.0624     472.9944     312.0701    162.62192    38760.619 
  913200    300.68967   -1558.3603    510.33937    298.21987   -57.306233    38760.619 
  913300    302.95771   -1543.3487    508.42608    321.47257   -189.87585    38760.619 
  913400    294.84489   -1522.4565    488.17111    285.78726    176.38403    38760.619 
  913500    300.85129   -1555.0118    496.74514     288.6977     191.9094    38760.619 
  913600    308.94711   -1526.4478    493.40475    350.16777    120.43591    38760.619 
  913700    311.45931   -1524.1866    450.17892    320.45073   -248.74617    38760.619 
  913800     297.2289   -1502.6244    516.76577    344.88763   -178.00559    38760.619 
  913900    296.72406   -1518.8696    498.35203    307.96852   -239.63204    38760.619 
  914000    302.32387   -1535.5148    476.19477    294.23736   -154.21463    38760.619 
  914100    306.79769   -1525.5644    499.88586    347.90893   -59.154935    38760.619 
  914200    303.93972   -1508.4046    494.72104    347.10831    424.24131    38760.619 
  914300    284.99488   -1565.3798    498.88964    209.48231    660.66976    38760.619 
  914400    292.47992   -1499.7434    490.92663     300.6675    522.81252    38760.619 
  914500    298.58841   -1478.2969    489.23974    347.77597    372.82052    38760.619 
  914600    302.26686   -1507.9003    486.85367    332.25549    219.30005    38760.619 
  914700    297.04849   -1510.1602    507.80359    327.58198    21.274991    38760.619 
  914800    306.48343   -1546.3978    503.34231    329.12497    724.70364    38760.619 
  914900    296.90968   -1538.3659    481.76978    272.72102    519.67409    38760.619 
  915000    300.42462   -1525.4871    518.63142    338.19841     845.7768    38760.619 
  915100    304.77718   -1529.2653    501.52998    336.80591    1022.3621    38760.619 
  915200    306.52748    -1559.403    487.31322    300.28791    1125.9456    38760.619 
  915300    299.53126   -1542.7595     479.1445    277.43941    139.01039    38760.619 
  915400    299.61933   -1557.2034    471.55846    255.80375   -559.19275    38760.619 
  915500     301.6871   -1586.5222    490.60891    254.79317   -208.19735    38760.619 
  915600    309.46231   -1564.1478    479.98744    301.35712    -523.4472    38760.619 
  915700    295.51757    -1565.041    476.53518    234.57851   -108.50856    38760.619 
  915800    298.56017   -1534.3551    487.51227    289.86384   -468.67859    38760.619 
  915900    298.29227   -1546.5295    470.27804    259.25574   -197.47342    38760.619 
  916000    302.03436   -1581.8623    465.06717    235.46605   -336.27376    38760.619 
  916100    305.49717   -1541.8277    470.09047    296.02757   -672.12763    38760.619 
  916200    301.70563   -1526.5576    480.55445    304.78627    90.377752    38760.619 
  916300    302.08634   -1571.6201     468.9866    249.86042   -1.0431256    38760.619 
  916400    299.44762   -1555.3802    496.75378    282.05351   -36.213371    38760.619 
  916500    298.73592   -1553.5664    490.14574    274.07281    139.33934    38760.619 
  916600    297.22416   -1541.1275    497.49379    287.09136   -457.97372    38760.619 
  916700    295.36793   -1594.6603    492.40625    220.16037   -202.40962    38760.619 
  916800    305.84538   -1620.1543    485.52237    234.69186   -48.620797    38760.619 
  916900    296.44353   -1596.4775    459.47395    190.22646   -120.18972    38760.619 
  917000    311.54711   -1568.3502    480.46492    306.96612   -176.55537    38760.619 
  917100    303.82874   -1589.6755    451.70107     222.3205    -663.7703    38760.619 
  917200    311.92103   -1614.4435    435.36203    217.44408    175.42739    38760.619 
  917300    295.70803    -1625.687    475.90525    174.15539    51.318321    38760.619 
  917400    296.09022   -1607.0309    487.04484    205.66219    10.962666    38760.619 
  917500    300.61749   -1606.7506    482.49203    221.65901   -27.349129    38760.619 
  917600    301.71168   -1586.0849     488.3393    253.07096   -330.87577    38760.619 
  917700     296.8598   -1581.9494    474.50451    221.64885   -121.92554    38760.619 
  917800     286.8712    -1575.535    497.71067    206.54877   -365.17689    38760.619 
  917900    293.94755   -1588.6746    472.55847    199.93898   -62.221306    38760.619 
  918000    299.67691    -1594.137    481.09935     228.6688    346.19195    38760.619 
  918100    302.62063   -1601.6077     467.1311    220.40944   -219.31889    38760.619 
  918200    303.08877   -1566.8809    449.80131    239.90234    237.52731    38760.619 
  918300    300.07459   -1547.7254    486.67363    282.43518    512.10136    38760.619 
  918400    292.74783   -1561.1886    496.72519     246.2203   -282.38939    38760.619 
  918500     308.0193   -1606.4101    470.67796    243.32469   -4.3836367    38760.619 
  918600    301.10288   -1591.6815    492.14317    248.55242    200.69248    38760.619 
  918700    308.93045   -1578.0265    467.36374    272.47344   -239.13041    38760.619 
  918800    309.28808   -1553.9134    474.64712    305.47114    8.7353232    38760.619 
  918900    292.31316   -1553.0068    481.96249    237.69332   -124.17736    38760.619 
  919000     303.5329   -1573.6506     493.6286    278.94841   -112.32773    38760.619 
  919100    305.05103   -1531.4706    477.44359    311.74035    562.37905    38760.619 
  919200    289.47491    -1583.039    460.21971    173.21096   -103.68288    38760.619 
  919300    296.07032   -1563.2521    486.24646    248.55346   -266.61977    38760.619 
  919400    310.22283   -1559.6729    488.24901     317.4985   -214.59425    38760.619 
  919500    304.49218   -1550.8659    463.15704    275.55646     80.91433    38760.619 
  919600    299.34147   -1551.0782    486.42119    275.54764    461.42433    38760.619 
  919700     298.1256    -1525.733    500.17953    309.20757    386.34139    38760.619 
  919800    307.47915    -1514.208    469.48702    331.91747   -88.876207    38760.619 
  919900     297.0569   -1577.2848    450.72291    203.41436   -271.62529    38760.619 
  920000    301.90229   -1600.1525    476.36404    227.88138   -190.20057    38760.619 
  920100    298.15513   -1543.4435    489.21087    280.66057   -4.2928092    38760.619 
  920200    302.12601   -1519.7804    502.52798    335.41911   -161.11018    38760.619 
  920300    291.00272   -1535.6814    492.16985    259.35906   -254.36149    38760.619 
  920400    305.44915   -1538.8744    457.94534    286.62073   -41.860626    38760.619 
  920500     302.9649    -1538.083    500.15925     318.5036    483.64872    38760.619 
  920600    306.07595   -1497.8271    478.21435     350.7434     -267.905    38760.619 
  920700    286.94368   -1577.8261    483.90396    190.77547    598.35975    38760.619 
  920800     303.1925   -1574.5467    477.93115    260.83085    628.18134    38760.619 
  920900    302.72146   -1552.0832     470.3066     273.5609    730.05652    38760.619 
  921000    295.96497   -1515.6742    500.18555    309.59879    586.09132    38760.619 
  921100    301.74813   -1511.5464     504.3318     343.7651    419.89832    38760.619 
  921200    298.41668   -1553.8765    497.15482    279.34253    14.082891    38760.619 
  921300    308.88584   -1538.5464    473.58418    317.97427    112.01443    38760.619 
  921400     292.2767   -1518.4004    475.22062    265.39465    357.00759    38760.619 
  921500    301.23911   -1495.6932    496.82085    349.82834    532.90309    38760.619 
  921600     296.5809   -1502.0163    489.23972    315.06853    347.46277    38760.619 
  921700    295.54604   -1505.7264    473.67228    291.15777    5.9468788    38760.619 
  921800     302.7139   -1477.0521    510.52817    388.77971   -528.69054    38760.619 
  921900    309.08182   -1489.7401    479.39766    373.47148   -544.95694    38760.619 
  922000    306.95162   -1464.6984    494.28494    403.86317   -200.38784    38760.619 
  922100    302.42574   -1481.6868    483.69398    356.02069   -472.27703    38760.619 
  922200    308.44286   -1522.1106    479.21464    338.05723    125.28148    38760.619 
  922300      306.006   -1514.7742    529.74184    385.01054   -51.801497    38760.619 
  922400    288.31028   -1492.6469    504.90605    303.07524   -508.40364    38760.619 
  922500    303.27777   -1571.7617    457.34291    243.40939   -228.25939    38760.619 
  922600    295.93331   -1568.7398    508.88756    265.09346   -297.59588    38760.619 
  922700    310.12096   -1545.3466    479.17908    322.29883   -837.43949    38760.619 
  922800    302.13398   -1492.9338    481.48069    341.25412   -444.59303    38760.619 
  922900    304.33304   -1525.7588    485.92157    322.71554   -160.31044    38760.619 
  923000    297.43548   -1514.0291    478.22579     295.8679   -294.52157    38760.619 
  923100     308.0076   -1480.4774    486.91921    385.44627   -413.76004    38760.619 
  923200    299.55488   -1523.6687    486.17151    303.66289    116.38216    38760.619 
  923300    305.81858   -1498.1184    472.62763      343.713    632.16684    38760.619 
  923400    300.05432   -1526.5105    464.58137    281.46711    503.66963    38760.619 
  923500    301.87132   -1570.7509    479.95254    260.73287    193.30811    38760.619 
  923600    302.17536   -1539.2787    469.46239    283.07611    247.70598    38760.619 
  923700    312.55447   -1553.6877    455.52789    301.20183    140.49201    38760.619 
  923800    293.22163   -1540.7868    471.72459    243.74281   -66.013775    38760.619 
  923900    307.26376   -1540.4285    472.50662    307.75225   -1.3826558    38760.619 
  924000    294.15912   -1513.8943    508.42424    311.53234   -427.50503    38760.619 
  924100    298.87053   -1542.7348    475.14626    270.50766   -611.07009    38760.619 
  924200    293.10829   -1546.9221     471.6542    237.02971   -381.82626    38760.619 
  924300    299.21527   -1509.4235    452.96827    283.18445    25.390506    38760.619 
  924400    303.19318   -1521.4876    486.86252    322.82437    -306.4414    38760.619 
  924500    306.29107   -1496.2085    482.10701     357.2178    226.67936    38760.619 
  924600    295.80165   -1564.3598    468.88934     228.8858    137.62847    38760.619 
  924700     307.2136    -1540.917    499.27247    333.80503    512.62612    38760.619 
  924800    289.62388   -1543.1992    454.88995    208.38808    295.22815    38760.619 
  924900    309.30422   -1582.4168    468.24924    270.64216     530.0906    38760.619 
  925000    286.53225   -1559.8296    473.50629    196.53223    250.07654    38760.619 
  925100    294.85252   -1518.0191    495.16328    297.25102    797.36523    38760.619 
  925200    289.95345   -1534.9682    464.72891     227.9336       298.82    38760.619 
  925300    308.70294   -1519.3757       501.51     364.2519   -614.78455    38760.619 
  925400    300.41572   -1530.6942    467.78149    282.10157   -136.83749    38760.619 
  925500    305.43658   -1497.3167    466.85266    337.02949   -10.145815    38760.619 
  925600    293.35956   -1559.6453    487.95048     241.7278    -97.87161    38760.619 
  925700     300.9068   -1551.8515    486.28674    281.64811   -88.728623    38760.619 
  925800    307.51437   -1513.5897    474.81289    338.01941    126.21333    38760.619 
  925900    296.48541   -1532.0211    452.50622    247.90268    46.146435    38760.619 
  926000    308.67304   -1547.1308    492.91485     327.7678    370.83932    38760.619 
  926100    293.69113   -1577.9977    473.68554    210.59494    254.69456    38760.619 
  926200    307.23484   -1543.2335    473.08358    305.39478    203.90014    38760.619 
  926300    294.40632    -1559.541    495.42831    253.99642   -584.01462    38760.619 
  926400    296.37088   -1529.3137    484.99623    282.58732   -356.85496    38760.619 
  926500    294.18355   -1555.0818    486.34515    248.37511   -816.30683    38760.619 
  926600    301.75933   -1525.9735    471.11015     296.1665    -973.1285    38760.619 
  926700    305.38796   -1514.4139    487.29724    340.15917   -866.95276    38760.619 
  926800    297.39278   -1521.9247    491.12351    300.67887   -565.64257    38760.619 
  926900    299.19664   -1504.9212    476.07225    310.70733   -525.64394    38760.619 
  927000    308.55819   -1494.5192    525.03287    411.98317   -391.57782    38760.619 
  927100    296.53448   -1495.9658    474.41895    306.09039    53.720176    38760.619 
  927200    294.83778   -1467.8008    503.39548     355.6355    136.24062    38760.619 
  927300    308.44208    -1512.827    513.48041    381.60309    606.87944    38760.619 
  927400    313.61615   -1482.1598    513.78324    435.73837    585.62878    38760.619 
  927500    296.66621   -1463.5863    496.81683    361.45757   -112.37461    38760.619 
  927600    289.96869   -1454.9876    481.64699    324.90048     331.6874    38760.619 
  927700    306.81222   -1444.4829    473.39944    402.56909    418.25727    38760.619 
  927800    298.42837   -1451.6361    521.41674    405.89717    260.98773    38760.619 
  927900    306.14261   -1484.5939    476.32108    362.38173    307.72413    38760.619 
  928000    286.96272   -1522.3621    501.61128    264.03204   -111.83365    38760.619 
  928100    298.01221   -1496.0282    481.48556    319.71072    581.25484    38760.619 
  928200    302.17502   -1479.1805     528.7806    402.49104    166.82122    38760.619 
  928300      292.605   -1520.2232    487.81852    277.63956     509.9257    38760.619 
  928400    310.88337   -1563.2475    460.79221    289.42444    768.41858    38760.619 
  928500    296.87401   -1550.6585    497.42935    275.92824    589.17492    38760.619 
  928600    301.36644   -1563.8126    501.11296    286.57117    379.27459    38760.619 
  928700    303.36835   -1523.4594    473.17958    307.95388    529.58544    38760.619 
  928800    302.90335   -1538.0202    461.82167    279.95331   -49.958961    38760.619 
  928900    291.27144   -1500.1475    487.55711    291.48335   -511.76866    38760.619 
  929000    304.65018   -1486.8841    499.17822    376.26678   -642.29745    38760.619 
  929100    299.11881   -1556.1138    498.93287    282.02681   -405.48459    38760.619 
  929200    310.54957    -1558.941    437.43051     268.8748   -104.50563    38760.619 
  929300    302.73664   -1568.5905    488.68539    275.50029   -107.60971    38760.619 
  929400    295.09044    -1590.203    453.15357    184.12261    410.61413    38760.619 
  929500    299.26429   -1548.0864    512.96167    304.73433   -26.586056    38760.619 
  929600    304.22835   -1571.2715    494.01085    284.82343   -356.36291    38760.619 
  929700    306.93808   -1549.8735    468.69489    293.03737   -411.76355    38760.619 
  929800    301.25696   -1531.4615    473.78708     291.1062   -761.42368    38760.619 
  929900    299.09593   -1517.8853    477.01425     298.2343   -297.01736    38760.619 
  930000    311.51281   -1496.3174    516.92848    415.30902   -493.99527    38760.619 
  930100    298.06935   -1540.2403    484.05969     278.3285   -452.80811    38760.619 
  930200    291.74891   -1569.9901    464.59506     200.8164   -548.44085    38760.619 
  930300     306.0407   -1540.7827    505.66877    335.08438     239.3874    38760.619 
  930400    310.85325   -1565.9339    474.15268    299.96364    203.56164    38760.619 
  930500    301.87429   -1547.8309    460.56307    264.27668    30.180474    38760.619 
  930600    314.11925   -1562.6951     480.9516    324.62386    258.76739    38760.619 
  930700    305.13296   -1524.7928    499.78677    341.12814   -125.69785    38760.619 
  930800    290.99941   -1568.8666    483.27224    217.26143    -865.3336    38760.619 
  930900    301.28865   -1533.9451    453.09444    268.07188   -492.88137    38760.619 
  931000    295.01449   -1553.6151    498.02659    265.24344   -554.74733    38760.619 
  931100    292.11007   -1578.6427    505.37722    234.56295    -567.3547    38760.619 
  931200    302.65814   -1531.3567    476.84455    300.54183   -377.35137    38760.619 
  931300    299.81433    -1491.991    489.26662    339.59732   -608.04705    38760.619 
  931400    306.64255    -1525.825    492.41364    339.48154     164.3699    38760.619 
  931500    294.31482   -1536.2345    499.95027     281.4152    852.19157    38760.619 
  931600    305.79911   -1551.2869    499.23559    317.06531    897.61723    38760.619 
  931700    300.77616    -1547.605    515.73843    314.76139    611.31781    38760.619 
  931800    306.16451   -1484.2094    496.69521    383.23842     135.3467    38760.619 
  931900    283.47241   -1525.4212    484.77677    228.51162   -309.01088    38760.619 
  932000    303.66281   -1560.7087     503.6757    302.51906   -67.990434    38760.619 
  932100    288.16123   -1556.6802    479.90007     213.3686   -461.88531    38760.619 
  932200    306.84253   -1529.8026    514.60893     358.5946   -272.99147    38760.619 
  932300    293.45709   -1531.8292    503.27635    285.30635   -580.83202    38760.619 
  932400    300.57369   -1504.2549    507.93286    349.39951   -443.91593    38760.619 
  932500    309.12485   -1528.4935    483.48004    338.99308    220.83268    38760.619 
  932600    305.70258   -1552.4873    476.01239    292.20958    249.91121    38760.619 
  932700    302.76025   -1548.0887    475.70413    283.12657    150.93714    38760.619 
  932800    292.65039   -1560.5028    478.08974    227.83446   -234.87154    38760.619 
  932900    306.41678    -1548.802    482.15319    305.23324    -332.4837    38760.619 
  933000    298.88063   -1564.2546    514.34708    288.23392    252.26998    38760.619 
  933100    300.70375   -1545.1805    475.06682    276.19013    82.115182    38760.619 
  933200    303.76073   -1602.1856    486.01487    243.81973    57.277016    38760.619 
  933300    294.39921   -1599.6546    470.13262    188.55532   -39.521992    38760.619 
  933400      296.301   -1520.1633    487.20907    293.63768   -4.0561058    38760.619 
  933500    295.73803   -1516.6488    480.75133     288.1739   -81.693935    38760.619 
  933600    305.66035   -1552.7481     477.2081    292.95541   -222.41901    38760.619 
  933700    295.33894   -1566.3358    483.21559    239.16439   -91.212316    38760.619 
  933800    301.63009   -1523.9261    469.82093    296.34605    83.786729    38760.619 
  933900     294.7972    -1514.801    473.91003    278.96822   -234.65603    38760.619 
  934000    309.32322   -1505.6078    485.17424    364.46117    577.65641    38760.619 
  934100    297.69024   -1516.8905    504.06552    319.98679    399.12164    38760.619 
  934200    306.07744   -1492.0276    495.42328    373.75848    496.99267    38760.619 
  934300    296.50866   -1502.2178    465.96291    291.26677     -61.1606    38760.619 
  934400    286.98598   -1514.5275    486.41619    256.77562    183.63889    38760.619 
  934500    292.60422   -1552.3772    490.04346    247.70713   -353.51149    38760.619 
  934600    291.60081   -1478.1125    460.06728     287.5031    362.68462    38760.619 
  934700    305.77009   -1513.8934    490.67649    345.76986    33.333187    38760.619 
  934800    296.01473   -1534.9834    491.54621    281.87306   -126.86547    38760.619 
  934900    303.38438   -1520.3303    458.28983      296.265   -232.28852    38760.619 
  935000    301.82391   -1544.3537    503.31626    310.28149    422.69889    38760.619 
  935100    295.21039   -1543.7605    460.64855    238.59717    -317.3477    38760.619 
  935200    291.25806    -1492.769    481.86352    293.10831   -246.23372    38760.619 
  935300    296.83678   -1482.8551    473.84451    319.98007   -245.21503    38760.619 
  935400    293.03935    -1498.078     479.7966    293.70753   -537.48601    38760.619 
  935500    306.61097   -1490.8324    497.11853    379.03761   -39.244791    38760.619 
  935600    300.69482   -1528.5656    487.27931    304.97754    139.32536    38760.619 
  935700    305.95653   -1527.1348    469.49817    312.18484    288.72919    38760.619 
  935800    294.27317   -1507.7043      490.062    299.87062    352.53631    38760.619 
  935900    300.50023   -1492.8793    498.54989    351.06323    560.08767    38760.619 
  936000    294.53872    -1478.398    471.40339    311.70724    348.09699    38760.619 
  936100    302.27754    -1494.521    488.79031    347.61921    268.11815    38760.619 
  936200     303.0955   -1515.4756    467.81748      309.354     682.7716    38760.619 
  936300    299.26049   -1522.4711    486.71347    304.08443    676.19767    38760.619 
  936400    296.49162   -1536.2567    448.51086    239.69948    465.57241    38760.619 
  936500    312.71366   -1531.5044    490.86712    359.43703    873.62393    38760.619 
  936600    298.81334   -1483.3415    462.50304    317.00164    146.36652    38760.619 
  936700    312.05749   -1486.5761    483.17875    393.73916   -0.7568406    38760.619 
  936800      295.994   -1523.1995    461.87118    263.88906   -258.56374    38760.619 
  936900    300.16862   -1512.2259    488.33175    320.01376   -337.33474    38760.619 
  937000    297.23941    -1510.094    461.66497    282.36435   -4.3788933    38760.619 
  937100    299.58147   -1544.8276    479.81261    276.26416     52.73025    38760.619 
  937200    292.44567   -1544.9126    489.70076    254.11912    375.24092    38760.619 
  937300    297.87442   -1522.6502    465.76306    276.74928    295.19917    38760.619 
  937400    298.02119   -1535.8575    464.86403    263.30009    517.48823    38760.619 
  937500    304.80251   -1564.0899     509.1957    309.76044   -181.36124    38760.619 
  937600    302.62845   -1548.6408    459.90166    266.18193   -107.72515    38760.619 
  937700    295.36071   -1577.2608    481.47097    226.59231    -321.1016    38760.619 
  937800    303.16045   -1553.4177    457.41623    261.30149   -33.127483    38760.619 
  937900     307.8372   -1538.1151    466.96128    307.08773   -151.44119    38760.619 
  938000    296.78879   -1568.5146    452.73707    212.99836   -111.57765    38760.619 
  938100    304.96597   -1570.2095    496.75062     291.9276    387.03415    38760.619 
  938200    295.63451   -1551.9671    492.84799    264.48889    19.658755    38760.619 
  938300    299.74109    -1527.714    483.98723    298.26704    5.0577756    38760.619 
  938400     296.8671   -1540.1642    482.66714    271.62944    162.38663    38760.619 
  938500    305.18316   -1561.8356    462.21926    266.74259    272.70521    38760.619 
  938600    291.18476   -1552.8845    463.45921    214.26035    601.77777    38760.619 
  938700    293.77572   -1518.3137    459.86881    256.84095     720.9863    38760.619 
  938800    309.05957   -1542.9447    484.24299    325.01263     227.2483    38760.619 
  938900    292.59502   -1489.2351    495.16594    315.93044    236.24109    38760.619 
  939000    285.30298   -1513.8969    489.09179    252.54677    561.32524    38760.619 
  939100    303.96552   -1512.4263    473.08425    321.56528    540.50903    38760.619 
  939200    303.32608   -1543.5455    483.47466    297.97357    614.75356    38760.619 
  939300    298.57936   -1537.9452    467.66718    266.51455    764.10624    38760.619 
  939400    298.73649   -1542.8308    475.39226    270.05751    308.28835    38760.619 
  939500     304.8433   -1498.6037    472.86383    339.09744    826.84858    38760.619 
  939600    293.12751   -1516.4916    499.56171    295.45376    206.59335    38760.619 
  939700    295.00036   -1462.5122    476.74991    335.00645   -38.070548    38760.619 
  939800     298.0877   -1494.6369    466.63346    306.58783    -535.8363    38760.619 
  939900    295.77901   -1473.2788    471.12957    322.10565   -536.70081    38760.619 
  940000    312.84545   -1498.9699    466.44465    368.13916   -460.77282    38760.619 
  940100     309.7653   -1530.0376     462.3539    319.19031   -649.20453    38760.619 
  940200    305.17421    -1527.626    464.56199    303.25481    -581.9255    38760.619 
  940300    308.52308   -1497.0323    485.72173    370.00173   -152.26177    38760.619 
  940400    294.20665   -1541.5341    455.14351    230.82453    109.33001    38760.619 
  940500     300.9631   -1527.2338    492.35862    312.58979     421.1628    38760.619 
  940600    301.86934    -1503.889    477.36491    324.99829    742.82666    38760.619 
  940700    292.61332   -1486.5611    486.15167    309.67208    56.727536    38760.619 
  940800    299.70118   -1549.6059    476.05849    268.26776    93.114624    38760.619 
  940900     286.0256   -1537.2203    466.88498    210.25184    66.497847    38760.619 
  941000    298.41173   -1517.3319     496.3893    315.09948    83.061305    38760.619 
  941100    308.55674   -1482.0937    476.52519    375.89455     318.0221    38760.619 
  941200    295.10591   -1496.9538    467.68548    291.97297    641.82416    38760.619 
  941300    304.80146   -1527.0403    451.92542    289.53512    385.17479    38760.619 
  941400    308.83071   -1532.9516     489.9865    339.72463    -45.89379    38760.619 
  941500     300.4781   -1507.4088    490.66635    328.55111    526.75869    38760.619 
  941600    313.41431   -1523.4559    466.15875     345.9141   -319.66889    38760.619 
  941700    303.58169    -1473.706    476.07925    361.56217   -480.42078    38760.619 
  941800    303.48942   -1504.9205     487.5559    341.41114   -654.93195    38760.619 
  941900    290.88424   -1470.0833    494.44978    326.70659   -89.800189    38760.619 
  942000    309.54755   -1434.2338    482.88317    434.54846   -471.11208    38760.619 
  942100    295.93187   -1467.4503    482.92099    340.41001    -481.5184    38760.619 
  942200     290.7501   -1476.4431    464.57137    289.86787   -223.87179    38760.619 
  942300    301.59487   -1480.1513    458.16681    328.30905    125.68283    38760.619 
  942400    296.25038    -1525.646    486.32427    287.04359   -98.345953    38760.619 
  942500    296.42832   -1515.4232    485.28164    297.02046   -303.85205    38760.619 
  942600    298.24762   -1486.4501     448.2754    297.13264   -270.24524    38760.619 
  942700    308.13572   -1469.1917    458.27699    368.66338    248.23675    38760.619 
  942800    305.61653   -1482.4849    467.19694    353.01127    111.08497    38760.619 
  942900    312.15495   -1492.5433    459.11363    364.14323     429.8289    38760.619 
  943000     301.2957   -1440.8484    481.20304    389.30874    456.11578    38760.619 
  943100    290.16369   -1483.4369    459.21785    274.89501   -25.050489    38760.619 
  943200    293.41629   -1497.0985    504.99707     321.5752   -510.29014    38760.619 
  943300    293.48783   -1474.6645    481.55455    320.88687    302.02847    38760.619 
  943400    307.85999   -1524.8431     445.4684    298.96891   -159.39434    38760.619 
  943500    296.89045   -1540.6239    480.44984    269.05689   -155.89496    38760.619 
  943600    303.13822   -1496.2401    465.35698    326.32022   -448.21046    38760.619 
  943700    305.71376   -1496.1702    459.40583    331.97018   -95.149738    38760.619 
  943800     302.5601   -1469.6252    483.05191    368.04173   -217.99829    38760.619 
  943900    299.43978    -1478.694    462.10669    324.05751   -215.79741    38760.619 
  944000    295.90966   -1460.5432    482.90888    347.20554   -320.74024    38760.619 
  944100    302.73795   -1500.3484    474.70619    329.76902    274.90587    38760.619 
  944200    289.63366   -1489.4726    455.97184    263.24031   -392.50323    38760.619 
  944300     295.3919   -1472.0952    486.69663    337.12315   -432.33179    38760.619 
  944400    291.73855    -1497.896    468.10978    276.37879   -403.45954    38760.619 
  944500    306.68399   -1498.7658    473.50522    347.81781    318.78023    38760.619 
  944600    293.42981   -1508.9873    473.66155    278.41142    481.63636    38760.619 
  944700    294.16395   -1491.0882     481.6749    307.61072    362.67666    38760.619 
  944800    297.15226   -1520.9992    467.33548    276.73946    553.04515    38760.619 
  944900    300.62427   -1537.7084    506.65066    314.89022    409.93201    38760.619 
  945000    298.94479    -1493.375    490.56361    335.61721    365.14949    38760.619 
  945100    307.64345   -1481.4513    470.15194    366.07471    327.57251    38760.619 
  945200     292.6212   -1498.6162    477.95077    289.45136   -549.29603    38760.619 
  945300    291.64782   -1499.1849    469.18178    275.75574    -295.9206    38760.619 
  945400    293.39474   -1498.8762    469.89995    284.60382   -334.44762    38760.619 
  945500    298.10037   -1519.0474    506.39102    321.99158    203.35099    38760.619 
  945600     301.6667   -1560.6458    484.80229    274.77164   -78.024382    38760.619 
  945700    296.96129   -1525.7563     487.9808    291.77269    -173.7303    38760.619 
  945800    306.05947   -1505.2792    476.04732    341.05047   -131.38975    38760.619 
  945900    291.85954   -1508.4371    493.56761    291.83728   -407.69611    38760.619 
  946000     300.3788   -1484.6166    492.83525    353.06758   -379.17592    38760.619 
  946100    290.97764   -1510.1791    472.03018    264.60944   -600.44777    38760.619 
  946200    300.77943     -1498.78    483.81316    331.67582   -132.01184    38760.619 
  946300    289.55558   -1494.5016    479.58704    281.47692   -339.68435    38760.619 
  946400    288.64729   -1519.4545    493.84984     266.7203   -525.01127    38760.619 
  946500    299.11078   -1542.0868    481.61009    278.69514    180.02678    38760.619 
  946600    312.16553   -1551.6257    471.66564    317.66017   -244.64847    38760.619 
  946700    299.53137   -1504.7925    465.88814    302.15052   -540.07911    38760.619 
  946800    305.13468   -1517.3274    450.33059    299.14506   -700.43113    38760.619 
  946900    313.77806   -1521.3447    490.71517    374.21023   -494.24584    38760.619 
  947000    301.98198   -1523.7188    456.93215    285.24004   -154.61703    38760.619 
  947100    308.46165   -1527.1322    463.30617    317.21132   -701.01786    38760.619 
  947200     309.0747    -1582.377    479.79026    281.19533   -274.20315    38760.619 
  947300    301.65636   -1515.3952    482.53088    317.70453   -119.27964    38760.619 
  947400    290.10928   -1526.7109    465.75484    237.91446     2.682254    38760.619 
  947500    296.72342   -1547.7264    500.86392    281.62067    -162.1502    38760.619 
  947600    304.62801   -1562.6251     463.0067     264.2551   -378.98004    38760.619 
  947700     293.4122   -1524.1426    455.53468    245.05038   -238.88478    38760.619 
  947800    297.78122   -1537.6896    478.98698     274.5165    -382.1276    38760.619 
  947900     299.7296   -1521.9198    491.88883    311.91141   -72.639341    38760.619 
  948000    302.54497   -1523.7523    461.01868     291.8137    192.71575    38760.619 
  948100    303.02955   -1482.6943     477.8969    351.91947    144.82641    38760.619 
  948200    293.89277   -1508.0541    496.90828    304.66406   -351.69632    38760.619 
  948300    295.45078   -1461.0275    492.24605    354.00392    -453.9072    38760.619 
  948400     298.6686   -1505.9543    482.18214    313.41992   -91.219488    38760.619 
  948500    299.38085   -1510.0307    464.47707    294.82733   -398.65329    38760.619 
  948600     297.6875   -1511.8367    484.52509    305.48787   -550.99479    38760.619 
  948700    312.86915   -1474.1665    488.11404    414.71799   -64.937919    38760.619 
  948800    303.02826   -1483.3585    486.09914    359.45176     99.49061    38760.619 
  948900    300.20355   -1476.3318    488.14532    355.87785    218.38481    38760.619 
  949000    295.91219   -1522.6842    463.02232    265.18925    56.628396    38760.619 
  949100    306.29114   -1470.2136    511.07072    412.17671   -99.642348    38760.619 
  949200    305.45669   -1459.5402     487.8857    395.92907   -76.601734    38760.619 
  949300    298.13957   -1468.0697    477.43101    344.18482   -139.91702    38760.619 
  949400    301.10771   -1489.7255    483.15462    341.54152   -373.13539    38760.619 
  949500    303.66721   -1507.7114    463.17537    315.03578   -213.84979    38760.619 
  949600    304.06835   -1479.4257    492.04689    373.98897     -89.5011    38760.619 
  949700      298.796   -1477.5394    516.78852    377.01164   -560.16476    38760.619 
  949800    304.78652   -1482.2012    482.60558    364.98749   -168.30428    38760.619 
  949900    309.54107   -1485.2932    492.05554    392.63238    23.068934    38760.619 
  950000    304.23921   -1489.2472    483.41834    356.30388    -278.9207    38760.619 
  950100    296.73106   -1528.0429    463.58831    264.06282    325.34182    38760.619 
  950200     303.0761   -1510.1158    491.53369    338.34319    896.65809    38760.619 
  950300    302.47737   -1477.3953    496.77706     373.6264    626.04051    38760.619 
  950400    302.78094   -1507.9599    478.43536    326.07921    304.83262    38760.619 
  950500    290.10903   -1504.7841    453.18273    247.26804    105.09165    38760.619 
  950600    305.38282   -1509.9061    477.28292    334.62964     155.7539    38760.619 
  950700     300.5399   -1536.8768     478.9343    287.62771    501.40421    38760.619 
  950800    294.73715   -1490.5814    481.71372    310.72262    197.01565    38760.619 
  950900    299.11812   -1492.7581    471.78648    318.23308     126.2756    38760.619 
  951000    308.72355   -1440.5674    484.36642    426.00886    181.60157    38760.619 
  951100    305.06482   -1479.6277    500.10699     386.3084    134.27669    38760.619 
  951200    297.56019    -1477.854    510.15489    364.53049   -141.74018    38760.619 
  951300    303.42323   -1465.3254    496.68139    389.83539   -188.66881    38760.619 
  951400    302.12703   -1508.6189    440.74782    284.80505    282.35707    38760.619 
  951500    309.59274   -1541.8992    497.11059     341.3128     256.2018    38760.619 
  951600    299.34249   -1530.1127    466.65945    276.75595    394.73126    38760.619 
  951700    295.62147   -1490.9871    478.08976    310.65222    287.50396    38760.619 
  951800    295.85222   -1471.2241    486.89449    340.25304    816.16777    38760.619 
  951900    299.14628   -1478.5456    502.49069    363.27584    124.20894    38760.619 
  952000    295.13758   -1441.8596    497.48997    377.01349   -641.18469    38760.619 
  952100    308.56269   -1497.5673    496.98912    380.91152    21.463941    38760.619 
  952200    313.23601   -1465.1566    512.81264      450.069    215.28421    38760.619 
  952300    306.48219   -1484.5087    482.53816    370.20433    451.45907    38760.619 
  952400    299.27072   -1508.8661    483.09242    314.11419    723.76198    38760.619 
  952500    299.58109    -1475.469     492.8634    358.67186    390.80936    38760.619 
  952600    303.64028   -1462.1751    488.46991    385.74606    541.39532    38760.619 
  952700    291.01772   -1448.0751    501.89216    356.75479    239.49006    38760.619 
  952800    306.61284    -1472.714    479.40133    379.44718    410.80136    38760.619 
  952900    296.57346   -1469.8122    488.47411    346.47374    -214.8988    38760.619 
  953000    301.43937   -1477.2715    482.17799    354.50376   -17.563482    38760.619 
  953100    297.80114   -1509.5068    496.72666    320.52817     315.5886    38760.619 
  953200    308.43739   -1482.0209    459.29457    358.20234   -58.800785    38760.619 
  953300    306.14587   -1471.2143    499.03568    398.49055    341.95248    38760.619 
  953400    300.11086   -1477.5271    469.01599    335.13825   -99.938166    38760.619 
  953500    293.24381   -1409.2201    503.95305    407.63729   -277.27466    38760.619 
  953600     298.5564   -1440.1716    485.74734    382.26554   -569.51466    38760.619 
  953700    294.53753   -1446.2134    490.57818    363.06137   -266.81298    38760.619 
  953800    310.08984   -1481.6528     487.3952    394.06936   -180.82308    38760.619 
  953900     289.8729   -1487.5794    493.47523    303.70799    271.87172    38760.619 
  954000    298.93227   -1485.2659    495.27474    348.38143    189.74741    38760.619 
  954100    314.84705   -1487.6095    487.63512    409.65148   -123.98124    38760.619 
  954200    310.08119   -1538.5253    487.12168    336.88468    300.32807    38760.619 
  954300    306.82659    -1482.414    492.75042    384.05331   -4.1404246    38760.619 
  954400    293.16917   -1510.2407    471.09999     273.4295   -390.59857    38760.619 
  954500    295.06669   -1539.6614     471.2654     252.6697   -496.18261    38760.619 
  954600    296.73153   -1551.5829    483.77735    260.71398   -230.11787    38760.619 
  954700     304.3964   -1516.0045    477.43839    324.27039   -104.99263    38760.619 
  954800    304.22498   -1461.2289    506.75709     407.5972   -257.72842    38760.619 
  954900    297.89159   -1443.3322    495.43265     385.8137    330.89135    38760.619 
  955000    299.27043   -1467.6809    497.01327    369.21898    189.16278    38760.619 
  955100    296.08569   -1494.9755    507.44343    338.09587   -16.620227    38760.619 
  955200    295.68798   -1480.5506     480.8312    324.12793    96.724968    38760.619 
  955300    303.12681   -1498.0317    483.25385    342.37447   -49.003046    38760.619 
  955400    299.35388   -1487.6724    485.42618    338.01396   -145.23821    38760.619 
  955500     302.9786   -1495.0546     486.4459    347.88006    47.370061    38760.619 
  955600    293.07273    -1510.157    471.40289    273.38431   -55.256161    38760.619 
  955700    300.35915   -1492.6916    479.15973    331.22912    104.43213    38760.619 
  955800    312.94765     -1484.03    493.20396    410.29592    214.95635    38760.619 
  955900    304.82436   -1517.2014    493.71506    341.26621    206.97739    38760.619 
  956000    299.66312   -1506.0463    506.24914    341.84761   -64.146279    38760.619 
  956100    299.41488   -1479.1996    479.33077    340.66453   -256.52809    38760.619 
  956200    294.21831    -1455.976    489.66096    350.95228   -161.89123    38760.619 
  956300    303.00075   -1503.1628    463.00152    316.42659    347.92717    38760.619 
  956400    304.14525   -1536.4686    499.55079    324.79424    289.05733    38760.619 
  956500    303.97413   -1514.3239    478.64147    325.26345   -10.831557    38760.619 
  956600    298.94898   -1526.8367    460.03955    271.65026    -110.9579    38760.619 
  956700     302.9921    -1474.972     486.7072     368.2844    203.71971    38760.619 
  956800    302.70026   -1530.5076    484.64485    309.37981   -240.36635    38760.619 
  956900    302.84891   -1550.7583    454.92041    260.07023   -192.15428    38760.619 
  957000    288.84365   -1543.4167    494.25442    244.04178     144.5896    38760.619 
  957100    293.43978   -1533.7807    469.41858     249.4196   -297.93423    38760.619 
  957200    302.56036   -1529.2319    442.93424    268.31858   -212.09135    38760.619 
  957300     299.5473   -1482.5559    491.15341    349.72364   -369.16582    38760.619 
  957400    304.98133   -1479.0598    481.51569    367.91116   -313.95284    38760.619 
  957500    304.27059   -1523.0567    467.95613    307.17261   -465.50915    38760.619 
  957600    296.11179   -1498.8281    482.93153    309.84822   -118.89171    38760.619 
  957700    306.71301   -1478.3297    493.77562    388.65428    26.544637    38760.619 
  957800    305.79486   -1471.0156    488.63435    386.71638   -362.01481    38760.619 
  957900    296.96208   -1503.5997    469.52219    295.47417   -368.41896    38760.619 
  958000    289.58479   -1506.5918    483.21235     273.1428   -321.46022    38760.619 
  958100    308.39721   -1538.0095    466.62435    309.36361   -325.31662    38760.619 
  958200    300.97874   -1525.5069     475.0788     297.1069    -307.7172    38760.619 
  958300    300.85872   -1550.3818    470.55465    267.17057   -840.72744    38760.619 
  958400    297.55107   -1517.4184    459.41767    274.18799   -359.69946    38760.619 
  958500     299.5372   -1499.2543    466.07027    307.89694    -440.9189    38760.619 
  958600    297.07589   -1510.8619    497.64826    316.84762   -374.54259    38760.619 
  958700    315.60226    -1535.565    451.20211    328.64416    23.165358    38760.619 
  958800    295.58441   -1528.3093     470.4911     265.5654   -395.56261    38760.619 
  958900    289.67162   -1537.6594    440.69682    199.94847   -90.217313    38760.619 
  959000    305.76233   -1537.9566     514.9672    345.96258    52.300465    38760.619 
  959100    300.05985   -1497.1319    471.96828     318.2573    43.442759    38760.619 
  959200     296.9571   -1521.3632    472.17918    280.34538    186.78975    38760.619 
  959300    299.36146   -1519.3473    445.40816    266.35502    226.24843    38760.619 
  959400    305.58314   -1540.4463    491.49301    319.19646    19.795139    38760.619 
  959500    305.12718   -1537.6851    505.47683    333.89999   -128.66775    38760.619 
  959600    301.38948    -1539.019    477.50145    287.85638   -515.92328    38760.619 
  959700    303.89029   -1528.0072     478.8427    311.40605   -515.19479    38760.619 
  959800    293.56235   -1522.1971    466.42222    258.55559   -909.94199    38760.619 
  959900    300.96151   -1490.4163    517.21635    374.25793    9.3943175    38760.619 
  960000    301.50206   -1468.6433    487.07271    368.30745    99.472332    38760.619 
  960100    298.74839   -1500.3176    505.30112    342.53286    647.49563    38760.619 
  960200    305.77758   -1510.9519     481.2574    339.32575    207.19395    38760.619 
  960300    295.27709   -1500.6674    484.29096    305.63126    376.80751    38760.619 
  960400    291.16999   -1497.5985    491.72693    297.74792    162.76745    38760.619 
  960500    292.62322   -1491.3837    483.95768    302.69985    920.56453    38760.619 
  960600    298.04705   -1504.6101    488.19249    317.99171     1222.533    38760.619 
  960700    296.71456   -1482.7275    485.40302    331.11906     882.1297    38760.619 
  960800    307.15867   -1504.1796    475.41708    346.44115    357.42166    38760.619 
  960900    298.70818    -1501.711    501.48427    337.14255    718.40589    38760.619 
  961000    304.01634   -1505.2581    493.38836    349.26515    534.26663    38760.619 
  961100      302.075   -1487.8682    476.02966    340.60466   -132.13515    38760.619 
  961200    294.03003   -1461.1787    484.94463    340.19037    65.555508    38760.619 
  961300    297.62406   -1459.9439    484.63938    357.21103   -56.245122    38760.619 
  961400    292.78453    -1492.762    474.11883    292.20494   -462.94839    38760.619 
  961500    299.25234   -1502.9559    476.13683    312.98647    -449.4734    38760.619 
  961600    291.15512     -1511.78    468.12487    259.89778   -179.15907    38760.619 
  961700    291.20905   -1486.4657    473.84655    291.17521   -335.90575    38760.619 
  961800    307.52764   -1491.4001    486.57983    372.03525   -239.10239    38760.619 
  961900     296.0405   -1440.5474    493.99532    378.87354   -390.66795    38760.619 
  962000    300.59764   -1484.7423    467.71402    328.80048    289.22035    38760.619 
  962100    296.69033   -1492.1915    484.81237    320.95587    -216.1155    38760.619 
  962200    308.71641   -1448.3023    474.74134    408.61689   -260.95262    38760.619 
  962300    304.17597   -1453.5224    476.45694    384.78406   -72.642525    38760.619 
  962400    300.56458   -1465.8462    468.12014    347.95469   -266.73192    38760.619 
  962500    308.03837   -1458.3232    466.85724    387.67627    32.946658    38760.619 
  962600     303.3447    -1485.989    492.66089    364.79965    107.36187    38760.619 
  962700    308.15644   -1497.6074    474.49915    356.56253   -482.22563    38760.619 
  962800    299.09324   -1496.2781    457.12684    299.94204    125.52364    38760.619 
  962900    293.59412   -1473.8966    468.67183    309.24799   -377.14009    38760.619 
  963000    292.70251   -1453.3642    475.32132    332.43799   -221.94722    38760.619 
  963100    300.72469   -1437.5506    492.54781     401.3948   -723.64013    38760.619 
  963200    302.85192   -1470.8097    455.23044    340.34225    -118.2397    38760.619 
  963300    303.23885   -1498.6628    464.03143    323.02249   -113.81964    38760.619 
  963400    304.86762   -1479.5986    448.15347    333.50114   -704.36791    38760.619 
  963500    298.76046   -1494.7832    467.70187    310.52207   -442.72339    38760.619 
  963600    293.46382   -1522.1393    449.83966    241.58971   -398.13977    38760.619 
  963700    300.83898   -1511.2158    457.94336    293.63685   -503.72011    38760.619 
  963800     292.0294    -1482.264    469.44462    294.64787   -607.62901    38760.619 
  963900    297.68375   -1481.0868    453.35698    305.05291   -415.94344    38760.619 
  964000     302.9663    -1543.647    466.03375    278.82044    570.36434    38760.619 
  964100     287.3842   -1506.1659    474.34755    254.85144    370.02167    38760.619 
  964200    302.14796   -1517.6986    447.23786    282.30912    327.27209    38760.619 
  964300    298.63436    -1475.982    479.07028    340.12705     552.2595    38760.619 
  964400    289.54128   -1485.1877     475.0633    286.20312    287.31434    38760.619 
  964500    291.41688   -1528.7574    449.01309    224.98056   -191.19033    38760.619 
  964600    303.24678   -1550.3677    439.77241    247.09408    370.26899    38760.619 
  964700    296.38776    -1535.712     462.0772    253.34558    62.751411    38760.619 
  964800    304.40304   -1477.7471    460.22598    345.34513    438.96343    38760.619 
  964900    307.77926   -1435.0174    456.00155    398.96631    99.016037    38760.619 
  965000    299.39233   -1474.1511    458.21841    324.49971   -646.83178    38760.619 
  965100    304.68971   -1452.6106    475.47155    387.01058   -74.444377    38760.619 
  965200    299.52417   -1458.8558    466.33423    348.50106   -96.547957    38760.619 
  965300    290.06563   -1440.1604    461.42201    319.93673    83.819988    38760.619 
  965400    295.72409   -1436.0689    484.14152    372.08158    793.12767    38760.619 
  965500    304.49763   -1457.3395    472.60198    378.55219    871.86988    38760.619 
  965600    289.66438   -1487.7686     454.7017    263.81171    665.12957    38760.619 
  965700    303.68634   -1476.0336    503.90972    387.53351    959.04759    38760.619 
  965800    296.09388    -1453.235    470.17033    342.59993    635.95023    38760.619 
  965900    286.98011   -1484.4148    470.33359    270.77947  -0.13261686    38760.619 
  966000    309.91361   -1442.0774    473.48372    418.94427    438.63315    38760.619 
  966100    296.71523   -1434.9538    471.49566    364.98834   -89.744515    38760.619 
  966200     296.8242   -1457.7917    467.56573    338.70839   -404.98302    38760.619 
  966300    297.03789   -1468.8506    446.81706    307.85761   -332.95697    38760.619 
  966400     298.9623   -1454.8477    467.77657    351.43593   -372.14387    38760.619 
  966500    302.52964    -1444.549    456.09341    366.02306    297.86512    38760.619 
  966600    302.52579   -1492.9092    472.91175    334.46395     338.2203    38760.619 
  966700    299.60175   -1457.8903    491.92741    375.40709    305.19595    38760.619 
  966800    298.79723   -1435.7841    462.64165     364.6255    384.27261    38760.619 
  966900    294.32144    -1418.266    464.84003    364.30308   -131.40482    38760.619 
  967000    296.49052   -1455.2226    452.79169    325.00949   -327.22185    38760.619 
  967100    296.07447    -1493.749     454.8572    286.68593   -331.67977    38760.619 
  967200    293.73475   -1456.6663    459.03168    317.46777     -258.779    38760.619 
  967300    304.93471   -1458.4539     461.4958    368.28853   -608.46251    38760.619 
  967400    299.32058   -1457.9826    475.80347    357.93195   -453.74239    38760.619 
  967500     291.0278   -1461.7577    478.35241    319.57754   -526.68411    38760.619 
  967600    308.04468    -1475.273    476.07364    379.97109   -289.52006    38760.619 
  967700    299.67489   -1486.8138    461.42832      316.312   -34.910543    38760.619 
  967800    312.00268   -1509.5511    496.55671    383.89672    406.37665    38760.619 
  967900     296.0768   -1544.0211    436.11606    217.68312    328.01726    38760.619 
  968000    293.11237   -1514.3178    466.87194    264.87002   -214.33951    38760.619 
  968100    300.75024   -1497.0106    457.64715    307.14856   -522.18261    38760.619 
  968200    289.93175   -1545.0408    447.95997    200.99489   -154.90899    38760.619 
  968300    305.55261   -1545.3803    454.95426    277.58701    73.899405    38760.619 
  968400    294.77155   -1516.4496    463.54981    266.84457    398.42157    38760.619 
  968500    305.86074   -1509.2814    478.84786      338.959    519.92831    38760.619 
  968600    303.19033    -1565.657    498.46451    290.24417    191.06729    38760.619 
  968700    293.29991   -1543.5509    440.26189    209.86654   -66.891364    38760.619 
  968800    299.72959   -1541.2359    465.89226    266.59873    220.95127    38760.619 
  968900    305.13901   -1522.0274    472.68909    316.82299   -262.50109    38760.619 
  969000    302.64637   -1521.9689    465.38298    298.41541     51.31384    38760.619 
  969100    298.43574   -1502.1829     460.3411    294.30769   -99.695518    38760.619 
  969200    306.78289   -1496.5673    500.69909    377.65298    12.179862    38760.619 
  969300    291.46374   -1542.0055    461.99295    224.92209   -279.00379    38760.619 
  969400    288.70236   -1511.4398    462.47008    243.60177   -194.07631    38760.619 
  969500    284.80418   -1513.5125    486.43866    248.04475   -80.640558    38760.619 
  969600    293.36872   -1498.9456    473.30388    287.82186    27.542867    38760.619 
  969700    290.70912   -1498.4046    456.99642    260.14795    161.69655    38760.619 
  969800    299.82374   -1481.1299    465.95332    327.18732    257.09147    38760.619 
  969900    298.22728   -1517.0645    492.53684    310.68862   -216.08381    38760.619 
  970000    304.15087   -1547.6356    428.07404    242.17564   -87.197776    38760.619 
  970100    306.19673   -1539.4787    473.18063    304.59876    566.83657    38760.619 
  970200    298.89294   -1560.1091    439.21534    217.30269    5.1555108    38760.619 
  970300    312.80492   -1578.9488    467.66937    289.20352    235.08312    38760.619 
  970400    295.49715   -1562.8584     455.1713    215.30588    519.12103    38760.619 
  970500    293.00297   -1525.2918    470.73517     257.2694    134.44614    38760.619 
  970600    300.16505   -1545.2461    473.18707    271.83297    55.245939    38760.619 
  970700    298.20796   -1535.6912     448.1693    247.60778    16.377632    38760.619 
  970800    294.35667   -1505.2066    457.01168    269.69196    212.86268    38760.619 
  970900    317.36139   -1516.7953     459.1308    363.21853    327.33194    38760.619 
  971000    299.23863   -1487.2969    464.50183     316.9491    469.63808    38760.619 
  971100    291.39902   -1491.4822    477.37654    290.53924    325.69323    38760.619 
  971200    303.43683   -1493.6039    463.95715    328.89357    54.293458    38760.619 
  971300    308.28532   -1516.2158    435.98945    300.02152     351.7186    38760.619 
  971400    300.36579   -1483.7455    482.51566     343.5609    135.80468    38760.619 
  971500    284.11359   -1465.9207    471.98844    278.09445   -116.04251    38760.619 
  971600    308.45825   -1491.7803    457.63099    346.87281   -301.67046    38760.619 
  971700    296.90681   -1495.5356    466.40506    300.17373   -266.93058    38760.619 
  971800     292.0297   -1464.3831      474.385    317.47043   -342.24798    38760.619 
  971900    303.52646   -1458.7693    467.24474    367.41706    73.058544    38760.619 
  972000     293.9023    -1429.717    450.02179    336.15731   -353.57988    38760.619 
  972100     302.1919   -1446.6121    462.67782    369.03229   -212.76571    38760.619 
  972200     302.5139   -1469.9705    459.00813    343.44579    459.82476    38760.619 
  972300    293.20089   -1473.3739    475.90885     315.2471    448.36286    38760.619 
  972400    296.75063   -1473.0493    486.05322    341.60891    610.71416    38760.619 
  972500    303.06979   -1436.5431    478.82287    399.17677    647.45686    38760.619 
  972600    309.95655   -1452.0009     470.0608    405.79014     34.17886    38760.619 
  972700    292.79023   -1413.2408    486.78382    384.41662    198.55853    38760.619 
  972800    301.53495    -1461.585    449.72815    338.16842    -77.19702    38760.619 
  972900    298.57268   -1473.8623    456.45574    319.35611    -339.3508    38760.619 
  973000    305.59887   -1422.7336    465.97509    411.46161     273.7897    38760.619 
  973100    300.72093   -1417.5373    462.05955    390.90295   -77.130364    38760.619 
  973200    292.18651   -1451.9365     453.6355    309.86963    445.90393    38760.619 
  973300    298.65613     -1465.35    462.56842    334.35469    201.95495    38760.619 
  973400    297.79775   -1441.0247    490.47641    382.74487    88.228822    38760.619 
  973500    304.12095   -1453.2861    466.40922    374.72633    15.663901    38760.619 
  973600    291.00269   -1426.0503    473.51455    350.33469    228.14135    38760.619 
  973700    305.29174   -1419.8851    498.76735    445.72734    233.86507    38760.619 
  973800    301.82679   -1433.6525    466.83586     384.5152   -409.69696    38760.619 
  973900    306.21795   -1446.6522    446.82126     371.1609     -23.8328    38760.619 
  974000    305.69413    -1431.299    449.43582    386.78345   -337.26791    38760.619 
  974100    286.06367   -1441.3463     464.3907    303.80199   -519.26829    38760.619 
  974200    303.47194   -1403.1552    461.91509    417.45735   -349.83183    38760.619 
  974300    300.54779    -1411.905     454.4742    388.17473   -1558.8806    38760.619 
  974400       304.03   -1453.6725    471.52825    379.05178   -910.89099    38760.619 
  974500    310.86283   -1451.2088    468.37429    408.95337   -668.76823    38760.619 
  974600    310.28697   -1443.6423    431.22645    376.79378   -666.65578    38760.619 
  974700     309.7188   -1438.1783    468.80074    417.28825   -556.56496    38760.619 
  974800    307.23749   -1467.5357     437.9035    345.92437   -508.18989    38760.619 
  974900     295.0973   -1469.0795     480.6711    332.79431   -396.60738    38760.619 
  975000    300.23492   -1449.9009    446.73252    341.03642   -136.69205    38760.619 
  975100    289.06352   -1449.2837    469.03756    313.94226     128.0139    38760.619 
  975200      304.676    -1482.469    472.57587    354.19518    -104.7972    38760.619 
  975300    293.49589   -1444.4239     447.3202    316.92928   -110.38802    38760.619 
  975400    308.09282   -1467.9166    445.43351    356.90288   -417.77311    38760.619 
  975500    295.46783   -1487.7124    456.45591    291.60518   -246.65541    38760.619 
  975600    298.72617   -1482.6186    464.74911    319.58033   -113.02867    38760.619 
  975700    297.83026   -1504.2433    471.54069    300.73606   -310.57913    38760.619 
  975800    287.76971   -1466.3293    468.02003    290.08659    68.184481    38760.619 
  975900    298.79922   -1447.5596    478.03752     368.2548   -160.39423    38760.619 
  976000    303.55637   -1460.3297    434.13921    332.88503   -576.65151    38760.619 
  976100    308.18668   -1456.2615     444.6969    368.24162   -408.37324    38760.619 
  976200     313.9066   -1456.4826    446.34682    395.27954   -435.87914    38760.619 
  976300    302.56713   -1414.5248    473.31194    413.43364   -46.151808    38760.619 
  976400    307.45411   -1425.9449    466.55741    417.13887    69.188018    38760.619 
  976500    307.24562   -1404.0645    480.74258    452.27103   -218.64493    38760.619 
  976600    297.87593   -1444.0846    472.92972    362.48829    -138.3929    38760.619 
  976700     304.5781     -1390.58    448.85711    421.92703    118.45566    38760.619 
  976800    303.46288   -1449.2032    481.36199    390.81574   -674.03749    38760.619 
  976900    301.65737   -1451.8081    464.45935    363.22464   -824.58185    38760.619 
  977000    303.76455   -1384.4021    465.68191    441.28742   -686.09175    38760.619 
  977100    299.68789    -1430.344    488.31763    399.72929   -982.37152    38760.619 
  977200    293.82888    -1440.429    460.87121    335.96602   -351.82471    38760.619 
  977300    290.89737   -1507.5977    462.01414    256.81543   -117.63001    38760.619 
  977400    285.84812   -1481.6342    453.71537    251.87365   -127.75652    38760.619 
  977500    305.58591   -1466.6101    450.79211    352.34414    121.65644    38760.619 
  977600    309.99226   -1464.2835    482.33143    405.93802     878.0896    38760.619 
  977700    293.33891   -1442.9386     481.6778    352.06932    1220.5406    38760.619 
  977800    304.66866   -1504.8947     476.8668    336.02752    1397.8969    38760.619 
  977900    303.95322   -1490.1514    472.09943    342.80026    868.36765    38760.619 
  978000      305.928   -1453.1743    452.27341    368.79283    482.74744    38760.619 
  978100    299.33229    -1485.548     447.0963    301.71183   -182.83209    38760.619 
  978200    297.20076   -1456.9895    443.25292    316.88368   -82.210652    38760.619 
  978300    297.13669   -1517.2969    470.26282    283.29936   -363.29627    38760.619 
  978400     306.6699   -1532.0867    442.81776    283.74638   -515.31868    38760.619 
  978500    304.81742   -1497.0292    447.06918    314.76145   -486.34296    38760.619 
  978600    297.30983   -1485.8652    442.58956    287.83303   -120.38725    38760.619 
  978700    304.66595   -1492.0467    453.11465    325.11123   -748.04216    38760.619 
  978800    298.42136   -1495.3426    469.05868    309.80122   -429.27737    38760.619 
  978900    296.26259   -1486.8032    439.19142    278.80822   -437.41734    38760.619 
  979000    305.83493   -1460.6932    442.66934    351.25318   -385.07308    38760.619 
  979100     305.9609   -1468.5126    460.42333    361.75178    105.11073    38760.619 
  979200    306.87562   -1453.5109    465.31133    385.73685    250.44408    38760.619 
  979300    295.44676   -1488.9106    470.26527    304.12199    375.18069    38760.619 
  979400    303.98608   -1478.7503    438.11777    320.36681    348.81666    38760.619 
  979500    305.36342   -1483.3518    443.68456    327.49879   -216.95447    38760.619 
  979600    296.28487    -1465.545    478.27992    339.25464   -166.79679    38760.619 
  979700    305.85399   -1471.8513    474.50997    372.02102    14.912911    38760.619 
  979800    295.14742   -1453.9639     446.7186    314.18185    127.73282    38760.619 
  979900     311.1414   -1423.0331    480.19791    450.19985   -802.66463    38760.619 
  980000    302.79411   -1430.9254    441.97107    366.70843   -203.59773    38760.619 
  980100    297.24879   -1426.0159      467.024    371.84349   -285.35312    38760.619 
  980200    306.68133   -1433.1943    448.17078    388.04298    24.123094    38760.619 
  980300    291.80585   -1433.0409    447.56199    320.98746     418.4969    38760.619 
  980400    294.14783   -1463.7987    450.76113    303.91419   -39.096756    38760.619 
  980500    300.94601   -1429.2182     447.2966    365.46687   -196.55113    38760.619 
  980600     294.6681   -1432.5341    451.95834    338.70545    -698.2273    38760.619 
  980700    302.32378   -1440.0901    468.98236    382.44926   -315.32906    38760.619 
  980800    304.43639   -1439.5808    462.62975    386.06442   -590.73152    38760.619 
  980900    294.03932   -1466.1377    483.92429    334.25254   -407.14902    38760.619 
  981000    298.30767   -1477.9244    439.47528    297.12702   -347.98213    38760.619 
  981100    293.96968   -1473.2282    445.79845     288.7244   -686.03662    38760.619 
  981200    302.81274   -1454.3058    462.82627    364.26659   -319.71238    38760.619 
  981300    303.29943   -1463.9612    454.47322    348.43715   -483.87109    38760.619 
  981400    295.88476     -1454.65    458.69976    328.77813   -17.026188    38760.619 
  981500    294.53897   -1489.1906    449.78246    279.29483   -158.30893    38760.619 
  981600    302.45759   -1528.4555    454.02022    279.72079    -44.86536    38760.619 
  981700    295.52354   -1555.8264    447.64203     214.9267   -502.91397    38760.619 
  981800    303.56401   -1497.4575    443.41213    305.06429   -140.65539    38760.619 
  981900     310.8011   -1527.8246    457.81354    321.50042   -131.53174    38760.619 
  982000    307.30492   -1510.7036    440.33272    305.48754   -378.43435    38760.619 
  982100    304.11748   -1526.0701    476.44038    311.95801   -821.24894    38760.619 
  982200    309.88914   -1463.3901    465.55212    389.59044   -21.525858    38760.619 
  982300    299.56656   -1479.7179    432.60796    294.10244   -120.57031    38760.619 
  982400    293.12001   -1499.3174    445.21782    258.25049    273.14143    38760.619 
  982500    295.00304   -1465.8023    451.00451    305.98297    108.45777    38760.619 
  982600    301.68185   -1518.5368    485.55766    317.70386    882.16894    38760.619 
  982700    292.02352   -1508.9295    446.83295    245.34433    296.40316    38760.619 
  982800    300.32702   -1513.3246    473.06776     304.3603    214.99163    38760.619 
  982900    299.93764   -1487.8252    486.41602    341.46461   -8.2727731    38760.619 
  983000     292.2562    -1442.832    463.10352    328.75414   -5.0425928    38760.619 
  983100    295.28994    -1454.535    458.66514    326.19537     383.9826    38760.619 
  983200    299.88299   -1445.2354     490.5769    387.97067     232.3601    38760.619 
  983300     303.1988   -1470.3436    460.17674    347.30772    171.95478    38760.619 
  983400    304.50166   -1473.4878    467.50634    357.32623    45.644493    38760.619 
  983500    286.64355   -1474.3081    449.89726    258.94302    76.178181    38760.619 
  983600     301.2138   -1478.2206    443.06811    313.43493   -373.92251    38760.619 
  983700    300.70805   -1504.0008     462.1496    304.47188    283.60782    38760.619 
  983800    300.28929   -1467.7692    461.18265     337.8617   -465.00383    38760.619 
  983900    296.89737   -1500.2155    480.44846    309.49494    108.61085    38760.619 
  984000    307.14199   -1513.5325    471.49684    333.09325    26.081111    38760.619 
  984100    290.62129   -1489.1686    435.48809    247.48239   -13.814487    38760.619 
  984200    303.19708   -1490.1134    488.87694    356.23044    36.299813    38760.619 
  984300    301.36394   -1512.8617    452.27944    288.67734    20.601944    38760.619 
  984400    293.03453   -1477.0981     469.0826    303.95187    456.34864    38760.619 
  984500    296.46158     -1489.02    466.37945    304.67032    580.60337    38760.619 
  984600    299.66411   -1455.6426    483.77999    369.78661    383.95393    38760.619 
  984700    305.20233   -1465.4748     484.7371    385.70707    400.29955    38760.619 
  984800    299.87538   -1442.7407    459.98414    359.83849    400.94286    38760.619 
  984900    291.58669   -1457.5239      483.207    331.16828    183.05525    38760.619 
  985000    302.08711   -1417.0567    490.55507    425.99571    323.41211    38760.619 
  985100    297.25053   -1433.5338    470.12718     367.4365    -213.4369    38760.619 
  985200    296.92685   -1447.2258     460.2927    342.46089   -381.75588    38760.619 
  985300    300.77725   -1442.7571    454.66833    358.54413   -214.53069    38760.619 
  985400    300.45753   -1449.1365    459.51026    355.57522   -95.666054    38760.619 
  985500    313.68933   -1432.3552    480.52003    452.60736   -538.61235    38760.619 
  985600    302.51318   -1436.2422    456.27855    374.44128   -416.05604    38760.619 
  985700    306.01713    -1438.653     464.5256    395.96533   -24.452619    38760.619 
  985800      306.679   -1464.8501    450.92789    359.13386   -97.624095    38760.619 
  985900    308.29772    -1439.563    461.32157    402.06193   -264.69672    38760.619 
  986000     297.0703   -1427.5582    478.20956     380.6876   -25.117251    38760.619 
  986100    295.76202   -1447.1054    450.71221    327.78562    127.31925    38760.619 
  986200    295.80056   -1448.2031    464.34656    340.49481   -199.68664    38760.619 
  986300    306.89595   -1443.9342    493.30826    423.40147    72.657215    38760.619 
  986400    304.78507   -1473.6674    437.73911    328.64837    381.28137    38760.619 
  986500    301.44451   -1512.9577    480.08359    316.74619   -36.203748    38760.619 
  986600    304.76109   -1460.8201    464.99143    368.64056    292.93579    38760.619 
  986700    290.14712   -1415.7801    470.52838    353.78819   -473.23604    38760.619 
  986800    288.44676   -1412.7367    474.31418    353.00454    282.53853    38760.619 
  986900    299.19405   -1445.2935    459.19228    353.44336   -70.322446    38760.619 
  987000     298.9395   -1449.7945    480.74626    369.35676   -148.33855    38760.619 
  987100    287.98842   -1429.9024    460.75279    320.22537   -536.51319    38760.619 
  987200    296.31509   -1472.4158    486.02395    340.26322   -533.34703    38760.619 
  987300    300.99102   -1475.7425    449.08807    320.93551   -235.64202    38760.619 
  987400    307.35369   -1463.4633    467.43875    380.05217     -154.746    38760.619 
  987500    291.62716   -1436.0326    451.20309    320.83687   -139.65545    38760.619 
  987600    297.65501   -1482.6032    464.94743    314.99825    122.89707    38760.619 
  987700    309.98134   -1435.0825    488.86167    441.62046    -185.7868    38760.619 
  987800    301.40523   -1487.0238    439.19294    301.61358   -524.76759    38760.619 
  987900    298.59158   -1472.2306    476.69886    341.31549   -317.79576    38760.619 
  988000    298.21585   -1443.6427    437.27503    328.79744   -67.633012    38760.619 
  988100    296.95683   -1475.6445    481.37622    335.25995   -68.517005    38760.619 
  988200     295.2803   -1484.7099    441.78999    279.10219   -813.58073    38760.619 
  988300    307.07548   -1482.8086    476.22985    368.25241    -208.3962    38760.619 
  988400    298.06302    -1488.136    449.99465    296.33948    12.470025    38760.619 
  988500    297.03045   -1481.4259    470.58072     319.0126    244.69439    38760.619 
  988600    306.84763   -1438.7522    495.22455    430.28338    621.87772    38760.619 
  988700    297.74186   -1471.5497    495.75811    357.25127    569.34355    38760.619 
  988800    301.76598   -1472.0297    468.81586     347.8458    450.67923    38760.619 
  988900      312.423   -1455.2082    485.35971    428.92444    508.70103    38760.619 
  989000    306.67524   -1428.4705    480.70137    425.27015    439.79051    38760.619 
  989100    307.79772    -1447.986    453.89971    383.97847    174.09582    38760.619 
  989200     307.3025   -1461.5429    476.16397    390.46861   -52.005563    38760.619 
  989300    284.60187   -1454.4805    471.72397     291.4563   -60.008642    38760.619 
  989400    292.33255   -1464.2087    486.76687    331.38269   -345.19613    38760.619 
  989500    307.07622   -1455.5431    465.71767    385.00907    136.50024    38760.619 
  989600     305.9275   -1454.6566    455.18978    370.22468   -136.29273    38760.619 
  989700    297.96768    -1465.304    467.07649    335.82647   -421.01777    38760.619 
  989800    310.96722   -1442.7749    447.54003    397.02033   -7.0153655    38760.619 
  989900    304.11617   -1466.9053    487.67984    382.35634   -407.07735    38760.619 
  990000    302.18911   -1453.3459    444.22573    343.83386    -450.4754    38760.619 
  990100    307.33415   -1490.3654    459.82456    345.44841   -359.86026    38760.619 
  990200    301.83855   -1451.9198    479.94603    379.41074   -149.75824    38760.619 
  990300    303.06919   -1524.7372    445.14329    277.30039   -134.02716    38760.619 
  990400    298.47466   -1392.1529    496.25978    440.43069   -121.37201    38760.619 
  990500    291.70176   -1480.0248    457.68855    283.66404    -311.2516    38760.619 
  990600    303.00244   -1490.8942    451.17423    316.87552   -340.14293    38760.619 
  990700    307.27168   -1439.0051    448.48727    385.19181   -423.68009    38760.619 
  990800    302.22211     -1426.35    447.52244    374.27424   -683.25255    38760.619 
  990900    302.48099   -1464.2456    462.31002     352.3252    -149.9632    38760.619 
  991000    309.00304    -1452.599    468.18364    399.04581   -196.15432    38760.619 
  991100    301.28919   -1444.0043    473.96099    378.88161   -90.887852    38760.619 
  991200     300.7236     -1433.77    486.94172    399.56448    85.265049    38760.619 
  991300    299.69834   -1459.5643    472.55618    354.79434   -42.712585    38760.619 
  991400    294.65004   -1461.2003    461.46376    319.46377    81.988754    38760.619 
  991500    304.12313   -1496.5656    471.40081    336.44818   -65.672276    38760.619 
  991600    293.77946   -1485.4278    468.27378    298.14855    81.659716    38760.619 
  991700    295.64498   -1477.9598    443.28669    288.98171   -130.29936    38760.619 
  991800     301.4832   -1489.1724    501.74398    362.36513     960.6279    38760.619 
  991900    296.29587   -1481.0648    479.39639    324.90052    782.82546    38760.619 
  992000    307.74871   -1480.8293    474.07777     371.0938    717.85668    38760.619 
  992100     298.2032    -1501.303    471.91609    305.72147    663.22265    38760.619 
  992200    296.68209   -1489.9865    479.86777    318.17942    486.98891    38760.619 
  992300    304.66121   -1495.7526     481.3709     349.6404    381.33497    38760.619 
  992400    309.86406   -1489.7504    495.86355    393.42926    507.25957    38760.619 
  992500    298.11747   -1474.7991    458.00398    317.92945   -122.16103    38760.619 
  992600    288.64359   -1460.4889    466.23006    298.04953    191.81712    38760.619 
  992700    307.94566   -1460.1262    479.78233    398.38328    10.091418    38760.619 
  992800    301.01255   -1449.0353    479.89243    378.54351    8.6330185    38760.619 
  992900    294.74136   -1434.6393      517.353    402.32279   -545.52407    38760.619 
  993000    293.94784    -1469.263    470.80184    317.59532   -141.67614    38760.619 
  993100    292.68312   -1483.4432    454.14708    281.09787   -565.93204    38760.619 
  993200    302.86418   -1467.9483    468.29425    356.32236   -402.72271    38760.619 
  993300    299.01721   -1496.9446    475.81024    317.61852   -79.900937    38760.619 
  993400    299.22358   -1508.4669    466.04281    297.25275   -456.39864    38760.619 
  993500    303.90205    -1485.188    471.99004    347.42526    -566.8169    38760.619 
  993600    288.13884   -1477.0534    475.93621    288.93134   -209.93328    38760.619 
  993700    301.38639   -1457.8441     472.4753    363.99132    -80.40974    38760.619 
  993800    286.55851   -1479.3276    487.88462    291.53006   -643.10447    38760.619 
  993900     305.2594   -1441.6024    449.90226    375.00016   -348.70853    38760.619 
  994000    296.77844   -1489.8075    477.16427     316.0863    167.24913    38760.619 
  994100     295.3459   -1501.9264    473.97279    294.36212   -325.64776    38760.619 
  994200     292.1006   -1482.4809    472.63394    297.93903    96.939255    38760.619 
  994300    303.16759    -1511.721    467.95463    313.56857     98.34142    38760.619 
  994400    297.46303   -1497.2373    484.65569    319.21294    350.09246    38760.619 
  994500    304.45059   -1446.4143    469.52389    386.18871    245.92979    38760.619 
  994600     288.6984   -1455.7791    491.90125    328.67587   -126.80117    38760.619 
  994700    292.31806   -1481.4582    470.93675    298.23822   -31.037843    38760.619 
  994800    314.97351   -1472.7909    480.83486    418.23596   -46.663202    38760.619 
  994900    302.31072   -1424.8474    458.96674    387.61789    298.68226    38760.619 
  995000    296.24391   -1470.2476    470.11287    326.20164    98.225616    38760.619 
  995100    297.32161   -1458.8775    450.23921    322.52304   -69.391604    38760.619 
  995200    300.04176   -1452.3263    485.91509    376.92873   -244.46044    38760.619 
  995300    308.34623   -1474.8825    457.83329    363.47132   -87.216781    38760.619 
  995400    296.90369   -1424.3243     483.5764    388.54235   -359.90527    38760.619 
  995500    295.28791   -1466.9694    460.26574    315.35246   -259.51009    38760.619 
  995600    292.39525   -1426.3357    479.56524    362.33469    175.24011    38760.619 
  995700    306.64325   -1451.9636    490.88198    411.81441    339.94227    38760.619 
  995800    284.12821   -1447.9423     476.4371    300.58701   -139.57541    38760.619 
  995900    297.83176   -1467.2689    445.17936    311.35588    111.73521    38760.619 
  996000    296.07815    -1471.813     461.6398    315.42096    4.2920756    38760.619 
  996100    300.71657   -1467.2157    462.52812    341.67361    607.16431    38760.619 
  996200    303.98835   -1492.9406    475.06285     343.1318    435.87229    38760.619 
  996300    293.84543   -1458.6242    479.20272    336.17646    192.14627    38760.619 
  996400    311.04481   -1430.9851    467.43361    429.05111    2.3637451    38760.619 
  996500     302.6404   -1445.6503    482.20885    391.53304   -186.09241    38760.619 
  996600    298.50244   -1454.2846    450.74806    332.91163   -56.174255    38760.619 
  996700    303.51322   -1464.7274    447.25032    341.40523   -68.746309    38760.619 
  996800    309.48906   -1453.0916    466.50217    399.04779   -193.67177    38760.619 
  996900     303.4702   -1473.0085    458.28869    343.96996   -78.716786    38760.619 
  997000    301.00794    -1483.443    459.70992    323.93267   -356.01816    38760.619 
  997100    296.42276   -1436.2678     465.4837    356.35299   -628.80382    38760.619 
  997200    295.89975   -1448.9859     480.3929    356.20241    -668.8208    38760.619 
  997300    299.60299   -1442.7442    483.68727    382.31858   -329.15467    38760.619 
  997400    306.35125   -1472.5823    470.93073    369.93707     147.7574    38760.619 
  997500    291.92256   -1460.1438    491.38401    338.22911    17.036835    38760.619 
  997600    291.15951   -1481.7849    466.28468    288.07237    129.63432    38760.619 
  997700    301.49501    -1484.716    455.33367     320.4641    289.10711    38760.619 
  997800     297.5069   -1476.4308    459.18862    314.74884   -12.090084    38760.619 
  997900    299.23027   -1460.0256    464.52508    344.20628    322.24092    38760.619 
  998000    302.67352   -1477.6055    468.14602     345.6634     662.2977    38760.619 
  998100    294.49127   -1488.0812    439.95003    270.35829    696.59512    38760.619 
  998200    297.71993   -1527.8801    440.46623    245.53088    749.42774    38760.619 
  998300    302.79344   -1483.6109    476.55421    348.60306    66.637448    38760.619 
  998400    300.02294   -1459.8611    446.68925    330.08389    223.09247    38760.619 
  998500    312.28273   -1466.7542     489.6259     421.0166   -175.42184    38760.619 
  998600    298.62964   -1471.4209    460.81618    326.41297   -156.92786    38760.619 
  998700    287.52344   -1429.2044    486.42674    344.51559   -112.24583    38760.619 
  998800    301.24739   -1441.2175    452.72728    360.24753    -753.5467    38760.619 
  998900    308.71671   -1417.4533    479.49831    444.22429   -621.15366    38760.619 
  999000    313.03496   -1424.7674      485.383    462.12838    -839.4748    38760.619 
  999100    296.91965   -1458.4143    477.53534    348.48274   -542.02843    38760.619 
  999200    290.37772   -1419.1579     454.5268    335.44127   -371.77439    38760.619 
  999300    311.33786   -1482.1017    472.39119    384.20415    218.21521    38760.619 
  999400    310.51822   -1457.9815    473.75068    406.01416    64.360961    38760.619 
  999500    298.34242   -1458.9999    444.70798    321.43987   -362.86989    38760.619 
  999600    322.83542   -1512.9496    435.13461    367.57622    78.170993    38760.619 
  999700    309.08568   -1468.9192    482.83178    397.74385    143.30406    38760.619 
  999800    305.17579   -1505.5711    449.74882    310.50364   -24.865215    38760.619 
  999900    299.83965   -1486.1412    469.30337    325.59725    64.546612    38760.619 
 1000000    294.48886   -1490.2269    489.42128    317.67299    295.30007    38760.619 
 1000100    301.29902   -1510.8979    477.05602    315.12702   -14.282319    38760.619 
 1000200    301.52082   -1497.4613    489.22698    341.72765     1.233395    38760.619 
 1000300    291.47593   -1500.3435    451.92288    256.56859   -333.75068    38760.619 
 1000400    302.17042   -1468.0795    467.99122    352.78209    22.189692    38760.619 
 1000500    298.86466   -1490.0278     465.9195    313.96158    184.64912    38760.619 
 1000600    290.03064   -1493.1124    451.20541    256.61145   -277.01054    38760.619 
 1000700    300.79447   -1460.0316    456.88025    343.55869    371.73245    38760.619 
 1000800    296.92491   -1495.2358    474.69387    308.84335   -361.71603    38760.619 
 1000900    300.91257   -1513.8774    445.74839    279.10977   -261.72131    38760.619 
 1001000    299.70432   -1502.6589    464.83119     304.0015   -449.73288    38760.619 
 1001100     304.1163   -1477.8184    481.56009    365.32406   -341.12008    38760.619 
 1001200      299.589    -1428.748    498.42801    410.99291   -126.07246    38760.619 
 1001300    297.94483   -1444.0111    487.18989    377.13039    -288.9081    38760.619 
 1001400    297.53815   -1437.7631    480.98045     375.3482   -80.255328    38760.619 
 1001500    306.92502    -1417.987    483.81997     439.9905   -416.95103    38760.619 
 1001600    305.16641    -1430.341    489.72105    425.66397    99.210259    38760.619 
 1001700    296.15138   -1470.2561    448.03099    303.69693    540.44472    38760.619 
 1001800    298.36938   -1456.8706    486.12052    365.10241    387.40514    38760.619 
 1001900    294.16891   -1465.4944    478.77592    330.32767    637.42956    38760.619 
 1002000    295.22988   -1460.5054     469.0834    330.37429   -91.989509    38760.619 
 1002100    294.55266    -1494.293    443.41617    267.88744   -655.67204    38760.619 
 1002200    309.07329     -1476.09    456.08151    363.76718   -608.23784    38760.619 
 1002300    304.30414   -1480.8257    463.10277    344.70047   -1029.4858    38760.619 
 1002400    309.55076   -1445.8916    505.13418    445.15601   -186.77244    38760.619 
 1002500    295.87757   -1461.3438    447.85835    311.21068   -87.687216    38760.619 
 1002600    298.39441   -1526.2561      471.059    280.76735    542.28952    38760.619 
 1002700    298.88317   -1476.4947    495.27319    356.93123    450.88929    38760.619 
 1002800    293.13687   -1540.6658    459.80745    231.56722   -256.51889    38760.619 
 1002900    308.67349   -1530.0832    459.54072    311.44331    202.92547    38760.619 
 1003000    307.06869   -1532.5904    465.35192    307.56235    160.43268    38760.619 
 1003100    303.05897   -1538.6889    464.46015     282.6198   -3.7520312    38760.619 
 1003200    297.83327   -1562.3529    483.87025    254.96952    575.90175    38760.619 
 1003300    293.01413   -1529.0258    483.41342    266.26367    524.43934    38760.619 
 1003400    306.68079   -1514.5011    471.81594     330.3789    666.09089    38760.619 
 1003500    301.91448   -1487.3425    485.63044     350.0124    540.53994    38760.619 
 1003600    303.33925   -1483.8906    478.06711     352.2799   -35.722446    38760.619 
 1003700     303.1275   -1501.5954    483.46474    339.02468   -472.48063    38760.619 
 1003800    306.38637   -1494.8766    458.59544    335.46482    171.59037    38760.619 
 1003900    312.32803   -1471.6537    486.64009    413.33419   -578.58395    38760.619 
 1004000    314.75607   -1499.9629    455.48931      364.745   -192.89432    38760.619 
 1004100     295.3689   -1458.8403    471.56152    335.13997   -211.33686    38760.619 
 1004200     294.1884   -1530.9208    459.61743    245.83008   -16.403566    38760.619 
 1004300    293.62931   -1474.5257    463.50235    303.60692     93.30401    38760.619 
 1004400    312.74839   -1516.2445     451.6601    335.64536    301.27463    38760.619 
 1004500    300.65608    -1477.562    473.41923    341.94766    571.46366    38760.619 
 1004600    292.83276   -1530.8473    453.08456     233.3013    400.56473    38760.619 
 1004700    300.15996   -1509.8993    470.61855    304.58846   -97.610206    38760.619 
 1004800     302.4432   -1494.2924    468.76039    328.55963    372.26365    38760.619 
 1004900    301.75345   -1516.5229    462.46602    296.94665    120.99096    38760.619 
 1005000     299.2709    -1479.308    468.41956    329.00025    184.62988    38760.619 
 1005100    295.79214    -1448.762    475.59313    351.14475    420.66215    38760.619 
 1005114    306.44133   -1412.4898     497.9644     457.4666    632.77854    38760.619 
Loop time of 610.963 on 32 procs for 1000000 steps with 1503 atoms

Performance: 141.416 ns/day, 0.170 hours/ns, 1636.759 timesteps/s
100.0% CPU use with 32 MPI tasks x no OpenMP threads

MPI task timing breakdown:
Section |  min time  |  avg time  |  max time  |%varavg| %total
---------------------------------------------------------------
Pair    | 238.13     | 267.34     | 294.03     |  99.8 | 43.76
Bond    | 1.3582     | 1.4738     | 1.5944     |   5.3 |  0.24
Neigh   | 39.81      | 39.859     | 39.902     |   0.5 |  6.52
Comm    | 264.26     | 290.94     | 320.28     |  96.0 | 47.62
Output  | 0.38888    | 0.40389    | 0.81341    |  11.6 |  0.07
Modify  | 8.0023     | 8.2273     | 8.3721     |   3.1 |  1.35
Other   |            | 2.721      |            |       |  0.45

Nlocal:        46.9688 ave          75 max          25 min
Histogram: 4 4 5 2 2 4 4 3 2 2
Nghost:        1933.84 ave        2075 max        1789 min
Histogram: 7 8 1 0 0 0 0 2 6 8
Neighs:        5133.88 ave        8743 max        2102 min
Histogram: 4 4 4 3 3 3 4 2 1 4

Total # of neighbors = 164284
Ave neighs/atom = 109.30406
Ave special neighs/atom = 2.0000000
Neighbor list builds = 49803
Dangerous builds = 0

# Output the system volume
variable v equal vol
print 'The system volume is $v'
The system volume is 38760.6187477327

# Outputs
variable A equal xhi-xlo
variable B equal yhi-ylo
variable C equal zhi-zlo
variable D equal xy
variable E equal xz
variable F equal yz
print 'Lattice vectors'
Lattice vectors
print '$A 0 0'
33.8425880155188 0 0
print '$D $B 0'
0 33.8425880155188 0
print '$E $F $C'
0 0 33.8425880155188
Total wall time: 0:10:15
