LAMMPS (29 Sep 2021 - Update 1)
# Test LAMMPS input file for single DeFDe

# Initialize simulation

clear

units real
atom_style full
boundary p p p
dielectric 1
special_bonds dreiding

bond_style harmonic
angle_style harmonic
dihedral_style harmonic
improper_style umbrella
pair_style hybrid/overlay hbond/dreiding/lj 4 9.0 11.0 90 lj/cut 8.50000

# Read data file
read_data frag5.dat
Reading data file ...
  triclinic box = (0.0000000 0.0000000 0.0000000) to (15.000000 15.000000 15.000000) with tilt (0.0000000 0.0000000 0.0000000)
  2 by 4 by 4 MPI processor grid
  reading atoms ...
  1509 atoms
  scanning bonds ...
  3 = max bonds/atom
  scanning angles ...
  3 = max angles/atom
  scanning dihedrals ...
  6 = max dihedrals/atom
  scanning impropers ...
  1 = max impropers/atom
  reading bonds ...
  1009 bonds
  reading angles ...
  513 angles
  reading dihedrals ...
  16 dihedrals
  reading impropers ...
  4 impropers
Finding 1-2 1-3 1-4 neighbors ...
  special bond factors lj:    0        0        1       
  special bond factors coul:  0        0        1       
     3 = max # of 1-2 neighbors
     4 = max # of 1-3 neighbors
     7 = max # of special neighbors
  special bonds CPU = 0.002 seconds
  read_data CPU = 0.017 seconds

# Dreiding potential information

bond_coeff 1 700 1.275
bond_coeff 2 700 1.33
bond_coeff 3 350 0.935
bond_coeff 4 350 0.99
bond_coeff 5 350 0.98

angle_coeff 1 50 120
angle_coeff 2 50 120
angle_coeff 3 50 104.51

dihedral_coeff 1 5.625 -1 2
dihedral_coeff 2 11.25 -1 2

improper_coeff 1 40 0

pair_coeff 1 1 lj/cut 0.0951 3.8983
pair_coeff 1 2 lj/cut 0.0857947550844456 3.77835472527395
pair_coeff 1 3 lj/cut 0.00308382878902186 3.52806914614779
pair_coeff 1 4 lj/cut 0.0380199947396104 3.52917391183829
pair_coeff 1 5 lj/cut 0.0953995283007206 3.64309650983885
pair_coeff 2 2 lj/cut 0.0774 3.6621
pair_coeff 2 3 lj/cut 0.00278208554864871 3.41951536039831
pair_coeff 2 4 lj/cut 0.0342998542270955 3.42058613398347
pair_coeff 2 5 lj/cut 0.0860649754545948 3.53100349192691
pair_coeff 3 3 lj/cut 1e-04 3.193
pair_coeff 3 4 lj/cut 0.0012328828005938 3.19399984345648
pair_coeff 3 5 lj/cut 0.0030935416596516 3.29710294046152
pair_coeff 4 4 lj/cut 0.0152 3.195
pair_coeff 4 5 lj/cut 0.0381397430510485 3.29813538230316
pair_coeff 5 5 lj/cut 0.0957 3.4046
pair_coeff 2 2 hbond/dreiding/lj 3 j 9.50 2.75 4 9.0 11.0 90
pair_coeff 2 5 hbond/dreiding/lj 3 i 9.50 2.75 4 9.0 11.0 90
pair_coeff 2 5 hbond/dreiding/lj 3 j 9.50 2.75 4 9.0 11.0 90
pair_coeff 5 5 hbond/dreiding/lj 3 j 9.50 2.75 4 9.0 11.0 90

neighbor 2 bin
neigh_modify every 2 one 10000

# Gemoetric relaxation
fix 1 all box/relax iso 1.0 vmax 0.001
minimize 1.0e-4 1.0e-6 10000 10000
WARNING: Using 'neigh_modify every 1 delay 0 check yes' setting during minimization (../min.cpp:188)
Neighbor list info ...
  update every 1 steps, delay 0 steps, check yes
  max neighbors/atom: 10000, page size: 100000
  master list distance cutoff = 13
  ghost atom cutoff = 13
  binsize = 6.5, bins = 3 3 3
  3 neighbor lists, perpetual/occasional/extra = 3 0 0
  (1) pair hbond/dreiding/lj, perpetual, skip from (3)
      attributes: full, newton on
      pair build: skip
      stencil: none
      bin: none
  (2) pair lj/cut, perpetual, half/full from (3)
      attributes: half, newton on
      pair build: halffull/newton
      stencil: none
      bin: none
  (3) neighbor class addition, perpetual
      attributes: full, newton on
      pair build: full/bin
      stencil: full/bin/3d
      bin: standard
Per MPI rank memory allocation (min/avg/max) = 12.47 | 12.80 | 13.40 Mbytes
Step Temp E_pair E_mol TotEng Press Volume 
       0            0 2.369994e+18     320.7238 2.369994e+18 1.9260057e+20         3375 
    5322            0   -1075.0934     35.00683   -1040.0865    101.00864    38614.337 
Loop time of 4.51197 on 32 procs for 5322 steps with 1509 atoms

100.0% CPU use with 32 MPI tasks x no OpenMP threads

Minimization stats:
  Stopping criterion = energy tolerance
  Energy initial, next-to-last, final = 
    2.36999395516627e+18  -1039.48683584994   -1039.5726006966
  Force two-norm initial, final = 4.3152087e+20 102.90786
  Force max component initial, final = 2.1554137e+20 74.982225
  Final line search alpha, max atom move = 1.5610066e-05 0.0011704775
  Iterations, force evaluations = 5322 5326

MPI task timing breakdown:
Section |  min time  |  avg time  |  max time  |%varavg| %total
---------------------------------------------------------------
Pair    | 1.4805     | 2.5228     | 3.8088     |  36.4 | 55.91
Bond    | 0.0067526  | 0.011075   | 0.023238   |   2.8 |  0.25
Neigh   | 0.091376   | 0.091687   | 0.09191    |   0.1 |  2.03
Comm    | 0.25906    | 1.5462     | 2.591      |  46.6 | 34.27
Output  | 0          | 0          | 0          |   0.0 |  0.00
Modify  | 0          | 0          | 0          |   0.0 |  0.00
Other   |            | 0.3403     |            |       |  7.54

Nlocal:        47.1562 ave          69 max          30 min
Histogram: 3 3 4 4 4 6 3 3 0 2
Nghost:        1919.06 ave        1945 max        1895 min
Histogram: 2 2 4 2 5 8 2 3 2 2
Neighs:        4777.31 ave        7865 max        2740 min
Histogram: 2 6 3 5 5 7 1 1 1 1

Total # of neighbors = 152874
Ave neighs/atom = 101.30815
Ave special neighs/atom = 2.0172300
Neighbor list builds = 97
Dangerous builds = 0

# MD simulation
velocity all create 300.0 12345 rot yes dist gaussian
timestep 1.0
fix 2 all nvt temp 300.0 300.0 1

# Compute interaction energy
group WAT molecule <> 2 501
1500 atoms in group WAT
group MOL molecule 1
9 atoms in group MOL

compute w WAT group/group MOL pair yes
fix 3 all ave/time 10 5 100 c_w file outa

# Outputs
thermo 100 # Output thermodynamic data every nth step
#dump mf1 all xyz 10000 mol_*.xyz

# Run
run 1000000
Neighbor list info ...
  update every 2 steps, delay 10 steps, check yes
  max neighbors/atom: 10000, page size: 100000
  master list distance cutoff = 13
  ghost atom cutoff = 13
  binsize = 6.5, bins = 6 6 6
  4 neighbor lists, perpetual/occasional/extra = 3 1 0
  (1) pair hbond/dreiding/lj, perpetual, skip from (4)
      attributes: full, newton on
      pair build: skip
      stencil: none
      bin: none
  (2) pair lj/cut, perpetual, half/full from (4)
      attributes: half, newton on
      pair build: halffull/newton
      stencil: none
      bin: none
  (3) compute group/group, occasional, copy from (2)
      attributes: half, newton on
      pair build: copy
      stencil: none
      bin: none
  (4) neighbor class addition, perpetual
      attributes: full, newton on
      pair build: full/bin
      stencil: full/bin/3d
      bin: standard
Per MPI rank memory allocation (min/avg/max) = 11.31 | 11.36 | 11.86 Mbytes
Step Temp E_pair E_mol TotEng Press Volume 
    5322          300   -1075.0934     35.00683    308.43194    1697.4066    38614.337 
    5400    308.40625   -1102.7138    229.52526    513.11653    1892.0723    38614.337 
    5500    301.48706   -1090.1012    193.06018    458.16186    1229.4164    38614.337 
    5600    298.50369    -1085.755    169.29116    425.32864    824.65711    38614.337 
    5700    297.24066   -1113.8442    194.11672    416.38758    760.06062    38614.337 
    5800    293.29733   -1131.3138    206.48771    393.56345    53.342424    38614.337 
    5900    294.95861   -1103.1977    186.47343    409.13288   -77.542281    38614.337 
    6000    308.86929    -1130.051    206.40497    464.74042   -119.30644    38614.337 
    6100    301.41811   -1081.5872    196.02925    469.33503   -286.60797    38614.337 
    6200    303.54725   -1079.7417    196.88085    481.60278   -495.15931    38614.337 
    6300     308.3058   -1064.0431    206.28157    528.09201   -377.51999    38614.337 
    6400    298.04056    -1052.251    195.60526    483.06495   -227.86365    38614.337 
    6500    300.83353   -1121.3337    205.08807    436.01958   -190.48977    38614.337 
    6600     300.9352    -1091.736    211.36928    472.35554    350.31778    38614.337 
    6700    293.14006   -1096.0409     203.1607    424.80236    191.60422    38614.337 
    6800     294.4539   -1068.0799    211.72968    467.23821    505.69144    38614.337 
    6900    293.75966    -1081.287    205.72058    444.90132    687.44571    38614.337 
    7000    297.26562   -1092.8916    214.30158     457.6373    410.85338    38614.337 
    7100     308.7847   -1096.9573    229.06963    520.11855     697.9564    38614.337 
    7200     296.6203   -1082.7283    224.62178    475.22001    245.72291    38614.337 
    7300    293.45286   -1051.3287    229.48601    497.24602   -9.2695781    38614.337 
    7400    293.96191   -1057.5956    227.04969      490.831    457.68274    38614.337 
    7500    288.91003   -1078.0958    222.28111    442.85369   -38.434518    38614.337 
    7600    304.82514   -1106.8606    223.59216    486.93937    47.145441    38614.337 
    7700    291.64567   -1104.8977    217.21164    423.27914   -193.65676    38614.337 
    7800    292.69589   -1094.4434    245.20102    466.44362    180.95588    38614.337 
    7900    297.88875   -1064.6234    235.27659    509.68142    44.894681    38614.337 
    8000    309.64384   -1127.4697     219.9977    484.39616     309.6055    38614.337 
    8100    289.92421   -1099.7719    227.35438    430.80968    139.45726    38614.337 
    8200    291.04681    -1091.316    231.44879    448.40608    415.17794    38614.337 
    8300    298.62157   -1110.5837    233.32179     465.0604   -426.38504    38614.337 
    8400    305.60175   -1088.9638     244.1182    528.85305    124.30602    38614.337 
    8500    293.89908   -1091.3312    235.13771      464.901    262.30424    38614.337 
    8600    306.15114   -1078.4382    237.96109    535.69112    329.50964    38614.337 
    8700    308.04286   -1102.7749     235.0779    516.97465    194.54196    38614.337 
    8800     297.9254   -1092.5668    226.04121    472.66742    118.03392    38614.337 
    8900    293.76239   -1060.3126     226.3296    486.49705    343.33986    38614.337 
    9000    287.91815   -1091.6574    242.03129    444.58372    304.53625    38614.337 
    9100    305.95865   -1082.1259     240.7604    533.93752    253.17359    38614.337 
    9200    298.26969   -1082.5826    237.04938    495.20744    -51.87414    38614.337 
    9300    299.41299   -1033.9218    221.45152    533.40957    354.30474    38614.337 
    9400    295.33103   -1046.9872    244.39518    524.93913   -33.698006    38614.337 
    9500    291.50141   -1036.4185    243.98103     517.8793     86.09991    38614.337 
    9600     299.2025   -1047.6583    231.98244    529.25782   -173.42717    38614.337 
    9700    296.54529   -1103.2896    245.11472    474.81449    75.808362    38614.337 
    9800    305.41617   -1122.7686    239.63263     489.7285    167.74718    38614.337 
    9900    307.29043   -1143.7084    246.96596    484.54696    325.94309    38614.337 
   10000    303.50984   -1151.8527    231.15821    443.60091    205.87591    38614.337 
   10100    289.28043   -1137.7442    254.53602    417.12513    517.56229    38614.337 
   10200    297.45946   -1161.9022    233.46317    408.65954    608.18291    38614.337 
   10300    299.42485   -1124.5974    253.03971    474.37549    449.10721    38614.337 
   10400     301.9116   -1137.2525    244.67952    464.53828    423.14725    38614.337 
   10500    300.00323   -1150.9471    245.04061    442.62648    317.51706    38614.337 
   10600     306.0324   -1074.9114    255.26701    555.99003    311.31978    38614.337 
   10700    308.01987   -1112.9388    262.49473    534.12422     359.4032    38614.337 
   10800    293.16142   -1116.7044    251.83173    452.90595     84.79655    38614.337 
   10900    309.59427   -1127.2412    243.85525    508.25939    164.33821    38614.337 
   11000     293.6801   -1135.2821     261.9323    446.76031    390.29754    38614.337 
   11100    300.46214   -1164.8585    255.23563    440.97299     369.0239    38614.337 
   11200    294.92076   -1168.2628    259.49479    416.91897    874.87917    38614.337 
   11300    289.23014   -1100.3098    273.00929    472.80672    458.92722    38614.337 
   11400    297.75236   -1096.4853    267.42398    509.35387    733.14203    38614.337 
   11500    302.87618   -1123.9488     264.7983    502.29654    706.81699    38614.337 
   11600    302.68457   -1115.0221    278.35629    523.91995    673.97025    38614.337 
   11700    300.17434   -1151.1725    261.36136    459.49101    472.90099    38614.337 
   11800    298.94473   -1153.8089    267.42008    457.38613    491.17894    38614.337 
   11900     293.5796   -1113.4351    272.20098    478.42419    347.58512    38614.337 
   12000    305.02222    -1115.174    267.34188    523.26152    810.16809    38614.337 
   12100    298.89413   -1157.0202    274.88849    461.41582    291.40078    38614.337 
   12200    302.23275   -1151.6334    259.56237    466.48373    747.94541    38614.337 
   12300    294.45492   -1168.4331    279.51207    434.67195    273.09637    38614.337 
   12400    293.58246   -1114.3158      274.047    479.40243    330.51247    38614.337 
   12500    306.21735   -1137.9154    270.26227    508.81272    297.78726    38614.337 
   12600    300.75968   -1125.1642    265.26781    492.03687    349.83491    38614.337 
   12700    304.62444   -1144.9893    285.06262    509.37891     229.0245    38614.337 
   12800    303.34732   -1137.4668    266.55994    492.65796    166.36568    38614.337 
   12900    295.94184    -1144.625    274.93598    460.58779    373.00537    38614.337 
   13000    306.98314   -1141.1763    270.78376    509.51553    259.47528    38614.337 
   13100    296.87977   -1163.2523    275.91499    447.15558    524.69847    38614.337 
   13200     297.8171    -1160.089    282.64333    461.26056   -23.762478    38614.337 
   13300    292.59943   -1150.6179    270.91196     435.5465   -18.634177    38614.337 
   13400    293.91349   -1114.7853    266.46795    472.84192    55.910866    38614.337 
   13500    310.79322   -1122.3165     274.0829    548.80106    183.27837    38614.337 
   13600    304.15495   -1132.6608    288.93375    523.46815   -213.72679    38614.337 
   13700    297.06547   -1144.6887    275.85139    466.49023   -189.04126    38614.337 
   13800    304.26386   -1112.4376     290.8898    546.13694   -302.87169    38614.337 
   13900    299.93053   -1107.2292    278.00687    518.98386    187.91208    38614.337 
   14000    292.28987   -1121.4513    278.14248    470.55208    430.97039    38614.337 
   14100    302.08919   -1170.0723    272.89236    460.72959    374.27456    38614.337 
   14200    299.88742   -1174.8262    285.05476    458.24096    46.593841    38614.337 
   14300     314.8189   -1153.2852    274.96766    536.81277    462.13461    38614.337 
   14400    300.84612   -1153.9265    301.48788    499.88325    411.62101    38614.337 
   14500    297.66591   -1122.5053     279.9275    495.44881    488.36567    38614.337 
   14600    303.72443   -1165.8941    282.40825    481.77415    578.30909    38614.337 
   14700     303.1339   -1143.7734    297.84306    516.67523    106.30192    38614.337 
   14800    301.05443   -1183.5874    264.84253    434.51335    164.46276    38614.337 
   14900    311.59226   -1178.2451    289.87755    512.25887    287.02162    38614.337 
   15000    294.05043   -1140.9042    285.16173    466.03227    227.67212    38614.337 
   15100    291.85383   -1152.2203    277.98811    437.66879   -90.753639    38614.337 
   15200    302.11619   -1125.0494    289.22086     522.2023    603.13014    38614.337 
   15300    304.28165   -1149.2117    289.08983    507.64285    99.342834    38614.337 
   15400    291.92046   -1144.0515    305.22096    473.36993    581.06847    38614.337 
   15500    299.78493    -1145.778    292.75689     494.5306    398.34109    38614.337 
   15600    305.65849   -1114.8953     290.3339    549.39231    417.42568    38614.337 
   15700    303.43311   -1136.3928    283.75478    511.31244   -62.983929    38614.337 
   15800    293.74941   -1109.2254    279.24986     490.4461    523.59863    38614.337 
   15900    303.20714    -1133.085    295.93852    525.78827   -301.06219    38614.337 
   16000    301.01528     -1093.03    291.28079    551.33303   -6.3695849    38614.337 
   16100    304.63149   -1114.8164    280.21388    534.73483    48.267567    38614.337 
   16200    296.04982   -1140.8795    298.40874    488.29143   -90.024021    38614.337 
   16300    302.75063   -1163.5865    291.44655    488.74279   -215.28754    38614.337 
   16400    305.90459   -1122.3902    285.44915    538.11892    321.79777    38614.337 
   16500    303.82491   -1189.8449    294.65075    470.51756    533.60152    38614.337 
   16600    297.92443   -1182.7978    307.88888    464.27969     393.3641    38614.337 
   16700    299.10573   -1192.9265    276.52949    428.10163     372.7531    38614.337 
   16800    307.34641   -1188.8756    299.37387    492.03933    751.31946    38614.337 
   16900    300.31696   -1163.7092    285.68253    471.91652    932.93257    38614.337 
   17000    297.81654     -1161.59     306.4097    483.52333    801.50581    38614.337 
   17100    300.19741   -1158.6587    298.44014    489.18726    621.73049    38614.337 
   17200    303.35545   -1162.7348    301.83766    502.70425    284.31294    38614.337 
   17300    301.62388   -1114.6039    304.99066    546.20468    163.12801    38614.337 
   17400    292.99634   -1140.5951    297.45431    473.89577    214.43509    38614.337 
   17500    288.76748    -1129.443     309.6472    478.23181    444.80735    38614.337 
   17600     302.5912   -1126.9992    310.06542    543.23226    929.63404    38614.337 
   17700    300.41709   -1141.8191    301.32417    509.89834    507.48007    38614.337 
   17800    305.54229   -1173.8179    313.20992    512.82341    -87.28048    38614.337 
   17900    298.61833   -1150.8662    308.34333    499.78494   -474.68427    38614.337 
   18000    300.64121   -1143.0461     309.5522    517.90686   -473.37753    38614.337 
   18100     294.5858   -1178.3992    313.96279    459.74488   -303.19987    38614.337 
   18200    304.23535   -1174.7173     307.0142    499.85357    117.65091    38614.337 
   18300    295.26284   -1180.1028    318.13548    465.25734    26.348216    38614.337 
   18400    310.30616   -1145.1836    316.60444    566.26609    748.13244    38614.337 
   18500     296.9098   -1170.7518    307.57576    471.45179    369.66768    38614.337 
   18600    298.76158    -1175.017    318.10429    486.03902    152.70177    38614.337 
   18700    299.90108   -1191.3969    326.52939    483.20632    100.98327    38614.337 
   18800    309.43867   -1141.3788    300.80236    550.36949   -150.16514    38614.337 
   18900    309.01752   -1141.1555    304.44103    552.33828   -100.09105    38614.337 
   19000    296.96995   -1194.5633    290.64848    430.98342   -200.86776    38614.337 
   19100    288.16508   -1159.6501     328.8708    464.54046    76.314981    38614.337 
   19200    293.91767   -1173.3918    305.08113    452.86729    557.56219    38614.337 
   19300      311.135   -1215.9808    313.98476    496.57491     273.7231    38614.337 
   19400    296.28991   -1198.6384    314.41856    447.62153    897.22258    38614.337 
   19500    310.43124   -1220.5038    314.97251    489.87629    664.79299    38614.337 
   19600    303.41937   -1167.6402    296.51197    492.76047    534.98016    38614.337 
   19700    293.65752    -1244.313    305.86265    381.55833    351.13229    38614.337 
   19800    305.99452   -1222.3677    306.92615    460.02269    496.32139    38614.337 
   19900    295.94367   -1238.6968    309.65627    401.24451    180.76605    38614.337 
   20000    299.58789   -1260.9658    305.99735    391.69758   -0.4175242    38614.337 
   20100    296.63882   -1203.6257    293.94339    423.72749   -55.290886    38614.337 
   20200    297.47515   -1236.5755    310.73164    411.32523    231.65788    38614.337 
   20300    301.99556   -1197.7654    315.56186    475.28513    193.45974    38614.337 
   20400    288.07546   -1247.1817    303.04108    350.77626   -476.18605    38614.337 
   20500    306.24776   -1215.6454    318.22666    479.18382    199.69443    38614.337 
   20600    307.60794   -1254.2209    299.85083    428.34658    53.053641    38614.337 
   20700    303.02427   -1235.0611    310.82849    437.88017    192.64772    38614.337 
   20800    294.77917   -1212.4494    309.88258    422.48371    359.56186    38614.337 
   20900    297.90817   -1206.9508    321.67354    453.83832    18.138359    38614.337 
   21000    309.67815   -1189.8341    315.08047    517.26872    59.650392    38614.337 
   21100    297.69455   -1112.1156    313.33806    539.37779    532.25618    38614.337 
   21200    296.25246   -1176.3952    310.37961    465.65745    526.71819    38614.337 
   21300    296.62328   -1138.1861    332.77819      527.932    832.08172    38614.337 
   21400    298.50311   -1139.2406    331.57702    534.12624      524.036    38614.337 
   21500    294.37997   -1173.3996     327.7667     477.6232    338.91994    38614.337 
   21600    293.89466   -1210.6767    322.64303    433.04093   -76.021645    38614.337 
   21700    289.97609   -1190.0941    314.06176      427.428   -6.5333589    38614.337 
   21800     302.1885   -1174.6423    317.08048    500.79408     81.55501    38614.337 
   21900    308.14437   -1193.1922    305.08717    497.02287   -351.49626    38614.337 
   22000    303.88592   -1182.5552     328.6786    512.10935    77.607844    38614.337 
   22100    301.06197   -1223.7978    311.61832    441.11259    248.95205    38614.337 
   22200    290.86042   -1221.7689    334.72491    420.39154   -255.54548    38614.337 
   22300    299.73943    -1210.298    312.92838    449.97763   -288.38867    38614.337 
   22400    313.81634   -1232.5748    310.01736    488.06629   -198.70471    38614.337 
   22500    312.71946   -1182.6213    310.95141    534.02334   -402.47324    38614.337 
   22600    303.41684   -1227.7171    340.44438    476.60467    -598.3646    38614.337 
   22700     300.0422   -1220.2148    330.72492    459.21824   -105.06895    38614.337 
   22800    293.56206   -1230.9305    310.91053    399.55951   -204.04842    38614.337 
   22900    305.37583   -1200.3556    350.61028    522.93784   -5.0760797    38614.337 
   23000    310.54615   -1190.3112    341.32798    546.94087    186.16328    38614.337 
   23100    298.21075   -1210.3388    332.31285    462.44976    576.79313    38614.337 
   23200    302.48938   -1184.8081     352.4569    527.35716    1026.8734    38614.337 
   23300    301.49596   -1188.6918    331.81313    498.36429     1085.077    38614.337 
   23400    297.76808   -1232.6765    314.48461    420.29399    395.67454    38614.337 
   23500    303.69414   -1246.7008    325.10306    443.52614    499.10912    38614.337 
   23600    304.21191   -1206.1923    348.98332    510.24233    601.10783    38614.337 
   23700    300.28487   -1218.9616    320.18207    451.01941   -63.373673    38614.337 
   23800    311.12536     -1246.71    315.61158    467.42924   -430.36511    38614.337 
   23900    304.05687   -1208.6573    343.16961    501.26659   -167.50679    38614.337 
   24000    298.91802   -1184.6404    343.89656    502.91103    142.76168    38614.337 
   24100    311.43291   -1189.3101    349.64731    560.24731    530.52633    38614.337 
   24200    308.72025   -1207.8713    329.40425    509.24951    458.24248    38614.337 
   24300    290.64762   -1222.1124    321.78049    406.14705    289.76444    38614.337 
   24400    299.06977   -1218.4998    323.22114    449.05833    395.68453    38614.337 
   24500    303.30664   -1235.8737    332.52403    460.03235    18.556345    38614.337 
   24600    293.33085   -1237.1876    341.80014    423.15282     178.4961    38614.337 
   24700    294.66381   -1217.2645    339.23387    446.50133    304.13591    38614.337 
   24800    299.20227   -1239.3657    323.40261    428.96955    482.80147    38614.337 
   24900    291.58987   -1218.4967    343.45044    435.66817    520.55806    38614.337 
   25000    302.80639    -1238.427    330.47548    453.18181    132.98895    38614.337 
   25100    307.36749   -1255.9072    349.34858    475.07722    -339.4757    38614.337 
   25200    295.37165   -1203.0206    340.50756     465.2007    4.4245098    38614.337 
   25300     303.2328   -1234.6356    337.93452    466.34898   -223.77458    38614.337 
   25400    295.73948   -1237.2792    333.69957    425.78754   -201.13775    38614.337 
   25500    312.40466   -1270.8613     335.7086    469.12548    461.20826    38614.337 
   25600    300.98559   -1248.1206    336.84322    441.67135    277.93863    38614.337 
   25700    292.73683   -1265.1437     337.7298    388.45614   -48.662379    38614.337 
   25800    300.32872   -1201.7052    338.02507    486.31594   -38.133237    38614.337 
   25900    299.24258   -1224.7056    341.39827     461.8065   -99.184404    38614.337 
   26000    301.71423   -1228.2451    338.67383    466.65274     235.6033    38614.337 
   26100    307.64086    -1197.485    355.79961    541.17925   -74.894418    38614.337 
   26200    300.21626   -1222.1184     326.3571    453.72926    406.42679    38614.337 
   26300    300.23698    -1207.779    348.53544    490.34016    738.13765    38614.337 
   26400    308.68855   -1264.7173    347.74734    470.60413    512.88588    38614.337 
   26500    301.06013   -1234.4603    357.39935    476.22287    820.93166    38614.337 
   26600    292.44477   -1226.9284    341.65556     429.2844   -19.702663    38614.337 
   26700    293.57801    -1252.932    344.37044    411.08969    620.44211    38614.337 
   26800    302.83552   -1283.0519    338.74258    416.95501    491.00726    38614.337 
   26900    302.42872   -1301.4666    330.92117    388.89031    248.15329    38614.337 
   27000    306.65269   -1299.6038    346.38599    425.20489    230.46703    38614.337 
   27100    289.88842   -1286.9835    338.76179    354.84455    131.14056    38614.337 
   27200    295.43074    -1259.042    346.26685    415.20425    340.81151    38614.337 
   27300    306.87621   -1236.1126    351.10073    494.41562    318.21865    38614.337 
   27400    308.95601   -1254.4485    347.18787    481.51565    253.08067    38614.337 
   27500       301.57   -1275.8085     345.7148    425.48195    207.77613    38614.337 
   27600    298.89742   -1264.4532    363.01195    442.12101    2.8413172    38614.337 
   27700    299.34958   -1256.8015    351.05327    439.84658    698.17018    38614.337 
   27800    300.88498   -1235.9316    341.27629     457.8412    261.09581    38614.337 
   27900    304.96348   -1260.5962    377.07631    487.30975    399.77549    38614.337 
   28000    291.68773   -1264.1291    338.38123     385.4064    29.477156    38614.337 
   28100    308.65026    -1234.329    343.33275     496.4057    253.52194    38614.337 
   28200    304.32059   -1266.2571    349.47571    451.15841    255.22455    38614.337 
   28300    294.60191   -1263.0265    349.06767    410.29486     329.1332    38614.337 
   28400     301.0511   -1299.6323    357.03352     410.6444    58.552678    38614.337 
   28500    302.47851   -1234.7163    340.63192    465.57513    122.10897    38614.337 
   28600    296.31137   -1214.8792    365.19889    482.25752     139.2984    38614.337 
   28700    302.44109   -1267.7997    352.52869    444.22034   -2.2448053    38614.337 
   28800    293.05882    -1271.282    341.97568    388.01113   -12.568627    38614.337 
   28900    302.83026   -1291.2787    334.20568    404.16759   -172.30809    38614.337 
   29000    291.10568   -1268.2252    359.15608    399.46885    10.690457    38614.337 
   29100    309.30428   -1255.2291    374.29723     509.4099     197.9088    38614.337 
   29200    294.80524   -1271.5086    355.56737    409.22647    399.71596    38614.337 
   29300    300.84357   -1254.9165    360.07052    457.46441    489.87268    38614.337 
   29400      306.308   -1234.4451    342.24241    484.67064   -104.89542    38614.337 
   29500    298.31703    -1247.976    349.21515     442.1926   -36.128219    38614.337 
   29600    312.79024   -1273.1598    354.53101    487.38259   -74.979096    38614.337 
   29700    286.95627    -1287.299    349.16924    351.75638    488.75911    38614.337 
   29800    300.90326   -1264.7848    370.34995    458.14384    610.83654    38614.337 
   29900    309.33487   -1246.1368    376.70365    521.04616    430.95462    38614.337 
   30000    314.09321   -1303.9316    356.05273    463.98948    456.36416    38614.337 
   30100     300.2331   -1269.5747    346.92695    426.91856    405.37142    38614.337 
   30200    305.51578   -1257.6215     361.6446     477.3354    247.22153    38614.337 
   30300    300.61612   -1254.0556     368.1809    465.41321    320.46836    38614.337 
   30400    306.14863     -1292.34    362.70018    446.51716    198.73908    38614.337 
   30500    294.96341   -1257.1335    364.67162    433.41679    183.39761    38614.337 
   30600    287.61429   -1289.5022     358.3528    361.69454    2.8993367    38614.337 
   30700    307.39404   -1255.4829    354.59847    480.87073   -47.478694    38614.337 
   30800    294.39255   -1258.5417    336.82976    401.60066   -453.05122    38614.337 
   30900    296.36349   -1283.6622    369.02453    417.53448   -187.58728    38614.337 
   31000    305.01326   -1246.0794    373.26275    498.23666   -239.59193    38614.337 
   31100    296.95396   -1263.2854    371.28522    442.82612   -175.94204    38614.337 
   31200    300.36945   -1266.4469    360.67029    444.40258    311.60067    38614.337 
   31300    314.81587   -1285.3283    345.63348    475.42189    101.00066    38614.337 
   31400    291.22948   -1265.1522    372.95128    416.89351   -112.81366    38614.337 
   31500    280.41289   -1259.2039    372.82519    374.09447    458.72488    38614.337 
   31600    298.54652   -1304.2714    351.16768    388.88129    239.79978    38614.337 
   31700    299.71439    -1298.235    353.99217    402.99177     134.0772    38614.337 
   31800    300.33338   -1309.5999    364.29307    404.71018    401.65959    38614.337 
   31900    297.81804   -1280.8576    373.38115    431.23397    360.86321    38614.337 
   32000    314.17076   -1264.2181    354.36915    502.36794    365.91136    38614.337 
   32100    293.96433   -1289.6129    356.20513       387.98     58.55527    38614.337 
   32200    296.68018   -1303.4281    346.49448    376.66207    166.02406    38614.337 
   32300    305.70321   -1307.1372    391.32802     458.3456    379.72969    38614.337 
   32400    304.18197   -1331.8975    383.75741    419.17662    960.93946    38614.337 
   32500     302.1213    -1317.033    383.78975    424.81057    235.63356    38614.337 
   32600    301.46196    -1290.056    392.73175    457.76577    631.84298    38614.337 
   32700    293.67017   -1267.5219    373.90455    426.44813    97.827177    38614.337 
   32800    296.78734     -1244.21    368.67491    458.54231   -185.08046    38614.337 
   32900    292.94447   -1258.5529     388.0091    446.25966    178.07226    38614.337 
   33000    293.16374   -1297.3827    372.84049    393.24691    485.33724    38614.337 
   33100    293.32571   -1324.1502    349.50336     343.8703    308.06975    38614.337 
   33200    304.39584   -1294.1672    377.25268    451.36357      652.604    38614.337 
   33300    297.02651   -1332.2064    379.51718    382.46323    277.47931    38614.337 
   33400    302.21288   -1282.1883    375.00855    451.28573    297.87993    38614.337 
   33500    301.45988    -1315.881    373.27174    412.47143    52.834158    38614.337 
   33600    307.23629   -1299.3369     377.0326    458.74175    406.14463    38614.337 
   33700    303.11485   -1301.7137     387.0393    447.84549    176.43777    38614.337 
   33800     310.9911   -1293.9933    373.31362    477.24448   -351.45071    38614.337 
   33900    291.36119   -1292.1015    371.86695    389.45188    198.35264    38614.337 
   34000    287.19499   -1274.7988      371.361    387.52139    221.04737    38614.337 
   34100    299.09495    -1312.726    368.94072    400.66495    285.69646    38614.337 
   34200    302.14942   -1311.6154    378.06282    424.62768    761.63884    38614.337 
   34300    294.02478   -1326.5173    363.52175    358.66394    109.14414    38614.337 
   34400    293.05144   -1313.0198     376.3623    380.62673     816.6452    38614.337 
   34500    301.44899   -1301.0403    371.65646    425.64789    387.57976    38614.337 
   34600    305.05547   -1289.1613    361.19139    443.27315    687.92045    38614.337 
   34700    294.82901   -1254.6198    382.77733    453.43212    225.63119    38614.337 
   34800    295.51781   -1240.3494    382.04948    470.07082    313.73243    38614.337 
   34900    297.96047   -1257.1751    371.45988    453.63538    365.66046    38614.337 
   35000    310.36109   -1257.6853    396.75114    534.15807    491.83789    38614.337 
   35100    291.96398   -1246.7781    377.26302    442.88099   -220.17329    38614.337 
   35200    292.23137   -1315.2964    376.33909    374.64071    283.94622    38614.337 
   35300    305.89729   -1258.0505    382.85794    499.83457    431.10191    38614.337 
   35400    301.98033   -1248.7482    380.42093     489.0929    266.26336    38614.337 
   35500    295.03676   -1279.9274     378.0395    424.32046   -225.54847    38614.337 
   35600    298.91578   -1268.5286    387.45096    462.56724    -64.40305    38614.337 
   35700    299.19851    -1269.372    389.56053    465.10427    163.91815    38614.337 
   35800    303.01069   -1254.6708    358.19966    465.58052    107.03794    38614.337 
   35900    297.90809   -1286.8768     382.3892    434.62766    246.73526    38614.337 
   36000    291.61688   -1293.7321    394.30432    411.40808    167.49655    38614.337 
   36100    294.40118   -1267.4739    369.33005    425.20762   -428.72766    38614.337 
   36200    298.91349   -1270.6611    391.92491    464.89831   -107.43566    38614.337 
   36300    292.97335   -1230.4146    401.04685     487.5655    270.93015    38614.337 
   36400    286.41494   -1266.2528    394.28551    415.48552    477.99607    38614.337 
   36500    302.03777   -1239.1942    425.57843    544.06263    530.96143    38614.337 
   36600    294.92293   -1256.4117    409.15085    478.43582    493.10449    38614.337 
   36700    306.65321    -1259.162    396.73027    515.99334    540.45747    38614.337 
   36800    297.65657   -1241.9961    415.70245    511.69095    474.98973    38614.337 
   36900    297.79768   -1274.6616    386.07955    450.03682    137.12534    38614.337 
   37000    311.30006   -1264.1503    403.26414    538.42673    966.75716    38614.337 
   37100    307.00665   -1247.7389    406.67635    538.95125     807.5594    38614.337 
   37200    307.61829   -1282.0625    378.49678    479.19741    542.60515    38614.337 
   37300    299.84216   -1259.1786    389.95103    478.58135    334.31671    38614.337 
   37400    298.60509    -1247.449     393.6558    488.45501    239.94426    38614.337 
   37500     298.6281   -1321.3168    387.93834    408.97323    288.90055    38614.337 
   37600    289.88163   -1278.0604    403.41894    428.39433   -87.817039    38614.337 
   37700    290.57701   -1342.7958    382.69044     346.0562    306.14505    38614.337 
   37800    298.45237   -1289.4165    399.88503    452.03033    452.23236    38614.337 
   37900    303.01868   -1267.4547    407.66554    502.29846    322.02281    38614.337 
   38000     310.5637   -1289.3155    405.49208     512.1795    298.30998    38614.337 
   38100    287.88957   -1308.8574    387.53609    372.76002    37.890894    38614.337 
   38200     292.8073    -1331.507    399.84106    384.52085   -101.00484    38614.337 
   38300    304.62024   -1349.6675    380.48776    400.10699    150.39587    38614.337 
   38400    294.22135   -1300.0849    394.56918    417.02733   -133.23223    38614.337 
   38500    305.33024   -1301.4176    380.37625    451.43683      208.482    38614.337 
   38600     301.8026   -1312.0662    393.11248    437.66749   -91.341878    38614.337 
   38700    292.49698   -1297.4233    396.09128    413.45986    42.952792    38614.337 
   38800    314.46358   -1279.9642    387.77662    521.34553   -240.95708    38614.337 
   38900    303.61437   -1314.1163    401.11432     451.7633    158.74999    38614.337 
   39000    307.92545   -1315.5632    393.40634    461.98698    684.78095    38614.337 
   39100    305.25612   -1276.6015    396.96639    492.50997    423.52858    38614.337 
   39200    296.92743   -1243.2457    412.79746    504.25883    902.12999    38614.337 
   39300    307.96416    -1302.321    408.57169    490.56858    661.23843    38614.337 
   39400    294.48445   -1305.3982    418.09785    436.42541    635.36449    38614.337 
   39500    295.93378   -1344.7644    374.46937    359.94548    159.54578    38614.337 
   39600    294.44934   -1325.9952    384.70494    382.27763    324.62513    38614.337 
   39700    299.22889   -1327.8782    385.89774    403.07186   -122.62326    38614.337 
   39800    299.87531   -1301.3655    392.91511    439.50755    177.95863    38614.337 
   39900    300.92865    -1309.678    396.96169    439.97655   -152.78857    38614.337 
   40000    305.80509   -1296.3935    412.37173    490.59088    125.50617    38614.337 
   40100    307.27759   -1324.6709    386.94702    443.50781   -2.1107437    38614.337 
   40200    303.23913   -1315.6114    391.81523    439.28238    428.82438    38614.337 
   40300    298.83503   -1327.0198    414.23863    430.50067   -248.23691    38614.337 
   40400    301.92403   -1310.1105     401.7202     448.7768   -118.99852    38614.337 
   40500      305.216   -1281.5204    392.28905    482.73338   -476.18641    38614.337 
   40600    305.18246   -1281.6475    425.14014    515.30655    303.45893    38614.337 
   40700    295.25514   -1281.8195    422.21918    467.58976    173.01311    38614.337 
   40800    302.81921   -1260.8424    422.60026    522.94888    293.19247    38614.337 
   40900    293.37884   -1322.2356    408.75963    405.27998    540.08599    38614.337 
   41000    304.02107   -1326.0126    400.20861    440.78943    326.63104    38614.337 
   41100    299.19854   -1283.0295    416.66558    478.55195    372.79639    38614.337 
   41200    300.44581   -1273.0757    446.25183    523.69855    269.15856    38614.337 
   41300    306.90766   -1252.5748    399.82722    526.82119    288.82608    38614.337 
   41400    298.01707   -1316.3446    402.62352    425.88396    183.94828    38614.337 
   41500    300.23925   -1309.8466    395.31424    435.06156    74.425548    38614.337 
   41600    299.91359   -1333.5558    404.11884    418.69305    285.12477    38614.337 
   41700    307.87482   -1291.8557    405.27093    497.33146    574.95901    38614.337 
   41800     292.0946   -1325.7127    399.73528    387.00578    120.14619    38614.337 
   41900    309.11395   -1356.9027    406.20854    438.79208    220.62423    38614.337 
   42000     301.8439   -1328.1904    399.94442    428.56091    205.21742    38614.337 
   42100    283.25085   -1317.0411     387.8425    344.03141    372.51864    38614.337 
   42200    304.20178   -1279.9864    399.42573    486.84506   -126.87709    38614.337 
   42300    292.46134   -1306.4437    414.29614    422.48418   -23.061874    38614.337 
   42400    297.26208   -1284.3868    395.73281    447.55733    323.48705    38614.337 
   42500    305.28865   -1308.7808     398.7764    462.28691     20.41621    38614.337 
   42600    303.15642   -1273.1385    414.33938    503.90768    442.58431    38614.337 
   42700    287.83389   -1305.2542    381.31898    369.89577   -69.058447    38614.337 
   42800    308.63307   -1285.8008    386.98531    488.50918    274.40393    38614.337 
   42900    305.50984   -1292.5207    403.72175    484.48662    326.95444    38614.337 
   43000    305.14945   -1280.0418    404.46819    496.09197    325.14478    38614.337 
   43100    313.77293   -1283.7987    390.90855    517.53842    153.35331    38614.337 
   43200    303.16633   -1264.4373    430.53826     528.8523    684.93683    38614.337 
   43300    294.59902   -1250.2815    401.80734    475.76657    164.60171    38614.337 
   43400    305.89381   -1277.1522    390.48138    488.34064   -49.788191    38614.337 
   43500    292.75571   -1298.7497    394.75296    411.95813   -33.009126    38614.337 
   43600    300.11525   -1240.3929    415.45207    524.09576    59.403115    38614.337 
   43700    289.98054   -1289.5172    429.36749    443.33071   -56.888261    38614.337 
   43800    295.32013   -1266.9289    409.01341    469.56664    795.30665    38614.337 
   43900    303.33735   -1267.0544    400.55445     497.0201    265.32776    38614.337 
   44000    299.92604   -1277.2099    418.69577    489.67188    54.621063    38614.337 
   44100    292.15341   -1283.3185     430.1737    460.10276    165.09218    38614.337 
   44200    298.80422   -1281.5276    423.64112    485.25688    181.58907    38614.337 
   44300    301.59167   -1293.3737     403.2148    465.51423    215.00804    38614.337 
   44400    290.93737   -1283.1971     421.2645    445.84881    162.35097    38614.337 
   44500    298.96247   -1272.1806    417.70414    489.37819   -217.35272    38614.337 
   44600    303.20455   -1278.2252    445.22464     529.9225   -727.68066    38614.337 
   44700    306.10719   -1283.2185    406.21981    498.97197   -203.94658    38614.337 
   44800    290.21734   -1294.5643    414.31433    424.29488   -1114.6758    38614.337 
   44900      310.302   -1296.1528    405.72458    504.39839   -693.32866    38614.337 
   45000    289.14455   -1290.0226    396.49603    406.19595   -843.47957    38614.337 
   45100    293.58115   -1282.0526    437.70368    475.31645   -263.13447    38614.337 
   45200    301.68751   -1319.3583     409.1931    445.93879    370.86618    38614.337 
   45300    295.84979   -1329.6848    423.39236    423.57056    379.40175    38614.337 
   45400    307.04965   -1341.0085    416.61355     455.8121    596.96809    38614.337 
   45500     306.5518   -1342.4367    414.64926    450.18179     512.9312    38614.337 
   45600    304.76904   -1334.9901    409.07237    444.03784    346.25167    38614.337 
   45700    297.08111   -1317.3635    414.69695    432.73127    468.18065    38614.337 
   45800    292.23123   -1341.0142    406.73899     379.3221   -592.87915    38614.337 
   45900    307.13874   -1317.7394    414.11472     476.9829   -418.55609    38614.337 
   46000    308.43337   -1321.1264    441.21576    506.51629   -570.27833    38614.337 
   46100    308.89633   -1356.8822    403.30357     434.9294   -278.66612    38614.337 
   46200    294.71791   -1331.5017    417.31614    410.58961    132.08943    38614.337 
   46300    303.65228   -1368.6311    401.94276    398.24735    126.92699    38614.337 
   46400    305.49934   -1350.9286    398.34973     420.6595    603.42565    38614.337 
   46500    290.64583   -1313.7116      415.391    408.15027    135.52868    38614.337 
   46600    295.98135   -1349.6345    419.86584    400.68572   -187.65634    38614.337 
   46700    309.35527   -1328.8495    409.15851    470.88003   -497.48254    38614.337 
   46800    296.88844   -1328.9081    419.47461    425.09833   -142.00256    38614.337 
   46900    305.24538   -1359.3436    431.19721    443.95041   -506.49187    38614.337 
   47000    294.55494    -1305.571    425.26358    443.73518    74.105829    38614.337 
   47100    307.00828   -1329.2965    406.64599    457.37064     79.38851    38614.337 
   47200    296.19666   -1302.7817    411.54732    440.18785   -431.99542    38614.337 
   47300    303.49021   -1277.2731    416.83051     503.7646    350.30197    38614.337 
   47400    300.53305   -1309.9075    416.89833    457.90533    419.77364    38614.337 
   47500    301.16268   -1284.2878    403.46633    472.92333    410.32297    38614.337 
   47600    289.18935   -1312.5611    422.44374    409.80661      91.0914    38614.337 
   47700    299.42102   -1333.3517    393.49438     406.0586    357.62457    38614.337 
   47800     302.2552   -1293.8966    429.19158    493.95077    388.75332    38614.337 
   47900    308.05399   -1325.0706    436.44295    496.09396    249.19653    38614.337 
   48000    298.93549   -1304.8942     424.8544    463.69364     234.1833    38614.337 
   48100    301.95853   -1289.8731    425.00146    492.45053   -371.55218    38614.337 
   48200    294.23668   -1317.5364    418.85232    423.92787    42.261181    38614.337 
   48300    302.18947   -1305.0662    422.83541    476.12946   -137.34129    38614.337 
   48400    293.58319   -1302.4332    423.36513     440.6064   -138.10574    38614.337 
   48500    300.36956   -1349.2512    439.70768    440.63611   -50.006095    38614.337 
   48600    296.67378   -1347.8253     431.0438     416.7854    -58.47501    38614.337 
   48700    294.21714   -1353.1854    397.49124    366.83001   -14.829359    38614.337 
   48800    302.45913   -1316.1695    428.15592    471.55876    599.22545    38614.337 
   48900    304.93762   -1392.7587    401.86493     379.8196    169.18157    38614.337 
   49000    301.46829    -1341.155    413.34209    427.30564    37.754658    38614.337 
   49100    294.88019    -1301.752    417.05291    440.80557   -177.47682    38614.337 
   49200    302.74983    -1297.489    432.06263    495.45273   -237.75526    38614.337 
   49300    303.41152   -1314.1798    418.36577    468.03941    -22.81547    38614.337 
   49400    295.83201   -1310.6965    437.18579     456.2724    374.47721    38614.337 
   49500    305.09813   -1304.5823    441.33196    508.18459     193.0503    38614.337 
   49600    304.44194     -1274.28    418.65774    512.86304    474.74302    38614.337 
   49700    303.39192   -1283.0005    428.65314    509.41801     707.1114    38614.337 
   49800    304.57208   -1287.1299    440.30694    522.24731    643.56796    38614.337 
   49900    297.68774   -1331.8662    438.07784    444.33637    847.83137    38614.337 
   50000     300.8055    -1319.216    424.76409     457.6873    69.607903    38614.337 
   50100    303.14621   -1323.7881    426.51651    465.38927    101.29424    38614.337 
   50200    297.96925   -1344.5926    404.72098    399.51851    73.723876    38614.337 
   50300    306.38025   -1326.4107    421.41701    472.20441    35.969463    38614.337 
   50400    308.82676   -1296.7989    416.23222    507.62863    30.059525    38614.337 
   50500    308.45948   -1334.1022     439.7356    492.17776    129.99371    38614.337 
   50600    292.80697   -1291.7291    429.09537    453.55167    122.06484    38614.337 
   50700    306.31271   -1287.4839    441.00717    530.41771     91.59898    38614.337 
   50800     303.4013   -1310.0148    406.50857    460.30133   -321.89733    38614.337 
   50900    298.57521    -1315.614    405.79297    432.29296   -490.84678    38614.337 
   51000    301.91968   -1343.3488    436.03292    449.83169   -350.04372    38614.337 
   51100     292.3672   -1371.0375    424.61819    367.78923   -506.56683    38614.337 
   51200    288.02419   -1334.1848    440.41439    400.91611    92.189667    38614.337 
   51300    304.98232   -1313.0933    439.84567    497.66665   -99.393035    38614.337 
   51400    305.14505   -1345.9358    436.97487    462.68484   -33.267702    38614.337 
   51500    309.45579   -1331.3901    424.94326    484.57604    737.89318    38614.337 
   51600    306.28282    -1339.813    449.75362    486.70073   -347.06856    38614.337 
   51700    299.46477   -1329.3401    431.94647    448.71891   -510.45978    38614.337 
   51800    300.04556   -1301.9286    453.33446    500.12909   -328.52802    38614.337 
   51900    304.21328   -1326.3105    440.80364    481.95059    200.26001    38614.337 
   52000    295.01167   -1299.0428    432.65767     459.7105    171.91581    38614.337 
   52100    315.44987   -1298.5571    411.28315     530.6926    220.80668    38614.337 
   52200    294.90846   -1262.4643     424.2905    487.45786    154.06569    38614.337 
   52300    296.44275   -1266.1158    440.27219    506.68478    385.19566    38614.337 
   52400    315.91336   -1304.2811    424.02763    539.79657     452.4369    38614.337 
   52500    292.80837   -1342.7001     427.7033    401.19484    118.69168    38614.337 
   52600    303.87174   -1376.9805    411.29051    400.23222     156.5346    38614.337 
   52700     308.8808   -1385.7684    413.16759    415.83738    848.57829    38614.337 
   52800    289.50406    -1350.187    435.15581    386.30739    66.179991    38614.337 
   52900    303.33448   -1356.6894     455.2916    462.10934   -35.977442    38614.337 
   53000    297.28073   -1362.6316    430.49926    404.16285    146.25399    38614.337 
   53100    291.31849    -1340.967    439.85119    408.37876   -410.27357    38614.337 
   53200    298.28951   -1374.5327    446.98198    413.27906    385.75101    38614.337 
   53300    296.26456   -1339.4729    431.02432    423.27881    202.94428    38614.337 
   53400    304.26389   -1339.2463    444.46435    472.90289    685.84929    38614.337 
   53500    289.35466   -1388.4891    439.67866    351.85654    186.95941    38614.337 
   53600    299.88827   -1344.5561    426.33474    429.79488    355.45231    38614.337 
   53700    309.49067   -1349.3182    425.62584    467.48725    157.30591    38614.337 
   53800    302.62212    -1351.457    427.92447    436.77254   -463.52991    38614.337 
   53900    294.81319   -1371.3711    429.59641    383.42879   -65.814634    38614.337 
   54000    293.40709   -1369.9849     415.6021    364.50012   -460.38791    38614.337 
   54100    298.45665   -1333.4819     429.0665    437.16559   -200.42878    38614.337 
   54200    286.82572   -1324.1324     414.1241    379.29092    -276.0734    38614.337 
   54300    289.39641   -1366.7363    437.35097    371.46938    154.47665    38614.337 
   54400    309.63497   -1375.8974    414.10741    430.03826   -31.997187    38614.337 
   54500    301.46032   -1347.2808    427.16584    434.96774   -420.69154    38614.337 
   54600    298.50457    -1399.085    434.66846    377.37983   -487.12103    38614.337 
   54700    297.48544   -1396.2721    417.63637    358.57965   -919.95473    38614.337 
   54800    304.31175   -1388.5354    436.26655    415.63123   -599.43041    38614.337 
   54900    309.85881   -1398.3857    438.41885    432.86759   -473.85773    38614.337 
   55000    304.84525   -1347.8036     447.1649    469.65945   -458.27003    38614.337 
   55100    299.95627    -1359.791    410.18509    398.71593    14.160165    38614.337 
   55200    303.04017   -1387.8352    393.92739    368.27644   -160.80431    38614.337 
   55300    297.36723   -1405.2001    417.35368    348.83759    107.82926    38614.337 
   55400    306.86391    -1417.313    452.05125    414.11038    354.78599    38614.337 
   55500    299.53464   -1423.0973    425.85925    349.18864    154.70615    38614.337 
   55600    302.35294   -1412.7951    430.95846    377.25845   -350.80943    38614.337 
   55700    299.06626   -1402.4503    411.16904    353.03996   -32.325766    38614.337 
   55800    299.78642   -1434.6079    452.77722    365.72779   -72.407241    38614.337 
   55900    294.57939   -1423.9069    452.87842    353.12402    40.941644    38614.337 
   56000    298.12414   -1407.4055    425.50909    358.18994    316.12271    38614.337 
   56100    308.44886    -1423.799    403.47841    366.17601    49.585907    38614.337 
   56200    307.32871   -1423.2879    425.61252    383.78608    43.080111    38614.337 
   56300     298.0017   -1393.8195    429.76522    375.48169    -276.2856    38614.337 
   56400    307.80164   -1408.1007    407.11023    382.59684    158.52918    38614.337 
   56500    291.53651   -1409.1951    420.03407     321.3136   -422.05202    38614.337 
   56600    305.73914    -1377.978    424.73252    421.07078    250.65683    38614.337 
   56700    296.26184   -1369.4777    455.89116    418.12865   -447.45189    38614.337 
   56800    303.64009   -1372.5368    437.36101     429.7051   -159.49903    38614.337 
   56900    306.65851   -1408.7097    428.95893    398.69812   -30.572556    38614.337 
   57000    299.11061   -1397.7713    421.96202    368.71127   -208.88457    38614.337 
   57100    298.96114   -1382.5416      448.314    409.62109    76.259247    38614.337 
   57200    303.16024   -1419.8277    431.91555    374.81175    8.0657801    38614.337 
   57300    295.45545   -1416.9397     432.2174    343.36809    414.61616    38614.337 
   57400    301.10595   -1404.2861    414.18002    363.38374    191.82977    38614.337 
   57500    295.26375   -1389.5815    441.52257    379.16977    72.456295    38614.337 
   57600    297.80626   -1333.6113    438.44729    443.49342   -321.28891    38614.337 
   57700    292.76826   -1372.5838    423.00607    366.43364   -104.05525    38614.337 
   57800    298.85598   -1356.4109    428.16959    415.13469   -103.61197    38614.337 
   57900    312.29231   -1320.4032    450.18236    533.55234   -287.85257    38614.337 
   58000    294.58812   -1336.1103    431.35701    419.43846   -37.984694    38614.337 
   58100    301.31235   -1347.8229    439.59796    446.19261    33.512976    38614.337 
   58200    299.26906   -1355.6852    428.77977    418.32742   -195.28076    38614.337 
   58300    307.90688   -1320.8711    446.93027     510.1196    195.34803    38614.337 
   58400    308.56439    -1361.946    434.14723    459.21715   -103.22642    38614.337 
   58500    302.25135   -1348.2117    443.17012    453.59682   -188.48479    38614.337 
   58600    301.77102   -1385.8659    422.21901    392.83243   -766.04358    38614.337 
   58700    302.18005   -1374.0639    408.64699    392.90105   -451.77501    38614.337 
   58800    303.45353   -1332.0076    436.37943    468.41408   -362.95917    38614.337 
   58900    309.06603   -1360.8007    438.21647    466.68663   -436.42434    38614.337 
   59000    294.87852   -1367.1253    430.73131    389.10308   -315.44588    38614.337 
   59100     306.8709    -1349.484    420.34293    450.26251   -160.79354    38614.337 
   59200    299.86224   -1370.5336    427.03163    404.39727   -436.42167    38614.337 
   59300    305.58629   -1361.3909    429.13078    441.36912   -26.356665    38614.337 
   59400    302.39629   -1389.5165    435.63024    405.40368    158.97251    38614.337 
   59500    303.78411   -1382.6398    445.63886    428.52737   -166.22875    38614.337 
   59600      304.639   -1411.4166    431.76715    389.72161    14.207004    38614.337 
   59700    294.83466   -1374.9971    429.20259    379.50543   -346.16819    38614.337 
   59800    289.75287   -1406.4287    413.92062    309.94894    -426.0356    38614.337 
   59900    299.32342   -1374.0912    447.41847    418.80443    77.212607    38614.337 
   60000    298.56201   -1353.6841    422.97278    411.34327    538.40434    38614.337 
   60100    295.69295   -1382.1055      440.141    387.19352    93.530558    38614.337 
   60200    300.47933   -1392.8948    416.85093    374.62919   -292.24677    38614.337 
   60300    306.76236   -1421.5744    428.30889     385.6502   -197.81097    38614.337 
   60400    303.03659    -1383.332    436.93054    415.76668   -243.03595    38614.337 
   60500    289.66111   -1406.1886    443.14098     338.9969   -138.11326    38614.337 
   60600    299.99685   -1416.7887    443.70588    375.42147   -325.09667    38614.337 
   60700    301.23922   -1365.8364    438.80857    427.06104    106.86236    38614.337 
   60800    300.45722   -1406.1147    451.20046    395.65948    227.88631    38614.337 
   60900    299.07434   -1374.3557    448.22067    418.22258    329.32979    38614.337 
   61000    302.50012   -1393.8765    441.44259    407.32279    693.74787    38614.337 
   61100    303.63151   -1351.7646    470.28494    483.36267    554.45891    38614.337 
   61200    303.18575   -1367.6473    450.74645    445.93777    110.90252    38614.337 
   61300    295.29867   -1380.2958    444.16119     391.2511   -75.203773    38614.337 
   61400    292.81234   -1335.7748    447.31998    427.75468    114.81013    38614.337 
   61500    310.15481   -1334.2792    449.17115    509.05694    367.00447    38614.337 
   61600    304.47939   -1368.3008    444.94232    445.29511    74.094112    38614.337 
   61700    290.87045   -1363.8377    438.68823    382.33109    -363.7723    38614.337 
   61800    300.41457   -1350.6068    446.59223    446.36747    328.45948    38614.337 
   61900    291.89565   -1358.7315    457.68621    411.04367    338.34959    38614.337 
   62000    293.58607   -1335.4975    470.68169    454.87159    260.23899    38614.337 
   62100    300.27187   -1360.4425    447.40359    436.70164    130.96292    38614.337 
   62200    295.74819   -1345.3847    432.31511    416.33674   -31.180744    38614.337 
   62300     298.4058   -1383.5539    448.91842    406.71699    -204.1831    38614.337 
   62400    309.60469   -1357.2048    464.66453    499.15182   -177.74429    38614.337 
   62500    292.74489   -1373.4611    447.44027    389.88542   -200.45504    38614.337 
   62600    301.46765   -1377.5615    443.80497    421.35906    118.35822    38614.337 
   62700    304.87537   -1405.5707    441.39389    406.25676    129.29756    38614.337 
   62800    304.22789   -1423.6606    447.98612     391.8486      409.883    38614.337 
   62900    300.41268   -1410.2975    466.63706    406.71307    543.41065    38614.337 
   63000    302.44075   -1369.3043    464.94515    455.13063    300.03765    38614.337 
   63100    291.93321   -1377.8926    432.38587    366.75104    251.02508    38614.337 
   63200    298.82301   -1353.2138    470.13053    460.14458    452.82774    38614.337 
   63300    294.50553   -1373.0228    461.23768     412.0354    401.16942    38614.337 
   63400     285.7276   -1422.3059    455.87948    317.93673   -518.91856    38614.337 
   63500    301.58999   -1373.2959    458.72087    441.09056   -94.638159    38614.337 
   63600     293.0927   -1409.4626    431.83337    339.84044   -192.17887    38614.337 
   63700    296.06771    -1408.554    429.89207    352.18068    63.983888    38614.337 
   63800     294.8431   -1399.8965    429.11728    354.55868    548.79728    38614.337 
   63900    294.91917   -1416.0583    439.02713    348.64862    150.67759    38614.337 
   64000    304.37297   -1377.8781    432.53531    422.83242   -260.05068    38614.337 
   64100    302.95865    -1372.623    457.69653    446.89131   -150.41904    38614.337 
   64200    295.97726   -1374.8161    463.05985    418.67981   -363.94586    38614.337 
   64300    293.25143   -1412.2224    454.70274    360.66355    116.11288    38614.337 
   64400    309.09279   -1369.9616    430.32202    449.75159   -130.49166    38614.337 
   64500    302.62641   -1461.0034    454.19526    353.51622    129.47368    38614.337 
   64600    294.28626   -1393.6659    448.32755    377.49646    253.76884    38614.337 
   64700    300.15856   -1463.4151    469.86653    355.68258    97.079986    38614.337 
   64800    304.47898   -1448.3348    441.81468    362.13168   -166.61577    38614.337 
   64900    304.27612   -1433.1192    451.95183    386.57254    318.80543    38614.337 
   65000     286.3072   -1431.2072    463.30121    319.06252   -371.34101    38614.337 
   65100    309.72712   -1440.4699    442.80394     394.5765    90.294453    38614.337 
   65200     292.1531   -1416.2405    458.06156    355.06725    193.46236    38614.337 
   65300    307.16855   -1433.4594    445.56521    392.84732    407.23491    38614.337 
   65400    304.52143   -1416.4288    450.40289    402.81664    535.38734    38614.337 
   65500    301.91918   -1393.7172    454.09226    417.52031      523.659    38614.337 
   65600    308.01652   -1442.7145    461.29834      403.137    674.01111    38614.337 
   65700    294.42016   -1478.9646    447.64337    292.11553   -96.027273    38614.337 
   65800    307.85764   -1440.2143    434.24906    377.87384     526.4442    38614.337 
   65900    296.79188   -1450.0919    434.54426    318.55009    100.82377    38614.337 
   66000    297.88323   -1419.3881    451.96345    371.57885    572.44389    38614.337 
   66100    313.49171    -1441.223    460.09375     428.0353    273.54981    38614.337 
   66200    299.91163   -1409.4411    437.83117    376.51135    92.298965    38614.337 
   66300    297.92551   -1448.3148    453.90573    344.78441    260.25275    38614.337 
   66400    297.53032   -1440.0326      444.404    341.78851    439.37942    38614.337 
   66500    298.11394   -1432.1086    467.29119    375.22309   -73.645579    38614.337 
   66600    298.57859   -1424.6983     450.0801    367.51094      7.50315    38614.337 
   66700    304.99456    -1436.033    450.51655    385.45284   -296.22027    38614.337 
   66800    292.49276   -1429.2341    456.07939    341.61822    -354.1266    38614.337 
   66900    304.44994   -1424.0639    436.30535    380.76264     -658.739    38614.337 
   67000    298.23709   -1402.7688    443.61054    381.43582   -281.58804    38614.337 
   67100    310.14905   -1433.3363     437.7762    398.57895    -751.9264    38614.337 
   67200    290.38696   -1427.2165    446.28951     324.3803   -495.60961    38614.337 
   67300    292.01532   -1450.3563    458.51113    320.78168   -544.79586    38614.337 
   67400    306.47418   -1435.7975    459.47055    401.29339   -424.73273    38614.337 
   67500    295.57284    -1428.961    437.30581    336.96294    21.154351    38614.337 
   67600    301.15413   -1479.9998    457.93305    331.63962   -15.518937    38614.337 
   67700    290.50193   -1462.3478    433.37323    276.84949   -302.28326    38614.337 
   67800    297.42451    -1463.167    448.08733    321.86183   -164.13789    38614.337 
   67900    293.19405   -1485.9132    450.36662     282.3787   -170.05363    38614.337 
   68000    304.10797   -1486.2362     434.3588    315.10662    693.52936    38614.337 
   68100    306.07916   -1509.4574    435.18514    301.57242    536.19293    38614.337 
   68200    307.69037   -1467.3624    462.74879    378.47357    267.24213    38614.337 
   68300    297.57578   -1467.0407    455.60016    326.18087   -117.06605    38614.337 
   68400    296.52091   -1415.0835    451.62426    369.42045   -137.32463    38614.337 
   68500    296.62077   -1425.8495     443.1428    350.62192   -394.14574    38614.337 
   68600    307.59587   -1442.8362    451.35368    391.17981   -795.77702    38614.337 
   68700    298.58918   -1398.6415    439.49143    383.02665   -1136.4249    38614.337 
   68800    300.94148   -1389.3493    440.34832    403.74948   -487.55555    38614.337 
   68900    294.41219   -1404.6274    454.99778    373.77126   -145.34834    38614.337 
   69000    303.90435   -1390.2375    435.36566    411.19694    119.65533    38614.337 
   69100    297.76345    -1411.556    452.35785    379.26687   -124.37153    38614.337 
   69200    295.34651   -1424.7324      451.307    354.17535   -483.25475    38614.337 
   69300    290.49642   -1457.4061    442.96964    291.36286   -17.446257    38614.337 
   69400    293.32727   -1415.0753    436.15946    339.60823    167.66714    38614.337 
   69500    302.39676   -1391.7477    445.79058    413.33496    133.48642    38614.337 
   69600    304.37117   -1429.4028    458.75248    397.51679    217.21963    38614.337 
   69700     311.6028   -1440.5783    446.88961    406.98511    184.94447    38614.337 
   69800    304.31376   -1467.0018    442.49083    343.39812   -65.175016    38614.337 
   69900    298.86394   -1424.1638    461.18976    380.43781   -56.178627    38614.337 
   70000    311.00908   -1424.2228     430.3485    404.13063      204.143    38614.337 
   70100    292.40685   -1436.5806    455.59997    333.40614    109.27474    38614.337 
   70200    295.09061   -1406.5412    438.40691    358.31616    440.17478    38614.337 
   70300    296.62937   -1411.5969    448.23509    370.00543    742.41035    38614.337 
   70400    308.00422   -1416.0505      440.072    408.51939    531.46029    38614.337 
   70500    295.91416   -1418.4285    463.01768    374.74159    493.48424    38614.337 
   70600    293.48263      -1399.1    436.17829    356.30084    219.82698    38614.337 
   70700    308.25641   -1426.5995      459.968    418.99999    282.85565    38614.337 
   70800    309.58614   -1439.5104    446.41573    398.51406    217.57495    38614.337 
   70900    296.31976   -1411.2747     456.6761    377.37692     645.6263    38614.337 
   71000    294.85756   -1469.9704    451.84373    307.27622    476.44597    38614.337 
   71100    302.42025   -1428.0295    455.07159     386.4397    735.49479    38614.337 
   71200    288.58802   -1502.2443    442.25093     237.2275    169.24643    38614.337 
   71300    307.65629   -1514.2735    451.22766     319.8881    333.08655    38614.337 
   71400    292.56086   -1455.8477    431.11384    290.34522     614.9534    38614.337 
   71500    306.86844    -1496.327    461.93375    344.99929    363.62973    38614.337 
   71600    301.61521   -1459.3111    444.29654    340.76436    720.63461    38614.337 
   71700    289.04167   -1414.3029    445.98037    330.93758     368.6427    38614.337 
   71800    310.39999   -1432.5719     439.7843    402.47947    256.88657    38614.337 
   71900    299.21012   -1420.3856    467.60498    392.18725   -317.95935    38614.337 
   72000    296.16608   -1441.6074    449.66656    339.34396   -243.44087    38614.337 
   72100    299.48471   -1405.7535    488.06127    428.50999    12.125707    38614.337 
   72200    298.73457   -1424.9251    440.76206    358.66727   -319.96409    38614.337 
   72300    304.13752   -1414.4053    445.14305    397.85462    148.52487    38614.337 
   72400    312.21244   -1419.2413    437.23426    421.40713     166.6257    38614.337 
   72500    289.35599   -1428.7987    444.99824    316.87255   -255.97267    38614.337 
   72600    296.01379    -1428.424    432.96788     335.1441   -8.1186375    38614.337 
   72700     305.2308   -1404.0112    421.71435    389.73443   -205.76928    38614.337 
   72800    310.14368   -1396.6433    439.44198    436.91358   -890.11384    38614.337 
   72900    288.42448   -1404.4403    444.47703    336.52257   -348.99826    38614.337 
   73000    299.49755   -1416.0109     448.0687    378.31774   -219.10301    38614.337 
   73100    306.40244   -1419.0617    433.42725    391.66334    30.958749    38614.337 
   73200    292.15983   -1404.2554    439.13617    348.15721    22.469455    38614.337 
   73300    305.26803   -1418.0838    440.06358    394.17831    41.525569    38614.337 
   73400      300.914   -1394.1002    431.56653    390.09332    16.701571    38614.337 
   73500    298.56576   -1423.3308    460.29937    379.04005    257.11213    38614.337 
   73600    303.02841   -1407.3197    458.08074    412.89245    683.18372    38614.337 
   73700    307.11666   -1389.1185    450.69801    442.08784    962.80261    38614.337 
   73800    295.83345   -1414.2554    430.22233    345.75644     742.2529    38614.337 
   73900    287.09544   -1421.2166     438.0052    307.30027    673.34311    38614.337 
   74000    300.16403   -1395.5985    441.27819    394.93542    319.54832    38614.337 
   74100    299.91547   -1377.5797    433.90501    404.46386    87.807528    38614.337 
   74200     294.7369   -1386.2615    424.86388    363.46294   -22.205047    38614.337 
   74300    298.80936   -1373.4697    470.55325    440.24999    68.845694    38614.337 
   74400    296.03426   -1363.9961     468.8991     435.5952    716.32224    38614.337 
   74500    296.25801   -1382.6889    426.85169    375.86076   -22.050336    38614.337 
   74600    294.59213   -1342.8826    454.89545    436.22265    280.54804    38614.337 
   74700    305.64651   -1376.2712    424.49063    422.11928   -100.95727    38614.337 
   74800    300.52787   -1389.4386    439.93897    401.39162   -118.82184    38614.337 
   74900    293.84108   -1391.1408     442.5324    372.22535   -662.44901    38614.337 
   75000    304.97149   -1359.8959    446.69326    457.66295   -378.56405    38614.337 
   75100       301.05   -1353.6464    446.67638    446.26828   -254.95378    38614.337 
   75200    300.54591   -1355.5999    435.75791    431.13033    -353.2749    38614.337 
   75300    297.25497   -1358.1207    439.49832    417.55703   -30.398196    38614.337 
   75400     292.7554   -1361.5394    442.25242    396.66651   -206.88412    38614.337 
   75500    296.75896    -1377.491    443.40081    399.85963   -37.778891    38614.337 
   75600     297.4386   -1353.4939    458.36904    441.88001    466.41024    38614.337 
   75700    307.05002   -1351.9369    446.94377    475.21558    610.15055    38614.337 
   75800    298.90496   -1401.8713    436.31926    378.04421    870.70428    38614.337 
   75900    303.39324   -1424.5295     436.3729    375.61475    104.15601    38614.337 
   76000    303.67577   -1354.3805    440.75119    451.41193    644.79568    38614.337 
   76100    301.76705   -1335.6908     463.5331    484.30376    322.37219    38614.337 
   76200    314.81833   -1344.9768    436.03873    506.18967      167.906    38614.337 
   76300    295.48087    -1376.795    436.17056    387.58027    53.788402    38614.337 
   76400    305.73296    -1414.106    420.33121    380.51366    273.02921    38614.337 
   76500    298.97905   -1394.2273     455.3216    405.02359    49.540026    38614.337 
   76600    294.72905   -1427.0659    433.36544    331.12473   -186.71065    38614.337 
   76700    304.73226    -1411.424    453.48023    411.84652    258.12974    38614.337 
   76800    293.81513    -1424.177    438.09719    334.63732   -105.38012    38614.337 
   76900    310.31678   -1403.7581    452.66299    443.79791   -150.11013    38614.337 
   77000    294.72593    -1393.413    457.75258    389.15074    253.32983    38614.337 
   77100    302.24554   -1381.3086    465.57101    442.87469    111.89832    38614.337 
   77200    301.27549   -1379.4621    435.19639    409.98618    339.65658    38614.337 
   77300    296.42865   -1368.6969    458.33119    422.09933    46.782633    38614.337 
   77400    308.22296   -1368.5326    461.52996    478.47853    429.73979    38614.337 
   77500     305.1771   -1351.2754    442.81986    463.33438    482.31256    38614.337 
   77600    293.75048   -1355.0825    466.14385     431.4878    98.249505    38614.337 
   77700    289.88408   -1382.3991     439.1335    359.78114    345.52698    38614.337 
   77800    299.28282    -1354.097    457.02659    448.22432    457.39912    38614.337 
   77900    312.87922   -1362.3677    444.89059    488.93427    574.20539    38614.337 
   78000    290.91337   -1305.0896    482.27309      484.857     461.9794    38614.337 
   78100    297.31382   -1287.0372    464.87195    514.27862   -204.35081    38614.337 
   78200    290.73615   -1343.2028    459.96432    423.63845    167.78216    38614.337 
   78300    296.53687   -1343.2038    450.41088     440.1586    78.533073    38614.337 
   78400    301.36568   -1320.5642    452.35341    486.44646   -858.06027    38614.337 
   78500    303.62037   -1424.9201    439.72352    379.59571   -719.59218    38614.337 
   78600    300.89502   -1392.2553    430.13694    390.42327   -355.88166    38614.337 
   78700     296.7037   -1400.4935    444.06888    377.27683   -285.43474    38614.337 
   78800    304.91272   -1392.0521    429.91211     408.4615    290.75357    38614.337 
   78900    302.62792   -1402.1647    461.57146    419.73787    538.52203    38614.337 
   79000    298.32316   -1377.8844    455.18459    418.28113    715.19571    38614.337 
   79100    294.05352   -1384.6564    455.49411    392.62639    472.57021    38614.337 
   79200    294.29031   -1424.1862    480.39769    379.06458    496.31078    38614.337 
   79300    285.38341   -1400.4226    474.72426    357.11764    350.19614    38614.337 
   79400    302.23909    -1327.795    446.06603    476.85439    554.88717    38614.337 
   79500    287.64374   -1359.1413    473.13254    406.96756    223.80898    38614.337 
   79600    290.85486   -1382.3217    483.18116    408.26994       140.23    38614.337 
   79700    308.84368   -1428.4514    428.96151    388.78148    568.27419    38614.337 
   79800    296.22476   -1407.8338    465.71481    389.42958    467.69681    38614.337 
   79900    299.04654   -1398.5203    457.16973    402.88201    457.54061    38614.337 
   80000     287.5132   -1378.4907    469.54852    383.44731     417.1824    38614.337 
   80100    300.10769   -1357.4095    443.88066    435.47368     314.7925    38614.337 
   80200    298.86234   -1337.8423    464.24284    469.80518    462.89932    38614.337 
   80300     297.9368   -1355.2951    453.13561    437.08481   -12.584672    38614.337 
   80400    288.42299   -1313.8874     456.2735     438.8652    354.45732    38614.337 
   80500    309.05605   -1336.9097      448.082    500.39828    384.76262    38614.337 
   80600    298.65065   -1359.2496    470.44947    453.65293    -313.2346    38614.337 
   80700    304.60299   -1360.0031    465.06601    474.27211   -274.82609    38614.337 
   80800    292.88627   -1364.3239    473.77266    425.99058    -131.2998    38614.337 
   80900    300.13166   -1375.0709    451.95447    425.99383   -7.4990948    38614.337 
   81000    303.64411   -1346.8197    440.88281    458.96209    257.52924    38614.337 
   81100    297.54272   -1389.4427    439.19202    387.22216   -292.65589    38614.337 
   81200    295.53736   -1355.9435    480.99566    453.51079    88.481245    38614.337 
   81300    296.08578    -1388.933    477.12733    419.11813    250.60818    38614.337 
   81400    295.56576   -1405.2675    450.78529    374.10407     340.3169    38614.337 
   81500     295.6493   -1371.6557    473.67197    430.97803     442.4437    38614.337 
   81600     309.8392   -1374.5892    471.76975    489.92688    554.76004    38614.337 
   81700    301.31906   -1451.7745    463.62711    366.30033    694.76548    38614.337 
   81800    290.46827   -1421.6301     453.3403      337.383    336.89387    38614.337 
   81900    299.72698   -1426.9092    463.98688    384.36892     509.8169    38614.337 
   82000    300.96299   -1418.7439    478.68558    412.78881    750.21207    38614.337 
   82100    306.27364   -1447.6501    448.65734     377.7261    592.36455    38614.337 
   82200    290.75166   -1397.9306    436.81139    345.82742    268.32342    38614.337 
   82300    301.46014   -1381.8982    476.35226    449.53599    830.05193    38614.337 
   82400    299.32235   -1399.8016    472.93137    418.60215    362.32366    38614.337 
   82500    298.38158   -1410.2966    460.54805    391.49506    356.02774    38614.337 
   82600    279.44843   -1373.7578    426.81089    309.19103    520.59298    38614.337 
   82700     302.4238   -1394.1637    457.82188    423.07175      190.363    38614.337 
   82800    298.16093   -1445.9691    476.64561    370.92828    362.29786    38614.337 
   82900    297.23537   -1425.0881    462.31956    373.32271   -415.55135    38614.337 
   83000     299.0202   -1388.2552    445.83963    401.69868       -351.8    38614.337 
   83100    295.61547   -1414.0713    454.69432    369.43274   -628.89986    38614.337 
   83200    289.34706    -1410.837    463.00081    352.79661   -715.23953    38614.337 
   83300    307.25637   -1401.9943    435.20387    414.34582   -609.80141    38614.337 
   83400    295.92323   -1365.2568    470.99617    435.93248   -16.213145    38614.337 
   83500    303.98557   -1399.1605     451.3783     418.6516    60.700686    38614.337 
   83600    297.35137   -1414.0573    424.76331    347.31869   -74.845584    38614.337 
   83700    297.01379   -1412.1236    484.36668    407.33837    527.22723    38614.337 
   83800    302.02505   -1404.2254    472.45686    425.85262    223.20157    38614.337 
   83900    307.79833   -1434.6231     450.5692    399.51855    582.80788    38614.337 
   84000    301.49094   -1398.7505    456.72358    413.19344    540.26053    38614.337 
   84100    293.73137   -1388.4693    470.97327    402.84457    250.81253    38614.337 
   84200    293.51869   -1383.0135    449.77228    386.14338    293.64774    38614.337 
   84300     291.2837    -1396.999     473.5056    385.84477    75.505278    38614.337 
   84400    287.45239   -1441.3488    458.09214    308.85951   -80.783079    38614.337 
   84500    288.37074   -1413.5563    463.59061    346.27849   -33.194186    38614.337 
   84600    306.26884   -1401.4172    434.39205     409.6721      693.102    38614.337 
   84700    296.23024   -1402.8617    457.64735    386.35876    147.23686    38614.337 
   84800    307.30666   -1414.4382    450.87431    417.79847    461.29002    38614.337 
   84900    307.97115   -1395.0467    446.99344    436.29599    530.19784    38614.337 
   85000    308.14156   -1410.7059    460.08959    434.49895     457.3947    38614.337 
   85100    301.77024   -1412.1559     449.7383    394.05815    742.99159    38614.337 
   85200    302.74687   -1382.7633    458.75393    436.85646    978.20305    38614.337 
   85300    306.17802   -1389.9879    460.12897    446.43015    833.13601    38614.337 
   85400    298.19757   -1395.6516    463.14419      407.909    158.38941    38614.337 
   85500    307.56326   -1380.4338    465.96302      468.045    554.58146    38614.337 
   85600    296.35563   -1383.0067    442.44876    391.57887    285.30929    38614.337 
   85700    305.43332   -1397.8781    485.05089    460.11431    336.65192    38614.337 
   85800    297.64598   -1363.8352    460.38229    434.48411    457.98918    38614.337 
   85900    293.59776   -1386.3927    472.54495    405.89228    442.20228    38614.337 
   86000    302.40387   -1347.9873     481.6166    492.95332   -84.873872    38614.337 
   86100     301.9447   -1390.0352     472.3491    439.57391   -286.26476    38614.337 
   86200      299.807   -1387.7552    445.05281    404.94848    199.10603    38614.337 
   86300     291.5807   -1366.2907     456.5624    400.94487    216.34519    38614.337 
   86400    291.10784   -1345.9897    459.01718    421.57513    153.62449    38614.337 
   86500    292.29458   -1344.2565    480.00601     449.6316    312.69387    38614.337 
   86600    291.99703   -1357.9869    497.37465    451.93236    518.39842    38614.337 
   86700    301.35063   -1338.0521    475.79977    492.33732    115.70016    38614.337 
   86800    291.92342   -1371.7423    463.96814    404.43954   -415.31622    38614.337 
   86900    298.47034   -1380.1411    453.32053    414.82204   -174.15599    38614.337 
   87000    295.57335   -1379.7222    483.94523    432.84347   -78.213578    38614.337 
   87100    308.15631   -1385.0924    451.91479    452.00395   -89.542478    38614.337 
   87200    308.03119   -1392.6499     441.1884    433.15772    134.42964    38614.337 
   87300    309.10389   -1443.1295    478.04708    424.35861     745.5218    38614.337 
   87400    301.84131    -1412.374    479.87077    424.29205   0.47621609    38614.337 
   87500     304.6282   -1428.5625    444.45961    385.21968    327.45815    38614.337 
   87600    295.47086   -1400.1861    441.48011     369.4537     88.53786    38614.337 
   87700    293.02045   -1407.5651    467.45649    377.03629    164.52777    38614.337 
   87800    305.32453   -1425.1146    458.65554    405.99353      428.119    38614.337 
   87900     293.1769   -1401.4827    464.12735    380.49285    403.78874    38614.337 
   88000    295.23164   -1444.2294    442.57505    325.43006    351.36798    38614.337 
   88100     303.3947   -1390.6528    486.76812    459.89312    264.90938    38614.337 
   88200    304.19102   -1417.8227    454.10051    403.63517    268.91353    38614.337 
   88300    295.15273   -1421.4936    472.67675    377.91283    98.856387    38614.337 
   88400    296.86977   -1426.8444    439.66981    347.27327   -325.99876    38614.337 
   88500    300.65019   -1415.7218    448.22254    383.94184   -260.35398    38614.337 
   88600    306.08375    -1408.328    481.05672    448.59399   -481.04578    38614.337 
   88700    305.37872    -1383.906    446.62583    435.41599   -551.78024    38614.337 
   88800     297.3104   -1427.1813    442.34998    351.59717   -194.30053    38614.337 
   88900    297.83599   -1430.7411    462.03838    370.08836   -269.21772    38614.337 
   89000    302.17878   -1461.8357    473.33064    369.80715   -171.00627    38614.337 
   89100    313.20944   -1430.9463    433.44491    410.39435   -216.51719    38614.337 
   89200    288.13127   -1430.9354    445.37101    309.60341    255.99303    38614.337 
   89300    303.64374   -1395.1874    462.98617    432.69603    237.34258    38614.337 
   89400    298.00088   -1408.7925    478.86714    409.60698    400.62255    38614.337 
   89500    306.63415   -1401.5987    457.56919    434.30992    310.69822    38614.337 
   89600    303.83184   -1439.3938    449.11103     375.4601   -426.23087    38614.337 
   89700    303.58777   -1435.3422    442.68775    371.99131    534.66869    38614.337 
   89800    295.91326   -1387.9357    452.14051    394.35312    190.80385    38614.337 
   89900    293.02633   -1413.8387     439.4832    342.81582   -64.857564    38614.337 
   90000     305.4065    -1450.969    442.84382    364.69582    57.284813    38614.337 
   90100    298.73475   -1428.9668    471.21573       385.08   -236.01117    38614.337 
   90200    294.20973   -1394.2093    462.77116    391.05269   -184.65481    38614.337 
   90300    298.70403    -1405.553    478.35496    415.49503   -113.04082    38614.337 
   90400    305.29974   -1401.4784     449.6416     420.5043   -221.78039    38614.337 
   90500    301.42034   -1389.8928    449.52408    414.53422   -543.85322    38614.337 
   90600    293.31224   -1393.1612    458.45587    383.75126    45.837628    38614.337 
   90700    307.64087   -1378.6072    478.52692    482.78441    -76.06429    38614.337 
   90800    297.40399   -1427.0618    437.96414    347.75158    672.44422    38614.337 
   90900    309.96279   -1424.0142     461.0463    430.33397   -4.1787872    38614.337 
   91000    306.92722   -1419.0117     467.7838    428.42885    166.54911    38614.337 
   91100    290.76344   -1407.7587    452.37305    351.61396   -152.32057    38614.337 
   91200    304.22093   -1455.0436     456.6779    369.12609    265.50235    38614.337 
   91300    305.02914   -1427.4072    441.19108    384.90862    459.06328    38614.337 
   91400     307.9634    -1464.401    430.16445    350.07792    191.10788    38614.337 
   91500    294.77355   -1426.0745     453.4713     352.4221    397.16648    38614.337 
   91600    311.91919   -1467.2517     482.3712    417.21542    314.44748    38614.337 
   91700    296.60629   -1437.2153    463.34605    359.39427    12.881037    38614.337 
   91800    303.93852   -1446.1562    464.86456    384.93071    37.944303    38614.337 
   91900     296.4021   -1461.9385    446.44971    316.85692    88.880347    38614.337 
   92000    301.92103   -1495.6138     447.0483    308.58811   -150.49882    38614.337 
   92100     295.1026   -1497.6138    436.81043      265.701   -724.85913    38614.337 
   92200    303.61161   -1491.3616    439.72904    313.12034    -482.1137    38614.337 
   92300     304.9124    -1476.833    435.68856    329.45559   -639.28333    38614.337 
   92400    298.83109   -1461.4998    449.54483    331.30921   -564.09585    38614.337 
   92500    301.03549    -1459.483    458.88988    352.58001   -98.120448    38614.337 
   92600    298.55145   -1449.7705    452.30086    344.53752   -109.47299    38614.337 
   92700    299.87322   -1412.6062    433.89725    369.23964    216.09153    38614.337 
   92800    308.62005   -1437.0819    455.80388    405.98808    485.11408    38614.337 
   92900    301.79913   -1487.6801    441.26973    310.19531    1224.3531    38614.337 
   93000    294.80146   -1440.8395    475.51085    359.82209    556.98929    38614.337 
   93100    299.59109   -1459.6142    462.65456    349.72072    697.89371    38614.337 
   93200    305.80188   -1465.5523    447.65618    356.70219     395.1073    38614.337 
   93300    301.92535     -1429.71    446.29603    373.75908    130.21207    38614.337 
   93400    293.66993   -1431.8242    478.89535    367.13557    147.48122    38614.337 
   93500    297.77404   -1414.3917     468.7269    392.84786    326.16722    38614.337 
   93600    304.52668   -1427.0459    452.27361    394.09384    227.23056    38614.337 
   93700     298.8997   -1445.4162     437.7349    335.89123   -108.39174    38614.337 
   93800    300.15233   -1436.8561    472.90226    385.24932    131.16873    38614.337 
   93900    297.68647    -1457.991    460.89802    341.02608    385.66376    38614.337 
   94000    300.05964   -1474.4691    448.25318    322.57062    718.58568    38614.337 
   94100    292.38411   -1485.3848    450.25614    279.15585     595.3071    38614.337 
   94200    290.87365   -1512.7158    439.33768     234.1168    462.92753    38614.337 
   94300    301.74473   -1488.7707     469.8258    337.41627    676.25131    38614.337 
   94400    307.95844   -1458.7367    462.19992     387.7553    314.42865    38614.337 
   94500    304.97247   -1487.0423    460.09614    343.92384    390.35675    38614.337 
   94600    304.64914   -1453.9263    432.29902    347.78938   -289.08461    38614.337 
   94700    296.70141   -1429.5227    465.97139    370.13983   -461.58941    38614.337 
   94800    293.46055   -1461.5517    445.34972    302.92121    -481.6435    38614.337 
   94900     305.0221   -1426.2753    439.97633    384.79417   -704.03874    38614.337 
   95000    306.28317   -1438.1206    452.42111    391.06221   -512.72642    38614.337 
   95100    303.57584   -1415.9659    469.21583    417.84201    358.82734    38614.337 
   95200    303.00962   -1484.9446    465.88987    342.99215     448.1865    38614.337 
   95300    301.02341   -1472.5871    441.90123    322.43286    480.92879    38614.337 
   95400    294.34993   -1466.3601    450.01402    306.77497    20.253766    38614.337 
   95500     306.3582   -1494.5233    453.24256    335.81822    318.68346    38614.337 
   95600    298.16939   -1450.6741    447.37854    336.99415   -175.75371    38614.337 
   95700    289.53694    -1424.595    463.65795    340.54927    79.470534    38614.337 
   95800    298.42338   -1435.1159     435.8104      342.126    25.739029    38614.337 
   95900    297.69928   -1396.7112    447.36462    388.82998    395.40517    38614.337 
   96000    296.38969   -1423.6154    446.97391    355.64845   -16.778836    38614.337 
   96100    287.78278   -1426.3769    446.30037    313.52478   -51.647129    38614.337 
   96200    309.82127   -1444.6246    476.42487    424.46595    57.208221    38614.337 
   96300    305.46631   -1473.5523    451.14437    350.68191     376.6205    38614.337 
   96400    296.43365   -1442.2599    440.22507    330.45261   -352.85608    38614.337 
   96500    301.33122   -1461.7504    486.00129     378.7532    187.99576    38614.337 
   96600    298.82521   -1474.3714    459.40554    328.27188   -110.75972    38614.337 
   96700    295.35968   -1482.2802    457.31996    302.69967    48.295638    38614.337 
   96800    295.73074   -1473.6665    458.20334    313.86475    202.84429    38614.337 
   96900    307.10092   -1474.0815    472.92338     379.2794    477.60631    38614.337 
   97000     304.6565   -1460.6978    452.59645    361.34838    622.05855    38614.337 
   97100    287.17243   -1419.8739    479.41855    350.40239   -59.022977    38614.337 
   97200    298.68117   -1404.6305    443.69923    381.65894    429.99336    38614.337 
   97300    295.52299     -1447.96    449.31495    329.74895   -44.120907    38614.337 
   97400     294.3882    -1468.779    446.36489    300.87902   -36.637407    38614.337 
   97500    313.13964   -1447.7529    456.49892    416.32799   -135.49933    38614.337 
   97600    298.09833   -1453.5727    461.33844    347.73612   -412.72602    38614.337 
   97700    296.74858   -1481.6751    442.78171     295.0097    -195.3862    38614.337 
   97800    292.50676   -1470.7482    451.99342    296.08113   -362.90814    38614.337 
   97900    294.30952   -1472.1016    480.69823    331.53604   -257.67035    38614.337 
   98000    303.70825   -1455.2897    478.85417    388.75173   -529.22642    38614.337 
   98100    297.63193   -1435.4564    488.09174    390.50915   -8.5540536    38614.337 
   98200     306.7679   -1396.8231     470.7833    452.90074   -11.084456    38614.337 
   98300    308.29847   -1366.4099    478.24891    497.65965    59.197081    38614.337 
   98400    307.25693   -1379.7638    511.08947    512.46454   -57.579218    38614.337 
   98500    300.30712   -1449.3981    468.29427    368.79517    11.737886    38614.337 
   98600    298.39755   -1459.4904    472.33326    354.15815     142.2379    38614.337 
   98700    305.40787   -1465.2526    475.31017    382.88476    580.80608    38614.337 
   98800    294.15724   -1482.8651    465.83306    305.22291    196.04736    38614.337 
   98900    300.12077   -1468.4037    441.53375    322.19136   -108.42902    38614.337 
   99000    289.82608   -1481.3114    492.07646    313.55113    32.148023    38614.337 
   99100    302.88392   -1442.4895    478.47681    397.46917   -263.28133    38614.337 
   99200    300.84722   -1438.1382    447.90018    362.08871    -256.6874    38614.337 
   99300     308.0522   -1468.6523    503.83411     419.8954   -817.80736    38614.337 
   99400    301.22875    -1467.928    451.32521    337.43894   -405.13913    38614.337 
   99500    299.67961   -1453.4722    482.27737    375.88344   -98.165875    38614.337 
   99600    292.13753   -1469.1762    467.04732    311.04727   -77.993384    38614.337 
   99700    312.16793     -1471.61    492.51233     424.1164   -18.801087    38614.337 
   99800    301.81181   -1463.9647    476.16172    368.85973    419.92879    38614.337 
   99900    299.73498   -1439.1068    451.28083    359.50125   -419.45493    38614.337 
  100000    296.43109   -1434.9039    464.28985     361.8619    294.21851    38614.337 
  100100    308.82151   -1439.3328    464.60428    413.44316    764.93394    38614.337 
  100200    304.58922   -1454.0582     481.6052     396.6943    1109.1424    38614.337 
  100300    303.79918   -1469.9438    457.29129    352.94345    482.54483    38614.337 
  100400    305.89152   -1477.6613    468.24934    365.58928     540.1199    38614.337 
  100500    293.21322   -1446.0676    470.42324    342.36715    83.319364    38614.337 
  100600    305.23519   -1456.7395    452.02729    367.33876   -219.34857    38614.337 
  100700    292.86732   -1455.3028    478.39303    339.54686   -214.01286    38614.337 
  100800    294.48873   -1495.7248    465.36614    293.38636   -807.77135    38614.337 
  100900    301.41976   -1445.2031     465.3919    375.08918   -442.48052    38614.337 
  101000     305.6566   -1479.1214    453.37737    348.20122    336.70226    38614.337 
  101100    294.11963   -1408.4426    472.61046    386.25367    54.796527    38614.337 
  101200    295.07745    -1437.397    485.37473    374.36899    176.58704    38614.337 
  101300    299.80379   -1428.1086    483.44979    402.97772    228.70053    38614.337 
  101400    295.38344   -1380.3988     482.7097    430.07768    193.26226    38614.337 
  101500    296.67886   -1426.7185    470.43067    377.30189    268.98771    38614.337 
  101600     294.2859   -1420.1435    443.59386    346.28363   -80.059828    38614.337 
  101700    299.41252   -1440.3934    481.04919    386.53349    146.59208    38614.337 
  101800    303.65753   -1430.2168    474.61378    409.35626    243.59522    38614.337 
  101900    300.54158   -1417.9698    482.93434    415.91746   -31.310947    38614.337 
  102000    298.27976   -1432.8602    460.35427    368.27996   -18.798121    38614.337 
  102100    300.14893   -1427.5807    478.81373      400.421   -414.47508    38614.337 
  102200    298.72379   -1455.0619     457.5518    345.27171     -334.726    38614.337 
  102300     295.6341   -1407.0565    474.80114    396.63806   -190.93643    38614.337 
  102400     321.3965   -1393.1091    488.07251    539.66045   -5.5859757    38614.337 
  102500    299.34004   -1418.4009    481.38128    408.53228    65.748221    38614.337 
  102600    300.88319    -1395.473    490.76786     447.7833    235.89496    38614.337 
  102700    297.81438   -1412.9099    460.54001    386.32408    443.04851    38614.337 
  102800    295.83766   -1438.1789    451.01738    342.64698    181.76791    38614.337 
  102900    296.46857   -1449.2225    456.52847    339.95048    482.34171    38614.337 
  103000    303.41695   -1440.4161    481.16834     404.6301    307.29172    38614.337 
  103100    297.88611   -1416.5591    458.11428    380.57156    520.22244    38614.337 
  103200    304.75439   -1468.6988    438.05875    339.24965    600.65482    38614.337 
  103300    299.02338   -1451.8032    475.13481    367.46009    654.81235    38614.337 
  103400    296.03014   -1416.7621    488.41483    402.32644    -43.99411    38614.337 
  103500    299.04653   -1429.5296    461.77489    376.47788    346.93209    38614.337 
  103600    300.42842   -1446.3153    481.42205    385.55098    399.90268    38614.337 
  103700    300.04717   -1462.7989    485.36259    371.29426   -263.47223    38614.337 
  103800    286.76958   -1448.3781     471.2938    311.96263   -29.053882    38614.337 
  103900    295.87139   -1469.2661    462.67707    323.37114   -127.48345    38614.337 
  104000    307.18984   -1462.9902    496.07601    413.92307    180.98071    38614.337 
  104100    297.80509   -1461.7289    486.84806    363.77139   -130.95271    38614.337 
  104200     300.7132   -1446.8688    473.69648    378.55206    285.15418    38614.337 
  104300    293.91717   -1424.8991    472.13075    368.40742    120.21818    38614.337 
  104400    302.51381   -1447.3219    485.57546    398.07179    137.88633    38614.337 
  104500    292.64056   -1480.6268    477.18646    311.99698    528.77137    38614.337 
  104600    299.22508   -1499.2541    449.96555    295.74654    141.12701    38614.337 
  104700    300.25491    -1443.652    448.94848    354.96082    12.822763    38614.337 
  104800    294.44585   -1456.8614    471.46418    338.15496     21.17711    38614.337 
  104900     291.1884   -1529.7532    479.10768    258.26427    25.154639    38614.337 
  105000    296.56999   -1470.2899    465.50644    328.31689    -3.603729    38614.337 
  105100    297.93287   -1474.2696    464.08145    329.03844    -214.9211    38614.337 
  105200    291.31239    -1499.212    466.98113    277.23626   -470.78146    38614.337 
  105300    297.43604     -1459.22    462.05069    339.82399   -70.321999    38614.337 
  105400    307.32468   -1493.6885    441.58459    329.33946   -106.50085    38614.337 
  105500    304.56762   -1491.4512    454.81031    332.40935    98.681348    38614.337 
  105600    304.65421   -1484.0344    451.11405     336.5191   -262.91776    38614.337 
  105700    304.14152   -1441.4382    452.39747     378.0941   -106.97357    38614.337 
  105800    297.83737   -1466.0356    469.42368    342.18542    359.94123    38614.337 
  105900     303.0271   -1466.7712     458.2457    353.59999    94.472422    38614.337 
  106000    306.30118   -1444.1915    453.46247    386.11367    330.67189    38614.337 
  106100    298.85447   -1438.4441    472.79863    377.72375     293.2086    38614.337 
  106200    298.74914   -1431.3541    468.80029    380.34196   -26.375485    38614.337 
  106300    304.67724   -1439.3841    465.73551    395.89441    111.12578    38614.337 
  106400    294.79552    -1425.062    479.61003    379.67202   -399.06016    38614.337 
  106500    300.55181   -1435.8441    493.39666    408.55142   -409.59646    38614.337 
  106600    290.51823   -1464.8685    464.04704    305.07583   -503.74934    38614.337 
  106700    307.82301   -1486.9711    473.34208     370.0544   -47.583982    38614.337 
  106800    299.01626   -1517.4928     448.5981    275.20186    187.78744    38614.337 
  106900    310.24127   -1430.3401    453.20346    417.41698    181.18489    38614.337 
  107000    309.59136   -1454.8719    475.86288    412.62319   -84.068508    38614.337 
  107100    305.70961   -1495.5617    473.74289    352.36471    123.41774    38614.337 
  107200    301.95407   -1457.4178     489.1942     389.0785   -151.20649    38614.337 
  107300    295.93108    -1452.815    483.90873    361.32215    255.64557    38614.337 
  107400    309.55015    -1442.257    524.02237    473.21229   -359.25367    38614.337 
  107500    296.03794   -1461.3384    466.94106    336.31143   -49.314047    38614.337 
  107600    308.05605   -1432.8347    472.82298    424.71922    -496.0622    38614.337 
  107700    298.49179   -1384.7174    476.84732    433.86884    93.149922    38614.337 
  107800    300.28932   -1419.3512    481.82875    412.29651     466.0079    38614.337 
  107900    294.58919   -1449.4044    483.61563    358.40772    457.78947    38614.337 
  108000    310.72075    -1426.969     467.8919    437.63174    335.23251    38614.337 
  108100    292.53429   -1403.3497     492.9109    404.52087    366.79737    38614.337 
  108200    300.25612   -1416.2364    477.60102    411.03438   -215.65488    38614.337 
  108300    299.54712   -1399.7324    502.91538    449.66573    88.768044    38614.337 
  108400    299.09272    -1427.215    461.37626    378.60142    185.60962    38614.337 
  108500    300.20939   -1438.9677    496.52104      407.013    136.97576    38614.337 
  108600    283.07792   -1398.4972    481.46571    355.42123     358.3855    38614.337 
  108700    303.29637   -1370.6474    503.88002    496.56844   -92.593572    38614.337 
  108800    289.76453   -1406.2704    477.03343    373.27245   -315.67838    38614.337 
  108900    300.38704   -1446.6044    464.48774    368.14156   -60.526631    38614.337 
  109000    294.55786   -1403.6274    477.42327     397.8516   -390.42955    38614.337 
  109100    289.70967   -1424.4456    475.74786    353.56507   -156.11861    38614.337 
  109200    312.10496   -1433.7858    462.85523    432.00049   -153.88042    38614.337 
  109300    314.59857   -1425.6944    469.49726    457.94276    143.87262    38614.337 
  109400    298.84135   -1473.2667    475.20053    345.24411   -37.969467    38614.337 
  109500    295.55731   -1453.4955    463.68147    338.73425   -1078.3369    38614.337 
  109600    289.48702   -1469.9272    470.43451    301.76929   -1242.7749    38614.337 
  109700     293.8656   -1519.9124    459.90828    260.93978   -574.62854    38614.337 
  109800    304.91692   -1476.9782    448.64243    342.28457   -728.32113    38614.337 
  109900    294.72354   -1464.3116    462.35461    322.84348   -921.79188    38614.337 
  110000    304.26637   -1476.8828    478.48692    369.30014   -48.855951    38614.337 
  110100    293.41068   -1497.9313    478.13556    299.10328   -429.46067    38614.337 
  110200    302.13616   -1444.1894    470.22768    384.15898   -310.88496    38614.337 
  110300    296.04743   -1449.2449    479.75955    361.26613   -296.63455    38614.337 
  110400    301.25694   -1480.1631    452.74227     326.7476    -109.3321    38614.337 
  110500    304.56365   -1476.5159     492.9178    385.43424     10.06177    38614.337 
  110600    293.89212   -1507.1007    490.53678    304.49926    295.80446    38614.337 
  110700    292.40776   -1494.1182    466.24776    286.52045   -95.225742    38614.337 
  110800    320.59107   -1515.4042      450.812    376.48436   -88.205833    38614.337 
  110900    296.97945    -1496.105    471.46234    310.29826    103.35396    38614.337 
  111000    291.64998   -1455.7691    458.07072    313.28626   -699.33739    38614.337 
  111100    306.29127   -1478.0597    492.68013    391.41856   -952.00871    38614.337 
  111200    295.39381   -1506.8822    470.30714    291.23835   -271.85764    38614.337 
  111300    301.73397   -1487.9509    436.08171    304.44362   -48.468242    38614.337 
  111400    297.07009   -1454.6897     489.7493     370.4079    185.28941    38614.337 
  111500     304.1035   -1487.2174    482.28147    362.02801    178.42436    38614.337 
  111600    300.73725   -1480.5766    441.61916    312.87499    -69.62881    38614.337 
  111700    302.54195   -1461.1676    452.41663    351.19369    501.86235    38614.337 
  111800     298.3121    -1457.054    478.08441    361.96165    794.11083    38614.337 
  111900    298.51393   -1419.9971    492.71248    414.55386    675.31342    38614.337 
  112000    295.57632   -1448.2436    462.30075    342.69088    515.97374    38614.337 
  112100    301.39822   -1470.2897    470.45596    354.96986    662.26957    38614.337 
  112200     295.6808    -1481.725    490.97359    338.35198    302.23538    38614.337 
  112300    293.91661     -1437.26    474.87473      358.788    387.40204    38614.337 
  112400    292.11355   -1478.1771    484.80262    319.69387    216.92065    38614.337 
  112500    296.60045    -1466.293    477.89269    344.83702    240.14801    38614.337 
  112600    307.81593   -1443.4109    458.71152    398.95217    128.34113    38614.337 
  112700     298.4562   -1414.8286    465.56628    392.31665     226.3329    38614.337 
  112800    292.53784   -1491.3131    490.71237     314.3749    192.96037    38614.337 
  112900     299.2473   -1488.9381    488.75688     344.9538    619.09637    38614.337 
  113000    295.18695   -1472.9723    478.52886    332.44003    1273.1297    38614.337 
  113100    295.52452    -1475.406    477.06034    330.05522    1577.8701    38614.337 
  113200    305.68198   -1476.7932     496.1542    393.42029     1632.161    38614.337 
  113300     303.3825   -1461.0641    439.25952    341.91846    94.376245    38614.337 
  113400    308.67749   -1458.5305    463.88288    392.87669    487.03499    38614.337 
  113500    296.46244   -1490.3723    472.97086    315.21542    364.79829    38614.337 
  113600    301.28486   -1464.2036    458.83255    348.92298   -36.245368    38614.337 
  113700    293.15331   -1508.7554    479.40544    288.39225   -158.84785    38614.337 
  113800    305.84901   -1447.6086    480.62707    407.82855   -638.08511    38614.337 
  113900    301.27089   -1454.4777    482.82332    382.57686   -640.76453    38614.337 
  114000    309.72648     -1445.25    458.00359    404.99323   -817.32403    38614.337 
  114100    298.83254   -1420.1656    479.97942    403.08442   -556.37976    38614.337 
  114200    304.72722   -1437.5003    472.77817    405.04546   -308.11657    38614.337 
  114300    296.05758   -1430.4164    455.08261    355.46321   -344.97594    38614.337 
  114400    294.29857   -1450.1376    489.28516    362.03776    186.26758    38614.337 
  114500     299.6004   -1441.9252    485.63859    390.43561   -75.899827    38614.337 
  114600    310.84281   -1438.2229    472.04666    431.08127    191.33715    38614.337 
  114700    295.36199   -1458.9197    471.59068    340.34135    -339.6326    38614.337 
  114800    318.23852   -1458.5221    459.75948    431.73907    164.47266    38614.337 
  114900    300.72397   -1460.2369    467.03145    358.56733   -502.30641    38614.337 
  115000    302.56249    -1471.503    465.40332    353.93736    -114.9804    38614.337 
  115100    303.85028   -1492.2993    483.53926    357.06566    22.163747    38614.337 
  115200    299.23717   -1495.4308    454.79691    304.45564    249.40638    38614.337 
  115300    297.98217   -1476.7453    460.77687    323.47973    397.30969    38614.337 
  115400    301.44903   -1480.2944    483.23826    357.97583    482.69824    38614.337 
  115500    302.26984   -1486.4306    474.88808    347.17902    540.28369    38614.337 
  115600    290.05306   -1456.8454     466.8934     313.8544    196.47555    38614.337 
  115700    304.93718   -1439.4057    462.69806    394.00372   -519.93549    38614.337 
  115800      296.877    -1488.176    469.13642     315.4408    106.75245    38614.337 
  115900    298.21137   -1472.8767    467.60571    335.20752    293.67808    38614.337 
  116000    300.38376   -1442.5684    496.95544    404.63056    247.83242    38614.337 
  116100    294.08315    -1470.303    480.25468    331.87352    240.08878    38614.337 
  116200    308.23123   -1468.3072    472.32522    389.53643    283.88105    38614.337 
  116300    294.54358   -1501.7623    485.32073    307.54988   -484.83783    38614.337 
  116400    304.85944   -1495.1459     462.5799    337.79595   -62.250282    38614.337 
  116500    302.90175   -1457.4859    484.71978    388.79588    261.03527    38614.337 
  116600    296.85446   -1425.7316    486.90349    395.55096    204.44678    38614.337 
  116700    300.94906   -1428.6945    481.87522    405.96526    337.29226    38614.337 
  116800    307.87511   -1460.0316    476.56669    400.45266    369.44892    38614.337 
  116900    299.16324   -1490.8922    477.80331    331.66825    495.23581    38614.337 
  117000    305.21756   -1459.1868    488.70276    401.48768    280.37683    38614.337 
  117100    298.39266   -1456.3049    471.78084    356.76937    233.39024    38614.337 
  117200    295.72682   -1477.8994    477.78892    329.19973   -108.92515    38614.337 
  117300    304.84704   -1442.4262    475.16373    403.04377   -249.88761    38614.337 
  117400    292.53253   -1489.5861    462.35685    287.72248   -834.75756    38614.337 
  117500    302.50081   -1473.1533    453.16191    339.76834    -444.1061    38614.337 
  117600     296.4088   -1466.2044    474.68276    340.85414   -886.31485    38614.337 
  117700    295.10284   -1477.2188    458.60332    307.88993   -218.54242    38614.337 
  117800    286.25781   -1470.5348    486.62876    302.84042    -269.5109    38614.337 
  117900    293.95673   -1477.4558     474.3004    318.19821    277.08309    38614.337 
  118000     304.8834   -1481.4509    481.03651    370.05523   -312.13886    38614.337 
  118100    300.25993   -1493.1505    445.72317    302.25958    -54.27076    38614.337 
  118200    306.43884   -1435.0273    470.58568    413.01982     58.17604    38614.337 
  118300    290.87342   -1442.5745    488.47978    353.39921    229.15479    38614.337 
  118400    287.04414   -1420.5015     472.1939    341.97344    125.56019    38614.337 
  118500    299.11704    -1474.773    456.65571    326.43225    181.54378    38614.337 
  118600    303.20747   -1471.2465    487.24381    378.93353   -155.53707    38614.337 
  118700    302.79498   -1437.8697    478.43146    401.64384    264.91485    38614.337 
  118800    307.62942   -1423.7532    463.08917    422.14915   -640.24083    38614.337 
  118900    305.25878   -1448.0102    472.62042    396.76721   -1018.2446    38614.337 
  119000    297.17817   -1465.1168    478.97624    349.69361   -1186.9719    38614.337 
  119100    304.17193   -1472.8381    465.69501    360.12847   -661.49674    38614.337 
  119200     300.1433   -1449.8985    473.86561    373.12974   -857.97376    38614.337 
  119300    307.20613   -1494.6206    470.85391    357.14378   -24.662369    38614.337 
  119400    299.79449   -1467.0161    491.72854    372.30717     -376.926    38614.337 
  119500    295.42032   -1486.3224    472.29282    313.90297   -625.58008    38614.337 
  119600    303.11221   -1456.0852    487.20508    393.62797    -727.6158    38614.337 
  119700    302.13028    -1459.577    494.19983    392.71702    24.604558    38614.337 
  119800    287.14369   -1455.6336    468.97852    304.07352   -66.884198    38614.337 
  119900    299.79121   -1516.4811    480.28802    311.38684   -119.05981    38614.337 
  120000    304.21652   -1469.8953     457.9359    355.51253    259.49638    38614.337 
  120100    292.41756   -1459.2875    489.83983    344.98727    237.10071    38614.337 
  120200    296.25031   -1428.4315    496.24573    399.47757    255.37044    38614.337 
  120300    293.05202    -1433.546    459.46619    343.20699   -34.808254    38614.337 
  120400      299.208   -1465.3521    469.80194    349.40827    -697.0346    38614.337 
  120500    295.26303   -1467.5666    470.89846    330.55739   -619.34834    38614.337 
  120600    303.52565   -1460.3803    457.79563    361.78179   -461.48679    38614.337 
  120700     300.4696   -1450.9047    459.54635      359.271    25.230318    38614.337 
  120800    300.45638   -1487.0436    485.35939    348.88573    182.71304    38614.337 
  120900    301.58176    -1488.764    481.31672    348.18124   -110.67422    38614.337 
  121000    289.80752   -1468.4575    477.72381    311.96901    307.93748    38614.337 
  121100    294.40476   -1461.9214    466.60093    328.04706   -157.82031    38614.337 
  121200     298.0869   -1478.3108    474.14172    335.74991    187.59306    38614.337 
  121300    294.24468   -1434.7266    474.53393    362.45524   -238.44211    38614.337 
  121400    302.02924   -1460.1475    496.66791    394.16044   -224.72933    38614.337 
  121500    300.13793   -1443.5948    486.87763    392.42124   -44.090492    38614.337 
  121600    299.91544    -1414.999    477.46468    410.60409   -98.486495    38614.337 
  121700    309.81234   -1398.7599    492.28117    486.14683   -144.37488    38614.337 
  121800    301.10521   -1401.7153    484.14605     435.9172   -223.13389    38614.337 
  121900    287.76162   -1419.8609    479.23691    352.88218   -145.29899    38614.337 
  122000    298.97443   -1429.1445    484.38295    399.14692    -240.9193    38614.337 
  122100    296.72211   -1450.9928    500.52125    383.31261    187.44614    38614.337 
  122200    304.40187   -1431.9866    488.18512    424.50371    639.73063    38614.337 
  122300    293.52389   -1439.5636    502.52815    382.37254     272.9508    38614.337 
  122400    294.39752   -1464.7896    473.91657    332.46189    227.26542    38614.337 
  122500    291.49864   -1429.1128     471.5899    352.78146    82.084491    38614.337 
  122600    302.09884   -1475.8171    473.88202    356.01776   -119.36534    38614.337 
  122700    311.38096   -1508.6963    474.38098    365.36126    505.92469    38614.337 
  122800    305.17863   -1452.1721    473.30805    392.93261    520.02266    38614.337 
  122900    303.58559   -1469.6038    476.52663    371.55874     60.68753    38614.337 
  123000    293.79328   -1494.5148    466.40533    292.50939   -62.036263    38614.337 
  123100     290.1263   -1492.2668     436.2791    248.14792    356.72307    38614.337 
  123200    304.21505   -1484.3408    490.49426    373.61886     397.6785    38614.337 
  123300    297.38475   -1507.6992    475.71689    304.78048     446.8576    38614.337 
  123400    299.70573   -1495.4223    452.79827    304.57164    618.57308    38614.337 
  123500    298.51883   -1464.5985    478.89841    356.16044   -146.03868    38614.337 
  123600    291.32794   -1470.6388     459.4967    298.39496   -267.34756    38614.337 
  123700    296.81291   -1441.9598    453.21722    345.44971   -124.26967    38614.337 
  123800    305.64739   -1472.7785    459.44366    360.56899    267.68065    38614.337 
  123900    294.23312    -1429.678    463.39136    356.30936    164.07703    38614.337 
  124000    308.30528   -1450.3629    479.14091    414.62919    167.33358    38614.337 
  124100    306.13632   -1462.6488    480.35427     393.8071    461.78221    38614.337 
  124200    299.91908   -1476.9796    458.96292    330.13802    317.60155    38614.337 
  124300     296.3745   -1434.5113    476.22714     373.9375    635.66657    38614.337 
  124400    309.64842   -1442.3306    474.90767    424.46579     669.9674    38614.337 
  124500    291.98511   -1467.4769    481.55378    326.56798    335.75288    38614.337 
  124600    301.73051   -1413.7555    483.73641    426.27816    561.07549    38614.337 
  124700    304.93782   -1459.7354    445.49128    356.47018    446.24405    38614.337 
  124800    304.17471   -1464.1036    461.91313    365.09361    147.33805    38614.337 
  124900    292.36837   -1451.1238     490.5184    353.60848   -364.55523    38614.337 
  125000     306.4083   -1455.8272    481.23558    402.73252   -62.446718    38614.337 
  125100    309.23734     -1434.49    467.30597    422.85682   -157.32712    38614.337 
  125200    299.46317   -1439.4518    486.67319    393.32683   -408.61518    38614.337 
  125300    290.25411   -1453.4747    472.73744    323.97289   -867.12577    38614.337 
  125400    308.51977   -1459.0988    466.13208    393.84865   -599.40829    38614.337 
  125500    295.92569    -1462.494     468.2822    335.99237   -53.871576    38614.337 
  125600    302.96877   -1430.9016    450.97056    381.93225     303.0384    38614.337 
  125700    292.09794    -1418.721    458.88977    353.16696   -183.05245    38614.337 
  125800    299.31398   -1464.7767    484.35741    365.01549   -33.300209    38614.337 
  125900    305.46238   -1445.9072    475.75921    402.92425    -397.3421    38614.337 
  126000    308.24828   -1462.7832    461.93851    384.75025   -87.559144    38614.337 
  126100    310.03599   -1484.0871    425.16614    334.70991     229.3981    38614.337 
  126200    310.31366   -1483.9457    478.39256    389.32584    148.97532    38614.337 
  126300    304.87352    -1485.849    479.33082     363.9071   -262.37343    38614.337 
  126400    293.97115   -1477.7126    491.00385     334.7097   -519.31407    38614.337 
  126500    307.22744   -1448.7078    452.31975    384.61824   -168.98952    38614.337 
  126600    297.52111   -1452.3416    491.36373    376.39782    11.445952    38614.337 
  126700    305.62608   -1479.4796    485.58428    379.91272   -89.076354    38614.337 
  126800    294.55289   -1498.4262    456.74469    282.35185    20.893517    38614.337 
  126900    303.78528    -1489.182    448.86934    325.22091    242.38012    38614.337 
  127000    308.38475   -1502.6601    455.78154     339.3299    13.804461    38614.337 
  127100    296.92591   -1516.8732    462.05934    279.88639      286.474    38614.337 
  127200    300.46041   -1495.1225    470.95963    326.42514     677.0774    38614.337 
  127300     306.0441    -1517.388    461.80192    320.10102    690.56078    38614.337 
  127400    304.29944   -1538.7579    478.40345    307.49026    965.55445    38614.337 
  127500    298.96276   -1579.2073     462.7197    227.36839    1114.7885    38614.337 
  127600    306.03819   -1550.9329    442.71655    267.44412    459.99793    38614.337 
  127700    300.48555   -1535.7637    436.76886    251.70625   -90.698267    38614.337 
  127800    296.86762    -1503.972    479.08572    309.55193   -7.3254102    38614.337 
  127900    304.61856   -1481.5452    446.98412    334.71805    118.39389    38614.337 
  128000    289.53103   -1513.3933    456.68742    244.75394     592.9744    38614.337 
  128100    302.36448   -1498.1035    491.19954    352.24301    764.30127    38614.337 
  128200    292.04919   -1488.0263    449.46036    274.21313    334.34192    38614.337 
  128300    305.39519    -1523.954    448.58627    297.40244    665.75864    38614.337 
  128400    301.19971   -1546.7378     436.8676    244.04109   -192.55858    38614.337 
  128500     304.9658   -1547.2551    459.43565     283.0206   -182.58238    38614.337 
  128600    289.90305   -1528.6635    460.93152    235.40004    173.80468    38614.337 
  128700    295.70512    -1513.626    457.72002    273.30675    174.04351    38614.337 
  128800    305.06636   -1492.2635    463.14841    342.17698    89.827764    38614.337 
  128900    307.58758   -1514.3485    478.48919    346.76577    344.32945    38614.337 
  129000    300.02507   -1467.8931    458.51225    339.25029   -116.55276    38614.337 
  129100    296.11747   -1489.2499    468.92367    310.73999   -841.34513    38614.337 
  129200    294.67037   -1482.9495     451.2052     292.8171   -825.84893    38614.337 
  129300    288.15426   -1464.3762    474.33534    305.23028   -262.53723    38614.337 
  129400    294.92489    -1507.776     453.0178    270.94737   -446.01307    38614.337 
  129500     294.9987   -1498.1989    466.54133    294.37976   -477.81345    38614.337 
  129600    298.73084   -1467.7664    478.39272    353.43987   -691.52861    38614.337 
  129700    296.20942   -1482.4946    456.61312    305.59813   -287.83008    38614.337 
  129800    302.97667   -1468.0672    485.88132     379.7129    277.62506    38614.337 
  129900    295.02968    -1484.498     435.8434    277.52204    -338.4587    38614.337 
  130000    297.14474   -1488.6888    494.39509    341.39013   -42.390262    38614.337 
  130100    296.82708   -1473.3803    486.35338    347.22909   -75.430975    38614.337 
  130200    308.19603   -1465.8298    476.50107    396.03141    77.446658    38614.337 
  130300    296.41573   -1541.4749    467.75529    258.68734    167.84502    38614.337 
  130400    312.08377     -1555.81    471.03441    318.06014     295.9731    38614.337 
  130500    303.06508   -1529.1522       474.23    307.37394    461.98141    38614.337 
  130600    297.25029    -1516.883    452.06442     271.3398    183.18464    38614.337 
  130700     306.6982   -1491.7403    442.06598    328.95302    67.532939    38614.337 
  130800    285.84467   -1470.0079    486.27248      301.154   -408.73115    38614.337 
  130900    295.11833   -1494.7231    459.96749    291.81946   -214.27267    38614.337 
  131000    301.61691   -1481.1247    463.92692    338.58876   -676.15584    38614.337 
  131100    307.61826   -1493.3959    449.75171    339.11882    -684.9981    38614.337 
  131200    294.96417    -1458.729    451.73441    318.88752   -798.32972    38614.337 
  131300    306.80083   -1449.7479    472.52599    401.86672    -1070.986    38614.337 
  131400    301.15284   -1430.9253    502.02975    424.80502   -991.01042    38614.337 
  131500    300.76857   -1421.3565    458.97939    389.59615   -919.26042    38614.337 
  131600    298.84881   -1446.3584    470.08806    367.07341   -251.15818    38614.337 
  131700    312.79995   -1441.3827    466.48937    431.16172   -147.30979    38614.337 
  131800    297.96506   -1465.2316    492.11541    366.25515   -167.54934    38614.337 
  131900     298.4428   -1481.0386    471.43447    331.91459    230.83121    38614.337 
  132000    297.29962   -1434.1642    469.31551     371.5314    272.83739    38614.337 
  132100    306.56285    -1447.527    474.47205     404.9639    491.50984    38614.337 
  132200    305.51273   -1471.9553    468.69182    370.03503    519.67711    38614.337 
  132300    292.18443   -1481.3273    481.29402    313.35371    107.78475    38614.337 
  132400    303.74708   -1479.6209    481.70443    367.44535    154.73728    38614.337 
  132500    291.26413   -1465.5787    478.13492    321.80643    269.97575    38614.337 
  132600    291.23543   -1479.1423    468.23616    298.21508    169.92098    38614.337 
  132700    305.38951   -1502.3984    486.25714    356.60336    132.84395    38614.337 
  132800    299.81497   -1464.3985    466.46126    349.74952   -167.11809    38614.337 
  132900    303.41188   -1518.3101    497.42043    342.96538    55.267607    38614.337 
  133000    297.05149   -1499.6103    464.75353    300.40794   -132.43377    38614.337 
  133100    290.35633    -1498.168    462.41038    269.41193    283.64926    38614.337 
  133200    297.69628   -1485.1523    495.07909    348.08994    51.673818    38614.337 
  133300    313.56673   -1463.1731    467.87123    414.19986    309.10429    38614.337 
  133400    298.72033   -1473.9123    472.57476    341.42868    326.94709    38614.337 
  133500     304.3878   -1484.0071    472.17922    356.41399    254.06511    38614.337 
  133600    291.96725   -1482.4029    494.41386    324.42169    357.62347    38614.337 
  133700    305.86615   -1475.4379     474.9576    374.40685    127.67232    38614.337 
  133800    304.10542   -1470.9574    475.94789    371.96307    8.9499246    38614.337 
  133900     302.1287   -1460.9606    470.01207    367.13859    44.476312    38614.337 
  134000     297.0034   -1457.7268    485.12116     362.4429   -301.83047    38614.337 
  134100    295.29291   -1486.0518    457.32073    298.62871   -99.259406    38614.337 
  134200    292.59877   -1502.4999    465.06188    277.81148    8.3474037    38614.337 
  134300    292.15798   -1496.3715     489.5721    306.46873   -387.98967    38614.337 
  134400    306.36049   -1471.2689     479.6782     385.5186   -350.40236    38614.337 
  134500    290.08713   -1466.1079    475.17209    313.02369    -541.9008    38614.337 
  134600    307.80665   -1432.7366    475.56222    426.43547   -514.81131    38614.337 
  134700    303.87946   -1460.9209    468.56326    373.59917   -247.58373    38614.337 
  134800    299.60794   -1459.2404     468.1955    355.71121   -353.73168    38614.337 
  134900    304.01226    -1506.279    479.41189    339.68672    107.67742    38614.337 
  135000    294.14741   -1476.6757    496.82086    342.35588    314.65381    38614.337 
  135100    303.19228   -1478.5213    482.09441    366.44107    26.097356    38614.337 
  135200    301.08391   -1449.6112    481.40306    385.18252    252.98203    38614.337 
  135300    304.42623   -1420.4956    483.03242     430.9515    209.94516    38614.337 
  135400    295.94823   -1450.8318    496.75109    376.22484    332.58367    38614.337 
  135500    293.81632   -1483.6405    459.66325    296.74523   -403.61061    38614.337 
  135600    299.77755   -1468.8469    467.64805    346.31969   -204.50003    38614.337 
  135700    303.46072   -1485.2936    460.76801    339.54899    174.50311    38614.337 
  135800    300.91784   -1488.3829    479.67951    343.94078     97.32371    38614.337 
  135900    302.99301   -1468.9262    456.76007    349.80607    407.40149    38614.337 
  136000    302.59275   -1501.5895    466.74096    325.32451    80.067166    38614.337 
  136100    293.18326   -1485.8978    470.05705    302.03608    300.07443    38614.337 
  136200    291.16969   -1502.0157    456.82977    263.63973    234.72181    38614.337 
  136300    296.00594   -1477.1642    484.06696    337.46769    546.30174    38614.337 
  136400    304.45775   -1467.5244    468.29815    369.33012    223.40329    38614.337 
  136500    308.69684    -1452.876    481.46663    416.20194   -384.16125    38614.337 
  136600     299.9436    -1493.709    472.98303    327.53895   -305.93682    38614.337 
  136700    294.02944   -1480.4518    488.99079    330.21941   -580.54059    38614.337 
  136800     306.5933   -1481.3076    470.09302    366.94119   -358.96738    38614.337 
  136900    294.25985   -1454.2977    469.48238    337.90088   -738.43064    38614.337 
  137000    309.56561    -1504.479    472.41936     359.4568   -341.92038    38614.337 
  137100     299.7602   -1459.2809    470.01478    358.17447   -434.93623    38614.337 
  137200    290.17751   -1441.1542    492.00153    355.21308    -109.3037    38614.337 
  137300    298.58602   -1457.5939    482.79228    367.36095   -64.090286    38614.337 
  137400    300.35548   -1441.9976    498.16567    406.28443   -586.42224    38614.337 
  137500    299.43422   -1430.7509    451.57968    366.80399   -494.37036    38614.337 
  137600    293.24437   -1441.4427    477.62353    354.33236   -650.78011    38614.337 
  137700    303.87108   -1478.2043    477.90915    365.62407   -7.3737133    38614.337 
  137800    301.35652   -1512.2869    460.09976    302.42902    239.10966    38614.337 
  137900    302.12144   -1480.0129    497.58258     375.6241    987.43481    38614.337 
  138000    301.45036   -1446.4214    469.28176    377.89825    871.97647    38614.337 
  138100    297.84925   -1454.4526    476.66247    361.06056    817.00888    38614.337 
  138200    309.07212   -1503.2801    490.66763    376.68573    763.62385    38614.337 
  138300    307.50605   -1435.4279    476.57881    423.40955    396.49469    38614.337 
  138400    293.46011   -1491.1459    481.18011    309.15553    28.477632    38614.337 
  138500    307.01835   -1468.3146    491.10557     402.8574   -200.47064    38614.337 
  138600      302.719   -1475.1511    469.55576     355.1452   -557.43428    38614.337 
  138700    289.09802   -1479.9225    491.67858    311.26951     37.85702    38614.337 
  138800     297.7876   -1507.5984    488.79921    319.77438    542.84259    38614.337 
  138900    299.95226   -1506.7125    461.03997    302.63136    638.50822    38614.337 
  139000    300.31728   -1504.9276    498.80588    343.82295     903.0354    38614.337 
  139100    295.00603   -1452.7752    485.73898    359.03408    454.71796    38614.337 
  139200    300.87064   -1444.6853    464.97851    372.72527   -67.045015    38614.337 
  139300    291.21026   -1472.9732    489.65081    325.68563   -535.40937    38614.337 
  139400    294.31113   -1504.7453    470.93823    289.13954   -206.17019    38614.337 
  139500    299.50973   -1463.2359    453.79847    336.87724   -341.26882    38614.337 
  139600    297.90866   -1459.9111     460.4204    339.62709   -341.92709    38614.337 
  139700    291.58339   -1494.0648    473.15003    289.77055   -489.53537    38614.337 
  139800    305.64452   -1502.5807    482.21212    353.52235   -254.23643    38614.337 
  139900    287.19768   -1493.7238    483.80452    281.05201   -216.78432    38614.337 
  140000    303.05892   -1443.4832    447.35835    366.14366   -13.906517    38614.337 
  140100    300.98708   -1480.3879     480.7729    353.34045     99.17775    38614.337 
  140200     303.5465   -1468.8993    496.62672    392.18768    387.71284    38614.337 
  140300     306.9954   -1488.2507    494.77425     386.4868    637.02518    38614.337 
  140400    293.07134   -1459.2571    492.70539      350.822       496.53    38614.337 
  140500    293.13939    -1484.791    505.13564    338.02424    767.68006    38614.337 
  140600    303.12496   -1496.0613    484.17871    350.68278    122.28195    38614.337 
  140700    301.54531   -1456.2161    497.36064    396.60924    22.387833    38614.337 
  140800    297.09628   -1474.9603    478.76354    339.26934    260.36779    38614.337 
  140900    304.87439   -1492.4459    479.88113     357.8644    547.64293    38614.337 
  141000    284.53878   -1511.5625    487.74018    255.19703    147.88697    38614.337 
  141100    309.82349   -1510.8699    484.55035    366.35613    321.97208    38614.337 
  141200    300.48208   -1503.5268    471.19333    318.35199    53.591157    38614.337 
  141300    297.42756   -1534.6678    478.69877    280.98613    275.40871    38614.337 
  141400    302.58205   -1518.1041    456.94648     298.9673   -399.97764    38614.337 
  141500     309.1623   -1495.1458    471.68162    366.23944   -205.16094    38614.337 
  141600    295.97736   -1515.7118    478.92376    293.64838   -24.976896    38614.337 
  141700    295.57744   -1535.6307    485.09549    278.10355   -138.18264    38614.337 
  141800    300.26542   -1498.0047    484.85868    336.56551   -515.46762    38614.337 
  141900    298.50741   -1504.6467     459.5406     296.7031   -732.13845    38614.337 
  142000     299.6756   -1435.3365    495.08553    406.80929     -825.218    38614.337 
  142100    296.01964   -1466.2121    487.71899    352.13336   -392.41679    38614.337 
  142200     303.6934   -1464.6723    500.88032    401.32855    448.95412    38614.337 
  142300    301.45066   -1497.3215    474.13081    331.84857    358.40125    38614.337 
  142400    304.47201   -1465.7046    494.57316    397.48897    1139.3885    38614.337 
  142500    301.02131   -1497.4105     476.7402    332.43903    1114.1419    38614.337 
  142600    300.66811   -1517.7053    465.46852    299.28489    772.27992    38614.337 
  142700    300.92493   -1496.7602    462.56677    318.48267    118.87674    38614.337 
  142800    290.19918   -1476.8535     472.2954    299.90513   -172.07998    38614.337 
  142900    296.50806    -1496.835    463.21855    299.20552    325.60814    38614.337 
  143000    297.81254   -1540.5469    487.98928    286.12804    771.57332    38614.337 
  143100    302.25567    -1512.729    494.59353    340.52233    691.43967    38614.337 
  143200    299.53609   -1513.2065    448.78503    282.01169    169.73061    38614.337 
  143300     310.5213   -1485.4322    483.55467     393.9348    239.95963    38614.337 
  143400    291.56881   -1496.5097    486.82886    300.93887    266.12455    38614.337 
  143500    296.62402   -1494.8701    474.26513    312.73826    214.52798    38614.337 
  143600    310.04372   -1507.2037    489.02036    375.48221    187.13965    38614.337 
  143700    300.46668   -1495.4777    482.98106     338.1196    718.87356    38614.337 
  143800    314.60862    -1490.116    472.10686    396.17602    321.96842    38614.337 
  143900    302.05075   -1518.9508     480.5954    319.38136    210.75738    38614.337 
  144000    303.58389    -1517.822    486.92678    333.73304    443.72128    38614.337 
  144100    299.58463    -1528.813     500.7849    318.62322      432.902    38614.337 
  144200    299.10406   -1538.1854    476.55438    282.86016    310.13527    38614.337 
  144300    298.11785   -1506.7317    487.11412    320.44051     896.4803    38614.337 
  144400    302.23525   -1535.2511    484.20697    307.52198    540.95794    38614.337 
  144500     299.1257   -1562.4463    498.19015    280.33226    6.1793264    38614.337 
  144600    302.02051   -1540.8248    468.03569    284.81168    88.268492    38614.337 
  144700    295.47117    -1522.328    472.16318     277.9963    395.77283    38614.337 
  144800    295.83104   -1525.9812    478.92238    282.71994   -345.75536    38614.337 
  144900    294.11367   -1527.3956     478.2358    272.89922   -568.31584    38614.337 
  145000    307.54658   -1520.3969    473.22302    335.26696    326.45629    38614.337 
  145100     297.0732   -1505.6217    472.43607    302.17666    119.70705    38614.337 
  145200    309.14632   -1526.7584    457.72749    320.60082   -13.244446    38614.337 
  145300    294.38992   -1499.4336    501.12182    324.98906   -137.44135    38614.337 
  145400    286.98112   -1527.2244    481.69476    244.46822    -87.63077    38614.337 
  145500    305.37343   -1527.8372    495.16687    340.00207    232.58291    38614.337 
  145600    294.10114   -1507.3818    482.87917    297.50005   -386.24658    38614.337 
  145700    301.20699   -1524.9331     487.7404    316.75127    58.574326    38614.337 
  145800    302.22045   -1491.1929    471.40712    338.71372    -5.785281    38614.337 
  145900    296.91561   -1458.5271    498.01588    374.14273   -43.971782    38614.337 
  146000     303.8732   -1467.2598    495.32452    393.99343   -23.570227    38614.337 
  146100    300.71711   -1499.4257    487.73404    340.05029   -145.90598    38614.337 
  146200    297.90591   -1452.2889    451.62641    338.44291   -478.78217    38614.337 
  146300    304.78292   -1482.6716    516.19113    403.53753   -1140.4742    38614.337 
  146400    305.36736   -1470.3966    476.19683    378.44535   -678.21235    38614.337 
  146500    294.43535    -1481.087    472.06234     314.4804   -488.95104    38614.337 
  146600    300.45017   -1463.4933    466.65963    353.70837   -415.74373    38614.337 
  146700    295.94806   -1472.6391    488.80595     346.4716   -316.66787    38614.337 
  146800    301.53324   -1466.4252    488.47842    377.46363    -817.6692    38614.337 
  146900    293.81391   -1467.9427    485.38053    338.14948   -627.84748    38614.337 
  147000    302.17674   -1520.0476    482.49983    320.75527   -136.70759    38614.337 
  147100    293.22072   -1499.1803    472.29095    291.15587    53.854957    38614.337 
  147200    296.96202    -1455.348      490.021    369.53562    675.06513    38614.337 
  147300    300.95492   -1491.3958    464.50181     325.9169   -107.06141    38614.337 
  147400    295.76236   -1451.4252    498.09858     376.1434    234.02497    38614.337 
  147500    299.98621   -1432.2683    503.10178    419.28997    273.17808    38614.337 
  147600    285.99786   -1432.7418    495.46175    348.29798     431.5786    38614.337 
  147700     300.7121   -1441.6459    490.99463    401.06811     492.6706    38614.337 
  147800    310.42499   -1412.4946     494.8297    477.71458    154.70845    38614.337 
  147900     290.3252   -1449.9134    505.34884    360.46505    504.27828    38614.337 
  148000    297.17358   -1489.7926    487.90273    333.92367    187.25366    38614.337 
  148100    306.20808   -1470.0854     468.4986    374.83741    125.85814    38614.337 
  148200    304.81183   -1450.0792     501.4429    421.51166    210.55154    38614.337 
  148300    306.32892   -1471.7595    463.60866    368.81653    100.88862    38614.337 
  148400     299.0989   -1460.1102    487.36544    371.72324   -70.841329    38614.337 
  148500    304.52403   -1449.6916    470.39205     389.5547   -160.13476    38614.337 
  148600    306.31727    -1472.769     476.5839    380.72993    679.97077    38614.337 
  148700    301.34547   -1439.5565     503.9921    419.00203     15.95783    38614.337 
  148800    294.72838   -1422.6964     496.1246    398.25038    35.855541    38614.337 
  148900    304.55138   -1479.6131    485.94008    375.30414    593.74778    38614.337 
  149000    296.91422   -1461.2426    504.48737    377.89246    401.30151    38614.337 
  149100    297.38934    -1461.877    493.57829     368.4847     22.44148    38614.337 
  149200    298.27943     -1493.04    495.08647    342.83084   -140.99072    38614.337 
  149300    301.95626   -1457.6552    476.80355    376.46028    98.993229    38614.337 
  149400    292.02234   -1487.0379    474.00408    299.62457    294.61415    38614.337 
  149500    303.14979   -1461.0221    470.69765    372.35255    682.20846    38614.337 
  149600    305.82934   -1515.5884     493.7741    352.90739    750.16275    38614.337 
  149700    300.06056   -1487.6703    490.81184    351.93228    771.94219    38614.337 
  149800    309.50169   -1480.5503    484.14616    394.82496    334.69553    38614.337 
  149900    299.47815   -1511.0672    465.29763    300.40314   -226.53404    38614.337 
  150000    296.26307    -1494.286    463.79829    301.23304      114.898    38614.337 
  150100    306.75526   -1485.3621    460.55212    354.07383     39.79871    38614.337 
  150200    299.25395    -1477.353    480.67552    348.48742   -68.080941    38614.337 
  150300     300.7472   -1487.3136    457.82495     322.3885   -2.5418532    38614.337 
  150400      303.007   -1490.7317    465.81609    337.11948   -116.21449    38614.337 
  150500    292.77911   -1497.6631    482.49011    300.88712   -120.24428    38614.337 
  150600    304.61212   -1484.6057     468.5899     353.2344    -517.6834    38614.337 
  150700    303.08772   -1441.3527     482.9547    403.99993   -467.41679    38614.337 
  150800    310.69708   -1440.0805    485.46989    441.99191   -414.95376    38614.337 
  150900    300.37727   -1455.9958    454.54852    348.76701   -130.20128    38614.337 
  151000    301.53764   -1484.2353    456.98431    328.17926    13.842298    38614.337 
  151100    304.57516   -1499.3651    473.46902      343.188    105.07182    38614.337 
  151200    297.81616   -1536.6397    466.01539    268.07767   -256.65181    38614.337 
  151300    294.67804   -1515.9302      490.455    299.12072   -169.69577    38614.337 
  151400    303.23049   -1541.7563    442.80787    264.09128    25.391287    38614.337 
  151500    294.41415   -1502.1546    476.23546    297.49061   -600.45371    38614.337 
  151600    293.63433   -1520.0691    476.26928    276.10455   -120.69434    38614.337 
  151700    301.60015   -1509.6815    464.83671    310.86644    278.33419    38614.337 
  151800     311.5637   -1492.6146    470.44881    378.33218    319.42748    38614.337 
  151900    302.67548   -1509.7824    472.44774     323.2103    291.53309    38614.337 
  152000    296.13163    -1538.299    469.06721    261.89812   -323.20267    38614.337 
  152100    293.82836   -1565.9796    473.99268    228.78967   -287.21588    38614.337 
  152200    297.02479   -1537.6187    461.30898    258.83503   -402.96584    38614.337 
  152300    298.66833   -1545.6375    468.60717    265.50217    136.86219    38614.337 
  152400    305.71675   -1555.2224    495.09756     314.0908   -187.12379    38614.337 
  152500    306.60113   -1590.3456    444.21137    232.05675   -18.775308    38614.337 
  152600    295.03221   -1521.5114    467.50922    272.18572    74.423552    38614.337 
  152700    309.55483   -1494.7446    490.03221    386.75561   -255.29976    38614.337 
  152800    304.51461    -1482.632    475.78809      361.968   -55.745227    38614.337 
  152900    307.94421   -1475.5448     494.0872    402.77056    96.604678    38614.337 
  153000    306.49644   -1522.2828    459.52452    314.96209    115.65037    38614.337 
  153100    290.22919   -1522.1096    495.97398    278.46241    785.04239    38614.337 
  153200    291.83543   -1517.4587    466.94439    261.30389    142.28943    38614.337 
  153300    299.74927   -1519.6267    474.73714    302.50188    247.05589    38614.337 
  153400     304.2209   -1487.2812    487.22868    367.43918    383.10716    38614.337 
  153500    292.95264   -1495.6288    487.92635    309.13773    235.38423    38614.337 
  153600    300.95857   -1525.1275    509.83371    337.53351    284.74466    38614.337 
  153700    307.00217    -1524.392    467.36921    322.97087    87.775068    38614.337 
  153800    298.98349   -1519.1538    468.44697    293.24232    345.31195    38614.337 
  153900    300.16997   -1501.6513    523.68508    371.31632    183.13849    38614.337 
  154000     296.7482   -1532.8571    458.06266    259.10695    149.77754    38614.337 
  154100    299.74528   -1505.2287    519.08829    361.23308    241.25159    38614.337 
  154200    299.66706   -1456.2074    476.34445    367.15889    621.94365    38614.337 
  154300    303.89826   -1449.0646     499.8233    416.80008    281.64702    38614.337 
  154400    308.61857   -1446.0327    504.41033     445.6371    257.87793    38614.337 
  154500    294.00133   -1465.6975    485.38284    341.23938   -371.81161    38614.337 
  154600    300.07372   -1473.9829    490.34846    365.21539   -212.13123    38614.337 
  154700    305.78052   -1473.2542    484.75248    386.00047   -836.12632    38614.337 
  154800    310.61229   -1463.6419    484.64849    417.22802   -692.99812    38614.337 
  154900    305.82536    -1483.249    490.34868    381.80348   -333.56408    38614.337 
  155000    284.52575   -1447.8256     484.2346    315.36974    60.161819    38614.337 
  155100    296.83917   -1484.0373     508.5601    358.83319    77.330285    38614.337 
  155200    307.76634   -1481.0695    484.99425    387.35343    386.83937    38614.337 
  155300    302.94274    -1471.364    494.66465     385.0469    132.86099    38614.337 
  155400    291.37914   -1479.1015    495.02418    325.68982   -332.46903    38614.337 
  155500    312.80232   -1522.4233    483.17026    366.81269   -176.11895    38614.337 
  155600    310.69086   -1554.5514    482.88374    324.90695    149.94462    38614.337 
  155700    291.31673   -1544.9369    490.65066    255.20034   -46.763313    38614.337 
  155800    300.43088    -1532.499    475.63428    293.59061   -510.41012    38614.337 
  155900    302.59422   -1488.5304    471.93403    343.58329   -276.74718    38614.337 
  156000    297.29249   -1539.0848    476.04269    273.30593   -630.26778    38614.337 
  156100    303.96842   -1527.1961    467.09293    306.25358   -244.66695    38614.337 
  156200    311.90688   -1489.8256    498.73196    410.94695   -407.73192    38614.337 
  156300    289.99688   -1567.1829    472.56507    208.93598   -396.23811    38614.337 
  156400    304.64228   -1531.4136    465.79007    303.76231   -178.23626    38614.337 
  156500    287.13892   -1538.6534    489.53424    241.58792   -77.745401    38614.337 
  156600    297.46728   -1523.4976    483.29394     296.9301   -90.082725    38614.337 
  156700    310.17514   -1503.1203    465.64742    356.78352    163.97503    38614.337 
  156800    300.19897   -1501.6439    471.19824    318.96717   -422.74885    38614.337 
  156900    292.89716   -1469.3954    494.78131    341.97665   -654.22483    38614.337 
  157000    313.57845   -1507.8087    484.86749    386.61329   -472.93751    38614.337 
  157100     297.8454   -1502.1948    469.47267    306.11128    -477.1398    38614.337 
  157200    291.00747   -1463.4105    483.11566    327.80162    -393.6138    38614.337 
  157300    292.51038   -1496.3036    494.19989    312.74842   -402.90328    38614.337 
  157400    296.63645    -1464.216    488.85839    358.04152    265.24171    38614.337 
  157500    296.41283   -1476.5216    514.41667    370.28902   -75.454361    38614.337 
  157600     304.4665   -1493.4924    527.60749    402.71079   -319.02803    38614.337 
  157700    299.11618   -1477.3639    465.90761    333.08933   -761.49052    38614.337 
  157800    294.56275   -1459.2769    475.56389    340.36465   -477.05342    38614.337 
  157900    304.61211   -1475.8903    461.78625    355.14611   -393.82186    38614.337 
  158000    308.76376   -1423.7189    520.65442    484.84764   -264.84319    38614.337 
  158100    299.39698    -1464.873    510.30352    391.23832   -260.43838    38614.337 
  158200    303.86389   -1468.1715    484.22666    381.94207   -355.97669    38614.337 
  158300    292.00964    -1467.863    480.56741    325.30574   -214.77865    38614.337 
  158400    307.45766   -1455.9243    497.85449    423.97134   -384.72427    38614.337 
  158500    301.93324   -1463.1006    505.31574    399.42366    229.67895    38614.337 
  158600    308.66966   -1461.0254    514.05191    440.51568    215.23038    38614.337 
  158700    303.31662   -1459.7212    485.52073    389.22646    75.245214    38614.337 
  158800    300.62992   -1436.0196    512.97872    428.30908    203.70249    38614.337 
  158900    310.89914   -1441.8612    479.82666    435.47628    392.81241    38614.337 
  159000    316.79624   -1480.9639    503.91771    446.97241    122.59047    38614.337 
  159100    309.08462   -1492.0443    482.06876    379.37886    9.5596576    38614.337 
  159200    298.60705   -1475.0529    514.15411    381.35831    889.43116    38614.337 
  159300    302.25289   -1457.4615    488.82649    390.01032    817.50066    38614.337 
  159400     294.9314   -1455.3334    499.28452    369.68599     331.0815    38614.337 
  159500    305.77361   -1467.9971    486.06142    392.53553   -118.80013    38614.337 
  159600    294.74842   -1453.0335    481.30027    353.17903    69.928206    38614.337 
  159700    306.11673   -1503.9643    483.48935    355.53863    283.23391    38614.337 
  159800    284.61573   -1473.4668    520.71572    326.61415    281.04701    38614.337 
  159900    297.98189   -1478.3409    497.14154     358.2476    372.20756    38614.337 
  160000    303.94344   -1481.5381    477.33448    362.04082    370.86509    38614.337 
  160100    305.00039    -1481.421    479.92656    369.50103   -262.34708    38614.337 
  160200    308.27751   -1460.2422    496.12705    421.61123   -155.13856    38614.337 
  160300    305.46017   -1511.3627    464.43998    326.13956   -280.02946    38614.337 
  160400    305.10187    -1473.851    471.55719    369.15794    77.031641    38614.337 
  160500    300.34199   -1474.9956    477.01772    352.07791   -216.54986    38614.337 
  160600    295.04566   -1450.7045    527.80982    403.35373   -74.304183    38614.337 
  160700    290.82998   -1481.4655    502.45886    328.29204   -679.56921    38614.337 
  160800    295.03433   -1441.9822    466.77962    350.99487   -308.50679    38614.337 
  160900    305.41961   -1454.8789    519.52102    437.52204   -634.42129    38614.337 
  161000    295.35158   -1455.0361    477.16891    349.75634     54.81908    38614.337 
  161100    292.08817    -1480.474    503.19796    335.67821   -323.63448    38614.337 
  161200    306.32997   -1468.3774    480.52272    389.11738   -603.34217    38614.337 
  161300    303.05442   -1481.3445    475.88258    356.78639   -496.49425    38614.337 
  161400    303.71466   -1441.9809    493.37908    416.61422   -834.13682    38614.337 
  161500    297.78418   -1431.2242    513.19689    420.53089    3.6227177    38614.337 
  161600    307.73289     -1449.27    486.05415    420.06246    70.161255    38614.337 
  161700    287.47094   -1429.4314    522.39652    385.16466    150.01028    38614.337 
  161800     308.8594   -1438.8841    489.73955    439.19748    461.58899    38614.337 
  161900    296.41725   -1452.7931    491.39592    371.01656    319.27952    38614.337 
  162000     306.4821   -1489.8104     477.9225    365.76798    608.66813    38614.337 
  162100    294.21725   -1468.3041    499.65272     353.8733    512.93726    38614.337 
  162200    304.84847   -1457.3372     498.8491    411.82455    596.25604    38614.337 
  162300    312.40749   -1448.3108    487.23081    443.21092    404.79893    38614.337 
  162400    306.26444   -1453.7008    521.72583    444.70255     371.6984    38614.337 
  162500    293.03424    -1441.983    506.37052    381.59449    480.13126    38614.337 
  162600    304.25731   -1462.8593    465.99477     370.7908    71.931939    38614.337 
  162700    294.96924   -1449.4534    493.16756    369.61908     484.2555    38614.337 
  162800    285.46418   -1399.4699    498.22328     381.9324    258.15141    38614.337 
  162900    306.86106    -1402.361    524.95268    501.95099    196.44681    38614.337 
  163000    303.23236   -1430.8342    475.65334    407.86725   -375.66159    38614.337 
  163100    304.33838   -1440.1967    504.36213    432.18522    19.501791    38614.337 
  163200    288.53882   -1417.4586    490.08036    369.62149   -76.821298    38614.337 
  163300    302.23832   -1468.3536    496.76099    386.98725    310.76469    38614.337 
  163400    300.73678   -1451.0365    499.47457    400.26836     359.0523    38614.337 
  163500    292.80463   -1430.2354    511.26669    397.20614    226.54736    38614.337 
  163600    302.99299    -1462.557    496.09966    395.51484    657.88174    38614.337 
  163700    298.02771   -1471.3086    490.69892     359.0432     526.0466    38614.337 
  163800     294.5905   -1412.5128    497.68382    409.37346    811.53761    38614.337 
  163900    293.51329   -1490.8492    472.40118    300.91225    916.28508    38614.337 
  164000    299.13613   -1529.0339    484.39239    299.99384    880.13851    38614.337 
  164100    291.96474   -1513.9312    498.07238    296.54072    906.30529    38614.337 
  164200    289.51989   -1505.2944    483.44131    279.55661    548.09379    38614.337 
  164300    305.29705   -1520.1431    476.82813    329.01407   -3.2761967    38614.337 
  164400    306.53901   -1520.7864    455.49417    312.61949   -505.60504    38614.337 
  164500     313.0028   -1512.1087    484.94379    379.80194   -206.09763    38614.337 
  164600    297.72293   -1497.8214    492.93791     333.3994   0.45897241    38614.337 
  164700    302.51138   -1484.0787    479.92249    355.65112   -179.10207    38614.337 
  164800    299.29126   -1434.6938    484.54415    395.18304    142.55883    38614.337 
  164900    310.96184    -1442.207    500.65477    456.24035    456.47829    38614.337 
  165000     292.6684     -1474.54    515.82669    356.84916    267.87725    38614.337 
  165100    297.63227   -1474.6676    480.04418    343.25201    75.500308    38614.337 
  165200    295.07229    -1489.578      495.448    332.23811   -62.073959    38614.337 
  165300    292.00288    -1484.607     498.6919    326.65579     457.0015    38614.337 
  165400    304.91898   -1416.8185    495.44009    449.25112     1320.692    38614.337 
  165500     301.7753    -1451.863    508.80851    413.44408    682.65495    38614.337 
  165600    303.58039   -1439.9161     478.5619    403.25837    728.14473    38614.337 
  165700    295.92806   -1444.6032     493.1576    378.76924    449.37698    38614.337 
  165800    298.79611   -1423.7122    490.92289    410.31763    938.94564    38614.337 
  165900    297.56801   -1422.3102    515.65271    430.92906     229.1602    38614.337 
  166000    293.80801   -1430.0034    519.15558    409.83731    327.87479    38614.337 
  166100    298.68968   -1397.4831    525.85763    471.00298     428.2801    38614.337 
  166200    313.99583   -1423.1004    512.82773    501.15795    663.26337    38614.337 
  166300    296.30394    -1467.635    503.63435    367.90377    457.63861    38614.337 
  166400    290.08233   -1458.5987    510.28386    355.62312    227.60108    38614.337 
  166500     293.4298   -1459.6526    499.55222    358.88467   -599.29413    38614.337 
  166600    306.17278   -1484.7102    504.38056    395.93586   -337.29623    38614.337 
  166700    298.61878   -1481.9923    497.69051    358.00801    316.23419    38614.337 
  166800    307.22395   -1417.0827    515.83342    479.74125   -206.86874    38614.337 
  166900    302.43868   -1496.0832     487.2635    350.66082    428.33767    38614.337 
  167000    298.66244   -1453.7779    522.43726    411.16538    615.69862    38614.337 
  167100    302.14231   -1473.7412    495.61381    380.02095    600.27008    38614.337 
  167200    294.74295   -1435.3177    510.60138     400.1714     174.3623    38614.337 
  167300    299.06955   -1464.6026    497.38141    377.11485    239.76023    38614.337 
  167400      295.596   -1455.5068    485.48755      358.703    89.517592    38614.337 
  167500    292.37202    -1503.275    519.93071    330.88595    494.28383    38614.337 
  167600    303.88941   -1498.6113    493.80806    361.19834    355.98776    38614.337 
  167700    303.07601   -1472.7253    522.40823    412.02822    532.88087    38614.337 
  167800    296.71181   -1481.8759    495.82439    347.68633    181.69655    38614.337 
  167900    299.11231   -1485.7417    470.35607    329.14262    295.58224    38614.337 
  168000    299.07318   -1513.2592    495.47849    326.57161   -22.227798    38614.337 
  168100    298.57241   -1487.3227    489.75532    344.53398    210.97588    38614.337 
  168200    297.13918   -1472.4406    488.93822    352.15653   -151.02016    38614.337 
  168300    309.89923   -1445.3363    459.64994    407.32978   -152.56728    38614.337 
  168400    297.97687   -1441.6534     498.8446    396.61554   -362.41406    38614.337 
  168500    300.85962   -1428.8615    485.05772    408.57867   -584.93146    38614.337 
  168600    299.89855    -1436.988    485.33503    396.40948   -134.40232    38614.337 
  168700    297.18485   -1421.5541    487.98778    402.29791   -543.53203    38614.337 
  168800    295.10616   -1465.1879    501.41685     362.7493   -187.85122    38614.337 
  168900    292.19765   -1470.1486    509.15877    352.45658    2.5907937    38614.337 
  169000    308.51017   -1495.4653    474.73356    366.04044    266.79297    38614.337 
  169100    294.79631   -1465.0021    509.00626    369.13176    39.594503    38614.337 
  169200    296.27324   -1431.2233    492.84604    393.38922    160.97884    38614.337 
  169300     303.1284    -1484.214    505.60111    383.96797    3.9156571    38614.337 
  169400    311.99964   -1451.5712    499.96724    450.85359   -318.81531    38614.337 
  169500    318.11428   -1453.0478    510.33915     487.2346    213.31493    38614.337 
  169600    301.37438   -1472.8147    488.86839    370.75009   -69.576331    38614.337 
  169700    293.80921   -1442.5074    508.09269    386.27582   -267.46508    38614.337 
  169800    293.97986   -1462.9249    514.99712    373.52979    309.22276    38614.337 
  169900    298.47918   -1448.4664    476.07662    369.29249     407.7345    38614.337 
  170000    301.51291   -1475.8801    504.52522    383.96416    356.40173    38614.337 
  170100    290.73751   -1486.4035    494.09239    314.57186    549.96734    38614.337 
  170200    308.63367   -1489.7173    512.83187    410.44188    531.62792    38614.337 
  170300    295.87195   -1483.8562    499.16254    345.26895    785.55304    38614.337 
  170400    303.45905   -1532.5696    479.01529    310.51281    191.51212    38614.337 
  170500    293.63482   -1533.9673    493.09069    279.02996    796.73199    38614.337 
  170600    301.34761   -1505.2614    508.03623    357.35088   -164.33757    38614.337 
  170700    290.54972   -1546.2368    473.74927    233.55132    118.19048    38614.337 
  170800    292.77315   -1519.7641    516.08701    312.35623   -296.73331    38614.337 
  170900    291.52628   -1503.6712    495.31406    302.07141   -269.66411    38614.337 
  171000    305.49626   -1496.1416     509.4534    386.53633   -348.80157    38614.337 
  171100    310.26938   -1503.6244    477.71273    368.76825   -886.21849    38614.337 
  171200    303.17499   -1501.7115    470.19158    331.27037      -815.42    38614.337 
  171300    290.18122   -1508.0875     474.5804    270.87536   -800.58283    38614.337 
  171400      299.612   -1535.8467    494.74615     305.6739   -168.84542    38614.337 
  171500    302.88767   -1544.4244    478.91339    295.98773    43.018449    38614.337 
  171600     298.2332   -1480.8426    505.97491    365.70893    205.43424    38614.337 
  171700    291.88339    -1528.853    538.14136    321.32217    419.01336    38614.337 
  171800    290.66491   -1527.7781    514.55728    293.33588   -15.417769    38614.337 
  171900    294.28988   -1516.0949    510.50656    317.26281   -504.09616    38614.337 
  172000    296.71154   -1548.2506    486.77843    272.26451   -142.96263    38614.337 
  172100    312.52649   -1535.3476    479.52813    349.00641   -225.24486    38614.337 
  172200    306.25548   -1537.7211    482.22677     321.1429   -434.33603    38614.337 
  172300    293.21698   -1523.1243    487.83488    282.73899   -960.36178    38614.337 
  172400    306.33278   -1530.7326     494.5349    340.78706   -489.20539    38614.337 
  172500    287.68659   -1524.1395    475.57271    244.60215    -269.9489    38614.337 
  172600    292.83223   -1570.1557     489.0846    235.22783    246.78585    38614.337 
  172700    301.18877   -1542.7374     517.6297    328.75437   -70.974803    38614.337 
  172800    300.12284   -1534.8375    495.25224     309.4854    172.57609    38614.337 
  172900    294.07076   -1473.3778    485.96311    334.45151    517.30813    38614.337 
  173000    298.32147   -1492.8774    492.33622    340.43223    153.05559    38614.337 
  173100    306.35433    -1549.791    508.95406    336.24468    125.75818    38614.337 
  173200    300.59601   -1464.0257    471.19164    358.36356   -449.02614    38614.337 
  173300    293.77053   -1425.4247    493.13081    388.22274   -568.87475    38614.337 
  173400    299.71813   -1445.2777    495.40756    397.38127   -511.64382    38614.337 
  173500    304.22279   -1457.9409    488.32209    397.88133   -168.04903    38614.337 
  173600    299.91512    -1476.273    509.57408    381.43801   -594.17596    38614.337 
  173700    300.85242   -1450.3442    489.11632    391.12229   -41.605068    38614.337 
  173800    304.02413   -1445.8485    496.43831    417.19702   -335.87734    38614.337 
  173900    300.78729   -1431.9952    512.50406    432.56627   -451.77073    38614.337 
  174000    309.71067    -1444.034    507.34852    455.48308    574.48631    38614.337 
  174100    302.63831   -1476.1599    504.12343    388.34136    142.61621    38614.337 
  174200    299.48683   -1466.1498    492.90694    372.96888    117.28675    38614.337 
  174300    285.10964    -1460.368    492.13642    313.35376   -87.698822    38614.337 
  174400     294.7826   -1477.7559    490.36912    337.67916   -44.060586    38614.337 
  174500    295.03391   -1484.1587    508.93763    350.97457    20.994096    38614.337 
  174600    298.81787   -1480.3474    500.44463    363.30193   -143.27086    38614.337 
  174700    296.68651   -1443.5041    494.61542     384.7354   -204.01679    38614.337 
  174800    309.20841   -1450.6423    506.13493    445.40345    108.29587    38614.337 
  174900    302.32188   -1453.8352    478.24068    383.36097    162.96366    38614.337 
  175000    321.61907   -1445.1506    511.00342    511.55036    217.25262    38614.337 
  175100    288.05718   -1464.9477    511.25788    341.14497    126.85673    38614.337 
  175200    287.44313    -1492.005     515.4172    315.48675    41.853588    38614.337 
  175300    304.32909   -1458.3262    524.30689    433.95866    501.51332    38614.337 
  175400    301.99798   -1498.0388    512.78733    372.24804    41.123943    38614.337 
  175500    293.06513   -1473.9644     512.1756    355.55703   -908.70321    38614.337 
  175600    309.43695   -1401.1061    517.70028    507.53234     -590.211    38614.337 
  175700    296.74171   -1439.3439    513.67201     408.2004   -158.38638    38614.337 
  175800    298.58095   -1447.6626    548.11402    442.59121   -257.73721    38614.337 
  175900     295.3904   -1457.2619    476.70967    347.24574      -25.775    38614.337 
  176000     301.5435   -1477.1068    503.50996    381.85975   -34.016665    38614.337 
  176100    297.98458   -1488.5551     503.6566    354.56051     680.6384    38614.337 
  176200    306.78612   -1489.8181    528.85696     418.0613    379.66439    38614.337 
  176300    292.64598   -1469.4053    480.60018     326.6566   -297.60005    38614.337 
  176400    308.76204   -1460.2946    504.74573    432.35551    321.43085    38614.337 
  176500    292.19636   -1476.1598    498.52821    335.80903   -283.41917    38614.337 
  176600    306.51018   -1455.8702    528.80429     450.7162    124.72264    38614.337 
  176700    299.56132   -1460.0975    495.50259    381.95164   -46.899932    38614.337 
  176800    296.37776   -1494.5709     473.8873    311.55265   -408.37345    38614.337 
  176900     291.3093   -1470.8085    512.89797    351.54267   -479.65632    38614.337 
  177000    295.28258   -1519.1244    506.73491    314.92386   -430.11678    38614.337 
  177100    299.04395   -1471.8769    483.38536    355.72946   -774.03816    38614.337 
  177200    297.33757   -1441.3344      510.419    405.63533   -260.71579    38614.337 
  177300    314.31737   -1484.0067    524.15921    453.02845   -541.76946    38614.337 
  177400    307.11803    -1430.305     481.9154    432.12483   -399.56224    38614.337 
  177500    308.91964    -1413.438    501.33028     476.5051   -36.229798    38614.337 
  177600    296.04467   -1468.2727    517.71562    380.18195    -446.6005    38614.337 
  177700    309.53443   -1484.7671    497.75368    404.36291    154.34311    38614.337 
  177800    295.85133   -1451.5936    492.15938    370.43575   -688.31171    38614.337 
  177900    310.83728   -1440.3687    514.21304    471.07699   -164.47012    38614.337 
  178000     301.7257   -1485.1058    502.11451    373.28427   -550.98868    38614.337 
  178100    296.62583   -1453.3966    498.10713    378.06187   -209.22533    38614.337 
  178200    310.02262   -1455.8639    486.02071    423.72754   -598.51005    38614.337 
  178300    293.10145   -1449.9498    518.68826    386.24758   -239.91113    38614.337 
  178400    301.87349   -1505.5352    489.95971    341.36442    75.596127    38614.337 
  178500    303.69479   -1495.9238    510.52082    379.72376     287.8104    38614.337 
  178600    304.74112   -1476.9133    493.39975    386.31655   -90.260965    38614.337 
  178700    305.96651   -1500.9537     507.9537    382.33827   -212.13165    38614.337 
  178800    300.31512   -1502.4681    468.58027    316.04709   -795.87496    38614.337 
  178900    294.15346   -1475.2819    512.29572    359.25168    -752.7915    38614.337 
  179000    291.10379   -1450.5263    497.25905    355.26221   -379.52782    38614.337 
  179100     300.3885   -1511.8396     525.2099    363.63504   -857.62489    38614.337 
  179200    290.55258   -1514.0269    496.99623    289.02107   -458.36207    38614.337 
  179300    292.73746   -1503.8661    521.02844    333.03524   -325.18435    38614.337 
  179400    299.02396   -1469.0722    505.13783     380.1968     99.85868    38614.337 
  179500    308.20251   -1494.2508    512.42498    403.56345   -236.23196    38614.337 
  179600    293.28219    -1481.006    500.45716    337.77262    -392.5628    38614.337 
  179700    290.85907   -1492.5654    508.21132    323.07537   -282.71831    38614.337 
  179800    304.19199   -1503.7419    525.95456     389.5744   -466.92359    38614.337 
  179900    307.15537   -1510.0574    477.41797     348.0429   -264.00226    38614.337 
  180000    288.73513    -1504.794    493.23197    286.32021   -704.56019    38614.337 
  180100    287.76304    -1527.733    490.44638    256.22597   -252.19329    38614.337 
  180200     297.3637   -1498.0712    533.01958    371.61653   -488.58784    38614.337 
  180300    304.49789   -1497.5411    504.79448     375.9901    -160.5509    38614.337 
  180400    294.22496   -1507.1111    509.60987    325.05809    34.841105    38614.337 
  180500    303.49271   -1478.0292    503.23393    389.42315    62.786509    38614.337 
  180600     293.6491   -1486.8753    501.65141    334.74689   -221.56007    38614.337 
  180700     306.4624   -1520.1297    499.10315    356.54077    67.464073    38614.337 
  180800    296.95549   -1523.1212    498.76424    310.47624   -49.245811    38614.337 
  180900    288.27269    -1506.235    546.49327    336.06175   -692.58045    38614.337 
  181000    295.42594   -1529.8793    490.84372    288.92223   -319.01031    38614.337 
  181100    292.49359   -1492.8277    513.81177    335.76082   -723.57283    38614.337 
  181200    298.33429   -1491.1956    516.38702    366.22245    159.28112    38614.337 
  181300    302.36147   -1497.7864    513.02539    374.37239    478.19698    38614.337 
  181400    294.43308   -1512.0581    509.78194    321.21864    943.77012    38614.337 
  181500     295.7981   -1484.1083    479.26029    324.78263    1209.7949    38614.337 
  181600    289.78358    -1493.002    534.55001    344.14306    689.01297    38614.337 
  181700    292.46465   -1493.3202    473.15506    294.48144     505.4234    38614.337 
  181800     300.9179   -1514.2729    465.55062    303.92218   -358.50819    38614.337 
  181900    297.56778   -1540.8448    495.97031    292.71099   -553.34443    38614.337 
  182000    294.79397   -1510.5742     477.7635    292.30627   -3.0859412    38614.337 
  182100    297.11639   -1557.2017    514.05455    292.40937   -84.336117    38614.337 
  182200    303.34454   -1531.3431    498.20646    330.41578    753.95178    38614.337 
  182300    299.38325   -1534.6189    487.45987    298.58708     1018.126    38614.337 
  182400    302.48411   -1485.3187    538.85766    413.22366    942.88942    38614.337 
  182500    300.44648   -1479.6884    525.39803    396.23507    613.01557    38614.337 
  182600    312.53854    -1475.193    492.68093    422.36795    701.35624    38614.337 
  182700    297.22368   -1468.2458    499.50115    367.29406    302.55399    38614.337 
  182800    293.27969   -1530.5034    487.49745    275.30433    73.905736    38614.337 
  182900    303.85007   -1546.7251    497.08592    316.18558   -217.86302    38614.337 
  183000    303.32165   -1521.6118    500.96307    342.80071   -137.42285    38614.337 
  183100    302.39488   -1514.4133    494.28628    339.15658   -808.89278    38614.337 
  183200    293.09555   -1518.7337    490.28048    289.02933   -720.88343    38614.337 
  183300    299.33128   -1489.6755    489.41647    345.25344   -660.81338    38614.337 
  183400    290.83371   -1567.2011    506.59348    246.70783    -74.32387    38614.337 
  183500    297.15655   -1548.0509    491.74428     279.4304   -285.22509    38614.337 
  183600    300.50514   -1528.9298    511.58643    333.44571   -260.35153    38614.337 
  183700    304.74037   -1503.6407    503.92238    370.10841    325.72591    38614.337 
  183800    305.87155   -1530.8559    491.21903    335.27461    194.88016    38614.337 
  183900    300.39496   -1508.7214    510.77488    352.34732    92.321133    38614.337 
  184000    306.39483   -1494.2368    485.68109    368.70791   -112.52215    38614.337 
  184100    289.63541   -1489.6682    499.70823    311.96903    59.060026    38614.337 
  184200    291.43744   -1482.0518    518.43841    346.41589    396.90137    38614.337 
  184300    304.00871   -1490.5998    512.36788    388.30598    499.27088    38614.337 
  184400    288.07412   -1508.2257     529.9212    316.60644    259.39442    38614.337 
  184500    293.46218   -1459.7947    520.70202     380.0379   -139.41037    38614.337 
  184600     305.7491   -1454.2905    495.31925    415.38978   -809.82232    38614.337 
  184700      301.235   -1468.5271    504.34708    389.88982   -484.23769    38614.337 
  184800    297.28021   -1533.2914    510.21634    313.21776   -937.50088    38614.337 
  184900    287.76576   -1488.7802    495.94422    300.68886   -693.72408    38614.337 
  185000    304.23889   -1486.3057    504.52464    385.79151   -48.411446    38614.337 
  185100    304.19153   -1495.5652    523.64874     395.4432    480.40823    38614.337 
  185200    301.57636   -1463.4163    513.66614    405.85414    68.290898    38614.337 
  185300    304.95544   -1477.0253    501.07745    394.84563    76.986161    38614.337 
  185400    295.47568   -1488.0699    491.99898    332.11049   -3.5703613    38614.337 
  185500    302.43165    -1492.566    500.52576    367.40867    13.178021    38614.337 
  185600    295.88117   -1538.5226    476.07813    267.55966    323.44262    38614.337 
  185700    294.95951   -1502.0235    513.27026    337.10787    352.04539    38614.337 
  185800    304.21424   -1516.7309    517.43392    368.16474   -24.349662    38614.337 
  185900    294.25161   -1565.0159    482.85508     240.5183   -86.363804    38614.337 
  186000    309.26658   -1554.4112    487.99859    323.75971   -655.28681    38614.337 
  186100       304.62   -1492.7605    481.84711    358.37223   -772.90415    38614.337 
  186200    299.57003    -1534.649    503.71624    315.65297   -647.24608    38614.337 
  186300    294.53568   -1495.0373     495.2614    324.18017   -796.57897    38614.337 
  186400    301.56921    -1501.714    484.80272    338.66094   -766.03524    38614.337 
  186500    310.67685   -1491.1929     481.8196    387.13826   -568.12466    38614.337 
  186600    296.14568   -1538.8624    507.23253    299.56321   -237.42136    38614.337 
  186700    307.12353   -1496.6946    513.68048    397.52507    188.32598    38614.337 
  186800    315.10294   -1521.8401    493.05479    387.62187   -251.98539    38614.337 
  186900    295.38751   -1510.9623    487.94116    304.76395   -44.947791    38614.337 
  187000    304.05885   -1469.2812    515.70717    413.18922   -235.56988    38614.337 
  187100    308.38057     -1480.55    483.75249    389.39216    357.42275    38614.337 
  187200    296.93234   -1502.5425    483.30076    315.48738   -323.46487    38614.337 
  187300    308.46688   -1480.5583    513.22288    419.24219   -331.11012    38614.337 
  187400    305.91712   -1492.5676    505.01742    387.56606    381.22682    38614.337 
  187500    301.31304   -1489.6531    509.54323    374.31083    88.038887    38614.337 
  187600    290.80282   -1545.4608    491.95863    253.67436    545.28371    38614.337 
  187700    301.54187   -1555.8262    508.06104    307.68411    122.85409    38614.337 
  187800    304.41876    -1562.413     501.9911     307.9591   -437.89741    38614.337 
  187900    292.62091   -1544.9391    493.30326     263.7132   -300.56791    38614.337 
  188000    302.84143   -1543.6523    486.34325    303.98179   -506.01283    38614.337 
  188100    289.50746   -1532.8308    488.60536    257.12837    -760.8195    38614.337 
  188200    292.30832   -1520.0092    488.78539    282.72012   -578.38708    38614.337 
  188300    296.42687   -1521.6649    505.03585    315.82802   -387.94175    38614.337 
  188400    305.17367   -1481.1429    488.03465    378.66615    -151.3409    38614.337 
  188500     299.4916    -1524.781     491.7314     313.1836   -372.14187    38614.337 
  188600    310.60999   -1525.5065    498.05698    368.76153    218.35208    38614.337 
  188700    314.27892   -1507.4787    522.96216    428.18656    67.009475    38614.337 
  188800    305.13367   -1513.0358    495.58114       354.14    124.46124    38614.337 
  188900    295.35042   -1543.8326    521.88155    305.66723   -266.41725    38614.337 
  189000    305.63744   -1503.3787    491.19815    361.67858   -540.85629    38614.337 
  189100    296.28924   -1515.3188    518.46819    334.98772   -121.14738    38614.337 
  189200    306.34407   -1521.8567    486.06044    341.23915   -91.061963    38614.337 
  189300    301.25433   -1543.0095    496.44694    307.59424   -348.63956    38614.337 
  189400    297.88343   -1520.7106    514.22997    332.52372    85.831802    38614.337 
  189500    302.58033   -1531.9182    500.73854    328.93751    -141.1792    38614.337 
  189600    301.33221   -1513.8988    513.64094    354.24898   -180.47016    38614.337 
  189700    303.88774   -1529.8689    503.79916     339.9244    125.50092    38614.337 
  189800    301.50926   -1533.9029    489.41034    310.81011    402.76856    38614.337 
  189900    303.61443   -1506.6316    492.56007    350.69403    755.33977    38614.337 
  190000    294.12364    -1523.611    515.71717    314.21004    296.33415    38614.337 
  190100    296.70503   -1514.9129    503.85722    322.65172    -158.5064    38614.337 
  190200    299.10759   -1542.7839    492.40718    294.13028     -544.702    38614.337 
  190300    306.62369   -1564.2622    493.36853    307.39871   -177.87329    38614.337 
  190400    291.17456   -1571.8146    501.03042    238.06334   -39.566946    38614.337 
  190500    288.19128    -1542.272    467.24864     220.4142   -139.20539    38614.337 
  190600    306.05101   -1554.6239    499.53211    320.62633    363.66565    38614.337 
  190700     300.2624   -1516.4642      512.932    346.16577    164.05606    38614.337 
  190800    295.40012   -1513.3059    518.65639    333.19219    511.55355    38614.337 
  190900    291.54219   -1534.6237    494.83288    270.70923   -115.65246    38614.337 
  191000    309.01883   -1537.0107    493.72012    345.76813   -79.095634    38614.337 
  191100    289.29286   -1482.1622    505.06973    323.29676    270.41535    38614.337 
  191200    297.68038   -1519.9829    499.59183    317.70057    113.00462    38614.337 
  191300    284.94871   -1557.9736    525.86877    248.75712   -44.781937    38614.337 
  191400     302.0908   -1547.6087    493.56237    303.87042    146.10935    38614.337 
  191500    303.24607   -1536.6836    517.22035    343.64647    84.918985    38614.337 
  191600    288.81167   -1577.3749    488.87209    209.72338     395.7388    38614.337 
  191700     284.5287   -1546.6605    501.66422    233.97773     742.5929    38614.337 
  191800    301.29103   -1557.4309    512.36802    309.25881    321.78148    38614.337 
  191900     297.9229   -1551.5262    509.22715    296.88267    -49.93452    38614.337 
  192000    294.06065   -1535.6336    517.35636    303.54351   -389.38495    38614.337 
  192100    297.45256   -1542.2778    489.06149    283.85125   -9.6393327    38614.337 
  192200    310.23466   -1548.6275    491.84678    337.74319    667.73139    38614.337 
  192300    301.88158   -1556.5935    497.76971    298.15251    852.86022    38614.337 
  192400    302.91002   -1553.5473    517.11923    325.17109     442.7709    38614.337 
  192500    305.28734   -1560.1601     495.6523    307.77759    519.27371    38614.337 
  192600    300.55337   -1542.7618    493.82209    302.06614    26.282175    38614.337 
  192700    303.66435   -1541.4035    508.18321    331.76968   -100.98413    38614.337 
  192800    293.55052   -1545.8393    488.61573    262.30411   -55.802963    38614.337 
  192900    302.55091    -1495.456    525.50079    390.02976    146.21119    38614.337 
  193000    298.81433   -1532.9456    527.41713    337.66035    171.79668    38614.337 
  193100    292.99552   -1551.6549    490.21973     255.5977   -253.34404    38614.337 
  193200     287.7377   -1515.2888      515.665    293.77492   -405.53733    38614.337 
  193300    301.11519   -1520.2151    503.46849    336.78471    104.63467    38614.337 
  193400    307.03007   -1521.7015     527.4033    385.82085    237.50564    38614.337 
  193500    295.94254   -1531.0721    511.12943    310.33726    209.40218    38614.337 
  193600    314.03544   -1546.9416    523.08711    387.75415    234.56616    38614.337 
  193700    314.09835    -1547.325    502.38843    366.95479    693.78556    38614.337 
  193800     294.5213   -1556.0268    492.38433    260.24884    152.57488    38614.337 
  193900     288.2194     -1482.54    522.44508    335.46907    418.21666    38614.337 
  194000    294.86603   -1500.4845    506.68265    331.63908   -177.68243    38614.337 
  194100    288.90797   -1479.7734    539.96494    358.85067   -36.434221    38614.337 
  194200     304.9211   -1534.4937    517.70019    353.84563   -116.09094    38614.337 
  194300    303.42195   -1526.0606    518.17011    356.00986    262.62062    38614.337 
  194400    311.16169   -1554.4567    493.12888    337.36308    303.07171    38614.337 
  194500    297.21352   -1526.3498    507.51474      317.158    793.91494    38614.337 
  194600    310.35881   -1516.6337    515.17857     393.6268    799.47019    38614.337 
  194700    315.07237   -1518.7934    509.11191    406.58824    728.95266    38614.337 
  194800    294.42029   -1514.9468    493.54272    302.03331    378.26693    38614.337 
  194900    297.05744   -1523.3579    512.32081     324.2544     829.3084    38614.337 
  195000    308.12783   -1503.7525    493.08463    374.38571    526.58922    38614.337 
  195100     311.1207   -1534.1093    527.30932    391.70666     538.2149    38614.337 
  195200    294.02435   -1538.0174    482.43098     266.0711    42.767773    38614.337 
  195300    294.85146   -1496.6368    541.99817    370.73681     62.35497    38614.337 
  195400    289.81324   -1520.6914    519.56164    301.59857   -143.58492    38614.337 
  195500    304.74884   -1541.2912    498.12338      326.697    46.819852    38614.337 
  195600     305.7915   -1522.1722    481.38363    333.76309   -99.612358    38614.337 
  195700    299.74797   -1520.2378    512.76069    339.90848   -500.52779    38614.337 
  195800    287.45487    -1537.778    504.00288    258.35225   -649.27988    38614.337 
  195900    302.34485   -1499.9005    502.97565    362.13385     117.6319    38614.337 
  196000    297.62978   -1536.2487    492.13487    293.75036   -608.43686    38614.337 
  196100    301.73521   -1496.9715    523.69643    383.04326   -355.42587    38614.337 
  196200     305.4836   -1508.9653    487.32216    351.52439   -564.42332    38614.337 
  196300    299.40829   -1487.7985     506.0765    364.13671   -345.52002    38614.337 
  196400    306.11126   -1494.1312    513.27039    395.12816    218.96375    38614.337 
  196500     301.1922    -1516.556    474.20569    311.52715    -87.43527    38614.337 
  196600    291.79681   -1534.8016    517.32333    294.16638    258.65197    38614.337 
  196700    294.12702   -1483.5019    495.68336    334.30049   -283.61116    38614.337 
  196800    305.05344    -1458.226    508.06252    421.07055    535.33053    38614.337 
  196900    299.18814   -1512.5161    510.59285    342.94585    120.11109    38614.337 
  197000    292.44142   -1486.2789    484.91513    313.17847    -476.9331    38614.337 
  197100    305.23422   -1502.7776    499.06398    368.33297    10.608756    38614.337 
  197200    295.09237   -1505.9376    516.90446     337.4252   -225.44986    38614.337 
  197300    293.19745   -1526.5082    504.85159    296.28395   -221.17459    38614.337 
  197400    291.07622   -1500.3025    475.28483    283.38781   -194.38182    38614.337 
  197500    295.91729   -1542.1277    516.43783     304.4766   -446.83547    38614.337 
  197600    306.97331   -1518.8483    514.87344     375.8891    384.98514    38614.337 
  197700    309.32847   -1523.4773    504.44304     371.4163    277.24054    38614.337 
  197800    296.21529    -1499.456    483.41763    315.46762    260.85614    38614.337 
  197900    303.33222     -1480.68    513.30736    396.12433    139.87058    38614.337 
  198000    294.45071    -1505.562    502.31554    320.32761    41.288196    38614.337 
  198100    306.34649   -1553.8262    514.20235    337.42244   -73.453177    38614.337 
  198200    300.87617   -1515.1493    482.15231    319.45997   -1012.0245    38614.337 
  198300    298.58524   -1496.1682    478.53802    324.52882   -259.24718    38614.337 
  198400    296.13147   -1529.7376    498.50808    299.89967   -168.55419    38614.337 
  198500    316.32479    -1539.275    498.03295     380.6573    354.82714    38614.337 
  198600    306.98772   -1545.3978    474.95543    309.48634    350.78678    38614.337 
  198700    308.45964    -1581.513    499.96484     304.9969    327.69119    38614.337 
  198800    292.08473   -1561.2059    504.59533    256.32825    410.46125    38614.337 
  198900    302.76323   -1520.1769    514.92104    355.68346    257.89057    38614.337 
  199000     287.8849   -1552.5273    491.48198    233.01505   -559.57983    38614.337 
  199100    296.66846   -1525.5226    475.39108    283.41143      -625.24    38614.337 
  199200    286.81986    -1579.797    476.49472    185.97062   -518.45428    38614.337 
  199300    297.95753     -1564.27    489.35985     264.4273   -508.94945    38614.337 
  199400    306.25771   -1537.0886    487.93607    327.49469   -73.342942    38614.337 
  199500     290.5126   -1533.6519    491.63722    263.85732   -3.9927367    38614.337 
  199600    299.78675   -1554.1767    491.07706    284.46023    439.11957    38614.337 
  199700    296.33049   -1551.8308    516.73193    296.92489    388.05836    38614.337 
  199800    304.52362   -1544.0249    474.18817    299.01573    373.96768    38614.337 
  199900    303.53421   -1536.6505    482.49903    310.25344    155.67429    38614.337 
  200000    291.33701   -1504.0072    507.47904    313.04958   -180.41006    38614.337 
  200100    299.64902   -1506.1224    498.57452    339.39291   -27.257721    38614.337 
  200200    307.00735   -1522.2184    485.57971    343.37822   -414.37628    38614.337 
  200300     309.9865   -1492.9458     497.9931    398.45573    426.14026    38614.337 
  200400    289.52163   -1524.8013    506.91952    283.53577   -42.109858    38614.337 
  200500    295.68211   -1488.2166    508.14331    349.03597   -2.5209317    38614.337 
  200600    294.41052   -1500.5233    504.53226    327.40238    58.824301    38614.337 
  200700    303.66258   -1484.3526    484.23129    364.86069    341.91293    38614.337 
  200800    294.66273   -1489.7323    511.92436    346.71919   -220.18528    38614.337 
  200900    290.47044   -1549.6274    507.79792    263.85302    630.47023    38614.337 
  201000    281.08788   -1556.0129    489.60072    197.09512    210.88165    38614.337 
  201100    302.84913   -1523.5991    493.57437    331.30073    3.1615525    38614.337 
  201200    310.39999   -1511.7421    502.48733    386.01229    254.39156    38614.337 
  201300    297.91386   -1495.3343    491.35314    335.15995    757.02094    38614.337 
  201400     300.2398   -1550.2655    494.24746    293.57838    618.63733    38614.337 
  201500    340.41464   -1503.0504    487.76369    514.89803    590.94926    38614.337 
  201600    299.23077   -1513.1798    507.37715     339.2581   -655.42297    38614.337 
  201700    292.02459   -1471.2102    491.59205    333.05036   -661.38964    38614.337 
  201800    301.50477   -1466.1565    524.51113     413.6371   -765.05496    38614.337 
  201900    289.82587   -1457.8168    488.31956    333.28788   -100.71261    38614.337 
  202000    298.19975   -1495.9229    489.76367    334.26702   -734.77093    38614.337 
  202100    306.81208   -1486.6167    507.28252    399.80503   -251.56583    38614.337 
  202200    300.35999   -1516.0123    502.59177    336.71607   -69.287491    38614.337 
  202300     290.0579   -1556.6856    499.24664    246.38918   -483.06459    38614.337 
  202400    302.91071   -1541.4144    485.48569    305.67358    83.351333    38614.337 
  202500    300.41656   -1545.4025    534.76097    339.74942    290.68877    38614.337 
  202600    287.54869   -1576.8942    492.53329    208.18813    67.213071    38614.337 
  202700    304.41084   -1551.7097    466.01046     282.6462     307.5794    38614.337 
  202800    303.83295   -1526.3907     503.6584    343.01552    206.58422    38614.337 
  202900    301.02842   -1535.1443    493.24861    311.24553   -138.57769    38614.337 
  203000    307.66481   -1489.0577    498.00336    391.91795   -512.08073    38614.337 
  203100     301.2431    -1477.762    500.92849    377.27275   -386.57162    38614.337 
  203200    288.62675   -1542.2555    458.39194    213.53144   -652.91489    38614.337 
  203300    308.09644   -1532.7405    523.91022    376.08222   -750.35842    38614.337 
  203400    294.87365   -1535.6389    480.68316    270.51949   -833.87397    38614.337 
  203500    297.54945   -1506.9603    486.44205    316.98484   -192.93607    38614.337 
  203600    296.90687   -1493.8616    523.07654    363.82958   -395.08799    38614.337 
  203700      305.389   -1540.8642    499.28272    331.16082   0.60822814    38614.337 
  203800    308.02476   -1453.8347    518.25028    449.00589    313.87911    38614.337 
  203900    306.11779    -1460.969     518.2198    433.26914   -117.31417    38614.337 
  204000    296.30333    -1446.248    513.65744     399.3111   -78.555172    38614.337 
  204100    301.14427   -1466.0964    501.23181    388.79746   -91.987685    38614.337 
  204200    305.63675   -1478.0918    520.15123    415.91539    112.60594    38614.337 
  204300    295.67567   -1496.7351    489.75778    322.10304    482.49781    38614.337 
  204400    293.67316   -1492.1402    503.49192     331.4306    482.08447    38614.337 
  204500    299.94732   -1482.1455     487.3885    353.52469    190.49474    38614.337 
  204600     310.3081   -1487.1387    493.26228    400.97762    970.57111    38614.337 
  204700    312.07189   -1517.5547    503.25387    388.48151     345.0886    38614.337 
  204800    292.41844   -1517.7689    496.82309     293.4931    644.04545    38614.337 
  204900    304.06151   -1520.4679    501.13991    347.44725    895.32063    38614.337 
  205000    296.71861   -1520.5739    520.85762    334.05218    571.07109    38614.337 
  205100    304.59076   -1521.1773    487.81228     335.7892    496.17729    38614.337 
  205200    292.49001   -1507.5838    526.13458    333.31139   -118.38655    38614.337 
  205300    293.98958   -1473.1476    487.08304    335.43673    60.186787    38614.337 
  205400     298.8953   -1481.7351    525.70867    387.52635    213.48613    38614.337 
  205500    306.31129   -1503.6326    493.35858    366.61409    279.23121    38614.337 
  205600    310.21754   -1436.2962    498.26547    456.41623    165.46748    38614.337 
  205700    295.97913   -1464.0389    504.91729    371.32279    553.41502    38614.337 
  205800    296.99839   -1487.4351    502.83472    350.42564    411.98641    38614.337 
  205900     304.8066   -1494.0707    509.84177    385.89551    390.75132    38614.337 
  206000    298.48877   -1460.8247    500.08218    380.98286    700.93103    38614.337 
  206100    298.21023   -1491.8097    496.20024     344.8639     167.6625    38614.337 
  206200    300.27307   -1447.5662    554.58076    456.76054    29.790163    38614.337 
  206300    299.01434   -1503.6074     490.0974    330.57788    572.77539    38614.337 
  206400    294.59648   -1507.9069     520.0006    336.32299    518.63557    38614.337 
  206500    299.27904   -1554.6965    521.75892    312.34016    499.95247    38614.337 
  206600    294.64464   -1550.4971    486.54972    260.49841    139.00077    38614.337 
  206700    298.38617   -1498.9815     505.2408    347.52354    128.74408    38614.337 
  206800    303.40224   -1480.1129    467.60435    351.30314    478.62398    38614.337 
  206900    312.28723   -1497.7741    513.94696    419.92318    64.452733    38614.337 
  207000    293.81009   -1516.5658    499.17182    303.30044   -92.361817    38614.337 
  207100    292.50879   -1506.2959    501.99847     310.5476   -372.78928    38614.337 
  207200    294.48443    -1496.115    520.41701    348.02768    277.82996    38614.337 
  207300    309.91274    -1522.635     509.2794    379.72123    416.70577    38614.337 
  207400    296.94738   -1458.2965    492.87057    369.37086    400.99609    38614.337 
  207500    294.41867   -1518.9598    492.17567     296.6459    661.57385    38614.337 
  207600    301.52778   -1519.7873    486.30984    321.90847   -97.652165    38614.337 
  207700    306.00839   -1511.0038    502.10312    366.62589    51.482862    38614.337 
  207800    294.21987   -1524.3273    485.84396    284.05306   -641.98389    38614.337 
  207900    307.41232   -1485.0371    506.06375    402.86395   -355.65998    38614.337 
  208000    299.12658   -1493.6887     515.0968    366.00055   -188.14005    38614.337 
  208100    305.21475   -1499.7599    515.95688    388.15602   -142.51334    38614.337 
  208200    289.06745   -1486.0973    491.82237    305.10111    65.302825    38614.337 
  208300     297.3085   -1519.7549    488.66893    305.33402   -521.55214    38614.337 
  208400    294.78799   -1481.4908    469.55452    313.15385   -72.856988    38614.337 
  208500    293.01551    -1469.338    494.37361     342.1584   -252.47966    38614.337 
  208600    292.82874   -1463.6636    501.74923    354.36889   -338.19793    38614.337 
  208700    292.66512    -1452.921      496.684    359.31067   -439.14615    38614.337 
  208800     301.4649   -1500.1799    498.89058    353.81392   -472.26682    38614.337 
  208900    290.60972   -1482.1534    482.00882    306.16402    127.82575    38614.337 
  209000    301.54588   -1498.9749    490.61888    347.11126    129.56933    38614.337 
  209100    299.46194   -1483.6663    491.69896    354.13248    19.560117    38614.337 
  209200    302.60269   -1474.8706    510.83817    396.18533    35.087365    38614.337 
  209300    294.76269   -1527.8648    498.24747    295.35907   -377.33872    38614.337 
  209400     303.3762   -1509.9659    471.11716    324.84594   -229.31381    38614.337 
  209500    303.38979   -1494.5047    490.77229     360.0234   -132.48392    38614.337 
  209600    305.66336   -1518.8542    474.01986    329.14129   -276.59254    38614.337 
  209700    301.70603   -1496.8974    506.74977    366.03952   -129.37173    38614.337 
  209800    297.92498   -1474.0182    502.91131    368.08423   -166.83315    38614.337 
  209900    288.83805   -1504.0784    531.79674    326.06322   -587.80502    38614.337 
  210000    301.65539   -1499.1772    481.78993    338.57223   -607.06589    38614.337 
  210100    303.81391   -1491.5393    509.23872    383.36162   -647.81024    38614.337 
  210200    304.39776   -1483.6552    490.34736    374.97882   -75.317866    38614.337 
  210300    298.29112   -1520.1279    501.25549    321.96452   -288.89524    38614.337 
  210400     288.7922   -1478.4572    518.10158    337.78312    -363.4369    38614.337 
  210500     290.5566   -1485.8272    517.61144    337.85401   -195.58521    38614.337 
  210600    305.60995   -1458.0381    532.45766    448.15509    377.76547    38614.337 
  210700    299.45091   -1483.8975    505.48662    367.63943    118.78753    38614.337 
  210800    298.24492   -1509.0913    515.13342     346.6714    338.05796    38614.337 
  210900    306.08227   -1512.7555    510.38783    373.49102    592.74441    38614.337 
  211000    304.35908   -1529.9642    491.95655    330.10511    163.33973    38614.337 
  211100    298.67382   -1537.0261    479.76644    285.29754    823.84124    38614.337 
  211200    306.52851   -1531.6893    537.44442    383.61967    373.23144    38614.337 
  211300     289.8903    -1496.187    496.93736    303.82511   -189.74408    38614.337 
  211400    296.69014   -1496.9823     479.3934    316.05158   -83.604846    38614.337 
  211500    295.16266   -1509.0919    501.35329    319.03574    -357.6125    38614.337 
  211600    298.38589   -1480.3539    517.72861    378.63764   -662.21076    38614.337 
  211700    306.62881   -1473.5516    492.58581    397.34957   -116.19005    38614.337 
  211800    299.54546   -1500.1731    492.93767    339.23986   -287.70379    38614.337 
  211900    302.50853   -1533.3833    479.26218    305.67334   -77.233362    38614.337 
  212000    296.83157   -1544.3296    499.16545    289.11202   -69.514442    38614.337 
  212100    296.43134   -1572.6978    485.38503    245.16435       59.385    38614.337 
  212200    298.66353   -1526.9513    476.06728    291.62697   -389.60305    38614.337 
  212300    296.80057   -1542.1314    468.89869    260.90414   -814.66338    38614.337 
  212400    291.06631    -1553.757    475.41718    230.02118   -280.87478    38614.337 
  212500    299.50542   -1536.6796    466.49229    276.10802    615.57311    38614.337 
  212600    311.00319   -1555.4545    492.52403    335.04798    258.99233    38614.337 
  212700    293.49054   -1585.1722    486.20962    220.29545   -62.904192    38614.337 
  212800      300.304   -1532.7341    481.58803    298.73887   -233.82085    38614.337 
  212900    305.01943   -1506.2698    521.27156    386.08287   -384.15444    38614.337 
  213000    298.63411   -1522.9165    470.87775    290.33999   -380.77672    38614.337 
  213100    303.81098   -1546.4426     507.5121    326.71858   -489.31221    38614.337 
  213200    304.44597   -1535.4068    468.69509    301.79162    124.87161    38614.337 
  213300    307.80065   -1530.5103    529.54178    382.61436     -173.797    38614.337 
  213400    294.34048   -1543.7523     489.1653     268.4916    35.185835    38614.337 
  213500    292.26856   -1625.3945     481.7465    170.11716    860.55813    38614.337 
  213600     299.3514   -1582.2789    482.98991    246.31396    -42.25991    38614.337 
  213700    302.02165   -1523.0968    491.33762    325.84677    280.34619    38614.337 
  213800    289.05168   -1562.6647    481.99237    218.63277   -213.21409    38614.337 
  213900    302.87289   -1545.6139    483.34915    299.16756    490.98119    38614.337 
  214000    312.92043   -1594.0858    449.94926    262.46004    273.54486    38614.337 
  214100    295.33275   -1518.8144    511.03133    319.75585   -214.85834    38614.337 
  214200    302.95209    -1552.197    485.21171    294.80306    -389.0971    38614.337 
  214300    306.85235   -1513.3665    473.47225    339.42599    295.38742    38614.337 
  214400    289.81986   -1524.2903    464.16335    242.63121    430.85955    38614.337 
  214500    306.15663   -1555.1568    495.64381    316.67991    376.82902    38614.337 
  214600    311.96946   -1537.2628    495.10998    360.16913    421.97312    38614.337 
  214700    306.37408   -1563.4461    495.10429    308.82854      798.639    38614.337 
  214800    305.45951   -1542.1379    490.55485    321.47626   -60.791591    38614.337 
  214900    296.57143   -1543.1389    510.42188    300.38985    335.27261    38614.337 
  215000    307.28272   -1578.9576    502.59091    304.88805    150.75862    38614.337 
  215100    294.20582    -1513.716    497.32444    306.08171    181.28399    38614.337 
  215200    292.84492   -1498.6019    481.10717    298.86115    198.15772    38614.337 
  215300    300.78055   -1502.1459    504.68679    354.56801    26.667713    38614.337 
  215400     299.2791   -1493.3281    501.34015    353.29004    235.73368    38614.337 
  215500    298.03097   -1500.5613      520.871    359.97722    297.20128    38614.337 
  215600    288.37642   -1457.7291    491.36953    329.91019   -405.13374    38614.337 
  215700    298.28017   -1472.8974    517.23869    385.12896     254.4811    38614.337 
  215800    297.49955   -1458.7839    483.28608    361.78099    121.45553    38614.337 
  215900    302.15796   -1463.2567    514.34201     409.3039   -163.19867    38614.337 
  216000    301.53362   -1471.1459    474.22579    358.49202   -290.03324    38614.337 
  216100    291.38828   -1500.0941     482.5012    292.21541   -466.64588    38614.337 
  216200    294.31498   -1497.2157    497.46874    323.21703   -478.05868    38614.337 
  216300    305.16966   -1459.3094    491.67374    404.12069   -648.43554    38614.337 
  216400    299.90616   -1464.2327    482.44315     366.3071   -848.75175    38614.337 
  216500     294.3222   -1449.7875    519.82117    393.03007   -1143.7395    38614.337 
  216600    299.80035   -1471.6812    529.13887    405.07873   -605.75582    38614.337 
  216700    302.34286   -1501.3784    482.70375     340.3751   -172.78938    38614.337 
  216800    303.73771   -1488.7372    493.88876    370.47122   -314.54841    38614.337 
  216900    307.85389   -1499.3409    511.96643    396.44769     168.5237    38614.337 
  217000    309.12949   -1508.7048     481.3415    362.19279   -120.62116    38614.337 
  217100    294.35941   -1517.7876     489.4863     294.8624    253.57454    38614.337 
  217200    290.17505   -1523.7671    481.53237    262.11994    60.216149    38614.337 
  217300    311.53296   -1524.7459    501.55132    377.16521    -127.0975    38614.337 
  217400    309.61714   -1560.7286     504.5649    335.58439   -312.12295    38614.337 
  217500    286.89769   -1487.7394    469.36136    271.24475    -46.90802    38614.337 
  217600    302.11451   -1546.0185    505.84165    317.84644   -249.73117    38614.337 
  217700    305.76463   -1493.3732    501.05739    382.11501   -178.28751    38614.337 
  217800     304.3322   -1507.3274    491.03095    351.69557    164.95268    38614.337 
  217900    304.29075   -1519.2721    516.10448    364.63805    197.51653    38614.337 
  218000    298.95471   -1470.5829    485.63942    358.87636    350.24971    38614.337 
  218100    299.30767   -1484.4578    517.47612     378.4247    182.22898    38614.337 
  218200    296.27653   -1523.4752    514.26784    322.57391    107.23202    38614.337 
  218300    294.87783   -1503.2538    469.28357    291.52379   -294.93895    38614.337 
  218400    297.42313   -1487.7669    501.08473    350.25307   -119.68381    38614.337 
  218500    312.00765    -1512.445    479.89319    369.94181   -40.644904    38614.337 
  218600    293.24974   -1499.1486    504.16777    323.19478   -483.66339    38614.337 
  218700    300.79405   -1499.7848    498.91138    351.21438   -73.713285    38614.337 
  218800    302.41366   -1465.6793    511.13602    404.82471    396.58476    38614.337 
  218900    284.40464   -1468.5399    484.01102    293.88753   -14.918624    38614.337 
  219000     302.0359   -1486.9523    505.89528    376.61291    48.640321    38614.337 
  219100     300.9236   -1480.2042    513.02635    385.49223    244.35503    38614.337 
  219200    294.73243   -1486.9246    484.97792    322.89377    67.478543    38614.337 
  219300    294.43478   -1483.8396    489.25435    328.91717    578.04305    38614.337 
  219400    306.93948   -1510.3912    541.19608    410.51676    258.14886    38614.337 
  219500    291.68541   -1463.8376     497.3799     344.6862    587.01703    38614.337 
  219600    312.04836   -1466.5693    502.41647    438.52379    597.32154    38614.337 
  219700    295.14117   -1469.7614    493.87644    350.79274   -631.64478    38614.337 
  219800    300.98904   -1462.5879    500.37679    390.75313   -399.29548    38614.337 
  219900    307.18211    -1509.274    487.63963    359.16812   -212.74065    38614.337 
  220000    299.81085   -1525.4643    486.35264     308.5565   -805.27261    38614.337 
  220100    295.85638   -1494.7011    492.09965    327.29121   -258.03157    38614.337 
  220200    299.48381   -1491.7776    476.08608    330.50668    -623.5747    38614.337 
  220300    293.75158   -1472.7877    477.08161    324.72537   -281.51172    38614.337 
  220400     293.2105   -1480.2511     518.4664    356.21454    -304.4655    38614.337 
  220500    298.15245      -1467.7    499.75586     372.2695   -219.50945    38614.337 
  220600    294.84336   -1447.5486    512.82775    390.61821   -725.21103    38614.337 
  220700    285.89624   -1432.8915    510.47525    362.70494   -1129.4415    38614.337 
  220800    298.21647   -1444.7635    505.12433    400.86222   -975.73164    38614.337 
  220900    301.92744   -1442.8397     499.8648    414.20751   -823.39701    38614.337 
  221000    293.94929   -1447.2683    507.94664    381.99855   -496.05085    38614.337 
  221100    303.81602   -1492.9213    536.75447    409.50487   -34.767721    38614.337 
  221200    291.41464   -1450.0247    489.06928     348.9713   -609.78448    38614.337 
  221300    292.73994   -1442.1874    523.86554    397.56222   -424.92261    38614.337 
  221400    298.22353   -1436.3787    494.80259    398.95699   -484.39958    38614.337 
  221500    301.80981   -1460.0323    481.82196    378.44327   -385.51074    38614.337 
  221600    302.36295   -1444.3171    493.95941    408.78244   -423.85526    38614.337 
  221700    297.16357   -1443.6093    497.79072    389.94999   -379.38439    38614.337 
  221800    296.29431   -1442.4977    514.40719    403.77064    131.32162    38614.337 
  221900    297.74973   -1464.5256    506.60795    380.48572    674.78262    38614.337 
  222000    301.20032   -1481.2309    500.57345    373.25654    620.51827    38614.337 
  222100    303.17857   -1473.8799    479.46854    368.39501    697.49826    38614.337 
  222200    307.96287   -1447.5534    506.68457    443.44324   -271.89322    38614.337 
  222300    308.67591   -1422.9036    511.28636        475.9   -202.15088    38614.337 
  222400    299.58855   -1485.2631     505.7808    367.18671    49.108057    38614.337 
  222500    297.23997   -1456.8682    483.04395    362.28775   -519.93482    38614.337 
  222600    310.87348    -1476.592    495.43678    416.24026   -451.54382    38614.337 
  222700    293.20527   -1437.8361    513.22742    393.36712   -237.54299    38614.337 
  222800    291.11036   -1447.4591    505.04897    366.14881    257.46502    38614.337 
  222900    301.79244   -1476.7791    500.82682     380.6233     691.6666    38614.337 
  223000     301.9772   -1494.3797    509.42096    372.44733    412.79865    38614.337 
  223100    309.60127    -1439.797    495.00098    446.88069   -265.56672    38614.337 
  223200     301.5908   -1472.5495    513.00244    396.12217   -293.02691    38614.337 
  223300    291.78541   -1491.6011    506.73418    326.72642   -275.15352    38614.337 
  223400    306.63968   -1502.0392     501.9431    378.26809    -238.1265    38614.337 
  223500    304.98876   -1516.2223    509.39395    364.11491   -152.27978    38614.337 
  223600    313.81095   -1519.3119    480.18801    371.47565    -662.5642    38614.337 
  223700    299.75257   -1493.6508    475.03866    328.79416   -502.99421    38614.337 
  223800    300.73855   -1488.8397    490.40849    353.40714   -567.44282    38614.337 
  223900    293.24504   -1460.1265     481.7374    339.76542   -639.19198    38614.337 
  224000    307.94968   -1444.6129    514.29222    453.93205   -617.86662    38614.337 
  224100    291.91255   -1407.0912    498.65413    403.72776   -545.09484    38614.337 
  224200    299.56507   -1468.5439    487.34884    365.36834   -232.89733    38614.337 
  224300    301.41265   -1457.9763    508.40671    405.29881    584.55755    38614.337 
  224400    299.03712   -1469.8671    520.09173    394.41484    103.59237    38614.337 
  224500    293.80562   -1476.6225    493.44856     337.5004   -3.6520282    38614.337 
  224600    297.62809   -1454.5635    504.50689        387.8   -270.26297    38614.337 
  224700    295.38308   -1483.9209    502.34832    346.19261   -128.27471    38614.337 
  224800    298.38327   -1509.1654    493.05853    325.14429    54.496896    38614.337 
  224900    298.12622   -1507.2251    496.12534    328.99589    233.66152    38614.337 
  225000     295.3758   -1484.4628    495.11334    338.38287   -333.22973    38614.337 
  225100    299.53916   -1538.4799     471.0847    279.05177   -526.24243    38614.337 
  225200    310.58244    -1469.348    517.01025    443.74941    353.82064    38614.337 
  225300    299.26262   -1504.5263     493.7831    334.46065    383.46627    38614.337 
  225400    291.80863   -1529.0382    498.59821    281.25779   -240.46811    38614.337 
  225500    300.15009   -1514.5764    472.08124    306.69793    -51.59018    38614.337 
  225600    294.37704    -1466.982    504.41945    360.68042    5.6170556    38614.337 
  225700    300.64896   -1492.0296    474.19816    333.60416   -197.33942    38614.337 
  225800    300.70902    -1500.698    494.34186    345.34946   -510.88772    38614.337 
  225900    300.92171   -1536.3376    478.00042    294.32443   -465.90569    38614.337 
  226000    291.06417   -1525.4155    485.29731    268.23315   -460.81181    38614.337 
  226100    290.72925   -1529.4947    481.53029    258.88145   -438.00272    38614.337 
  226200    305.26639   -1517.1489      474.996    330.03838   -246.14441    38614.337 
  226300    298.40173   -1486.5837    489.93231    344.68271    11.750296    38614.337 
  226400    300.99948   -1479.8674    487.18363    360.32745    570.10504    38614.337 
  226500     297.5715   -1493.5804    479.93141    323.95319   -67.752615    38614.337 
  226600    294.14878   -1517.3673    499.25597     304.1055    157.93665    38614.337 
  226700    302.90347   -1506.8903    492.59641    347.27584    38.929994    38614.337 
  226800    296.00826    -1474.677    513.51418    369.41255   -234.97541    38614.337 
  226900    298.48146   -1471.3593    496.83946    367.17265   -10.157755    38614.337 
  227000    299.73333   -1478.7531    501.05155    369.61827   -200.12393    38614.337 
  227100    297.31422   -1482.1413    522.08831    376.39274    162.70244    38614.337 
  227200    307.75167   -1474.4082     476.6107    385.56523    145.66877    38614.337 
  227300    299.30984   -1437.9319    502.50173    409.98602   -162.34559    38614.337 
  227400    299.24045   -1450.6321    505.20242    399.67455     266.4832    38614.337 
  227500    300.81493   -1445.8079    518.99266     425.3664    -40.84398    38614.337 
  227600    299.92581   -1473.1912    463.96898    338.96279    97.285596    38614.337 
  227700    302.65998    -1440.679    518.66607    438.46233     904.7423    38614.337 
  227800    290.75702   -1471.6273    490.25669    325.60011    672.28776    38614.337 
  227900    302.13105   -1465.8726    510.68217    402.90728    544.29848    38614.337 
  228000    294.42735   -1481.0936    512.62005    354.99555    12.311263    38614.337 
  228100    296.77326   -1506.3278    485.45703    313.14332    351.01965    38614.337 
  228200    292.22849      -1485.6    496.12586    324.11088    416.34485    38614.337 
  228300    288.52585   -1487.8296    495.43772    304.54959    341.44716    38614.337 
  228400    317.77834    -1455.012    529.26318    502.68442    102.21959    38614.337 
  228500    293.20199   -1485.5156    492.85959      325.305   -79.302775    38614.337 
  228600    296.01677   -1472.0757    514.05018    372.58807    -136.3002    38614.337 
  228700     303.3545   -1475.9746    490.64424    378.26674   -171.08414    38614.337 
  228800    291.35694   -1504.4684    486.02418    291.22314   -442.78166    38614.337 
  228900    288.95301   -1520.9284    488.85137    266.78452   -466.80431    38614.337 
  229000    314.32945   -1470.7937    490.31407    432.45061    228.46251    38614.337 
  229100    288.13914   -1459.6461    487.85132    323.40838    816.37445    38614.337 
  229200    301.74554   -1532.7359    483.04552    306.67439   -3.8970899    38614.337 
  229300    287.31343   -1449.1192    521.61094    363.98331     57.62192    38614.337 
  229400    305.39866   -1520.6917    521.55215    373.64622   -91.153453    38614.337 
  229500    296.99935   -1543.1542    475.64623    267.52238   -137.60067    38614.337 
  229600    306.64802   -1463.1447    501.16789    416.42491    -737.2988    38614.337 
  229700    298.66873   -1482.1418    472.76561    333.15816   -912.39255    38614.337 
  229800    297.44706   -1477.0417    469.33821    329.33933   -1243.0032    38614.337 
  229900    312.22687   -1512.2571    510.99138    402.21329   -571.60158    38614.337 
  230000    301.71811   -1520.1152    495.60151    331.72782   -1206.9714    38614.337 
  230100    294.92285   -1501.2472    479.57864     304.0278   -787.47484    38614.337 
  230200    301.64074   -1542.1462    488.20079    301.94827   -285.50748    38614.337 
  230300    293.89458   -1542.2351    475.67309    254.51224   -544.11324    38614.337 
  230400    305.37055   -1514.8108    496.91468    354.76326    477.36316    38614.337 
  230500    305.81264   -1538.0694    475.15355    311.73076    417.62716    38614.337 
  230600     304.1188   -1540.4035    494.82227    321.45148    326.96147    38614.337 
  230700    302.64895   -1528.8875    486.38279    317.92101    445.31202    38614.337 
  230800     293.4999   -1555.1422    474.58761    238.74553    176.75984    38614.337 
  230900    295.08532   -1530.5711     476.4948    272.35035    617.45651    38614.337 
  231000    302.87705   -1528.2061    496.15061    329.39545   -57.457021    38614.337 
  231100     301.3617    -1547.598    472.78901    279.83039   -7.5293095    38614.337 
  231200    302.87846   -1543.6475    492.50151    310.31131   -124.58422    38614.337 
  231300    292.92895   -1537.9544    484.93169    263.71095    -111.9297    38614.337 
  231400    307.14007   -1505.9644    498.71191    373.36103    190.25496    38614.337 
  231500    297.21494   -1526.2893    475.03495    284.74512    242.85557    38614.337 
  231600    302.46777   -1536.4238    507.40974    330.59718   -129.85387    38614.337 
  231700    299.78523   -1511.5077    478.19431    314.23968   -438.84061    38614.337 
  231800    306.76064   -1551.1517    518.60522    346.36154   -331.56169    38614.337 
  231900    304.80988   -1539.5778     487.1388    317.70017   -385.79991    38614.337 
  232000    302.92299   -1510.0882    475.07762     326.6469    -413.7851    38614.337 
  232100    295.09926   -1535.9737    486.52793    277.04358   -526.02767    38614.337 
  232200    308.13824   -1543.0186    490.02453    332.10628   -676.87876    38614.337 
  232300    305.39517    -1515.568    482.64296    339.84504   -97.380846    38614.337 
  232400     301.8893   -1512.6065     486.5991    331.00361   -262.34271    38614.337 
  232500    305.96136   -1525.8666    504.50815    353.95667    -234.6104    38614.337 
  232600    303.63889   -1537.6421    478.96498    306.19835    6.6312917    38614.337 
  232700    302.92064   -1517.6571    498.52371    342.51348   -235.16175    38614.337 
  232800    302.85279   -1539.6289    483.91938    305.63242   -361.30884    38614.337 
  232900    305.35595   -1520.3792    484.30674    336.52132   -277.89875    38614.337 
  233000    285.90404   -1509.1326    518.87454    294.89823    -564.9554    38614.337 
  233100    293.16603   -1519.9554    479.40565    277.24957   -91.772935    38614.337 
  233200    294.22236   -1532.8069    476.11166     265.8524   -127.25416    38614.337 
  233300    302.55431   -1515.6846    485.10078    329.41639   -274.02429    38614.337 
  233400    303.49314   -1490.8175    503.75554    377.15834   -414.11347    38614.337 
  233500    302.94113   -1484.0765    498.54929    376.21183   -131.35885    38614.337 
  233600     299.1409   -1492.3009    450.18556    302.54145   -366.85979    38614.337 
  233700    300.13461   -1510.5187    493.81925    332.42409    186.46804    38614.337 
  233800    295.21636    -1479.057    506.24502    354.20374   -144.57712    38614.337 
  233900    299.59768   -1500.6529    492.59562    338.65272   -266.22173    38614.337 
  234000    302.18033   -1485.4269    461.70797    334.60025    55.092275    38614.337 
  234100    290.55508   -1480.4055    520.01142    345.66884   -466.11143    38614.337 
  234200     311.6921   -1501.5122     494.6633    394.22623   -536.77212    38614.337 
  234300    302.58393   -1497.5041    473.70165    336.33091   -394.02042    38614.337 
  234400    297.43517   -1491.8637    494.44192    339.56769   -430.43786    38614.337 
  234500    308.92309   -1504.8789    505.73734     389.4867   -352.22612    38614.337 
  234600    312.96789   -1481.9843    514.70775    439.53337   -194.46774    38614.337 
  234700    301.98318   -1524.6069    480.77814    313.60425   -228.95501    38614.337 
  234800    295.82646   -1497.4885    466.36455    298.63421   -439.99735    38614.337 
  234900    299.03255   -1524.5348     493.2244     312.8593   -297.70261    38614.337 
  235000    299.21783   -1505.0857     510.9368    350.85372    233.80934    38614.337 
  235100    342.94863   -1515.6665    426.85995    452.76861    472.87668    38614.337 
  235200    295.52985   -1488.1838    491.46566    331.70675   -153.72519    38614.337 
  235300    295.43816   -1490.3406    505.72215    343.39426     40.31956    38614.337 
  235400    310.45791    -1524.047    491.55657    363.03701     359.6459    38614.337 
  235500    291.40653   -1533.3481    492.99014    269.53231    1.3113086    38614.337 
  235600    285.39813   -1481.7833    479.64683    280.74576   -4.0092642    38614.337 
  235700    302.75891   -1505.2313    456.99873    312.68738   -484.27496    38614.337 
  235800    292.14101   -1432.5103    506.90303    387.58459   -436.51087    38614.337 
  235900     293.9919   -1482.6023     459.6793    298.58874   -969.22206    38614.337 
  236000    308.15685   -1515.1888    481.55209    351.54731   -272.80073    38614.337 
  236100     288.7908   -1452.4395    494.30855    340.00148   -45.561789    38614.337 
  236200    300.71262   -1497.4137    473.47125    327.77928    228.86664    38614.337 
  236300    296.76598   -1472.0596    490.08798    352.00977    409.06586    38614.337 
  236400    293.27298   -1474.7056    482.55313    326.12758    197.88764    38614.337 
  236500    298.93817    -1431.508    499.90181    412.13931   -187.58061    38614.337 
  236600    306.77813   -1425.3069    499.57416    453.25382   -108.74344    38614.337 
  236700    296.80478   -1460.8105    473.67116    347.01639   -353.38886    38614.337 
  236800    301.72385    -1454.382    507.82134    409.70665   -51.160748    38614.337 
  236900    293.66963   -1454.2193    466.79973    332.64349    91.999286    38614.337 
  237000    297.50739   -1442.0363    490.03577    385.31351    286.36044    38614.337 
  237100    303.27943   -1419.7842    479.76924    423.24474    209.91155    38614.337 
  237200    303.47396   -1445.4034    516.34757    435.07832    528.84305    38614.337 
  237300    292.52188   -1456.8438    477.68609    335.74615    312.60307    38614.337 
  237400    293.40179   -1498.5804    492.94907    313.22773    600.41697    38614.337 
  237500    312.62827   -1512.6828    466.34644    358.94692    638.88195    38614.337 
  237600    302.41442   -1475.3319    467.73564    351.77517    216.53133    38614.337 
  237700    288.45307   -1485.1053    463.65064    275.15967    421.94695    38614.337 
  237800     306.4685   -1485.4074    468.33114    360.51855     849.1758    38614.337 
  237900    299.90652   -1457.1967     493.3032    384.20479    374.35745    38614.337 
  238000    291.97344   -1510.1748    510.62796    312.89172    116.32815    38614.337 
  238100     297.3484   -1499.1563    482.91799    320.36102    504.87257    38614.337 
  238200    305.82826   -1500.8622    488.03296    361.88756   -189.47916    38614.337 
  238300    298.06507   -1488.8436    488.76205     339.7393    -55.90642    38614.337 
  238400    296.26707   -1483.7708    461.12811    309.09603    102.18087    38614.337 
  238500     291.3249   -1505.6885    479.90875     283.7436   -179.37223    38614.337 
  238600    311.55059   -1487.2557    464.45414    377.63758    317.35982    38614.337 
  238700    296.23231   -1465.3066    480.05634    346.33216    213.35878    38614.337 
  238800    292.05105   -1493.5919    489.10522    308.30074    140.61105    38614.337 
  238900    299.22458   -1460.2035    495.78906    380.61846    68.019437    38614.337 
  239000    287.78104   -1489.9173    493.20127     296.8774    190.51696    38614.337 
  239100    297.79802   -1467.6088    504.56442      375.576    737.85542    38614.337 
  239200    298.26193    -1476.976     491.0369    354.76661    867.90369    38614.337 
  239300    298.27704   -1512.6774    480.86712    308.96335    548.60336    38614.337 
  239400    300.39722   -1499.0677    510.64382    361.88013    884.02996    38614.337 
  239500    298.74061   -1482.8416    508.45765    368.47348    434.74874    38614.337 
  239600    296.42928   -1517.3685    508.79777    323.89713      619.014    38614.337 
  239700    297.14281   -1482.4524    496.65356    349.87638   -173.22837    38614.337 
  239800     303.9453   -1512.3222    485.30354    339.23414   -230.38404    38614.337 
  239900    292.92568    -1538.265    457.66568    236.11965   -428.41617    38614.337 
  240000    299.22565   -1492.5602     465.7845    318.26206   -255.80564    38614.337 
  240100    308.37006    -1488.071    478.38159    376.45295    508.79066    38614.337 
  240200    303.58335   -1493.6924    513.31467    384.24812    422.36375    38614.337 
  240300    299.92665   -1508.6637     493.1074    332.63244    553.04839    38614.337 
  240400    288.65905   -1535.0189    489.70978    252.23111    416.50436    38614.337 
  240500    295.66652   -1509.9184    498.32503    317.44589   -25.117855    38614.337 
  240600    310.08601   -1524.7169    468.60463    337.74343    153.70197    38614.337 
  240700    298.79118   -1487.7039    473.93379    329.31461   -226.06371    38614.337 
  240800    292.25914   -1519.2294    495.50086     289.9943    209.47863    38614.337 
  240900    302.44125   -1522.2227    469.39698    306.66633   -115.71619    38614.337 
  241000    291.57697   -1530.5876    503.74017    283.80904    439.80546    38614.337 
  241100     297.4256   -1552.2544    492.94203    277.63403    392.62168    38614.337 
  241200    293.96748   -1540.8023    482.34615    262.94579     192.5401    38614.337 
  241300    294.74675   -1549.0536    480.08145    255.93266    162.37246    38614.337 
  241400    296.01048   -1494.4507    463.07557    299.21023    274.68448    38614.337 
  241500    304.30823   -1506.9019    506.62511    367.60743    551.27253    38614.337 
  241600    299.20377   -1498.3371    467.85612    314.45841      232.815    38614.337 
  241700    315.77001   -1518.5064    456.48714    357.38642    189.06891    38614.337 
  241800    296.91587   -1529.2306    472.49125    277.91576   -193.85498    38614.337 
  241900    310.00163   -1514.5986    481.20882    360.08662    327.63069    38614.337 
  242000    294.50896   -1511.2287    489.56623    302.17343   -3.1806049    38614.337 
  242100    305.79745   -1497.4076    499.86242    377.03316    631.38327    38614.337 
  242200    294.18774    -1501.209    466.93625    288.11925    228.92017    38614.337 
  242300    298.28831   -1507.4427    482.89223    316.27381    424.70425    38614.337 
  242400    298.33043   -1503.2792    464.32103    302.05551     87.39261    38614.337 
  242500    297.63995   -1491.6397    490.41098    336.68117    473.62085    38614.337 
  242600    303.87535   -1510.6233     486.7079      342.023     561.4265    38614.337 
  242700    306.41775    -1463.815    465.29397    378.84564    250.85851    38614.337 
  242800    291.23068   -1509.7576    484.36101    283.70323   -179.27694    38614.337 
  242900    302.69705   -1513.9001    482.74829    329.49002    25.891829    38614.337 
  243000    302.46562   -1493.5043    494.02707    360.12431   -220.64243    38614.337 
  243100    284.52683   -1466.0531    496.18953     309.1021   -579.11168    38614.337 
  243200    302.50746   -1437.8907    489.95811    411.85707   -352.30898    38614.337 
  243300    297.75229    -1485.065    462.97901    316.32883   -596.72013    38614.337 
  243400    297.92398   -1472.7738     462.3994    328.81219   -363.66448    38614.337 
  243500     304.0092   -1451.0412    499.25641    414.75529   -179.54919    38614.337 
  243600    299.42396   -1497.3988    485.62257    334.15289    -354.4421    38614.337 
  243700    300.88313   -1448.6904    488.66303    392.46086   -603.99285    38614.337 
  243800    291.21456   -1489.1682    492.25702    312.11618   -458.09595    38614.337 
  243900    303.21317   -1459.0876    484.02446    387.89875    174.91083    38614.337 
  244000    316.68996   -1480.7546    483.42864    426.21488    57.187287    38614.337 
  244100    300.52532   -1487.0624    485.09394    348.91134    84.895605    38614.337 
  244200    303.77797   -1457.7814    489.42218    397.14148   -100.29635    38614.337 
  244300    296.31238   -1485.8651     474.1517    320.22903   -65.092081    38614.337 
  244400    305.87747   -1448.8091    470.31735    396.44638    18.430104    38614.337 
  244500    298.86296   -1472.5904    499.16492    369.98196    349.62027    38614.337 
  244600    298.14886   -1467.7078    493.28183    365.77153    376.62189    38614.337 
  244700    295.54753   -1491.9487    485.40975     321.9654    87.028402    38614.337 
  244800    302.84072   -1475.6977    496.08283    381.67279    484.36463    38614.337 
  244900    305.57653   -1477.2729    477.39379    373.70623    410.26277    38614.337 
  245000    298.31409   -1491.1206     484.0399    333.85953    78.053881    38614.337 
  245100    304.39818   -1522.9609    458.53719    303.86487   -258.31878    38614.337 
  245200    293.26775   -1548.7718    474.71645    244.20126   -115.18309    38614.337 
  245300    307.33515   -1532.9075    457.43034    306.01323    128.18146    38614.337 
  245400    299.12063   -1508.1468    485.23056     321.6494    241.42958    38614.337 
  245500    301.64611   -1545.8178    491.85816    301.95818    338.82085    38614.337 
  245600    299.70546   -1528.8524    456.20161    274.54376    397.40027    38614.337 
  245700    295.92105    -1506.044     495.3941    319.53347    275.47235    38614.337 
  245800    305.69273    -1557.419    475.64022    292.32889   -444.01932    38614.337 
  245900    300.99506   -1493.1532     457.7703    317.60848   -357.11909    38614.337 
  246000    306.50074   -1544.4284    486.08223    319.39348   -325.71757    38614.337 
  246100    302.99388   -1523.7004    452.08085    290.35654   -373.91363    38614.337 
  246200    294.53824   -1567.9595    456.50239    212.51037   -252.30787    38614.337 
  246300    300.50795   -1511.3021    458.86354    298.36318   -220.74114    38614.337 
  246400     304.5403   -1539.3558    468.91266    298.48425    369.36825    38614.337 
  246500    309.44536   -1586.6891    467.70524     271.9921   -24.909984    38614.337 
  246600    289.96546   -1511.3472    481.03544    273.10085     18.85093    38614.337 
  246700    304.91906    -1539.666     455.6089    286.57286   -210.81227    38614.337 
  246800     292.1597   -1557.2325    463.34787    219.39125    89.235051    38614.337 
  246900     302.8035   -1535.6087    474.33187     299.8435    126.64363    38614.337 
  247000    299.80724   -1517.8821    491.73658    321.50651     574.8326    38614.337 
  247100    292.57279   -1587.8767    450.77097    178.02693    157.36849    38614.337 
  247200    296.55995   -1529.3943    452.41027     256.0712     306.3349    38614.337 
  247300    293.18604   -1533.4932    467.35693    251.75306    505.81444    38614.337 
  247400    295.58435   -1519.4868    487.60902    296.79209    211.00958    38614.337 
  247500    299.90299   -1526.4145    449.72335    271.39124    381.46529    38614.337 
  247600    289.02364   -1570.3039     491.1843    220.05949     3.091448    38614.337 
  247700    306.01919   -1559.1203     479.7749    296.22969    197.69745    38614.337 
  247800     292.0252   -1537.0739    477.70596    253.30334   -81.237602    38614.337 
  247900    290.84395   -1582.7845    471.52089    196.09784    114.31975    38614.337 
  248000    288.29081   -1542.2456    466.48074    220.12004   -219.55272    38614.337 
  248100    303.68127   -1573.3217    450.65108    242.39536   -595.34616    38614.337 
  248200    293.42132   -1510.6387    462.78414    271.09237    10.164029    38614.337 
  248300    292.38516   -1537.8853    470.21667    246.62068   -637.56702    38614.337 
  248400    306.70064    -1498.628    474.26165    354.27192   -1.1744215    38614.337 
  248500    305.43546     -1545.19    458.65447    286.41569    370.80337    38614.337 
  248600    299.16178   -1551.4746    462.91302    256.18908     825.5482    38614.337 
  248700     308.1608   -1531.6177    506.24361    359.82764    700.69165    38614.337 
  248800    295.48955    -1500.809    484.93281    312.36752    735.77731    38614.337 
  248900    300.35626   -1519.5461    453.43978    284.01352    366.27056    38614.337 
  249000    299.65508   -1561.4353    455.77584    241.30856    209.11571    38614.337 
  249100    295.44468   -1552.3702    458.07015    233.74194   -366.25795    38614.337 
  249200    305.23285   -1551.1785    479.50302    300.36497   -194.06373    38614.337 
  249300    300.10289   -1539.7808    459.61852    268.81872   -183.40093    38614.337 
  249400    306.63485   -1486.6135    472.42429    364.15336     479.0896    38614.337 
  249500    292.09605   -1515.6926      481.924     279.2211    -100.9061    38614.337 
  249600    292.70757   -1511.4774    476.76719    281.02838    327.48769    38614.337 
  249700    307.08998   -1540.3385    470.72908    310.77893   -114.30438    38614.337 
  249800     300.2329   -1522.4836    458.47616    285.55795   -165.23694    38614.337 
  249900    301.72109   -1520.6176    466.21641    301.85369    101.09159    38614.337 
  250000    301.68104   -1493.4122    458.58969    321.25228    103.56926    38614.337 
  250100    295.17594   -1481.4719    498.22143    343.58351    69.336122    38614.337 
  250200    294.55995   -1457.9374    468.23137    334.35901    69.044621    38614.337 
  250300    308.16431   -1461.2291    508.38673    432.37513     104.0827    38614.337 
  250400    303.29596   -1477.6909    447.66603    333.30919    153.79097    38614.337 
  250500    304.06069   -1475.7806    496.63208      387.623   -68.290813    38614.337 
  250600    293.15181   -1458.0214    490.58224    350.29624   -694.99229    38614.337 
  250700    295.85312   -1439.0794    495.71769    386.51632   -518.96266    38614.337 
  250800    300.04737   -1497.4577    468.53766    319.81138    105.03574    38614.337 
  250900    307.93088   -1477.0898    502.81965    409.89812    66.941289    38614.337 
  251000    305.36002   -1509.9036    500.40131    363.10986    448.11886    38614.337 
  251100     300.8934   -1477.8305    488.86543     363.5693    367.34451    38614.337 
  251200    307.81005   -1502.9344    466.40941    347.10007    542.26602    38614.337 
  251300    297.23174   -1527.6388    466.58535    275.02157    652.33394    38614.337 
  251400    304.43874   -1528.8031    491.92169    331.58942    442.21508    38614.337 
  251500     283.8783      -1533.2    483.58709    226.43752    672.94703    38614.337 
  251600    296.91558   -1495.3192    469.87129    309.20597    701.68949    38614.337 
  251700    301.82892    -1512.652    494.90828    338.99583    506.73521    38614.337 
  251800    298.88018   -1551.1097    476.42955    268.80469    698.11214    38614.337 
  251900    301.10197   -1509.2754    495.43195    339.62848    220.39296    38614.337 
  252000    297.96288   -1493.7815    479.75765    325.33766    324.50151    38614.337 
  252100    301.98975   -1486.9118     480.4398     350.9905    126.54001    38614.337 
  252200    314.40667   -1539.3258    487.77833    361.72993    569.69273    38614.337 
  252300    298.91385   -1512.7752    492.89385     323.7548    714.87918    38614.337 
  252400    298.25865    -1451.124    492.37066    381.93759    763.40979    38614.337 
  252500    306.01695   -1444.7825    502.44289    433.22545    715.84321    38614.337 
  252600    299.46853   -1472.8892    472.48501    345.72528   -8.6005257    38614.337 
  252700    299.92883   -1457.2891    471.85695    362.76634   -316.45201    38614.337 
  252800    303.69367   -1520.3916    475.05939    319.78957    65.300944    38614.337 
  252900    294.73237   -1471.4506    480.47782    333.86733    190.14365    38614.337 
  253000    304.85433   -1435.1213    483.81609    419.03373    351.84761    38614.337 
  253100    301.95205   -1479.7754    477.43485    354.95247   0.69275238    38614.337 
  253200    303.87501   -1443.0568    484.36856    407.24865    158.32743    38614.337 
  253300    293.40072   -1441.4546    486.11133    363.51105   -240.34278    38614.337 
  253400    301.91139   -1434.5452    471.47772    394.04279   -153.39235    38614.337 
  253500    304.51683   -1491.4604    482.01461    359.37609    94.103065    38614.337 
  253600    306.86551   -1465.4443     478.3111    392.24621   -125.98611    38614.337 
  253700    303.70855   -1450.4687    495.58558    410.30547   -133.76809    38614.337 
  253800    301.29805   -1485.9321    474.66068    343.08193    672.53154    38614.337 
  253900    294.93536   -1511.2539    478.31888    292.81754    603.29293    38614.337 
  254000    306.13247   -1529.6408     469.4855    315.92902    502.05707    38614.337 
  254100    298.01347   -1540.4896    482.56651    281.66582    383.88514    38614.337 
  254200    305.42661   -1520.6651      471.206    323.45226    516.21344    38614.337 
  254300     300.8527   -1497.0266     463.3168    318.64156   -211.28061    38614.337 
  254400    307.05365   -1506.9228    473.06377    346.36601    288.32082    38614.337 
  254500    298.83427   -1496.1886    487.55694    334.64672    264.25298    38614.337 
  254600    288.28382   -1497.1619    468.87253    267.56415    597.72087    38614.337 
  254700    297.72313    -1453.765    481.37407    365.89292     213.2001    38614.337 
  254800    294.95995   -1446.3399     510.6332    390.15641    28.522069    38614.337 
  254900    299.71443   -1482.3424    485.03468     349.9271    211.07481    38614.337 
  255000    303.07471   -1488.6156    467.66407    341.38793   -133.93052    38614.337 
  255100    296.96332   -1491.2152    474.50654    318.15975   -402.30628    38614.337 
  255200    298.48979   -1471.4378    481.56663    351.85882    169.32205    38614.337 
  255300    298.12863   -1502.2309    490.14814    328.02374   -153.05751    38614.337 
  255400    296.97993   -1459.3862    484.50891    360.06575   -847.88537    38614.337 
  255500    303.40978   -1458.2153    509.34315    414.97345    26.485747    38614.337 
  255600    297.66896   -1481.3237     491.0524    347.76904   -567.01542    38614.337 
  255700    304.35208   -1472.9712    471.50188    366.61204    -398.0482    38614.337 
  255800    296.02674    -1467.894     476.4327    339.19717   -184.15171    38614.337 
  255900    303.93942   -1491.4935    478.51691     353.2498    76.655172    38614.337 
  256000    295.20987   -1496.4898    477.18776    307.68453   -326.43745    38614.337 
  256100     302.5698    -1493.365    472.39816    339.10298   -417.62028    38614.337 
  256200    299.71627   -1464.3514    500.30334    383.19503   -352.63567    38614.337 
  256300    298.13387    -1506.376    462.48167    296.23573   -45.122939    38614.337 
  256400    309.52463   -1532.5286     477.1262    335.92985    317.00503    38614.337 
  256500    285.86311   -1504.0861    505.16336     286.0495    374.52571    38614.337 
  256600    307.57467   -1526.4821    482.86813     338.9531    -22.47931    38614.337 
  256700    309.12869   -1522.8598    472.49835    339.19098    105.23351    38614.337 
  256800    302.36669   -1506.0962    471.73896     324.7997    491.19831    38614.337 
  256900    304.99197   -1512.1355    495.51004    354.33226    45.776671    38614.337 
  257000    305.66569   -1530.1603    482.44207    326.26791   -419.45243    38614.337 
  257100    306.90826   -1478.6064    490.05939    391.02448   -185.01837    38614.337 
  257200    303.52469   -1477.7169    497.73023    384.37548   -346.59453    38614.337 
  257300    301.17009   -1499.6444    462.38235    316.51603    2.3871481    38614.337 
  257400     302.4853   -1492.4731    482.50883    349.72574    52.361806    38614.337 
  257500    305.16401    -1495.547    499.09369     375.2777   -582.34815    38614.337 
  257600    303.29471    -1474.569    463.25033     352.0097   -727.86517    38614.337 
  257700    300.26108   -1493.6876    490.14321    346.14767   -350.61605    38614.337 
  257800    302.10498   -1514.0937    480.04534    323.93208   -231.06109    38614.337 
  257900    311.13048   -1502.8388    516.48456    412.19639     844.2709    38614.337 
  258000     295.4752   -1498.0486    490.00813    320.13868    1154.9833    38614.337 
  258100    301.38995    -1517.054    489.28178    326.99417     973.0151    38614.337 
  258200    289.01022   -1442.7511    507.46926    363.83686    241.17038    38614.337 
  258300    298.17117   -1478.3723    489.27803     351.2035     808.5048    38614.337 
  258400    304.04416   -1413.2812    513.69804    467.11403    248.23983    38614.337 
  258500    293.82863   -1461.3441    479.83376    339.26738    28.742915    38614.337 
  258600    306.60989   -1399.3019    499.50512    478.43359    26.075237    38614.337 
  258700    290.20473   -1448.5407    480.24266    336.19006   -7.7960802    38614.337 
  258800     298.1024    -1437.451    516.61999    419.15763   -42.576346    38614.337 
  258900    307.11286   -1451.6512    493.16465    422.00463    9.1192934    38614.337 
  259000    307.75854   -1457.4882    516.42384    442.32926   -62.820515    38614.337 
  259100    304.80617   -1438.8192    484.91547    416.21873   -753.96161    38614.337 
  259200    304.54228    -1428.822    497.75489    437.86915   -535.79662    38614.337 
  259300    296.06725   -1434.1988    501.37327    398.01499   -62.791723    38614.337 
  259400    317.22224   -1420.6652    508.83698    514.10526   -72.930181    38614.337 
  259500     298.4008   -1441.7902    501.57921    401.11897   -225.07071    38614.337 
  259600    301.01364   -1387.6602     523.7675    489.18213   -292.23875    38614.337 
  259700    299.27684   -1423.1848    484.64311    406.72616    144.90073    38614.337 
  259800    306.43634   -1446.3573    490.80886    421.90176    476.91091    38614.337 
  259900    298.34733   -1446.4461    489.99084    384.63433     652.5864    38614.337 
  260000    293.93558   -1458.6206    494.69033    357.32828    582.20378    38614.337 
  260100    303.59025   -1482.7625    488.30602    370.20036    576.68489    38614.337 
  260200    295.27569   -1471.6409    505.60974    361.25122    593.94505    38614.337 
  260300    293.17361   -1514.9666    512.45788    315.32466      467.794    38614.337 
  260400    301.23059    -1529.454    466.32239    290.91847    396.15594    38614.337 
  260500    304.75663   -1496.8395    516.38943    389.44977   -234.40749    38614.337 
  260600    300.29093   -1474.8081    491.23047    366.24862   -238.11682    38614.337 
  260700    293.64655   -1501.7517    487.02221    305.22983   -441.61333    38614.337 
  260800    288.17769   -1490.9536     500.7667    305.18958   -542.69248    38614.337 
  260900    305.13845   -1486.3842     483.9444    369.17633   -420.12434    38614.337 
  261000    302.06739    -1475.907    479.94136    361.84582   -601.80834    38614.337 
  261100    309.65766   -1475.9886    481.38712    397.32874   -350.95462    38614.337 
  261200    304.32595   -1456.2754     492.1035      403.792    54.695671    38614.337 
  261300    294.52381   -1486.7576    471.00581    308.15088   -66.683432    38614.337 
  261400    306.57848   -1523.8813    445.14827    299.35613    361.46892    38614.337 
  261500    302.44778   -1507.3767    489.42412    341.56886    256.29058    38614.337 
  261600     299.9824   -1472.2165     455.2376    331.46046     286.1449    38614.337 
  261700    304.38826   -1497.3286    492.70887    363.62421   -47.918642    38614.337 
  261800    298.85131   -1485.4436    470.55741    328.46884   -127.70391    38614.337 
  261900    304.80193   -1492.1196    478.78778    356.77156   -23.447524    38614.337 
  262000    295.33118   -1517.3815    452.59402    262.74435    113.68147    38614.337 
  262100     313.5051   -1510.7481    475.66961    374.14623    373.94435    38614.337 
  262200    300.65303   -1502.3206    448.67201    297.80533   -201.05073    38614.337 
  262300    294.99121   -1486.1684    466.79312     306.6284   -340.69207    38614.337 
  262400    288.37059   -1470.3278    487.97259    313.88834   -298.38443    38614.337 
  262500    295.27538   -1499.3224    478.98265    306.94126   -738.44216    38614.337 
  262600    296.64045   -1475.7445     471.0907    328.76331   -911.02162    38614.337 
  262700    290.65209   -1487.2026    452.88003    272.17644   -720.95545    38614.337 
  262800     303.5022   -1418.4895    478.15282     423.9244   -700.08717    38614.337 
  262900     298.3226   -1387.7594    491.25745    444.47653   -550.34665    38614.337 
  263000    292.89509   -1453.0744    459.22331    322.73033   -241.07444    38614.337 
  263100    307.99945   -1461.6224    511.58072    434.43486    280.54467    38614.337 
  263200    298.25928   -1469.4128    479.34466    350.62566    329.66421    38614.337 
  263300    302.47145    -1467.362    482.79609    375.06185     401.6743    38614.337 
  263400    298.56266   -1473.8593    477.66543    345.86364    205.67532    38614.337 
  263500    295.00429   -1469.9044    496.70091    352.85899    515.52459    38614.337 
  263600    293.61856   -1499.5802    458.75855    279.01181    94.175898    38614.337 
  263700    305.48993   -1469.9518    476.44268    379.68692    -439.8905    38614.337 
  263800    300.20202   -1445.8787    480.94759    384.49545   -833.08768    38614.337 
  263900    307.48533   -1471.1142    472.21685    383.26815   -269.21625    38614.337 
  264000    301.85378   -1466.4539    496.56016    386.95757    99.277918    38614.337 
  264100    305.93348   -1459.8652    495.56156    410.88622   -102.35131    38614.337 
  264200     290.3927   -1492.2312    486.60207    299.70394   -292.55991    38614.337 
  264300    301.74366   -1497.9537    481.13697    339.53966    213.33156    38614.337 
  264400    309.33802   -1482.0315    488.14342    396.60537   -26.250678    38614.337 
  264500    306.40136   -1495.5351    480.12261    361.88043   -39.079302    38614.337 
  264600    291.03191   -1464.9929    481.99286    325.20634   -57.294605    38614.337 
  264700    291.87205   -1447.5552     483.4739    347.90153     88.73989    38614.337 
  264800    301.62433   -1447.4782    472.73348    381.07522    55.292194    38614.337 
  264900    309.48846   -1434.1379     493.2597    450.29144    158.43268    38614.337 
  265000    286.98446   -1478.5784    480.05031    291.48469    346.12098    38614.337 
  265100    307.89776   -1436.3932     493.8566    441.48273    1363.5016    38614.337 
  265200    299.46309   -1467.9216    491.85938    370.04277    890.36199    38614.337 
  265300    304.15153    -1424.088     517.3556    460.44743    542.00254    38614.337 
  265400     299.4056   -1429.7852    497.71837    413.77976    1023.9755    38614.337 
  265500    296.93019   -1418.6325    460.80968    376.89662    902.45345    38614.337 
  265600    306.37094   -1432.8465    514.47789    458.78758    806.91891    38614.337 
  265700    299.29349   -1428.0991    505.27728    422.52084    772.61225    38614.337 
  265800    305.20267   -1442.7651    502.06598    431.20563    1068.1313    38614.337 
  265900     293.6627   -1511.7442    466.00795    274.29562    437.29255    38614.337 
  266000    307.91222   -1487.1917    519.10026     415.9929    735.45419    38614.337 
  266100    303.09238   -1483.9193    489.77938    368.27898    494.13674    38614.337 
  266200    296.99232   -1473.2145    488.55461     350.3389    501.44121    38614.337 
  266300    298.28412   -1479.6215    490.37531    351.55927   -134.45525    38614.337 
  266400    293.05569   -1477.1105    482.21621    322.40908     93.16985    38614.337 
  266500    313.52757   -1460.8822    467.83886    416.28236    497.13317    38614.337 
  266600    295.79524   -1509.1187    463.61334    284.11247    257.11565    38614.337 
  266700    298.89551   -1469.0202    487.13843    361.67195    26.294996    38614.337 
  266800     291.7431   -1441.6599    503.13007    372.87337   -98.404398    38614.337 
  266900    303.84306   -1428.4189     465.9582    403.33249    21.327391    38614.337 
  267000    287.73195   -1386.3456    525.09102     432.1182   -99.018024    38614.337 
  267100    297.46935   -1445.5675    496.54437    388.11996    71.135056    38614.337 
  267200     304.3035    -1477.206     475.4837    366.14072   -188.71186    38614.337 
  267300    301.66064   -1478.5117    472.33778    349.80924   -119.58491    38614.337 
  267400    302.66541   -1438.6075    477.55328    399.44542    711.66094    38614.337 
  267500    304.25132   -1439.7859    501.38777    429.23028    430.09752    38614.337 
  267600    301.69821   -1415.7495    482.00382    422.40634    914.47312    38614.337 
  267700    292.92803   -1449.8886    493.71248    360.55337    715.08277    38614.337 
  267800     298.1746   -1403.2953    495.24948    432.26738    41.474545    38614.337 
  267900    297.22686   -1415.5533    522.08088    442.58064   -9.1694479    38614.337 
  268000    306.35075   -1424.9218    502.12675    454.27041   -364.10047    38614.337 
  268100    306.14168   -1418.1798    488.78574    446.73163    55.444946    38614.337 
  268200    299.11791    -1440.982    490.87229    394.44368   -699.75022    38614.337 
  268300    299.81442   -1424.9695    497.37654    420.09137   -1198.3694    38614.337 
  268400    286.28546   -1427.5682    519.67793    378.98047   -1595.5661    38614.337 
  268500     306.4124   -1441.5508    513.36653    449.15828   -1158.7384    38614.337 
  268600    305.04473   -1421.3087    486.24112    436.12731   -835.96663    38614.337 
  268700    310.93833   -1492.9543     493.4588    398.19146   -350.53439    38614.337 
  268800    300.26303    -1441.757    500.78341    408.72719    -494.2415    38614.337 
  268900    289.51738   -1487.4346    509.36219    323.32598   -234.32073    38614.337 
  269000    304.49415   -1501.8125    504.78345    371.69086    -260.7351    38614.337 
  269100    301.09708   -1503.5697    493.98203    343.86224   -130.78394    38614.337 
  269200    299.65888   -1485.6987     504.0064    365.29282    19.590047    38614.337 
  269300    296.70466    -1497.772    487.80059    323.73425    37.644376    38614.337 
  269400    298.08868   -1489.0665    486.25592    337.11633    172.36939    38614.337 
  269500     293.5066   -1468.0635    489.16883    340.43555    163.45121    38614.337 
  269600     307.1277   -1475.0882    489.28093    394.75069    22.948697    38614.337 
  269700    314.33029   -1481.1711    454.32267    386.08561    398.01207    38614.337 
  269800    303.05717   -1495.3986    482.13785    348.99992    493.52847    38614.337 
  269900    295.51254   -1510.9755    452.06213    269.43367     490.2794    38614.337 
  270000    311.72857   -1474.9828    497.50774    423.76403   -139.08098    38614.337 
  270100    297.03904   -1469.4561    470.88151    336.63422    -213.8365    38614.337 
  270200    302.44424   -1435.8658    510.45628    434.09595    18.134079    38614.337 
  270300    303.14687   -1479.4493    498.39983    381.61433   -292.28887    38614.337 
  270400    293.32165   -1473.3697     475.6081    320.73729   -440.38935    38614.337 
  270500    315.84016   -1499.5005    495.77001     415.9905   -759.33815    38614.337 
  270600    298.53518   -1501.1506    490.83455    331.61794   -203.91157    38614.337 
  270700    308.40991   -1493.4662    487.19656    380.05184   -18.411769    38614.337 
  270800    310.94815   -1489.3758    490.35364    398.70891    -23.12101    38614.337 
  270900    300.96679   -1484.9437     479.4967    347.41718    521.40164    38614.337 
  271000    296.43228   -1481.0528    471.85885    323.28744    710.91616    38614.337 
  271100    307.17605   -1480.5142    507.34641    407.60743     483.8175    38614.337 
  271200    303.19372   -1425.4038    505.39775    442.86833    254.84917    38614.337 
  271300    300.81754   -1491.5098    482.93024    343.61377    84.435105    38614.337 
  271400    301.10636   -1442.5619    497.38612    408.31589    414.22973    38614.337 
  271500    293.54686   -1443.3258    491.56682    367.75218    81.945687    38614.337 
  271600    303.31959   -1428.3321    493.92875    429.03686    269.04738    38614.337 
  271700    304.75273   -1447.0696    500.51957     423.3322    182.05774    38614.337 
  271800    303.67688    -1442.359    479.97529    402.66256   -342.71211    38614.337 
  271900    297.91853   -1436.9711    475.20422    377.39528    386.98087    38614.337 
  272000    295.29312   -1468.3113    493.04084    352.09023    914.00674    38614.337 
  272100    300.01913   -1437.6459    486.06225    397.02082    369.22034    38614.337 
  272200    298.43793   -1428.6283    501.71927    414.58786    349.96677    38614.337 
  272300    302.39835   -1441.2708    493.16703     411.1954    427.68558    38614.337 
  272400    295.55128   -1464.5216    485.64232     349.6419    300.15453    38614.337 
  272500    305.28937   -1478.7283     480.0088    373.57497    303.93657    38614.337 
  272600    303.82377   -1438.5352     512.5319    439.70326     458.6876    38614.337 
  272700    293.51005    -1439.148    470.52053    350.71828    238.79061    38614.337 
  272800    303.12067   -1425.5986    504.68132    441.62884   -461.23373    38614.337 
  272900    304.93927   -1434.7629    478.33279    414.29069   -391.64838    38614.337 
  273000    292.49732   -1432.3861    517.78311    400.19041   -348.58067    38614.337 
  273100    309.29525   -1447.1257    494.39343    437.56886    94.951661    38614.337 
  273200    294.35528   -1471.5817    468.57145    320.13485    395.41366    38614.337 
  273300    307.99695   -1463.0746    492.69893    414.08955    755.95423    38614.337 
  273400    306.61576   -1457.0585    452.95326    374.15149    415.89685    38614.337 
  273500    296.97648   -1483.0157    485.96359    337.87549    361.78463    38614.337 
  273600    308.39718   -1453.7317    484.48162    417.01425     669.1378    38614.337 
  273700    300.56855   -1479.4751    479.69764    351.29669    487.83664    38614.337 
  273800    307.32491   -1517.1801    464.25338    328.51767   -85.929043    38614.337 
  273900     300.1698   -1492.8689    490.33612    346.74894    -264.7794    38614.337 
  274000    301.94739   -1493.5952    497.72484    361.40171    283.12892    38614.337 
  274100     301.6846   -1490.0719    471.82544    337.84443    27.030166    38614.337 
  274200    292.29962   -1447.8129    481.12696    347.21883   -612.80622    38614.337 
  274300    291.35178   -1440.3367    468.90103    338.20855   -1119.6657    38614.337 
  274400    300.14897    -1463.328    500.05976    385.91982   -793.62819    38614.337 
  274500    305.65429   -1493.0502    458.10759    338.99225   -1010.1196    38614.337 
  274600    291.95736   -1504.1715    490.98716    299.18199   -786.89776    38614.337 
  274700    292.21403   -1502.2847     489.0191    300.25444   -250.59448    38614.337 
  274800       297.48   -1519.2289    474.86694    292.82892   -573.22713    38614.337 
  274900    303.70781   -1520.5828    460.56586    305.16839    49.183786    38614.337 
  275000    302.64902   -1521.0523    478.96666    318.34034    19.922475    38614.337 
  275100      303.606   -1521.9563    453.13635    295.90772    361.55741    38614.337 
  275200     284.7347   -1528.7477    464.23119    215.38345    353.49722    38614.337 
  275300    300.27789   -1506.2866    468.92889    312.40989    333.56452    38614.337 
  275400    300.30179   -1565.1668    476.00314    260.71137   -68.410882    38614.337 
  275500    308.14424   -1494.2908    462.90158    353.73813    287.12803    38614.337 
  275600    306.46536    -1480.573     480.8261    377.83379   -275.51671    38614.337 
  275700     298.8757   -1460.0993    473.36893    356.73432   -378.72068    38614.337 
  275800     297.0953   -1478.4715     492.7212    349.71133   -370.30497    38614.337 
  275900    296.30984   -1501.5048     448.0454    278.47155   -332.64861    38614.337 
  276000    305.16937   -1486.4219    475.52574    360.85895    162.39504    38614.337 
  276100    302.63333   -1489.2948     492.9751    364.03579    87.955946    38614.337 
  276200    300.73079   -1493.9039    492.01675    349.91623    246.30744    38614.337 
  276300    294.26115   -1472.4217     473.8161    324.11638    666.20579    38614.337 
  276400    286.53092   -1470.6822    467.28184    284.57375    133.54472    38614.337 
  276500     311.6613   -1463.6465    483.39542     420.6856    217.99218    38614.337 
  276600    295.68576   -1475.6178    473.67715    327.18506   -348.72158    38614.337 
  276700    299.05963   -1431.2188    516.45658     429.5292   -756.80233    38614.337 
  276800    309.65004   -1460.0328    457.69717     389.5604   -117.86889    38614.337 
  276900    304.79575   -1467.5306    492.57978    395.12479   -264.47448    38614.337 
  277000    295.42282   -1477.9159    491.67683     341.7047    79.533565    38614.337 
  277100    294.74297   -1457.6011    510.59301    377.87968   -127.96978    38614.337 
  277200    300.39734   -1446.8902    490.60887    394.02321   -82.154785    38614.337 
  277300    292.90034    -1460.855    478.60065    334.35067    340.55673    38614.337 
  277400    295.67308   -1453.8263    485.68106    360.92346    87.248328    38614.337 
  277500    304.49367   -1465.0345    509.90506    413.58831    114.80417    38614.337 
  277600     305.6749   -1457.9763    471.60459    387.65574    791.64517    38614.337 
  277700    294.72495   -1472.2949    513.77458    366.28647     856.6294    38614.337 
  277800    310.18799   -1453.6627    482.33258    422.98399     950.1954    38614.337 
  277900    312.65208   -1458.9862    472.16263    418.56675    781.72792    38614.337 
  278000    302.98075   -1475.0518    480.93131    367.79666    360.55616    38614.337 
  278100    308.79553   -1451.3553    506.10567     442.8053    788.25493    38614.337 
  278200    300.30969   -1456.4451    465.20012    358.66554    383.66605    38614.337 
  278300    312.54649   -1445.2431    517.87418    477.54679   -318.14657    38614.337 
  278400    297.18662   -1498.1642    457.53837    295.24634   -25.927797    38614.337 
  278500    294.34217   -1473.9564    479.25151    328.38128    113.67792    38614.337 
  278600    301.41993   -1474.4949    497.53352    377.93972   -135.63845    38614.337 
  278700     299.0823   -1477.5254    498.80198    365.66995     335.7852    38614.337 
  278800    306.35478   -1502.9948    457.76754    331.85633    174.00628    38614.337 
  278900    303.48504   -1501.5938    470.06964    332.65981    107.62514    38614.337 
  279000    294.71639   -1477.4617    479.81993    327.12659    205.13326    38614.337 
  279100    295.51357   -1490.4876    478.44098    316.30512   -81.564046    38614.337 
  279200    295.79623   -1471.1484    492.76626    351.24015   -57.182653    38614.337 
  279300    285.54619   -1446.8699     483.6456    320.32337    559.48468    38614.337 
  279400    298.15541   -1442.7914    484.43711     381.8726    451.18296    38614.337 
  279500    299.36362   -1490.0675    483.61898    339.20943    372.97858    38614.337 
  279600    293.59325   -1486.3168    501.60445    335.00737    825.33269    38614.337 
  279700     304.7579   -1539.5774    479.33122    309.65938    868.95583    38614.337 
  279800    288.82252   -1521.4311    473.98689    250.83082    3.4313088    38614.337 
  279900     304.1896   -1475.5976    464.73456    356.48794    228.01168    38614.337 
  280000    310.83872   -1422.8059    477.84218    452.27545    171.45831    38614.337 
  280100    303.13497   -1473.7132    490.49996    379.39706   -26.592862    38614.337 
  280200    300.36933   -1465.7901    467.74705    352.13553   -414.86983    38614.337 
  280300    292.92095   -1438.3658    481.46737    359.79929   -329.21753    38614.337 
  280400    301.97376   -1428.6488    506.36122    435.10311   -282.03218    38614.337 
  280500    291.20606   -1457.5356    473.46382    324.91739   -20.711856    38614.337 
  280600    292.99961   -1443.1228    494.67382    368.60229    240.53347    38614.337 
  280700    300.90546    -1465.185    490.24051    377.64412    794.09361    38614.337 
  280800    286.81316   -1495.4116     482.6554    276.48661   -159.28329    38614.337 
  280900    303.05669   -1475.1131    492.88908    380.03444    26.536675    38614.337 
  281000    297.03616   -1427.2477    489.62907    397.57722    8.4488925    38614.337 
  281100    302.25084   -1450.2197    491.67502    400.09141   -534.36328    38614.337 
  281200    294.44654    -1450.049    485.75472    359.26099    -428.5347    38614.337 
  281300    288.44392   -1479.3851    472.29559     289.4837   -600.24712    38614.337 
  281400    305.19852   -1481.9821    481.91883    371.82283   -127.03164    38614.337 
  281500    303.87879   -1485.9371    470.95607    350.97288   -198.87648    38614.337 
  281600    308.42773   -1430.1955    496.90734    453.11347   -255.14389    38614.337 
  281700     292.6454   -1493.1361    471.76856    294.09157    -274.2017    38614.337 
  281800    313.76644   -1417.2636    485.03595    478.17184    101.33294    38614.337 
  281900    304.85547   -1414.5639    474.71295    430.49321      682.723    38614.337 
  282000    303.23228    -1462.652     512.6572    413.05296     178.8277    38614.337 
  282100     306.4227   -1475.8722     464.3608    365.87747    334.62457    38614.337 
  282200    305.64341   -1473.9855    465.65988    365.56033    834.83983    38614.337 
  282300    315.70244    -1457.378    485.31879    447.04264     713.6356    38614.337 
  282400     293.2857   -1423.4891     486.0315    380.87963    181.01063    38614.337 
  282500    288.30626   -1478.0669    457.67046    275.55798    33.863631    38614.337 
  282600    296.42041   -1463.8655    480.73221    349.29466   -239.20753    38614.337 
  282700    305.86853   -1505.0111    486.87303    356.75983   -49.939823    38614.337 
  282800    304.60917    -1493.819    477.91767    353.33565    66.496282    38614.337 
  282900    293.46338   -1505.9185    453.74318    266.96067    108.68985    38614.337 
  283000    297.75813   -1471.1412    494.75566    362.05563    320.24201    38614.337 
  283100    302.72822   -1475.4209    493.60185    378.96296    708.42716    38614.337 
  283200    293.04082   -1486.7298     484.7536    315.26036    372.43971    38614.337 
  283300    297.73437   -1480.0468    518.90703    377.19451   -201.33089    38614.337 
  283400    306.27769   -1466.9368    464.79218    374.59243   -188.49205    38614.337 
  283500     295.7965   -1433.3077    463.86111    360.17684   -745.68518    38614.337 
  283600    301.84048   -1430.9897    515.11316    440.91501   -743.55858    38614.337 
  283700    300.57924   -1505.9903    500.72337    345.85532   -627.16283    38614.337 
  283800    299.00355   -1471.9078    469.84168    341.97328   -179.97975    38614.337 
  283900    299.13164   -1529.4406    474.45507    289.62957    20.557678    38614.337 
  284000    294.68761   -1540.9394    496.64326    280.34284   -466.44257    38614.337 
  284100     293.8231   -1481.5063    484.59582    323.84248   -357.17459    38614.337 
  284200    309.88499   -1475.2818    489.10431    406.77461    323.28718    38614.337 
  284300    302.19895   -1504.3053    498.00099    352.09854   -244.84285    38614.337 
  284400    306.30092   -1458.1194    479.81374    398.53584   -324.82136    38614.337 
  284500    296.68105   -1494.8496    464.34305    303.09302   -14.113562    38614.337 
  284600     298.9078   -1537.0164    483.34892    289.94145   -178.86553    38614.337 
  284700    308.43128    -1518.162    488.49469    356.75029    585.17753    38614.337 
  284800     299.9352   -1498.1636    468.61227    318.67585    238.53189    38614.337 
  284900    304.72017   -1554.9934    492.15874    306.90128    380.98105    38614.337 
  285000    297.33911   -1528.1306    480.98118    289.40815     15.56553    38614.337 
  285100    301.36773   -1456.3576    460.09462    358.40349   -601.83767    38614.337 
  285200    302.73582   -1460.5911    472.71175    372.93682   -394.01353    38614.337 
  285300    301.35322    -1470.605    493.73952    377.73577   -550.44463    38614.337 
  285400    294.08422   -1495.3598    464.95915    291.52604   -475.67288    38614.337 
  285500     302.4468   -1469.4933    468.92513    358.94886   -394.37277    38614.337 
  285600    302.46756   -1436.5289     503.8746    426.95597   -348.61736    38614.337 
  285700    299.70924   -1473.5982    471.04226    344.65555    28.504653    38614.337 
  285800    301.85614   -1471.8559    501.47658    386.48255    346.61571    38614.337 
  285900    297.72319   -1484.8808    485.26183    338.66511    466.57821    38614.337 
  286000    312.91396   -1460.4705     476.9056    423.00259    387.14402    38614.337 
  286100    295.67158   -1476.9006    472.93388     325.0952   -434.04559    38614.337 
  286200    304.32668    -1480.034     484.5718    372.50496   -41.390213    38614.337 
  286300    304.48279   -1434.2856     479.1823     413.5656   -344.22791    38614.337 
  286400    299.25011   -1471.7229    480.90614    354.33092   -1070.6336    38614.337 
  286500      282.193   -1489.2398    473.33198    252.56715   -983.20963    38614.337 
  286600    291.66533   -1459.6008    462.26641    313.71922   -1174.1338    38614.337 
  286700    306.72057   -1444.4927    505.16624    439.40139   -850.86796    38614.337 
  286800    289.87252   -1460.5318    477.67344    320.13649   -613.28122    38614.337 
  286900    288.22216   -1450.4895    500.67346    345.76025   -572.37855    38614.337 
  287000    298.84668    -1483.183    502.09071    362.24195    -490.3354    38614.337 
  287100    300.65388   -1444.4607    469.37024     376.3672   -239.06841    38614.337 
  287200    295.92577   -1440.4593    502.94674    392.69197   -71.438388    38614.337 
  287300    295.16237   -1460.5725    469.43278    335.63332    134.67208    38614.337 
  287400    307.57613   -1465.2232    506.13301    423.48346    633.67009    38614.337 
  287500    299.96278   -1437.8751    492.57003    403.04613    638.60144    38614.337 
  287600    297.14755   -1436.7441    504.07611    403.02849    606.91925    38614.337 
  287700     306.7583   -1454.2189    504.91804    429.59659    508.94433    38614.337 
  287800    312.19225   -1443.7457    494.77606     454.3537    757.86109    38614.337 
  287900    301.50021   -1488.0328    493.23747    360.46671    113.21874    38614.337 
  288000    299.04261   -1455.5299      480.702      369.387   -419.00409    38614.337 
  288100    308.92664   -1493.6352    496.60661     391.6157   -765.50331    38614.337 
  288200    311.64436   -1473.2386     490.3484    417.97041   -220.33647    38614.337 
  288300    303.06382   -1472.5137    504.06927    393.84608     176.6691    38614.337 
  288400    298.76197   -1440.5653    494.52665    396.91482    300.78471    38614.337 
  288500    295.43083   -1492.6473    483.87759    319.21006     503.4394    38614.337 
  288600    299.47583    -1455.165    505.63319    396.63044    627.45894    38614.337 
  288700    302.52088    -1449.255    496.36769    406.96266    78.401889    38614.337 
  288800    301.25166   -1470.1202    489.43658     373.4611    303.72177    38614.337 
  288900    301.80735    -1462.133    504.26211    398.77176    244.37703    38614.337 
  289000    296.82805   -1508.4852    484.27341    310.04861   -605.04503    38614.337 
  289100    301.79264   -1499.6067    471.20644    328.17621   -103.27421    38614.337 
  289200    289.08877   -1523.2702    502.86275    279.06436   -417.18352    38614.337 
  289300    302.19303    -1482.218    499.98181    376.14006   -294.16317    38614.337 
  289400    292.77068   -1494.7041     476.6725    297.99064   -113.57014    38614.337 
  289500    305.71682   -1509.5068    497.85578    362.56486     269.4724    38614.337 
  289600    293.79454   -1493.7898    475.31391     302.1486   -165.95509    38614.337 
  289700    297.72926   -1492.9564    501.36474    346.71968    285.27404    38614.337 
  289800    294.56678    -1524.118    473.77569     273.7535   -143.44445    38614.337 
  289900    293.69315   -1490.6329    497.94008    327.47598    -222.5043    38614.337 
  290000    297.20611   -1549.4482    480.32252    266.83405   -732.84711    38614.337 
  290100    300.63341    -1493.774    477.94042    335.53213    -177.0678    38614.337 
  290200    300.32803   -1491.9837    492.53806    350.54733   -437.87614    38614.337 
  290300     289.3276   -1513.1598    496.52243    283.90797    100.92807    38614.337 
  290400    292.48511    -1543.484    509.98884    281.24344    180.72174    38614.337 
  290500    310.05518   -1545.7519    507.78293    355.74814    664.97872    38614.337 
  290600    295.74205   -1562.5118    467.94993    234.81683    627.44767    38614.337 
  290700    305.23662   -1515.1501    497.58771    354.49498    325.52231    38614.337 
  290800    305.19366     -1544.74    466.96724    294.09147   -40.231112    38614.337 
  290900    303.76438   -1519.4427    513.01081    359.00768   -546.03791    38614.337 
  291000    291.19838   -1556.8771    484.53975    236.61728   -462.99993    38614.337 
  291100    298.37881   -1501.5691    490.17668    329.83866    66.742847    38614.337 
  291200    291.49091   -1484.0587    475.92092    302.13175    77.726524    38614.337 
  291300    299.15575   -1448.0968    497.46569    394.09242   -44.461427    38614.337 
  291400    289.89732   -1488.9576    522.58864    336.73737    6.6118612    38614.337 
  291500    294.33308   -1424.5231    512.58047    411.10268   -454.52582    38614.337 
  291600    293.75415   -1458.2058    499.32565    361.56288    -95.57983    38614.337 
  291700    299.08158   -1470.6145    497.30051    371.07608   -284.52057    38614.337 
  291800    300.44991   -1480.4329    495.58901    365.69696   -427.63389    38614.337 
  291900     285.2402    -1462.525    463.13766    282.78489   -843.32767    38614.337 
  292000    302.12736   -1475.1269     507.9754    390.92954   -581.56307    38614.337 
  292100    300.54824   -1413.4221    521.53183    459.09259   -249.29282    38614.337 
  292200    306.66222   -1429.6983    489.97572    438.74299     27.39118    38614.337 
  292300    291.31869   -1489.7785    485.22762     304.9446   -630.77037    38614.337 
  292400    294.73002   -1487.5481    495.94891    333.23045    332.32889    38614.337 
  292500    297.68099   -1488.5534    494.37774    343.91865   -397.89401    38614.337 
  292600    292.76698   -1441.8067    470.88058    345.07943    175.91034    38614.337 
  292700     285.5994   -1475.7161    493.66007    301.73083   -520.51445    38614.337 
  292800    294.48991   -1502.4357    470.12996    291.44451   -147.74951    38614.337 
  292900     309.0584   -1476.2628     489.5695     402.5432   -118.02964    38614.337 
  293000    301.94493   -1458.3717    494.98972    393.87912   -164.61446    38614.337 
  293100     307.7877   -1504.5363    486.66593    365.65429    186.69211    38614.337 
  293200    292.15122   -1545.2473    461.60674    229.59718   -110.22869    38614.337 
  293300    297.81901   -1484.1317    472.21651    326.79953   -189.40222    38614.337 
  293400     304.8736   -1524.0039     496.7645    343.18615    -618.6819    38614.337 
  293500    293.13903   -1523.8221    465.62993    259.48575   -257.07927    38614.337 
  293600    291.04997   -1514.1255    492.59619    286.75826   -494.47543    38614.337 
  293700    305.30365   -1506.7719    467.69234    333.27912   -42.489145    38614.337 
  293800     298.8421   -1528.1869    485.97646    301.10323   -131.08356    38614.337 
  293900    299.48618   -1507.2335    496.87438    335.84965    229.81342    38614.337 
  294000    306.83739    -1495.253    496.55523    380.55518    522.27173    38614.337 
  294100    295.58761   -1538.5824    491.97117    282.07326    406.72412    38614.337 
  294200    295.11311   -1510.6567    492.39732    308.29222    222.82828    38614.337 
  294300    295.91508   -1522.9342    455.86623    263.08848    376.99824    38614.337 
  294400    304.16627   -1518.9151    482.20238    330.53341    223.13795    38614.337 
  294500    304.93471   -1489.2645     501.3902    382.82599    421.20562    38614.337 
  294600    292.00112   -1531.1014    496.61936    278.08096   -63.927577    38614.337 
  294700    303.77142   -1542.4478     480.0075    303.03094    56.171213    38614.337 
  294800    291.00587   -1521.0121    486.32151    273.39876   -683.50416    38614.337 
  294900     302.6953   -1506.5419    487.26191    341.35401   -706.62599    38614.337 
  295000    296.10856   -1553.8449    472.08884     249.2701   -583.07402    38614.337 
  295100    304.95079   -1536.6137    491.82609    325.98499   -245.08156    38614.337 
  295200    303.63489    -1515.856    480.30031    329.30181   -320.00829    38614.337 
  295300    297.39629   -1552.7211    489.42691    273.52041    183.44167    38614.337 
  295400    294.00129   -1561.3468    500.68851    260.89563    586.37165    38614.337 
  295500    292.65637   -1517.8076     478.2584    275.95915   -297.35932    38614.337 
  295600    306.18574   -1550.8417    490.33202    315.81411   -64.776768    38614.337 
  295700    301.27558    -1554.844    505.19204    304.60034     488.4553    38614.337 
  295800    292.41997   -1541.9229    485.32416    257.84704    313.31828    38614.337 
  295900    295.34591   -1514.7692    500.57418    313.40304   -11.055548    38614.337 
  296000    302.41498   -1503.6478    491.07433    346.80045   -470.57319    38614.337 
  296100    294.34254   -1495.6341    477.82698    305.28074   -698.01044    38614.337 
  296200    304.96734    -1516.927    494.15752    348.07751    -119.4381    38614.337 
  296300    314.06966    -1469.121    510.46261    453.10404    326.93184    38614.337 
  296400    304.44604   -1465.4474    527.16452    430.22083    402.65762    38614.337 
  296500    300.09642   -1474.9476    499.87521    373.87952    400.92143    38614.337 
  296600    295.33275   -1488.1298    478.70766    318.11676    657.06843    38614.337 
  296700    303.17565   -1546.7479    485.50747    301.55277    493.63116    38614.337 
  296800    308.30066   -1533.9943    503.88193    355.71807    131.45317    38614.337 
  296900    296.13703   -1513.3367    474.56929    292.38677    -138.2419    38614.337 
  297000     304.5889   -1513.3063    496.53711    352.37669   -433.28161    38614.337 
  297100    299.31283   -1504.8419    490.37921    330.96694   -876.27562    38614.337 
  297200    297.30006   -1554.0377    477.08921    259.43361   -826.40145    38614.337 
  297300    295.00415   -1552.3195    508.44646    282.18876     -688.023    38614.337 
  297400     300.4774   -1547.1402    503.40464    306.92885   -566.40891    38614.337 
  297500    311.91623   -1510.3924    505.29027    396.98048    46.566362    38614.337 
  297600    305.66742   -1528.8226    488.86728    334.03859    449.37139    38614.337 
  297700    299.00372   -1491.5555    482.74885    335.23347   -64.530212    38614.337 
  297800    301.22405   -1510.9708    472.42592     315.4758   -421.12183    38614.337 
  297900    299.68382    -1520.231    483.12378    309.99005   -173.59967    38614.337 
  298000    290.70261    -1485.557    501.58416    322.75332    153.35119    38614.337 
  298100    297.13113   -1508.7326    502.11023    329.00039   -30.119192    38614.337 
  298200    310.65256    -1522.587    539.62056    413.43597     348.6361    38614.337 
  298300    307.13022   -1523.8265     475.0836    331.82638    642.43624    38614.337 
  298400    295.61892   -1537.3378    490.53203    282.01949   -62.373844    38614.337 
  298500    300.68441   -1547.4302    474.32441    278.48916   -253.33529    38614.337 
  298600    297.66805   -1518.3419    500.39344     320.0877   -267.43435    38614.337 
  298700    303.58758   -1498.9432    484.64273    350.34437    225.67916    38614.337 
  298800    292.75189   -1515.7547    490.28183    290.46486     163.7574    38614.337 
  298900    293.22681   -1506.7219    481.58101     292.9317   -58.103937    38614.337 
  299000    300.20044   -1486.0745    504.11706    367.46203    384.25293    38614.337 
  299100    300.53021   -1462.2824     501.0505    389.66992   -79.282326    38614.337 
  299200    307.76742   -1489.9884    494.65065    388.09575   -499.28808    38614.337 
  299300    302.15351   -1507.1645    502.80004    353.83415   -237.51679    38614.337 
  299400    292.63545   -1492.3427    515.10808    338.17974    30.019507    38614.337 
  299500     310.9283   -1502.9791    496.31095    390.97371    184.65045    38614.337 
  299600    297.41514   -1510.7798    493.71804    319.83764   -407.10296    38614.337 
  299700    292.50779   -1533.9145    463.67105    244.59708   -186.57885    38614.337 
  299800    309.34975   -1513.4915    478.99475    356.04938    79.521277    38614.337 
  299900    302.13531   -1511.3175    498.32062    345.11998    435.69364    38614.337 
  300000    298.76359   -1508.0609    481.13593    316.03583    170.97555    38614.337 
  300100    295.82274   -1500.8761    510.25949     339.1248   -429.81739    38614.337 
  300200    300.54308   -1475.5356    505.05835    380.48239   -9.6046581    38614.337 
  300300    294.33993    -1513.213    493.73307    303.59617   -676.83445    38614.337 
  300400    317.71036   -1494.8641    474.81066     408.0742    171.13738    38614.337 
  300500    314.40766   -1477.6628    509.89382    445.51278    424.15653    38614.337 
  300600    300.65353   -1477.5439    500.66217    374.57444   -114.17972    38614.337 
  300700     297.8236   -1484.3572    487.40849    341.78667   -299.45094    38614.337 
  300800    305.49461   -1512.7557    466.00916    326.47053   -245.00037    38614.337 
  300900    300.87165   -1500.8271    487.91961    339.52909   -216.38359    38614.337 
  301000    294.78968   -1525.3891    490.95078    290.65943   -271.25406    38614.337 
  301100     293.6458    -1471.398    526.23228    374.79022   -322.17117    38614.337 
  301200    287.13486   -1527.7902    492.98451    255.88317   -957.63712    38614.337 
  301300    307.28278   -1498.6948    489.18514    371.74536   -107.70375    38614.337 
  301400    305.91743   -1546.7589    480.04759    308.40637   -336.33055    38614.337 
  301500    295.78395   -1583.5659    502.33772    248.33886   -282.12297    38614.337 
  301600    294.01528   -1559.4655    496.94326    259.09454    342.78818    38614.337 
  301700    301.42612   -1528.9592    482.13516    308.10491   -6.3861232    38614.337 
  301800    290.93549   -1492.0152    496.25998    312.01767   -298.79005    38614.337 
  301900    301.74171    -1491.943    494.71095    359.11548   -13.518558    38614.337 
  302000     295.4921   -1570.3356    489.85238    247.77194    197.63207    38614.337 
  302100    297.89302   -1528.0339    517.42783    328.44135    226.55369    38614.337 
  302200    303.23255   -1532.7118    517.33976    347.67692   -647.71013    38614.337 
  302300     299.4782   -1581.2361    467.71312    232.65002   -535.44075    38614.337 
  302400    286.79094   -1552.8276    500.23563      236.551   -513.66519    38614.337 
  302500    302.01678   -1527.2233    501.69797    332.05869   -298.69197    38614.337 
  302600    294.73191   -1510.0412    502.31521    317.11206    74.358691    38614.337 
  302700    297.31175   -1503.2197    495.91029    329.12521   -552.17745    38614.337 
  302800     295.6319    -1532.291    512.25877    308.85137   -588.84257    38614.337 
  302900    297.02001   -1549.0156    475.74653    261.85412    199.70484    38614.337 
  303000    302.79881   -1527.4417    499.92649    333.58405    110.14079    38614.337 
  303100    308.43078   -1528.4931    492.05414    349.97643    56.450376    38614.337 
  303200    307.91728   -1546.1361    477.86037    315.83137    545.95004    38614.337 
  303300    291.39244   -1515.4331    485.87926    280.27316   -120.26915    38614.337 
  303400    295.72867   -1507.1227    507.06925    329.26511    612.55232    38614.337 
  303500    296.50782   -1541.6191    485.96693    277.16873   -151.02057    38614.337 
  303600    307.69292   -1525.5647    494.97177    352.50572    65.067183    38614.337 
  303700    305.34006   -1520.7583    495.65441     347.4185   -706.12121    38614.337 
  303800    291.74327   -1502.6902    484.02859    292.74231   -1387.7399    38614.337 
  303900    299.24142   -1514.8101      488.192    318.49048   -1375.3588    38614.337 
  304000    295.70699   -1526.2235    489.42482    292.42244   -664.22546    38614.337 
  304100     295.9505   -1570.1516    502.03617    262.20033     564.6199    38614.337 
  304200    300.95405   -1518.9884    483.75489    317.57349    445.84769    38614.337 
  304300    298.88695   -1503.5747     509.9749     349.9154    593.49889    38614.337 
  304400    301.12253   -1534.5008    506.92965    325.99317    722.83496    38614.337 
  304500     299.6119   -1520.9194    502.36934    328.22387    693.78908    38614.337 
  304600    300.53176   -1492.8638    501.90289    359.94786    870.21606    38614.337 
  304700    303.78055   -1510.7656    489.98843    344.73513    246.44904    38614.337 
  304800    284.99451   -1549.9345    493.72411    224.85752    624.09525    38614.337 
  304900    301.83467   -1513.7175    488.06431    331.11219    21.511352    38614.337 
  305000    293.69008   -1540.2665    473.34207    253.23054   -278.60262    38614.337 
  305100    307.91854   -1519.1499    493.03708          358    435.88386    38614.337 
  305200    298.12968   -1528.7122    504.37903    315.77812    255.71879    38614.337 
  305300    306.58366   -1535.2305    513.70978    356.59171    23.329864    38614.337 
  305400    310.29515   -1540.1365    472.49887    327.15814   -67.141708    38614.337 
  305500    297.31916   -1593.1365    472.51957    215.85101   -582.03582    38614.337 
  305600    305.58394   -1537.0614    501.98967    338.54692   -190.78535    38614.337 
  305700    291.58474   -1506.9246    468.18922    271.95601    25.321031    38614.337 
  305800    310.82133   -1523.4066    524.79899    398.55344    117.80377    38614.337 
  305900     297.6522   -1531.8327    513.67891     319.8112   -21.050078    38614.337 
  306000    313.05117   -1540.9261    506.10425     372.3624   -447.05527    38614.337 
  306100    301.73769    -1510.587     495.9088     341.6513   -803.81829    38614.337 
  306200    296.59809   -1513.6287    487.81253     307.4105    -671.4034    38614.337 
  306300     299.7883   -1459.2808    515.97428    404.26036   -410.63533    38614.337 
  306400    311.00988   -1482.6765    500.63994    415.97204   -543.49988    38614.337 
  306500    289.31711    -1500.963    500.16385    299.69906   -149.08346    38614.337 
  306600    307.78936   -1475.1784    534.25508    442.60882    198.04169    38614.337 
  306700     295.0164   -1457.9951    506.23806    374.35984    96.015196    38614.337 
  306800    303.54016   -1486.7423     490.1005    367.78994    78.396646    38614.337 
  306900    293.02075   -1497.7752    489.25851    308.62964    709.10784    38614.337 
  307000    303.43464   -1491.1715    520.84778    393.63363    893.00964    38614.337 
  307100    304.63804   -1505.0152    515.14101    379.49255    615.02127    38614.337 
  307200    292.98021   -1460.2161    522.42266    379.17063    815.48145    38614.337 
  307300    294.43127    -1488.401    499.12051     334.2062     592.1646    38614.337 
  307400    306.05058     -1502.12    505.03312    378.62936   -39.547446    38614.337 
  307500    303.63217   -1493.8575    519.38052    390.36835    154.97811    38614.337 
  307600    291.67053   -1500.7051    489.52878    299.90066   -262.27059    38614.337 
  307700    309.10787   -1476.3169     496.3721    409.51409    537.36072    38614.337 
  307800    307.00546   -1469.4143    513.43657    424.03073    191.77161    38614.337 
  307900    298.70614   -1438.2036    514.84666    419.34554      324.155    38614.337 
  308000    306.07256   -1491.6551    517.23793    401.39785     499.9749    38614.337 
  308100    304.13893   -1468.5501    546.01159    444.58469    190.00829    38614.337 
  308200    296.13658   -1434.2208    513.37024    410.30156    37.441802    38614.337 
  308300    306.50021   -1487.5468    489.56581    379.75629   -276.58454    38614.337 
  308400    310.54692   -1506.0139    469.65868    359.57226   -335.51505    38614.337 
  308500    290.42406   -1504.7537    506.92602    307.64633   -374.99389    38614.337 
  308600    297.05157   -1436.3615     512.9104    411.81402   -304.85633    38614.337 
  308700    306.95916   -1517.3876    514.18273    376.59547   -159.44095    38614.337 
  308800    295.86083   -1490.9181    491.29648    330.29101   -251.58553    38614.337 
  308900    292.29646   -1514.3127    485.22422    284.80211   -526.64985    38614.337 
  309000    297.79359   -1526.6458    511.20183    323.15661   -139.76886    38614.337 
  309100    306.52947   -1522.9348    487.42084    342.35486   -519.64388    38614.337 
  309200    303.60999   -1502.8459     482.4155    344.31517   -271.11283    38614.337 
  309300    311.09001   -1501.8387    503.04239    399.57247    126.57846    38614.337 
  309400    299.01118    -1531.198    529.22986    342.10555    99.950985    38614.337 
  309500    299.19924    -1574.914    474.17653    244.18151   -420.13705    38614.337 
  309600    307.38933   -1528.5262    480.55575    333.76353    20.875311    38614.337 
  309700     286.1958   -1535.3689    485.27526    236.37414   -199.85261    38614.337 
  309800    300.73773   -1555.3889    484.42518    280.87086     172.7573    38614.337 
  309900    303.85282   -1531.2158    502.55604    337.17738   -255.09709    38614.337 
  310000    296.25478   -1519.0882    516.76168    329.35695   -322.23985    38614.337 
  310100    292.15193   -1500.9782     494.3533    306.61601   -269.12673    38614.337 
  310200    311.84267    -1493.372    495.67087     404.0509    247.40642    38614.337 
  310300    290.63589   -1514.0725     500.7753    293.12906   -122.17045    38614.337 
  310400    295.06529    -1567.877    486.37206    244.83167   -249.98678    38614.337 
  310500    302.06096   -1532.7262    501.09692    326.15335   -133.48051    38614.337 
  310600    307.72276    -1500.342    491.85643    374.74718    -15.95069    38614.337 
  310700    299.23423   -1492.9551    507.15697    359.27815   -54.262298    38614.337 
  310800    295.41329   -1533.2759    515.92211    310.54711    63.225945    38614.337 
  310900    308.75549   -1467.2628    509.09545     429.7076    149.85316    38614.337 
  311000    297.84884   -1486.6616    483.10889    335.29613    226.45843    38614.337 
  311100    305.44736   -1542.5438    488.53157    318.99245    159.47463    38614.337 
  311200    298.98673   -1524.5944      524.174    343.54339   -255.51327    38614.337 
  311300     304.8285    -1481.123    482.66899    371.76882   -198.59267    38614.337 
  311400    305.47022   -1505.2894    492.39393      360.212    409.92132    38614.337 
  311500     293.2474   -1542.0105    490.04442    266.19905    -480.7051    38614.337 
  311600    300.49722   -1516.8879    504.33633    338.20192   -20.788045    38614.337 
  311700    291.03821    -1535.345    476.99075    249.88037   -384.21981    38614.337 
  311800    307.44816   -1527.7342    507.61728    361.88155    423.42591    38614.337 
  311900    296.15932    -1561.307    485.80287    255.75027    411.32942    38614.337 
  312000    309.61312   -1513.8567     502.1461    380.01945    388.36701    38614.337 
  312100    304.90055   -1534.8111    494.42179     330.1574   -489.77661    38614.337 
  312200    299.77717   -1487.9332    518.31183    377.89547   -317.44297    38614.337 
  312300    293.04765   -1538.0466    465.17822    244.39881   -637.78067    38614.337 
  312400    304.52305   -1527.7178    472.93587    314.06792   -521.78117    38614.337 
  312500    307.73713     -1490.85     487.7803    380.22762   -486.06732    38614.337 
  312600    298.60249   -1464.8378    498.26794    375.66672   -457.62812    38614.337 
  312700    306.10922   -1493.7174    502.60793    384.87035   -438.23947    38614.337 
  312800    304.73973   -1526.7884    490.07541    333.11089    253.27983    38614.337 
  312900    301.56136   -1485.4882    484.37993     354.4286    328.53571    38614.337 
  313000    301.59284   -1491.6919    506.59614    370.58258   -23.370504    38614.337 
  313100    307.42099   -1497.1056    486.39202    371.16271    239.67848    38614.337 
  313200    311.39188   -1482.5636    499.80369    416.96574   -60.642306    38614.337 
  313300    300.21013   -1473.2601    510.69715    386.90006   -16.117766    38614.337 
  313400    299.75169   -1486.2022    501.71742    362.91751   -180.39514    38614.337 
  313500    299.46352    -1462.483    536.54638    420.17036   -518.96518    38614.337 
  313600     313.4681   -1491.7691     492.9009    410.19024    -348.5494    38614.337 
  313700    301.18677   -1491.3084    511.43859    373.98327   -94.270915    38614.337 
  313800    311.57271     -1476.13    483.83747    408.24602    82.740749    38614.337 
  313900    292.14713   -1542.5219     510.8793    281.57671    119.50639    38614.337 
  314000    302.07794   -1488.6511    512.41731    381.62516    129.50258    38614.337 
  314100    297.37551   -1467.8808    494.62734    363.46773    168.26961    38614.337 
  314200    300.24066   -1490.7753    477.89535    336.72027   -13.703655    38614.337 
  314300    304.74596   -1481.2566    473.50034    362.09557   -491.42681    38614.337 
  314400    298.74288   -1439.3422    497.45302    400.97851    507.23709    38614.337 
  314500    300.46992   -1482.0074    508.73187    377.35524     291.4001    38614.337 
  314600     310.7031   -1485.8675    497.76753    408.52956    585.62361    38614.337 
  314700    302.87456   -1491.0916    507.92891    378.27706   -197.66082    38614.337 
  314800    306.20887   -1469.1357    474.69511    381.98708    26.838489    38614.337 
  314900    292.75006   -1501.7765    500.85175    315.00479    33.444458    38614.337 
  315000    299.65025    -1480.862    476.56151    342.64586    298.09309    38614.337 
  315100    306.60454   -1511.9206     525.0736    391.35922   -700.76371    38614.337 
  315200    292.44749   -1538.0855    498.48577    274.96977   -620.36203    38614.337 
  315300    285.64003   -1498.1534    504.69971     290.5158   -299.65084    38614.337 
  315400    298.39746   -1485.2323     487.1755    343.25816   -314.90246    38614.337 
  315500    303.58249   -1443.5068    509.71051    430.82574    34.403326    38614.337 
  315600     305.3971   -1493.5255    489.33936     368.5926   -99.452161    38614.337 
  315700    294.04806   -1472.3139    515.27409    364.72429     501.1322    38614.337 
  315800    300.66024   -1470.1965    507.20003    388.48978    37.055758    38614.337 
  315900    294.33133   -1487.4422    488.72327    324.31847    317.38109    38614.337 
  316000    302.32273   -1515.8324     509.7454    352.87226    156.54304    38614.337 
  316100    299.81449   -1505.0908     498.2599    340.85371   -80.240966    38614.337 
  316200    296.52622   -1498.5086    497.08248    331.47753     206.9251    38614.337 
  316300    296.40251   -1497.9315     496.5264    330.94243    465.54602    38614.337 
  316400    295.15578   -1541.0086    503.87902    289.61381    114.23104    38614.337 
  316500    299.09047   -1548.8661    486.36742    281.93142    612.54678    38614.337 
  316600    291.52964   -1549.1379    469.26204    230.56787   -445.08682    38614.337 
  316700    294.22739   -1538.7074    490.42131    274.28416   -39.523636    38614.337 
  316800    300.89831   -1508.4288    494.45997    338.58756    135.18522    38614.337 
  316900    296.49162   -1503.4938    489.90942    319.16371    307.38788    38614.337 
  317000    306.75115   -1497.7688    478.47819    359.57463   -20.994302    38614.337 
  317100    297.99055   -1507.0018    499.17411    331.65822    113.87158    38614.337 
  317200    302.69258   -1501.8613    502.55868    361.31913    -87.11228    38614.337 
  317300     301.9443   -1484.0163    507.99437    381.23626   -889.34146    38614.337 
  317400    296.98128   -1462.8913    498.39543    370.45328   -168.25636    38614.337 
  317500    297.28609   -1436.6127    530.34646      430.053   -334.77308    38614.337 
  317600    296.50811   -1443.5466    487.79224    377.06782   -359.85271    38614.337 
  317700    301.22445   -1442.8372    516.64066    427.82585    40.205809    38614.337 
  317800    297.43555   -1417.4613    488.36021    407.89004    204.84582    38614.337 
  317900    299.55869   -1427.7928    527.01877    445.76072      784.208    38614.337 
  318000    291.75047   -1489.2701    514.71327    336.87949    414.61132    38614.337 
  318100    303.86818   -1460.7835    492.96453    398.08728    -219.9985    38614.337 
  318200    293.33657   -1453.6244    490.81898    355.76053    71.720211    38614.337 
  318300    311.99205   -1432.6512     499.5399    469.31222    -134.8598    38614.337 
  318400    299.87915   -1418.4773    463.80492    393.30289   -399.24097    38614.337 
  318500     297.9309   -1415.7937    508.05186    431.47588   -647.95792    38614.337 
  318600    298.05273   -1440.0801    493.74368    393.42899   -421.35967    38614.337 
  318700    294.35692   -1442.7063    492.70093    373.14713    457.78632    38614.337 
  318800    297.95278   -1427.2893    486.71157    398.73842    309.20676    38614.337 
  318900    299.35163   -1403.1063    517.43873    459.93638     235.6839    38614.337 
  319000    305.98361   -1389.9907    491.29807    476.72249    290.27629    38614.337 
  319100    296.66633   -1434.3946    523.77517    422.91401   -341.88227    38614.337 
  319200    311.81197   -1407.7584    500.38118    494.23674    186.11617    38614.337 
  319300    291.86048   -1429.2719    478.84686    361.50577    -483.3666    38614.337 
  319400    302.92731   -1395.0187     519.9389    486.59715   -443.39657    38614.337 
  319500    299.29411   -1380.4301       502.71    467.62538   -285.83344    38614.337 
  319600    309.15519   -1446.6764    503.53109    446.52632   -638.35272    38614.337 
  319700    310.48183   -1425.7602    496.70438     466.5791   -570.56035    38614.337 
  319800    299.17724   -1437.9188    478.17491    385.07625    -653.7822    38614.337 
  319900     303.9494   -1451.1543    477.66835    392.78529   -516.00027    38614.337 
  320000    309.24882    -1476.383     482.0895    395.79895   -854.70194    38614.337 
  320100    298.92491   -1487.9204    484.20113    339.96661   -647.88681    38614.337 
  320200      302.109   -1502.7966    471.31947    326.52145   -112.45545    38614.337 
  320300    292.73165   -1445.2569    496.43796    367.02792    174.49342    38614.337 
  320400    308.60478   -1488.8774    473.28006    371.60015    38.376851    38614.337 
  320500     306.1914   -1454.8261    489.30004    410.82313    476.98547    38614.337 
  320600    292.29622   -1484.8113    488.69611    317.77431    249.18583    38614.337 
  320700    300.66895   -1450.3559    482.21826    383.38778   -344.24515    38614.337 
  320800    295.88658   -1493.0631    480.94793    317.91318   -351.31514    38614.337 
  320900    304.42407   -1476.6682    503.38693    395.12372   -801.13141    38614.337 
  321000    307.27658   -1524.7089    468.46478    324.98308   -721.55742    38614.337 
  321100     301.3421   -1553.9443    472.27172    272.87874    -398.9625    38614.337 
  321200    302.81002   -1504.6819    465.78617    322.25393   -570.44854    38614.337 
  321300    304.41967   -1528.0335    487.33923    327.69088    84.248675    38614.337 
  321400    298.35619   -1468.7349    479.03679    351.43128   -190.32661    38614.337 
  321500    292.45748    -1441.996    485.57759    358.19603   -332.32334    38614.337 
  321600    297.93645   -1503.7613    487.90854    323.38993    -434.5112    38614.337 
  321700    309.83197    -1455.344    478.47777    415.84755   -206.29652    38614.337 
  321800    304.62013   -1508.8841    505.10144    365.50354   -227.50758    38614.337 
  321900    309.26146   -1488.2689     457.7908    359.67115    314.23476    38614.337 
  322000    290.55268   -1485.0567    491.88327    312.87877    81.794817    38614.337 
  322100    300.55047   -1491.5515    475.02003    334.46141    407.71027    38614.337 
  322200    293.76796   -1482.1708    456.25147    294.58572      -115.71    38614.337 
  322300    302.66515   -1471.6494    497.65783     386.5069    21.101413    38614.337 
  322400    305.32442   -1455.5725    479.53925    396.41887   -122.25731    38614.337 
  322500    285.82028   -1464.0891    485.54932    306.23996    210.21927    38614.337 
  322600    298.58362   -1480.1035    495.90867    357.95693    246.59908    38614.337 
  322700    301.17062    -1461.524    476.06104    368.31748    460.20914    38614.337 
  322800    299.27724    -1486.767    497.45599    355.95859    452.18511    38614.337 
  322900    295.78312   -1475.9815    489.45745    343.03934    807.22703    38614.337 
  323000    296.85375   -1474.7862    495.59275    355.18246    475.60367    38614.337 
  323100    299.55776   -1473.0411    486.56259    360.05205   -192.57192    38614.337 
  323200    298.21427    -1482.119    487.85225    346.22477   -290.34119    38614.337 
  323300    292.31897   -1493.9409    514.96914       335.02   -723.55797    38614.337 
  323400    298.64055   -1525.4834    489.23882    306.16311   -180.46169    38614.337 
  323500    303.46144    -1521.031    479.12866    322.17554    543.12297    38614.337 
  323600    301.93129   -1465.9858    489.48986    380.70379   -286.75051    38614.337 
  323700    296.15932   -1503.0263    480.05295    308.28103    -465.5612    38614.337 
  323800    298.37519   -1526.5414    486.74956    301.42303   -195.99652    38614.337 
  323900    293.10028   -1519.6744    499.87869    297.70804   -508.99276    38614.337 
  324000    291.67798   -1501.5156    473.94191    283.53676   -102.22069    38614.337 
  324100    297.25168   -1467.6772     479.6155    348.10289   -143.12443    38614.337 
  324200    300.82475    -1514.981    508.68071    345.92545   -261.27923    38614.337 
  324300    303.51186   -1491.1713     477.7734    350.90662    37.726507    38614.337 
  324400    301.14039   -1482.5452    491.74764    362.84703   -643.86744    38614.337 
  324500    296.66365   -1486.6207    485.83941    332.74004    -987.7304    38614.337 
  324600    307.67038   -1471.7115    488.34282    399.62865   -508.19903    38614.337 
  324700    286.24519    -1498.712    482.75608    270.73384   -716.61369    38614.337 
  324800    298.08173   -1487.2235    493.20931    345.88155   -75.838917    38614.337 
  324900    307.37374   -1497.9548    471.67975    355.38883   -426.95714    38614.337 
  325000    298.19515    -1497.975    494.09187     336.5224   -71.885299    38614.337 
  325100    289.10868   -1477.5103     492.0955    314.14654    333.01272    38614.337 
  325200    307.01258   -1476.2256     493.5458    397.36061    414.67137    38614.337 
  325300     291.2136   -1531.6733    491.25654     268.6063    296.47079    38614.337 
  325400    303.11302   -1502.3809    484.94766    345.07839    461.25987    38614.337 
  325500    296.06301   -1516.4993    493.89136    308.21357    78.612158    38614.337 
  325600    290.29269   -1482.4225    519.48483    341.94582    196.94217    38614.337 
  325700    305.64772    -1480.058    494.48002    388.32737    362.64594    38614.337 
  325800    299.43706    -1492.096     518.3765    372.26853    634.93996    38614.337 
  325900    288.36711   -1505.3229    496.96614    287.87108    572.97642    38614.337 
  326000    302.45165   -1499.9453    486.87098    346.46442    296.63376    38614.337 
  326100    293.85873   -1468.5507     494.1238    346.48618    693.56001    38614.337 
  326200    301.57644   -1464.7324    512.16652     403.0388    145.47467    38614.337 
  326300    298.52982    -1511.948    475.11488     305.0768    50.704771    38614.337 
  326400    310.30544   -1500.7874    506.28356    400.33826   -29.205063    38614.337 
  326500    293.02898   -1476.3923    502.88373    343.67471    19.752929    38614.337 
  326600     309.0171    -1478.717    489.91911    400.25299    126.19837    38614.337 
  326700    287.23522   -1504.4818    516.76094    303.41912   -349.36216    38614.337 
  326800    309.36839    -1485.615     498.7864     403.8013   -924.92181    38614.337 
  326900    294.57437   -1473.6854    477.05988    327.50443   -501.63962    38614.337 
  327000    303.57229   -1450.0306    501.54938    416.09494   -341.34206    38614.337 
  327100     299.4046   -1455.6418    502.77523    392.97552    -323.4953    38614.337 
  327200    306.63466   -1471.7097     511.9657    418.59768    387.32249    38614.337 
  327300    296.08852   -1533.9987    483.36358    280.30101    716.22417    38614.337 
  327400    301.61854   -1516.8195    490.69293    329.66735     796.1761    38614.337 
  327500    300.64792   -1531.3962    505.69967    325.73439    895.53518    38614.337 
  327600    303.85379   -1524.8017    473.02662    314.06641    372.38636    38614.337 
  327700    299.00515   -1479.8297    506.96009    371.17697    316.66984    38614.337 
  327800    297.83716   -1515.6175     488.7184    311.89722   -95.627461    38614.337 
  327900    287.18705   -1504.9207    523.61412    309.61688   -551.82917    38614.337 
  328000    304.74538   -1540.2333    469.23496    298.85092    5.7353282    38614.337 
  328100    298.41423   -1524.4611    503.28306    320.21226   -111.20165    38614.337 
  328200    302.58414   -1506.4882    504.31664    357.96276    187.46103    38614.337 
  328300    299.38048   -1512.7285    505.78882      338.794    173.99722    38614.337 
  328400    303.59528    -1477.892    497.80799    384.59549   -22.926059    38614.337 
  328500    294.89314   -1470.2788    473.82707    329.11104   -43.442333    38614.337 
  328600    298.93859   -1470.9305    524.40603     397.2229   -112.25613    38614.337 
  328700    298.17341   -1469.5537    468.87205    339.62622    187.19489    38614.337 
  328800    306.52144   -1535.1508    486.68585    329.36775    51.719602    38614.337 
  328900    291.02538   -1539.5002    473.57616    242.25299   -212.53468    38614.337 
  329000    303.48539   -1501.2066    491.59664    354.57561   -198.76226    38614.337 
  329100    292.49617   -1489.3605    481.21616    306.64399   -89.269206    38614.337 
  329200    305.54411   -1481.6151    502.57822    394.40264    482.52454    38614.337 
  329300    307.44371   -1469.0595    507.75508    420.67394    573.22079    38614.337 
  329400     308.6394   -1439.6123    480.67949    428.42029     485.2407    38614.337 
  329500    299.16208   -1458.8752    516.13969    402.01642    527.57477    38614.337 
  329600    296.36348   -1499.0257    468.39551    301.54189   -254.70414    38614.337 
  329700    304.65085   -1482.6573    501.08549    387.85249   -194.56505    38614.337 
  329800    301.19352   -1506.5504    503.83376     351.1668    113.98947    38614.337 
  329900    296.82948   -1495.5186    483.16258    321.91072    367.14843    38614.337 
  330000    299.83131   -1473.9986    469.56783     343.3294    521.34561    38614.337 
  330100    293.83651   -1510.7028    509.12631     319.2367    519.54789    38614.337 
  330200    297.82672   -1510.3263    483.81098    312.23414    89.521151    38614.337 
  330300     305.9383   -1526.1437    489.14262     338.2104   -126.52332    38614.337 
  330400    294.67969   -1456.0687     498.3394    366.87399    15.230486    38614.337 
  330500    298.84152    -1522.214    495.52123    316.61821   -731.67301    38614.337 
  330600    299.49643   -1516.2101    497.48909     327.5339   -386.74455    38614.337 
  330700    302.19848   -1460.3459      473.915    371.96988   -247.19684    38614.337 
  330800    301.33558    -1494.105    513.68912    374.10613    20.587865    38614.337 
  330900    300.81579   -1520.1318    495.91627    327.96996   -45.607027    38614.337 
  331000    295.56778   -1494.6105    471.57966    305.56448   -181.72323    38614.337 
  331100    295.09012   -1501.1137    510.79711     336.1317   -232.82589    38614.337 
  331200    303.20829   -1470.5152    472.77143    365.19616    95.214223    38614.337 
  331300    283.38848   -1447.9593     509.8629    335.75222   -498.87027    38614.337 
  331400    289.30925   -1466.1981    501.77278    336.03759   -682.38002    38614.337 
  331500    297.77683   -1468.2909    507.71402    377.94833   -456.54188    38614.337 
  331600    305.82177   -1468.9316    498.69745    404.45349   -381.67639    38614.337 
  331700    310.07203    -1527.822    484.10329    350.07422   -69.620884    38614.337 
  331800    305.62343   -1499.7429    501.19182    375.24506   -243.16432    38614.337 
  331900     303.1697   -1520.8336    465.14691    307.07975   -215.53064    38614.337 
  332000    309.57777    -1535.937    473.27351    328.90765    75.208781    38614.337 
  332100    296.26761   -1535.8324    493.77395    289.68275    283.44582    38614.337 
  332200    295.19098   -1498.0421    467.33796    296.19748   -201.01462    38614.337 
  332300    310.32967   -1531.5135    491.54916    354.98658    431.05466    38614.337 
  332400    314.54143   -1506.4846    504.57205    411.97058    184.08289    38614.337 
  332500    295.65897   -1479.6581    481.61854     330.9657    86.403874    38614.337 
  332600    306.16299    -1498.397    500.47276    378.29724   -219.28266    38614.337 
  332700    302.72412   -1524.3772    507.52375    343.91005   -300.65685    38614.337 
  332800    292.38297   -1543.9298    460.00054    230.35019    266.22139    38614.337 
  332900    302.60713   -1579.5016    500.24328    280.97934     252.3621    38614.337 
  333000    292.07768   -1538.3776    512.62771    287.15723   -47.359652    38614.337 
  333100    301.33607   -1500.4636    493.08408    347.14463    324.80588    38614.337 
  333200    299.63208   -1586.3646    512.36418     272.8642   -163.98496    38614.337 
  333300    306.82917   -1521.9601    475.63235    332.88829   -738.99779    38614.337 
  333400    294.91853   -1470.2134    480.03082    335.49438   -826.11318    38614.337 
  333500    312.41767   -1485.7267    495.69128    414.30128    222.64277    38614.337 
  333600    301.57362    -1468.935     494.1507     380.8077    262.33736    38614.337 
  333700    305.35578   -1491.1896    491.03201    372.43546   -236.94349    38614.337 
  333800    296.49472   -1476.2579    489.81226    346.31636    54.905765    38614.337 
  333900    293.66971   -1465.4547    512.20067    366.80936   -174.77307    38614.337 
  334000    297.27246   -1444.6617     485.3847    376.98098    251.11502    38614.337 
  334100    292.13396   -1442.1468    501.76767    372.78096   -57.441883    38614.337 
  334200    291.26565   -1444.4694    503.66474    368.45235    95.319104    38614.337 
  334300    292.31176   -1450.5079    491.79167    355.24312    -76.62104    38614.337 
  334400    297.17897   -1477.4149    482.60843     341.0313    10.323488    38614.337 
  334500    304.07369   -1436.0854    506.84146    437.58603     412.1305    38614.337 
  334600    287.52011   -1481.9983    484.43456    294.85688    312.24075    38614.337 
  334700       306.25   -1467.2394    495.47697    404.85013    480.54235    38614.337 
  334800    307.81496   -1460.9489    495.17109    417.86941     707.4245    38614.337 
  334900    307.32425   -1454.4041    501.67794    428.71524    889.08617    38614.337 
  335000    305.16652   -1479.2587    516.50473    408.98828    795.12017    38614.337 
  335100    305.19165   -1443.3177    520.32985    448.86741    980.58023    38614.337 
  335200    308.36103   -1482.8188    489.12072    392.40372    949.59556    38614.337 
  335300    306.05693   -1461.7068    512.94614    426.98407    404.88629    38614.337 
  335400    304.48711   -1466.0212    496.19794    398.86501    380.09319    38614.337 
  335500     304.0979   -1473.4822    499.76314    393.21974    465.62084    38614.337 
  335600    289.82592   -1510.4405    490.22213      282.567     184.5811    38614.337 
  335700    302.26735   -1480.8026    506.89563    384.80338   -62.437364    38614.337 
  335800    309.53105   -1447.5666    500.01915     443.8137    -382.5336    38614.337 
  335900    296.69601   -1423.9109     489.9906    399.74655    -747.8955    38614.337 
  336000    302.02575   -1418.1906    510.33441     449.7682   -489.82045    38614.337 
  336100    295.71949   -1463.0984    469.82598    336.00494   -297.81207    38614.337 
  336200    300.99458   -1450.2309    504.70442    407.46271   -113.51433    38614.337 
  336300    295.01533   -1500.4826    488.85717    314.48664   -158.54777    38614.337 
  336400    304.20336   -1536.2228    501.82427    333.01426    562.23166    38614.337 
  336500     294.3197   -1503.4033    462.73378    282.31566    72.940577    38614.337 
  336600    298.94469   -1536.0176    504.82766    312.58484    444.14764    38614.337 
  336700    299.86663   -1508.0591    487.01887    326.87869    713.45309    38614.337 
  336800     293.5332   -1500.6381    482.74184    301.55355    287.68486    38614.337 
  336900    308.05768    -1486.165    501.80845     400.3817   -252.94624    38614.337 
  337000    295.75775   -1466.7586     456.8594    319.55015    -97.43866    38614.337 
  337100    293.52095   -1483.8608    499.11762    334.65157    315.91329    38614.337 
  337200     302.8161    -1495.291     497.6892    363.57519    599.25101    38614.337 
  337300    298.05334   -1490.8714    478.61863    327.51533   -316.69027    38614.337 
  337400    298.24808   -1507.3211    496.45938    329.78174   -434.79081    38614.337 
  337500    299.43744   -1491.6542    462.88058    317.21605   -167.07606    38614.337 
  337600    293.76665   -1483.5195    486.28954    323.26923    -601.8293    38614.337 
  337700    301.18586   -1477.2366    467.33675    343.94919   -806.01585    38614.337 
  337800    302.20255   -1488.7364    513.98224    383.66495    212.99488    38614.337 
  337900    305.97401   -1497.6811    491.46076    369.15169    317.49909    38614.337 
  338000    314.02094   -1512.4704    467.10864    366.18171    196.73647    38614.337 
  338100    292.99413   -1516.1931    515.49471    316.32828    -27.74182    38614.337 
  338200    295.26233   -1498.5607    485.40362     314.0653    405.32085    38614.337 
  338300     313.2066   -1470.5917    478.62644     415.9177    117.06336    38614.337 
  338400    292.95357   -1472.1572    495.64112    340.32822    207.98719    38614.337 
  338500    304.97238   -1475.0669    509.87898    405.68168     434.3358    38614.337 
  338600    295.88404   -1485.5351    470.77455     315.2564    501.45031    38614.337 
  338700    302.89684   -1478.1759    540.24614    423.61017    66.412694    38614.337 
  338800     297.9832   -1502.8649    473.09238     309.6803   -41.305615    38614.337 
  338900    305.68456   -1515.5126    490.21269    348.77104   -513.39071    38614.337 
  339000    302.69545   -1446.7704    480.75821    394.62246   -544.76148    38614.337 
  339100    308.28701    -1477.955    490.93893    398.75299   -359.73285    38614.337 
  339200    298.18582    -1445.146    507.22106    402.43867    -629.2571    38614.337 
  339300     297.8097   -1463.8156    494.21013    369.06743    338.17546    38614.337 
  339400     303.1943   -1444.7839    511.72901    429.82217   -400.96682    38614.337 
  339500    298.74424   -1458.8063     497.5703    381.63777   -99.624209    38614.337 
  339600    305.25443   -1527.4503    497.40997    342.09713    298.38733    38614.337 
  339700    298.04949   -1475.7127    466.88344    330.92154   -14.767805    38614.337 
  339800    285.62694   -1491.3649    503.50873    296.05449   -187.79046    38614.337 
  339900    304.09675   -1537.8763    469.97634    299.03363    163.95186    38614.337 
  340000    296.07842   -1494.0612    483.19804    320.02759    340.30269    38614.337 
  340100    307.96849   -1479.3407     488.0083    393.00491    480.92048    38614.337 
  340200    294.51107   -1457.2043    501.11125    367.75237   -61.977588    38614.337 
  340300    287.24218   -1420.8664    472.47252    342.77737   -760.30219    38614.337 
  340400    303.94667   -1456.0148    481.64525    391.88949   -534.34817    38614.337 
  340500     306.1842   -1487.6228    495.82729    384.52129    -697.5482    38614.337 
  340600    301.89879   -1500.4748    480.44479    337.02367    -587.2876    38614.337 
  340700    298.52119   -1478.9525    478.00468    340.92331   -687.49413    38614.337 
  340800    301.37907   -1472.4842    491.75409    373.98739   -590.42273    38614.337 
  340900    291.46255    -1469.911    509.84343     350.0745   -911.52437    38614.337 
  341000    281.53283   -1503.7757    477.03698    238.76865   -1198.4887    38614.337 
  341100    300.84182   -1494.3572    498.24678    356.19213    -1154.844    38614.337 
  341200    297.61547   -1509.5318    476.26537    304.53344   -254.93899    38614.337 
  341300    297.86373   -1531.6703    495.77953    303.02508   -791.83296    38614.337 
  341400    301.05497   -1480.3948    474.64582    347.51164   -532.25497    38614.337 
  341500    297.22589    -1473.344     467.1135    329.81818    96.709289    38614.337 
  341600    295.06736    -1433.379    485.90412    378.87103   -221.78778    38614.337 
  341700    293.14096   -1437.3011    486.02923     366.4148    -183.9294    38614.337 
  341800    302.57616   -1448.7187    505.65335    417.03309   -213.88733    38614.337 
  341900    302.16534   -1473.0698    478.41438    363.59641    427.80718    38614.337 
  342000    298.59782   -1492.6077    470.70972    320.31758    339.60164    38614.337 
  342100    301.34023   -1424.0009    490.11683     420.6588    653.00547    38614.337 
  342200    294.27386   -1437.3978    496.52213    381.90351    424.07197    38614.337 
  342300    297.90528   -1453.4665    490.60414    376.24021    389.09376    38614.337 
  342400    288.71256   -1443.5479    508.96258    363.19539    466.86683    38614.337 
  342500    290.51569   -1445.1202    510.59964    371.36535    525.76536    38614.337 
  342600    298.85265   -1447.5844    489.55967    385.33634    572.69206    38614.337 
  342700    305.59256   -1445.2355    505.52388    433.94573    743.13549    38614.337 
  342800    287.77138   -1455.8095    464.08249    301.82308    142.70477    38614.337 
  342900    304.92702   -1435.0544    501.88045    437.49175   -276.90089    38614.337 
  343000    306.65712   -1451.7523    479.92594    406.61623   -464.15925    38614.337 
  343100    300.96489   -1481.4253    455.41729    326.84769   -412.34989    38614.337 
  343200    296.36345   -1449.5348    499.30001    381.93714   -444.09582    38614.337 
  343300    290.46421   -1470.2823     476.2104    311.58261   -253.03223    38614.337 
  343400     288.6919   -1427.8641    497.61511    367.43884   -467.39948    38614.337 
  343500    290.98593   -1475.0886      475.615     308.5261   -360.55435    38614.337 
  343600    308.39313   -1449.0881    484.93031    422.08826   -199.03292    38614.337 
  343700    298.72736   -1468.6181    495.14429    369.32404   -383.03021    38614.337 
  343800    299.47909   -1447.4339    496.32711    395.07016   -111.56915    38614.337 
  343900    297.75849   -1425.1206     495.0893    408.41149     -149.447    38614.337 
  344000    294.82392    -1449.373     498.8141    374.69279   -216.49016    38614.337 
  344100    306.43816   -1462.3067    494.71168     409.8634    112.78285    38614.337 
  344200     305.9843   -1436.5782    478.09203     416.9321    272.14447    38614.337 
  344300    302.34128   -1453.8565     490.8334    396.01958   -17.206036    38614.337 
  344400    305.72345   -1434.9351    484.66678    423.97739     607.5988    38614.337 
  344500    306.49282    -1443.463    488.39268    422.63378     -310.613    38614.337 
  344600    296.44168   -1449.4465    476.08729    359.16444    235.26756    38614.337 
  344700    307.85133   -1464.9068    488.71339    407.61732    504.45983    38614.337 
  344800    293.90361   -1474.3364    486.78552    333.56396    516.31349    38614.337 
  344900    296.66153   -1470.9757    456.27603    318.81219    702.44536    38614.337 
  345000    308.62992   -1479.1089    497.56297    405.76458   -80.202899    38614.337 
  345100    300.82821   -1432.2921    487.90269    407.85186    429.96103    38614.337 
  345200    299.85438    -1459.503    504.63414    392.99509    12.257632    38614.337 
  345300    297.00102   -1454.8275    477.25803     357.4684   -230.83957    38614.337 
  345400    286.32706   -1461.2565     489.2333    315.03455    340.36183    38614.337 
  345500    309.56527   -1434.0429    493.24692    450.71895    254.04672    38614.337 
  345600    295.44949   -1453.4754    480.70699    355.29522   -56.201448    38614.337 
  345700    296.49816   -1459.6633    514.83585    387.95003    563.96837    38614.337 
  345800     310.6817   -1475.2017    459.29819    380.62987    467.58076    38614.337 
  345900    293.61599   -1476.8328    500.36965    343.35887    88.525809    38614.337 
  346000    296.32088   -1446.7734    468.98694    354.19416   -370.38286    38614.337 
  346100    292.42998    -1448.344    484.78428    350.93106   -170.17067    38614.337 
  346200    298.43553     -1442.45    504.52755    403.56362   -98.789392    38614.337 
  346300    298.78477   -1415.8375    490.48836    417.70681    457.58201    38614.337 
  346400    309.81576   -1413.8654     505.4573    484.23277    106.54315    38614.337 
  346500    298.77728   -1440.8798    517.84287    419.98533   -267.27833    38614.337 
  346600    296.94226   -1452.1582    475.08459    357.70008    2.6142956    38614.337 
  346700    305.27841   -1470.8113    483.07464    384.50858   -307.76839    38614.337 
  346800    297.87055   -1419.8257     501.2923     420.4131    685.56864    38614.337 
  346900    307.31396   -1487.0317    472.47142    366.83491   -77.738502    38614.337 
  347000    299.68833   -1472.7286    492.80714    367.19602   -222.23454    38614.337 
  347100    297.20263   -1500.8448    498.85388    333.95315   -21.083061    38614.337 
  347200    306.67753    -1485.022    489.15794    382.67033   -180.97829    38614.337 
  347300    296.72556   -1501.3745    482.36418    314.78937   -302.99033    38614.337 
  347400    308.28202    -1516.462    487.40105    356.68566    119.93813    38614.337 
  347500    294.82917   -1475.0427    505.36489    355.59742    101.61712    38614.337 
  347600    300.09949   -1454.7589    473.92622    368.13302    -125.9124    38614.337 
  347700    304.76361   -1472.5055    498.84555    396.27121   -397.35698    38614.337 
  347800     283.4899   -1503.7953    495.42825    265.93754   -21.725628    38614.337 
  347900    293.96854   -1496.8132    486.76818    311.36171     -33.1355    38614.337 
  348000    305.22706   -1510.3278    477.63328    339.31985   -164.65611    38614.337 
  348100    301.35571   -1495.9262    498.32964    357.01594    93.058405    38614.337 
  348200    305.50188    -1474.274    498.35099    397.32678    636.70613    38614.337 
  348300    297.55655   -1461.5154    488.24828    364.26783    65.071004    38614.337 
  348400    302.55663   -1462.5207    485.83501    383.32501      405.794    38614.337 
  348500    292.30674   -1465.0265    504.54448     353.4548   -53.711779    38614.337 
  348600    303.44047   -1447.5328    475.16275    391.61358   -26.962542    38614.337 
  348700    311.00366   -1440.3213    464.53918    422.19842     349.0969    38614.337 
  348800    298.28478   -1469.8864    484.94062    355.86264    371.05594    38614.337 
  348900    294.68339   -1457.4831    475.41884    342.55571    554.76255    38614.337 
  349000    293.80565   -1483.4159    499.66577    336.92441    513.37082    38614.337 
  349100    299.27992   -1484.7402    481.67685    342.21833    480.03494    38614.337 
  349200    313.47114   -1502.7651    473.02396    379.33092    340.93601    38614.337 
  349300    315.82646    -1469.453    478.81055    429.01691    243.24888    38614.337 
  349400    301.38244   -1486.2869    532.95452    401.40027   -71.275334    38614.337 
  349500    287.58766   -1509.0929    484.77055    268.40185   -159.53574    38614.337 
  349600    305.52352   -1460.9912    488.22275    400.57856   -531.42573    38614.337 
  349700    290.18561   -1458.8274    470.66776    316.24252   -705.01159    38614.337 
  349800    307.21369   -1501.2108    491.41408    371.14773   -616.17645    38614.337 
  349900    301.44585   -1465.8598    497.52541     386.6833   -523.78191    38614.337 
  350000    304.92036   -1488.5641    474.32268    356.39435    337.71881    38614.337 
  350100    296.05096   -1457.0885     491.2167    364.89553    434.02959    38614.337 
  350200    299.75219   -1510.6942    505.58702    342.29742    568.22478    38614.337 
  350300    287.96492   -1473.5509    470.85734    291.72648    527.72423    38614.337 
  350400    308.78989   -1512.9456    493.05214    368.13609    604.04279    38614.337 
  350500     301.6317   -1507.5748    485.71337    333.99162    87.567423    38614.337 
  350600    305.13294   -1496.3896    491.74944    366.95118     557.9816    38614.337 
  350700    296.88964   -1478.0771    469.03861    325.49872    135.74077    38614.337 
  350800    299.73947    -1457.646    495.76191    385.46334   -364.49305    38614.337 
  350900    292.39517   -1426.7911    479.50696    367.05021   -320.74119    38614.337 
  351000    286.06549   -1458.5484    484.18861    311.52224   -380.00043    38614.337 
  351100    304.54442   -1442.7858    497.12887    423.28899   -423.81124    38614.337 
  351200    298.74771   -1481.0034    490.10678    351.99275   -449.38434    38614.337 
  351300    294.22127   -1462.7342    497.04141    356.84993   -18.562542    38614.337 
  351400    305.83327   -1434.4308    508.40621    448.71479   -35.911052    38614.337 
  351500    305.79325   -1458.0659     478.1243    394.61788    -856.9123    38614.337 
  351600    308.58934   -1459.0435    502.68784    430.77244   -408.34939    38614.337 
  351700    288.90877   -1440.6686    501.07426    359.06836    -746.3746    38614.337 
  351800    294.49897   -1418.7713    521.72658    426.74628   -552.70814    38614.337 
  351900    296.89337   -1434.6724    501.28238    401.16399   -743.71151    38614.337 
  352000    302.82237   -1457.1369    495.73165     399.7999   -326.49714    38614.337 
  352100    310.39445   -1428.5102     511.2926     478.0246   -86.316649    38614.337 
  352200    299.63567   -1406.6513    488.80065    429.03015    453.12781    38614.337 
  352300    304.79317   -1392.3395    509.38675    487.11129    231.86606    38614.337 
  352400     292.5024   -1424.7304    512.79454    402.88038    190.86576    38614.337 
  352500    305.26374   -1417.6364    505.74222    460.28514    485.83803    38614.337 
  352600    296.30058   -1423.8648    501.98194    410.00646    292.17044    38614.337 
  352700    304.93353   -1469.3664    501.52678    402.85532    118.06956    38614.337 
  352800     306.4026   -1434.3831    504.40898    447.32445     155.3893    38614.337 
  352900    286.04058   -1432.8295    502.44294    355.38342      567.013    38614.337 
  353000    306.01237   -1429.4748     504.7233    450.79289    532.04861    38614.337 
  353100    312.80606    -1448.046    503.15529    461.19184    236.59583    38614.337 
  353200    299.60084   -1421.5032    505.92035     431.1414    370.78899    38614.337 
  353300    297.10949     -1420.83    504.38472    419.08012   -219.05476    38614.337 
  353400    295.84234    -1418.382    484.22791    395.67546   -88.581808    38614.337 
  353500    299.28984   -1437.0555    488.90502    397.17581   -348.06521    38614.337 
  353600    295.59294   -1435.9288    481.96199    374.74167    -531.5321    38614.337 
  353700    318.85682   -1442.6938    508.58807    499.17529    220.86421    38614.337 
  353800    302.27782   -1450.7625    493.21364    401.20856   -243.70347    38614.337 
  353900    292.55186   -1515.8765    474.15744    273.31955   -264.64101    38614.337 
  354000    309.78127   -1514.1433    500.05654    378.39912   -63.526343    38614.337 
  354100    295.95864   -1531.2843    496.31653    295.38454   -136.45352    38614.337 
  354200    296.58897   -1504.0635    494.82493    323.94716   -68.577032    38614.337 
  354300    299.79482   -1510.4558    478.35455    315.49496     353.9045    38614.337 
  354400     299.2093   -1502.1243    492.47108    335.31098    63.717741    38614.337 
  354500    296.11243   -1486.5715    463.23876    307.71085    88.749763    38614.337 
  354600    298.40808   -1508.7103    479.46626    312.11871    288.89112    38614.337 
  354700    295.35369   -1524.6666    471.27387    274.24032    406.96319    38614.337 
  354800    299.78755   -1489.6848    517.25099    375.12969    382.31347    38614.337 
  354900    292.18607   -1469.4872    505.55396    349.46113    527.12672    38614.337 
  355000    294.64112   -1463.0788    483.01818    344.36941    469.88466    38614.337 
  355100    307.92317   -1472.6513    510.02158    421.50385    604.21663    38614.337 
  355200    295.30335   -1485.0647    495.11299    337.45506    301.69892    38614.337 
  355300    298.47014   -1448.0978     507.4971    401.04093    145.91642    38614.337 
  355400    294.96611   -1482.6855    504.44008    347.64537   -198.39743    38614.337 
  355500    306.05146   -1425.1978    525.36095    475.88329     380.1935    38614.337 
  355600    300.30186   -1429.3694    541.19315    461.69905    475.93258    38614.337 
  355700    291.62633   -1462.3832    484.00802    332.50313    229.66525    38614.337 
  355800    306.18417   -1432.8621    524.87057    468.32521   -164.85077    38614.337 
  355900    297.36918    -1470.343     493.7444    360.09418   -342.47756    38614.337 
  356000    297.60744   -1433.0632    514.08966    418.79026   -122.58863    38614.337 
  356100    305.56831   -1469.4488    491.66456    395.76418   -386.83524    38614.337 
  356200     295.5716   -1432.1005    488.11092    384.62294   -475.38993    38614.337 
  356300    292.05409   -1470.3211    477.56437    320.04442    -112.0977    38614.337 
  356400    293.06579    -1478.898    484.22502    322.67578   -797.78971    38614.337 
  356500    306.43385   -1433.7201    491.14152    434.86045   -314.85906    38614.337 
  356600    302.35422   -1414.4643    503.79953    448.43601   -326.84172    38614.337 
  356700    296.78264   -1422.0486    474.05416    386.06179   -590.93685    38614.337 
  356800    298.35317   -1424.6521    486.06318    402.52697    -232.3778    38614.337 
  356900    295.85821   -1417.8488    501.79127    413.84331    61.677081    38614.337 
  357000    305.52968   -1449.5402    512.37316    436.20768   -107.07057    38614.337 
  357100    301.90834   -1443.0727    486.28733    400.31115   -70.282705    38614.337 
  357200    300.47393    -1436.592    477.39641    391.45322   -367.67573    38614.337 
  357300    292.42635   -1460.2418    500.97228    355.20495    -125.6333    38614.337 
  357400    289.76352   -1441.0663    508.71341    370.15202    439.21214    38614.337 
  357500    296.75666   -1478.1139    491.52458    347.35011     410.5546    38614.337 
  357600    302.21314   -1419.1936    511.38191    450.65501    452.77101    38614.337 
  357700    297.95977   -1448.5385    504.87247    395.68149    531.18711    38614.337 
  357800    310.85075   -1459.8524    493.68834    431.12925   -90.386888    38614.337 
  357900    296.05298   -1468.1262    476.24697    338.89717   -203.14252    38614.337 
  358000    302.33514   -1467.9119    505.64907    396.75225   -339.08133    38614.337 
  358100    310.11537   -1463.1598    504.72271    435.55055    -700.3196    38614.337 
  358200    300.09607   -1454.2243    484.81609    379.54208   -211.04644    38614.337 
  358300    294.84968   -1479.3132      502.783    348.83727   -154.56254    38614.337 
  358400    302.85654   -1494.9992    479.19544      345.555    134.64364    38614.337 
  358500    299.75554   -1502.6304    477.73082       322.52   -373.25616    38614.337 
  358600    312.36856   -1459.7522    499.68906    444.05277    282.37315    38614.337 
  358700    306.76531   -1488.9199    500.76166    390.77074   -47.677518    38614.337 
  358800    305.16043   -1473.5761    493.92174    392.06058     154.5945    38614.337 
  358900    290.19316   -1455.4656    506.29481    355.26529     664.1522    38614.337 
  359000     299.0644   -1488.9314    492.21076    347.59225    130.22633    38614.337 
  359100    297.06323   -1461.0178    493.28961    367.58931    54.807088    38614.337 
  359200    304.46203   -1451.2729    507.69167    424.99434   -378.36098    38614.337 
  359300    292.22886   -1455.8399    495.04524    352.79206   -293.65936    38614.337 
  359400    298.90232   -1484.0066    482.98723    342.56495   -105.63766    38614.337 
  359500    308.09577   -1480.1586     480.4511    385.20191    246.20651    38614.337 
  359600    297.07072   -1493.5866     507.6131    349.37765    517.74007    38614.337 
  359700    290.12152   -1497.1932    509.15929    316.08017     286.2622    38614.337 
  359800    295.45357   -1498.5049     496.4909    326.06796    207.17032    38614.337 
  359900    299.50863   -1503.6346    518.16711    360.84227   -105.98954    38614.337 
  360000     300.3302   -1495.5788    497.74045     352.1644   -175.69307    38614.337 
  360100    309.81844   -1523.1636    500.59366    370.08303   -48.616922    38614.337 
  360200    299.68967   -1519.8205    464.94407    292.24707   -207.74068    38614.337 
  360300    300.03822   -1536.0171    494.78139    307.45459    -665.5679    38614.337 
  360400    290.34613   -1459.2055    515.51808    361.43627   -181.21198    38614.337 
  360500     289.1127   -1498.7193    476.40545    277.26553   -840.26433    38614.337 
  360600    306.77429   -1480.1052    482.19604    381.06021   -986.71283    38614.337 
  360700    298.18412    -1464.326    486.03381    362.06381    -134.7872    38614.337 
  360800      302.503   -1460.8232     496.4796    395.42597     69.06747    38614.337 
  360900    307.92052   -1468.0609    469.53866    385.59945     442.9044    38614.337 
  361000    302.98547   -1481.3908    499.39341    379.94091    265.04789    38614.337 
  361100    309.22082   -1485.5838    516.20461    420.58739     46.77473    38614.337 
  361200    297.87286   -1509.3836     482.7848      312.358    172.94982    38614.337 
  361300    304.64971   -1488.8566    492.18588     372.7485   -312.39477    38614.337 
  361400    298.56983   -1469.3741    476.66012    349.37576   -83.497908    38614.337 
  361500    302.81828    -1443.998    540.65827    457.84709   -756.44575    38614.337 
  361600    303.70692   -1423.3235    531.63028    473.48807    -143.4308    38614.337 
  361700    295.77344    -1458.948    507.68911    378.26095   -548.07413    38614.337 
  361800    303.87323   -1456.4561    507.90024    417.37297   -608.95593    38614.337 
  361900     283.2312   -1433.7313    516.68192    356.09232   -464.79767    38614.337 
  362000    304.71409   -1492.2815    504.30026    381.72736    356.97947    38614.337 
  362100    298.58288   -1502.5889    485.88806    325.44759    192.55624    38614.337 
  362200    295.96031    -1490.285    505.97675     346.0516    167.88863    38614.337 
  362300    296.29478   -1487.4333    510.09467    354.52461     201.4313    38614.337 
  362400    296.87795   -1471.7189    497.03162    359.79734   -187.80043    38614.337 
  362500    294.33081   -1480.9872    497.41044    339.45835    321.25425    38614.337 
  362600    296.66805   -1537.4223    526.83724    322.95607   -131.09119    38614.337 
  362700    313.49889    -1531.493    493.11072    370.81448    -313.4194    38614.337 
  362800    292.77378   -1493.7803    502.52996    324.78584    338.51923    38614.337 
  362900    295.91825   -1470.6771    507.02162    366.51527   -621.24963    38614.337 
  363000    305.53407   -1484.5773    511.69194    400.50915    242.47034    38614.337 
  363100    307.61711   -1481.3476    498.47644    399.88668    873.80951    38614.337 
  363200     293.2298   -1467.4664    500.67945    351.29906    471.05302    38614.337 
  363300    299.85817   -1472.2561    488.95336    364.57824    413.38762    38614.337 
  363400    303.17135   -1505.4583    503.85444    361.17001    402.54038    38614.337 
  363500    297.33576   -1517.6942    500.55296    319.40133    71.568226    38614.337 
  363600    302.20571     -1499.46    486.83011     345.8034    519.14208    38614.337 
  363700    312.59434   -1526.5109    498.66084    377.28073    412.92369    38614.337 
  363800    307.89923   -1506.9682    480.36701    357.42483    506.62742    38614.337 
  363900     300.6075   -1522.3894    483.57128     312.4311     280.2769    38614.337 
  364000    296.62198   -1498.9004    480.82786    315.26158    156.98851    38614.337 
  364100    306.66423   -1503.0791    502.69956    378.09503    268.51065    38614.337 
  364200    294.19337   -1525.0901     510.7472    308.07445    51.273153    38614.337 
  364300    308.86552   -1483.9212    498.88683    403.33512    77.014592    38614.337 
  364400    298.23284   -1497.7892     478.6568    321.44257    359.15353    38614.337 
  364500    311.79782   -1506.0575    470.58591    366.07879   -415.43798    38614.337 
  364600    298.22125   -1498.3698    491.98631    334.13934    399.42036    38614.337 
  364700    296.03676   -1497.9825    504.93384    337.65485    379.29784    38614.337 
  364800    300.88006   -1471.5598    496.45804    377.37263    150.98793    38614.337 
  364900     302.5803   -1506.7848    510.70471    364.03692    199.23958    38614.337 
  365000    302.87072   -1487.0555    481.51264     355.8796     112.9057    38614.337 
  365100     290.2478   -1532.0888     510.8577    283.45064     649.3906    38614.337 
  365200    304.62721   -1554.4575    490.46926    305.32976    710.11532    38614.337 
  365300     306.5765   -1507.5962    492.69805    363.18215    506.28245    38614.337 
  365400    309.35437   -1499.8878    482.29378    372.97296    376.58814    38614.337 
  365500    303.75735   -1477.8959    476.13458    363.64661    221.49098    38614.337 
  365600    299.10098   -1497.3875    496.77165     343.8615    41.325142    38614.337 
  365700    307.44091   -1513.7905    448.01798    316.19324   -389.90196    38614.337 
  365800    303.70486   -1484.5785    529.45848    410.05199    -540.7697    38614.337 
  365900    297.62609    -1520.135    482.64971    300.36232   -27.661249    38614.337 
  366000    292.93209   -1519.1433    478.67799    276.28248   -166.86757    38614.337 
  366100    302.48982   -1515.8033    517.55403    361.46114    37.893568    38614.337 
  366200    300.99507   -1475.0666    476.30408     354.2288   -11.056036    38614.337 
  366300    293.30897    -1486.849    493.63943    325.23227   -305.37558    38614.337 
  366400    301.98883   -1493.8492    480.19798    343.80712   -203.35972    38614.337 
  366500    309.14269   -1515.5886    504.35013    378.37694    197.57242    38614.337 
  366600    307.67343   -1515.2194    495.47918    363.27078    632.76626    38614.337 
  366700    300.23213   -1475.0545    507.14056    381.64794   -53.923563    38614.337 
  366800    316.29594   -1447.1997    472.05993    446.62997     348.3346    38614.337 
  366900    298.58434   -1466.4486    513.79196    389.49829    24.993939    38614.337 
  367000    305.32128   -1481.1869    502.94859    394.19965   -64.105677    38614.337 
  367100     297.7891   -1433.5373    493.36894    398.41194   -203.99035    38614.337 
  367200    305.38717   -1465.1455    493.73353     401.3222   -13.257571    38614.337 
  367300    297.23624   -1484.9914    497.54417    348.64799   -314.06363    38614.337 
  367400    300.92626    -1446.403    492.78158    399.06062   -183.80789    38614.337 
  367500    298.75278   -1422.5707    505.98345     426.3249   -498.40412    38614.337 
  367600    293.04647   -1416.3872    515.79184     416.6666   -738.57803    38614.337 
  367700      296.816   -1405.8417    519.54604    447.91051   -429.42649    38614.337 
  367800    304.67012   -1416.8054    471.93507    424.64059   -189.48854    38614.337 
  367900    308.89031   -1427.2998    501.80706    462.98824   -576.79005    38614.337 
  368000    299.38278    -1428.541    503.02683    420.22985   -119.35744    38614.337 
  368100    294.64808   -1427.1322    501.32445    398.65351   -157.22022    38614.337 
  368200    297.83351   -1463.3477    509.50232    384.93462     263.9665    38614.337 
  368300    296.47518   -1461.2186    486.12126    357.57685    437.68524    38614.337 
  368400     308.3892   -1464.4135    511.31959    433.13457    38.454747    38614.337 
  368500    301.37942   -1456.1885     490.5349    389.06547    377.55295    38614.337 
  368600    293.46388   -1453.7144    491.14557    356.56933    247.13598    38614.337 
  368700    308.38225   -1467.7646    489.02993    407.46255    471.10105    38614.337 
  368800    305.61515   -1435.1204    497.01589    435.65441    356.30818    38614.337 
  368900     296.3789   -1461.5447    471.26098    341.95765    370.33355    38614.337 
  369000    300.80188   -1454.7867    500.06958    397.40586    169.34872    38614.337 
  369100    310.24205    -1468.985    492.37943    417.95151    370.32269    38614.337 
  369200    304.55146   -1494.8872    500.80142    374.89178    912.62501    38614.337 
  369300    301.49599   -1499.2002    478.05851    334.10135    610.87251    38614.337 
  369400    303.43994   -1443.7171    510.78205    431.04617    528.16583    38614.337 
  369500    303.12394   -1418.9536    490.98082    434.58794     353.3741    38614.337 
  369600    296.12305    -1399.469    515.01927    446.64159   -205.35924    38614.337 
  369700    305.80734   -1430.1516    530.41098    474.88222   -295.39521    38614.337 
  369800    294.96938    -1459.277    483.85577    350.48427    163.49228    38614.337 
  369900    291.33729   -1480.8626    504.68487    333.40135    7.5709178    38614.337 
  370000    305.43145   -1421.6678    515.33013    466.59549    445.42734    38614.337 
  370100    299.72085   -1438.4376    491.68406     400.5101    269.97377    38614.337 
  370200    291.14417   -1428.3537    516.40514    396.76238   -540.43303    38614.337 
  370300    311.43698   -1405.9247    490.90449    484.90824   -146.45425    38614.337 
  370400    302.74438    -1413.394    490.69025    438.15085   -533.85608    38614.337 
  370500    298.78255   -1467.6046    466.89752     342.3389   -750.62965    38614.337 
  370600    303.50122   -1462.9505    495.30323    396.60934   -427.88228    38614.337 
  370700    300.42649    -1497.689    475.17385    327.92039   -862.37754    38614.337 
  370800    307.44536    -1458.596    479.01203    402.40188   -351.42381    38614.337 
  370900    299.67076   -1429.7023    495.71014    413.04634   -101.41589    38614.337 
  371000    304.70031   -1449.9792    475.01323    394.68072   -428.23181    38614.337 
  371100    299.58538    -1441.175    505.55207    411.03178   -520.99224    38614.337 
  371200    290.41242   -1472.1673     468.5602    301.81458   -29.543842    38614.337 
  371300    302.10059   -1458.0701    503.03775    402.92836     150.4168    38614.337 
  371400    310.52755   -1468.8442    466.79065     393.7869     326.9446    38614.337 
  371500    305.11281   -1469.2305    512.31933    414.58973    145.04625    38614.337 
  371600    300.07394   -1461.1819     491.6033    379.27225   -211.99889    38614.337 
  371700    305.52507   -1449.4497    500.26941    424.17371    515.30212    38614.337 
  371800    306.55373   -1511.2282    479.92996     346.6796    -338.4973    38614.337 
  371900    297.46466   -1471.8037    486.71214    352.03037   -202.96004    38614.337 
  372000    302.82833   -1474.5754    484.16335    370.81993    285.02924    38614.337 
  372100    302.03925   -1444.2903    493.53432    406.92902    -446.6878    38614.337 
  372200    307.42962   -1396.4722    492.71089    478.15382   -64.530128    38614.337 
  372300    304.43469   -1448.0097    495.48145    415.92438    15.677159    38614.337 
  372400    302.73121   -1427.6903    502.62725    435.73237   -101.99295    38614.337 
  372500    304.44041   -1457.8251     484.8056    395.45893   -36.454862    38614.337 
  372600    284.13783   -1442.9056    473.19124     307.5027   -173.23128    38614.337 
  372700    300.60599   -1426.4669    507.52752    432.30303   -376.33532    38614.337 
  372800    290.94065   -1445.2921    510.42737    372.93139   -444.66697    38614.337 
  372900    296.76358   -1476.6912    483.67689    340.95621    -197.1975    38614.337 
  373000     305.9351   -1474.7467    527.27643    427.72687   -907.02532    38614.337 
  373100    301.01695   -1472.8704    448.36696    328.58632   -942.89446    38614.337 
  373200    296.94104   -1463.0027    496.47907    368.24462   -671.67707    38614.337 
  373300    301.81264   -1429.2737    486.20291    413.59565   -465.57451    38614.337 
  373400    303.51538   -1452.4763     489.7396     401.5836   -247.18661    38614.337 
  373500    290.35852    -1475.381    497.71641    327.51479   -162.31043    38614.337 
  373600    300.55816   -1488.9465    527.91059    389.99149    420.89271    38614.337 
  373700    296.76144   -1467.8921    471.05847    337.12737   -303.32559    38614.337 
  373800    307.18351   -1452.5928    511.78275    439.99873    388.35513    38614.337 
  373900    296.47567   -1421.4318    493.90557    405.15012    226.05256    38614.337 
  374000    306.40461   -1422.4146    469.92346    424.81643    41.243179    38614.337 
  374100    298.93255   -1456.4439    513.62779    400.90406    53.581834    38614.337 
  374200     303.8677   -1449.4164    498.74429    415.23196     363.0849    38614.337 
  374300    295.50869    -1435.252    481.21827    374.29604   -171.19931    38614.337 
  374400      291.054   -1427.7872    491.02436    371.54278    -491.4931    38614.337 
  374500    291.49925   -1443.1043    494.64098    361.84378   -208.68666    38614.337 
  374600    304.45241   -1456.3657    473.25654    385.42311    272.02143    38614.337 
  374700    307.82941    -1429.178     511.6492    466.18335    431.33394    38614.337 
  374800    298.56113   -1454.7746    506.23146    393.50754    608.02582    38614.337 
  374900     302.6332   -1467.5916    495.23853    388.00183    515.51827    38614.337 
  375000    289.26012   -1505.0913    488.60523    283.75592   -14.813168    38614.337 
  375100    299.74774   -1457.9489    469.91704    359.35274   -489.24029    38614.337 
  375200    302.06619   -1453.3673    498.33653     402.7753   -400.03699    38614.337 
  375300    296.68244   -1456.3838    477.36896    354.59094   -630.69906    38614.337 
  375400    293.99165   -1441.5692    474.21048    354.15189   -235.02087    38614.337 
  375500    309.17263   -1429.2913     503.1917    463.65041   -97.011553    38614.337 
  375600    295.01571   -1438.7741    466.20145    353.54116   -638.28389    38614.337 
  375700    305.81774   -1423.6052    481.83492    432.89929   -802.44437    38614.337 
  375800    300.40841   -1422.0839     481.0645    409.33486    -689.8125    38614.337 
  375900    292.18027   -1447.3453    489.84379    355.86676    98.719993    38614.337 
  376000    302.04266   -1479.0152    499.08715    377.77231    436.13145    38614.337 
  376100    308.43246     -1448.58    499.54914    437.39201   -245.66149    38614.337 
  376200    294.37771   -1465.9806    501.47358     358.7389    195.81381    38614.337 
  376300    294.72436   -1489.0029    502.02653    337.82772    154.78359    38614.337 
  376400    306.69628   -1477.0327    466.75742    368.34337    39.080964    38614.337 
  376500    293.20588   -1476.1579      494.811    336.63156    293.23469    38614.337 
  376600    304.36986   -1488.1852    489.28697    369.26299    437.67447    38614.337 
  376700    316.60098   -1450.3263    492.86948    465.68411     419.4426    38614.337 
  376800    304.51039   -1488.2666    451.91298    332.43932   -215.29036    38614.337 
  376900    302.27124   -1484.2211     482.2904    356.79718    155.49493    38614.337 
  377000    303.88165    -1445.393    498.07993    418.65368   -4.4740265    38614.337 
  377100    308.52938   -1491.6346    485.16824    380.39226    56.541344    38614.337 
  377200    311.27793   -1501.4143    484.01709    381.81626    288.39802    38614.337 
  377300    293.85206   -1499.8934    495.86113    316.85087    283.76503    38614.337 
  377400    291.71082   -1470.6759    511.96239    352.54452   -76.780105    38614.337 
  377500    296.30462   -1479.8237    500.63294    352.71679    115.46474    38614.337 
  377600    293.07017   -1487.7302    492.68898    322.32724   -372.92865    38614.337 
  377700    298.98377   -1439.6035    499.24206    403.58903   -35.606602    38614.337 
  377800    308.98291   -1456.0337    485.44576    418.30928    13.510859    38614.337 
  377900    298.01161    -1471.068    504.58543    373.09796   -409.49836    38614.337 
  378000    292.66247   -1486.3332    518.91863    348.12128   -74.055733    38614.337 
  378100    303.09066   -1461.8861    510.22322    410.74831   -169.80923    38614.337 
  378200    295.65812   -1426.3334    513.28372    415.95172   -303.82894    38614.337 
  378300    299.87867   -1459.7608    497.16407    385.37632   -674.31544    38614.337 
  378400    300.79185   -1479.3635    499.91673    372.63107   -105.56763    38614.337 
  378500    305.78813   -1480.8459    481.01335    374.70386   -101.45295    38614.337 
  378600    296.33994   -1490.9576    496.71161    337.82026   -157.17176    38614.337 
  378700    290.56592   -1475.2217    470.21583     301.1058   -65.542748    38614.337 
  378800    306.33181   -1496.8142    523.84889    404.01498    95.581372    38614.337 
  378900    304.66562   -1489.9651    485.68118    365.20682   -442.65707    38614.337 
  379000    305.18162   -1452.0474    494.75732    414.52009   -634.17414    38614.337 
  379100     298.5892   -1468.3732    497.86739    371.67107   -952.01315    38614.337 
  379200    309.26098   -1488.7027    485.45736    386.90181   -206.51731    38614.337 
  379300    297.74128   -1536.7168    491.38053    293.02908   -437.06163    38614.337 
  379400    295.18994    -1497.738    483.70806    312.86697   -117.66928    38614.337 
  379500    297.27046   -1511.6124    499.04567    323.68231   -232.42361    38614.337 
  379600     297.1597   -1560.4587    492.56051    267.85291    -100.1597    38614.337 
  379700    286.61257   -1533.2882    454.55692    209.60984   -232.40689    38614.337 
  379800    303.62622   -1546.6299    486.04959    304.23821   -66.642107    38614.337 
  379900    303.23086   -1569.6694    477.61854    270.99048    764.41282    38614.337 
  380000    293.57557   -1560.1534     486.8835    246.37039     721.1535    38614.337 
  380100    301.94117   -1504.6636    510.07369    362.65422    473.84441    38614.337 
  380200    297.04583   -1484.7016    487.26593    337.80361    498.25918    38614.337 
  380300    303.64549   -1528.0678    493.27542    330.11274    482.45006    38614.337 
  380400    308.45691    -1503.449    468.91112     351.9949   -424.90417    38614.337 
  380500    292.10274   -1485.6196    473.45281    300.85302   -129.36454    38614.337 
  380600    300.06836   -1468.9785    511.92003    391.76723    229.56304    38614.337 
  380700     294.6409   -1459.1841     513.3533    378.59825    -385.3675    38614.337 
  380800    299.54221   -1444.8974    480.56752    382.13075   -234.47619    38614.337 
  380900    304.84965   -1448.6439    490.24691    411.92097   -520.24342    38614.337 
  381000    299.74602   -1467.7774    491.43442    371.03384   -432.12499    38614.337 
  381100     305.1473   -1473.1649    472.98932    371.48033    -167.8813    38614.337 
  381200    302.45177   -1447.2224    490.34724    402.66421   -430.45223    38614.337 
  381300    297.81718   -1454.8767    538.12218    421.95205   -191.64624    38614.337 
  381400    300.71078   -1444.0939    446.68444    354.30403   -3.4044825    38614.337 
  381500    307.90516   -1486.2514    477.70436    375.50558   -328.90065    38614.337 
  381600     297.9678    -1487.099    494.26017    346.54478   -240.79283    38614.337 
  381700    302.68923   -1465.2452    487.67806    383.03958   -1.0176001    38614.337 
  381800     295.7726   -1477.4801    480.50037    332.53627    206.57724    38614.337 
  381900    284.85366   -1490.7584    475.27909    264.95538   -225.36327    38614.337 
  382000    295.78524   -1488.1856     509.0579    350.44523    -26.17263    38614.337 
  382100    296.07955   -1505.3688    478.32522    303.85222   -28.776363    38614.337 
  382200    301.50501   -1512.3007    504.67911      347.662    706.89123    38614.337 
  382300     300.8586   -1495.1796    481.72014    338.91848    268.77183    38614.337 
  382400    299.72677   -1431.5453    518.05724    433.80223    354.42993    38614.337 
  382500    306.33541   -1461.0215    513.55356    429.52861   -39.870593    38614.337 
  382600    301.72774   -1449.9703    468.10394    374.41844   -268.81239    38614.337 
  382700    299.36852   -1453.5852    496.64596     388.7407    -665.3842    38614.337 
  382800    305.40781   -1476.1527    478.59234    375.26653    197.30513    38614.337 
  382900    302.81054   -1492.7499    475.50876    343.91091   -413.14665    38614.337 
  383000    303.77724   -1472.0333    510.20835    403.67241    101.29125    38614.337 
  383100    292.83704   -1473.7522    501.58392    344.15229   -315.52043    38614.337 
  383200    302.23924   -1484.7164    496.36534    370.23292    489.44303    38614.337 
  383300    303.05961   -1489.3163    485.16368    358.11898    439.32923    38614.337 
  383400    307.31653   -1487.4032    491.06008    385.06363    484.32672    38614.337 
  383500    298.16392   -1551.7451    471.65836    260.17844    515.87488    38614.337 
  383600    303.19101   -1520.0255    515.18593    358.02264    756.08534    38614.337 
  383700     310.2101   -1507.3887    485.99402    373.01888    332.93407    38614.337 
  383800    295.17805   -1500.9406    520.12352    346.02643    370.77338    38614.337 
  383900    303.95864   -1554.6176    499.31192    311.00711    268.03748    38614.337 
  384000    303.52326    -1532.992    503.05562    334.41932    452.61047    38614.337 
  384100    285.08654   -1512.9326    489.09014    257.63907    412.62756    38614.337 
  384200    288.82045   -1524.3102    494.20161    268.15709    779.75689    38614.337 
  384300     303.3162   -1519.0761    487.83353    332.18247    850.37182    38614.337 
  384400    293.45005   -1553.2585    498.03942    263.85695    1299.9075    38614.337 
  384500    302.09349    -1543.767    454.45714    268.61897    1259.3596    38614.337 
  384600    299.90361   -1552.2538    486.19383    282.02526    1042.8929    38614.337 
  384700    311.27625    -1526.407    488.53348    361.33242    729.23897    38614.337 
  384800    310.15941   -1537.7844    482.24676    338.64802    223.28468    38614.337 
  384900    290.34745   -1518.3422    495.78832    282.57574   -249.04343    38614.337 
  385000    298.31435   -1524.2063    490.28058    307.01567    170.83275    38614.337 
  385100    298.91661   -1565.3276    496.24085    274.56185   -76.526001    38614.337 
  385200    291.62735    -1556.309    495.31995    249.89389   -72.114639    38614.337 
  385300     301.7845   -1546.0662    472.66727    283.14092   -329.16061    38614.337 
  385400    314.58974    -1557.329    496.24096    353.01226   -721.47024    38614.337 
  385500     298.4119   -1559.3287    482.26104    264.31221    117.96524    38614.337 
  385600    295.97727   -1525.4106    523.89084    328.91633    22.748805    38614.337 
  385700    311.67767   -1554.1166    494.76299    341.65672    306.49091    38614.337 
  385800    307.56288   -1542.7784    491.24273    330.97844    598.57249    38614.337 
  385900     295.4933   -1518.1263    495.50428     305.6385    110.20113    38614.337 
  386000    303.59397   -1533.5915    510.72232    341.80436    160.23448    38614.337 
  386100    305.53137   -1574.7684    472.09636    270.71029   -484.94914    38614.337 
  386200    292.90643   -1567.8338    494.78841    243.58709   -671.78172    38614.337 
  386300     320.3486   -1516.9881    507.36286     430.3615   -660.67453    38614.337 
  386400     298.2998   -1501.7393    498.29518     337.4318   -224.59574    38614.337 
  386500    299.67782    -1549.434    531.00765    328.64393   -507.19159    38614.337 
  386600    296.48999   -1511.4943    488.78339    310.02985   -458.55983    38614.337 
  386700    298.60534   -1516.1945    498.07513    324.12998   -354.65426    38614.337 
  386800    295.87148   -1532.5345    513.51236    310.93838    23.147641    38614.337 
  386900    301.46274    -1513.123    488.23302    330.20359    564.82139    38614.337 
  387000      305.893   -1476.1076    504.35667    403.25699    48.253804    38614.337 
  387100     294.9635   -1471.0814    504.87031      359.668   -100.35451    38614.337 
  387200    292.84893   -1534.1897    522.53972    304.72402   -165.51812    38614.337 
  387300    310.23302   -1507.3363    492.67227    379.85253    383.47935    38614.337 
  387400    301.00782   -1520.2295    499.08904    331.90823   -240.47971    38614.337 
  387500    305.64018   -1525.4123    497.03774    345.49691   -488.44829    38614.337 
  387600     294.2576   -1532.3088    501.55922     291.9565   -822.51509    38614.337 
  387700    294.72923   -1545.2574    505.93703     285.5057   -366.84506    38614.337 
  387800    297.33096   -1545.0361    513.17429     304.6591   -115.18289    38614.337 
  387900    293.61407   -1565.1545    497.65313    252.31189    209.27125    38614.337 
  388000     290.7452   -1578.3313    502.98824    231.57454   -473.40018    38614.337 
  388100     298.1641    -1518.855    473.40729    294.81833   -232.04889    38614.337 
  388200    295.06956   -1507.0428     530.1462    349.45923   -404.10278    38614.337 
  388300    295.27412   -1536.9326    495.14567    285.48838   -788.19344    38614.337 
  388400    304.90069   -1529.4366    501.75594    342.86672   -470.85869    38614.337 
  388500    307.77793   -1504.4003    507.97633    387.05679    -398.9561    38614.337 
  388600    295.49317   -1534.5079    499.68878    293.44081   -676.75519    38614.337 
  388700    303.67148   -1546.4123    472.72088     291.3306   -166.89761    38614.337 
  388800    299.33779   -1545.8136    513.51235     313.2405   -9.0007854    38614.337 
  388900     290.3568   -1535.5388    474.27505    243.90795    206.38762    38614.337 
  389000     305.6978   -1590.2352    495.91149    279.80671    118.75363    38614.337 
  389100    305.88036   -1571.4827    511.59295    315.06131    714.13139    38614.337 
  389200    291.91656   -1554.2528    481.98946    239.91956    632.55922    38614.337 
  389300    297.83569   -1566.5037    468.18164    240.46769    202.97504    38614.337 
  389400    312.82298   -1550.0221    546.71966    402.85608    18.150995    38614.337 
  389500    312.59796   -1543.6653     469.9475    331.42929    -208.6589    38614.337 
  389600    302.48866   -1524.0753    490.22833    325.85818   -263.97305    38614.337 
  389700    303.55969   -1543.2458    467.26978    288.54349   -193.64104    38614.337 
  389800     303.6683   -1511.7002    499.71325    353.02073    260.69923    38614.337 
  389900     301.1906   -1514.6367    507.46036    346.69393    734.26476    38614.337 
  390000     291.8671   -1485.4313    501.86794    328.39719    169.11607    38614.337 
  390100    297.45934   -1512.2648    482.68269    307.51596   -288.52352    38614.337 
  390200    306.98516   -1505.9235    510.36543    384.35908   -218.75579    38614.337 
  390300    301.57797   -1530.7296    496.18796    321.06994   -483.34955    38614.337 
  390400    294.41704   -1491.6466    490.22258    321.99872   -694.53115    38614.337 
  390500    307.81192   -1508.8859      519.569     394.3167   -459.15554    38614.337 
  390600     307.5085   -1512.8526    490.73283    360.14989   -617.10462    38614.337 
  390700    307.10281    -1472.964    521.01067    428.49269     67.45517    38614.337 
  390800    306.61963    -1513.953    480.90004     345.2212   -107.52986    38614.337 
  390900     293.9939   -1501.2396    485.80345     306.0845    201.76799    38614.337 
  391000    294.45402   -1458.8971    518.83132    383.52321    213.46206    38614.337 
  391100    291.32049   -1481.6996       522.48    350.28399    750.75329    38614.337 
  391200    288.16015   -1498.7301    528.02573    324.59326    974.01587    38614.337 
  391300    294.83539   -1480.8794    500.05685    344.48071    522.25343    38614.337 
  391400    288.94125    -1470.741     506.9921    335.05986   -27.877841    38614.337 
  391500    305.84064   -1479.8974    523.19451     418.0696    561.54506    38614.337 
  391600    291.80526   -1465.2864    518.74849     365.1447    915.42437    38614.337 
  391700    304.45318   -1502.3727     507.6744    373.83744    701.07205    38614.337 
  391800    301.68023    -1493.136    514.68701    377.62225    468.02245    38614.337 
  391900    296.85388   -1506.2612    476.23488     304.3501    198.75177    38614.337 
  392000    308.48807   -1484.3853    520.63619    422.92378    428.06821    38614.337 
  392100    303.29466   -1487.8057    489.21912    364.74155    102.38086    38614.337 
  392200     304.5667   -1523.1867     503.0431    348.90247   -24.673304    38614.337 
  392300    299.51386   -1552.8947    520.78762    314.22622    293.34953    38614.337 
  392400    298.22523   -1507.0298    515.15645    348.66744     340.4398    38614.337 
  392500    300.47543   -1494.7966    507.81051    363.66952    667.09332    38614.337 
  392600    296.67261   -1483.9128    514.78852    364.43738    476.92023    38614.337 
  392700    299.21552    -1509.154    503.38739    339.22558    575.43954    38614.337 
  392800    306.51799   -1569.1199     522.5582     331.2555     193.7825    38614.337 
  392900    295.85277   -1548.4569    495.31102    276.73058   -153.60557    38614.337 
  393000    292.32709   -1503.8332    489.59299    299.78806   -191.64321    38614.337 
  393100    300.50316   -1499.1623    507.85859     359.4765   -105.05342    38614.337 
  393200    309.46359   -1530.8266    521.47547    381.70674   -318.59205    38614.337 
  393300     299.2668   -1531.7173    511.17751    324.68289    40.824578    38614.337 
  393400    308.79755   -1514.7167     490.3562    363.70348   -211.69682    38614.337 
  393500    300.60819   -1531.2981    503.96175    323.91596    253.75392    38614.337 
  393600    305.90258   -1505.3701    497.50493    367.18571   -28.019646    38614.337 
  393700    303.27441   -1505.9959    513.05008    370.29138    596.08839    38614.337 
  393800    293.04905   -1517.5641     467.4691    267.17851   -492.10014    38614.337 
  393900    307.75181   -1514.0463    541.62296    410.94004    173.40241    38614.337 
  394000    300.91912   -1481.4196    481.46352    352.69387    307.34436    38614.337 
  394100    297.48761      -1538.6    513.37236    311.99751    142.06657    38614.337 
  394200    296.02579   -1508.3335      484.839    307.15961    274.06492    38614.337 
  394300    294.83397   -1580.5422    496.91536    241.67003   -100.53854    38614.337 
  394400    298.89853   -1521.6547     523.4399    345.35253   -261.82233    38614.337 
  394500    304.25211   -1511.4468    489.91399    346.09915   -291.78645    38614.337 
  394600    298.86709   -1480.4007    531.19072    394.21605   -517.66409    38614.337 
  394700    304.43465   -1491.2377    514.22298    391.43772   -775.80594    38614.337 
  394800    294.97402   -1524.5118    470.00466    271.41923   -469.95799    38614.337 
  394900    304.52521    -1529.671    529.23637    368.42498   -7.6678879    38614.337 
  395000    288.05157   -1547.8737    482.27228     229.2081    365.41523    38614.337 
  395100    307.15395   -1534.3438    523.27772    369.60984    891.00596    38614.337 
  395200      297.592   -1514.7904    505.87651    328.78045     756.6807    38614.337 
  395300    289.85721   -1503.0881    514.37746    314.21542    216.93358    38614.337 
  395400    294.46234   -1482.9723    510.58509     351.2391    89.025978    38614.337 
  395500    297.01709   -1473.0312    519.77324    381.85213    568.70444    38614.337 
  395600    303.45078   -1489.1096    501.19127     376.1116    400.99551    38614.337 
  395700    305.26074   -1503.7183    523.76094    392.20842    59.772406    38614.337 
  395800    298.61016   -1467.2246     506.1846    381.23105   -173.72552    38614.337 
  395900      297.402   -1488.1668     499.5737    348.24717   -451.42493    38614.337 
  396000    302.05448   -1480.1777    508.70104     386.2768   -563.73948    38614.337 
  396100    295.86205   -1487.4063    529.87796    372.38975   -234.81873    38614.337 
  396200    297.28792   -1467.9306    502.27159    370.66854   -393.01171    38614.337 
  396300    305.39857     -1496.19    507.53148    384.12688   -689.92521    38614.337 
  396400    299.34669    -1473.785    474.45105    346.24787   -669.52708    38614.337 
  396500    296.16616   -1473.6964     496.1088    353.69752   -216.04428    38614.337 
  396600    293.74049   -1489.7495    503.23923     333.8713    307.95363    38614.337 
  396700     303.3146   -1522.1174    519.07376    360.37419   -5.1131425    38614.337 
  396800    298.44832   -1517.9163    514.60186    338.22914    668.02369    38614.337 
  396900    286.44351   -1508.0139    503.19145    282.75874    239.45555    38614.337 
  397000    310.15241   -1502.9605    521.17683    412.37047    93.990131    38614.337 
  397100    302.67529   -1534.1555    469.44148    295.83002    67.837611    38614.337 
  397200    306.71844   -1548.5403    497.90208    328.08006     298.2111    38614.337 
  397300     292.4268   -1508.7137    514.25302    320.01577    210.80318    38614.337 
  397400     296.1337   -1475.2386    495.82626    351.72691     48.95552    38614.337 
  397500    300.27517   -1528.6525    491.91825     313.0211      -802.92    38614.337 
  397600    303.49483   -1494.1392    500.61062    370.69935   -707.94777    38614.337 
  397700    303.78705   -1505.9744      514.813    374.38012   -724.65155    38614.337 
  397800    302.93234    -1513.545     504.1049    352.25946   -249.38371    38614.337 
  397900    293.05521   -1525.9972    484.03007    275.33408    36.472625    38614.337 
  398000    298.92299   -1515.9529    539.04036     366.7647    182.91424    38614.337 
  398100    298.36027    -1572.242    482.84368    251.74945    170.57872    38614.337 
  398200    309.90532   -1520.5802    497.00803    369.47134    740.75691    38614.337 
  398300    301.75361   -1501.7411    527.80374     382.4637    427.79567    38614.337 
  398400    291.07736   -1528.3335    491.83696    271.91413    344.67024    38614.337 
  398500    297.12216   -1544.9147    494.41859    285.08629    591.24369    38614.337 
  398600    296.98628   -1531.7011    518.97537    322.24589    399.72496    38614.337 
  398700     295.9035   -1594.2016    499.02006    234.92292    -18.78536    38614.337 
  398800    298.83933   -1564.9046     482.9309    261.32744    -131.1538    38614.337 
  398900    294.58359   -1575.4969    481.36863    230.04311   -37.694233    38614.337 
  399000     302.1593   -1548.7965    488.14186    297.56997    50.711852    38614.337 
  399100    307.30067   -1557.7844     507.7394    331.29047    445.97733    38614.337 
  399200    301.27154   -1553.4431    490.16536     290.9564    241.02024    38614.337 
  399300    297.50451   -1531.7088    497.47965    303.07197    448.09364    38614.337 
  399400    299.58305   -1602.5502    505.33099      249.425   -36.213178    38614.337 
  399500    288.64577   -1560.9316    509.34551     245.8944     440.1808    38614.337 
  399600    295.44241   -1548.5214    472.81245    252.32287    195.66791    38614.337 
  399700     295.8113    -1510.456    520.40413    339.63819     315.4071    38614.337 
  399800    285.37797   -1511.8797     522.1661    293.07798    42.474905    38614.337 
  399900    302.04242   -1556.6753    490.12968    291.15368      157.354    38614.337 
  400000    300.36242   -1553.9093    489.98239    286.22068     96.08921    38614.337 
  400100    302.24272   -1540.7569    490.41831    308.26101   -87.917229    38614.337 
  400200     303.7958   -1541.0191    479.78542    304.34712    221.80163    38614.337 
  400300    302.90527   -1539.2034    507.79888    330.17327    316.19573    38614.337 
  400400    297.63049   -1515.8411    497.78388    319.81018   -58.814446    38614.337 
  400500    303.33042   -1583.3677     511.2825     291.4037    40.002667    38614.337 
  400600    303.72912   -1547.4693    466.31996     284.1318   -164.73269    38614.337 
  400700    301.91556   -1565.7732    505.31774    296.67356    256.96288    38614.337 
  400800    292.31545   -1583.0946    488.16869       219.05   -387.35086    38614.337 
  400900    310.60724   -1556.9565    483.35019    322.59234   -234.91823    38614.337 
  401000    305.47324    -1539.473    472.04401    305.69207    159.33387    38614.337 
  401100    287.93763   -1549.9413    494.83224    239.18826    438.46874    38614.337 
  401200     295.8798   -1584.1037    492.63025     238.5245    370.54786    38614.337 
  401300    310.47764   -1596.7743    524.34543    323.18727    565.54681    38614.337 
  401400    298.27953   -1543.9923    457.20508    253.99763   -167.34773    38614.337 
  401500    304.31916   -1534.9757    505.59852    338.55614    249.03386    38614.337 
  401600    296.70675   -1579.8531    517.73598    271.59794    348.33494    38614.337 
  401700    289.54474   -1576.6488    473.51938    198.39205    91.568265    38614.337 
  401800    300.80924   -1557.8553    499.17604    293.47678   -188.11676    38614.337 
  401900    303.85594   -1564.6266    466.10302    267.32758    292.89609    38614.337 
  402000     303.2279   -1600.3332    471.78754    234.48245    222.42939    38614.337 
  402100    295.17378   -1559.3552    500.28201    267.75108    111.95358    38614.337 
  402200    307.98041   -1551.5068    516.12232    349.00645    279.25018    38614.337 
  402300    294.63255   -1586.2725    488.10567    226.22456   -155.64547    38614.337 
  402400    304.57066   -1560.0416    515.27308    324.29539    411.22127    38614.337 
  402500    308.08012   -1524.7407    459.42634    319.52475   -392.82349    38614.337 
  402600    294.68242   -1558.8489    509.33819     275.1049   -492.71393    38614.337 
  402700    299.13899   -1580.6414    480.04577    244.05259   -544.26442    38614.337 
  402800    298.51479    -1544.792    499.00974    296.06011   -728.03153    38614.337 
  402900    301.54844   -1554.5668    503.17646    304.08847   -124.00654    38614.337 
  403000    296.92703   -1538.5952    483.75122    279.86135   -521.86479    38614.337 
  403100    302.08621   -1509.4338     498.9963    347.45858   -318.91962    38614.337 
  403200    302.94564   -1505.7753    495.11627    351.10025   -567.89993    38614.337 
  403300    292.73656   -1535.0067    490.64336    271.50555    359.61189    38614.337 
  403400    308.68804   -1540.7231    482.39322    329.24188    106.87558    38614.337 
  403500    292.55315   -1531.2872     510.1802    293.93739   -24.695911    38614.337 
  403600    299.51323   -1504.6395    505.06357    346.75446   -35.762913    38614.337 
  403700    296.26674   -1489.2972    514.00464    356.44468    297.56835    38614.337 
  403800    299.46693   -1519.2919     507.3718    334.20219    47.385555    38614.337 
  403900    298.60008    -1542.365    492.39253    292.25329   -418.42615    38614.337 
  404000    303.43192   -1552.3697    467.26785    278.84334   -318.03183    38614.337 
  404100    302.67428   -1525.0311    522.00932    357.51778    180.35718    38614.337 
  404200    306.94835   -1544.3414    519.10098    354.51135   -31.308944    38614.337 
  404300     304.1985   -1504.6234    470.64068    333.40832    77.732826    38614.337 
  404400    297.55203   -1491.9682    484.09672    329.64325    585.26946    38614.337 
  404500    307.24574   -1520.3297    493.92399     354.6828    228.51028    38614.337 
  404600    296.55693   -1502.7369    504.73484    335.03954    255.91557    38614.337 
  404700    289.38752   -1469.0967    533.26022    364.97826    1.8543936    38614.337 
  404800    297.38435   -1448.3773    503.43223    391.81586     13.60666    38614.337 
  404900    295.06943   -1482.6907    512.52588    356.19044     64.40835    38614.337 
  405000    305.87759   -1443.6963    487.46851    418.71082   -479.17898    38614.337 
  405100    288.49769   -1443.3938    528.07899    381.50008   -744.94003    38614.337 
  405200    303.73864    -1453.095     506.0294    418.25834   -563.02777    38614.337 
  405300    293.73261   -1471.0358    504.98296    354.29334   -789.64836    38614.337 
  405400     297.6901   -1446.9139    518.45816    409.67954   -241.94018    38614.337 
  405500     291.3464   -1496.6879    507.43262    320.36469   -208.45969    38614.337 
  405600    302.40528   -1503.6813    489.55863     345.2077   -484.65637    38614.337 
  405700    288.01089   -1491.4478    526.31206    329.49094   -212.30952    38614.337 
  405800    296.43632   -1513.3966    496.60437    315.70725    2.5985601    38614.337 
  405900    295.40973   -1518.9067    519.83438    328.81257    239.21201    38614.337 
  406000    303.74236   -1524.5667    511.00342    351.77727       109.24    38614.337 
  406100    300.74989   -1542.3991    513.88226    323.37244    128.20897    38614.337 
  406200    297.60852   -1513.4401      478.336    302.66458   -170.30159    38614.337 
  406300    302.49062   -1516.5313    484.10497    327.28762   -1064.5786    38614.337 
  406400    295.94218   -1519.6325     503.3624    314.00819   -456.48505    38614.337 
  406500    295.96052    -1582.247    479.61524    227.72894    -677.8063    38614.337 
  406600    296.25757   -1535.4627    491.56378    287.79704   -281.44289    38614.337 
  406700     302.8125   -1525.6956    482.31042    317.77569    265.56203    38614.337 
  406800    298.60062   -1495.6226    519.95619    366.56172   -247.73984    38614.337 
  406900    293.85158   -1483.6334    500.75375    338.00128   -718.22428    38614.337 
  407000     297.6481   -1492.0417    498.16152    344.06637   -186.76187    38614.337 
  407100    304.85341   -1508.2585    486.96742    349.04373   -505.07111    38614.337 
  407200    292.51871   -1506.3192    470.26189     278.8323   -273.34622    38614.337 
  407300    311.02106   -1509.5256    488.96134    377.49455   -552.19816    38614.337 
  407400    309.50104   -1525.8241    521.18023    386.58232    -242.9295    38614.337 
  407500    300.21607   -1507.3771    507.33453    349.44716   -581.96158    38614.337 
  407600    299.83868   -1540.7441    481.81368     288.8629   -778.83759    38614.337 
  407700    292.04337   -1579.4751    482.37961    215.65743   -545.78303    38614.337 
  407800    290.36725   -1536.1069    485.87255    254.98436   -831.35429    38614.337 
  407900    303.33812   -1545.6219    472.95136    290.85305   -200.88051    38614.337 
  408000    297.64028   -1536.5666    480.14434    281.48916   -527.00018    38614.337 
  408100    293.83524   -1502.1059    514.46644    333.16804    291.57296    38614.337 
  408200    296.00027   -1504.8354    511.08098    336.78502    258.99774    38614.337 
  408300     298.6719   -1519.5876    482.47453    305.43544    757.28658    38614.337 
  408400     299.5029    -1535.817    478.81463    289.28159    384.48733    38614.337 
  408500    289.14656   -1524.5367     512.9885    288.18341    378.85778    38614.337 
  408600    294.92224   -1551.6128     472.4853    246.56609   -266.39576    38614.337 
  408700    300.38688   -1529.0539    482.09234    303.29599   -128.67153    38614.337 
  408800    290.35001   -1503.7878    489.42705    290.78041   -787.04964    38614.337 
  408900    316.03156   -1503.6821    497.22534    414.12456   -396.11587    38614.337 
  409000    304.20888   -1477.7479    487.94003     377.6298   -725.66591    38614.337 
  409100    294.00541   -1527.0381    490.86762    285.40197   -326.53487    38614.337 
  409200    289.10019    -1520.421    511.77591    290.87811   -539.09161    38614.337 
  409300    302.83982   -1501.0106    493.33328    353.60633    -731.4606    38614.337 
  409400    288.31987   -1537.5936    491.00784     249.4298   -480.44901    38614.337 
  409500    296.77921   -1509.6637    497.25402    321.63118    134.73106    38614.337 
  409600    299.49853   -1514.7336    508.04324    339.57397    100.30773    38614.337 
  409700    299.40604   -1551.0726    474.31351    269.08951    119.14994    38614.337 
  409800    297.61415   -1525.7185    487.51379    299.58923    45.715227    38614.337 
  409900    289.47554   -1495.4773    494.06942    299.80245    329.15892    38614.337 
  410000    294.25222   -1489.3021    507.45871    340.83846    251.87024    38614.337 
  410100    310.54773   -1500.1786    481.90396    377.65656    313.52249    38614.337 
  410200    309.13539   -1505.6218     494.7895    378.75026    516.64416    38614.337 
  410300    306.60778   -1558.9145    504.50278    323.80915    500.13998    38614.337 
  410400    305.47224   -1570.9234    494.06512    296.25826    185.67069    38614.337 
  410500    295.32854   -1537.4129    498.87295    288.98002    465.76593    38614.337 
  410600    302.89961   -1517.3195    506.82697    351.05982    130.12012    38614.337 
  410700    295.95066   -1550.8592    491.63538    271.09262   -72.176773    38614.337 
  410800    296.57601   -1518.3166    480.38543    295.19623   -19.760435    38614.337 
  410900    305.95215   -1529.8345    485.49535    330.93462    -117.7836    38614.337 
  411000    291.90903   -1516.3454    515.36994    311.17355   -413.91479    38614.337 
  411100    290.99724    -1516.031    505.20976    297.22932     369.9559    38614.337 
  411200    295.42855   -1511.9182    517.98024    334.03158   -437.24633    38614.337 
  411300    304.91569   -1515.0984    487.06775    342.58415    644.75742    38614.337 
  411400    304.76293   -1485.9885    490.23998     374.1796    754.79366    38614.337 
  411500    302.00578   -1531.1876     510.8284    337.17534    456.63992    38614.337 
  411600    284.37969   -1474.9196    487.32819    290.71277    454.78159    38614.337 
  411700    301.23535   -1488.3106    505.11426    370.87515   -35.797019    38614.337 
  411800    299.77467   -1480.1228    505.04076    372.42352    350.73594    38614.337 
  411900    295.46557   -1493.6094    501.69022    336.21677    158.66564    38614.337 
  412000    305.77852   -1484.8657    506.42468    396.05227    -606.8866    38614.337 
  412100    298.75567   -1500.4873    479.50793     321.9457   -1129.3551    38614.337 
  412200     304.7305   -1496.4129    472.96747    346.33689   -555.49562    38614.337 
  412300    310.46213   -1505.3621    480.14177    370.32605    -1117.107    38614.337 
  412400     297.8642   -1516.9249    481.78209    303.77513   -1190.4737    38614.337 
  412500    296.96688   -1545.1246     478.9275    268.68732    -452.4285    38614.337 
  412600    289.03038   -1558.9895    460.01459    200.23449   -343.56707    38614.337 
  412700    308.92926   -1524.4263    504.04654    368.27625    251.47163    38614.337 
  412800    307.65248   -1539.5853    497.03304    340.36456    82.431282    38614.337 
  412900    291.54907   -1512.4602    499.96955    298.04039   -89.129168    38614.337 
  413000    300.86974   -1533.2108    480.86407     300.0813   -263.24465    38614.337 
  413100    296.70374   -1552.4446    474.25774    255.51473    -208.2495    38614.337 
  413200    297.14541   -1483.9561    481.75003    333.48082    236.40135    38614.337 
  413300    301.79251   -1465.7819    485.49126    376.28531   -37.204057    38614.337 
  413400    308.21936   -1487.6839     526.1166    423.89773    713.70893    38614.337 
  413500    290.98663   -1525.2508    504.57751    287.32953    662.74588    38614.337 
  413600    307.06932     -1514.39    487.93003     353.8355    715.13467    38614.337 
  413700    300.44439     -1527.81    491.45583    314.16183    208.93576    38614.337 
  413800    296.92085   -1516.1463    471.83456    290.36576    272.78048    38614.337 
  413900    289.66217   -1516.1226    507.49488    293.42154    89.694339    38614.337 
  414000    293.37745   -1496.8963    500.77033     322.6237   -177.55211    38614.337 
  414100    289.63787   -1478.8343    480.74617     303.8519   -349.21805    38614.337 
  414200    306.28945   -1457.1732    517.88933    437.50606     -241.141    38614.337 
  414300    297.70036   -1501.4901    457.00687    293.69819   -107.60734    38614.337 
  414400    307.26323   -1517.3386    518.22899     382.0575   -256.51621    38614.337 
  414500    294.68327   -1527.5749    481.91636     278.9609   -392.29726    38614.337 
  414600    290.68179   -1493.4163    498.23972    311.45595   -364.74371    38614.337 
  414700     307.8603   -1544.1605    483.47229    323.16278   -29.647587    38614.337 
  414800    293.58661   -1538.5913    479.05111    260.14967   -543.85454    38614.337 
  414900    299.53791   -1496.0235    491.97131    342.38916   -186.42828    38614.337 
  415000    291.30609   -1491.6427     484.4107    302.20685   -236.71506    38614.337 
  415100    292.64725   -1536.4306     473.3018    252.33864    45.421479    38614.337 
  415200    301.02172   -1509.9145    496.98235    340.17901    335.71726    38614.337 
  415300     303.0947   -1548.5044    496.45502     310.3799    265.58591    38614.337 
  415400    303.02218   -1520.3876    465.58018    307.29592    -205.8989    38614.337 
  415500     299.5173    -1486.376    508.32015    368.29284    18.350989    38614.337 
  415600     294.1886   -1531.9388    496.25706    286.71413    484.72576    38614.337 
  415700    286.46453   -1532.8564    491.96379    246.78307    228.46026    38614.337 
  415800     308.7433   -1518.5046    514.99973    384.31527    102.36263    38614.337 
  415900    310.68125   -1490.9555    499.23987    404.81573    67.865201    38614.337 
  416000    308.87065   -1506.1382    487.95746    370.21184     799.7909    38614.337 
  416100    287.18616    -1527.116    497.97094    261.77437    300.73889    38614.337 
  416200    300.05301   -1541.9488    484.38231    291.19023     11.87475    38614.337 
  416300    302.97583   -1541.3377    477.46435    298.02169    379.68225    38614.337 
  416400    301.77517   -1517.9049    501.68158    340.27462    333.98762    38614.337 
  416500    303.54223   -1552.9571    472.63441    284.11832    536.42364    38614.337 
  416600    301.34455   -1581.0814    510.53805    284.01898    568.03204    38614.337 
  416700    301.48858   -1546.4157    494.63213    303.42615    329.37113    38614.337 
  416800     294.0373   -1473.3345    493.39342    341.77472    391.19367    38614.337 
  416900    295.60483   -1502.9781    496.78225    322.56603   -116.07998    38614.337 
  417000    294.29746   -1528.2895    472.76861     267.3643   -262.82077    38614.337 
  417100    308.76153   -1535.9156    497.32823    349.31469   -151.83284    38614.337 
  417200    291.09009   -1523.8118    477.22201    261.87807   -192.61865    38614.337 
  417300    303.99753   -1504.9105    499.74992      361.327    123.13505    38614.337 
  417400    302.46663   -1482.2178     494.4141    371.80241    561.68172    38614.337 
  417500    296.79492   -1495.7245    498.55443    336.94142    1117.1882    38614.337 
  417600    306.55384   -1489.9096     494.2049    382.27365    1150.0552    38614.337 
  417700    300.30089   -1483.5399    528.57722    394.90833    792.49446    38614.337 
  417800    303.33724   -1476.4367    474.20165     361.2845    305.74672    38614.337 
  417900    291.85959   -1556.9604    467.99848    222.96485    688.69568    38614.337 
  418000    297.78456   -1497.7734    499.90375    340.69032    497.16593    38614.337 
  418100    289.30614   -1462.2946    494.70062    332.85491    1265.5213    38614.337 
  418200    311.22397    -1505.115    490.80643    384.66236    42.888647    38614.337 
  418300    306.00321    -1488.084    500.72925    388.14848    401.63177    38614.337 
  418400    301.63721   -1540.4876    487.10067    302.49084    462.32132    38614.337 
  418500    307.53408   -1472.9531    487.22929    396.66079    656.19049    38614.337 
  418600      303.274    -1490.711    487.57361    360.09792    180.04186    38614.337 
  418700    305.42325   -1474.7027    500.33849    398.53208   -13.435216    38614.337 
  418800    276.61543   -1500.5147    507.83797    250.72668   -414.87302    38614.337 
  418900    307.04293   -1492.4457    460.98865    348.71988    98.356904    38614.337 
  419000    306.57181   -1517.9018    478.06406    338.22142   -96.130448    38614.337 
  419100    304.39372   -1485.3456    511.64101    394.56391   -118.84933    38614.337 
  419200    300.84175   -1503.3346     467.7981    316.76573    10.925698    38614.337 
  419300     299.2356   -1450.2616    496.17449    390.99534    -302.8711    38614.337 
  419400    308.01815   -1485.4846    502.17372    401.24965   -662.14138    38614.337 
  419500    298.75512   -1449.7811    498.35699    391.49852   -8.1756217    38614.337 
  419600     310.2868   -1476.3597    494.25816    412.65669    360.61109    38614.337 
  419700    302.46193   -1505.6278    505.68843     359.6456    267.45785    38614.337 
  419800    297.93346   -1505.0986    488.98719    323.11783    414.93391    38614.337 
  419900    300.59631   -1481.5712    489.37783    359.00552    503.00367    38614.337 
  420000    303.25653    -1492.056    492.79771    363.89844    478.74483    38614.337 
  420100    300.40866   -1515.8765    486.48239    320.96125    448.09207    38614.337 
  420200    296.73286   -1531.1272    490.44788    293.15315     39.89513    38614.337 
  420300    286.06979    -1501.828    517.32014    301.39344    195.63787    38614.337 
  420400    302.72581   -1470.2952    510.26997    400.74595    207.62882    38614.337 
  420500    313.52341   -1457.7775    481.31695    432.84645    204.26776    38614.337 
  420600     299.0006   -1436.6266     506.6927    414.09221   -266.50625    38614.337 
  420700    308.12121   -1452.0018    506.15719    439.17915   -111.92832    38614.337 
  420800    294.40917   -1461.1761    490.80115    353.01241    -345.5581    38614.337 
  420900    302.12403    -1481.031    502.66067    379.69581    23.651299    38614.337 
  421000    298.62815   -1416.7023    503.81645     429.4661   -121.55387    38614.337 
  421100    305.06671    -1415.265     493.4772     449.5058    32.557261    38614.337 
  421200    302.58152   -1426.5567    526.22464    459.79054    150.34548    38614.337 
  421300    290.04958   -1464.3897     518.3942    357.79518    688.97589    38614.337 
  421400    302.17201   -1477.7651    500.86108    381.37773    717.65133    38614.337 
  421500    292.65863   -1465.1035    515.66808    366.08321    487.73578    38614.337 
  421600    302.10874     -1465.55     498.5345    390.98188    383.63469    38614.337 
  421700    306.43622   -1447.4871    541.39991    471.36251    38.165493    38614.337 
  421800    299.77719   -1426.5711    490.66333    411.60913    246.83929    38614.337 
  421900    310.17514   -1438.6752    511.70724    467.28833   -58.660289    38614.337 
  422000     297.4502   -1467.4331     514.9215    384.54539   -383.81639    38614.337 
  422100    304.89546   -1450.5608    487.29689    407.25991   -604.40332    38614.337 
  422200    306.63643   -1463.1027    513.75877    429.00572   -870.95484    38614.337 
  422300    299.13627   -1450.1441    512.86385    407.35568   -744.36404    38614.337 
  422400    288.52441   -1473.1864    506.39847    330.14706   -738.74086    38614.337 
  422500    298.87367   -1504.7191    488.92033    327.65676    -593.2791    38614.337 
  422600    308.63044   -1506.2295    515.65253    396.73579     -104.447    38614.337 
  422700     295.6132   -1504.9256     498.9745    322.84841    680.39922    38614.337 
  422800    296.34295   -1543.4211    525.53369    314.19236    927.79347    38614.337 
  422900    312.32505   -1553.6382     485.9765    336.25862    645.23637    38614.337 
  423000    316.18025   -1460.3196    528.31802    489.24816    476.66344    38614.337 
  423100    310.26278     -1505.53    544.63419    433.75442     825.8402    38614.337 
  423200    310.10463   -1515.8052    476.86774    355.00197    275.05811    38614.337 
  423300    295.87756   -1547.7717    495.54649    277.76265   -135.90012    38614.337 
  423400    299.37626   -1484.2019    503.08095     364.5938   -552.25495    38614.337 
  423500    309.04943   -1479.0773     487.1782    397.29707   -497.06549    38614.337 
  423600    307.94423   -1548.2738    501.87626    337.83077   -110.24729    38614.337 
  423700     289.0839   -1490.2894    507.43791    316.59838   -164.34498    38614.337 
  423800    294.38688    -1531.436    504.59807    296.44926   -178.78702    38614.337 
  423900    305.30962   -1532.4588     493.4899    333.41666    139.95849    38614.337 
  424000    305.72766   -1551.3954    493.40405    316.27333   -301.90115    38614.337 
  424100     288.0085   -1535.9745    512.67526    271.31675   -452.61757    38614.337 
  424200    295.40366   -1552.9167    512.36767    287.30861   -183.83385    38614.337 
  424300    293.48958   -1546.1907    520.16853    293.23155   -408.27839    38614.337 
  424400    304.74402   -1548.9518    505.62097    326.51233   -104.70126    38614.337 
  424500    308.15754   -1542.3535    511.44048    354.27413    59.748804    38614.337 
  424600    300.90576   -1521.6877    499.81563    330.71781    16.602671    38614.337 
  424700    302.69455   -1517.7326    486.72258    329.62061    258.58365    38614.337 
  424800    302.40647   -1530.6578    490.30057    318.97845    36.032634    38614.337 
  424900    292.78249   -1504.7038    493.26373    304.63524    231.45799    38614.337 
  425000    302.23268    -1501.599    491.99571    348.95121   -168.35218    38614.337 
  425100    306.28355   -1504.0115    502.50601    375.25794   -112.23324    38614.337 
  425200    310.03384   -1510.2532    504.04813    387.41613   -572.05391    38614.337 
  425300    296.97628   -1459.0661    512.06436    387.92493   -780.81132    38614.337 
  425400    304.88056    -1518.397    508.09678     360.1567   -454.21595    38614.337 
  425500    294.24514   -1526.5855    490.74862    286.81313    -388.6601    38614.337 
  425600    290.75284   -1511.1142     499.6057    295.44338   -142.20171    38614.337 
  425700    309.86928   -1523.9299    495.82596    364.77752    645.17168    38614.337 
  425800    298.74058   -1489.6387    500.63612    353.85474   -25.925628    38614.337 
  425900    303.28511   -1496.8434    505.03202    371.47387    398.28181    38614.337 
  426000    299.03271   -1526.2368    514.98705    332.92066    481.20168    38614.337 
  426100    298.29454   -1480.2904    513.10688    373.66875    875.36339    38614.337 
  426200    298.31861    -1472.542     499.8754    368.29387    646.16736    38614.337 
  426300    290.29169   -1454.7398    517.11335    367.25255   -113.50996    38614.337 
  426400    287.52033   -1446.4888     515.7315    361.66425     251.6387    38614.337 
  426500    302.16617   -1471.3477    517.65936    404.56722   -284.03844    38614.337 
  426600    303.96232   -1499.3842    505.75281    372.69795    313.84442    38614.337 
  426700    296.35569   -1490.4015    487.56924    329.30482   -134.01122    38614.337 
  426800    297.87677   -1476.5585    492.47396    354.88992   -228.55353    38614.337 
  426900    305.29293   -1489.0987    488.20313    371.41496   -554.17062    38614.337 
  427000    304.74241   -1489.6377    492.36708    372.56525   -326.14726    38614.337 
  427100    311.62794   -1516.0046    523.61255     408.3947    584.18614    38614.337 
  427200     300.4446   -1483.6236    493.11007    360.00342    74.764111    38614.337 
  427300    288.53916   -1545.0216    527.15227     279.1319    96.937743    38614.337 
  427400    292.56594   -1552.6274    473.97965    236.45418   -66.342981    38614.337 
  427500    299.26375   -1517.0754    508.45696    336.59057    244.20885    38614.337 
  427600    303.93677   -1525.7111    518.19953    358.70292   -330.70513    38614.337 
  427700    299.05875   -1478.5598    510.75545    376.48309    -424.1289    38614.337 
  427800    307.27268   -1519.0028    504.55561    366.76247   -126.40517    38614.337 
  427900    313.66196   -1501.1428    518.58486    427.37187   -132.97493    38614.337 
  428000    301.87416   -1472.1624    501.67522    386.45574   -546.26504    38614.337 
  428100    295.74181   -1479.9945    504.87244    354.25555    217.68773    38614.337 
  428200    310.13578   -1501.1686    511.02808    403.93893    250.95189    38614.337 
  428300    292.98535    -1493.644    504.82336    328.16656      291.372    38614.337 
  428400     299.5264   -1488.9738    495.61631    353.03216    40.499334    38614.337 
  428500    302.02923   -1480.1929    500.99444    378.44156    223.63304    38614.337 
  428600    295.55178    -1521.644    526.88459    333.76407    319.31288    38614.337 
  428700     292.2972   -1507.9413    514.75182    320.70437    376.99204    38614.337 
  428800    303.68837   -1524.7596    480.27891    320.61724    303.44337    38614.337 
  428900    313.73874   -1528.0339    491.43796    373.67898   -140.41875    38614.337 
  429000    298.36797   -1499.2499    474.27661    316.20917    -250.5473    38614.337 
  429100    297.39543   -1501.7896    512.44786    347.46899     158.3208    38614.337 
  429200    290.41618   -1536.1534    496.59335    265.87861   -227.65492    38614.337 
  429300    305.60752   -1522.3715    492.21791    343.57104   -143.51473    38614.337 
  429400    292.81865   -1498.5274    466.56723    284.27767    103.77902    38614.337 
  429500    306.21523   -1518.2264    517.49821    375.72808    60.885958    38614.337 
  429600    305.85684   -1509.5292    467.03473    332.35092    661.14498    38614.337 
  429700     282.5416   -1511.9218    481.69126    239.81135    1176.4389    38614.337 
  429800    304.30916   -1473.8122    515.36131    409.43748    618.73092    38614.337 
  429900    309.20326   -1510.6289     505.4092    384.66794    534.51758    38614.337 
  430000    296.88923   -1536.7939    516.60949    314.35094     77.00162    38614.337 
  430100    297.70652   -1492.9761    496.86319    342.09619   -244.39982    38614.337 
  430200    303.33727   -1494.0433     477.1125     346.5889   -239.22675    38614.337 
  430300    293.17999   -1502.3991    489.57765    305.04066   -238.95132    38614.337 
  430400    291.26633   -1500.9423    492.86916    301.18699    61.272279    38614.337 
  430500    299.07137    -1532.645    464.05376      275.753    139.81547    38614.337 
  430600     292.0875   -1513.8175    486.05642    285.19017    168.45402    38614.337 
  430700    298.08792   -1496.4144    494.92471    338.43392    182.51013    38614.337 
  430800    294.95173   -1520.7297    477.74967    282.84619   -158.56005    38614.337 
  430900    305.07795   -1489.1268    493.47917    375.69656    222.86925    38614.337 
  431000    308.04055   -1480.0046    489.02583    393.68242     456.9933    38614.337 
  431100    309.00694   -1510.2744    485.26895    363.99976    72.981999    38614.337 
  431200    307.48687   -1493.4573      500.962     389.6771   -548.52952    38614.337 
  431300    292.64016   -1474.0887     505.5073    346.85417    135.81239    38614.337 
  431400    299.88869   -1469.7157    508.88548    387.18794   -266.74593    38614.337 
  431500    288.81317   -1447.3727    506.48765    357.34794   -527.68947    38614.337 
  431600    293.40709   -1454.9315     492.3829    356.33435    -451.5937    38614.337 
  431700    296.19724   -1485.6859    478.36462    324.10356   -83.465587    38614.337 
  431800    308.05937   -1436.5345    516.37351    464.58484   -103.54414    38614.337 
  431900    307.16178   -1446.3127     496.3066    430.70497   -295.16078    38614.337 
  432000    302.64648    -1510.478    498.06617    348.00273    78.291958    38614.337 
  432100    297.65175   -1516.1768    486.66717    308.45329    829.35111    38614.337 
  432200    306.08284   -1516.1626    475.31588    335.01444   -164.83587    38614.337 
  432300    300.19522   -1494.4986    496.71527    351.61269   -100.83949    38614.337 
  432400    292.51049   -1496.4651    493.99508    312.38263    1.3397523    38614.337 
  432500    307.75756   -1479.9251    491.25794    394.72196    220.35423    38614.337 
  432600    297.83718   -1481.0533    477.90772    335.65083   -58.420214    38614.337 
  432700    296.19192   -1514.3876    469.06245    286.07572   -227.14978    38614.337 
  432800    293.64703   -1466.4903    521.09862    374.56977   -586.86228    38614.337 
  432900     305.0666   -1490.2058    454.18882     335.2762   -75.253477    38614.337 
  433000     296.6193   -1499.2502    500.36439    334.43619   -166.82771    38614.337 
  433100    296.36903   -1470.6742    478.04192    339.56474   -419.76393    38614.337 
  433200    297.13711   -1454.2313    477.39485    358.81317   -231.90296    38614.337 
  433300    296.33884   -1494.3046     517.7807    355.53747   -192.36706    38614.337 
  433400    306.35957   -1494.0538    508.60603    391.65733    117.69704    38614.337 
  433500    287.22727   -1463.7369    468.67034    296.03775   -386.96321    38614.337 
  433600    288.71845   -1461.7983     498.9381    334.94703   -339.41703    38614.337 
  433700    292.35899   -1473.3442    484.18201    325.00947   -202.72258    38614.337 
  433800    298.74802   -1466.8318    488.56035    364.61928   -196.71104    38614.337 
  433900    306.46675   -1466.3921    472.16959    383.36436    98.003492    38614.337 
  434000    307.36041   -1473.8988     466.9702    374.67537    322.11846    38614.337 
  434100    302.76102   -1476.9671    451.31316    335.27544    235.29238    38614.337 
  434200    304.26068   -1470.3048    502.38191    399.74762   -70.012191    38614.337 
  434300    304.41512   -1473.9861    482.68128    377.05989    774.47185    38614.337 
  434400    300.98408   -1461.6444    497.57074    388.86832     94.64527    38614.337 
  434500    303.32537     -1466.68    491.33652    388.12275   -437.71503    38614.337 
  434600    303.65245   -1424.5697    458.89725    399.26403   -214.88498    38614.337 
  434700     298.5305   -1444.2954    493.36468    390.98226   -817.71386    38614.337 
  434800    305.56587   -1493.8583    491.42096    371.10005   -450.48912    38614.337 
  434900    292.48995   -1447.5095    466.65808    333.90893   -490.91611    38614.337 
  435000    302.61132    -1466.692    493.54497    387.10947   -318.07476    38614.337 
  435100    291.27482   -1468.1633    504.41313    345.54806    456.93965    38614.337 
  435200    302.03211   -1476.9962    487.71381    368.37049      502.449    38614.337 
  435300    311.11616   -1471.0423    480.92811    408.37213    88.260364    38614.337 
  435400    291.41739   -1477.8202    498.48239    330.60123    366.28211    38614.337 
  435500    306.05558    -1500.055     486.8841    362.56777   -190.08918    38614.337 
  435600    295.18559   -1480.2673    502.80357    349.41368    215.57836    38614.337 
  435700    309.11837   -1501.9667     511.1994    398.73875   -7.7797449    38614.337 
  435800    295.97159   -1489.8587    469.12942    309.68122   -205.98679    38614.337 
  435900    296.76484   -1469.9036    494.72044    358.79303   -472.90759    38614.337 
  436000    298.32278   -1519.6336    473.47164    294.81731   -203.87979    38614.337 
  436100    300.25645   -1468.5803    488.24151    369.33242    41.845489    38614.337 
  436200     299.3269   -1492.9894    476.24932    328.75277    444.35535    38614.337 
  436300    308.07324   -1464.1283    498.24289    418.92278    560.68443    38614.337 
  436400    293.35775   -1523.6741    519.97946    314.96646    380.49327    38614.337 
  436500    294.42217   -1530.2653    469.10247    262.28291    355.78025    38614.337 
  436600    300.54886   -1508.9574    463.26866    305.29683   -30.523005    38614.337 
  436700    314.04449   -1527.0202     501.4973    386.12636    251.02103    38614.337 
  436800    299.79058   -1489.7391    486.01877    343.85676   -164.23303    38614.337 
  436900    287.53685   -1496.1624    513.25692    309.59036    -627.2278    38614.337 
  437000    292.45491   -1432.6746     485.3161    367.24426   -307.10854    38614.337 
  437100    311.98205   -1442.5062    463.23893    423.11128   -330.12302    38614.337 
  437200    308.35189   -1459.9811    505.40547    431.48509   -604.07108    38614.337 
  437300    297.92501   -1453.5893    488.18253    373.78446   -608.27317    38614.337 
  437400     289.3031   -1457.3024    513.50825    356.64108   -121.37139    38614.337 
  437500    293.73891   -1467.8633    472.34622    324.85737    100.71576    38614.337 
  437600    291.68091   -1458.7333    498.62419    351.01455   -331.50496    38614.337 
  437700    297.17916   -1485.0659     484.4548     335.2275    306.74803    38614.337 
  437800    310.60015   -1546.5039    494.45601    344.11891    365.72004    38614.337 
  437900    306.00748   -1535.5813     465.9263    305.86749    332.46146    38614.337 
  438000    307.78044   -1517.6228    486.69577    352.56501    802.66294    38614.337 
  438100    298.55898   -1497.0056     464.6898    309.72518     650.4217    38614.337 
  438200    299.04833   -1494.8745    499.49087    348.85697    293.39591    38614.337 
  438300    306.53197   -1497.5475    484.72586    365.05842   -277.82283    38614.337 
  438400    295.03558   -1548.0009    467.15563    245.35785   -335.65709    38614.337 
  438500    292.18051   -1504.7355    484.02342    292.65735    71.486922    38614.337 
  438600    295.28053    -1485.502     495.0975    336.89963    -820.2793    38614.337 
  438700    304.11685   -1482.0451    448.92885    333.90774   -1008.7829    38614.337 
  438800    307.39999   -1527.9087    479.85126    333.72441   -469.35402    38614.337 
  438900    297.10135   -1522.9851    452.73425    265.23798   -61.379674    38614.337 
  439000    303.83269    -1506.408    491.31438    350.65304    193.72751    38614.337 
  439100     301.7987   -1466.5629    485.37423    375.41504   -158.72255    38614.337 
  439200    295.43545   -1475.7746    474.64815    326.87411    138.81308    38614.337 
  439300    302.50227   -1476.4038    490.99901     374.3615   -283.88273    38614.337 
  439400    297.44669    -1537.305     455.9682    255.70439    214.67627    38614.337 
  439500    294.59676   -1519.4378    512.07573    316.86854   -133.46414    38614.337 
  439600    293.27598   -1518.1472    499.89809    300.04448    67.383031    38614.337 
  439700    302.20209      -1517.7    468.33318    309.05016    347.31014    38614.337 
  439800    303.07735   -1511.6874    475.57594    326.23983    32.530963    38614.337 
  439900    311.04771   -1509.6268    482.19819    370.74996    335.03401    38614.337 
  440000      289.756   -1519.6306    495.71255    278.55303    742.81013    38614.337 
  440100    306.82901   -1563.7763    476.75687    292.19585    649.14987    38614.337 
  440200    302.68591   -1535.5182    466.59749    291.67112    244.05947    38614.337 
  440300    299.43542   -1510.1827    487.81958     323.6175    530.66381    38614.337 
  440400    289.34399   -1500.0371    482.75723    283.33918   -200.60514    38614.337 
  440500     305.3692   -1481.1426    498.05022    389.56096   -46.569816    38614.337 
  440600    307.11331    -1496.255     484.4896    368.72779    330.68666    38614.337 
  440700    299.56768   -1487.5391    482.57382    341.60984   -27.356206    38614.337 
  440800    301.54036   -1522.6901    462.51227    295.26469    -317.4088    38614.337 
  440900    298.92057   -1505.1405    463.28143    301.80734   -234.36503    38614.337 
  441000    308.35902   -1494.9597    473.85028    364.98332   -152.67711    38614.337 
  441100    299.75698   -1523.7923    504.89109    328.52491    73.283623    38614.337 
  441200    294.26616   -1496.6866    472.70252    298.76044    194.20474    38614.337 
  441300    293.86217     -1517.51    494.92953    298.34812    161.64917    38614.337 
  441400    304.70161   -1501.0015    481.03794    349.68892    240.01253    38614.337 
  441500    303.31889   -1466.1414    499.36815    396.66385    389.78904    38614.337 
  441600    315.87687   -1476.1427    476.60351    420.34676    -290.4103    38614.337 
  441700    305.51738   -1464.4347    469.19896    378.08367     110.6637    38614.337 
  441800    308.04807   -1453.9912    503.79505    434.49886    43.700161    38614.337 
  441900     295.6768    -1468.707    501.88942    362.26788    395.62159    38614.337 
  442000    299.28993   -1498.5601     499.5213    346.28783    127.50641    38614.337 
  442100    288.56917   -1470.0043    479.96863    307.10047    6.7662381    38614.337 
  442200     297.7552   -1430.4882    486.54172    394.48151   -529.11935    38614.337 
  442300    302.93673   -1427.7131     499.8821    433.88825   -871.61643    38614.337 
  442400    295.10995   -1426.1857    498.57061    398.92226   -443.67962    38614.337 
  442500    295.35688     -1435.44    471.98222    364.18958   -674.83784    38614.337 
  442600    297.77823   -1436.7689     510.8569    412.61945    125.14167    38614.337 
  442700    293.29748   -1478.9498    492.11109    331.55146    76.946289    38614.337 
  442800     288.1946   -1468.5358    473.29414    300.21085   -507.82433    38614.337 
  442900    300.43403   -1504.9407    466.82698    312.35571   -314.17972    38614.337 
  443000    299.73718   -1508.4168    483.37749    322.29777   -375.06665    38614.337 
  443100    303.35013   -1439.3221    471.68088    395.93629   -301.26222    38614.337 
  443200    295.97232   -1466.8078    469.64726     333.2533   -128.39192    38614.337 
  443300    305.99777   -1448.4468    505.12938    432.16137   -55.334663    38614.337 
  443400    300.18044   -1464.5641    461.21057      345.976   -251.42678    38614.337 
  443500    296.64361   -1471.4585    502.30261    364.27538   -285.98648    38614.337 
  443600    302.08317    -1486.678    488.04455    359.24894     184.7373    38614.337 
  443700    299.87753   -1458.0754    490.97913     380.8717    97.016421    38614.337 
  443800     293.6623   -1441.4414    490.98865    369.57734    300.57053    38614.337 
  443900    301.39021   -1482.0528    483.64462    356.35942    626.22539    38614.337 
  444000    300.48913   -1501.8241    482.93711    331.83016    552.75016    38614.337 
  444100    308.08154   -1436.2162    482.62013    431.24945   -192.08886    38614.337 
  444200    300.24199   -1473.0438    480.03811     356.6006   -76.172685    38614.337 
  444300    301.11737   -1474.1274    493.51629    372.92999    353.39301    38614.337 
  444400    292.92926   -1450.5202    516.16198    382.37677    274.15718    38614.337 
  444500    295.39084    -1436.273    481.16062    372.68762    74.673027    38614.337 
  444600    305.06925   -1429.1298    470.77638    412.95159    138.14382    38614.337 
  444700    301.04884   -1407.1101    498.16345    444.28643    355.61152    38614.337 
  444800    292.43062   -1438.9704    487.42564    362.94885   -625.84298    38614.337 
  444900    295.26629   -1448.9904    483.61366    361.86339    -493.4404    38614.337 
  445000    303.47347   -1422.0333    479.59365    421.69227   -390.11553    38614.337 
  445100    304.65899    -1421.499    488.38779    436.34968   -199.07294    38614.337 
  445200    298.47208   -1432.9249    477.86795    386.59342    177.74401    38614.337 
  445300    300.41851   -1449.6965    459.83385     360.5371    21.313452    38614.337 
  445400    305.79296   -1418.8532    498.54258    454.24758      9.93659    38614.337 
  445500    294.98742   -1411.6972     488.4967    402.78614   -222.16084    38614.337 
  445600    298.29993    -1443.763    494.76684    391.88039   -361.62517    38614.337 
  445700    312.99472    -1444.846    488.28594    450.37046    286.90264    38614.337 
  445800    297.81396   -1482.6784    464.16543     320.1791     -266.868    38614.337 
  445900    291.24129   -1472.9376    485.85161    322.06152    137.87716    38614.337 
  446000    288.75175   -1462.2837    476.81254    312.48574   -109.82905    38614.337 
  446100    308.45413   -1461.4662    478.65254    403.70668   -305.46024    38614.337 
  446200    298.70127   -1466.0994    474.58211    351.16329    -301.8676    38614.337 
  446300    299.99596   -1494.9327     453.4339    307.00154   -164.82682    38614.337 
  446400    298.68184   -1496.7171     491.6392    337.51534   -335.26625    38614.337 
  446500    302.37034    -1471.236    468.78266    356.71992    420.84553    38614.337 
  446600    315.14646   -1455.3489    496.93979    458.19365   -212.87675    38614.337 
  446700    301.14233   -1444.4725    490.37619    399.55703   -447.10146    38614.337 
  446800    309.57232   -1429.3148    496.88735    459.11918    -284.7623    38614.337 
  446900    304.01798   -1432.3405    488.45506    422.69411   -101.27578    38614.337 
  447000    314.42951   -1453.8223    500.96689    460.52455    43.898325    38614.337 
  447100    301.99577    -1458.036    497.58947    397.04301    345.08825    38614.337 
  447200    301.91964   -1462.4088    503.65647    398.39499    153.11888    38614.337 
  447300    299.63925   -1439.3699    475.16545    382.69241   -253.34244    38614.337 
  447400    306.86959    -1435.413    483.03203    427.01671    594.24082    38614.337 
  447500    295.92237   -1477.3161    476.36678    329.23998    389.36439    38614.337 
  447600    307.57083   -1465.4117    481.32385    398.46196   -121.58927    38614.337 
  447700    297.52246   -1422.9461    494.89207     409.3278    200.93571    38614.337 
  447800    293.83107   -1478.0976    474.32118    317.01228    342.30001    38614.337 
  447900    300.76616   -1490.9322    511.68939    372.71956    92.622934    38614.337 
  448000    303.44851   -1460.9514    520.16559     423.2339    338.91161    38614.337 
  448100    294.57988   -1448.3677    477.57353    353.36056   -193.60584    38614.337 
  448200    307.90154    -1445.999    515.82825    453.86566     182.9535    38614.337 
  448300    303.11306   -1461.2676    522.50807    423.75237    612.05563    38614.337 
  448400    291.73578   -1423.8698    485.47008    372.97058    605.68264    38614.337 
  448500    298.06988    -1461.113    514.64945    393.37892    557.58554    38614.337 
  448600    304.40711   -1426.2638    521.90695     463.9719    452.93573    38614.337 
  448700     303.9664   -1451.7788    480.66479    395.23366    335.30123    38614.337 
  448800    302.16703   -1470.5515    513.40443    401.11237    125.68734    38614.337 
  448900    287.29642   -1490.0682    492.66614      294.013    110.57494    38614.337 
  449000    306.66904    -1475.491    479.73785    382.74305   -51.185509    38614.337 
  449100    307.02869   -1499.3129    475.11506    355.91499    235.97804    38614.337 
  449200    294.56791   -1457.3583     489.9902    356.73278   -50.773494    38614.337 
  449300    298.80432   -1511.6057    491.94929    323.48738    -276.5615    38614.337 
  449400    292.39388   -1497.7078    476.90503    293.52577   -311.21929    38614.337 
  449500    297.36166   -1485.1673    480.28829    331.77998   -224.38143    38614.337 
  449600    304.35126   -1489.7512    487.44413    365.77059    4.1597368    38614.337 
  449700    297.19416   -1482.5337    478.07558    331.44789  -0.31489146    38614.337 
  449800    307.13839   -1475.0611    489.66094    395.20585   -391.01762    38614.337 
  449900    308.32085   -1486.5948     492.6114    391.93783   -233.15106    38614.337 
  450000    297.94752   -1463.6529    487.51103    363.15055    326.63358    38614.337 
  450100    301.27757   -1447.4144    485.21252    392.05937    104.12952    38614.337 
  450200    309.18914   -1456.6992    479.29141    412.41642    443.99545    38614.337 
  450300     299.9725   -1468.4159    482.49185    362.47079     -233.081    38614.337 
  450400    306.37298   -1481.7915    462.64312    358.01703    -200.5881    38614.337 
  450500    303.20755   -1477.7924    483.41787    368.56202   -113.95648    38614.337 
  450600    301.85347   -1464.5005    479.86487    372.21429   -332.86692    38614.337 
  450700     305.4383   -1458.9834    490.21552    404.19605     -420.193    38614.337 
  450800    309.00493   -1462.0484     484.8216    411.76938   -681.98773    38614.337 
  450900    291.41442   -1452.8485    502.52741    359.60468   -744.63415    38614.337 
  451000    296.94927   -1466.4028    496.85239    365.25482   -37.229028    38614.337 
  451100    306.20005   -1461.3518    498.07402    413.11031    236.56098    38614.337 
  451200     309.7625   -1430.1101    484.65045    446.94188   -86.170234    38614.337 
  451300    295.84241   -1480.7847    497.73128    346.77644   -292.24357    38614.337 
  451400    314.05875   -1446.8988    460.64237    425.45701    -221.6062    38614.337 
  451500    305.47969   -1453.4693    488.50568    408.18639    236.48277    38614.337 
  451600    300.26396   -1438.4757     473.2287    384.45796    386.68207    38614.337 
  451700    293.80975   -1418.6228    489.86399    391.93415    136.54508    38614.337 
  451800    298.35962   -1425.6943     486.9933    402.44386   -24.620661    38614.337 
  451900    294.21098   -1465.4426    462.66436    319.71822   -77.246389    38614.337 
  452000    292.66878   -1442.3242    485.30626    358.54625     133.4832    38614.337 
  452100    303.12581   -1450.0204    471.40613    383.95498    -70.57285    38614.337 
  452200    297.81004   -1421.6564    501.12784    418.14592   -40.803848    38614.337 
  452300     298.8506   -1418.9165    488.98738    413.42269    54.540782    38614.337 
  452400    306.47833   -1455.9215     467.4361    389.15357   -419.90908    38614.337 
  452500    291.49933   -1457.8626    478.69448    331.13932    58.860243    38614.337 
  452600    303.91019   -1505.3985    493.91272    354.60927    -258.0328    38614.337 
  452700      301.888   -1479.8082     478.5263    355.72319    54.365189    38614.337 
  452800    303.86768   -1463.2406    488.38611    391.04944    156.91387    38614.337 
  452900    294.91426   -1420.5042    513.68704    418.84059   -568.20042    38614.337 
  453000    296.28413   -1433.8419    472.14963    370.12311     39.22213    38614.337 
  453100    306.33662    -1419.871    491.85121    448.98219     -178.519    38614.337 
  453200    300.18542    -1444.898    466.20443    370.65834   -286.63317    38614.337 
  453300    300.86008   -1432.9243    475.72415    395.18441   -380.86685    38614.337 
  453400    307.03753   -1443.6577    484.62378    421.11866   -699.26135    38614.337 
  453500    305.81345   -1412.6241    492.12324    454.14943   -632.55432    38614.337 
  453600    297.37407   -1426.1644    472.72285     383.2732   -244.41471    38614.337 
  453700    298.63994   -1464.1015    483.61613    361.91952   -212.21075    38614.337 
  453800    309.67177   -1439.0338    474.70787    427.66772   -159.49207    38614.337 
  453900    292.19081   -1416.5117    497.03286    393.93685   -294.21692    38614.337 
  454000    294.69591   -1459.1667    501.69009    367.19961   -13.915559    38614.337 
  454100    289.17585   -1423.6182    494.19088    370.43587   -23.215749    38614.337 
  454200    297.97501    -1450.126    506.21117     395.5012   -15.449974    38614.337 
  454300    296.38009   -1461.5288     505.1037    375.82167    -58.94502    38614.337 
  454400    304.35195   -1474.8519    496.68609    389.91488   -29.838823    38614.337 
  454500     301.0549   -1447.3931    471.92559    377.79283   -338.24591    38614.337 
  454600     299.3741   -1428.2303    505.03256    422.50724   -181.56872    38614.337 
  454700    295.95452   -1441.0464    479.45826    368.74565   -211.76698    38614.337 
  454800    301.86519   -1458.6295    473.90963    372.18269   -94.852243    38614.337 
  454900    296.10465   -1437.2301    481.24998    375.02853   -953.02025    38614.337 
  455000    302.94713   -1457.4441    489.93124     394.2531    162.97382    38614.337 
  455100    297.11406   -1421.6311    498.55457    412.46951    417.70784    38614.337 
  455200    289.49221   -1403.8683    509.98955    407.40654    442.31808    38614.337 
  455300    300.38483   -1407.1567    501.99147    445.08305    409.71552    38614.337 
  455400    297.15098   -1446.5776    477.66474    366.79911   -8.4172085    38614.337 
  455500    303.76986   -1431.9735    502.57709    436.06778    138.94157    38614.337 
  455600    293.92847   -1441.3029     497.9765    377.90018   -230.42643    38614.337 
  455700     301.7566   -1419.2159    487.68819    424.88677   -481.10739    38614.337 
  455800    306.08861   -1445.5996    497.13221    427.41972   -63.073528    38614.337 
  455900    300.40119   -1411.3494    490.68024    429.65267   -195.43071    38614.337 
  456000     300.1829   -1464.1615    451.02048    336.19955   -478.10065    38614.337 
  456100    291.00993   -1464.2286    506.66912     350.5481    235.15241    38614.337 
  456200     293.4473   -1464.2917    487.16828    341.94022    137.26012    38614.337 
  456300    293.42444   -1446.6084    484.52536    356.87791    468.58422    38614.337 
  456400    294.26938   -1459.5517     486.5495    349.75676    65.960121    38614.337 
  456500     306.8374   -1466.1744    478.15047    391.22907   -611.07694    38614.337 
  456600    296.59373   -1426.1405     468.9421     376.0087   -340.75958    38614.337 
  456700    303.49353   -1354.8878    497.76024    507.09452   -89.829295    38614.337 
  456800    301.47652   -1388.1257    484.67853    451.70835   -31.987763    38614.337 
  456900    307.57006   -1422.5342    476.93204    436.94419    420.09037    38614.337 
  457000    315.90521   -1434.2771    452.93068    438.66689        676.3    38614.337 
  457100    293.33691   -1416.1505    493.05254     395.4695    255.04686    38614.337 
  457200    308.29476     -1441.28    481.60405      426.128   -143.72339    38614.337 
  457300    295.23412   -1449.5681    488.10627    365.63374   -126.96169    38614.337 
  457400    304.72855   -1389.7239    491.67624    471.72588   -545.28404    38614.337 
  457500     295.7351   -1476.3647    484.65829    337.64105   -239.77608    38614.337 
  457600    295.83121    -1475.555    501.14131    355.36577   -149.22196    38614.337 
  457700    305.79474   -1472.4851    472.82969    374.91077   -108.19186    38614.337 
  457800       307.22   -1462.0345    483.59994    402.53824   -423.02334    38614.337 
  457900    296.26827   -1425.7265      465.324    371.34155   -131.27859    38614.337 
  458000    288.65239   -1445.0422    499.52822    351.99628    -3.957243    38614.337 
  458100    302.22517   -1468.6479    489.22867    379.10154   -193.33768    38614.337 
  458200    301.87294   -1468.3801     470.8077    359.36508   -632.02492    38614.337 
  458300     306.6041   -1450.9636    472.62832    399.86902   -50.157217    38614.337 
  458400    300.59176   -1448.4966     481.5054    384.18725   -47.892619    38614.337 
  458500    302.36824   -1471.4789    481.14569    368.83066   -298.61482    38614.337 
  458600    302.17881   -1477.6249    488.42572    369.11314   -254.56546    38614.337 
  458700    311.20988     -1473.26    479.59988    405.24748   -501.89965    38614.337 
  458800    295.47188   -1482.9204    472.58304    317.82697   -257.23768    38614.337 
  458900    300.59507   -1467.9555    476.29784     359.5357    -245.2116    38614.337 
  459000    299.04555   -1488.8977    480.16464    335.49506   -371.07699    38614.337 
  459100    298.41059   -1501.6193    468.01709     307.7718   -431.24413    38614.337 
  459200    299.69176   -1478.7136    484.16945    352.58874    402.11972    38614.337 
  459300    310.77152   -1492.1633    498.32369    403.09754   -216.30677    38614.337 
  459400     305.6349   -1479.1648      461.928    356.61094   -230.13193    38614.337 
  459500    310.11693   -1502.6996    496.67748     387.9726    275.32583    38614.337 
  459600    300.86407    -1475.331    489.47708    366.54859    320.50803    38614.337 
  459700    298.77709   -1492.1106    477.90632    328.81711    131.53654    38614.337 
  459800    301.64602    -1432.447        499.2    422.67039     399.6822    38614.337 
  459900    290.79292    -1505.611    451.72656    253.24763    111.86747    38614.337 
  460000    306.63807   -1470.1585    493.52204    401.72052   -74.659124    38614.337 
  460100    303.39011   -1479.3951    479.82148    364.18361   -219.35215    38614.337 
  460200    293.09155   -1485.8978    494.27267    325.83939   -107.80735    38614.337 
  460300    304.83053   -1478.4914    477.41772    369.15828   -178.25478    38614.337 
  460400    305.41439   -1493.3678    494.64759    374.13631   -174.04298    38614.337 
  460500    299.85658   -1500.7884    493.60917    340.69451    45.130337    38614.337 
  460600    299.28814   -1490.9992    497.20323    351.52265    124.30861    38614.337 
  460700    305.74436   -1535.8069    473.18813      311.721    564.83084    38614.337 
  460800    300.66235   -1507.4955    477.91704    321.91727    724.81813    38614.337 
  460900    296.53335   -1466.8158     520.1628    386.28263    607.68621    38614.337 
  461000    305.67747   -1463.7226    510.25324    420.56967    869.76839    38614.337 
  461100    302.74346   -1536.8487    455.29189    279.29362    1113.1776    38614.337 
  461200    297.21844   -1532.2063    484.56808    288.37699     731.2716    38614.337 
  461300    304.20521   -1508.6994    484.55463    343.27638    818.82434    38614.337 
  461400    289.10132   -1502.9091    498.23645    294.85563    878.79659    38614.337 
  461500    295.02758   -1509.9841    467.32282    283.50582    307.68483    38614.337 
  461600    287.04074   -1482.7043    501.17485    308.73632    370.74989    38614.337 
  461700    298.49059   -1482.5142    458.06963    317.28905    265.75815    38614.337 
  461800    293.21874   -1490.5456    491.63885    319.12955    658.05801    38614.337 
  461900    311.00844   -1520.2887    453.35359    331.06698   -3.0548388    38614.337 
  462000    297.61328   -1477.5583    475.03953    335.27128   -16.186222    38614.337 
  462100    299.63745   -1447.1097    482.95934    382.73839    412.13181    38614.337 
  462200    291.22001   -1504.1261    469.69716    274.62295   -69.394713    38614.337 
  462300    294.16759   -1518.3595    472.86478    276.80673   -41.038901    38614.337 
  462400    300.63323   -1494.0317    478.57703    335.91019    171.91408    38614.337 
  462500    303.34475    -1448.403     493.1058    408.25616    474.51288    38614.337 
  462600    297.83354   -1463.6264    480.30333    355.45698    403.39715    38614.337 
  462700    297.77581   -1442.3197    517.30016     413.5011    370.84699    38614.337 
  462800    289.87143   -1460.1421    475.32809    318.17592   -58.831421    38614.337 
  462900    291.91826   -1445.2233    522.23327    389.20053    403.78024    38614.337 
  463000    308.19077   -1477.4518    508.23627    416.12095   -118.99094    38614.337 
  463100    305.25093   -1484.9738    466.47258    353.62051   -50.760163    38614.337 
  463200    308.92821   -1485.6929     486.3721    389.33049    114.71385    38614.337 
  463300    292.96994   -1467.3322     485.5159    335.10157   -52.037107    38614.337 
  463400    305.28448   -1471.7025    463.42296    363.99294   -71.900806    38614.337 
  463500     297.0813   -1475.3169    470.65002    330.73181    381.86614    38614.337 
  463600     295.3574    -1480.679     506.8388    353.80953    44.354998    38614.337 
  463700    288.24932   -1459.0288    468.21326    304.88287   -523.61441    38614.337 
  463800    292.22822   -1449.9964    475.96147     339.5489   -65.905696    38614.337 
  463900      297.807   -1503.9686    476.87325    311.56545    143.57339    38614.337 
  464000    297.93646   -1471.8479    479.15139    346.54625    600.03723    38614.337 
  464100    294.90246   -1491.1785    472.97595    307.40211    42.812463    38614.337 
  464200    306.88309    -1512.994    461.86546    328.32981     915.9651    38614.337 
  464300    304.13431   -1479.6516     486.0798    373.53061    662.00986    38614.337 
  464400    307.92713   -1486.2131    483.75282    381.69109    1287.9091    38614.337 
  464500    292.19932    -1512.006    455.59407    257.04198    262.57748    38614.337 
  464600     297.8148   -1472.2414    491.00709    357.46149   -380.02375    38614.337 
  464700    301.36891   -1469.5665    493.07405    378.17936    -169.0637    38614.337 
  464800    292.59818   -1511.0109    494.97884    299.21474   -457.48247    38614.337 
  464900    303.11034    -1518.966    464.19607    307.72966   -594.71199    38614.337 
  465000    296.39684   -1489.8921    473.21652    315.64651   -191.31827    38614.337 
  465100    293.18255   -1471.0166    478.51289    325.36993    142.06797    38614.337 
  465200    304.69207   -1497.2094    494.67088    367.07113   -189.88619    38614.337 
  465300    298.20139   -1504.6265    470.01389    305.82096   -158.69647    38614.337 
  465400    305.22962   -1483.2491    470.82025    359.59705     166.2997    38614.337 
  465500    302.04461   -1508.4375    475.96471    325.23636   -297.17676    38614.337 
  465600    307.88547   -1512.9903    485.22779    356.20166     85.60935    38614.337 
  465700    298.59229   -1490.0747    459.20975    311.32574    350.82089    38614.337 
  465800    299.38504   -1524.5275    451.63247     272.8591   -62.397796    38614.337 
  465900    289.38223   -1458.9754     518.5686    360.38415   -240.03433    38614.337 
  466000    303.98288   -1443.1918    486.75566    409.98557    332.13748    38614.337 
  466100    303.02157   -1467.9439    531.75566    425.91235    583.08945    38614.337 
  466200    306.00205    -1518.044    469.67116    327.12523    238.94249    38614.337 
  466300    300.18559   -1457.7981    490.55565    382.11031    94.013101    38614.337 
  466400    301.10164   -1464.4873    484.78992    373.77299   -79.927344    38614.337 
  466500    287.65073   -1425.9411    514.14455    381.21118     9.227751    38614.337 
  466600    296.32233    -1453.443    513.72841    392.27248    58.100073    38614.337 
  466700    313.53051   -1451.5236    495.32085    453.13617    681.45525    38614.337 
  466800    300.57709   -1498.2162    487.52505    340.42135    100.26894    38614.337 
  466900    310.71278   -1455.0082    493.10414    434.76901    261.32184    38614.337 
  467000    301.88194   -1498.5753    507.36172    365.76436    236.94086    38614.337 
  467100    299.95562   -1499.1632    472.68166    321.83739    438.83029    38614.337 
  467200    298.13045   -1455.2203    525.58682    410.48123    521.59031    38614.337 
  467300    302.85967   -1479.4242    456.01271    337.96134   -84.734096    38614.337 
  467400    300.59678   -1473.4594    513.44184    391.18344   -330.99222    38614.337 
  467500    300.94512   -1537.3749     490.6072    305.99916    -264.6697    38614.337 
  467600    295.80282   -1462.9348     498.3111    365.02816    121.84454    38614.337 
  467700    302.35103   -1443.2609    525.83327    441.65887    317.08058    38614.337 
  467800    295.11741   -1432.2593    513.72651    408.03814   -177.27866    38614.337 
  467900     307.2972   -1434.2786    512.65794    459.69916    305.02409    38614.337 
  468000    298.66388   -1404.0768    519.29952    457.73528   -422.73082    38614.337 
  468100    304.69338    -1453.226    457.57616    373.96572   -665.69104    38614.337 
  468200    305.44385   -1454.0552    507.33405    426.26775   -949.73412    38614.337 
  468300    301.65362   -1456.0013    505.96316    405.91347   -414.10689    38614.337 
  468400    296.43221   -1483.3166    502.98453    352.14902   -411.00332    38614.337 
  468500    295.29493   -1488.1458    481.09606    320.31915    156.14702    38614.337 
  468600      300.322   -1478.7554    495.09924    366.30975   -47.958579    38614.337 
  468700    294.81327   -1483.4066     521.8341    363.63129   -29.453087    38614.337 
  468800    297.04582   -1534.8049    480.25403    280.68833   -140.40765    38614.337 
  468900    297.09816   -1577.7021    472.73355    230.50595    -65.52724    38614.337 
  469000    306.51252   -1482.8141    496.86651    391.84512   -231.28949    38614.337 
  469100    304.84939    -1530.046    496.99176    337.26253   -186.40977    38614.337 
  469200    311.67387   -1521.6159    505.26856    384.64595    143.87077    38614.337 
  469300    303.83019   -1525.5993     510.7596    350.89577     179.6847    38614.337 
  469400    290.55345   -1538.4187    491.54547    259.18244   -241.25397    38614.337 
  469500    307.60816    -1541.822    506.35548    347.25109    -115.4475    38614.337 
  469600    309.33234   -1519.3083    500.45388    371.61347    150.81436    38614.337 
  469700    305.37611   -1533.9911    463.07621    301.76951   -41.964686    38614.337 
  469800    295.75095   -1497.1186    494.85427    327.15443     360.0634    38614.337 
  469900    311.71413   -1456.4207    501.53727    446.29073    722.08228    38614.337 
  470000    310.46823    -1468.702    486.58207    413.45383    363.44243    38614.337 
  470100    296.48057   -1491.6021    539.89986    380.99617     1068.661    38614.337 
  470200    305.73152   -1476.9164    505.09546    402.46108    206.53031    38614.337 
  470300    293.90339   -1452.6093    465.61841    334.12289    250.80141    38614.337 
  470400    297.48892    -1492.534    540.83018     385.5272   -266.12966    38614.337 
  470500    297.18854   -1460.9672    480.73147    355.64506     543.3752    38614.337 
  470600    310.20879   -1516.3633    497.20664    375.25093    356.31839    38614.337 
  470700    298.56896   -1551.5422    484.65113    275.19475    492.32938    38614.337 
  470800    303.86307   -1501.6333    491.41483    355.66471     597.9796    38614.337 
  470900    293.07321   -1483.0328     471.8834    306.23267    791.14834    38614.337 
  471000    300.53046   -1500.0996    488.91285    339.71617    182.22093    38614.337 
  471100    303.67568    -1527.373    496.69038    334.35822    187.60546    38614.337 
  471200    299.75376   -1570.3774    459.09994    236.13414     158.8572    38614.337 
  471300     299.2067   -1516.4767    490.94061    319.41643   -295.40636    38614.337 
  471400     304.4468   -1479.0767    499.93767    389.36811    -608.3334    38614.337 
  471500     294.6764   -1470.6158    507.88202    361.85479   -301.37378    38614.337 
  471600     300.8501    -1487.189    511.98512    377.13582   -122.54063    38614.337 
  471700    299.09894   -1504.6385    514.97874    354.80834    360.50944    38614.337 
  471800    295.60848   -1532.3582    480.11926    276.53943    324.97126    38614.337 
  471900    309.84862   -1528.6792    487.58149    351.69093    330.64516    38614.337 
  472000    310.25151   -1533.4569     463.9298    325.07251     366.2706    38614.337 
  472100    294.20093   -1547.5224    491.02759    265.95648    37.628124    38614.337 
  472200     307.5402   -1508.3892    515.53627     389.5592    468.86646    38614.337 
  472300    306.43702    -1497.493    503.64552    383.60576   -57.843706    38614.337 
  472400    299.62907   -1518.1152    485.05947    313.79535    5.8518864    38614.337 
  472500    306.42266   -1513.2964    483.12429    347.21663    254.63538    38614.337 
  472600    294.43737    -1501.076    480.77614    303.21422    399.23648    38614.337 
  472700    288.73202   -1484.4423    519.04243    332.46833    134.17201    38614.337 
  472800    307.42408   -1458.0283    492.77911    416.64093    212.62641    38614.337 
  472900    301.00292   -1473.8686    502.08994    381.24801    307.28095    38614.337 
  473000    298.50903   -1498.6734    522.17984    365.32292     7.436831    38614.337 
  473100    291.05652   -1526.9376    479.46138    260.84072   -329.78575    38614.337 
  473200    296.18868   -1543.1933    475.87691    264.07001    87.872451    38614.337 
  473300    297.36128   -1521.4259    494.46554    309.69693    25.068845    38614.337 
  473400    291.94037   -1499.6445    515.36686    328.01231   -220.69191    38614.337 
  473500    302.71125   -1527.5495    502.36858    335.52484    159.04439    38614.337 
  473600    305.58743   -1552.0952    481.54468    303.08385   -50.773953    38614.337 
  473700    301.32424   -1526.7052    494.89587    322.66164   -23.856679    38614.337 
  473800    303.88297   -1537.3071    492.47342      321.139   -64.825671    38614.337 
  473900    305.05339   -1546.6446    484.41403    309.00315     160.7352    38614.337 
  474000    297.04486   -1532.9938    509.41461    311.65576   -169.08484    38614.337 
  474100    300.75666   -1556.2502    486.66446    282.33391   -147.35229    38614.337 
  474200    292.66802   -1475.9974    504.72264    344.28604    238.14737    38614.337 
  474300    291.19003   -1511.3754    499.94325    297.48495   -212.47377    38614.337 
  474400    302.50839   -1511.8862    515.90105    363.80869    489.92479    38614.337 
  474500    305.31772   -1493.3451    506.87395    385.95077    131.08083    38614.337 
  474600    293.34332   -1498.9202    507.99931    327.67542   -166.45311    38614.337 
  474700    298.39071   -1489.3522    509.96401     361.8964     473.1354    38614.337 
  474800    295.80101   -1496.1462    488.87065     322.3682    572.14114    38614.337 
  474900    300.36411   -1516.6661    494.76051    328.24962    151.41588    38614.337 
  475000    299.79151   -1539.1914    466.28191    274.67174   -222.75722    38614.337 
  475100    303.54603   -1505.8029    515.21243    373.86768   -382.70963    38614.337 
  475200    290.36425    -1478.234    489.27861    316.24979   -92.552721    38614.337 
  475300    298.56423   -1481.2242    500.83895    361.67933   -366.35916    38614.337 
  475400    301.40044   -1446.1664     510.0901    418.73719    47.411794    38614.337 
  475500    305.41626   -1451.0254    511.81974    433.65926    367.70006    38614.337 
  475600    294.71527   -1491.1846     491.4803    325.05899    651.05024    38614.337 
  475700    306.18176   -1514.4111    506.44805    368.34282    94.520016    38614.337 
  475800    311.61881   -1510.0003    479.89282    370.63819   -174.05079    38614.337 
  475900    299.40394   -1473.8431    493.35759    365.35367   -428.32112    38614.337 
  476000    307.10234   -1518.3897    488.76155    350.81577   -264.97818    38614.337 
  476100    298.69826   -1499.2157    503.38445    346.83583    176.60563    38614.337 
  476200    291.93383   -1490.3367    511.28088    333.20466    438.13725    38614.337 
  476300    295.93624    -1421.789    511.37586    419.83849   -74.025837    38614.337 
  476400    294.60696   -1411.1857    519.51029    432.60107    135.62085    38614.337 
  476500    297.41968   -1468.2177    514.17742    382.87945    104.59561    38614.337 
  476600    293.77823   -1460.7435    528.59664    388.40435    517.90299    38614.337 
  476700    308.65851   -1492.6267    490.21395    385.02623     257.2476    38614.337 
  476800     304.2372   -1482.8799    498.44128    383.12632    335.75929    38614.337 
  476900    302.66598   -1492.2519    489.59486    357.84518    48.469034    38614.337 
  477000    292.48365   -1474.4036    510.35622    350.68466    -893.8733    38614.337 
  477100    300.78202   -1450.9567    514.26006    415.33701   -881.10135    38614.337 
  477200    311.40629    -1475.954    507.44358    431.28006   -467.58329    38614.337 
  477300    301.78834   -1528.6333    501.45986    329.38376   -532.73206    38614.337 
  477400    294.67838    -1487.084    506.28709    343.80055    9.0185127    38614.337 
  477500    305.10966   -1458.6638    518.61878     431.4417   -54.775369    38614.337 
  477600    305.17344   -1498.9085    495.06565    367.93055     309.7871    38614.337 
  477700    297.82391   -1513.3598    521.91536    347.29238    60.859044    38614.337 
  477800    290.54073   -1513.9165    524.23422    316.31622    573.88308    38614.337 
  477900    299.57038   -1516.2369    511.21894    341.56935    582.58735    38614.337 
  478000    302.12298   -1507.9125    507.38887    357.53771    511.60092    38614.337 
  478100    293.05862   -1508.6562    492.44004    301.10032    634.02582    38614.337 
  478200    309.83146   -1506.6548    512.87472    398.93144    500.57022    38614.337 
  478300    299.70355   -1543.7143    483.91381    287.38541    687.59353    38614.337 
  478400    293.19909   -1521.2613    495.94302    292.62964    18.519952    38614.337 
  478500    306.41192   -1492.6875    498.53463    383.18755    23.911007    38614.337 
  478600    298.38328   -1544.4903    477.30806    274.06898    260.68793    38614.337 
  478700    311.92646   -1531.3491    503.85495    374.63449    350.24225    38614.337 
  478800    301.04569   -1524.7598    504.85636    333.31541     516.2959    38614.337 
  478900    299.68715   -1491.2756    487.60623    343.44283     961.6815    38614.337 
  479000    301.82745   -1524.9707    504.19686    335.95912   -332.48009    38614.337 
  479100    310.15437   -1496.3435    521.32392    419.14337   -419.12249    38614.337 
  479200    306.26068     -1521.03    494.91267    350.54329    105.69436    38614.337 
  479300    299.90904   -1507.0778     502.1978    343.22961    257.75461    38614.337 
  479400    303.26101   -1530.5108    508.63943    341.30552   -182.36998    38614.337 
  479500    307.25816    -1553.861    464.58116    291.86447   -263.98268    38614.337 
  479600    298.03108   -1561.2922    485.18878    263.56462    -83.67709    38614.337 
  479700    309.69532   -1564.7057    515.90572    343.29949    19.095815    38614.337 
  479800    308.38989   -1551.7827    479.36234    313.81115    37.773587    38614.337 
  479900    296.51592   -1545.8777    504.88382    291.86342    140.00483    38614.337 
  480000    295.32032   -1580.5869    491.14231    238.03838    231.88177    38614.337 
  480100    290.25179   -1567.5158    508.75345    245.93733    713.05049    38614.337 
  480200    308.60102   -1517.4529    471.29721     341.0249    163.11572    38614.337 
  480300    299.20869   -1530.7922    483.12795    297.29718    398.05752    38614.337 
  480400    291.54502   -1517.9278    510.39688    302.98192    226.67771    38614.337 
  480500    295.46005   -1556.5326    498.51813    270.09664    227.46894    38614.337 
  480600    287.53188   -1596.0365    479.32805    175.76503    322.17058    38614.337 
  480700    306.84933   -1544.1733    490.88445    326.01777   -23.349398    38614.337 
  480800    301.28751   -1522.0711    497.71587    329.95067    128.03848    38614.337 
  480900     302.1525   -1531.8312    484.31046    310.67337   -113.21063    38614.337 
  481000    286.65797    -1498.727    484.08897     273.9072   -82.032464    38614.337 
  481100    299.90363   -1539.1548    516.44406    325.37453   -117.42635    38614.337 
  481200    285.13365   -1552.7915    465.60563     194.5074   -228.70435    38614.337 
  481300    300.43546   -1520.8853    502.06287    331.65342    161.72165    38614.337 
  481400    302.65884   -1572.3305    508.21991    296.35953  -0.64914602    38614.337 
  481500     304.6312   -1574.3156    508.86071    303.88109    530.74363    38614.337 
  481600    293.65854   -1523.0758    512.84767    309.78504    65.544773    38614.337 
  481700    302.11332    -1529.656    480.62936    308.99136   -185.42719    38614.337 
  481800    298.26477     -1515.53    494.29872    319.48725    224.51937    38614.337 
  481900    294.99387   -1490.1894    538.24783    374.07401   -225.11769    38614.337 
  482000     293.1971   -1510.9312    493.60525    300.61304    -283.5617    38614.337 
  482100    292.78276   -1522.0731    516.40257    310.40601   -160.91404    38614.337 
  482200    295.83241   -1506.5048    502.91865     326.1987   -83.361533    38614.337 
  482300    299.44484   -1517.5556    509.59783    338.06521   -20.299516    38614.337 
  482400    301.40462   -1525.2107    520.19999    349.82163    405.75843    38614.337 
  482500     293.6855   -1534.9526    494.16988    279.35168    185.27064    38614.337 
  482600    301.34115   -1519.0648     515.7484    351.23066    578.90307    38614.337 
  482700    296.66477    -1481.963    519.15225    370.71567   -239.15652    38614.337 
  482800     297.8933   -1524.3815    514.21811     328.8853    163.29636    38614.337 
  482900    301.18613   -1574.5629    498.10116    277.38847    61.673947    38614.337 
  483000    294.93227   -1527.4159    501.58239    299.90517    129.12608    38614.337 
  483100    314.35139   -1573.3503      493.716    333.39459    181.81219    38614.337 
  483200    309.91704    -1586.628    496.90982      303.378    503.76622    38614.337 
  483300    294.75274   -1547.0949    497.60056    275.43737    716.38027    38614.337 
  483400     293.4366   -1567.8046    508.81202    260.02304    665.49874    38614.337 
  483500    306.54465   -1549.4071    498.54103    327.07098    420.92262    38614.337 
  483600    291.27475   -1556.2847    488.00013    241.01337    82.452518    38614.337 
  483700    309.25476   -1544.7758    495.02463    340.36805   -62.171601    38614.337 
  483800    301.94103     -1525.47    486.22375    317.99726    172.33546    38614.337 
  483900    297.17791   -1540.9837    495.94154    290.79089   -342.50052    38614.337 
  484000    312.00961    -1529.967    521.96707    394.50244     478.6073    38614.337 
  484100    302.57862   -1556.8832    497.18167    300.40802   -180.93638    38614.337 
  484200    307.89087   -1523.1427    516.67965    377.52542    323.39646    38614.337 
  484300    303.17767   -1529.5522    510.13234    343.38238    688.26497    38614.337 
  484400    293.65468   -1525.9221      506.956    301.02974     496.7956    38614.337 
  484500    285.65936   -1566.9451     513.3008    230.41208    73.761228    38614.337 
  484600    304.49946   -1536.8151    485.24296    317.17169    71.318258    38614.337 
  484700    304.94427   -1522.5951    499.88966    348.03788    15.691951    38614.337 
  484800    297.85576   -1511.3396    498.55603    326.09645   -591.17853    38614.337 
  484900    293.75007   -1521.4172    507.78744    306.79488   -556.95442    38614.337 
  485000    291.77919   -1541.2319    501.03733    271.37083   -305.19192    38614.337 
  485100    302.38002    -1485.088    519.64394    393.77274    239.87576    38614.337 
  485200    301.99028   -1484.6959    541.20511    413.97414      193.115    38614.337 
  485300    311.45334   -1449.1174    517.66426    468.54874   -13.147057    38614.337 
  485400    294.07455    -1482.454    512.30013    351.72935    485.45137    38614.337 
  485500    286.58694    -1495.624    514.08066    306.68254    385.81368    38614.337 
  485600    298.93671    -1496.028    524.89894    372.60987    554.02983    38614.337 
  485700    295.76376   -1499.6153     519.1852    349.04618     192.6964    38614.337 
  485800    297.49681   -1508.5938     513.0914    341.76407    23.475465    38614.337 
  485900    287.98753   -1535.8756    497.19905    255.84511    133.18234    38614.337 
  486000    294.32132   -1515.9051    526.01096    333.09831    248.77608    38614.337 
  486100    306.30985   -1538.0304    511.74534     350.5966    586.41764    38614.337 
  486200    301.63493   -1532.9635    504.16321    327.06733    704.56042    38614.337 
  486300    298.87363   -1523.5614    518.90746     338.8014    763.63854    38614.337 
  486400    308.81899   -1535.8696    500.45719    352.74798    700.06219    38614.337 
  486500    294.82885   -1519.0794    513.20835    319.40274    594.91663    38614.337 
  486600    310.98517   -1513.5412    501.64298    385.99926    567.39342    38614.337 
  486700    292.05193   -1476.1938    508.05999    344.65761    300.48123    38614.337 
  486800     301.1182   -1465.7844    522.18855      409.949   -234.96829    38614.337 
  486900    288.11309   -1491.9945    476.12825    279.21989   -56.421673    38614.337 
  487000    293.64286   -1498.4802    491.52965    312.99224   -41.571803    38614.337 
  487100    303.06685   -1551.9876    508.89935    319.21593   -82.153511    38614.337 
  487200    310.89971   -1516.6339    532.09147    412.97094    90.502878    38614.337 
  487300    299.85641   -1533.0748     493.4611    308.25933    143.19318    38614.337 
  487400    296.93885    -1492.261    497.53414    340.03158    750.14391    38614.337 
  487500    306.37675    -1510.266     530.7847    397.70103    488.69128    38614.337 
  487600     304.8529   -1512.3806    500.16446    358.11643    28.470898    38614.337 
  487700     299.2151    -1561.285    483.22478    266.93001   -422.62393    38614.337 
  487800    298.35706   -1527.3905    491.82128    305.56418    -627.4108    38614.337 
  487900    301.25671   -1524.4883    509.01802    338.69719   -145.38815    38614.337 
  488000    300.94094    -1540.904    497.23861    309.08271    151.70027    38614.337 
  488100     311.3517   -1523.4459    472.32292    348.42205    77.450615    38614.337 
  488200    313.90501   -1499.8323    504.12326     415.3133   -675.15401    38614.337 
  488300    300.47276    -1536.916    513.30189    327.02946    -752.4512    38614.337 
  488400    309.27962   -1505.8373    485.68112    370.07474   -771.63193    38614.337 
  488500    291.76804   -1483.4163    504.38749    332.48645   -800.86169    38614.337 
  488600    300.22823   -1506.8866    500.77738    343.43519   -1029.6238    38614.337 
  488700    298.39076   -1495.6519    494.38275    340.01562   -475.12256    38614.337 
  488800    303.67035   -1534.2759    492.97474    323.71569   -187.63772    38614.337 
  488900    306.95562   -1523.3858    483.89389    340.29245    108.78058    38614.337 
  489000    297.82813   -1546.4638    499.40131    291.69327   -329.77347    38614.337 
  489100    303.53272   -1533.9434    492.07857    322.53344   -103.06356    38614.337 
  489200    310.02876   -1518.3599    518.11629    393.35477   -606.72308    38614.337 
  489300    289.45468    -1522.113    505.05246    284.05602   -535.06353    38614.337 
  489400    287.08933   -1502.9074    529.01401    316.59084   -429.26613    38614.337 
  489500    295.34149   -1510.7111    505.14219    322.00924    -430.5991    38614.337 
  489600    300.19684   -1549.9672    497.66879    297.10487   -116.88139    38614.337 
  489700    301.85048   -1524.7369    499.26777    331.36739    245.83425    38614.337 
  489800    317.07223    -1530.901    496.16699    390.52513    900.16398    38614.337 
  489900    290.19285   -1531.9487    522.17274    294.65873    516.46311    38614.337 
  490000    298.83109   -1529.6215    483.23864     296.8813   -81.136751    38614.337 
  490100    298.43912   -1487.1093    514.26952    368.66245      -759.43    38614.337 
  490200    304.00798   -1518.1431    489.58549    337.97699   -497.18393    38614.337 
  490300    301.98904   -1514.6778    490.45661    333.23811   -10.707733    38614.337 
  490400    299.57645   -1515.4563     503.2823    334.44054   -97.701821    38614.337 
  490500    303.51707   -1537.2121    481.17515    308.29096   -349.50657    38614.337 
  490600    303.24845   -1514.6403    496.65475    345.13487   -677.21379    38614.337 
  490700    304.21625   -1539.1026    483.66232    312.03051   -772.84279    38614.337 
  490800    298.57561   -1522.1664    500.94346    320.89277   -373.93513    38614.337 
  490900    296.22595   -1547.3948    505.88666    290.04576   -297.50074    38614.337 
  491000    296.07831   -1465.9747    520.51141    385.42695   -156.29064    38614.337 
  491100    313.61367   -1491.6424    474.37665    392.44702    105.43633    38614.337 
  491200    301.04966   -1498.7901    495.06003    349.50667    -441.4396    38614.337 
  491300    302.60046    -1509.685     473.6236    324.14625   -108.51223    38614.337 
  491400    298.21994   -1532.4347    500.29131    308.37357   -415.81649    38614.337 
  491500    292.03996    -1527.823    468.52746    253.44205   -591.26917    38614.337 
  491600    296.97199    -1488.803    532.04508    378.14948   -82.985993    38614.337 
  491700    290.03245   -1542.6331    476.38926    237.46988   -62.954769    38614.337 
  491800    299.70834   -1519.2695     504.9164     332.8543    534.04888    38614.337 
  491900    298.70605    -1533.748    498.69235    307.64647    144.24073    38614.337 
  492000    296.79413   -1584.4142    471.16208    220.85574    211.70909    38614.337 
  492100     297.8497    -1527.175    481.36788    293.04562   -79.746413    38614.337 
  492200    301.46141   -1539.0232    484.45663    300.52099    89.415419    38614.337 
  492300    298.08838   -1504.2193    487.57163    323.27793    470.90441    38614.337 
  492400    303.39685   -1508.5052    551.38881     406.6711    270.17348    38614.337 
  492500    307.35222   -1474.0792     484.9973    392.48519    107.06104    38614.337 
  492600    295.26389   -1479.3706    539.36916    387.22794   -112.29805    38614.337 
  492700     308.7602   -1492.9545    507.32286    402.26444     -151.605    38614.337 
  492800    293.86778   -1471.7445    518.91318    368.12246   -1144.8329    38614.337 
  492900    305.35921   -1481.0411    498.49375     390.0611   -938.89792    38614.337 
  493000    295.91698   -1493.8328    492.24676    328.57898   -322.79544    38614.337 
  493100    307.70393   -1516.6777    510.08907    376.55946   -257.19378    38614.337 
  493200    296.87907   -1526.7311    522.16537    329.92401   -128.69798    38614.337 
  493300    297.12522   -1535.8586    514.54469    314.28221   -102.15898    38614.337 
  493400     302.0451     -1520.98    494.93265    331.66401    569.00274    38614.337 
  493500     299.4886   -1491.1098    526.00276    381.11265    55.029119    38614.337 
  493600    291.51384   -1497.8536    532.49506    345.01411     374.2612    38614.337 
  493700    294.73469   -1496.7836    529.32455    357.39151    192.00146    38614.337 
  493800    305.96042   -1438.4247    504.60582    441.49207   -162.57896    38614.337 
  493900    291.44821   -1485.9432    517.52648    341.66088   -173.14386    38614.337 
  494000    296.42133   -1484.0169    515.43977    363.85498    695.75484    38614.337 
  494100    304.25319   -1508.6711    507.97358    366.93933   -8.8791677    38614.337 
  494200    309.01561   -1489.3419    512.96949    412.67176    -299.1801    38614.337 
  494300    299.59817   -1515.4705    522.59837    353.84011   -766.57582    38614.337 
  494400    299.67915   -1497.9297    497.10761    346.25412    -879.2534    38614.337 
  494500    309.19475   -1519.4455    510.39499    380.79892   -502.69121    38614.337 
  494600    302.72817   -1510.4315    519.80334    370.15359   -424.49171    38614.337 
  494700    295.85326   -1508.7721    507.93514    329.04169   -600.41946    38614.337 
  494800    294.63407   -1495.5372    502.38266    331.24377   -34.653336    38614.337 
  494900    298.27678   -1530.7257    502.61992    312.66669   -172.13501    38614.337 
  495000    298.17242    -1525.269     514.2351    329.26951   -661.61157    38614.337 
  495100    294.91403   -1517.8435    499.99303    307.80619   -595.77655    38614.337 
  495200    296.85905   -1550.9334     477.9188    261.38508   -340.43167    38614.337 
  495300    295.30243   -1490.4269    521.76542    358.74117   -89.631868    38614.337 
  495400     308.7831   -1524.1203    518.26821    382.14694   -188.72398    38614.337 
  495500    301.15346   -1527.7403    499.84094    325.80398    429.96885    38614.337 
  495600    289.24416   -1539.1317    484.26566    245.30424   -45.809762    38614.337 
  495700    294.20717   -1525.8232    516.26173     312.9179    455.44024    38614.337 
  495800    298.60019   -1516.2674    513.66255    339.62141    41.178818    38614.337 
  495900    312.90656   -1560.6526    508.57258     354.4542   -364.71252    38614.337 
  496000    298.33483   -1539.3348    490.51191    292.21056   -242.40965    38614.337 
  496100    294.01885   -1532.0208    522.56048    312.17249   -251.71264    38614.337 
  496200    294.72724   -1555.2993    515.87221    285.38993   -26.760193    38614.337 
  496300    299.16894   -1544.1098    517.38324    318.05623   -229.32774    38614.337 
  496400    306.31105   -1568.7563    509.96624    318.09695   -147.86445    38614.337 
  496500    300.60889   -1551.0837    492.60294    292.77466    83.866914    38614.337 
  496600     294.6712   -1564.3028    501.71509    261.97744   -15.759969    38614.337 
  496700    298.07765   -1560.7943    485.18534     264.2684    548.03767    38614.337 
  496800    313.17891   -1572.8384     516.2654    351.18545     882.9274    38614.337 
  496900    296.60548   -1539.3393    506.77677     300.6974    577.92627    38614.337 
  497000    292.43766   -1578.7694     499.8461    235.60202    266.68801    38614.337 
  497100    297.75186   -1549.8353    514.52111    303.09877    444.61787    38614.337 
  497200    304.46805   -1603.7363    483.67042     248.5367    577.91015    38614.337 
  497300    290.57669   -1559.5714    499.32999     245.9187   -157.18724    38614.337 
  497400    299.77151   -1533.1402    497.83342    312.18462    179.74216    38614.337 
  497500    286.89108   -1521.5667     507.6969    275.72327    537.67673    38614.337 
  497600    297.64591   -1528.3147    489.16689    298.78885    745.53473    38614.337 
  497700     305.5614   -1530.5666    508.13704    351.08773    1082.7037    38614.337 
  497800    290.84415   -1522.1582    519.65826    304.86242    697.03994    38614.337 
  497900    297.27213   -1527.6061     513.6306    322.28101    786.22331    38614.337 
  498000    307.35575   -1548.0148    509.48157    343.04983    838.46145    38614.337 
  498100    294.70994   -1549.2545    512.07583    287.56066    356.75954    38614.337 
  498200    303.03571   -1539.8271    512.88662    335.22375    544.85145    38614.337 
  498300    302.97985   -1571.1784    501.54953    292.28422    491.72803    38614.337 
  498400    308.10376   -1518.6455    523.65617    389.95606    374.17701    38614.337 
  498500    291.86488   -1593.7151    510.40364    228.63909   -575.47528    38614.337 
  498600    288.45444   -1538.3843    502.19039    260.42658   -156.07207    38614.337 
  498700    309.09836   -1564.0622    525.12113    350.47504    474.53786    38614.337 
  498800    291.55251   -1549.2012    503.02698    264.37231    338.15984    38614.337 
  498900    298.90677   -1547.6249    505.99173     301.9712   -268.88465    38614.337 
  499000    303.96027   -1529.9391    491.57046    327.95145    244.53772    38614.337 
  499100    296.61983   -1552.7732    504.48156    285.03272    263.03347    38614.337 
  499200    294.57313   -1540.8285    518.59747    301.89332   -833.23061    38614.337 
  499300    296.26458   -1500.2861    492.76258      324.204   -1.3970857    38614.337 
  499400    290.88201   -1536.1376    530.27843    301.67334   -151.07362    38614.337 
  499500     289.9956   -1540.6889    500.07664    262.93579    86.563893    38614.337 
  499600    292.57372   -1587.8026    482.65563    209.98993   -619.84639    38614.337 
  499700    301.94116   -1555.0152    496.39229     298.6212   -551.19268    38614.337 
  499800     300.9409    -1537.441    515.80849    331.11537    285.91103    38614.337 
  499900    297.05956   -1571.9236    511.98578    275.36319    296.96648    38614.337 
  500000    298.68426   -1534.4267    550.13898    358.31647    14.935943    38614.337 
  500100    296.05173   -1560.0241    504.35238    275.09906    39.675113    38614.337 
  500200     305.4038   -1544.5005    519.95292    348.26133    582.76963    38614.337 
  500300    309.60886   -1559.0307    509.70702    342.38717    350.15947    38614.337 
  500400    298.71785   -1467.4429    518.55109    393.86332     211.4898    38614.337 
  500500    288.47471   -1537.8958    528.02664    286.84237    105.60052    38614.337 
  500600    302.17517   -1570.9114    484.08152    271.46606   -402.34013    38614.337 
  500700    292.72286   -1551.0592    500.00008    264.74813   -454.96712    38614.337 
  500800    305.36495    -1583.701    500.49909    289.43238   -445.18097    38614.337 
  500900    294.65426   -1550.9368    511.45813    285.01036   -434.29056    38614.337 
  501000    309.48113   -1561.4794    513.64179    343.29911   -641.87102    38614.337 
  501100    305.36812   -1545.2761    473.32264    300.69508   -318.23514    38614.337 
  501200    291.72574   -1527.3789    515.03652    298.98276   -127.93249    38614.337 
  501300    301.36692   -1561.3265    490.77419    284.11056    -388.2588    38614.337 
  501400    306.56266   -1537.0229    533.00822    374.00337   -320.66492    38614.337 
  501500    300.22704   -1554.9675    515.07848    309.64999   -57.139769    38614.337 
  501600    302.79344   -1557.3919     518.8131     322.4964    535.53721    38614.337 
  501700    297.21726   -1546.4426    501.46415    291.03141    -460.6658    38614.337 
  501800    296.63916    -1553.613    520.77366    300.57193    -452.1192    38614.337 
  501900    299.55359   -1553.5096    500.71861    293.72086   -529.93358    38614.337 
  502000    288.97902   -1588.3684     508.3927    219.00282   -874.09904    38614.337 
  502100    300.09256   -1524.4334    506.91663    331.41771   -963.93179    38614.337 
  502200    297.37864   -1470.3268    498.00162    364.41013   -934.06078    38614.337 
  502300    299.53082   -1470.8521    527.06774    402.62513   -265.44958    38614.337 
  502400    295.75162   -1544.5034     488.3557    273.27406   -55.825884    38614.337 
  502500    301.78746   -1549.7759    515.56207    322.33937    991.72694    38614.337 
  502600    295.40761   -1571.1439    495.33715    252.06863    526.80235    38614.337 
  502700    297.15026   -1565.9292    507.16938    276.94891    373.42415    38614.337 
  502800    301.46469   -1530.0189    508.70017    333.78357   -62.923504    38614.337 
  502900     295.3631   -1527.6636    510.06861    310.08027    301.44425    38614.337 
  503000    294.64174   -1569.9741    517.90427    272.36291    412.70483    38614.337 
  503100    301.94652   -1604.0254    515.50985    268.75259   -350.57529    38614.337 
  503200    298.85311   -1535.4758    480.45769    288.34499   -364.38675    38614.337 
  503300    297.43571   -1563.9525    508.87904    281.91836   -571.57062    38614.337 
  503400    303.84256   -1533.1029    548.93031    381.61841   -255.35753    38614.337 
  503500    289.76081   -1534.2922    498.62704     266.8275   -109.18449    38614.337 
  503600    306.97969   -1511.3503    517.10114    385.64346   -371.22139    38614.337 
  503700    305.09751   -1496.7215    509.81427    384.52486   -241.28312    38614.337 
  503800    291.74971   -1532.0396    513.81492    293.20819   -612.42272    38614.337 
  503900    285.56037   -1478.8684     505.0074    309.75037    -953.6524    38614.337 
  504000    304.94144   -1523.1204    514.00252    361.61263   -336.81491    38614.337 
  504100    305.90357   -1523.8438    503.56731    354.77889    193.68463    38614.337 
  504200    311.78175   -1580.3147    514.10144    335.26489    1114.5319    38614.337 
  504300    293.64182   -1516.9891    500.03343    302.98238    773.89309    38614.337 
  504400    298.71807   -1514.7985    522.44004    350.39765    313.55281    38614.337 
  504500    297.65615   -1513.6224     542.9332     367.2935    408.71098    38614.337 
  504600    308.21273   -1518.4534    508.88988    375.87166    552.72787    38614.337 
  504700    299.26656   -1499.0328    540.43596    386.62474    431.06242    38614.337 
  504800     291.0785   -1567.7981    507.00605    247.62372    84.987099    38614.337 
  504900    305.11586   -1555.9797    527.40593     342.9408    315.66904    38614.337 
  505000    310.26847   -1556.4167    496.78555     335.0447    -562.4143    38614.337 
  505100    308.10361   -1502.7517    534.90342    417.09639   -95.423793    38614.337 
  505200    289.07079   -1523.9428    500.48322    275.93142    304.43243    38614.337 
  505300    293.63506   -1557.2911    509.39921    272.01575   -494.98459    38614.337 
  505400    295.61361   -1551.2807    536.33588     313.8566   -306.91967    38614.337 
  505500    304.86634   -1512.1066    489.88936    348.17566   -50.746176    38614.337 
  505600    304.32659   -1530.1236     485.8727    323.71584    -553.9735    38614.337 
  505700    296.75903   -1528.5815    520.34945    325.71805   -688.71847    38614.337 
  505800    305.94091   -1570.5158    511.16226    315.86973   -568.91256    38614.337 
  505900    294.13685   -1519.4581    516.29832    319.00345   -595.31476    38614.337 
  506000    295.29142   -1546.3925    479.45239      260.413   -193.45526    38614.337 
  506100     303.0101   -1588.4288    495.78117    269.40147    -139.6027    38614.337 
  506200    303.36603   -1575.3993     503.0999    291.34961    723.78253    38614.337 
  506300    298.19017    -1560.201    506.45676     286.6389    297.24623    38614.337 
  506400    305.45639   -1509.0964    521.27288    385.22173    492.01753    38614.337 
  506500    310.10923   -1480.1945    517.37178    431.13731    603.29262    38614.337 
  506600    292.79792   -1517.2369    510.72098    309.62877   -549.13708    38614.337 
  506700    306.20616    -1518.803    513.82418     371.4367    275.28823    38614.337 
  506800    306.50997   -1526.1946    513.19307    364.77965    265.29403    38614.337 
  506900    307.27621   -1532.4923    504.58106     353.3142    382.02525    38614.337 
  507000    285.91146   -1480.3812    541.73873    346.54714   -45.858462    38614.337 
  507100    311.69517   -1493.4859    511.69902    419.30211   -206.96343    38614.337 
  507200     300.0559   -1526.8703     502.4232    324.32266   -430.20369    38614.337 
  507300    307.21514   -1542.0322    501.94655    340.86534   -342.74561    38614.337 
  507400    297.30359    -1545.221    513.50267    304.67965   -591.76322    38614.337 
  507500    298.72207   -1488.5474    502.59301    356.81976      63.4381    38614.337 
  507600    303.32593   -1521.3819    525.79298    367.87981    246.78801    38614.337 
  507700     291.3234   -1532.0959    500.44448    277.86514    741.79131    38614.337 
  507800      304.514   -1522.3093    509.21921    355.71908    406.91648    38614.337 
  507900    298.56596   -1499.5952    525.76512    368.24231    628.64505    38614.337 
  508000    310.13685   -1475.3527     522.7348    441.46633    240.19706    38614.337 
  508100    309.94281   -1505.5317    545.12507    432.80541    350.87008    38614.337 
  508200    301.96982   -1501.3118    529.02917    385.09029     729.1409    38614.337 
  508300    292.10229   -1546.5777    548.94913    315.38925    219.28254    38614.337 
  508400     309.8225   -1537.9103    509.90587    364.66674    534.93563    38614.337 
  508500    303.05939   -1515.0735    529.00176    376.19886    352.45578    38614.337 
  508600    299.52272   -1529.8645    543.40885    359.91746    143.25382    38614.337 
  508700    291.72066   -1518.1906    538.93397    332.04564   -99.427714    38614.337 
  508800    295.26252   -1537.8965    509.94309    299.26983   -30.731552    38614.337 
  508900    306.60344   -1544.5637    535.58453    369.22211    365.44105    38614.337 
  509000    291.90883   -1562.5631    510.04045    259.62548   -141.80885    38614.337 
  509100    298.22994   -1559.3619    513.63789    294.83793   -48.416443    38614.337 
  509200    302.03647   -1553.2863    473.32539    277.71159   -61.513475    38614.337 
  509300    297.77948   -1544.2657    498.37484     292.6462   -9.6130623    38614.337 
  509400     288.9643   -1542.1579     510.1195     266.8739   -93.158567    38614.337 
  509500    298.93669   -1527.9648    508.29521    324.06918    686.73137    38614.337 
  509600    305.12446    -1511.018    518.76954    379.30482    745.53821    38614.337 
  509700     312.2068    -1541.481    507.32034     369.2281    280.93975    38614.337 
  509800    296.75467   -1530.0999    503.20311    307.03366   -380.31531    38614.337 
  509900    304.02318     -1551.25    517.91039    333.26332    217.40617    38614.337 
  510000    298.10167   -1548.6761    497.62435    288.93359    171.76761    38614.337 
  510100    306.69791   -1556.1665    482.91084    305.37035    80.683026    38614.337 
  510200    304.39004   -1534.9752    508.45694    341.73374    218.88934    38614.337 
  510300    306.57097   -1494.8447    526.58059    409.79125   -193.58895    38614.337 
  510400    300.88016    -1521.101    497.57644    328.95022    59.466393    38614.337 
  510500    298.06671   -1535.4389    513.38273    317.77204    139.47154    38614.337 
  510600    292.16732   -1578.5842    507.59375    242.31963    227.09039    38614.337 
  510700    295.47048   -1547.2714    511.76848    292.65501    30.825362    38614.337 
  510800    300.07651   -1546.5809     510.9242    313.20568   -269.35152    38614.337 
  510900    297.72988    -1545.338     515.5761    308.55225   -45.629298    38614.337 
  511000     306.4492   -1567.5543    523.81025    333.76393    101.52667    38614.337 
  511100     301.7993    -1558.557    502.44373    300.49316   -35.674959    38614.337 
  511200    292.16356   -1581.1039    510.90159    243.09085   -207.45728    38614.337 
  511300    300.29959   -1511.2154    495.06173    333.71148   -340.16446    38614.337 
  511400    291.76058   -1528.2222      501.296    284.55559   -323.66566    38614.337 
  511500    301.97909   -1550.1337    490.07018    297.35104   -179.63678    38614.337 
  511600     311.0793   -1536.3574    494.57866    356.54182   -172.42854    38614.337 
  511700    301.31738   -1509.7825    492.49464    337.15229   -371.65374    38614.337 
  511800    301.16949   -1486.8987     497.3334    364.21013    -287.6503    38614.337 
  511900     298.4192   -1509.0319    498.40217    330.78292   -366.50287    38614.337 
  512000    308.36627   -1554.5464    492.00356    323.58249    27.899886    38614.337 
  512100    306.85332   -1568.3109    488.92687    299.94051   -411.75535    38614.337 
  512200     290.3647   -1569.6799    475.58319    211.11045   -665.49609    38614.337 
  512300      284.853   -1551.4416    499.54391    228.53409   -603.45342    38614.337 
  512400    315.26232   -1536.2178    507.19726    388.10299   -180.46886    38614.337 
  512500    292.32766    -1534.729    482.87424    262.17604   -537.05544    38614.337 
  512600    298.13291   -1565.7342     500.6523    275.04389    287.85751    38614.337 
  512700     307.6558   -1526.9399     492.5785    348.57036     13.14332    38614.337 
  512800      287.822   -1524.7704    509.55271     278.5599   -284.19551    38614.337 
  512900    308.65593    -1557.071    504.53187    334.88826    246.34316    38614.337 
  513000    302.65128   -1550.9314    480.07068    289.57544    648.55003    38614.337 
  513100    295.18774   -1561.7593    519.11815    284.24591    385.58731    38614.337 
  513200    301.52554   -1560.7396    493.71772    288.35401    197.61157    38614.337 
  513300    304.93402   -1578.3527    483.66866     276.0131   -51.800077    38614.337 
  513400    296.67147    -1572.251    502.23462    263.54021   -303.85934    38614.337 
  513500    290.78169   -1555.2861    495.84796    247.64344    -547.7133    38614.337 
  513600    296.66269   -1540.7429    494.94672    287.72084   -180.54078    38614.337 
  513700    311.08547   -1518.2459    483.95341    364.05582   -964.07089    38614.337 
  513800    294.87678   -1548.4977    489.26932    266.26097   -514.64997    38614.337 
  513900    304.87403    -1513.811    511.72549    368.34197   -454.93494    38614.337 
  514000    301.35258   -1534.5764    482.29054     302.3126    169.10565    38614.337 
  514100    294.19199   -1524.7932    503.91584    301.53371    318.86115    38614.337 
  514200    303.03323   -1479.7635     515.6924    398.08191    573.59732    38614.337 
  514300    301.38583    -1517.881    498.15313    335.01998    624.78918    38614.337 
  514400    295.70789   -1550.6863    480.31092    258.84974     713.7155    38614.337 
  514500     297.8637   -1558.5215    496.55138    276.94561    895.28146    38614.337 
  514600    302.29275   -1569.5432     504.8003    294.08165    514.03288    38614.337 
  514700    300.54175   -1583.1438    500.19258    268.00246    434.04272    38614.337 
  514800    300.18981   -1526.5081    498.94165    321.80523   -22.379229    38614.337 
  514900    298.72513   -1519.1752    493.20892    316.82158   -123.33342    38614.337 
  515000    304.19424   -1542.1078    493.62781    318.89185     128.7284    38614.337 
  515100    292.07402   -1516.4778    498.83034    295.24326   -66.067015    38614.337 
  515200    297.69177   -1509.6975     496.0583    324.50363   -345.25695    38614.337 
  515300    302.18375   -1515.8772    513.18786    355.64518    190.22888    38614.337 
  515400    303.61049    -1553.018    504.56747    316.29737   -189.78508    38614.337 
  515500    304.95143   -1528.3829    503.94841    346.34094    140.81817    38614.337 
  515600    305.17119   -1488.5005    494.54068    377.80341    163.52708    38614.337 
  515700    296.92161    -1577.866    480.07921     236.8941    347.89091    38614.337 
  515800    306.21099   -1552.4218    482.53283    306.54828   -394.53883    38614.337 
  515900    317.16431   -1521.5493    480.22938    384.35317   -58.647792    38614.337 
  516000    300.48585   -1515.0304    481.84679    317.51877   -341.70108    38614.337 
  516100    297.02864   -1550.6496    482.99003    267.50243   -418.60762    38614.337 
  516200    289.74503   -1563.2431    501.02605    240.20472   -465.24594    38614.337 
  516300    304.85878   -1527.5229    490.57323    333.40933   -254.93333    38614.337 
  516400    302.43626   -1554.6155    471.19378    276.04789   -525.66756    38614.337 
  516500    299.33668   -1512.5627    519.34129    352.31538   -488.39821    38614.337 
  516600    298.83826   -1506.8433    488.03862    324.49168   -112.24332    38614.337 
  516700    291.44574   -1566.1618     496.2786    240.18333    45.676056    38614.337 
  516800    302.00705   -1549.5696    508.84979     316.8205    324.23607    38614.337 
  516900    296.43494    -1543.683    471.57936    260.38962    255.28692    38614.337 
  517000    292.81969   -1549.0985    494.18325    261.32731   -89.924896    38614.337 
  517100    306.43617   -1555.3403    487.31612    309.42529    5.0054149    38614.337 
  517200    292.23646   -1526.2235     490.4655    277.86286    175.18735    38614.337 
  517300    301.25821   -1502.9162    521.52535    372.78338   -177.58109    38614.337 
  517400    294.30917   -1510.7275    493.38299    305.59329   -186.05997    38614.337 
  517500    289.46188   -1521.9681    519.25133    298.43216   -430.60252    38614.337 
  517600    298.95739   -1556.1712    495.62616    283.28684   -571.65394    38614.337 
  517700    291.92218   -1590.3594    483.55512    205.40392   -887.90793    38614.337 
  517800    293.85421   -1620.2377    467.01271    167.66772   -828.79505    38614.337 
  517900    293.49126    -1536.874    507.96006    290.34735   -154.03193    38614.337 
  518000    305.79134    -1526.576    494.95576    342.93062   -585.59078    38614.337 
  518100    297.19772    -1520.845    498.01107    313.08812   -210.60623    38614.337 
  518200    299.23032    -1540.314    526.55904    331.30374    -367.3503    38614.337 
  518300    296.04291   -1499.9766     504.9107    335.66515   -328.41528    38614.337 
  518400    294.50651   -1497.0905    492.76204     319.4964    106.38778    38614.337 
  518500    290.64957   -1536.7372    507.42051    277.17102    769.69245    38614.337 
  518600    285.42034    -1546.331    532.24197    268.89298    194.27408    38614.337 
  518700    293.38488   -1552.8484    479.53514    245.46979    25.013515    38614.337 
  518800    298.34704   -1550.5321    496.31722    286.87345   -348.83842    38614.337 
  518900    287.98129   -1542.0323    488.91359    241.37499    116.46813    38614.337 
  519000    303.84139   -1528.7625     498.0343    335.05761    175.24469    38614.337 
  519100    302.90348   -1538.4554    505.21002    328.32444    506.71516    38614.337 
  519200    308.45933   -1555.6742    497.55811    328.42759    308.61811    38614.337 
  519300    302.19588   -1565.0472    479.18364    272.52551   -151.82741    38614.337 
  519400    310.00115   -1586.6654    486.42091    293.22979    218.87909    38614.337 
  519500    306.81076   -1600.5284    497.21883    275.82365   -90.965831    38614.337 
  519600    301.80213   -1565.4619    490.76879    281.92601    370.70423    38614.337 
  519700    310.56461   -1543.5622     488.6109    341.05573    304.76194    38614.337 
  519800    306.76259   -1537.4879    508.73325    350.16212    457.24729    38614.337 
  519900    311.39008   -1554.3926    493.64413    338.96911    347.38846    38614.337 
  520000    302.36023   -1591.6378    501.21304    268.70308    213.90748    38614.337 
  520100    292.82057   -1521.9822    485.55249    279.81672   -303.24132    38614.337 
  520200    295.83063   -1494.1329     477.1571     312.8011   -846.72453    38614.337 
  520300     297.8798   -1498.0951    501.67799    342.57089   -264.26874    38614.337 
  520400    307.06521   -1494.1223    479.45452    365.60928    -677.4774    38614.337 
  520500    308.14106   -1530.6007     493.6783    348.19061   -493.66871    38614.337 
  520600    308.67109   -1492.9026    475.45072    370.04368     -311.144    38614.337 
  520700    298.25877   -1472.0741    506.05378    374.67117   -259.60528    38614.337 
  520800    302.46837     -1512.99    467.87912    314.50306    251.99447    38614.337 
  520900    298.20281   -1550.3556    471.25198    261.33632    289.66543    38614.337 
  521000    302.95957   -1534.9172    511.53601    338.44074     358.1915    38614.337 
  521100    300.28049   -1500.3327    495.37526    344.82186    477.26463    38614.337 
  521200    288.80319   -1480.3887    483.21735    301.01671      240.356    38614.337 
  521300    298.15953   -1501.3462    480.87544    319.77464    195.15701    38614.337 
  521400    296.87145   -1533.7881    497.60711    298.27441   -57.532865    38614.337 
  521500    302.50919   -1513.6869    506.80944    352.91996   -649.59209    38614.337 
  521600    293.79018   -1458.8125    477.16171    338.95415   -357.06024    38614.337 
  521700     304.6097   -1469.5889    484.39053    384.04097   -268.67016    38614.337 
  521800    295.59602    -1516.882     476.8035    288.64378   -266.92345    38614.337 
  521900    304.67546   -1425.0243    502.57901    447.08967    156.58283    38614.337 
  522000    303.76348   -1422.3512    491.66748    434.75181   -635.08776    38614.337 
  522100    297.59461    -1444.837    518.92232    411.79143   -721.27709    38614.337 
  522200    309.40121   -1484.7639    458.87723    364.89078    202.73959    38614.337 
  522300    301.93195   -1462.6016    534.01016    428.61129   -128.40963    38614.337 
  522400     293.0671    -1438.034    503.48486    382.80547    223.21338    38614.337 
  522500    312.50459   -1432.0322    516.52741    489.22256    299.18162    38614.337 
  522600    312.10094   -1465.5344    500.17395    437.55251    74.608968    38614.337 
  522700    300.17023   -1472.0557    512.79789     390.0259    293.11392    38614.337 
  522800     300.8177   -1493.2065    490.87125    349.85885     299.3421    38614.337 
  522900     304.1302   -1469.3379    514.28993    412.03602     228.5924    38614.337 
  523000    309.88885   -1477.8267    508.25916    423.40194   -10.168534    38614.337 
  523100    296.84903   -1501.8204    503.84582    336.38006   -508.33452    38614.337 
  523200    288.59024   -1549.0583     509.9039    258.07649   -371.02612    38614.337 
  523300    296.71192   -1513.9947    511.56489    331.30849   -315.01733    38614.337 
  523400    306.36616   -1474.7292    490.78694    393.19253   -224.89793    38614.337 
  523500    300.87396   -1469.2255    489.86482    373.08626   -277.81677    38614.337 
  523600    293.48524   -1492.4713    500.88292    327.64582   -352.33259    38614.337 
  523700    305.11009   -1482.5115    512.30963    401.28681    157.29775    38614.337 
  523800    295.98812   -1562.5641    488.12682    256.04759   -377.40586    38614.337 
  523900    298.43053   -1519.6989    499.33983    321.10457   -277.62778    38614.337 
  524000    308.67922   -1528.2521    504.90088    364.18091   -166.29957    38614.337 
  524100    310.40886   -1501.5684    503.15093    396.88943    59.950402    38614.337 
  524200    304.56738   -1506.7258    497.17702    359.50036   -235.19865    38614.337 
  524300     305.5366   -1484.5809    515.14489     403.9698   -615.81408    38614.337 
  524400    304.61144   -1485.1198    499.29469    383.42208    -640.7878    38614.337 
  524500     302.1028   -1547.2238    503.45118    314.19808    370.47913    38614.337 
  524600    303.75863   -1489.1564    513.91557     390.1729   -36.760362    38614.337 
  524700    295.01123   -1490.0772    508.46429    344.48073    9.6691076    38614.337 
  524800    307.35997   -1491.9067    499.55727    389.25256    234.43206    38614.337 
  524900    301.94608   -1508.7166    504.31401    352.86361   -55.106511    38614.337 
  525000     295.1731   -1521.2711     471.3762    276.92637    297.24492    38614.337 
  525100    297.17825   -1491.3439    528.70268    373.19332    73.989468    38614.337 
  525200    305.64982   -1537.0226    511.09613    347.98824    165.37552    38614.337 
  525300    299.65136   -1569.3091    472.54982    250.19201    270.63717    38614.337 
  525400    301.80754   -1514.2215    531.68241    374.10434   -489.37218    38614.337 
  525500     306.1087   -1509.0672    490.53903    357.44924   -17.037403    38614.337 
  525600    299.36722   -1509.9467    493.62625    329.35366   -357.84591    38614.337 
  525700    300.67046   -1547.7336    491.51787    295.31646    15.974998    38614.337 
  525800    303.55618   -1566.8734    459.88489    257.51523    52.791826    38614.337 
  525900    303.23056   -1528.2314     501.8347    336.64334    41.753355    38614.337 
  526000     312.1362   -1504.2235    524.86379    423.71174    621.32185    38614.337 
  526100    294.58242   -1483.6999    524.74918    365.21541    364.54794    38614.337 
  526200     301.5992    -1536.752     510.4809    329.43588    110.65593    38614.337 
  526300    300.42703   -1574.4484    503.95544    279.94504    849.21362    38614.337 
  526400    297.96488   -1553.5009    504.41377    290.28332    347.43804    38614.337 
  526500     305.6888   -1547.4572    493.94629    320.57901    605.42176    38614.337 
  526600    292.42975   -1526.9369    523.86023    311.41307    216.44991    38614.337 
  526700    291.39832   -1568.4022    485.30161    226.75285   -590.83837    38614.337 
  526800    297.43732   -1537.4629    485.74153    285.27772   -155.13551    38614.337 
  526900    304.48557   -1538.3994    490.21262    320.49457    178.57297    38614.337 
  527000    304.53379   -1564.3596    492.14066    296.67919    436.33888    38614.337 
  527100    307.81792   -1569.9324    513.08547    326.81357    425.62345    38614.337 
  527200    300.80583    -1558.353    515.17045    308.95815   -125.88276    38614.337 
  527300    292.20097   -1526.5083    497.77839    284.73145   -343.77334    38614.337 
  527400    299.70297   -1537.0997    489.80721    299.89075   -776.14132    38614.337 
  527500     313.4804   -1504.6063    505.41215    409.91953   -763.46559    38614.337 
  527600    296.03919   -1580.3902    507.43236    257.75656    -826.4236    38614.337 
  527700    306.66793   -1533.1612    494.55452    339.88459   -464.65486    38614.337 
  527800    301.07253   -1534.3897    493.15595    312.10578    165.70725    38614.337 
  527900    307.82323   -1556.0585    497.61715    325.24302    128.61168    38614.337 
  528000    281.79055    -1551.324    499.29892    214.64083    351.32512    38614.337 
  528100    292.93787   -1507.7416    489.83848     298.8706    173.84255    38614.337 
  528200    307.36961   -1548.4862    496.49397    329.65308   -352.83748    38614.337 
  528300    291.58305   -1524.3013    515.19015    301.57264   -95.026255    38614.337 
  528400    306.43414   -1545.6715    497.93018    329.69904    376.53038    38614.337 
  528500    297.10699   -1540.1802    525.99812    321.33207   -163.59399    38614.337 
  528600    303.77187   -1536.1416    489.01474     318.3464   -448.59719    38614.337 
  528700    301.94561    -1467.186    493.26778    383.34591   -1113.6317    38614.337 
  528800     299.4912    -1493.891    498.19984    350.54016   -406.20835    38614.337 
  528900    302.70702   -1497.8815    515.28566    378.09081   -891.53398    38614.337 
  529000    304.77123   -1493.5486    494.18038    370.59724   -300.77442    38614.337 
  529100    307.77044   -1516.7526    506.55781    373.25231    302.26642    38614.337 
  529200    295.36029   -1530.2449    503.57257    300.99037   -358.62133    38614.337 
  529300    308.69774    -1507.458    490.53195    370.68935    705.99282    38614.337 
  529400    295.88149   -1463.6315    551.27646    417.65046    647.15061    38614.337 
  529500    289.77663   -1511.4417    496.24663    287.36868    289.14726    38614.337 
  529600    300.18568     -1506.16    504.43297    347.62612    263.30892    38614.337 
  529700    296.89096   -1482.8612    506.88152    358.56348   -162.41693    38614.337 
  529800    307.25141   -1474.2623    499.69701    406.54874   -250.47977    38614.337 
  529900     297.0841   -1469.0034    522.36713    388.77504   -9.9277415    38614.337 
  530000    306.51895   -1481.9452    512.06694    407.94324    332.98215    38614.337 
  530100    298.83797   -1474.1238    513.30586    382.47711    568.19173    38614.337 
  530200    303.34912   -1494.3663    492.69554    361.90217    962.38331    38614.337 
  530300    302.28439   -1478.9418    494.28366    374.12877     628.8821    38614.337 
  530400    294.96556   -1510.8296    543.93925    358.99799    631.92303    38614.337 
  530500    295.96654   -1500.9113    505.74394    335.22045    442.10655    38614.337 
  530600    300.82803    -1512.843     500.4563    339.85383    -13.58533    38614.337 
  530700    301.75663    -1538.578    465.12178    282.95838   -181.84867    38614.337 
  530800    298.76906   -1507.6819    508.12788    343.43132   -455.56891    38614.337 
  530900    293.05779   -1488.5807    497.97614     326.7082    284.72097    38614.337 
  531000    299.77941   -1513.0327    485.93518    320.42943   -121.32419    38614.337 
  531100    300.58375   -1471.3082    504.26159     384.0959    364.21377    38614.337 
  531200    308.84804   -1494.9193    520.40168    413.77333    615.88264    38614.337 
  531300    314.21093   -1504.5834    520.00998    427.82403    635.88378    38614.337 
  531400    295.30426   -1461.1469    500.82909      367.093    641.03877    38614.337 
  531500    301.17927   -1478.0662    513.82518    389.57834    408.66607    38614.337 
  531600      292.559   -1465.2395    471.89451    321.72575   -14.804075    38614.337 
  531700    302.57297   -1482.2688     541.9341    419.74945    551.97278    38614.337 
  531800    300.61469   -1523.4648    499.68884    327.50555   -118.31064    38614.337 
  531900    297.95816   -1495.8826    548.79344    392.25111    300.12902    38614.337 
  532000    312.96952   -1513.3685    524.80875     418.2575    926.26377    38614.337 
  532100    295.29532   -1479.1662    492.41139    340.61582   -96.782125    38614.337 
  532200    309.57436   -1472.7273    518.77849    437.60697    373.84191    38614.337 
  532300    297.87049   -1476.4042    480.95259    343.49462    213.19218    38614.337 
  532400    316.16066   -1481.9457    514.64121    453.85709    305.55994    38614.337 
  532500    296.47513   -1501.8174    498.29689     329.1534   -145.21661    38614.337 
  532600    305.67632   -1473.6931    511.34886    411.68963    284.46955    38614.337 
  532700    294.38561   -1434.2973    532.49012    421.47422    93.641207    38614.337 
  532800    309.55926   -1470.8718    510.14107    430.75726    9.5478687    38614.337 
  532900    304.34216   -1459.8585    509.93625    418.11448    346.46273    38614.337 
  533000    295.92265   -1480.0414     508.4618    358.61088      523.692    38614.337 
  533100    302.87463   -1505.1013    536.96539    393.30417   -59.980674    38614.337 
  533200    305.37728   -1464.2666    521.78736    430.21048    286.40402    38614.337 
  533300    305.40248    -1448.183    509.31221    433.93213   -226.04524    38614.337 
  533400    296.59749   -1465.7011    518.53499    386.05785    -348.0983    38614.337 
  533500    295.24389   -1425.6322    543.82303    445.33034    173.07396    38614.337 
  533600    292.17174   -1458.5755    475.98819    330.74264    63.734035    38614.337 
  533700    293.36747   -1473.9363    526.81867    371.58725    394.69732    38614.337 
  533800     288.3949   -1482.7543    533.95622    347.55479    814.21975    38614.337 
  533900    305.69984   -1497.9034     533.7066    409.94283    1274.9625    38614.337 
  534000    294.27524   -1492.9317    518.43334    348.28693    508.89201    38614.337 
  534100     301.9707   -1516.3166     527.3627    368.42297    765.98643    38614.337 
  534200    301.41367    -1477.806    515.16719     392.2342    275.56952    38614.337 
  534300     305.5462   -1475.2795    533.24994    431.41939     344.5325    38614.337 
  534400    300.00198   -1497.5616    504.30776    355.27351    -282.3302    38614.337 
  534500     301.9909   -1474.4152    501.32932    384.38177   -205.31974    38614.337 
  534600    297.46169   -1473.3824    529.29555    393.02174   -295.30087    38614.337 
  534700    302.32275   -1467.4308    509.56539    401.09399    -103.2807    38614.337 
  534800    305.03719   -1465.5039    532.27509    437.93218    46.960793    38614.337 
  534900    297.31966   -1479.2819    522.56083    379.74909    -208.5604    38614.337 
  535000    293.14086   -1522.4179    505.21311    300.48142   -632.64648    38614.337 
  535100    294.59304      -1521.2    499.44102    302.45491   -21.965354    38614.337 
  535200    300.32044     -1530.71    512.77556    332.02443    525.52164    38614.337 
  535300    308.58883   -1501.9542    522.18197     407.3536    173.39195    38614.337 
  535400    299.99159   -1488.9734    502.26089    361.76817    64.251008    38614.337 
  535500     302.5836   -1515.3027    519.03418    363.86336    166.08291    38614.337 
  535600    288.19803   -1548.7497    525.96317    272.68131   -288.07273    38614.337 
  535700    289.67827   -1533.1563    504.76043    273.72579   -282.57721    38614.337 
  535800    296.80519   -1506.0949    479.50213    307.56488   -69.354456    38614.337 
  535900    301.26324    -1501.459    525.16073    377.89859     -365.132    38614.337 
  536000    306.35772   -1541.8804    485.16449     320.3809   -763.88522    38614.337 
  536100    290.47135   -1548.0711    500.90671    258.52221     24.51381    38614.337 
  536200    299.50623   -1521.4846    525.12389    349.93826   -382.62249    38614.337 
  536300    291.34163   -1545.7234    484.09232    247.96752   -9.3540829    38614.337 
  536400    308.74539   -1543.6999    509.79272    353.92232   -161.66641    38614.337 
  536500    300.74594   -1550.8797    501.93747    302.92927   -102.88987    38614.337 
  536600    299.69964    -1571.965    484.41154    259.61487   -355.05643    38614.337 
  536700    294.59519   -1485.1708    511.71764    350.77031   -355.29866    38614.337 
  536800    300.79303   -1479.0219    511.70886    384.77008    136.58547    38614.337 
  536900    299.62351   -1507.1468    488.27928    327.95863   -75.898957    38614.337 
  537000    303.48501   -1500.4999    505.11154    368.79542     529.3521    38614.337 
  537100    302.32899   -1479.6338    529.54622    408.89985   -224.74343    38614.337 
  537200    304.44796   -1491.5066    524.62806    401.63378    -41.70655    38614.337 
  537300    294.82664   -1523.5503    489.41436    291.12793   -407.64768    38614.337 
  537400    304.33657   -1541.8842    505.60768    331.73514   -332.64112    38614.337 
  537500    315.82796   -1510.7434    505.64925    414.57195   -644.44573    38614.337 
  537600    298.05263   -1503.7053    498.22698    334.28664   -421.29375    38614.337 
  537700    294.70988   -1498.3141    505.34825    331.77322   -378.83291    38614.337 
  537800     295.2454   -1556.2611    507.00703    277.89217   -72.919442    38614.337 
  537900    307.39112   -1544.7995    512.37742    349.31993   -46.144753    38614.337 
  538000    291.58559   -1555.0449    502.73916    258.38947    772.80851    38614.337 
  538100    299.44045   -1516.3246    499.32182     329.0005    324.16123    38614.337 
  538200    312.77601   -1497.7716    493.50913     401.6849    295.69582    38614.337 
  538300     303.4938   -1503.1918    505.97687     367.0084    674.16886    38614.337 
  538400    302.59921   -1517.7672    485.46818    327.90311    329.05199    38614.337 
  538500    295.74893   -1465.3049    514.08213    378.18687    342.15495    38614.337 
  538600    311.61975   -1513.0384    517.87359    405.58517   -410.74737    38614.337 
  538700    306.79577   -1475.7042    483.45978    386.82146   -460.37338    38614.337 
  538800    301.53653   -1502.1009    491.17104    344.49544   -865.16454    38614.337 
  538900    303.56366   -1546.5362    510.28374    328.28491    -939.1073    38614.337 
  539000    289.19433   -1524.1841    485.66501    261.42728   -589.80833    38614.337 
  539100    295.57338   -1548.6942    484.06843    263.99478   -259.70461    38614.337 
  539200    298.22914    -1572.313    506.00063    274.24596   -174.07055    38614.337 
  539300    298.86938   -1534.6823    486.61901    295.37297   -43.429368    38614.337 
  539400    305.89164   -1496.2261    489.18081    367.95649    -240.7372    38614.337 
  539500    288.17133   -1554.8655    484.78703    225.26944    -609.2575    38614.337 
  539600    292.75589   -1539.4599    487.97791    264.47372   -267.05009    38614.337 
  539700    287.47246   -1527.5668     523.0309    287.67048    139.07962    38614.337 
  539800    296.24096   -1531.5072    507.50714    307.62133   -125.89478    38614.337 
  539900    294.87251   -1505.9515    506.67558    326.19415    -555.0412    38614.337 
  540000    296.49817   -1481.3868    487.72864    339.11939   -294.40014    38614.337 
  540100    303.75011   -1507.5535    502.76357     360.5855   -479.47374    38614.337 
  540200     304.5073   -1527.0912    496.38802    338.07583   -90.966178    38614.337 
  540300    303.54879   -1493.0356    531.30412    402.73903   -48.420608    38614.337 
  540400    296.37741   -1528.5676    500.16836    303.83549    -168.8988    38614.337 
  540500    299.73313   -1485.6482    512.20704    373.87773     415.9605    38614.337 
  540600    298.76653   -1540.8326    493.22229     295.3637   -583.96986    38614.337 
  540700    299.17098    -1499.668    515.36398    360.48797    -718.7376    38614.337 
  540800    301.07785    -1488.249    502.77724     367.8917   -329.13206    38614.337 
  540900    305.17733   -1544.3481     479.8029    307.24568   -371.88718    38614.337 
  541000    302.17931   -1489.1998    523.15405    392.26881    -288.4426    38614.337 
  541100    297.96017    -1506.996    479.56786    311.92118   -366.39589    38614.337 
  541200      307.889   -1503.0965    523.42271    404.30624     420.9803    38614.337 
  541300    302.82284   -1533.0281    504.70993    332.88912    532.53579    38614.337 
  541400     300.2413   -1517.8586    519.26841    351.01296    745.67336    38614.337 
  541500    305.64212   -1519.4435    516.01896    370.45562    546.35619    38614.337 
  541600    302.30806   -1516.7634    484.56756    326.69749    748.09105    38614.337 
  541700    296.59876   -1524.1824    531.14523    340.19249    393.66317    38614.337 
  541800    299.36381   -1484.7229    529.56371    390.49962    703.60967    38614.337 
  541900    291.45061   -1470.5579    524.51002    364.04058     204.5246    38614.337 
  542000    297.37169   -1516.8513    486.30692    306.15961   -42.830789    38614.337 
  542100    301.84382   -1542.7191    504.50435    318.59174    231.25022    38614.337 
  542200    302.03208   -1516.1907    528.60986    370.07193    144.24504    38614.337 
  542300    306.93128   -1489.5623    497.26788    387.38059   -211.97851    38614.337 
  542400    292.91348   -1499.2625    492.17067    309.57226    -247.1371    38614.337 
  542500    302.45478   -1485.2792    522.88008    397.15376    -287.3715    38614.337 
  542600    298.86817    -1463.826    497.01264    376.61743   -635.29779    38614.337 
  542700    306.49058   -1439.8267    518.71898    456.58633   -712.15435    38614.337 
  542800    304.39632   -1492.8388    514.60487    390.04627   -354.01396    38614.337 
  542900    304.09353   -1495.0506    504.86215    376.73068   -397.73624    38614.337 
  543000    291.54423   -1489.7907     504.6246     325.3431   -151.15457    38614.337 
  543100    291.31791   -1504.8879    500.65333     305.2574   -25.430913    38614.337 
  543200    311.26682   -1512.0214    475.36532    362.50746   -33.391425    38614.337 
  543300    305.52816   -1510.5808    509.72903    372.51613    319.80842    38614.337 
  543400    301.96835   -1501.1339    506.73848    362.97091    478.52885    38614.337 
  543500    308.57575   -1521.9411    491.10795    356.23383    619.59148    38614.337 
  543600    296.58945   -1516.3967    485.64848    302.43958    201.20218    38614.337 
  543700     287.1307   -1527.6266    491.70948    254.75302    129.34633    38614.337 
  543800    294.47509   -1530.7944    479.70639    272.59558   -266.57537    38614.337 
  543900    308.51035   -1516.6407    503.94982    374.08214    63.815496    38614.337 
  544000    298.54198   -1520.1519    499.91823    321.73093    279.30614    38614.337 
  544100    295.39211   -1500.2519     475.0426    302.59645   -430.32244    38614.337 
  544200    300.68243   -1525.4965    507.57867    333.66817   -478.56576    38614.337 
  544300    303.76122   -1497.6972    497.84079    365.56894   -297.41001    38614.337 
  544400    291.34222   -1465.4906    519.30606    363.41673   -330.60529    38614.337 
  544500    303.00657   -1502.9073    500.28805    359.41393    291.07822    38614.337 
  544600    299.20573   -1517.2603     527.5748    355.26265    370.12269    38614.337 
  544700    292.00998   -1491.0619    474.28001    295.82093    288.42827    38614.337 
  544800    303.65742   -1492.4492    489.35161     361.8612   -154.59362    38614.337 
  544900    291.95983   -1479.6311    506.13183    338.87817   -241.23957    38614.337 
  545000    292.29121   -1473.7543    510.20425    350.31691   -53.849878    38614.337 
  545100    300.34712   -1479.1087     498.2942    369.26428   -193.76902    38614.337 
  545200    291.96672   -1464.4397    490.56146     338.5301   -347.77691    38614.337 
  545300    296.13133    -1499.454    480.08584     311.7604   -728.14069    38614.337 
  545400    292.06302   -1504.7195    502.62019    310.74193   -47.513853    38614.337 
  545500    306.73748   -1457.9913    489.48382    410.29633   -73.692721    38614.337 
  545600    352.82418   -1500.6262     482.3147    567.65493    178.42335    38614.337 
  545700    284.37554   -1481.0953    528.33149    325.52174   -99.313263    38614.337 
  545800    311.16646   -1472.9617    497.62243    423.37315    302.80265    38614.337 
  545900    297.38245   -1535.0105    503.88031    305.62222    16.666603    38614.337 
  546000     291.2051   -1521.6934    511.08965    298.38116   -380.06354    38614.337 
  546100    306.89551   -1501.0754    497.76461    376.20343   -156.44425    38614.337 
  546200    301.62343   -1513.6801    479.78329    321.91909   -111.43936    38614.337 
  546300    300.53478   -1473.2868    503.33813    380.97367   -125.52491    38614.337 
  546400    295.44011   -1495.0877    498.17004     331.1038   -242.49076    38614.337 
  546500    290.79154   -1503.9938    499.05999    302.19205   -345.09002    38614.337 
  546600    305.38517   -1537.7147    506.45215    341.46252    434.92974    38614.337 
  546700     309.1528   -1537.2587    497.16398    349.56612    704.10182    38614.337 
  546800     296.6693   -1503.0358    500.42685    330.93781  -0.88505783    38614.337 
  546900    306.05724   -1466.1208    498.43779    408.06314    -66.74157    38614.337 
  547000    304.28194   -1463.6305    528.90678    433.04232   -198.80213    38614.337 
  547100    300.07552   -1439.4907    491.99969    401.36691   -95.072651    38614.337 
  547200    305.04366   -1460.3505    506.13534     416.9749    272.74714    38614.337 
  547300    297.42141   -1473.0538    507.52771    371.40142    219.48663    38614.337 
  547400    296.79325   -1484.9266    501.97203    351.14932   -180.30717    38614.337 
  547500    309.41718   -1470.7085    497.32537    417.46611    451.80612    38614.337 
  547600    304.49017   -1483.8528     493.3362     378.1855    66.446256    38614.337 
  547700    308.90544   -1513.1968    496.69202    372.04423    578.40114    38614.337 
  547800     298.7254   -1544.0185     486.0897    284.86028    797.90819    38614.337 
  547900    307.09097   -1534.1582    499.62086    345.85543    62.099301    38614.337 
  548000    297.68989   -1497.9297    493.54174    333.74641     548.9923    38614.337 
  548100    310.51322   -1486.7487    477.97303    387.00041    234.70911    38614.337 
  548200    301.93296   -1500.9237    500.01072    356.29428    473.72992    38614.337 
  548300    301.31109   -1489.1779    514.88132     380.1153    266.14667    38614.337 
  548400    297.76596   -1506.7002    482.94781    314.72394   -633.28828    38614.337 
  548500    292.74141    -1471.256    488.70854    333.34318   -338.50565    38614.337 
  548600    293.21123   -1473.6844    511.72231    356.04042   -761.57317    38614.337 
  548700    304.38518   -1429.7283    516.73494    455.23679   -456.53825    38614.337 
  548800    299.00018   -1476.1685    485.73096    353.58669   -339.70782    38614.337 
  548900    304.76116   -1455.6215    510.42387    424.72259   -32.765995    38614.337 
  549000    305.25216   -1494.3199    506.80443    384.61178   -491.50044    38614.337 
  549100    301.02711   -1495.0968    495.36717    353.40577   -154.58184    38614.337 
  549200    302.89444   -1511.7715    500.54478    350.30238    -529.8768    38614.337 
  549300    299.97068   -1513.6927    511.22192    345.91587   -432.95389    38614.337 
  549400    292.97023   -1518.4242    482.89153    281.38655   -596.59745    38614.337 
  549500    299.06685   -1508.7848    488.03572    323.57479   -327.74414    38614.337 
  549600    299.66499   -1535.3526     489.6898    301.34981    -288.6031    38614.337 
  549700    298.63778    -1533.787    499.31199    307.92017   -235.84781    38614.337 
  549800    293.59733   -1548.4893    499.08119    270.32994    139.34451    38614.337 
  549900    298.81043   -1558.4746    502.17566    286.87233    8.5167997    38614.337 
  550000    292.46067   -1546.4568    498.76343    266.93536   -388.67922    38614.337 
  550100    300.52588   -1554.7854    486.73734    282.83428   -66.897711    38614.337 
  550200    298.94885   -1536.7848    484.45533    291.46405    173.66625    38614.337 
  550300    291.28629   -1576.0738    494.90964    228.18565   -25.767349    38614.337 
  550400    310.26437   -1512.7736    507.12129    389.00517   -181.94751    38614.337 
  550500    296.55978   -1519.0918    482.71565    296.67832   -267.31267    38614.337 
  550600     284.7084   -1545.3984    509.48076    243.86415    589.91036    38614.337 
  550700    298.13894   -1543.1215    520.35566    317.38703    350.86145    38614.337 
  550800    294.26934   -1573.4754    470.80226    220.08569    89.183808    38614.337 
  550900    310.80818    -1575.289    503.51175    325.32461    480.66817    38614.337 
  551000    309.00819   -1550.7823    491.86577    330.09436    763.20319    38614.337 
  551100    292.94043   -1553.9817    495.57298    258.37651    590.01808    38614.337 
  551200    290.29525   -1564.8023     520.2346    260.32727    183.14553    38614.337 
  551300    300.18484   -1551.6549    498.54746     296.2419     44.90629    38614.337 
  551400    305.82124   -1552.6634    495.54189    317.56378    492.55933    38614.337 
  551500     305.8333    -1546.891    479.58009    307.42863    79.285249    38614.337 
  551600    293.59476   -1567.0044    480.72645    233.44862   -80.529875    38614.337 
  551700     301.2795   -1558.0576     511.0783    307.29062    73.425246    38614.337 
  551800    292.69066   -1601.5815    475.05903       189.14     48.64677    38614.337 
  551900    295.48904   -1579.2254    463.98179    212.99787    242.52486    38614.337 
  552000    305.45602   -1548.7011    498.45569    322.79818   -427.89068    38614.337 
  552100    295.03891   -1563.1008    498.09408    261.21133   -203.27926    38614.337 
  552200    293.21752   -1567.3145     486.3277      237.044   -161.52918    38614.337 
  552300    307.48202   -1566.2436     494.3582    310.26523   -271.12842    38614.337 
  552400    306.77335   -1569.6413    482.62358    291.94736   -546.14685    38614.337 
  552500    305.50582   -1526.5777    479.87052    326.56023   -24.649192    38614.337 
  552600    304.49499   -1570.7069    502.72457     300.7414    41.211712    38614.337 
  552700    298.00633    -1565.125    491.32604    265.75784   -250.19645    38614.337 
  552800    295.46101    -1606.162    514.07044     236.0239    303.82651    38614.337 
  552900    296.71577   -1543.8561    497.16222    287.06177    143.23724    38614.337 
  553000    305.84524   -1502.8162    505.46768    377.44462    154.70104    38614.337 
  553100    303.90613   -1540.0011    505.21775    331.29344    87.547062    38614.337 
  553200    281.16696   -1477.0545    522.65667    309.46492   -338.58385    38614.337 
  553300    308.15978   -1523.9834    466.37023    327.58405   -111.99143    38614.337 
  553400    305.27518   -1522.0487    513.49183    363.67388    49.716339    38614.337 
  553500    292.08506   -1495.4453    488.93997    306.43497    174.98841    38614.337 
  553600    287.19811   -1500.0694    522.20573     313.1095   -82.367386    38614.337 
  553700    303.39684   -1545.5555    515.34124    333.57322     254.0754    38614.337 
  553800     304.5835   -1561.2461    487.19392    295.06938    19.706547    38614.337 
  553900    299.38317   -1548.8291    493.39951    290.31615    480.39726    38614.337 
  554000    301.93104   -1532.4381    495.13045    319.89096    414.33142    38614.337 
  554100    303.32738    -1508.963    500.41184    354.92404   -150.81383    38614.337 
  554200    305.32447   -1523.1016    499.22117     348.5719   -266.22656    38614.337 
  554300    311.35548   -1532.0945    491.26776    358.73527   -205.03374    38614.337 
  554400    303.18255    -1528.924    481.61882    315.51907   -540.03511    38614.337 
  554500    313.11207   -1550.3377     505.8409    362.96125   -534.23182    38614.337 
  554600     299.4928   -1527.1083    489.93336    309.06362    169.44526    38614.337 
  554700    305.36191   -1548.7858    512.68069    336.51546   -414.89831    38614.337 
  554800    290.77425   -1506.1794    522.44102    323.30972   -756.23389    38614.337 
  554900    306.89726   -1502.1777    503.01329    380.35763   -16.930319    38614.337 
  555000    299.30137   -1498.5604    516.77783    363.59546   -218.51054    38614.337 
  555100    305.12851   -1528.3214    500.97711    344.22713   -23.192844    38614.337 
  555200    303.02821    -1519.586    505.89281    348.43726    363.62808    38614.337 
  555300    304.56602   -1547.6334    473.79998    295.20954    -339.0604    38614.337 
  555400    302.05486   -1534.0691    481.30053     304.9866    75.784759    38614.337 
  555500    292.14213   -1523.4545    492.05827    281.80066   -114.75588    38614.337 
  555600    306.61177   -1511.3571    506.44827    373.32995    186.13353    38614.337 
  555700    293.98702   -1528.0284    489.25782    282.71921   -83.046404    38614.337 
  555800    302.09193   -1547.3409    495.12824    305.70913   -104.68258    38614.337 
  555900    304.46358   -1509.0951    489.27034    348.75779   -467.74717    38614.337 
  556000    306.83464   -1508.0955    500.85788    372.00302   -166.79165    38614.337 
  556100     295.1682   -1496.3702    500.75745    331.18648    16.916157    38614.337 
  556200    305.30975   -1506.9902    508.47871    373.87467   -341.41047    38614.337 
  556300    301.45395   -1523.7258    470.00766    301.33586   -226.34349    38614.337 
  556400    299.02539   -1448.7896    514.83399    410.18193    120.39398    38614.337 
  556500    310.32157    -1461.879    492.93867    425.97424   -119.25695    38614.337 
  556600    302.02271   -1504.3311    500.62683    353.90642    -156.3375    38614.337 
  556700    296.69616   -1513.5005    498.71596    318.88295    -63.49762    38614.337 
  556800     304.9498   -1531.8048    506.19461    345.15797   -596.69184    38614.337 
  556900    295.20054   -1513.8906    489.48942    302.54335   -183.65693    38614.337 
  557000    299.99091   -1523.3925    522.88633    347.97141   -42.093946    38614.337 
  557100    294.19907   -1512.2465    489.08483    299.28126   -472.88478    38614.337 
  557200    313.46248   -1547.5781    493.43824    354.89327   -13.000915    38614.337 
  557300    294.93975   -1502.9497    493.38253    316.20518   -397.63051    38614.337 
  557400    299.73801   -1513.5706    492.39963    326.16984   -304.02371    38614.337 
  557500    295.68819   -1567.7808    477.10274    238.45851   -566.14144    38614.337 
  557600    308.94548   -1538.3628    468.59299     318.9591   -97.092332    38614.337 
  557700    301.35296   -1551.9096     507.3752    310.06573   -618.37552    38614.337 
  557800     306.8585   -1523.9777    504.77912    360.14932   -481.08645    38614.337 
  557900    299.09934   -1499.9725    477.53452    322.03193    51.728653    38614.337 
  558000    298.44506    -1491.681    490.86027    340.70817   -353.79763    38614.337 
  558100    288.31797   -1484.3546    477.81423     289.4667   -18.508502    38614.337 
  558200    301.40726    -1477.849    502.06754    379.06269   -269.22772    38614.337 
  558300    296.48715   -1476.9461     496.6959    352.47775     122.3161    38614.337 
  558400    290.37344   -1483.5934    473.90474    295.55786   -329.67911    38614.337 
  558500    298.47044   -1459.2443    521.53534    403.93403    -55.90805    38614.337 
  558600    294.51526   -1473.5721    522.34804    372.64016   -65.865079    38614.337 
  558700    302.48829   -1532.3746    485.72913    313.05799   -332.02754    38614.337 
  558800    304.64907    -1461.074    482.12879    390.47115   -307.75266    38614.337 
  558900    306.19779   -1449.1823      496.119    423.31457   -157.17575    38614.337 
  559000    296.96538   -1408.2167    507.89778    434.55872    277.81684    38614.337 
  559100    299.24621   -1455.7907    501.46197    390.80144   -238.79127    38614.337 
  559200    296.66079   -1473.9089    494.40223    354.00183   -469.73599    38614.337 
  559300    302.86245   -1467.5686    484.24161    378.05839    -315.7255    38614.337 
  559400    296.49722    -1423.127    490.86459    400.51086   -504.42924    38614.337 
  559500    293.96916   -1472.4369    500.54481    349.51742   -28.492533    38614.337 
  559600    296.04683   -1483.7327    483.17128    330.18731    511.62756    38614.337 
  559700    286.70828   -1534.7381     467.9774    222.01069    341.85517    38614.337 
  559800    308.81953   -1545.0806    496.48723     339.5694    1129.6582    38614.337 
  559900    298.61373   -1519.5578    488.28016    311.00944    713.29169    38614.337 
  560000    293.62298   -1544.1146    473.22398     248.9628    40.321753    38614.337 
  560100     292.1668   -1542.0283     459.0161    230.29554    2.0902589    38614.337 
  560200    298.59688   -1533.2943    470.31722    279.23433    92.558564    38614.337 
  560300    303.67626   -1534.8899    483.58204    313.73559    297.39303    38614.337 
  560400    302.70503   -1493.5167     502.3855    369.54655    134.13408    38614.337 
  560500    309.09868   -1474.4334    483.82444    398.80865    524.42594    38614.337 
  560600    296.09315   -1517.2604    495.87914    309.57566    339.19168    38614.337 
  560700    315.01469   -1495.8234      479.281      399.468    429.97929    38614.337 
  560800     297.4967   -1483.4966    482.08308    335.85248    177.35297    38614.337 
  560900    308.96198   -1522.0763    494.71849     361.4453     80.97114    38614.337 
  561000    299.98991   -1544.8547    480.96591    284.58437   -165.21719    38614.337 
  561100    300.52344    -1499.768    492.78103     343.8844    157.28342    38614.337 
  561200    303.78135   -1487.0524    478.76552    357.22902   -12.453348    38614.337 
  561300    297.58109   -1541.8388    486.70868    282.51523    62.227139    38614.337 
  561400    297.77679   -1518.1523    474.50347    294.87619   -352.66864    38614.337 
  561500    292.06646   -1548.2638    466.32174    230.91465   -416.26045    38614.337 
  561600    293.36887   -1569.4087    468.79672    218.09913    -765.7297    38614.337 
  561700    306.01267   -1558.4345    494.76195    311.87327   -572.43417    38614.337 
  561800    290.39135   -1567.5987    474.38498    212.11329   -474.38743    38614.337 
  561900    301.51132   -1552.4878    472.20352    275.02762   -229.11321    38614.337 
  562000    294.72524   -1549.4819    492.38445    267.71067    15.148843    38614.337 
  562100    302.93194   -1510.1172     479.9841    331.56464    271.75496    38614.337 
  562200    306.28161    -1535.282      490.332     331.8047    172.79915    38614.337 
  562300    291.31688    -1525.121    479.84482    264.21117    353.39791    38614.337 
  562400    304.55164   -1526.0139    500.40942    343.37386    206.31312    38614.337 
  562500    301.12694   -1503.8833    506.83748    356.53834   -240.53426    38614.337 
  562600    299.18419   -1547.6365    493.13628    290.35108    498.98793    38614.337 
  562700    300.87825   -1520.8809    489.64101    321.22636    298.86138    38614.337 
  562800    312.05896   -1515.1406    467.04203    354.62571    202.13108    38614.337 
  562900    304.42424   -1495.2849    482.51932    355.64013   -333.81583    38614.337 
  563000    297.19166   -1496.3489    469.81449    309.36038   -726.64571    38614.337 
  563100    320.80648   -1469.5737    487.12011    459.59131     84.74145    38614.337 
  563200    313.56516   -1479.1503    504.45873    434.80309    258.70361    38614.337 
  563300    304.90883   -1532.7628      500.452    338.27318   -388.47351    38614.337 
  563400    298.88295   -1482.0396    496.87668    358.33434   -318.38431    38614.337 
  563500    302.86899   -1506.5715    490.56343    345.40666   -62.635748    38614.337 
  563600    297.94508   -1516.7166    501.23416    323.79909    404.38511    38614.337 
  563700    298.89611   -1512.8098    481.15155    311.89822    82.085772    38614.337 
  563800     314.6153   -1492.1531    512.02978    434.09182     199.0143    38614.337 
  563900    298.68291   -1539.0538    467.25842    270.80268   -116.21415    38614.337 
  564000    297.53019   -1519.3429    475.66633    293.73999    477.52637    38614.337 
  564100     293.4798   -1507.8949    485.20884    296.52377    146.86133    38614.337 
  564200    292.74541   -1521.9924    482.47497     276.3912     138.2471    38614.337 
  564300     297.4002   -1509.5482    479.11763    306.40163   -182.32472    38614.337 
  564400    296.47848   -1508.3631    476.61189    300.93777   -125.00263    38614.337 
  564500    305.81377   -1476.9333    485.62513    383.34358    160.25861    38614.337 
  564600    292.49763   -1493.8442    496.07417    317.02479    396.91898    38614.337 
  564700     297.6072    -1490.562    504.64431    351.84496    230.61394    38614.337 
  564800    293.81138   -1513.6111     502.6872    309.77633     108.7685    38614.337 
  564900    291.48862    -1488.782    476.06293    297.54022    339.20905    38614.337 
  565000    300.37273   -1460.0493    512.15493     402.2995   -295.11185    38614.337 
  565100    298.07094   -1453.3093    496.57802    383.11593    311.03255    38614.337 
  565200    305.57264   -1473.7701    485.87608    385.67377    151.90688    38614.337 
  565300    300.98322   -1499.9653    488.57021    341.54302    4.9514395    38614.337 
  565400    289.70638   -1506.0897    524.03086    320.18919   -19.671115    38614.337 
  565500    303.36918   -1563.9593    474.63508    274.33894   -190.41931    38614.337 
  565600    293.79604   -1556.2032    474.05386      238.482    780.36172    38614.337 
  565700    302.12471   -1560.0679     511.4526    309.45385    155.35946    38614.337 
  565800    290.01683   -1511.0781    501.11484    293.68024    31.525442    38614.337 
  565900    298.67524   -1515.6088     482.3125     309.2673    581.56442    38614.337 
  566000    295.92205   -1529.0019     504.6047     305.7906    58.269087    38614.337 
  566100    288.26753    -1556.794      489.083    228.06924    496.96855    38614.337 
  566200    301.81267   -1526.2739    489.63075    320.02335    344.24282    38614.337 
  566300    299.09508   -1523.3304    497.98241    319.10278    483.91753    38614.337 
  566400    292.11894   -1507.7324    489.53088    294.89106   -68.103342    38614.337 
  566500    292.55262   -1509.1866    497.09711    302.95256   -67.557816    38614.337 
  566600    307.60123   -1498.2247    482.40501    366.86679    539.26219    38614.337 
  566700    294.31192   -1527.5953     505.6176     300.9725  -0.96142316    38614.337 
  566800    299.60419   -1474.1459    500.59913    373.19255    13.738215    38614.337 
  566900    296.35491   -1485.2376    504.86294    351.75886    -265.9372    38614.337 
  567000    303.63904   -1489.5909    484.10024    359.38554     281.5504    38614.337 
  567100    301.52216   -1507.1526    488.38601    336.59407    386.76844    38614.337 
  567200    301.57784   -1515.2651    486.02967    326.37552    699.29462    38614.337 
  567300    294.20185   -1494.1137    487.90807    316.24974    607.71975    38614.337 
  567400    302.46695   -1513.3785    477.38298    323.61209    726.28138    38614.337 
  567500    311.36451   -1500.7545    497.34639    396.19455    143.60532    38614.337 
  567600    310.85462   -1507.5841    486.85402    376.58052   -149.06714    38614.337 
  567700    297.69011   -1460.4645    509.46782     387.1387   -166.66786    38614.337 
  567800    305.23006   -1482.9894    486.65117     375.6897   -195.55119    38614.337 
  567900    297.36828   -1481.3203    503.72982    359.09821   -114.80895    38614.337 
  568000    296.06997   -1497.8218    488.83907    321.86999    233.00913    38614.337 
  568100     303.9404    -1465.936     492.6282    392.92306   -580.83906    38614.337 
  568200    298.39759   -1518.9868    502.51615    324.84495    37.622279    38614.337 
  568300    307.57851    -1461.781    476.08064      396.884    121.10349    38614.337 
  568400     310.9887   -1460.2824    511.38705    449.01802    161.65488    38614.337 
  568500    284.26056   -1463.2101    510.54365    325.10221   -31.572258    38614.337 
  568600    299.37374   -1440.1613    472.20798     377.7501   -196.42892    38614.337 
  568700    298.32405   -1477.9555    496.99185     360.0213    29.982083    38614.337 
  568800    305.42079   -1502.9769    511.18952    381.09792    155.79264    38614.337 
  568900     295.9088   -1511.1761    489.59117    308.54333    -139.0746    38614.337 
  569000    298.97425   -1487.9827    504.41749    360.34238   -335.69331    38614.337 
  569100    298.49432   -1451.3899    493.01782    383.37829   -721.85568    38614.337 
  569200    295.22926   -1432.9351    474.64352     368.7821     17.57664    38614.337 
  569300    297.12978   -1459.5685    497.36636    373.41451   -78.678676    38614.337 
  569400    298.09118   -1477.3342    502.01496    364.61898   -124.18649    38614.337 
  569500    304.58875   -1488.7104    513.36303    393.79784   -64.600626    38614.337 
  569600    298.75485   -1517.2284    486.68746     312.3805    95.227582    38614.337 
  569700    314.64502    -1513.151    547.48512    448.68281    79.335276    38614.337 
  569800    302.28746   -1493.2071    497.50886     363.1025    139.39996    38614.337 
  569900    301.15598   -1476.8382    499.15171    376.02822   -194.95797    38614.337 
  570000    301.01209   -1414.4336    496.78813    435.42244   -920.61511    38614.337 
  570100    308.62779   -1484.5834    481.70141    384.41895   -667.60677    38614.337 
  570200     304.5642   -1501.0842    514.11019    382.06082   -753.73472    38614.337 
  570300    297.54335   -1484.1747    486.12434    339.42529   -186.32792    38614.337 
  570400    293.81018   -1510.6793    519.79094    329.80642    378.93769    38614.337 
  570500     314.1319    -1454.149    516.15253    474.04578    201.93306    38614.337 
  570600    298.10588   -1480.5934    490.80957    350.22042    180.34704    38614.337 
  570700    301.75574   -1497.4495    494.81506    353.77621    596.06578    38614.337 
  570800    307.65331   -1505.0198    495.81104    373.71178    504.62431    38614.337 
  570900    294.69628   -1518.3823    489.55771    295.85331    140.29493    38614.337 
  571000    300.14529   -1508.7088    491.95718    332.41997   -144.54976    38614.337 
  571100    309.75719   -1495.0996    510.31878    407.59683    85.911297    38614.337 
  571200    298.21454   -1485.8732    491.56633    346.18585   -423.84793    38614.337 
  571300    306.07623   -1526.9439    498.61932    347.50685    245.97731    38614.337 
  571400    304.60876   -1526.7642    488.16729    330.63826   -526.99252    38614.337 
  571500    300.79412   -1511.1649    508.00394    348.92711   -50.243947    38614.337 
  571600    290.04364   -1510.4671    445.12284    238.41979    125.45981    38614.337 
  571700    303.72452   -1483.1197    506.35313    388.49386   -59.380109    38614.337 
  571800    299.19889   -1485.6686    509.45607    368.70486     -125.814    38614.337 
  571900    298.13052   -1492.8222    478.73112    326.02396    51.735676    38614.337 
  572000    296.92177   -1497.7363    519.49258    356.43792    174.45519    38614.337 
  572100    300.08038   -1454.1396    512.21309    406.95333    452.27136    38614.337 
  572200    289.98747   -1519.1083    493.79092    278.19416    87.560087    38614.337 
  572300    300.92892   -1497.0499    501.90643    357.55054    109.25982    38614.337 
  572400    303.29082   -1495.3133    509.42574    377.42331   -89.405695    38614.337 
  572500    290.63182   -1478.3689    515.64068    343.67965   -648.84493    38614.337 
  572600    296.40618   -1460.0599    515.70871    388.01288    116.21805    38614.337 
  572700    298.35858    -1482.917    496.18021    354.40347    -406.9407    38614.337 
  572800     300.8838   -1462.3255    527.74981    417.91551    -560.6243    38614.337 
  572900    297.61386    -1475.133    480.02777    342.68738   -484.13643    38614.337 
  573000    305.90014   -1474.3736    524.62571    425.29206   -510.96075    38614.337 
  573100    313.07368   -1473.3808    504.57094    438.47567   -375.68395    38614.337 
  573200    294.91131   -1511.2831    511.03149    325.39287    197.85974    38614.337 
  573300    298.54493   -1538.1499     533.7544     337.5823   -60.666465    38614.337 
  573400    300.02928   -1496.5441    486.83992    338.94588    98.702332    38614.337 
  573500    296.50922   -1532.9881    512.78727    312.62635    247.13349    38614.337 
  573600    293.16314   -1510.0664    509.77343    317.49345    717.62409    38614.337 
  573700    297.55152    -1522.132    487.64938    303.02976     73.25528    38614.337 
  573800    300.10761   -1513.2572    477.86747    313.61252    579.24927    38614.337 
  573900    304.68135   -1482.8753    517.07997    403.76605    166.76277    38614.337 
  574000    304.02363   -1510.1913    493.29475    349.70832   -79.118399    38614.337 
  574100     291.2207   -1544.8059    491.39974    255.64888   -35.195943    38614.337 
  574200    309.70297   -1533.9983     481.3747    339.51031    113.67719    38614.337 
  574300    293.02782   -1537.8682    498.55626    277.86621    229.05759    38614.337 
  574400    300.58736   -1532.4991    489.32112    307.98072    606.84714    38614.337 
  574500    300.21033   -1544.3451    494.23519    299.35399    1225.6014    38614.337 
  574600    297.50969   -1548.6692    502.91167     291.5668     445.6972    38614.337 
  574700    305.76019   -1491.6657    502.26969    385.01484    392.32961    38614.337 
  574800    298.68648   -1500.4604    497.08561    339.23932    31.217691    38614.337 
  574900    288.75804    -1529.234    502.15874    270.90984    45.303622    38614.337 
  575000    298.60576   -1483.1807    516.09243    375.16297    105.85183    38614.337 
  575100    287.09592   -1500.3643    495.02192    285.17149    91.653715    38614.337 
  575200    301.80685   -1523.3134    520.11175    353.43873    454.78348    38614.337 
  575300    305.62475   -1502.2861    510.14474    381.66069    466.06589    38614.337 
  575400    291.49959   -1488.9835    500.45576    321.78088   -572.79731    38614.337 
  575500    290.67645   -1512.5217    484.54104    278.62784    -382.8336    38614.337 
  575600    297.25399   -1507.4544    507.06431    335.78492   -225.50422    38614.337 
  575700    293.45205   -1540.7792    500.69743    279.00324   -144.85758    38614.337 
  575800    309.36192   -1505.3716      509.154    394.38329   -265.31998    38614.337 
  575900    307.78384   -1473.6171    500.41645    410.30671    -33.26028    38614.337 
  576000    296.77316    -1466.418    498.56643    366.16209   -97.547248    38614.337 
  576100    293.19945   -1438.7804    517.67291    396.84205   -147.00314    38614.337 
  576200    307.68544    -1460.224    502.53874    425.37968    -203.5985    38614.337 
  576300    302.30391   -1472.7011    525.00614    411.17977   -130.88788    38614.337 
  576400    292.38001   -1508.3629    477.66735    283.57056   -346.59401    38614.337 
  576500    301.00811   -1519.9174    503.18688    336.31948   -202.73699    38614.337 
  576600    296.04273   -1496.5115    494.82749    329.04626  0.086700853    38614.337 
  576700    299.30791   -1502.6828    474.59535    317.32006    323.73635    38614.337 
  576800    306.62325   -1465.2688    513.28374    426.30535    457.34451    38614.337 
  576900    295.00736    -1489.048    497.86847    334.89671    444.12508    38614.337 
  577000    307.92826   -1485.3171    498.34795    397.18733    936.52657    38614.337 
  577100    301.06806   -1506.0962    516.39573    363.61897    661.39647    38614.337 
  577200    302.74152   -1531.1804    501.46899     331.1303    345.06887    38614.337 
  577300    296.74184   -1491.4762    468.55397    310.95061   -452.50028    38614.337 
  577400    303.83734   -1494.3115    497.54737    369.00345    -268.9192    38614.337 
  577500    294.29122   -1529.0199    526.54277    320.37999   -169.32421    38614.337 
  577600    301.53469    -1510.194    517.25807    362.48108   -608.88689    38614.337 
  577700    301.22333   -1509.6678    465.03657    309.38614   -445.06832    38614.337 
  577800    298.32054   -1518.6068    502.46751    324.82985   -293.16921    38614.337 
  577900    297.13092   -1502.0642    507.75217    341.30975    -208.7935    38614.337 
  578000    304.82272   -1472.1288     490.9588    389.02694    69.343231    38614.337 
  578100    318.25626   -1500.2192     516.3907    446.75298    -132.7878    38614.337 
  578200     301.4643   -1535.4108    485.56409    305.25389   -473.87579    38614.337 
  578300    301.09361   -1485.0586    504.47956    372.85525   -425.13004    38614.337 
  578400    296.08201   -1500.3809    489.81553    320.34148   -538.66525    38614.337 
  578500    291.42954   -1547.7187    470.88419    233.15925   -166.92453    38614.337 
  578600    301.56482   -1502.7238    515.88989    368.71846    151.17216    38614.337 
  578700    300.59013   -1520.4032    516.65366    347.42156   -156.36665    38614.337 
  578800    301.77266   -1494.9251    485.02607    346.58766   -302.35974    38614.337 
  578900     309.5146   -1494.0111    486.12361    383.39971   -240.47572    38614.337 
  579000    299.26551   -1485.6833    487.34125     346.8748   -909.88625    38614.337 
  579100    302.99654   -1516.1653    456.12481    301.94759   -1057.2179    38614.337 
  579200    303.81165   -1472.9998    485.18524     377.8375   -478.08169    38614.337 
  579300    306.50368    -1509.034    513.28943    382.00838   -402.00071    38614.337 
  579400    296.76668   -1508.5958    488.85259    314.24127   -153.24208    38614.337 
  579500    309.39726   -1528.6578    501.33058    363.43254   -455.59322    38614.337 
  579600    298.47044   -1489.0935    503.56189    356.11133    85.115336    38614.337 
  579700    304.16554   -1489.3075    484.06043    361.99573   -151.99951    38614.337 
  579800    302.97116   -1483.1626    475.54979    354.26122   -116.46132    38614.337 
  579900    292.36608   -1509.8018    497.87058    302.27229   -844.92898    38614.337 
  580000    295.23126   -1539.8791    468.21293    255.41647    -796.0223    38614.337 
  580100    316.27221   -1524.2278     481.6454     379.0807   -215.54534    38614.337 
  580200     302.6076   -1499.1261    481.40422    342.51793   -490.40282    38614.337 
  580300    305.90459    -1533.542    487.76869    329.28665   -681.66623    38614.337 
  580400    299.44943   -1530.8983    496.75527    311.90059   -63.688197    38614.337 
  580500    314.86418   -1550.8265     484.2651    348.77249    7.4610024    38614.337 
  580600    295.65054   -1522.5658    496.35874    302.76035    42.696937    38614.337 
  580700    290.60852   -1505.4243    471.64313    272.52202     209.3004    38614.337 
  580800    300.26035   -1516.2225    489.62228    323.08859    34.961879    38614.337 
  580900    299.12831   -1517.4948    511.97627    339.08162    528.69533    38614.337 
  581000    307.64902   -1502.6268    507.78198    388.05644    415.20601    38614.337 
  581100    308.05563   -1508.5127    486.86044    363.07672    180.94174    38614.337 
  581200    303.12679   -1501.8413    482.96534    343.69765    147.29955    38614.337 
  581300    292.31076    -1479.269    512.05223     346.7381    281.84502    38614.337 
  581400    292.03231    -1511.693    489.22285    290.23309    459.04768    38614.337 
  581500    305.22916    -1493.654    510.16005    388.52985     452.0114    38614.337 
  581600    297.96003   -1475.2246     485.5286    349.65274    745.35169    38614.337 
  581700    291.80736    -1479.105    501.62161    334.20868   -343.75301    38614.337 
  581800    293.41889   -1473.4664    493.78347    339.25303    120.27337    38614.337 
  581900    304.22154   -1493.3803    509.17527    383.28947    733.14269    38614.337 
  582000    286.69657   -1495.0356    521.84509    315.52821   -91.431537    38614.337 
  582100     294.2067   -1493.2416    494.08821    323.32382   -20.736395    38614.337 
  582200    304.17866   -1484.1769    503.77986    386.90473   -383.58167    38614.337 
  582300    289.40371   -1493.7046    466.15886    273.34178   -837.63539    38614.337 
  582400    301.98689   -1464.3465    508.14915    401.25227    141.26047    38614.337 
  582500    311.70299   -1520.3966    490.03238    370.75985    562.24986    38614.337 
  582600    292.61422   -1512.5896     513.1032    315.83255       445.31    38614.337 
  582700    296.91157   -1534.7073    536.57369    336.50221    1182.4551    38614.337 
  582800    303.43689   -1551.9525    496.84457    308.85954    758.81578    38614.337 
  582900    299.21683     -1553.49    480.17175    271.67978     814.6025    38614.337 
  583000    305.68918    -1513.611     512.7895    373.27015    914.75066    38614.337 
  583100    288.47531   -1515.3092    500.90677    282.31182    532.47698    38614.337 
  583200    296.40569   -1497.5815    482.60656    317.38684   -189.86436    38614.337 
  583300    288.33212   -1485.0226    510.12537     321.1734   -592.65017    38614.337 
  583400    302.61471   -1493.4422    482.44327    349.27284    139.47033    38614.337 
  583500    304.28378   -1482.2904    466.21514    351.69907   -101.63775    38614.337 
  583600    307.48343   -1486.2341    504.89094    400.81378   -29.589667    38614.337 
  583700      290.288   -1528.2168    498.51232    275.15794    48.099644    38614.337 
  583800    296.12999   -1552.7477    500.14638    278.52125    588.15412    38614.337 
  583900    304.56094   -1548.2582    481.04175    301.80369    691.37663    38614.337 
  584000    298.75231   -1530.6998    516.06282    328.27307    133.83118    38614.337 
  584100    303.15285   -1518.2889    498.72158    343.12339   -39.953996    38614.337 
  584200    306.82852   -1454.0157    493.33925    418.53666   -369.02098    38614.337 
  584300    293.17269   -1455.9765    514.59575    376.44856   -25.899136    38614.337 
  584400    305.68253   -1481.6516    493.40669    385.81686    27.193249    38614.337 
  584500    300.47028   -1545.7045    483.92372     288.8516    309.04161    38614.337 
  584600    301.48548   -1461.1708    487.72441     381.7494    46.203752    38614.337 
  584700    300.68903   -1484.0298    487.75855    355.34443   -135.16804    38614.337 
  584800    309.29745   -1466.6104     511.0665    434.76721    31.399847    38614.337 
  584900    294.89147   -1448.8239    493.71477    370.44613    348.15866    38614.337 
  585000    294.68178   -1493.6295    500.64557    331.62885   -140.92859    38614.337 
  585100    303.43087   -1494.3789    532.67202    402.23353    342.01054    38614.337 
  585200    300.33729   -1466.1688    502.99339    386.85916    184.58871    38614.337 
  585300    294.28163   -1498.3349    493.22433    317.70345   -62.385288    38614.337 
  585400    304.27411   -1482.0781    495.37917    381.03187    250.98805    38614.337 
  585500    304.44881   -1518.7904    484.86185    334.58761    265.37951    38614.337 
  585600     294.6251   -1502.1832    492.10831    314.28308    190.60446    38614.337 
  585700     308.8497   -1503.0734    494.90142    380.12649    891.30802    38614.337 
  585800     302.1133   -1523.8398    500.16597    334.34403   -72.881147    38614.337 
  585900    310.06753   -1518.4741    496.20254    371.50108    226.81433    38614.337 
  586000    304.59171   -1446.4893    503.14539    425.81453    20.072327    38614.337 
  586100    310.58735   -1456.9556    504.66774    443.82143    74.844676    38614.337 
  586200    305.52153   -1451.0862    494.66637    416.91821    77.572759    38614.337 
  586300    301.26055   -1448.0533     536.4601    442.59153    302.66141    38614.337 
  586400    303.64497   -1510.3025      484.195    338.79531   -201.29646    38614.337 
  586500    288.30452   -1502.2426    479.25553    272.95952   -356.73811    38614.337 
  586600    304.72663   -1455.5062     518.3243    432.58306   -58.585545    38614.337 
  586700    289.56725   -1460.9337    500.19013    340.87903   -68.914629    38614.337 
  586800    290.27505    -1458.065    498.65302    345.39222   -366.42917    38614.337 
  586900    293.72365   -1451.1445    509.28141    378.44282    20.103786    38614.337 
  587000    305.12266    -1497.014    502.94225    377.47343    239.71286    38614.337 
  587100    306.26429   -1473.6524    490.46597    393.49039    93.561954    38614.337 
  587200    305.14178   -1471.0287      519.769     420.3714    367.83781    38614.337 
  587300    298.26777   -1451.0389    496.72394    386.41698    338.27985    38614.337 
  587400    298.93041   -1495.1951    479.26445    327.77999    665.86672    38614.337 
  587500    300.12896   -1533.7397    482.51457    297.87299   -18.528777    38614.337 
  587600    306.23704   -1506.9649     486.1917    355.78122    131.77555    38614.337 
  587700    295.51268    -1530.309    492.15543    290.19412   -169.44198    38614.337 
  587800    310.39674   -1510.5409    499.74185    384.45338    10.147973    38614.337 
  587900    311.03342   -1538.5911    499.48378    359.00709    242.76472    38614.337 
  588000    300.17569   -1524.2875    484.70473    309.72547   -282.19112    38614.337 
  588100    299.13565   -1501.2452      476.422       319.81   -738.04007    38614.337 
  588200    301.19469    -1536.712    475.02781    292.20452   -702.95263    38614.337 
  588300    296.32531   -1547.1055    477.98951    262.88455   -255.14877    38614.337 
  588400    306.02781   -1517.0965     463.0686    321.58591    241.58129    38614.337 
  588500    312.31157   -1529.8745    485.99182    359.97709   -218.01675    38614.337 
  588600    295.16767   -1543.9721    474.08163     256.9064   -90.652231    38614.337 
  588700    294.82547   -1511.0014    463.52891    277.78617    379.02872    38614.337 
  588800    305.90662   -1546.7108    470.83877    299.19704   -63.196706    38614.337 
  588900    305.82483   -1533.8505    486.18942    327.04039    514.54616    38614.337 
  589000    294.53643   -1508.0315    474.29067    290.21861    664.24152    38614.337 
  589100      301.551   -1528.5054    491.93023    318.91513    634.63734    38614.337 
  589200    305.64026   -1527.5864    487.89054    334.17596    621.23596    38614.337 
  589300    288.43956   -1539.0164    484.02217    241.55941    358.97839    38614.337 
  589400    300.20375   -1534.6285    478.54144    293.34728    315.62675    38614.337 
  589500    299.33176   -1521.2512    497.93676     322.2002    448.36015    38614.337 
  589600    293.81918   -1536.9157    493.90699    277.72664   -195.76619    38614.337 
  589700    302.42797    -1498.037     487.6541    349.04944   -431.18023    38614.337 
  589800    304.42633   -1502.2574    470.85687    337.01458   -579.77423    38614.337 
  589900    307.62838    -1489.923     469.5988    362.48434   -625.79895    38614.337 
  590000     294.4147   -1510.2727    470.07757    283.21706   -897.13462    38614.337 
  590100    294.12248   -1499.5245    496.00462    318.57876    -495.3072    38614.337 
  590200    304.05415   -1466.7776    498.14523    398.10975   -293.67787    38614.337 
  590300    301.98212    -1488.005     509.5099    378.93315   -333.91657    38614.337 
  590400    295.35085   -1463.8224     520.5611    384.35894   -252.39233    38614.337 
  590500     304.0619   -1480.2815    499.93942    386.43492     191.4508    38614.337 
  590600    294.06724   -1470.9291    509.68193    360.60319   -126.33122    38614.337 
  590700    303.81769   -1453.8932      503.141    414.92707   -462.82449    38614.337 
  590800     304.2843   -1477.9669    499.65662    389.46631   -532.01737    38614.337 
  590900    299.73975   -1458.2458    482.64146    371.74427    83.323857    38614.337 
  591000    305.31655   -1485.0715     491.7649    379.11006   -411.35996    38614.337 
  591100    307.95763   -1484.2374    500.94183    400.99295    420.37792    38614.337 
  591200    309.41895   -1495.5567    485.13911    380.43965    16.330642    38614.337 
  591300    304.72466   -1482.2334    508.69018    396.21288   -146.19381    38614.337 
  591400    299.54882   -1541.8433    471.77187    276.41896   -291.04134    38614.337 
  591500    311.20479   -1535.4039    473.92161    337.40241   -368.29288    38614.337 
  591600    295.97079   -1500.6529    494.88308    324.63713   -172.30471    38614.337 
  591700      303.633   -1496.9022    471.31103    339.25784    -374.3286    38614.337 
  591800    297.82412   -1499.1961    508.91417    348.45582   -570.35975    38614.337 
  591900    287.56094   -1498.3054    491.02053    285.31925   -221.79266    38614.337 
  592000    303.17837   -1473.9179    469.15475    358.04229   -210.83488    38614.337 
  592100    293.22197     -1482.81      509.858    345.09882   -152.95683    38614.337 
  592200    292.13574   -1495.0265    483.65913    301.80077   -367.05314    38614.337 
  592300    312.05817    -1512.721    466.31704    356.31672     347.8153    38614.337 
  592400    298.62458   -1516.2786    500.45295    326.51027    334.45964    38614.337 
  592500     304.0019   -1493.7757    495.57498    368.30654    402.70641    38614.337 
  592600    298.79937   -1480.0887    482.47645    345.50931    135.15631    38614.337 
  592700    303.21517   -1500.1962    481.68246    344.45714    223.22963    38614.337 
  592800    310.19334   -1562.4032    468.43581    300.37073   -48.540379    38614.337 
  592900    295.52569   -1511.4779    500.81192     317.7402   -223.93899    38614.337 
  593000    308.30037   -1516.9368    476.54663    345.43897    11.121081    38614.337 
  593100    302.13114   -1506.8497    472.67059     323.9189    355.99734    38614.337 
  593200    294.71891   -1489.7647    471.10274    306.11766   -52.069568    38614.337 
  593300    303.50619   -1497.9246    502.12452    368.47889   -111.79033    38614.337 
  593400     307.0935   -1481.5823    495.86832    394.69025    123.36655    38614.337 
  593500    287.69647   -1510.7415    452.37685    234.84869    357.21149    38614.337 
  593600     294.1267   -1492.3642    496.14082    325.89421    392.68974    38614.337 
  593700    307.13283   -1505.9005    495.60329    370.28382    362.37837    38614.337 
  593800    290.39857   -1518.0875    495.97445    283.24638    559.89378    38614.337 
  593900    293.36509   -1426.3839    505.44011    397.75038   -189.94034    38614.337 
  594000    309.29258   -1481.1876    489.41718    398.51881    431.04241    38614.337 
  594100    291.43665     -1444.48    477.05323    342.59891   -394.03639    38614.337 
  594200    308.41085   -1458.7771    497.60245    425.15113   -269.09539    38614.337 
  594300    289.61016    -1442.714    503.24764    362.34909    -37.40724    38614.337 
  594400    290.96249   -1441.4595    504.95358    371.38843    337.92549    38614.337 
  594500    297.43309   -1438.6833    507.95249    406.24921    33.449275    38614.337 
  594600    317.02155   -1451.6263    499.72476    473.12982   -385.66662    38614.337 
  594700    298.31534   -1404.6477     520.6769      456.975    34.090496    38614.337 
  594800    291.33649   -1423.8468    481.85874    367.58734   -395.39836    38614.337 
  594900     313.3914   -1475.4177    475.70301    408.99897   -658.46347    38614.337 
  595000    298.99768   -1453.5307     489.0712    379.55343   -574.88754    38614.337 
  595100    296.06746   -1479.2637    484.96754    336.54529   -157.24389    38614.337 
  595200    294.90206   -1454.9801     479.6418     350.2646     625.2433    38614.337 
  595300    297.99652   -1462.4038    477.51681    354.62574   -56.709101    38614.337 
  595400    295.56161    -1462.948    490.11925    355.73891   -342.85445    38614.337 
  595500    292.10681   -1443.4271    502.73721    372.34819    20.485275    38614.337 
  595600    302.28444   -1402.6925    495.79217    451.88677   -59.656985    38614.337 
  595700    298.90336   -1405.1889    496.59374    434.99386   -83.547081    38614.337 
  595800    297.09233   -1448.1346    508.07708     395.3908    176.21053    38614.337 
  595900    311.16221   -1428.6092    491.56217    461.64621    144.72954    38614.337 
  596000    289.14989   -1431.1336     478.7563    347.36921   -138.81354    38614.337 
  596100    298.84698   -1455.5468    495.39323    383.18204    377.42635    38614.337 
  596200    292.85452   -1448.6994    492.17362    359.87333   -176.57069    38614.337 
  596300    292.68435   -1418.0298    479.04681    376.65119    245.50825    38614.337 
  596400    286.91215    -1434.403    460.70253    315.98731   -136.20948    38614.337 
  596500    298.34712   -1437.6874    524.30326    427.70449    42.261537    38614.337 
  596600    294.85515   -1429.1604    495.80592    392.03752    380.82149    38614.337 
  596700    294.52519   -1488.3423    499.90667    335.47324    719.12529    38614.337 
  596800    291.86214   -1491.0739    512.63399    333.49834    334.20022    38614.337 
  596900    307.41896   -1465.4014     489.1594    405.62513    686.95939    38614.337 
  597000    308.37939   -1486.9678    487.21442    386.43096     496.0853    38614.337 
  597100    293.95527   -1482.2957    483.33921    322.39051    371.05835    38614.337 
  597200    296.86049   -1481.7602    479.03602    331.68197     506.7667    38614.337 
  597300    299.20642   -1473.9639    501.79889    372.78628    199.34712    38614.337 
  597400    307.03796   -1449.7505    496.75955    427.16355    337.14904    38614.337 
  597500    299.78047   -1448.2713    482.47611    381.73649    340.74585    38614.337 
  597600    306.82291   -1421.3079    482.98237    440.86231   -204.00097    38614.337 
  597700    306.85664   -1437.4175    485.93512    427.85708   -415.69168    38614.337 
  597800    303.56909   -1424.1492    500.63656    441.04916    -168.5829    38614.337 
  597900    310.55337   -1420.5528    480.53782    455.94152    533.74387    38614.337 
  598000    308.43832    -1464.107    457.71457    380.05686   -28.530245    38614.337 
  598100    293.16352   -1476.8964    495.78815    336.67984    110.19162    38614.337 
  598200    310.04618   -1481.4905    496.53933    408.72546   -164.28763    38614.337 
  598300    311.09478   -1425.8097    482.12619    454.70665   -176.69936    38614.337 
  598400    295.87988   -1495.9579    467.44808    301.48844   -493.36088    38614.337 
  598500    295.11896   -1459.2432    501.90037    369.23506   -442.78398    38614.337 
  598600    292.55022   -1452.7123    508.81484    371.13378   -276.55029    38614.337 
  598700    302.51968   -1450.9965    475.89311     384.7412   -461.36647    38614.337 
  598800    290.38799   -1458.3244    501.96353    348.95098    118.12902    38614.337 
  598900    293.54485   -1443.6418    490.75908    366.61951   -389.63227    38614.337 
  599000    300.90114   -1461.7318    501.95149    392.78879   -286.80425    38614.337 
  599100     292.5232   -1444.8644    518.48177    388.52717   -53.065381    38614.337 
  599200    307.71914   -1434.1821    475.14818    424.18261    67.202172    38614.337 
  599300    300.27076   -1444.9879    514.33312    419.08082    265.84133    38614.337 
  599400    295.39162   -1466.2183    491.03271    352.61797   -131.70731    38614.337 
  599500    307.06595   -1511.6146    494.32138    362.98713    261.36306    38614.337 
  599600    299.93082   -1503.2253    480.02135    325.00355    326.68254    38614.337 
  599700    303.11513   -1463.2449    497.97312    397.24941     154.4526    38614.337 
  599800    293.45566   -1482.1617    503.57304    340.51257   -219.06129    38614.337 
  599900    299.70579   -1461.6781    504.73264    390.25047    509.89034    38614.337 
  600000     305.2926   -1459.3023     481.9022    394.90898    284.59549    38614.337 
  600100    299.78549   -1458.7125    524.11125    412.95299    631.00429    38614.337 
  600200    303.42422   -1493.5861    499.35183    369.67625    459.71461    38614.337 
  600300    308.60075   -1488.4905    498.54903    397.23788    527.82575    38614.337 
  600400     302.0437   -1439.3965    496.68847    414.99703    254.49683    38614.337 
  600500    300.84106   -1433.7813    501.46201    419.97978    31.844713    38614.337 
  600600    298.01468   -1464.8283    508.11664     382.8827    65.359983    38614.337 
  600700    301.16754   -1519.1802     469.6274    304.21386   -86.369817    38614.337 
  600800    310.51839    -1472.591    491.34376      414.552   -57.580866    38614.337 
  600900    303.80077   -1435.4838    506.59929    436.71865   -132.69618    38614.337 
  601000    300.42051   -1469.1182    497.55827    378.84877   -337.59644    38614.337 
  601100     307.1413   -1447.9782    509.74432     442.3852   -129.83997    38614.337 
  601200    301.98885   -1492.6419      489.459    354.27551   -488.69398    38614.337 
  601300    289.29356   -1442.7933    510.01584    367.61486   -333.17765    38614.337 
  601400    300.63773   -1487.5533     478.7289    342.56073    88.590285    38614.337 
  601500    302.16649   -1481.7697    479.34467    355.83193    68.351899    38614.337 
  601600    290.76607    -1455.269    501.52388    353.26622    7.8035406    38614.337 
  601700    298.82906    -1458.103    498.84268    383.99477   -619.94127    38614.337 
  601800    300.54228   -1474.1876    486.15197    362.92046   -108.11376    38614.337 
  601900    302.06936   -1474.2259    499.08655    382.68097   -198.17517    38614.337 
  602000    300.15771   -1442.5033    503.51487    410.23902    64.345448    38614.337 
  602100    299.17807   -1426.4443    530.30369    448.68325    260.60921    38614.337 
  602200    292.36803   -1471.6927    509.88275    352.40232   -310.04353    38614.337 
  602300    305.04851   -1442.7691    503.12782    431.57054   -373.95601    38614.337 
  602400    298.21693   -1482.6937    493.70843    351.51816   -339.28802    38614.337 
  602500    292.56568   -1450.1532    476.63078    341.57828   -51.355523    38614.337 
  602600    298.52946   -1488.9304     502.6969    355.67482    266.39422    38614.337 
  602700    299.08644   -1511.2572    485.34868    318.50338    396.13443    38614.337 
  602800    295.33681   -1491.2262    500.29177    336.62267   -138.48881    38614.337 
  602900    304.53776   -1490.6498    507.19444    385.46058    172.01404    38614.337 
  603000    288.70222   -1516.3517    502.13368    283.51623    -163.7413    38614.337 
  603100     289.4309   -1523.0844    480.64199    258.56731   -291.12412    38614.337 
  603200    303.83542   -1484.2971    492.99728    374.45911   -291.65486    38614.337 
  603300    302.54999   -1477.8447    489.86641    372.00253   -277.80545    38614.337 
  603400    300.20519   -1485.1268    494.89944    359.21344   -76.776885    38614.337 
  603500    294.82962   -1455.6869    485.15306     354.7435   -73.189652    38614.337 
  603600     299.8524   -1465.7361     508.1978    390.31667   -270.17938    38614.337 
  603700    292.79805   -1465.8488    478.23033    328.52686   -106.43184    38614.337 
  603800    312.54925   -1515.2897    486.54702    376.18545   -12.036166    38614.337 
  603900    296.17592   -1486.6414    486.05621    330.74383   -9.5257753    38614.337 
  604000    294.46601   -1462.8881    487.82035    348.57507    403.53071    38614.337 
  604100    306.82101   -1488.8629    479.93867    370.25511    325.84467    38614.337 
  604200    307.25002   -1521.9608    471.72048    330.86747   -175.35786    38614.337 
  604300    303.34384    -1521.799    496.90859    338.65882    23.799662    38614.337 
  604400    294.65325   -1503.2173    484.94555    306.21274    233.90867    38614.337 
  604500    294.04205   -1469.1597    497.12519    349.70266   -110.39998    38614.337 
  604600    310.76035   -1501.4996    487.68631    383.07358    56.530774    38614.337 
  604700    302.91281   -1493.1768    481.89103    350.32594   -204.00445    38614.337 
  604800    309.29527   -1499.6058    470.74792    361.44343   -432.40443    38614.337 
  604900    305.78979   -1476.5749    505.11782    403.08681   -222.97883    38614.337 
  605000    305.19488   -1484.9106    467.67923    354.63836    315.53257    38614.337 
  605100     293.3478   -1499.0883    491.35267    310.88081     633.3643    38614.337 
  605200    306.20902   -1447.0188    504.38878    433.79837    334.43844    38614.337 
  605300    301.95438   -1516.4776    462.72524     303.5511   -416.46812    38614.337 
  605400     309.3405   -1509.1944     460.8838    342.19394   -106.07049    38614.337 
  605500    296.24099   -1496.6975    465.25715    300.18107   -411.44631    38614.337 
  605600    303.60043   -1524.2002    449.76794    290.27039   -739.35613    38614.337 
  605700    301.01135   -1512.5922    492.49434     332.9667    -405.6822    38614.337 
  605800     304.5148   -1524.3499    476.13682    320.59966   -166.11296    38614.337 
  605900    295.65516   -1488.4914    497.53454     338.0313    246.15941    38614.337 
  606000    302.06661    -1501.813    505.72172    361.71669   -525.57337    38614.337 
  606100    294.98389   -1468.7161    489.85969    347.11431   -44.986761    38614.337 
  606200    306.62461   -1445.4621    486.18684    419.02126     54.06462    38614.337 
  606300    296.40775   -1448.8229    492.45629     376.0045   -202.04079    38614.337 
  606400    301.91297   -1406.2297    495.88289    446.77051   -318.81081    38614.337 
  606500    293.87906   -1430.9548     484.5933    374.64299    -439.0439    38614.337 
  606600    307.24221   -1461.1046    496.04102    416.00911    71.507965    38614.337 
  606700     291.5482   -1431.2123    502.86037     382.1752   -248.42203    38614.337 
  606800    301.04455   -1467.7713    455.56624    341.00872    210.65107    38614.337 
  606900    312.34527   -1484.4983    491.06897    410.58191    580.82741    38614.337 
  607000    297.58345   -1516.5938    511.21968    332.28177    453.05101    38614.337 
  607100    295.89746    -1458.442    488.81214     360.4474    219.23813    38614.337 
  607200    299.75788   -1478.8783     467.9002    336.45207    253.76657    38614.337 
  607300    299.32503    -1474.644    505.65009    376.49052   -138.12656    38614.337 
  607400    294.45746   -1445.5391    484.24592    362.31126    -215.8639    38614.337 
  607500    313.49383   -1438.8107    487.63903    458.00243   -156.23581    38614.337 
  607600    299.89099   -1393.6109     488.4106    442.82811   -194.73229    38614.337 
  607700    310.61144   -1418.4718    491.63524    469.38098   -721.75031    38614.337 
  607800    299.34317   -1450.1519    471.97188    367.38592   -505.78778    38614.337 
  607900    290.61539   -1461.7527    488.79125    333.37256   -754.86024    38614.337 
  608000     316.0072   -1470.2312    511.74274    461.98337   -49.420654    38614.337 
  608100     298.8315   -1485.8915    490.98523     348.3597   -365.61645    38614.337 
  608200    305.70087   -1454.9942    482.54855    401.69856   -650.04992    38614.337 
  608300    311.87791   -1482.1588    470.66011    390.41173   -485.21439    38614.337 
  608400    298.14647   -1437.1577    482.42507    385.45414   -14.752255    38614.337 
  608500    295.03237   -1458.5441    506.29479     373.9393    221.34362    38614.337 
  608600    302.53672      -1448.4    500.03271    411.55395    622.31845    38614.337 
  608700     304.9706   -1474.9314    492.46931    388.39951    554.92607    38614.337 
  608800     304.5978   -1480.4289    501.35969    390.11663    715.74066    38614.337 
  608900    302.74104   -1447.8823    488.34982     401.3071   -235.89912    38614.337 
  609000    308.44612   -1451.9702    515.09948     449.6136   -140.40215    38614.337 
  609100    307.29885   -1436.0408    502.89167    448.17808   -256.76605    38614.337 
  609200    303.45989   -1490.8818    484.42137    357.61042   -192.94795    38614.337 
  609300    300.98101   -1480.1519    459.59335    332.36959   -68.955943    38614.337 
  609400    298.75002   -1506.7287    490.63844    326.80944   -164.05377    38614.337 
  609500    295.35609   -1502.0963    467.84278    293.39023    445.69131    38614.337 
  609600    305.32897   -1497.3822    478.82906    353.91932   -88.042069    38614.337 
  609700    303.40504   -1455.7689    506.40428     414.4597   -85.309199    38614.337 
  609800    299.83523   -1464.9615    481.07091    363.88723    116.81439    38614.337 
  609900    301.45139   -1470.9405    480.68128    364.78334    313.38689    38614.337 
  610000    297.18223   -1467.1422    497.94404     366.6543    22.873275    38614.337 
  610100    304.25265   -1424.0466    508.82887    452.41667   -486.05259    38614.337 
  610200    307.15396   -1450.3859    480.92908    411.21914   -91.799062    38614.337 
  610300    299.05432   -1457.1533    482.70527    369.81958    312.01361    38614.337 
  610400    319.65071   -1447.0379    493.69027    483.50196    573.67762    38614.337 
  610500    301.25255   -1448.3466    492.29258    398.09476    530.20063    38614.337 
  610600    307.96221   -1482.8081    484.35514    385.85616   -387.36216    38614.337 
  610700    303.51025   -1463.5702    486.84387    387.57091    279.65404    38614.337 
  610800    295.31301   -1491.4915    492.01969    327.97833    318.50521    38614.337 
  610900    309.55133   -1464.1851    468.88123     396.1484   -106.25405    38614.337 
  611000     299.1398   -1443.5345    494.44144    395.55879    9.5207026    38614.337 
  611100    293.56083   -1483.7386    461.49229    297.32774     516.7395    38614.337 
  611200    296.31529   -1463.7332    471.97831    340.20056      308.758    38614.337 
  611300    306.08695   -1462.9048    473.14325    386.11816     313.6118    38614.337 
  611400    290.64114   -1482.2385    486.58776    310.79909   -599.47121    38614.337 
  611500    301.31335   -1468.2988    477.93679    364.06009   -26.247633    38614.337 
  611600     311.1052   -1455.1858     484.5665    427.81768    296.31553    38614.337 
  611700    299.99221   -1476.2459    495.91307    368.15065    -65.52615    38614.337 
  611800    298.29069   -1486.4379    485.39653    339.79364   -257.49519    38614.337 
  611900    311.67394   -1470.7992    473.48471    403.67903    75.720964    38614.337 
  612000    299.91087   -1507.6959    467.21356    307.63551   -213.81955    38614.337 
  612100    294.76303   -1459.8244    481.45208    346.60566    601.82591    38614.337 
  612200    294.93202    -1518.767    484.48269    291.45332    570.29024    38614.337 
  612300     299.6235   -1504.0396     466.0569    308.84335    125.73551    38614.337 
  612400    301.21182    -1496.881    483.42251    340.50715    321.41398    38614.337 
  612500    304.98942   -1481.7589     500.3381    389.52538    317.21133    38614.337 
  612600    292.51976   -1497.1858     470.7112    288.41973   -26.428167    38614.337 
  612700    294.59797   -1474.5537     455.1476    304.82991   -170.26631    38614.337 
  612800    304.20691   -1486.4285     485.7703    366.77059   -44.177016    38614.337 
  612900    294.06331   -1489.8236    482.60077    314.60983    404.89632    38614.337 
  613000    308.93353   -1448.5226    489.74813    429.90078    608.60124    38614.337 
  613100    296.30429   -1461.8485    493.50823     363.5658    333.75565    38614.337 
  613200    302.83627   -1488.3146    507.69577    380.64889    930.41598    38614.337 
  613300    310.64516   -1485.7833    477.80615    388.39193    490.60767    38614.337 
  613400    304.41168   -1485.2801    508.68045    391.74958    708.14492    38614.337 
  613500    303.61965   -1452.8549    461.73234    373.66649    250.43521    38614.337 
  613600    297.43444   -1482.8715    490.16175    344.27639   -73.932815    38614.337 
  613700    304.03381   -1498.2093    496.87139    365.31278   -132.88067    38614.337 
  613800    309.73557   -1471.3895    471.61803    392.50899   -142.41127    38614.337 
  613900    289.98253   -1483.6518    491.80169    311.63917   -147.79951    38614.337 
  614000    302.75927   -1486.7835    474.31901    348.45704    563.44755    38614.337 
  614100     288.6948   -1468.5071    477.88562    307.07937    57.653557    38614.337 
  614200    308.70318   -1504.0353    491.11673    374.72123    639.04435    38614.337 
  614300    300.66972    -1496.847    468.39537    323.07728    1069.4206    38614.337 
  614400     318.4222   -1502.9123    493.89434    422.30944    747.50021    38614.337 
  614500    297.17227    -1532.874    483.68505    286.61875    193.67653    38614.337 
  614600    305.57149   -1530.4855    472.33345    315.41064     433.3777    38614.337 
  614700     297.0012   -1452.2914    504.20169    386.94891    272.44038    38614.337 
  614800    296.68578   -1446.9695    474.58346    361.23481   -135.45222    38614.337 
  614900    299.17301    -1450.518    507.88479    402.16786    212.40399    38614.337 
  615000     304.4347   -1503.7653    462.73765    327.42511   -149.78448    38614.337 
  615100    310.76593   -1454.4713    488.31478    430.75543   -463.25541    38614.337 
  615200     301.0461   -1482.8355    491.32871    361.71396    51.970811    38614.337 
  615300    302.70445    -1451.274    476.26749    385.66866   -21.624117    38614.337 
  615400    300.00324   -1491.3352     493.5899    350.78774    262.53585    38614.337 
  615500    306.24667   -1422.5204    503.82412    457.90131    292.53572    38614.337 
  615600    300.49858   -1406.1122    521.25435    465.90172    119.43751    38614.337 
  615700    293.61239    -1472.831    497.47071    344.44544   -251.95197    38614.337 
  615800    293.06953   -1430.2323    501.83888    388.97219    209.21807    38614.337 
  615900    305.67581    -1470.558    482.16785    385.64138   -310.39661    38614.337 
  616000    293.29278   -1494.7926    499.66071    323.23719   -32.740801    38614.337 
  616100    304.24267   -1486.0462    490.21268    371.75605     332.9496    38614.337 
  616200     291.7418   -1486.6553    511.99157    336.73364    359.07603    38614.337 
  616300    296.32098   -1481.3769    493.92408     344.5282    571.46385    38614.337 
  616400    305.00309   -1458.7702    513.05148    425.28895    887.46046    38614.337 
  616500    301.95982   -1457.7269    516.42877    416.02988    536.58582    38614.337 
  616600    304.18509   -1499.7361    478.13558    345.73015    351.07679    38614.337 
  616700    298.16749   -1469.4499    484.69035    355.52168    504.14526    38614.337 
  616800    302.65043   -1489.1938    495.36279    366.60132    24.454758    38614.337 
  616900    291.78264   -1452.7788    506.43918    365.24128     85.84735    38614.337 
  617000    305.29451   -1485.6413    497.50954    384.18588    239.80363    38614.337 
  617100    297.01155   -1517.2671    478.34766    296.16576   -63.910338    38614.337 
  617200    296.83162   -1493.9944    510.27075    350.55276    786.03639    38614.337 
  617300    301.62318   -1500.7775    508.96899    364.00628    452.44704    38614.337 
  617400      307.168   -1505.7957    528.12455    403.06789    1203.7707    38614.337 
  617500    295.50871   -1488.7813    467.88401    307.43253    371.12629    38614.337 
  617600    301.34713   -1448.4242    491.65592    397.80566   -303.85068    38614.337 
  617700    304.05125   -1511.1912    477.03453    332.57237    -436.5907    38614.337 
  617800    299.31387   -1512.4169    488.55542    321.57283   -296.10815    38614.337 
  617900    303.66059   -1486.4528    517.13736    395.65757    171.39626    38614.337 
  618000    298.62114   -1450.8128    499.21449    390.72211    -73.98022    38614.337 
  618100    297.64994   -1479.5142    516.72862    375.16924    340.39295    38614.337 
  618200    293.93028   -1496.7791    505.01544    329.47103   -15.578754    38614.337 
  618300    299.33391   -1501.2644    466.83897    311.09893    89.714576    38614.337 
  618400     299.5863   -1494.3054    485.62468     337.9781    118.81413    38614.337 
  618500    295.85522    -1500.397     505.8755    335.36589   -171.50444    38614.337 
  618600    297.60411   -1483.9758    501.67732    355.45035    -99.21527    38614.337 
  618700    300.54686   -1508.7185    497.81038     340.0685    212.92568    38614.337 
  618800    292.56102   -1474.5881    498.35761    338.84927    26.195601    38614.337 
  618900    316.83579   -1465.7484    517.31441    475.76243    259.01874    38614.337 
  619000    312.49841   -1484.6468    503.84595    423.89875    239.93158    38614.337 
  619100    302.47526   -1459.2547    526.92369    427.31387    470.50769    38614.337 
  619200    302.09218   -1465.7679    505.10875    397.26375     507.2623    38614.337 
  619300    302.77921   -1466.5376    500.22486    394.69846    225.17425    38614.337 
  619400    292.13086   -1497.8149    500.81701    316.14829    14.293017    38614.337 
  619500    305.54044   -1509.9956    504.39922    367.82673   -91.306368    38614.337 
  619600     296.8298   -1470.7332    516.08891     379.6239   -383.62665    38614.337 
  619700    294.67341    -1456.051    495.18483    363.70894   -548.92256    38614.337 
  619800    307.28583   -1427.7355    502.39335     455.9266   -290.09377    38614.337 
  619900    311.53729    -1436.742    491.24415    454.88148   -74.417955    38614.337 
  620000    288.35308    -1497.929    492.46982    290.70566    302.14377    38614.337 
  620100    300.26847   -1494.7231    488.84366    343.84576    54.009696    38614.337 
  620200    289.25893   -1528.1611    491.26745    263.34302    49.266491    38614.337 
  620300    302.98968   -1501.8729    481.76009    341.84451    -350.0173    38614.337 
  620400    297.01951   -1486.1124    487.77577     336.7844    827.51411    38614.337 
  620500    298.58712   -1470.2863     503.7799    375.66113   -127.34642    38614.337 
  620600    296.60148   -1492.1175    504.00555    345.13001   -152.96784    38614.337 
  620700    296.56645    -1534.399    476.93986    275.62527    -281.9009    38614.337 
  620800    296.08948   -1489.9103    482.07508    323.10519   -592.84216    38614.337 
  620900    297.50761   -1477.3079    464.06729    324.07441    -279.6323    38614.337 
  621000    292.05914   -1511.2171    478.92006    280.52673    -509.6347    38614.337 
  621100     290.6447   -1486.1599    499.06943    319.37535   -827.12661    38614.337 
  621200    300.66852   -1541.0664    480.29746     290.7546    -882.3372    38614.337 
  621300    301.44543   -1486.8979    490.16224    358.28011   -1327.7064    38614.337 
  621400    305.62014   -1527.9962    457.64927     303.4344   -1340.6068    38614.337 
  621500    292.07852   -1519.4242    491.64386    285.13065   -1427.6592    38614.337 
  621600    299.47743   -1494.1043    487.81244    339.87765   -566.47398    38614.337 
  621700    300.88005   -1485.4182    488.59955    355.65566    -90.01106    38614.337 
  621800    303.63683   -1432.3466    501.40664    433.92632   -262.86083    38614.337 
  621900    290.22916   -1486.9072    477.25732    294.94803    403.69525    38614.337 
  622000    292.40564   -1476.0111     464.7633    303.13351    532.04903    38614.337 
  622100    309.44247   -1444.5638     509.8804    456.27958    709.35304    38614.337 
  622200    300.20878   -1501.2588    461.64096    309.83905    672.93634    38614.337 
  622300    306.87313   -1504.0476    502.14459    377.51061    733.94492    38614.337 
  622400    310.62496   -1530.6568    496.27036    361.89187   -304.35969    38614.337 
  622500    297.45099   -1452.3809    471.87295    356.55251    90.718424    38614.337 
  622600    294.70373    -1466.257    484.44157    342.89597    168.74309    38614.337 
  622700    293.14662   -1473.0121    483.71857    328.41855    526.58106    38614.337 
  622800    302.15997   -1491.1301    488.38968    355.48726     329.8374    38614.337 
  622900    306.34468   -1469.5399    484.27707    391.77533    372.92477    38614.337 
  623000    298.01138   -1460.2323    501.16675    380.51392   -25.344452    38614.337 
  623100    311.09991   -1456.0463    504.48908    446.85607    307.19326    38614.337 
  623200    298.40796   -1434.3781    512.51394    419.49801    89.589639    38614.337 
  623300    304.16737   -1443.8609    508.52194    431.91212    409.08057    38614.337 
  623400    303.72311   -1494.6511    491.64683    362.24985    304.86085    38614.337 
  623500    297.03829   -1516.9642    481.21569     299.4569    215.01145    38614.337 
  623600    306.22011   -1454.0987    496.38878    418.76836    158.31423    38614.337 
  623700    298.00688   -1476.0585    491.29478    354.79549   -225.86577    38614.337 
  623800    291.37646   -1462.3015    518.55623    366.00991   -229.88543    38614.337 
  623900    289.64385   -1421.7847    474.17673    354.35903   -183.12879    38614.337 
  624000    298.60842   -1446.4059    521.73966      417.597   -275.13024    38614.337 
  624100    304.68127   -1478.2799    479.20503    370.48622   -175.80545    38614.337 
  624200    299.75594   -1423.2488    498.60665     422.7793   -249.14358    38614.337 
  624300     305.6904   -1466.8286    496.06559    403.33414    160.90334    38614.337 
  624400    306.29692   -1489.7083    477.05577    364.17095    139.29046    38614.337 
  624500    303.05345   -1526.8692    464.43851    299.81318    269.06164    38614.337 
  624600    295.35572   -1505.3841    471.35511    293.61314    52.360779    38614.337 
  624700    300.28129   -1499.0923    466.89222    317.58279   -369.62373    38614.337 
  624800    308.99442   -1522.1138    479.92826    346.76337   -167.66761    38614.337 
  624900    299.35481   -1559.0699    467.42211    253.97055   -197.69515    38614.337 
  625000    303.62537   -1526.0411    483.93626    322.70986    340.12339    38614.337 
  625100     299.5929    -1540.734    474.21762    280.17215    117.32507    38614.337 
  625200    295.87967    -1547.268    469.15328    251.88262   -34.441751    38614.337 
  625300    286.11063   -1560.4188      464.016     189.6821    230.32389    38614.337 
  625400    299.84188   -1552.0435    492.78531    288.54957   -410.71582    38614.337 
  625500    300.18681   -1551.6989    501.63765    299.29697   -83.891338    38614.337 
  625600    293.07255   -1550.2945    489.66826     256.7529    187.75824    38614.337 
  625700    300.15481   -1523.9982    458.16221    283.37837    72.065786    38614.337 
  625800    306.80564    -1510.777    490.38532    358.71852   -18.206762    38614.337 
  625900    305.64246    -1466.284    494.46557    402.06327   -188.89701    38614.337 
  626000    294.58212   -1525.5237    474.09913    272.74023   -65.028644    38614.337 
  626100    308.75435   -1457.7385    496.12634    426.25766   -70.060343    38614.337 
  626200    287.03555   -1493.1341    474.13947     271.2479    229.66097    38614.337 
  626300    304.84916   -1446.2429    500.01149    424.08428    494.94881    38614.337 
  626400    290.17029   -1461.8212    476.73478    319.24684    31.536719    38614.337 
  626500    294.38835   -1463.1669     486.9629    347.08974    372.81697    38614.337 
  626600    298.71253    -1470.337    502.02861    374.42276   -95.434899    38614.337 
  626700    300.81095   -1508.6511    497.70038    341.21298   -198.37031    38614.337 
  626800    300.49607   -1463.4588    493.64968    380.93923   -273.98432    38614.337 
  626900    310.97889    -1465.351     493.5285    426.04675    50.477458    38614.337 
  627000    299.43773   -1513.3936    477.14802    309.74541   -347.49077    38614.337 
  627100    305.53972   -1546.4715    501.54262    328.49092    -256.4868    38614.337 
  627200    299.00085   -1535.7138    503.13578    311.44922    323.71006    38614.337 
  627300    299.94915   -1565.2891    457.16639    240.16723    279.96797    38614.337 
  627400    296.84283   -1521.4586    500.28802     313.1562     48.33735    38614.337 
  627500    303.39472   -1546.8738    456.30602     273.2102   -296.86695    38614.337 
  627600    300.06236   -1533.9686     496.4278    311.25801   -86.500161    38614.337 
  627700    298.06428   -1508.7592    480.57966    311.63776   -157.73181    38614.337 
  627800    294.47234   -1474.4159    508.64158    357.89695   -375.02846    38614.337 
  627900    293.97537   -1472.2495    494.98744     344.1753    87.974174    38614.337 
  628000    298.15418   -1500.7639    500.65629     340.1138    22.364623    38614.337 
  628100    302.80807   -1496.1901    509.50607    374.45689    164.85905    38614.337 
  628200    301.96186   -1513.7368     473.9433    317.54367    580.64222    38614.337 
  628300    302.51652   -1562.5339    473.71166    271.00818    24.759147    38614.337 
  628400    295.72994   -1515.8649    517.46356    330.92294   -304.76724    38614.337 
  628500    292.50894   -1527.3477     502.1196    289.61756   -1012.6597    38614.337 
  628600    298.47015   -1490.1714    480.37069      331.841   -655.13391    38614.337 
  628700    298.31839   -1490.0775    465.34636    316.22839   -166.12625    38614.337 
  628800    303.58156   -1487.2531    517.56941    394.93409   -196.44233    38614.337 
  628900    293.06299   -1471.0293    489.08304    335.38985    51.306722    38614.337 
  629000    306.78187   -1501.3398     502.4755     380.1391   -226.83715    38614.337 
  629100    302.78136   -1502.7341     476.8954    335.18221   -450.46895    38614.337 
  629200    299.60971   -1474.5299    503.08996    375.32417   -611.93084    38614.337 
  629300     298.3008   -1436.9006    514.16275    418.14256   -202.47901    38614.337 
  629400    302.81701   -1432.3409    486.42567     415.2659   -265.74569    38614.337 
  629500    304.78508   -1453.2084    511.93638     428.7557   -397.04887    38614.337 
  629600    301.07005   -1471.5297    494.91929    376.71798   -227.53194    38614.337 
  629700    298.57182   -1459.9489    483.19194     365.3418    252.36702    38614.337 
  629800    304.81146   -1447.0667    526.21944    449.29903    483.61341    38614.337 
  629900    297.60632   -1447.9266    495.79853    385.63068     211.1185    38614.337 
  630000    294.82864   -1480.4717    507.58434    352.38555   -103.24797    38614.337 
  630100    309.28547   -1465.0717    511.63172    436.81725    33.697435    38614.337 
  630200    298.88534   -1454.6332    488.86816    377.74294    -308.8858    38614.337 
  630300    297.08617   -1459.4865    513.04929    388.98341   -455.49938    38614.337 
  630400    300.12874   -1455.0643    512.09658    406.12942   -414.63001    38614.337 
  630500    305.98357   -1443.6401     488.1895     419.9644   -554.39245    38614.337 
  630600    289.90682   -1468.3955    483.96692    318.72047   -1279.3286    38614.337 
  630700    301.90233   -1473.5476    499.20604    382.72799   -1260.9767    38614.337 
  630800    301.55619   -1496.8417    498.22804    356.90002   -859.93133    38614.337 
  630900    296.93667   -1476.0052     507.6114    366.35483   -185.93308    38614.337 
  631000    306.53435   -1450.9709    503.23231    430.15221    140.49935    38614.337 
  631100    295.19639    -1462.739     466.0521    330.23898   -94.003398    38614.337 
  631200    291.81051   -1433.2159    518.20742     396.6977    120.45945    38614.337 
  631300    300.17203   -1444.0138    514.50996    419.78797    309.83292    38614.337 
  631400    293.78121   -1468.0547    492.84333    345.35322    437.69679    38614.337 
  631500    292.68236   -1456.2102    513.29225    372.70729    311.05957    38614.337 
  631600    306.84417   -1435.9678    518.26482    461.58046    669.27783    38614.337 
  631700    304.95121   -1422.4773     525.2355    473.53271     381.4314    38614.337 
  631800    304.28061   -1433.9971    488.31274    422.07574    174.77173    38614.337 
  631900    305.48461   -1479.0506    488.76771    382.88925    662.05461    38614.337 
  632000    298.95705   -1471.6621    492.26894     364.4372    857.90862    38614.337 
  632100    290.49251   -1477.1387    505.97618     334.6192    397.75296    38614.337 
  632200    297.40521   -1478.9841    515.11696    372.98756   -188.91586    38614.337 
  632300    306.83084   -1467.3692    501.39073    413.24504    309.31805    38614.337 
  632400    297.76293    -1471.567     493.2642    360.15997   -99.229485    38614.337 
  632500    299.51209    -1455.781    529.30588     419.8502   -191.74084    38614.337 
  632600    302.48355   -1443.6866    515.46536    431.46098   -171.77751    38614.337 
  632700    298.07919   -1444.5021    514.70152     410.0837   -124.19656    38614.337 
  632800    297.58256   -1471.6076    536.34491    402.38925   -154.51388    38614.337 
  632900    297.84422   -1512.4115    479.26188    305.67849   -611.40984    38614.337 
  633000     303.4325   -1451.7775    504.85835    417.02862   -267.77208    38614.337 
  633100    310.21824   -1494.7421    480.74126    380.44926   -218.34056    38614.337 
  633200    305.74207   -1468.7658    491.92766    397.49132    247.01402    38614.337 
  633300    304.44072   -1462.3444     504.7837    410.91912    530.29692    38614.337 
  633400    301.61409     -1498.96    477.86683    334.68073    106.57368    38614.337 
  633500     294.0368   -1538.0608    468.60094     252.2537   -338.06537    38614.337 
  633600    300.28173   -1561.0631    492.36406    281.08579    161.40343    38614.337 
  633700    296.23017   -1519.2798    494.59943     306.8925    69.399797    38614.337 
  633800     299.3751   -1546.2781    500.83175    300.26316    -85.73169    38614.337 
  633900    291.10428   -1530.8571    507.96372    285.63828   -386.80027    38614.337 
  634000    306.96147   -1541.5301    497.50488    335.78552   -293.55859    38614.337 
  634100    296.14983   -1567.6515    468.33049    231.89072   -574.30497    38614.337 
  634200    308.28183   -1516.2228     496.1478    365.67077   -182.00183    38614.337 
  634300    294.90139   -1553.1388     495.2045    267.66555     222.1967    38614.337 
  634400     313.3275   -1513.4713    512.42828    407.38337   -63.285127    38614.337 
  634500    298.83845   -1499.1296    484.24923    328.41689    228.06626    38614.337 
  634600    308.22322   -1523.5934    511.52926    373.41825     454.3654    38614.337 
  634700    300.58965    -1548.973    480.74742    282.94335   -238.38587    38614.337 
  634800    305.24757    -1574.494    463.85954    261.47217   -101.24678    38614.337 
  634900     289.8799   -1528.3321    502.23725    276.93311    132.92278    38614.337 
  635000    308.89327   -1517.2197    497.62808    368.90262    96.418067    38614.337 
  635100    300.20142   -1522.3072    484.46589    311.58259    295.00202    38614.337 
  635200    297.30226   -1486.9307     493.2003    342.66161    131.54967    38614.337 
  635300    301.86292   -1517.8298    480.35376    319.41631    49.270615    38614.337 
  635400    289.33114   -1487.6318    490.34585    303.27541    38.720142    38614.337 
  635500    305.01669   -1506.1532    495.50577    360.42134    270.36151    38614.337 
  635600    292.05192   -1536.0923    470.01313    246.71221   -531.18878    38614.337 
  635700    292.97867   -1525.4711    514.49152    305.97764    -538.8377    38614.337 
  635800    308.44859   -1542.3831    492.11865      336.231   -29.732577    38614.337 
  635900    308.36873   -1528.5659    499.62738    357.19789    319.47335    38614.337 
  636000    298.15984   -1492.7785    528.72236    376.19072     289.5744    38614.337 
  636100    292.57963   -1470.3639    493.10482    337.90441    329.87495    38614.337 
  636200    298.14201   -1473.9854    511.29534    377.47663    128.93828    38614.337 
  636300    288.49181   -1506.9057    506.91708    296.79982   -11.257221    38614.337 
  636400    304.13119   -1502.0722    493.03989    358.05614   -292.34634    38614.337 
  636500    304.77767   -1522.5321    499.34649    346.80876    348.52818    38614.337 
  636600    305.86152   -1538.0842    487.59072    324.37289    513.49219    38614.337 
  636700    301.43699   -1515.8194    493.44961    332.60806    359.46141    38614.337 
  636800    299.41185   -1505.6151    517.12655    357.38614    707.31867    38614.337 
  636900    302.04042   -1573.0315     496.5625    281.22128    493.50226    38614.337 
  637000    304.45566   -1543.9304    492.08387    316.70045    133.20311    38614.337 
  637100    306.10561   -1541.9161    483.97181    318.01926   -14.238926    38614.337 
  637200    300.90669   -1542.8639    496.75568    306.48583    162.09659    38614.337 
  637300    305.78897   -1551.9197    508.62155     331.2421    192.97162    38614.337 
  637400     300.2553   -1541.5928    485.68122    293.75443     299.2201    38614.337 
  637500    289.50141   -1536.8088     486.5936    251.11147    54.243654    38614.337 
  637600    314.05141   -1584.0898    499.90607    327.49669   -386.53459    38614.337 
  637700     304.7047   -1538.9206    491.40834     322.1541    5.2723764    38614.337 
  637800    296.78789   -1532.5076    515.57621    317.14841   -193.74876    38614.337 
  637900    309.58149   -1560.2023    500.61872    332.00426   -30.354297    38614.337 
  638000    306.74088   -1565.8456    492.52233    305.49589     167.4038    38614.337 
  638100    297.60128   -1570.6732    485.91818    252.98108   -144.88636    38614.337 
  638200    308.81368   -1566.2044    481.96427    303.89635   -120.97435    38614.337 
  638300    288.46065    -1595.559    488.52434    189.61377    142.09752    38614.337 
  638400    294.87215   -1551.2006    499.31763     273.5855    860.42905    38614.337 
  638500     304.0155   -1527.1699    473.66865    313.06709    762.82104    38614.337 
  638600    296.16877    -1565.219    514.90757    280.98541    225.60398    38614.337 
  638700    301.66487   -1544.8606    465.86578    277.00734    657.55782    38614.337 
  638800    288.29369   -1552.4918    499.05255    242.45866    690.94184    38614.337 
  638900    312.49037   -1536.8534    506.25336    374.06339    434.66686    38614.337 
  639000    295.37343   -1513.5259    469.81633    284.01213    200.20244    38614.337 
  639100    291.77069   -1553.0771    495.96291    254.41304   -20.058141    38614.337 
  639200    303.52877   -1475.6317    476.90447    365.65327    118.59255    38614.337 
  639300    296.55109   -1447.6916    513.60601    398.92982   -113.22108    38614.337 
  639400     298.8433   -1487.1089    503.34767    359.55778   -259.93989    38614.337 
  639500    293.73791   -1471.9227    494.85601     343.3033   -676.29954    38614.337 
  639600    306.58799   -1467.0263    490.97345    402.07903   -757.50813    38614.337 
  639700    302.60883   -1473.9584    489.18557    375.47245   -419.39367    38614.337 
  639800    263.56247   -1512.1824    488.69299    161.24014   -722.76188    38614.337 
  639900    305.96543   -1450.6024    520.80415    445.53523   -90.646386    38614.337 
  640000    306.52242    -1478.614    505.01314    404.23629    356.29959    38614.337 
  640100    299.93001   -1473.1794    522.51268    397.53711    502.35809    38614.337 
  640200    296.65122   -1477.4965    488.81798    344.78693    136.85947    38614.337 
  640300    295.62347   -1474.9183    512.36481    366.29216    155.56349    38614.337 
  640400    300.35816   -1466.0813    486.98332    371.03041    167.71416    38614.337 
  640500    293.45887    -1493.016    493.32488    319.42456    222.09217    38614.337 
  640600    301.31463   -1495.0808    485.15837    344.50538    457.19901    38614.337 
  640700    294.77037   -1456.4839    499.69449    368.22151    375.17536    38614.337 
  640800    306.90509   -1453.7875    508.53456     434.3043    513.30976    38614.337 
  640900    300.38579   -1444.7286     461.2767    366.80069    340.55362    38614.337 
  641000     292.4221   -1490.4633    515.60534    339.59739     390.1713    38614.337 
  641100    302.87741   -1491.0972    507.69096    378.04636    28.331266    38614.337 
  641200    304.47113   -1511.1508     476.5593    334.02495    214.67047    38614.337 
  641300    301.66661   -1489.0822    493.48547    360.41329   -680.20196    38614.337 
  641400    301.37072   -1449.5683    489.07865    394.19029   -622.06244    38614.337 
  641500    297.40379   -1450.1831    476.21075    362.87601   0.07062302    38614.337 
  641600    300.28229   -1483.5824    500.39966    366.60465   -31.304912    38614.337 
  641700    306.63637   -1472.3609    510.70016    416.68862    800.63866    38614.337 
  641800    295.06215   -1509.8196    493.64968    310.15263    764.42417    38614.337 
  641900    293.64834   -1485.5889    486.46963    320.84812    434.52452    38614.337 
  642000    306.46519   -1453.3661    479.34119    403.55497    58.916803    38614.337 
  642100    296.07712    -1437.837    470.88785     363.9358    78.648241    38614.337 
  642200    298.57145   -1440.7544    512.61446    413.95714    391.24615    38614.337 
  642300    304.43631   -1446.6151    467.43694    389.28181   -224.07961    38614.337 
  642400    308.60673   -1382.3081    496.54488    501.44306   -175.31524    38614.337 
  642500    294.55867   -1423.0269    495.23618    396.26859   -843.95306    38614.337 
  642600     294.2321   -1455.6189    508.42423    375.39668   -156.32266    38614.337 
  642700    306.00521   -1476.0692    494.66411     394.1071   -156.10677    38614.337 
  642800    304.09122   -1426.0346    477.64424    418.51834    108.87072    38614.337 
  642900    292.20555   -1427.8244    485.12295    370.78046   -298.92853    38614.337 
  643000    303.27924   -1479.1108    487.72769    371.87574    305.15487    38614.337 
  643100     285.9705   -1508.3719    478.95056    256.03363   -456.96048    38614.337 
  643200     303.9909   -1441.4316    520.12297    445.14922    26.218431    38614.337 
  643300    287.80425   -1496.4808    470.32566    267.54263    228.79102    38614.337 
  643400    306.65874   -1486.3082    491.97669    384.11838    593.81483    38614.337 
  643500    295.18514   -1480.9782    477.72809    323.62525    296.52271    38614.337 
  643600     305.0039   -1502.3827    470.10626    338.73492   -2.6834028    38614.337 
  643700    294.37771   -1477.1422    499.83574    345.93946    23.763465    38614.337 
  643800    301.29656   -1469.5366    475.11128    359.92131    587.18799    38614.337 
  643900    293.03387   -1435.7875    500.95558    382.37339    423.11276    38614.337 
  644000     313.5312   -1489.6483    487.81138    407.50508    157.96061    38614.337 
  644100    303.56303   -1436.9485    492.09765    419.68363   -567.77742    38614.337 
  644200    298.68646    -1442.208     495.0531    395.45913   -253.52933    38614.337 
  644300    298.23847   -1475.7087    489.98113    354.87266   -165.69604    38614.337 
  644400    293.57694   -1505.9043    491.59244    305.33455   -356.00762    38614.337 
  644500    307.78112   -1450.7701    482.34712    415.07208   -40.386138    38614.337 
  644600    301.92973   -1483.9485     495.4902    368.73444   -379.69053    38614.337 
  644700    310.97651   -1513.2196    469.98701    354.62596   -321.38821    38614.337 
  644800    299.11387   -1475.3031    509.63428    378.86638   -72.883951    38614.337 
  644900     300.8395   -1468.7917    467.88026    351.38066   -104.24023    38614.337 
  645000    294.55347   -1462.2157    467.88035    329.70065    -932.6044    38614.337 
  645100    299.93208   -1439.7307     494.0279     402.5104   -414.29961    38614.337 
  645200    291.54917   -1483.6866    491.39012    318.23496   -768.95904    38614.337 
  645300    300.67073   -1494.8696     477.9031    334.56692   -617.93801    38614.337 
  645400    298.21775   -1520.6958    462.82634    282.63768   -910.24258    38614.337 
  645500    301.53392   -1481.2051    478.22231    352.43076   -418.47639    38614.337 
  645600    300.30781   -1463.3967    486.08457    372.58993   -421.24806    38614.337 
  645700    302.86022   -1460.0268    507.57689    408.92538   -663.64219    38614.337 
  645800     296.9751   -1474.8018    490.75287     350.8724   -578.71385    38614.337 
  645900    304.95911   -1489.2654    499.67797    381.22254   -226.43002    38614.337 
  646000    303.25884   -1528.7263    478.41074    312.85164   -275.67017    38614.337 
  646100    303.89324   -1504.2357    474.06577    335.84886    -382.0205    38614.337 
  646200    304.74115    -1509.927    478.39625     338.2995   -629.84218    38614.337 
  646300    297.43194    -1492.905    487.94359     332.0135   -482.80779    38614.337 
  646400    291.06051   -1465.3143    476.96997    319.99056    282.10709    38614.337 
  646500    313.63326   -1471.0448     506.1633     444.9193   -261.62889    38614.337 
  646600    306.92612   -1507.3885    452.22943    324.49268    300.17297    38614.337 
  646700    307.00547    -1524.501    464.43272    319.94021   -69.494346    38614.337 
  646800    293.11569   -1509.1609     497.7893    306.20152    693.71253    38614.337 
  646900     301.2847   -1556.5841    462.44765    260.15682    277.85258    38614.337 
  647000    297.50649    -1512.034    488.38512    313.66111     146.7067    38614.337 
  647100    312.30305   -1528.0341    496.28465    372.07194    289.39416    38614.337 
  647200    297.45628   -1510.4594    483.09996    309.72479   -99.243563    38614.337 
  647300    294.48682   -1503.5634    491.06279    311.23581   -293.76996    38614.337 
  647400    297.30745   -1495.6868    509.17055    349.89902   -461.59881    38614.337 
  647500    293.63634   -1455.8813     473.1471    337.17922   -727.10195    38614.337 
  647600    301.03403   -1464.1807    506.06405     395.0499   -38.586728    38614.337 
  647700    308.63086   -1493.0418    475.41732    369.69021   -710.88587    38614.337 
  647800    303.84153    -1487.738     485.0655    363.11392   -409.02487    38614.337 
  647900    295.94397   -1482.6479    501.94266    349.58117   -380.36353    38614.337 
  648000    302.20811   -1470.0624    513.81031    402.19195   -628.98203    38614.337 
  648100    303.42243   -1503.1836    467.35961    328.07851   -579.86768    38614.337 
  648200    304.26797   -1472.6532    476.77194    371.82196   -293.30349    38614.337 
  648300    299.98733    -1434.221    498.03111     412.2716   -27.990978    38614.337 
  648400    298.80871   -1440.1861    484.99406    387.97153    -485.0931    38614.337 
  648500    304.52552   -1472.8711    474.89007    370.87992   -617.31447    38614.337 
  648600     313.7835   -1517.8069    471.81899    364.48824   -269.51224    38614.337 
  648700    309.07069   -1463.5317    501.09154    426.85163   -18.405041    38614.337 
  648800    305.45101   -1488.5893    465.99036    350.42215   -12.656217    38614.337 
  648900     302.8939   -1468.1326    485.55257    378.94669    160.35903    38614.337 
  649000    295.80132   -1510.6388    486.97268      305.979   -372.53671    38614.337 
  649100    295.21741   -1508.0002    495.22293    314.24309    333.68138    38614.337 
  649200    307.91443   -1470.1957    488.38021    402.27885     821.6719    38614.337 
  649300    297.66116    -1487.214    482.47878    333.27002    220.92583    38614.337 
  649400    314.65709   -1487.1923     488.3401    415.55078    255.15234    38614.337 
  649500    299.95218   -1506.0958    488.51905    330.72679    44.124194    38614.337 
  649600    303.98602   -1487.4485     499.0964    378.08377   -354.81352    38614.337 
  649700     305.3278   -1455.1511    489.52714    406.84329    248.49171    38614.337 
  649800    302.68679   -1500.5951    495.35025    355.35087    299.35212    38614.337 
  649900    299.79561   -1502.6874    493.25953    338.17189    671.94199    38614.337 
  650000     299.8377   -1493.9228    460.48235    314.34845    371.27655    38614.337 
  650100    302.11742   -1517.9155    511.57105    351.69193    240.55104    38614.337 
  650200    317.64648    -1508.702    483.86437    403.00283   -14.118237    38614.337 
  650300    315.41236   -1525.6484    499.76662    391.91617   -324.26302    38614.337 
  650400    304.32809   -1500.2269    467.02762    334.77416    -507.4748    38614.337 
  650500     299.7522   -1525.6539    457.74673    279.49739    -485.1322    38614.337 
  650600    295.20616   -1507.5675    473.20378    292.60615   -299.73675    38614.337 
  650700    292.03366   -1492.4474    464.80098    285.06287   -169.42904    38614.337 
  650800    308.02237   -1560.2406    485.79275    310.13167    616.32057    38614.337 
  650900    301.17645    -1555.766    484.15453     282.1952    894.82063    38614.337 
  651000    309.20432    -1548.134    472.40718    314.16565    934.33386    38614.337 
  651100    297.41498   -1543.9182    467.70458    260.68499    200.43244    38614.337 
  651200    300.06985   -1542.1597    494.04017     300.7129    457.69528    38614.337 
  651300    294.22537   -1566.5963    474.72163    230.68642    870.66789    38614.337 
  651400    310.65666    -1524.899    483.55105    355.07288     601.1023    38614.337 
  651500    307.87431   -1536.5302    489.22106    336.60485   -259.16132    38614.337 
  651600    308.64767   -1554.6838    490.07465    322.78108   -205.08514    38614.337 
  651700     296.3945   -1530.7242    466.93418     268.5215   -396.47323    38614.337 
  651800    302.78041   -1543.6095    476.19198    293.59907   -873.52482    38614.337 
  651900     297.6607   -1524.2608    486.62136    300.36376   -574.74997    38614.337 
  652000    302.69988   -1496.4786    498.34441    362.52038   -988.56913    38614.337 
  652100    300.36891   -1495.8144    493.16932    347.53167   -186.10084    38614.337 
  652200    303.74466   -1495.3841    481.51259    351.47945    86.587169    38614.337 
  652300    301.77382   -1510.3468    495.19849    341.34352    -167.4336    38614.337 
  652400    306.00755   -1506.1495    489.76634    359.13958    267.95983    38614.337 
  652500    303.33652   -1469.4324    489.47171     383.5557    489.08657    38614.337 
  652600    314.82609    -1472.088     498.6358    441.71046     620.3321    38614.337 
  652700    302.89682    -1496.994    492.33074    356.87656   -8.0802601    38614.337 
  652800    294.82562   -1544.6039    485.14179    265.79718   -127.61094    38614.337 
  652900    299.99065   -1554.3701    508.83411    302.94045    783.97057    38614.337 
  653000    296.93762   -1587.5275    454.08991    201.31532    371.75992    38614.337 
  653100    304.90405   -1572.8744     513.9466     311.6347    326.47945    38614.337 
  653200    292.49861    -1558.578    483.44472    239.66591    7.8294319    38614.337 
  653300    300.27412   -1534.1258    498.06217    313.68704    178.88857    38614.337 
  653400    303.24581   -1536.2012    502.02138    328.92875    219.39738    38614.337 
  653500    289.42736   -1508.5207    484.07018    276.54323    332.22985    38614.337 
  653600     303.7537   -1502.7621    490.17527    352.80482    218.37584    38614.337 
  653700    312.83316   -1546.0595    474.90299    335.04784   -398.19354    38614.337 
  653800    306.45694   -1488.6406    465.95819    354.86036   -300.98417    38614.337 
  653900    315.01322   -1544.1949    478.45936    350.26826   -543.06204    38614.337 
  654000    298.89957   -1501.8769    514.68661     356.3817     226.4528    38614.337 
  654100    292.33954   -1524.8525    499.93194    289.16365   -99.614143    38614.337 
  654200    301.04376   -1504.2833    499.10149    348.02847   -564.09303    38614.337 
  654300    310.05237   -1465.1499    498.58968    427.14423    -70.96285    38614.337 
  654400    295.34987   -1510.6845    489.48721     306.4186   -152.96305    38614.337 
  654500    301.46753   -1524.1542    476.47249    307.43336   -30.547546    38614.337 
  654600    302.24847   -1491.9673    516.60287    383.26104     71.98231    38614.337 
  654700    295.98378   -1494.3385     488.5039    324.63074   -115.77929    38614.337 
  654800    299.41318   -1469.0729    491.67589     368.4837    19.459177    38614.337 
  654900    302.57376   -1497.0469    461.74292    324.78369    50.907684    38614.337 
  655000    300.51765   -1529.7099    476.83163    297.96713    176.05165    38614.337 
  655100    294.53966   -1488.1964    497.42987    333.20732    408.59641    38614.337 
  655200    302.22513   -1537.9841    488.87502    309.41149    302.61695    38614.337 
  655300    304.00043   -1514.4948    471.58209    323.58794     56.07574    38614.337 
  655400    299.60781   -1524.6132    491.22965    313.37199   -35.802099    38614.337 
  655500    306.20804   -1503.6402    468.67781    341.46166   -78.698552    38614.337 
  655600    294.77469   -1496.9322    482.85002    310.94821   -60.410607    38614.337 
  655700    302.08699   -1487.2017    495.34479    366.04274   -404.84368    38614.337 
  655800    298.80496   -1469.8207    488.06897    361.39496   -888.09494    38614.337 
  655900    303.02668   -1480.2945    505.01525    386.84433   -447.01519    38614.337 
  656000    296.66192   -1524.7724    465.12383    273.86499   -283.59274    38614.337 
  656100     303.5008   -1509.0096    503.78491    359.03014   -404.18781    38614.337 
  656200    296.64551   -1497.1215    496.47913    332.79752   -167.17506    38614.337 
  656300    303.52103   -1490.5793     485.5784    359.34479   -239.70301    38614.337 
  656400    289.18101   -1506.5422    474.32855    267.67274   -393.71675    38614.337 
  656500    312.34851   -1519.4191    500.46321    385.06988    165.24954    38614.337 
  656600     303.2069   -1533.2235    502.96765    332.67784    142.67463    38614.337 
  656700    304.12711   -1503.5311    481.82072    345.35971    99.802444    38614.337 
  656800    308.81917   -1502.5954    497.26818    382.83396    623.35306    38614.337 
  656900    310.74401   -1510.3205    498.54422    385.03719   -164.52044    38614.337 
  657000    300.76207   -1525.8294    489.53449    315.64913    126.03539    38614.337 
  657100    295.69473   -1511.8642    492.94318    310.24493    63.359381    38614.337 
  657200    306.65264   -1495.6694    482.18765    364.94075     99.64135    38614.337 
  657300    291.93632   -1471.6855    505.36213     345.9484    -81.70462    38614.337 
  657400    306.81046   -1449.5164    495.06161    424.67714   -131.64139    38614.337 
  657500    303.55583    -1494.841    491.39522    361.05636    -634.6535    38614.337 
  657600    301.33458   -1485.2743    489.66349    358.90667   -558.41856    38614.337 
  657700    300.36235   -1480.4939    489.62144    359.27475   -376.47521    38614.337 
  657800    306.60278   -1494.3164    513.27786    397.15987   -246.89262    38614.337 
  657900    302.08714   -1488.6498    477.26693    346.51746   -88.693057    38614.337 
  658000    297.34562   -1480.0686    488.11747    344.63579   -382.59962    38614.337 
  658100    307.16613   -1483.5429     507.3757    404.56351   -467.62147    38614.337 
  658200    290.02222   -1502.7622     479.5542    280.45976   -484.51342    38614.337 
  658300    296.83075   -1487.2197    481.20695    328.25976    -538.0367    38614.337 
  658400    303.65093   -1519.7426    510.98353    356.17057   -503.65247    38614.337 
  658500    300.14995   -1514.3925    501.73707    336.53707    261.45801    38614.337 
  658600    299.25563   -1468.1009     493.2309    370.30252    -45.69748    38614.337 
  658700    299.41091   -1469.0905    503.86914    380.64911    185.86656    38614.337 
  658800     297.0057   -1465.9692     518.9893    388.07904    -25.31766    38614.337 
  658900    303.50507   -1454.9745    498.69306    407.99257    708.49723    38614.337 
  659000    299.86549   -1458.1391    489.29504    379.06978    931.29803    38614.337 
  659100    300.80673   -1470.0913    508.00009    390.05358    900.64318    38614.337 
  659200     300.0015   -1486.2571    495.04817    357.31632    542.35211    38614.337 
  659300    303.38167   -1479.3757     519.6918     404.0354    517.00021    38614.337 
  659400    298.59961   -1529.2708    514.08907    327.04191    353.86266    38614.337 
  659500    292.11976   -1461.6062    505.21577     356.7059   -88.556669    38614.337 
  659600    295.03015   -1460.3156    493.40974    359.27286   -142.88884    38614.337 
  659700    292.36754   -1483.5088     504.5758    335.27713   -255.36499    38614.337 
  659800    300.46076   -1487.8073    498.73849    361.52083   -626.39622    38614.337 
  659900    303.87233   -1504.7787      470.648    331.79409   -787.07319    38614.337 
  660000    299.72062    -1457.473      495.844    385.63362   -432.38401    38614.337 
  660100    291.60295   -1421.7708    498.37832     387.3807   -329.17947    38614.337 
  660200    299.64658   -1451.9279    512.66887     407.6708   -460.71843    38614.337 
  660300    302.25117   -1469.2277    521.84006    411.24998    67.969074    38614.337 
  660400    296.86935   -1490.3368    493.21074    337.31991   -514.36422    38614.337 
  660500    296.34531   -1518.7311    491.10318    304.46246    -363.9177    38614.337 
  660600     294.4436   -1507.3073    484.91278    301.14756   -323.76072    38614.337 
  660700    291.60989   -1506.0196      471.597    276.38178    -59.45193    38614.337 
  660800    300.73266   -1509.7294     474.6946    316.77703   -518.61822    38614.337 
  660900    301.45903   -1525.7564    490.39113    319.71158   -952.04051    38614.337 
  661000    289.65122   -1511.1881    505.23641    296.04836   -255.67217    38614.337 
  661100    299.50645   -1514.7705    496.30114     327.8306   -14.551442    38614.337 
  661200    312.32255    -1560.773    497.10011    340.23619    26.164719    38614.337 
  661300    293.25595   -1547.2534    520.59886    291.54897   -369.10545    38614.337 
  661400    305.92278   -1519.1896    506.74704    362.69911    112.49861    38614.337 
  661500    302.85129   -1574.7623    496.93884    283.51169   -100.34266    38614.337 
  661600    311.74381   -1582.2556    505.24038    324.29237   -158.23988    38614.337 
  661700    305.05209   -1546.0333     510.0508    335.24546    163.96601    38614.337 
  661800    304.46396   -1542.3852    505.29736    331.49641    -210.3349    38614.337 
  661900    295.90357   -1534.2362    502.68933    298.55795   -141.78736    38614.337 
  662000     260.3794   -1555.7765    553.57252     168.2175    -310.6283    38614.337 
  662100    295.04148   -1541.7322    485.96151    270.45889    487.89226    38614.337 
  662200    297.29349   -1537.3306    473.03306    272.05501    571.99248    38614.337 
  662300    310.38151   -1536.2441    491.32664    350.26648    379.26714    38614.337 
  662400    304.14758   -1502.6737    491.02266    355.51106    429.14403    38614.337 
  662500    295.20483   -1525.1747    485.46376    287.25293    573.79281    38614.337 
  662600    306.03837   -1504.8898      499.209    369.98049    454.22539    38614.337 
  662700    309.26498   -1534.4164    523.59011     379.3389    770.46969    38614.337 
  662800    303.90108   -1489.6173    510.84557    387.28235     878.2454    38614.337 
  662900    284.43331   -1491.1498    507.56396    294.95939    42.423728    38614.337 
  663000    293.55764   -1484.2707    495.32591    330.61487   -648.67545    38614.337 
  663100    293.34137    -1525.596    478.29838    271.28986    -262.2105    38614.337 
  663200    312.63151    -1497.508    491.31299    399.10285    55.401379    38614.337 
  663300    300.07531    -1500.421    499.15704    347.59303   -509.23852    38614.337 
  663400    300.28889   -1556.6317    508.39974     301.5851   -376.68927    38614.337 
  663500     306.0372   -1528.7493     506.7745    353.68124    215.52475    38614.337 
  663600    302.70793   -1551.6362    468.10023    277.15476   -74.480137    38614.337 
  663700    310.38815   -1525.1859    498.18304    368.21099    399.98884    38614.337 
  663800    307.92516   -1558.6813    475.71586    301.17714    111.16052    38614.337 
  663900    294.96883   -1589.0689    472.74054     209.5747   -49.240072    38614.337 
  664000    297.68463   -1550.9005    507.75815     294.9684    183.19271    38614.337 
  664100    302.76009   -1550.3937     499.2676    309.79914   -731.71967    38614.337 
  664200    289.29255    -1575.374    508.45219    233.46601   -119.09924    38614.337 
  664300    312.05112   -1570.0689    508.27219    340.89228   -490.32574    38614.337 
  664400    304.69941   -1563.9758    479.73297    285.39981   -7.4831888    38614.337 
  664500    292.09845   -1563.3324    483.76644    233.43458    27.806354    38614.337 
  664600    296.99936   -1545.3309    492.55247    282.25199    152.42315    38614.337 
  664700    301.04781   -1551.2742    486.63082    288.58508    457.89336    38614.337 
  664800    302.34864   -1567.6323    493.93187    285.37528    321.92469    38614.337 
  664900    307.14316   -1564.4264    516.98564    333.18671    351.83376    38614.337 
  665000    293.29242   -1550.5323    483.74475    251.57995    417.53897    38614.337 
  665100    312.06227   -1559.3629    477.87596    321.25218    23.030377    38614.337 
  665200    307.28844   -1547.1019    496.58005     330.7586    312.52628    38614.337 
  665300    299.17636   -1535.5307    479.57117    288.85663    916.75966    38614.337 
  665400    303.05864    -1573.716    498.23378    286.78498     446.0031    38614.337 
  665500    289.99839   -1556.5316    509.87108    256.90003    810.44604    38614.337 
  665600    291.98086   -1519.6985    509.46028    302.23367    183.25685    38614.337 
  665700    298.08528   -1525.1217    515.77694     330.5669    468.44906    38614.337 
  665800    296.09423   -1563.1466    481.06931    248.88451   -373.22112    38614.337 
  665900    300.42848   -1538.5265    511.78818    323.70625    182.36858    38614.337 
  666000      310.217    -1476.439    496.44632    414.45182    80.166615    38614.337 
  666100    309.45951   -1495.9129    509.62509    404.75171   -814.04794    38614.337 
  666200    290.19874   -1487.2467    482.69173    299.90625   -350.95348    38614.337 
  666300    301.11202   -1497.3982    503.83978    359.95865   -267.95482    38614.337 
  666400     296.2913   -1487.8527    491.95083    335.94574   -267.71845    38614.337 
  666500    294.74075   -1524.4007    509.31487    309.79199    60.432246    38614.337 
  666600    301.33398   -1528.5483    494.95076    320.91729    592.76703    38614.337 
  666700    306.08516   -1483.7016    500.45268    392.62273    709.44733    38614.337 
  666800    294.77818   -1474.2961    501.64345    352.39343    605.15406    38614.337 
  666900    292.61399   -1450.2918     507.1854    372.21146    1019.3218    38614.337 
  667000    310.64231   -1481.9887    494.22595    408.59349    1284.9266    38614.337 
  667100    293.23238    -1521.107    478.94097    275.93156    760.69207    38614.337 
  667200    291.63487   -1528.3716    479.39516    261.94024    961.80475    38614.337 
  667300    306.38581   -1531.6703    504.41219    349.96496    463.88447    38614.337 
  667400    290.98335   -1517.0708    481.17157    272.08882    321.32951    38614.337 
  667500    305.96506   -1542.7646    469.11785    301.68497   -127.20833    38614.337 
  667600    300.99465   -1505.2166    492.19079    339.96369    301.30773    38614.337 
  667700    293.43132   -1501.2389     501.9924    319.74537    -157.8878    38614.337 
  667800    298.47853   -1513.4466    493.19888    321.43168    143.40692    38614.337 
  667900    294.21228   -1545.2106    508.49689     285.7886   -40.855116    38614.337 
  668000    306.61677   -1515.7746    511.86056    374.34723    247.85409    38614.337 
  668100    298.95414   -1553.2811    470.03944    260.57555    538.94598    38614.337 
  668200    300.38078   -1528.3505    497.11617    318.99576    814.28468    38614.337 
  668300    304.70397   -1550.1172    477.34246     296.8884    822.19976    38614.337 
  668400    293.51552   -1550.1789    476.02467    245.21607    109.02998    38614.337 
  668500     306.4906   -1502.0273    494.86408    370.53083     -69.7483    38614.337 
  668600    292.66645   -1517.9767    498.89983    296.47689    305.04891    38614.337 
  668700     298.6947   -1512.8806    493.38446    323.15495    198.56266    38614.337 
  668800    292.80048   -1560.9594    476.84533    232.04211    200.37287    38614.337 
  668900    306.97491   -1522.4674    494.40941    351.81312    371.77724    38614.337 
  669000    292.66474    -1524.876    481.38047    272.05054    518.40258    38614.337 
  669100    301.33328   -1540.0909    511.32139    325.74211    216.77223    38614.337 
  669200    294.85578   -1547.2326    470.94644    249.10869   -169.96573    38614.337 
  669300    304.82314   -1529.5438    483.88152    324.53644    502.31822    38614.337 
  669400    292.36022   -1530.8778    511.79625    295.09568   -349.12537    38614.337 
  669500    289.83533    -1552.696    481.13577    231.26744   -521.42024    38614.337 
  669600    297.77205   -1514.1254    473.87977      298.258   -887.59188    38614.337 
  669700     302.6543   -1520.6646    458.28021     298.0653   -387.86505    38614.337 
  669800    310.39443   -1530.4886    497.82129    362.57474   -204.67432    38614.337 
  669900    293.46126   -1500.5733    489.54358    308.09668    31.912635    38614.337 
  670000    293.85375   -1514.3026    483.08594    289.67406    26.615315    38614.337 
  670100    306.28606   -1522.0762     477.9661    332.66464   -172.46455    38614.337 
  670200    308.35125   -1487.9521    514.43444     412.5402    32.616719    38614.337 
  670300    301.25907   -1504.6625    521.70909    371.22467   -209.93555    38614.337 
  670400    308.25431   -1485.3739    476.07886    376.32702     -263.123    38614.337 
  670500    297.32011   -1481.5536    494.20057    349.11919    121.56158    38614.337 
  670600    291.77603   -1476.6569    506.64236    341.53664   -623.94825    38614.337 
  670700    295.64067   -1465.6725    540.09192    403.34243   -206.57204    38614.337 
  670800    299.32485    -1488.333    484.21151    341.36212   -572.92744    38614.337 
  670900    304.16592   -1510.7178    485.21987    341.74658    -663.3762    38614.337 
  671000    305.81508   -1542.1752    471.78694     304.2693   -327.52207    38614.337 
  671100    290.18522   -1545.8459    518.11292    276.66747   -772.03851    38614.337 
  671200    305.21597    -1526.309    491.54596    337.20151   -381.21068    38614.337 
  671300    309.12391   -1530.7777    522.31387    381.06723   -251.70284    38614.337 
  671400     288.3132    -1548.909    465.55207    212.62861   -192.18871    38614.337 
  671500    294.56053   -1528.0919    482.05114    278.02697   -152.91976    38614.337 
  671600    280.85104   -1524.4093    520.21547    258.24887    192.47486    38614.337 
  671700    295.97759   -1520.4525    492.10634    302.09136    35.885167    38614.337 
  671800    294.05078   -1501.3151    493.70731    314.16855   -139.24823    38614.337 
  671900    295.72191   -1500.9304     513.0074    341.36517   -533.58074    38614.337 
  672000    295.72794   -1525.8244    505.67523    309.16608   -587.21719    38614.337 
  672100    294.05118   -1516.2194    491.65496    297.21366   -938.94538    38614.337 
  672200    308.12709   -1525.7788    496.32159      355.593    -165.3986    38614.337 
  672300    301.67186   -1506.7508    510.64611    359.92888   -94.870547    38614.337 
  672400    291.34495   -1549.2502    505.63788    266.00122   -522.93762    38614.337 
  672500    298.53773   -1516.4426    481.51916    307.02199    -874.0409    38614.337 
  672600    300.94482   -1507.2052    494.54751    340.10783   -645.63822    38614.337 
  672700     291.0249   -1533.8181    478.17176    252.52853   -1271.0307    38614.337 
  672800    304.87917   -1502.1688    483.00001     351.2819   -736.78625    38614.337 
  672900    295.21578   -1468.4258    490.78975    349.37707   -294.10342    38614.337 
  673000    304.95182    -1465.421     495.1166     400.4728   -308.15869    38614.337 
  673100      301.269   -1502.9137    492.04389    343.35295   -274.90636    38614.337 
  673200    304.26658   -1481.9417    512.40017    398.15551     36.84426    38614.337 
  673300    289.39291    -1479.185    506.57733    328.23126    -171.8431    38614.337 
  673400    313.54986   -1488.4067    485.94601    406.96527   -123.42887    38614.337 
  673500      300.376   -1469.0805     518.8056    399.93375    346.18895    38614.337 
  673600    300.31607    -1488.885    509.34763    370.40186    510.36105    38614.337 
  673700     295.8095   -1473.6696    497.92279    353.93509    114.54745    38614.337 
  673800    299.90578   -1483.2011    519.37553    384.26939   -339.31157    38614.337 
  673900    299.90122   -1479.4527    479.58386     348.2056   -159.67808    38614.337 
  674000    303.99695   -1519.5216    519.01474    365.97817   -638.42358    38614.337 
  674100    309.07168   -1517.8917    491.55927    362.96384   -337.53003    38614.337 
  674200    297.91012    -1515.224    488.05717    311.95756    -602.9023    38614.337 
  674300    299.17419   -1522.7531    488.90188    310.95519   -123.41335    38614.337 
  674400    303.81497    -1550.219    495.66381    311.11184   -9.0683093    38614.337 
  674500    291.57281   -1529.9012    490.50385    271.24035   -564.91804    38614.337 
  674600    297.27903   -1521.0478    498.20886    313.44858   -295.69708    38614.337 
  674700    302.39731   -1565.1727    487.02786    281.14973   -427.08818    38614.337 
  674800    310.77217     -1537.95    493.74004     352.7301   -155.07318    38614.337 
  674900    295.74127   -1553.8479    487.70104    263.22838   -271.89373    38614.337 
  675000     306.3262   -1573.0674    490.56883    294.45651   -5.6742459    38614.337 
  675100    300.61535   -1591.1015    488.67326    248.85628    5.0795042    38614.337 
  675200    300.54883   -1570.3535    499.76297    280.39498   -714.29116    38614.337 
  675300    310.32991   -1530.8464     500.5199    364.62553    -190.5243    38614.337 
  675400    308.46471   -1553.8962    494.09632    326.76793   -784.62449    38614.337 
  675500      306.686    -1549.823    466.03633    294.78575   -1075.8632    38614.337 
  675600    296.71484   -1491.3809    502.95968    345.33027   -891.08763    38614.337 
  675700    304.30123   -1456.3254    503.42304     414.9504    -72.14174    38614.337 
  675800    307.13095   -1496.9013    500.66186    384.33308    41.304295    38614.337 
  675900    308.49503   -1486.8948     503.6132    403.42252    85.277996    38614.337 
  676000     303.1738   -1493.2742    529.81324    399.32388    217.38789    38614.337 
  676100    315.37162   -1468.9299    495.31687    444.00178    741.46007    38614.337 
  676200    299.66935   -1447.3601    520.48923    420.16131    657.32654    38614.337 
  676300    303.10532   -1492.8784    523.27576    392.87448     843.5712    38614.337 
  676400    295.78088   -1520.6886    510.04854     318.9132    149.43482    38614.337 
  676500    297.93156   -1538.9867    507.13731    307.37129    156.38084    38614.337 
  676600    295.80232   -1578.1324    507.85007    259.36735    231.99132    38614.337 
  676700    307.57075   -1540.7201    510.50373    352.33311   -76.996108    38614.337 
  676800    304.15589   -1513.7741    517.33914    370.76447    253.56354    38614.337 
  676900    303.32413   -1525.9658    489.86907    327.36389    102.48458    38614.337 
  677000    301.94984   -1521.4523    509.07921    344.90998    346.75304    38614.337 
  677100    306.55165   -1542.7326    509.00371    344.23969    232.73921    38614.337 
  677200     300.9007   -1513.6233    489.89944    328.84333    707.03636    38614.337 
  677300    298.24862   -1519.6384     501.6766    322.68412    358.62426    38614.337 
  677400    295.00422    -1530.106    493.82007    289.77618    118.66972    38614.337 
  677500    292.41609   -1527.1351    488.93168    276.22486    378.76544    38614.337 
  677600    292.22085   -1542.9198    512.85085    283.48177    424.29155    38614.337 
  677700    296.88916   -1493.2561    530.81887    372.09782    285.80737    38614.337 
  677800    286.71474   -1501.1231    511.13675    298.81409    120.10951    38614.337 
  677900    303.39795   -1546.7386    488.41572     305.4696   -310.93081    38614.337 
  678000    288.63706   -1535.1081    522.49381     284.8271     345.1198    38614.337 
  678100    292.65785   -1522.6213    494.90506    287.79881   -959.35027    38614.337 
  678200    305.16531   -1506.1512    491.70258    357.28828   -799.63094    38614.337 
  678300    301.71592   -1477.6732    518.63624    397.19468   -533.05895    38614.337 
  678400    308.70299   -1519.7303    509.96256    377.87123   -444.51306    38614.337 
  678500    296.43175   -1543.2179    499.97021    289.23123   -356.13801    38614.337 
  678600    302.46105   -1534.5411    492.82138    317.86128   -287.14953    38614.337 
  678700    307.96164   -1542.9774    516.05964     357.3888    14.424573    38614.337 
  678800    295.34476     -1527.12    494.78245    295.25535   -138.87666    38614.337 
  678900    287.09275   -1504.9873    508.34768    293.85993   -113.24736    38614.337 
  679000    304.45167   -1526.7692    484.51243    326.27221    649.34788    38614.337 
  679100    297.65479   -1502.8855    506.82559    341.91668    719.85791    38614.337 
  679200    303.29117   -1533.7717    512.56726    342.10799    749.66607    38614.337 
  679300    306.16314   -1476.1192     498.1806    398.28356    480.44701    38614.337 
  679400    305.17745   -1544.7728    493.46695    320.48558    749.41406    38614.337 
  679500    292.15712   -1556.9072    501.03491    257.39189    448.55766    38614.337 
  679600    299.96789   -1521.3202    499.66587    326.71978    679.02041    38614.337 
  679700    298.68605    -1509.583    506.00093    339.03012    5.5984141    38614.337 
  679800    290.22217   -1524.2107    506.90289    287.25871   -424.04768    38614.337 
  679900    304.47927   -1540.9478    517.57638    345.28157   -208.07436    38614.337 
  680000    295.95473   -1549.9906    489.07558    269.41968    246.48203    38614.337 
  680100     305.8248   -1540.7941    529.19522    363.10247    20.260103    38614.337 
  680200    296.97991   -1570.9952    493.96985    257.91762   -119.80593    38614.337 
  680300      299.165   -1546.2428    509.56061    308.08291    -136.0595    38614.337 
  680400    294.85672    -1545.821    497.60242    277.18054    64.607779    38614.337 
  680500    309.42748    -1583.135    508.48766    316.24824    364.15077    38614.337 
  680600    283.93974   -1563.3023     516.0276    229.05196   -127.34447    38614.337 
  680700    301.30899   -1523.3492    502.56973    333.62293     64.32916    38614.337 
  680800     309.2696   -1514.0018    494.74457     370.9287    442.40564    38614.337 
  680900    303.33344   -1535.6006    523.32653    351.22839    371.94481    38614.337 
  681000     304.1088    -1491.096    524.90936    400.80111   -76.249195    38614.337 
  681100    300.02938   -1517.1287     523.7665    355.28832   -337.56802    38614.337 
  681200    306.98829   -1499.7239    506.04492    386.25227   -205.46076    38614.337 
  681300    294.47655   -1499.4735    518.58973    342.80644   -101.14814    38614.337 
  681400    306.22963   -1507.3937    490.76149    359.88883   -145.44077    38614.337 
  681500    300.64646   -1466.3389    516.49697    401.58235    231.44557    38614.337 
  681600    291.59399   -1532.8663    518.61011     296.4767    231.19664    38614.337 
  681700    294.17708   -1549.4788    524.42369    297.28898    171.47197    38614.337 
  681800    313.91463   -1572.6752     524.5081    362.89848    334.31338    38614.337 
  681900    293.57117   -1555.2757    492.04532    256.39009    422.90858    38614.337 
  682000    293.21452   -1501.3571     537.8005    354.46076    320.45056    38614.337 
  682100    297.33387   -1523.2379    524.75184    338.04797    240.91444    38614.337 
  682200    298.57879   -1490.3786    494.78873    346.54017   -228.96529    38614.337 
  682300    296.10443   -1465.1022    520.59522    386.50072   -847.10566    38614.337 
  682400     297.5125   -1503.8184    514.05407    347.57272   -585.87979    38614.337 
  682500    298.69013   -1490.6252     522.0349    374.04022    -312.6987    38614.337 
  682600    303.40677   -1490.4206     544.9358    418.34726   -233.63309    38614.337 
  682700    296.44968   -1563.9248    506.27039    274.90513   -476.06001    38614.337 
  682800    294.41863   -1574.5101    490.79364     239.7134    220.72001    38614.337 
  682900    294.87071   -1557.4403    495.57159    263.59331   -29.771018    38614.337 
  683000    304.86846   -1555.9075    514.28061    328.77558   -91.888424    38614.337 
  683100    299.23024   -1522.4884    503.82862    326.39858    349.37622    38614.337 
  683200    285.66051   -1542.2117    512.25263    254.10253      150.156    38614.337 
  683300    293.20608   -1550.7203    529.20579    296.46487    496.59936    38614.337 
  683400    306.45273   -1544.4728    499.68553    332.73666    786.31386    38614.337 
  683500    306.30514   -1574.1422     477.7216    280.43985    604.12457    38614.337 
  683600    307.80738   -1520.4163    507.37682    370.57363     167.0651    38614.337 
  683700    292.22601   -1580.5245    492.18387    225.23334    387.29682    38614.337 
  683800    306.77611   -1598.4902    476.61383     257.1011   -245.21193    38614.337 
  683900    304.22911   -1516.7048    530.66599    381.48979    36.636326    38614.337 
  684000    295.29067   -1565.7919    506.25454    267.81239    92.109433    38614.337 
  684100    311.94125   -1548.5415    492.57553    346.22917    143.21132    38614.337 
  684200    295.65312   -1556.8937    501.07601     273.1613   -383.45223    38614.337 
  684300    298.98444   -1558.2777     506.2983    291.97407   -256.92518    38614.337 
  684400    295.65206   -1573.9258    495.72121    250.76958    42.305923    38614.337 
  684500    297.61735   -1541.9564    498.30062    294.15252   -214.77848    38614.337 
  684600    302.73912    -1547.812    509.67954    322.69853   -103.23369    38614.337 
  684700    293.24079   -1531.8955    509.64603    295.88596    271.60449    38614.337 
  684800    305.78155   -1533.3716    499.06571    340.20095    -161.8036    38614.337 
  684900    296.54696   -1574.0726    500.51506     259.4393     22.74383    38614.337 
  685000    289.62197   -1566.1744    498.94917    234.64331   -105.04293    38614.337 
  685100    294.14929   -1495.7036    510.16224    336.67776   -199.42004    38614.337 
  685200    292.97606   -1527.8413    505.02932    294.13347     59.08678    38614.337 
  685300    299.96247   -1530.9417     533.1105    350.51858   -442.84894    38614.337 
  685400    301.57613   -1512.2753    501.40115    344.72912   -569.46992    38614.337 
  685500     297.1605   -1520.0691    520.42101    336.10664   -174.69785    38614.337 
  685600    320.53158   -1524.7746    519.77879    435.81339   -469.65547    38614.337 
  685700    291.07457   -1523.4133    516.84721    301.83201     -276.916    38614.337 
  685800    297.84401   -1515.9579    496.42556    319.29484   -19.592788    38614.337 
  685900    305.95884    -1517.132    518.79349    376.96527    49.122212    38614.337 
  686000    302.33793    -1476.214    513.31548    396.12906    -384.8773    38614.337 
  686100      301.244   -1496.9903    521.60755    378.72757    32.560136    38614.337 
  686200    300.19921   -1506.8748    515.65387    358.19302   -345.71405    38614.337 
  686300    305.47455   -1533.8917     511.3046    350.53981   -191.05243    38614.337 
  686400    296.67906   -1536.6913    508.74994     305.6493    215.01901    38614.337 
  686500       299.39   -1509.8547    504.62715    340.54897    281.64343    38614.337 
  686600    303.35355   -1505.1584    500.13838    358.57288    365.55934    38614.337 
  686700    297.84594   -1492.7318    506.12947     352.2335     165.8546    38614.337 
  686800    300.22824   -1488.4039    513.18433    374.32488    138.62905    38614.337 
  686900    305.39909   -1491.7738    502.86048    383.87439    116.36736    38614.337 
  687000    310.65971   -1497.6903    493.83008    392.57432    104.01887    38614.337 
  687100    307.13117   -1502.9026    527.73852    405.40937   -106.98782    38614.337 
  687200    304.73808   -1522.3623    496.58396     344.0381   -278.92457    38614.337 
  687300     295.3505   -1538.1049     459.6999    249.21362    72.183789    38614.337 
  687400    302.58799   -1524.9711    495.74904    330.92956   -842.96667    38614.337 
  687500     296.1485   -1514.5778     499.8703    316.49822    60.179527    38614.337 
  687600    296.25648   -1514.0086    501.79634    319.47889    133.34174    38614.337 
  687700    298.90325    -1505.698    520.76227    358.65281   -118.52184    38614.337 
  687800    297.57537   -1508.2574     521.0463    350.40849    125.83373    38614.337 
  687900    293.49195    -1504.011    481.96753    297.22097   -237.24941    38614.337 
  688000    298.82125   -1545.3349    516.95582    314.84084   -526.82432    38614.337 
  688100    300.92599     -1600.41    480.66997     232.9408    -467.8556    38614.337 
  688200    295.11496   -1556.7537    491.00303    260.80923   -304.66208    38614.337 
  688300    305.89953   -1517.2967    509.66135    367.40189   -391.90111    38614.337 
  688400    292.76212   -1587.0235    495.58753     224.5478   -11.920705    38614.337 
  688500    299.71412   -1561.4727    500.98078    286.74147   -237.24352    38614.337 
  688600    297.54551   -1522.7556    486.80946    301.53923   -298.82298    38614.337 
  688700    290.91828   -1525.2396    498.46358    280.91955    7.7140984    38614.337 
  688800    296.59514   -1506.0699    502.11566    329.25922   -252.33738    38614.337 
  688900     304.5336   -1506.3489    489.03657    351.58491   -103.48516    38614.337 
  689000    291.87126   -1485.0146    505.67986     332.6446    36.255333    38614.337 
  689100    301.21984    -1522.631    508.56209    339.93281   -243.18649    38614.337 
  689200    301.19855    -1536.834    495.28132    312.35334     104.9812    38614.337 
  689300    301.98685   -1528.1388    495.62352     324.9342    239.90056    38614.337 
  689400    300.23304   -1512.3367    516.01152    353.24085    -19.70651    38614.337 
  689500    307.37919   -1518.6977    505.37927    368.36991   -508.85811    38614.337 
  689600    297.85395   -1533.3764    494.74449    300.23996    257.40219    38614.337 
  689700    305.48362   -1555.5176    490.79223     308.4423    215.66582    38614.337 
  689800     308.7155   -1535.3714    487.83791    340.16163     262.6435    38614.337 
  689900    299.23022   -1546.8012    500.04603    298.30315   -285.35586    38614.337 
  690000    303.05481   -1552.4577    487.56239    297.35474    170.61773    38614.337 
  690100    295.81964   -1596.9162    494.03719    226.84846   -53.347256    38614.337 
  690200      316.163   -1554.1556    483.95599     350.9725   -22.149177    38614.337 
  690300    302.20269   -1553.7943    468.73685    273.36221   -323.14142    38614.337 
  690400    290.05172   -1535.5031    484.03531    252.33252   -29.128311    38614.337 
  690500    298.91948   -1555.2857    483.74868    272.12441   -27.920047    38614.337 
  690600    296.27663   -1555.1139    482.06617    258.73398   -387.56938    38614.337 
  690700    290.55499   -1551.2813     497.6935    252.47475   -1073.2802    38614.337 
  690800     314.5508   -1505.9935    511.43292    419.36469    -463.1854    38614.337 
  690900    300.76271    -1566.067    482.44912    268.32902   -398.09433    38614.337 
  691000    305.53483   -1549.0468    497.48004    321.83104   -411.10045    38614.337 
  691100    303.26693   -1535.9436     488.6629    315.92287   -210.05415    38614.337 
  691200    297.34996   -1501.8067    495.23552    330.03525   -29.693921    38614.337 
  691300    305.94458   -1510.9738    509.42381    373.68978    303.12695    38614.337 
  691400    302.75487    -1549.994    480.04996    290.95777    571.88321    38614.337 
  691500     309.7701   -1530.2088    480.39687    342.62375    4.4960664    38614.337 
  691600    306.41097   -1501.0762    532.17389    408.43389    514.66608    38614.337 
  691700    292.28107   -1527.1102    516.25388    302.96508   -73.624473    38614.337 
  691800    304.00151   -1520.5212    480.42585     326.4101    -325.9627    38614.337 
  691900    295.73653    -1493.293    494.18062    330.24153     90.42692    38614.337 
  692000    309.62412   -1460.0091    514.47376    446.24408   -192.37897    38614.337 
  692100     307.2085   -1487.3562    511.06445    404.62937    150.69406    38614.337 
  692200    293.59664   -1579.4102    481.60566    221.93039    241.01947    38614.337 
  692300     302.8597   -1541.3793    530.14833    350.14204    138.27639    38614.337 
  692400    298.49484   -1550.6438     474.8853    265.99421    34.482958    38614.337 
  692500    299.01461   -1516.6715    496.07427    323.49181   -17.060182    38614.337 
  692600    302.96154   -1525.8915    493.93987    329.87916   -61.773063    38614.337 
  692700    301.95378   -1500.0205    506.16771    363.44798    505.65435    38614.337 
  692800    300.87089   -1476.8058    520.82016     396.4475    233.81955    38614.337 
  692900    297.77335   -1499.5449    496.16564     335.1303    252.36152    38614.337 
  693000    301.34546   -1465.1545    502.23136    391.64332    339.40422    38614.337 
  693100    300.89937   -1464.5871     494.3182    382.29229    -391.6394    38614.337 
  693200    292.73527   -1484.3053    514.96884    346.52663   -38.774763    38614.337 
  693300    300.89341   -1525.4739    478.96343    306.02389    460.89208    38614.337 
  693400     301.2763   -1488.4623    511.41297    377.20623   -16.171588    38614.337 
  693500    304.46769   -1485.2663    494.52641    377.86108    280.31747    38614.337 
  693600     303.4111   -1512.6241      470.828    322.05542    210.00016    38614.337 
  693700    301.36046    -1535.324    527.25063    346.56042   -14.126687    38614.337 
  693800    293.06059   -1525.3387    508.22062    300.20737     548.8637    38614.337 
  693900    295.66486   -1522.0863     484.4085    291.35393    655.55127    38614.337 
  694000    295.81232   -1521.1517    516.29183     324.8347     527.3542    38614.337 
  694100     309.3689   -1485.1053    515.08704    420.61402    341.54572    38614.337 
  694200    312.23526   -1469.6465    488.43585    422.30608    78.223128    38614.337 
  694300    299.03904   -1448.1901    502.56925    398.57801   -229.76201    38614.337 
  694400    307.36369   -1446.3082    502.84366     438.1542   -451.06152    38614.337 
  694500     287.7381   -1503.1478      497.119    287.37171   -379.38021    38614.337 
  694600    289.68259   -1497.7502    497.52741    301.91828   -252.24491    38614.337 
  694700    299.81759   -1498.9608    501.89828    350.63595    350.91782    38614.337 
  694800    294.32931   -1519.0141    498.15158    302.16585   -303.59412    38614.337 
  694900    301.70395   -1475.7003    506.12992    386.60747   -31.379449    38614.337 
  695000    300.80334    -1518.505    502.45704    336.08157   -452.50364    38614.337 
  695100    305.88601   -1535.0845    492.26594    332.15789   -351.38844    38614.337 
  695200    297.73407   -1523.5317    510.07296    324.87419    305.08686    38614.337 
  695300    296.00274   -1499.3658    470.67924    301.86398       176.47    38614.337 
  695400    305.69904   -1546.0958    480.20158    308.24177    84.493011    38614.337 
  695500    307.72342   -1538.1188    473.52328    318.64023    645.56152    38614.337 
  695600    299.59782   -1555.0193    500.90917    292.60055    377.01959    38614.337 
  695700    295.72894   -1551.7592    518.12212    295.68271    404.81331    38614.337 
  695800    297.48188   -1545.5518    515.36652    307.01411    162.56053    38614.337 
  695900    295.51989   -1491.8693    513.82387    350.33466     323.1882    38614.337 
  696000    294.95333    -1507.141    489.71319    308.40556    784.61951    38614.337 
  696100    294.39217   -1491.4365    493.94157    325.81605    597.21153    38614.337 
  696200    297.62526   -1506.7042    496.52587    327.66556     276.8781    38614.337 
  696300    303.37564   -1475.6422    497.61314     385.6631    361.34855    38614.337 
  696400    287.41019   -1479.6827    500.24457    312.48836   -154.30327    38614.337 
  696500    300.62785   -1491.2814    521.79556    381.85487   -171.46788    38614.337 
  696600    306.75569   -1517.7565    493.50589    354.63512   -644.74436    38614.337 
  696700    299.35996   -1538.5773    488.02499    295.08916    -800.7235    38614.337 
  696800     303.8287   -1486.9428    492.75526    371.54119   -775.02205    38614.337 
  696900    300.40111   -1535.0522    446.49723    261.76651   -706.33757    38614.337 
  697000    290.22689   -1515.6946    500.04094    288.93413   -926.29477    38614.337 
  697100    298.82029   -1502.7676    510.72299    351.17104   -715.42412    38614.337 
  697200    306.25636   -1500.6558    507.03729    383.02275    278.61348    38614.337 
  697300    296.98592   -1541.9425    496.03631    289.06381    515.84859    38614.337 
  697400    304.46698   -1558.2007    497.13819    307.53534    333.92328    38614.337 
  697500      295.266   -1554.2752    495.29464    268.25828    73.110893    38614.337 
  697600    307.54176   -1561.2028    500.26186    321.47822    183.67007    38614.337 
  697700    295.29146   -1534.7067    487.62148    280.26806   -3.2884819    38614.337 
  697800     291.4074   -1494.4112    491.14394    306.62693   -488.79032    38614.337 
  697900    304.26841   -1508.8064    513.09798    371.99684   -525.62385    38614.337 
  698000    293.96553   -1549.2107    509.60485     281.7873   -530.78269    38614.337 
  698100    303.50455   -1535.8296    495.31181    323.75382   -104.87809    38614.337 
  698200    297.34797   -1497.6729    492.45211    331.37662   -511.34546    38614.337 
  698300    296.89078   -1507.5652    483.34014    310.31722   -648.41163    38614.337 
  698400    309.24236   -1545.0585    462.53305      307.538    32.200621    38614.337 
  698500     293.9488   -1519.9227    512.33377    313.72905   -319.10735    38614.337 
  698600    300.12311   -1519.2509    484.90198    314.72288   -604.92674    38614.337 
  698700    297.80805    -1546.773    486.42315    278.31566   -929.25413    38614.337 
  698800    299.14026   -1556.8482    503.99732    291.80302    103.20116    38614.337 
  698900    296.79308   -1539.9815    496.18892    290.31056    117.35794    38614.337 
  699000    290.31953   -1537.7379    514.62389    281.89017   -86.155256    38614.337 
  699100    288.82041   -1531.8546    501.40121    267.81216    174.14546    38614.337 
  699200    301.34707    -1548.031    495.77752    302.32017   -9.2844971    38614.337 
  699300    301.00104   -1530.8035    485.31225    307.52698   -252.79787    38614.337 
  699400      305.361   -1498.4824    500.01194      374.146   -291.66658    38614.337 
  699500    303.64938   -1520.1771     453.6588    298.40432   -312.76729    38614.337 
  699600    293.30941    -1489.131    517.96828    347.28118   -486.45126    38614.337 
  699700    299.28366   -1510.2625    525.96841    361.00437   -401.89563    38614.337 
  699800    291.38815   -1521.8898    483.31486    271.23276   -189.00608    38614.337 
  699900      305.937   -1536.5179    475.41083    314.09853    187.85279    38614.337 
  700000    302.64358   -1529.7323    488.95232    319.62151    417.08441    38614.337 
  700100    297.84663   -1505.0219     523.9699    357.78692    352.56921    38614.337 
  700200    301.87502   -1514.9733    503.44897     345.4225    144.17604    38614.337 
  700300    306.81758   -1488.8051    480.80017    371.15904    662.09692    38614.337 
  700400    306.69564    -1509.165    508.78969    378.24044     328.6274    38614.337 
  700500    294.16163   -1505.6646    527.28321    343.89322    686.90272    38614.337 
  700600    300.21679   -1464.2721    507.84476    393.06559    178.23272    38614.337 
  700700    302.34492   -1523.3133    482.45438    318.20012   -325.22999    38614.337 
  700800    293.27064   -1478.4446    484.30849    324.13345   -307.10372    38614.337 
  700900    303.49113   -1493.8806    493.00036    363.33105   -268.56945    38614.337 
  701000    305.85637   -1544.3462    486.01708    316.51411   -452.92293    38614.337 
  701100    291.81226   -1507.9185    487.79011     291.5857   -423.63388    38614.337 
  701200    302.03861   -1495.6031    514.24183    376.32084   -248.65359    38614.337 
  701300    291.35504   -1533.8853       483.68    259.45355   -53.801788    38614.337 
  701400     296.7896   -1496.9119    497.32064    334.49624    311.52277    38614.337 
  701500      306.177   -1517.5445    498.00244    356.74238    316.02975    38614.337 
  701600    296.56362    -1471.624     496.5159    357.96358    280.10109    38614.337 
  701700    283.64201   -1485.8028    514.06346    303.24898    583.55287    38614.337 
  701800    302.54709   -1495.5759    517.75041    382.14229    553.88077    38614.337 
  701900    306.97387   -1525.4122     512.3034    366.75763    1158.2901    38614.337 
  702000    310.27639   -1525.7197     496.9105    365.90232     306.8528    38614.337 
  702100    298.39188   -1544.0342    488.06518    285.32087    590.33031    38614.337 
  702200    294.09887   -1525.0832    480.86341    277.77274    88.398408    38614.337 
  702300    310.43062   -1534.6722     507.5561     368.2886   -127.75296    38614.337 
  702400    296.06282   -1519.0072     470.2986    282.11197   -63.535402    38614.337 
  702500    297.30874   -1508.7495    503.44227    331.11384   -51.561229    38614.337 
  702600    304.50695   -1484.4116    495.86238    380.22822       34.445    38614.337 
  702700    301.06192   -1522.7347    501.56356    332.12076    215.57479    38614.337 
  702800    294.21124   -1540.3838    507.90528    290.01914     305.6046    38614.337 
  702900    303.92171    -1489.622    518.31782    394.84256    22.618402    38614.337 
  703000    302.36651   -1484.2881    513.27606    388.14407    189.71394    38614.337 
  703100    309.75394   -1496.0893    481.33572    377.60947     426.5599    38614.337 
  703200    309.17371   -1492.4537    509.14238    406.44352   -133.84321    38614.337 
  703300    288.75095   -1456.8891    499.99946    341.06372   -515.64975    38614.337 
  703400    300.33336   -1487.8851    507.44465    369.57647    -172.5007    38614.337 
  703500     298.9699   -1480.5008     507.1058     370.4931    326.68503    38614.337 
  703600    288.53257   -1491.2425      528.283    334.01214    398.78093    38614.337 
  703700    298.57844   -1496.1876    518.31725    364.25813   -171.55014    38614.337 
  703800    293.55394   -1491.7292    492.48872    320.30251    519.22104    38614.337 
  703900    297.30299   -1468.7214    515.72976    383.40356    396.34633    38614.337 
  704000    296.42911   -1445.8789    531.90571    418.49391    9.2728808    38614.337 
  704100     295.4724   -1460.0482    482.25465    350.37307   -385.24236    38614.337 
  704200    306.69527   -1439.1175    519.60793    459.10457   -3.8429841    38614.337 
  704300       293.65   -1451.5205     506.2708    374.72519   -498.67658    38614.337 
  704400    305.82908   -1483.3717    505.00761    396.35645   -572.46066    38614.337 
  704500    301.73099   -1467.3555    504.03581    392.97972   -1006.3707    38614.337 
  704600    305.67054   -1485.6912    479.97698    368.29363   -428.37186    38614.337 
  704700    289.07694   -1514.9779    526.11625    310.55695   -234.13408    38614.337 
  704800     297.1022   -1482.5341    496.67018    349.62877   -333.05838    38614.337 
  704900    315.92242   -1479.0004    491.46451    432.55485    243.30738    38614.337 
  705000    293.45857   -1501.4729    495.21154    312.85299    150.88717    38614.337 
  705100    300.84787    -1485.486    494.91882     361.7625   -385.68932    38614.337 
  705200    290.41841   -1527.0946    478.54721    256.90122    20.462761    38614.337 
  705300    303.12603   -1497.3153    508.14495    373.39982   -76.036874    38614.337 
  705400    302.32149   -1445.1785    495.17386    408.94904   -241.78294    38614.337 
  705500    302.50163   -1434.7005    507.61061    432.67353   -538.33466    38614.337 
  705600    285.56833   -1479.1461    502.87887    307.37998   -48.129145    38614.337 
  705700       291.85   -1440.5274    501.95224    373.30854   -146.56658    38614.337 
  705800    294.80866   -1511.3895    481.94294    295.73648   -258.38631    38614.337 
  705900    296.82465   -1482.9878    499.93136     351.1886   -76.428386    38614.337 
  706000    302.65355   -1485.7617     502.9032    377.58787    215.97261    38614.337 
  706100    303.74335   -1489.2162    532.02638    408.15527    507.88276    38614.337 
  706200    302.93604   -1469.2232     499.7501    392.24298   -193.56714    38614.337 
  706300    298.07985   -1500.3966    494.85929    334.34994    382.34553    38614.337 
  706400    302.61544   -1503.3621    500.83335    357.74623    383.92808    38614.337 
  706500    297.94173    -1481.015     505.8776    364.12904   -384.47346    38614.337 
  706600    291.30168   -1498.5087     494.5455    305.45578   -279.18419    38614.337 
  706700    300.54622   -1513.7688    510.80204    348.00697   -603.25548    38614.337 
  706800    311.25673   -1513.3423    483.85193    369.62782    -151.9975    38614.337 
  706900    299.79288   -1528.6795    492.83592    311.74384   -325.49481    38614.337 
  707000    287.51572   -1513.6584    514.70569     293.4481    290.71327    38614.337 
  707100    297.76226   -1497.4599     463.3171    304.31685    470.74652    38614.337 
  707200    299.11207   -1512.4987    519.34508    351.37351    705.38219    38614.337 
  707300    306.69848   -1540.8178    502.08556    339.89634    294.26829    38614.337 
  707400     303.4423   -1495.9346    502.63433    370.69161    741.74296    38614.337 
  707500    304.43834   -1481.0185    499.75853    387.20911    216.05977    38614.337 
  707600    294.99972   -1512.5631    499.74431    313.22309    232.13929    38614.337 
  707700    302.86297   -1523.5054    502.82359    340.70589   -170.91843    38614.337 
  707800    307.14572    -1482.791    481.56127    379.40923   -256.47066    38614.337 
  707900    300.85096   -1519.8777    494.00777    326.47368   -147.29212    38614.337 
  708000    290.90929   -1519.2205    510.99111     299.4258     619.4574    38614.337 
  708100    296.14629   -1542.8899    494.71984    283.02573    415.59104    38614.337 
  708200    300.85164   -1540.6589    484.56926    296.25697    286.84807    38614.337 
  708300    302.66349   -1534.5751    470.31449    296.23038   -90.832134    38614.337 
  708400    301.49337   -1549.1805    474.91075    280.96151   -371.66179    38614.337 
  708500     304.0144   -1519.2615    501.93526    349.23721    386.31067    38614.337 
  708600    288.66874   -1533.6326    500.30741    264.25854    -289.6129    38614.337 
  708700    297.62518   -1487.2356    520.43623    371.04413   -175.13149    38614.337 
  708800    285.94239   -1518.5525    502.35006     269.1262   -245.86113    38614.337 
  708900    303.88102   -1514.8127    497.23697    348.38816   -731.52652    38614.337 
  709000    310.77033   -1539.5438    491.15439    348.54237   -946.81167    38614.337 
  709100     299.8756   -1468.6896    532.73587    412.00551   -262.40077    38614.337 
  709200    307.25694   -1509.0234    503.95715    376.07257   -495.80912    38614.337 
  709300    302.71562   -1516.6819     477.8642    321.90763   -87.104259    38614.337 
  709400    304.82164   -1520.4943    498.02567    347.72339   -158.59708    38614.337 
  709500    316.51203   -1504.8538    487.60514    405.49238   -128.56454    38614.337 
  709600    286.75658   -1520.2865     517.9013    286.60323    140.14907    38614.337 
  709700    301.50763   -1524.5527    471.12738    301.87005   -140.12003    38614.337 
  709800    304.59565    -1527.318    527.08585    368.94409   -88.864772    38614.337 
  709900    298.41448   -1509.2291    484.61094    316.77333   -27.773851    38614.337 
  710000    304.20524    -1515.186    527.16544    379.40072    848.27675    38614.337 
  710100    292.71015   -1467.3671    495.35786    343.74088    194.22783    38614.337 
  710200    295.63447   -1468.5808    507.62247    367.93683    415.53854    38614.337 
  710300    306.37618   -1501.8798    505.87231    381.17231    118.46302    38614.337 
  710400    297.88263   -1488.4874    490.00367    340.51705    -78.17052    38614.337 
  710500    299.24666   -1479.8855    514.58813    379.83484    50.450746    38614.337 
  710600    303.45256   -1474.3451    509.65862    399.35147    417.08336    38614.337 
  710700    313.04213   -1542.8196    486.82272    351.14681    807.90729    38614.337 
  710800    298.23725    -1532.088    490.98914    299.49596     835.1835    38614.337 
  710900    280.47896    -1530.237    484.40209    214.93524    20.678408    38614.337 
  711000    291.15755   -1516.6143    493.24427    285.40107     82.34677    38614.337 
  711100    294.86058   -1526.7319    514.35635    313.04095    30.173387    38614.337 
  711200    310.94647   -1512.4744    487.56126    372.81038    453.58685    38614.337 
  711300    305.76128   -1487.8822     492.3397    378.87326    847.67078    38614.337 
  711400     308.4086   -1501.0489    487.68694    372.95368    470.20636    38614.337 
  711500    301.99521   -1494.1872    486.02589     349.3258     212.0548    38614.337 
  711600    304.86159   -1500.7999    497.07977    366.65147    239.87114    38614.337 
  711700    301.39649   -1520.5542    511.84407    346.08565    608.40253    38614.337 
  711800    311.63728   -1493.0032    505.63688    413.46241     508.7296    38614.337 
  711900    291.90515   -1512.1227    523.65986    323.66875    670.92265    38614.337 
  712000    296.41308   -1480.9868    501.83578      353.244    296.51637    38614.337 
  712100    295.95388   -1444.0206    504.61327    390.92362   -116.15706    38614.337 
  712200    301.51704   -1492.7812    495.83417    358.39061   -236.40896    38614.337 
  712300    295.42157    -1539.298     475.5893    264.22948   -385.47674    38614.337 
  712400    305.96938   -1520.8162    478.78902    333.32399   -123.54462    38614.337 
  712500    306.24168   -1466.2104    523.50694    433.87171   -540.38042    38614.337 
  712600    310.89882   -1500.8841    513.42385    410.04904   -424.67459    38614.337 
  712700    301.84189   -1518.3939    493.62335    332.02729   -136.53505    38614.337 
  712800    306.89871   -1541.0483    509.02922    347.50958    525.94501    38614.337 
  712900    291.91666   -1487.2854    493.30098    318.19893     100.4345    38614.337 
  713000     295.2068    -1500.466    503.63213    330.13887   -123.90874    38614.337 
  713100    302.77647   -1506.6128    473.70676    328.09289    358.42489    38614.337 
  713200    295.44492   -1481.7794    474.83632    321.09999   -561.34426    38614.337 
  713300    300.61827   -1498.9318    514.94803    367.31386   -486.65769    38614.337 
  713400    306.83495   -1488.7051    503.43246    393.96932    64.793221    38614.337 
  713500    292.50126   -1503.1436    506.59302     318.2606    319.46639    38614.337 
  713600    295.13009   -1473.8287    499.22208    352.02125   -193.46584    38614.337 
  713700    297.10948   -1475.9516    501.28062    360.85441    401.88894    38614.337 
  713800    296.95767   -1461.6148    494.31685    367.54506   -44.492617    38614.337 
  713900    288.50523    -1471.569    520.06902    345.34877    611.55911    38614.337 
  714000    308.75361   -1477.5883    496.18676    406.46495    227.86851    38614.337 
  714100    305.49946   -1484.4424    473.95597    362.75243    120.00267    38614.337 
  714200    297.81875   -1547.7349    471.99488    262.97356     275.8468    38614.337 
  714300    294.81652   -1513.0837    476.41707    288.55173    306.54164    38614.337 
  714400    299.77452   -1506.8176    502.38635    343.07366    490.95269    38614.337 
  714500    306.63235   -1512.1514    485.66749    351.84735    238.67928    38614.337 
  714600    293.96901   -1514.9635    501.98258    308.42789    15.089248    38614.337 
  714700    292.52703   -1522.6853    490.61042    282.85214   -142.39796    38614.337 
  714800    299.11564   -1514.4879    489.60055    319.65588    172.39912    38614.337 
  714900    297.23738   -1484.2238    508.60804    360.48458    711.47303    38614.337 
  715000    291.44862   -1507.4514    457.98533    260.61341    268.51389    38614.337 
  715100    304.55039   -1497.5824    498.30072    369.69109    420.20735    38614.337 
  715200    300.60035   -1539.7125    454.74266    266.24726    73.481757    38614.337 
  715300    294.73903   -1522.9964    490.69473    292.56837   -85.019458    38614.337 
  715400    308.86113   -1538.1195    474.19299    324.42331   -29.069813    38614.337 
  715500    310.89776   -1556.0816    474.51691    315.93992    -212.4929    38614.337 
  715600    301.08181    -1517.594    504.01298    339.80028     26.79498    38614.337 
  715700    306.74504   -1543.8664    462.59912    297.57057    129.09332    38614.337 
  715800    295.75113   -1508.1276    486.18871    307.48063     26.18181    38614.337 
  715900     296.5353   -1506.1429    503.72762    330.52918   -10.909896    38614.337 
  716000    308.52326   -1545.0457    468.84627    310.63159       210.35    38614.337 
  716100    302.77429   -1519.0998    479.62741    321.51668   -578.09983    38614.337 
  716200    304.53491    -1512.012    492.31964     349.2108   -26.993001    38614.337 
  716300    305.59425   -1459.6761    469.41078    383.39961     535.0989    38614.337 
  716400    310.88046   -1498.9107    464.79736    363.31352    617.02595    38614.337 
  716500    294.87846   -1447.1176    516.56439    394.94359    1019.0415    38614.337 
  716600    305.79318   -1461.3345    502.55571    415.78036     1312.864    38614.337 
  716700    300.69479   -1455.7397    494.52878    390.43071    1426.4311    38614.337 
  716800     309.3748   -1476.5869    493.11172    407.18357    1156.8483    38614.337 
  716900    294.93282    -1462.682    518.27991    381.33914    816.07047    38614.337 
  717000    307.89838   -1429.5838    507.77662    462.21495    414.70675    38614.337 
  717100    299.21806   -1413.8162    484.65523    415.84263    614.28778    38614.337 
  717200    302.07021   -1427.7041    473.53291    403.65303    196.73589    38614.337 
  717300     298.1641   -1435.4853    501.91589     406.6966   -182.12206    38614.337 
  717400    295.54609   -1421.9774    496.35074    402.87123   -685.43739    38614.337 
  717500    302.73156   -1436.3202    512.40436    436.88115   -874.20968    38614.337 
  717600    303.78711   -1478.0616    481.58367     369.0638   -224.92131    38614.337 
  717700    295.19795   -1468.4934    481.98978    340.42937   -754.10253    38614.337 
  717800    297.37119   -1448.5245    512.98492    401.16219    2.3672721    38614.337 
  717900     293.8914   -1467.0912    501.35458    355.32332   -56.354986    38614.337 
  718000     306.0956   -1444.7916    499.72405    430.85098    31.361555    38614.337 
  718100        303.6   -1428.0321    500.54829    437.21691    137.65286    38614.337 
  718200    308.43575   -1501.9951    488.70328    373.14589   -185.61662    38614.337 
  718300    294.16174   -1493.4803    498.01819    326.81304    371.38469    38614.337 
  718400    303.83565   -1494.3785     468.2794    339.66086   -120.72022    38614.337 
  718500    292.88271   -1513.7984    482.87495    285.60231      158.591    38614.337 
  718600    301.82402   -1485.0467    478.16503    349.83589    166.20956    38614.337 
  718700    291.07131   -1460.2909    505.25601     353.3486    53.605411    38614.337 
  718800       311.57   -1507.3688    484.64818    377.80575    118.83939    38614.337 
  718900    301.20367    -1476.953    473.60371    350.57974    40.250844    38614.337 
  719000    292.34079   -1470.2093    472.18532    316.06585   -435.14049    38614.337 
  719100    290.71657   -1489.0909    506.61055    324.30849      68.7259    38614.337 
  719200    308.49616   -1485.1063    489.36309    390.96606    997.81571    38614.337 
  719300    299.60582   -1483.7645    496.11835    359.10045    1230.0659    38614.337 
  719400    312.19284   -1493.7217    491.86518    401.46953    392.54158    38614.337 
  719500    297.79365   -1497.3615    491.71845    332.95776    690.38003    38614.337 
  719600    289.67593   -1518.8421    482.65397    265.92303    713.14455    38614.337 
  719700    295.56918   -1516.8886     499.0449    310.75795    607.36572    38614.337 
  719800    295.35967   -1525.4665    478.77698     280.9704     579.5422    38614.337 
  719900    295.82705   -1518.6004    494.37207    305.53249    343.59128    38614.337 
  720000    314.20331   -1494.5716    484.55809    402.34965     745.2168    38614.337 
  720100    295.25139   -1512.3754    470.60524    285.40305    384.16555    38614.337 
  720200      301.367   -1468.6403    490.01096     376.0339   -5.7463243    38614.337 
  720300    307.74882   -1523.5594    508.84506     368.6356     471.9092    38614.337 
  720400     296.2095    -1474.552    509.19087    366.11883    485.14124    38614.337 
  720500    310.33439   -1508.5272    477.12972    363.57469    174.54785    38614.337 
  720600    310.92452   -1497.7958    482.04761    381.87669    367.89127    38614.337 
  720700    294.50769   -1497.6037    485.93451    312.16105    645.59242    38614.337 
  720800    309.59959   -1485.9452    476.73046    382.45448    452.63998    38614.337 
  720900    298.16124   -1499.5673    485.64207    326.32789     466.4377    38614.337 
  721000    294.95193   -1491.9448    497.24358     331.1258    178.32619    38614.337 
  721100    307.09032   -1488.1452    495.94705    388.19167   -62.948153    38614.337 
  721200    301.58014   -1530.4839    480.12067    305.25808   -405.41518    38614.337 
  721300     294.3743   -1534.2313    467.63225    256.63158   -216.91893    38614.337 
  721400    303.95631   -1444.8439    516.15682    437.61523   -275.14928    38614.337 
  721500    296.29655   -1489.5651    466.08731    308.39344    -792.2483    38614.337 
  721600    304.93703   -1517.1232    488.21148      341.799   -344.16544    38614.337 
  721700    286.12357   -1519.1109    493.85689     260.8891   -422.23651    38614.337 
  721800    286.97588   -1514.3244    508.90519      284.555   -183.78218    38614.337 
  721900    313.82207    -1504.538    504.28238    410.39391    631.42638    38614.337 
  722000    292.54311   -1481.0976    502.19565    336.09737   -48.647055    38614.337 
  722100    296.81033   -1478.0103    501.13514    357.30558   -120.50435    38614.337 
  722200    310.41732   -1485.0074    485.16325    395.50084    197.52052    38614.337 
  722300    304.58005   -1475.9178    510.22549    403.41381    215.54111    38614.337 
  722400    299.21464    -1495.118    475.33511     325.2053   -236.93193    38614.337 
  722500    293.60388    -1481.149    488.19736    326.81592   -15.469366    38614.337 
  722600    302.48909    -1495.942    508.80849    372.57357    216.23806    38614.337 
  722700    298.34827   -1513.3461    449.39463     277.1424   -99.973638    38614.337 
  722800    304.85716   -1481.9349    512.67069    401.08751   -264.96111    38614.337 
  722900    306.39786   -1531.0249     455.4841    301.73649    -67.12351    38614.337 
  723000    298.43111   -1472.8121    508.69495    377.34907    35.339391    38614.337 
  723100    304.63829   -1480.1007    488.81826    378.08539   -250.76638    38614.337 
  723200    296.44708   -1510.9714    489.99393    311.57036   -288.66448    38614.337 
  723300     298.2558   -1480.7645    531.57022    391.48395   -170.96326    38614.337 
  723400    296.73755   -1474.6559    478.47404    337.67174   -403.48419    38614.337 
  723500    299.82583   -1498.9311     502.9177    351.72217   -593.97571    38614.337 
  723600    295.42509   -1500.7859    506.82296    333.99103   -83.622895    38614.337 
  723700    299.77052   -1455.1713    472.97553    365.29121    316.04256    38614.337 
  723800    302.06556   -1514.3304    494.56714       338.04   -307.03167    38614.337 
  723900     293.4359   -1502.8372    473.51835     289.6936    163.34167    38614.337 
  724000     292.8889   -1501.0309    483.64242    299.16518   -202.76961    38614.337 
  724100    303.23522   -1486.3784    496.58655    373.26911    247.17495    38614.337 
  724200    297.20827   -1518.0638    462.42214    280.32784    221.79413    38614.337 
  724300    295.44299     -1551.77    463.38545    239.64988   -282.94596    38614.337 
  724400    297.14054   -1479.5605    493.34576    349.45025   -118.81764    38614.337 
  724500    314.57698   -1532.2677     485.0233    366.79848   -482.30692    38614.337 
  724600    305.49254   -1555.8618    459.23888    276.58487   -1028.2265    38614.337 
  724700     299.3131   -1539.9468    477.55819    283.04215   -416.98352    38614.337 
  724800     292.1688   -1517.0859    466.38792    262.61877   -198.36349    38614.337 
  724900    286.52679   -1505.1235    509.60357     292.4356    75.285479    38614.337 
  725000    305.76348   -1527.2339    482.62651    329.81828    156.77369    38614.337 
  725100    292.35997   -1528.4923    469.57768    255.26142   -249.75064    38614.337 
  725200    303.01888   -1515.3673    478.95899    325.68016   -216.07583    38614.337 
  725300    293.98755   -1514.3876    468.17198    275.27653   -42.540647    38614.337 
  725400    285.49529     -1524.87    468.88409    227.33298   -400.56262    38614.337 
  725500    308.90513   -1519.9121    483.00416    351.63959    -240.7331    38614.337 
  725600     296.7464   -1532.3317     474.7809    276.34253   -23.357283    38614.337 
  725700    300.50753   -1496.5336    489.88413     344.1504     -248.173    38614.337 
  725800    293.31273   -1490.8051    494.87049    322.52421    272.48462    38614.337 
  725900    304.14909   -1507.1263    483.86662     343.9092    143.42974    38614.337 
  726000    307.24727   -1499.4465    479.74501    361.39389    73.986016    38614.337 
  726100    292.36217   -1522.8086    477.71971    269.09709     -368.622    38614.337 
  726200    305.07187   -1529.0986    480.85271    323.07096   -160.23469    38614.337 
  726300    297.12458   -1549.8864    466.35322    252.06016   -287.38547    38614.337 
  726400    302.95566   -1547.3502    471.63745    286.09165    -264.5409    38614.337 
  726500    294.72166   -1523.7379    464.59744    265.65149   -325.90221    38614.337 
  726600     303.8033    -1531.424    459.69326    293.88381   -147.42117    38614.337 
  726700    289.81683   -1506.9803    474.29212    270.05632   -21.053649    38614.337 
  726800    292.78166   -1504.5791    493.57285    305.06536    678.46499    38614.337 
  726900    302.45276   -1540.2501    497.56599    316.85966    658.13882    38614.337 
  727000    296.85175   -1524.3556    514.70637    324.71769    343.71231    38614.337 
  727100    311.97613   -1536.7148    489.96375     355.6009     587.9229    38614.337 
  727200    300.59137   -1570.5906     480.1393    260.72535   -152.72762    38614.337 
  727300    296.52103   -1553.5025    484.50206    263.87983     -147.444    38614.337 
  727400    309.11735   -1545.5807    497.57408    341.49493     -176.976    38614.337 
  727500     309.3473   -1591.0044    470.60657    270.13735   -642.37315    38614.337 
  727600    297.46916   -1545.8966    494.35505    285.60063   -796.40782    38614.337 
  727700    300.69068   -1521.8641    493.20394    322.96293   -85.705514    38614.337 
  727800    294.43081   -1522.5805    469.77716    270.68131   -555.48232    38614.337 
  727900    304.06588   -1505.4922     488.8391    350.14178   -208.41459    38614.337 
  728000    305.69156   -1524.1618    499.54397    349.48459   -324.30646    38614.337 
  728100    295.06392   -1497.6208    503.04213    331.75187    337.67446    38614.337 
  728200     304.0074   -1488.7181    469.25057     347.0644    520.58287    38614.337 
  728300    301.26899   -1500.8624    483.80812    337.16839   -224.31355    38614.337 
  728400    297.56721   -1494.0286    485.14449    328.69884   -660.87478    38614.337 
  728500    298.99895   -1484.4538    513.88753     373.4524   -454.57948    38614.337 
  728600    302.01415   -1508.1789     477.9378    327.33115   -215.78184    38614.337 
  728700    297.77217   -1528.9227    476.34217    285.92369   -150.84552    38614.337 
  728800    299.05263   -1539.6881    502.13039    306.70227   -137.11878    38614.337 
  728900    296.41085   -1514.2705    482.80966    300.92424   -486.58978    38614.337 
  729000    289.95056   -1558.8285    497.08345    241.60057    220.14022    38614.337 
  729100    305.31624     -1517.81    485.26606    339.87132    676.78048    38614.337 
  729200    301.45077   -1494.9761    497.54918    357.61285    369.38147    38614.337 
  729300    302.10638   -1542.4729    489.00555    304.51942   -35.533002    38614.337 
  729400    299.54549   -1550.9778    473.64098    269.13861    247.91329    38614.337 
  729500    306.22145   -1569.0395     510.5573    318.00206    265.82298    38614.337 
  729600    292.87432   -1555.5352    487.67954     248.6324   -181.75057    38614.337 
  729700     293.8843   -1491.4571    499.95159    329.52248   -330.44784    38614.337 
  729800    307.42048   -1510.4873    463.45548     334.8422    73.879147    38614.337 
  729900    306.90481   -1543.5167    485.72049    321.75979   -214.33112    38614.337 
  730000    301.84856   -1534.7439    474.82846    296.91242   -577.87167    38614.337 
  730100    307.83015   -1512.4096    490.86469    362.17059   -59.319317    38614.337 
  730200    309.30426    -1470.762    489.74524    409.32496   -206.71973    38614.337 
  730300    299.50951   -1479.2597    545.63613    412.69013    155.19781    38614.337 
  730400    300.58157   -1457.4753     489.4389     383.0963    387.48314    38614.337 
  730500    301.00197     -1511.67    498.50942    339.86181    618.74079    38614.337 
  730600    302.87929   -1520.6085    513.88699    354.73949    876.74778    38614.337 
  730700     303.4135   -1489.4424    508.29086    382.71083     125.6419    38614.337 
  730800    295.68742   -1486.3686    494.83206    337.59657    102.57465    38614.337 
  730900    292.54887   -1505.0058    527.37292    337.39228    71.421709    38614.337 
  731000    296.32123   -1496.6469     484.4585    319.79377    435.15515    38614.337 
  731100    304.77571   -1470.5838    499.72002    399.12178     205.6407    38614.337 
  731200    306.79272   -1478.9039    482.66037    382.80862    408.38296    38614.337 
  731300    295.53505   -1496.9229    490.92287    322.44823   -298.23852    38614.337 
  731400     308.6366   -1501.7281    483.76348    369.37594    -59.66112    38614.337 
  731500    296.59441   -1506.0477    510.49455    337.65702    231.87272    38614.337 
  731600    295.83565   -1489.2692    486.29564    326.82587   -805.31734    38614.337 
  731700    310.84171   -1480.0861     483.6564    400.82291    154.04878    38614.337 
  731800    309.27223   -1484.8571    523.09099    428.43159    76.884344    38614.337 
  731900    298.82563   -1483.5479    491.21008    350.90177    325.82647    38614.337 
  732000    301.40514   -1479.5518     493.1595    368.44242    335.31213    38614.337 
  732100    303.25749   -1472.7581    516.50597    406.90893   -3.8094946    38614.337 
  732200    302.07252   -1479.7867    474.35112    352.39895   -262.22233    38614.337 
  732300    317.65749    -1495.292    495.72744     428.3254    31.902649    38614.337 
  732400    300.25274   -1507.1566    522.00969    364.50766      318.431    38614.337 
  732500      301.106   -1492.6283     473.5395    334.40117    281.94915    38614.337 
  732600    299.43872   -1481.7537    503.29542    367.53719   -75.624286    38614.337 
  732700    298.70156   -1507.5649    506.71979    341.83675    74.500104    38614.337 
  732800    303.18941   -1489.6532    474.01439    347.21623    287.14132    38614.337 
  732900     287.9879   -1506.6193    494.49116    282.39516   -118.24069    38614.337 
  733000    304.59581   -1512.0653    513.82223     370.9338    111.61321    38614.337 
  733100     286.1197   -1450.3639    486.59286    322.35467    276.05807    38614.337 
  733200    295.88347   -1489.1409     492.1442    333.01769    186.46399    38614.337 
  733300    296.47504   -1502.5104    523.12608    353.28922    150.78592    38614.337 
  733400    304.14369   -1477.4112    480.34108    370.07454    48.371973    38614.337 
  733500    292.96949   -1451.0739    499.40917    365.25112   -561.27053    38614.337 
  733600    308.35477   -1468.9336    516.95748    434.09755   -204.73961    38614.337 
  733700    299.51206   -1477.3203     490.9511    359.95599   -397.19621    38614.337 
  733800    295.39697   -1489.6961    524.53505    362.66656    353.48012    38614.337 
  733900    298.59406   -1503.4981    488.49565     327.1963   -14.154552    38614.337 
  734000    305.37232   -1512.0933     501.9889    362.56302    444.57348    38614.337 
  734100    294.49109   -1502.9652    501.42091    322.21131    1042.9533    38614.337 
  734200    306.81829   -1519.2307    511.20092    371.13731    651.89282    38614.337 
  734300    289.80116   -1502.5044     478.6016    278.77123    216.55042    38614.337 
  734400    285.62965   -1457.6238    536.29408    362.59314   -201.29151    38614.337 
  734500     311.0553   -1534.5435    482.33547    346.00464   -698.27707    38614.337 
  734600    300.97711   -1546.0418    454.64157     261.5104   -663.04648    38614.337 
  734700    302.95081   -1574.8715    492.15976     279.0708   -720.00537    38614.337 
  734800    309.03947   -1573.4788    480.26264    295.93531   -454.32167    38614.337 
  734900    296.82017   -1569.4158    467.60694    232.41606   -552.08679    38614.337 
  735000    308.78473   -1578.5486    491.17959    300.63736    194.74024    38614.337 
  735100    287.11314   -1556.2639    468.59288    202.92021   -281.24832    38614.337 
  735200    301.53261   -1561.4463     491.5295    285.49082   -291.36404    38614.337 
  735300    309.96449   -1540.3519    494.02801    346.98559    302.83482    38614.337 
  735400    304.20333   -1534.9568    509.04708    341.50298    426.32336    38614.337 
  735500    301.85731   -1529.0921    468.68159     296.4567    649.60715    38614.337 
  735600    306.21079   -1484.5658    530.57325    422.44379    102.73633    38614.337 
  735700    302.40617   -1460.0601    496.70119    395.97544   -43.342932    38614.337 
  735800    303.55278   -1528.3757    482.58204     318.6948    316.16766    38614.337 
  735900    294.66246   -1526.4751    485.18135    283.23216   -288.95001    38614.337 
  736000    297.77676   -1510.2568    485.20129    313.46938   -206.98874    38614.337 
  736100    301.98142   -1482.9825    500.41404    374.85663   -346.78883    38614.337 
  736200    297.95134   -1505.1068    481.38724     315.5901   -144.12312    38614.337 
  736300    301.00485   -1501.2417    483.29675    335.09038   -194.17797    38614.337 
  736400    296.18016   -1527.0026    469.10847     273.4539    154.33354    38614.337 
  736500    303.77477    -1504.348    492.17981    353.31809   -193.53785    38614.337 
  736600    285.33142   -1513.3913     488.5356    257.72659   -108.59737    38614.337 
  736700    292.20438   -1533.4049    495.41379    275.48555   -552.61294    38614.337 
  736800    307.40271     -1523.99    482.87391    340.67797   -365.93742    38614.337 
  736900    300.90611   -1523.1637    479.28391    308.71175   -732.23796    38614.337 
  737000    300.58785   -1538.6162    491.18998    303.73469   -513.59117    38614.337 
  737100    304.36143   -1502.0463    486.21722    352.29434   -357.93901    38614.337 
  737200    301.50115   -1517.9524    479.38882    316.70265   -213.29277    38614.337 
  737300    302.40316   -1520.9859    491.68118    330.01609   -112.17539    38614.337 
  737400    308.24713    -1510.501      515.102    390.19079    -168.7331    38614.337 
  737500    299.36042   -1480.8937    497.26867    362.01852   -613.53485    38614.337 
  737600    298.97554   -1480.0599    504.98945    368.84298   -712.83204    38614.337 
  737700    299.08575   -1419.4516    530.30685    455.26405   -808.61175    38614.337 
  737800    286.81403   -1469.9578    471.41635    290.70531   -812.95477    38614.337 
  737900    305.93439   -1490.0883     508.6625     393.7681   -197.22222    38614.337 
  738000    300.01282   -1435.7441    474.40186    387.23383   -366.47216    38614.337 
  738100    307.42092    -1485.853    521.17159    417.19456   -104.13909    38614.337 
  738200    290.42564   -1513.9978    472.35559    263.83892    209.14003    38614.337 
  738300    298.58133   -1535.1385    491.35785    298.36081    327.49761    38614.337 
  738400    292.01333   -1542.0422    468.15077    238.72651    293.79469    38614.337 
  738500    296.74202   -1537.7345    491.97022    288.10943    317.35325    38614.337 
  738600    306.57708   -1507.5689    492.16341    362.67732   -300.83437    38614.337 
  738700    300.22305   -1524.5598    520.26723     345.2285    132.00445    38614.337 
  738800    307.03318   -1490.8435    478.44641    367.73593   -250.54412    38614.337 
  738900    292.40202   -1536.4176    493.17667    271.12418   -233.09453    38614.337 
  739000    298.22273   -1504.4081    497.88841    334.00985   -440.27209    38614.337 
  739100      303.674   -1487.8764    513.02039     390.1773   -56.442108    38614.337 
  739200     308.8536   -1487.8032    477.74661    378.25934   -5.5628723    38614.337 
  739300     307.7789   -1460.6917    520.64885     443.4423   -49.031811    38614.337 
  739400    315.75758   -1480.6857    482.87045    421.53445   -292.65446    38614.337 
  739500    310.02669   -1469.2036    499.80853    424.19397   -25.168099    38614.337 
  739600    290.38973    -1481.183     491.4867    315.62337   -480.01252    38614.337 
  739700    293.33532   -1484.6444    489.89633    323.81228    35.908448    38614.337 
  739800    298.31309   -1456.0644     526.7983    411.66962   -390.12929    38614.337 
  739900    296.28768   -1483.2569    490.67126    339.24571   -174.29447    38614.337 
  740000    304.36057   -1479.4606    499.83439    388.49329   -86.455047    38614.337 
  740100    294.91611   -1470.7904    510.42852    365.30416    8.9885607    38614.337 
  740200    296.16887   -1455.3111    485.95744     361.9436    80.960513    38614.337 
  740300    307.09484   -1485.8013    496.35713    390.96603    184.59833    38614.337 
  740400    293.91258   -1474.2942    495.70973    342.57066   -413.08041    38614.337 
  740500    294.10696   -1483.6117    493.91108    332.32824   -561.05234    38614.337 
  740600    293.36798   -1448.9021    497.45618    367.26121     57.19112    38614.337 
  740700    307.64623   -1491.5486    508.35979    399.69998    218.21241    38614.337 
  740800    305.69777   -1469.6784    521.31134    425.76321    202.51556    38614.337 
  740900    304.07368   -1466.5623    512.08863    412.35628    649.64539    38614.337 
  741000    290.37829   -1475.9435    517.93197    347.25674    765.05889    38614.337 
  741100    301.31158   -1506.9386     490.7558    338.23126    870.29869    38614.337 
  741200    306.93598   -1487.7256    498.23318    390.20366    377.03164    38614.337 
  741300    304.90055   -1503.5116    497.64415    364.67928    23.271437    38614.337 
  741400    294.65544   -1529.6133    521.90394    316.78497    197.46887    38614.337 
  741500    307.13699   -1493.2122    507.64747    395.03492   -69.511955    38614.337 
  741600    289.79349   -1549.8565    496.31966     249.1027   -797.14355    38614.337 
  741700    299.27474   -1527.3069    498.68355    316.63498   -985.26748    38614.337 
  741800    292.69417   -1480.3296     491.2943    326.64303   -649.50187    38614.337 
  741900    288.54455   -1496.1088    501.66942     302.5861   -296.81848    38614.337 
  742000    298.99068   -1511.9618    501.63052    333.65023   -362.05809    38614.337 
  742100    297.13409   -1512.6437    509.67655     332.6689   -24.113073    38614.337 
  742200    302.71749   -1562.0146     483.3667    282.08583   -212.79965    38614.337 
  742300    309.83679   -1559.2582    511.38656    344.86382    481.48251    38614.337 
  742400    300.46856   -1562.3612    495.65925    283.92279    264.38017    38614.337 
  742500    301.67931    -1553.591    492.95389    295.42998    213.34278    38614.337 
  742600    307.35719   -1524.1047     512.9665    370.45128    340.94766    38614.337 
  742700    302.65178   -1522.9074    492.33459    329.86555    98.378854    38614.337 
  742800    308.16715   -1520.1283    505.67675    370.77879   -92.862747    38614.337 
  742900    306.04743   -1538.5122    514.93083    352.12067     127.2321    38614.337 
  743000    293.89052    -1518.626    487.12921    289.55924   -47.027429    38614.337 
  743100    295.29157    -1507.862    513.65129    333.14309   -735.30685    38614.337 
  743200     302.4369   -1492.4654    498.07229    365.07937   -479.83385    38614.337 
  743300    306.30316   -1500.8772    501.05345    377.02778    -676.9775    38614.337 
  743400     297.7142   -1495.3668     497.8783    340.75514   -120.83579    38614.337 
  743500    302.85827   -1505.6791    500.33007     356.0175   -708.72515    38614.337 
  743600    309.54915   -1508.9453    506.83038    389.32757   -214.57977    38614.337 
  743700     297.4787   -1536.5466    505.99467    306.63312    68.006526    38614.337 
  743800    307.65187   -1499.1381    508.96668    392.74265    201.74065    38614.337 
  743900    296.33408   -1513.3813    501.26383    319.92249    17.557227    38614.337 
  744000    301.03283   -1520.1126    485.50722    318.55573   -1043.5493    38614.337 
  744100     304.3417   -1489.8376    482.42668    360.62369   -1052.8546    38614.337 
  744200    295.53516   -1474.0826    501.45624    355.82238    -977.4757    38614.337 
  744300    289.86979   -1504.0587    530.96891    329.89272   -1397.3115    38614.337 
  744400    301.16892   -1528.5813    483.22098    308.41253   -531.81285    38614.337 
  744500    300.70552   -1523.2882    545.23105    373.63267    -187.1107    38614.337 
  744600    292.96314   -1510.8192    531.18957    337.25771   -339.22144    38614.337 
  744700    300.29937   -1490.7079    508.33431    367.49059   -683.43057    38614.337 
  744800    290.77844   -1453.6504    519.08636    372.50291   -695.24542    38614.337 
  744900    310.23411   -1503.2722    512.30036    403.54961   -974.61376    38614.337 
  745000    291.10951   -1497.4518     498.0859    309.18929   -969.10842    38614.337 
  745100    299.72316   -1503.9988    510.56865    353.84393   -1086.8501    38614.337 
  745200     310.6465   -1519.7647    502.57931    379.18975   -360.84192    38614.337 
  745300    297.26097   -1521.3607     501.3256    316.17127   -45.177353    38614.337 
  745400    292.51772   -1529.7005    525.21787    310.40251    209.80279    38614.337 
  745500    299.89071   -1524.7586    502.09901     325.3676    366.47167    38614.337 
  745600    297.13187   -1567.0916    515.85511    284.38952    762.79001    38614.337 
  745700    295.17077   -1540.1142    510.10189    296.79849    336.38451    38614.337 
  745800    308.89925   -1595.7588    503.09632    295.85868    620.25576    38614.337 
  745900    304.76531   -1546.7836     470.5263    293.68155   -240.38341    38614.337 
  746000    295.60456   -1516.5234    535.70932    347.94665   -421.67627    38614.337 
  746100    306.33929   -1517.7993    521.44664    380.66132    144.79975    38614.337 
  746200    306.87818   -1549.4175    496.75984    326.77863    430.55161    38614.337 
  746300    308.10869   -1580.0107    482.66878    287.62564     211.7969    38614.337 
  746400    297.39326   -1562.1043    511.61085    286.30754    87.615049    38614.337 
  746500    300.98556   -1536.3855    497.44149    314.00455    90.667575    38614.337 
  746600    297.15171   -1520.5784     494.7642    309.90102    369.10158    38614.337 
  746700    308.88092   -1547.2453    520.83157    362.02508   -34.268693    38614.337 
  746800    303.46409     -1525.32     485.7639    324.53364   -588.19271    38614.337 
  746900    300.11217   -1539.8861    476.31644    285.45308   -91.232647    38614.337 
  747000    297.34321    -1491.151    493.93023    339.35533   -733.48724    38614.337 
  747100    287.87477   -1486.4007    507.63041    315.24449   -304.38795    38614.337 
  747200     295.3884   -1546.0479    491.24249    272.98358   -588.84009    38614.337 
  747300    307.74744   -1549.3149    480.17021    314.19906   -740.83985    38614.337 
  747400     306.3691   -1554.4637    503.67976    326.36402    191.74609    38614.337 
  747500    298.19995   -1568.4108    504.86623    276.88256    503.85294    38614.337 
  747600    297.67879   -1542.3384    507.75646     303.5026    134.88617    38614.337 
  747700    295.27481   -1547.3082    501.78191    281.75215   -248.82916    38614.337 
  747800    298.47982   -1564.1126    515.01988    292.59243    98.534603    38614.337 
  747900    304.73354   -1555.2734    502.64444    317.16706   -118.66346    38614.337 
  748000    296.04315   -1527.8131    490.55094    293.47008    5.7739309    38614.337 
  748100    286.89792   -1483.5965    539.89106    345.91839   -63.442359    38614.337 
  748200    300.25352   -1479.1752    498.00699    368.48979   -202.46733    38614.337 
  748300    300.45072   -1532.3265    527.30254    345.52048   -263.05267    38614.337 
  748400    292.50615   -1491.4608    499.46259    322.83498   -959.09832    38614.337 
  748500    301.81991   -1486.9704    532.75453    402.48317   -730.12763    38614.337 
  748600    297.98164   -1519.4384    494.38273    314.39014   -389.78851    38614.337 
  748700    290.96094   -1511.9096    542.66032    338.63807   -189.44664    38614.337 
  748800    302.93652   -1496.0428    505.94004    371.61558   -296.90205    38614.337 
  748900    308.01053   -1470.2398    503.22084    417.50738   -511.17467    38614.337 
  749000    308.05411   -1499.8927    528.91327    413.74271   -310.11937    38614.337 
  749100    296.36501   -1498.3333    487.93999    321.78563    352.88082    38614.337 
  749200    293.34103    -1497.812    562.77924    383.55323     9.975759    38614.337 
  749300    301.87667   -1486.7896    491.72819    361.89277    203.49167    38614.337 
  749400    308.96524   -1502.9742    477.39355    363.23709    -427.8701    38614.337 
  749500     299.7704   -1485.3975    499.93706    362.02594    1.2555791    38614.337 
  749600    298.50507   -1508.7695     517.0872    350.11633    345.31847    38614.337 
  749700    307.86736   -1515.1355    510.01745    378.76469     306.9359    38614.337 
  749800    303.01108   -1527.0644    496.53291      331.522    417.84065    38614.337 
  749900    295.09691   -1557.0226    503.89879    273.35502    171.64787    38614.337 
  750000    290.42467   -1536.7703    508.23613    276.94266    143.02447    38614.337 
  750100    293.60763   -1515.4282     503.0122    307.36839   -168.91164    38614.337 
  750200    294.51253   -1528.1411    498.99928    294.71019   -375.74862    38614.337 
  750300    293.14037   -1502.7989    514.51721    329.40235    76.029347    38614.337 
  750400    307.88003   -1484.8071    531.55059    430.68315   -102.92108    38614.337 
  750500     311.0801   -1497.2599    512.14507    413.20934    132.46601    38614.337 
  750600     300.0994   -1480.9686    499.21868    367.21532   -146.89858    38614.337 
  750700    304.40369   -1517.4431    499.77578    350.64601   -407.46235    38614.337 
  750800    301.17154    -1520.883    496.04088    328.94248   -125.34922    38614.337 
  750900    306.10726   -1529.2612    513.27977    359.98956    35.022725    38614.337 
  751000    281.49018   -1491.2325    529.74102    303.82419   -84.959344    38614.337 
  751100    302.77117    -1521.415    517.56644    357.12651    -268.3287    38614.337 
  751200    303.00123   -1515.8234    532.62843    378.81427   -161.76959    38614.337 
  751300    295.65778   -1543.8155    479.78455    264.96896   -86.584203    38614.337 
  751400    307.43254   -1506.6545    532.22389    407.49758    27.855627    38614.337 
  751500    302.83509   -1522.6748    507.17919    345.76681   -417.32585    38614.337 
  751600    313.06684   -1519.9735    484.81294    372.09416    318.03822    38614.337 
  751700    301.42649   -1555.7121    504.33032    303.54882   -316.52983    38614.337 
  751800    297.86882   -1490.1139    479.54609    328.37091    101.04852    38614.337 
  751900    305.03608   -1509.6202    517.45684    378.99255    225.05099    38614.337 
  752000      302.973   -1504.1465    513.40625    371.14207    43.908003    38614.337 
  752100    305.75938   -1499.8778    472.99481    347.52421   -230.07286    38614.337 
  752200    297.60723   -1501.9276    554.45919    390.29438   -373.24854    38614.337 
  752300    300.10371   -1497.8492    470.77926    321.91471   -31.856948    38614.337 
  752400    302.37104   -1476.4287    486.74737    369.49512    529.04053    38614.337 
  752500    286.98309   -1506.5286    495.92382    279.40186    608.11376    38614.337 
  752600    293.97622   -1492.8549    502.02017     330.6065    794.03487    38614.337 
  752700     297.9947   -1526.3744    518.05119    331.18137    417.51505    38614.337 
  752800    290.57161   -1525.3608    474.23614    255.01258    348.59663    38614.337 
  752900    302.95323   -1513.4008    511.54266    359.93532    117.08695    38614.337 
  753000    295.78445   -1540.7631    508.45792    297.26413   -771.29684    38614.337 
  753100     307.6918   -1516.6178    502.96492    369.44069   -97.372047    38614.337 
  753200    293.24057   -1509.7829    507.78963    316.14112   -650.49063    38614.337 
  753300    293.32053   -1550.1178    475.39836    243.77438   -436.63069    38614.337 
  753400    292.69644   -1496.1486    496.21059    315.75051   -640.27031    38614.337 
  753500    294.37156   -1491.6988    495.44606    326.96558    -223.7758    38614.337 
  753600    297.97381   -1528.5656    483.70131     294.5463   -20.157168    38614.337 
  753700    297.56104   -1552.4393    470.68068    255.79656    220.42461    38614.337 
  753800    314.05304   -1549.9531    483.02191    344.75659    651.03461    38614.337 
  753900    293.96981   -1532.4608    522.86852    311.82008    227.79251    38614.337 
  754000    296.34209   -1526.1159    480.93316     286.8932    610.72576    38614.337 
  754100    295.77016   -1535.1286    508.96993    303.34644    15.761453    38614.337 
  754200    308.25782   -1511.2963    500.81605    375.15765   -234.75847    38614.337 
  754300    299.28316   -1521.9531     506.4213    329.76439   -303.22639    38614.337 
  754400    291.21362   -1495.6571     500.5233    313.88932   -236.09274    38614.337 
  754500    298.54975   -1492.5226    505.06557    354.54249   -651.55283    38614.337 
  754600    298.17306   -1515.1364     482.5351      307.705    -158.4493    38614.337 
  754700    302.51133   -1485.3537    507.36307    381.81642    742.15069    38614.337 
  754800    282.92418   -1497.6184    495.32612    269.46936   -205.48144    38614.337 
  754900    290.34532   -1505.1427    493.80222    293.77964   -578.11432    38614.337 
  755000    301.35401   -1470.5642    513.55189    397.59254   -277.32807    38614.337 
  755100    293.30915    -1476.494    512.38421    354.33287    92.042433    38614.337 
  755200    294.43979   -1451.1097    501.78745    374.20273    459.24492    38614.337 
  755300    300.25369   -1483.1594    496.25785    362.75724    416.27407    38614.337 
  755400    306.28033   -1509.8059    497.71237    364.65541    414.03089    38614.337 
  755500    308.43948   -1509.2981      491.805    368.96132    513.71795    38614.337 
  755600    306.54634   -1494.7357    487.17676    370.38573    387.60494    38614.337 
  755700     303.7281   -1468.4842    485.36697    382.15931     82.10304    38614.337 
  755800    296.58398   -1482.7976    505.95065    356.31633   -693.08798    38614.337 
  755900    311.91503   -1465.4953    480.88008    417.46206      95.3692    38614.337 
  756000    285.16465   -1455.3727    513.00275    339.46273   -40.233608    38614.337 
  756100    307.85852    -1481.155    502.02446    404.71246   -368.39532    38614.337 
  756200    301.46501   -1476.0108    502.76942    381.86241    226.28715    38614.337 
  756300    302.68853   -1496.0023    493.03434     357.6356    60.510849    38614.337 
  756400    296.94181   -1468.3643    492.20863    358.61602   -375.92441    38614.337 
  756500    300.25401    -1507.459    519.93183    362.13313   -418.12022    38614.337 
  756600    300.02096   -1494.6248    498.97794     352.9658   -236.32295    38614.337 
  756700    296.22179   -1496.3941     502.5512    337.69234   -482.96885    38614.337 
  756800    309.36539   -1446.4393    488.15486    432.33201   -327.45825    38614.337 
  756900    298.36226   -1509.6034    495.40823    326.96156   -344.87041    38614.337 
  757000    296.88833   -1485.8985    496.48655    345.11937   -2.5834635    38614.337 
  757100     298.4257   -1511.3578    500.23203    330.31612    208.14469    38614.337 
  757200    307.25833   -1496.0317    505.35893    390.47234    346.66305    38614.337 
  757300    301.65127   -1490.1322    473.96856     339.7774    250.81179    38614.337 
  757400    294.12353   -1498.2847    514.43816     338.2568     521.0258    38614.337 
  757500    301.78298   -1513.9568    497.70354    340.27982    539.96082    38614.337 
  757600     309.9801   -1525.5657    499.60409    367.41799    195.07608    38614.337 
  757700    306.71046   -1507.1499    493.72979    365.26234    343.37235    38614.337 
  757800    306.79046   -1500.4306    508.42299    387.03436     706.5152    38614.337 
  757900    292.61247   -1515.1484      498.974    299.13665    205.37751    38614.337 
  758000    299.32373   -1510.3815    510.12599    345.22306    314.02866    38614.337 
  758100    301.06924   -1508.8475     510.7435    355.22075   -17.330192    38614.337 
  758200    298.37157    -1491.807    485.12891    334.52051   -555.22955    38614.337 
  758300    301.65632    -1537.099    504.37376    323.23852   -238.61944    38614.337 
  758400    291.90443   -1521.1732    516.13476    307.08993    311.40299    38614.337 
  758500    296.58044   -1495.0758    511.89088    349.96237    411.43207    38614.337 
  758600    300.39544     -1462.62    505.06369    392.73964    519.33055    38614.337 
  758700    298.71773   -1494.2224    524.08388     372.6161    44.590656    38614.337 
  758800    301.05732   -1551.8269    500.01195    301.45628     735.7417    38614.337 
  758900    302.90954   -1480.3567    511.41754    392.65783    216.07436    38614.337 
  759000    308.82354   -1484.1664    506.66463    410.67906    97.719744    38614.337 
  759100    323.92667   -1529.6613    487.68224    414.09126   -107.43126    38614.337 
  759200    297.53441   -1542.1277     494.4546    289.76244   -399.55406    38614.337 
  759300    289.81053   -1485.0829    489.94464    307.57789   -456.88143    38614.337 
  759400    299.33266   -1471.3595    527.91744    402.07666   -515.94763    38614.337 
  759500     298.5352   -1480.3682    480.40521    341.97107   -395.97925    38614.337 
  759600    303.03278   -1497.1073    517.06889    382.11256   -170.04755    38614.337 
  759700    307.75289   -1486.7677    512.71322    409.31366   -29.108687    38614.337 
  759800    294.74534   -1524.5794    469.50097    269.82003    27.207544    38614.337 
  759900    296.14079   -1536.7807    500.99383    295.38422   -55.031534    38614.337 
  760000    298.17968   -1540.7482    499.73316      299.321    155.30057    38614.337 
  760100    299.50712   -1513.4628    487.87527    320.71537    256.18988    38614.337 
  760200    309.09536   -1522.6346     490.4952    357.26324    114.23871    38614.337 
  760300    299.16525   -1520.8103    506.54092    330.49681   -21.098282    38614.337 
  760400    302.09349   -1546.1823     518.0957    329.84224    438.90185    38614.337 
  760500    294.50641   -1539.4602    488.54799     272.9122    78.319856    38614.337 
  760600     301.3597    -1545.244    507.46833    316.85472   -548.88521    38614.337 
  760700    295.44057   -1550.2555    489.52626    267.29435   -287.91053    38614.337 
  760800    293.17628   -1529.1495    509.87036    298.56628   -793.22375    38614.337 
  760900    295.01006   -1530.4052    499.64319    295.32641   -320.89444    38614.337 
  761000    299.84596   -1533.1815    481.24688    295.89142   -259.80454    38614.337 
  761100    306.55892   -1513.8061     488.0541    352.24923   -149.76086    38614.337 
  761200    302.91958   -1511.7386    496.17797    346.08155   -198.31065    38614.337 
  761300    296.22797   -1519.2377    515.14972    327.47498    156.35598    38614.337 
  761400    288.95394   -1519.2391    506.34563    285.97229     350.9666    38614.337 
  761500    303.87627   -1521.5874    510.37669    354.73185    44.027624    38614.337 
  761600    303.61414   -1517.4091    519.07328    366.42848    131.99598    38614.337 
  761700    298.71928     -1605.04    502.73972    240.46125    260.03782    38614.337 
  761800    303.81557   -1588.4274    501.67539    278.91769    329.28056    38614.337 
  761900    301.24665   -1574.6232    478.54279    258.04186    375.78708    38614.337 
  762000    298.58291   -1548.7212    498.78752     292.2149   -242.47713    38614.337 
  762100    297.93059   -1521.5168    499.72324    317.42278    309.99979    38614.337 
  762200    297.60529    -1601.907    492.37208    228.21919    176.59609    38614.337 
  762300    297.03476   -1541.1831    500.83476    294.84121   -308.79045    38614.337 
  762400    290.80733   -1533.4055    516.70151    290.49289    -489.9006    38614.337 
  762500    304.16439   -1558.4335    497.71232     306.5165    75.493431    38614.337 
  762600    290.38653   -1521.8454    524.91753    308.37748    134.18465    38614.337 
  762700    304.13322    -1543.145    514.25686     338.2094   -94.253843    38614.337 
  762800    295.76418   -1520.3676    502.02662    311.13722   -212.79929    38614.337 
  762900    304.21537   -1591.8051    504.92341    280.58517    612.27908    38614.337 
  763000    309.24775   -1577.8221    494.93576    307.20134    167.86858    38614.337 
  763100    303.96685   -1545.3479     516.3102    337.31203    341.08303    38614.337 
  763200    298.73386   -1627.0186    505.88606    221.69455    245.82639    38614.337 
  763300    296.23188    -1635.746    503.53863    199.37316    482.51706    38614.337 
  763400    301.92031   -1604.4523    509.20593    261.90397    611.99197    38614.337 
  763500    308.36716   -1601.2643    508.65528    293.52031    6.6754112    38614.337 
  763600    290.09991   -1593.8535    492.25384     202.4173    237.57506    38614.337 
  763700    297.92633   -1550.8741    519.88487    308.20792    331.90961    38614.337 
  763800    303.59276   -1537.5036    526.13579    353.30034    253.03627    38614.337 
  763900    306.10912    -1495.902    529.15033    409.22767    30.783842    38614.337 
  764000    300.99868   -1553.5664    494.78517    294.22637   -488.30332    38614.337 
  764100     299.9018   -1603.3045    489.63232    234.40486     207.6364    38614.337 
  764200    307.51979   -1604.9344    497.39123    274.77721    554.99295    38614.337 
  764300    300.72617   -1584.3523    498.84079    266.27115    262.96855    38614.337 
  764400    299.97806   -1585.2596    506.95608    270.11636    253.36665    38614.337 
  764500    297.62312    -1599.509    523.57234     261.8976   -516.22727    38614.337 
  764600    298.77442   -1579.5741    508.52645    271.96178   -300.86164    38614.337 
  764700    300.80987   -1617.1155    496.01413    231.05749    558.68522    38614.337 
  764800    309.21679   -1576.7933     503.2195     316.3747   -95.944591    38614.337 
  764900    304.79296   -1554.5649    546.80804    362.30629    402.71056    38614.337 
  765000    303.28989   -1556.3057    542.02227    349.02326    624.18903    38614.337 
  765100    306.79235   -1541.9072    530.32085    367.46416    361.80552    38614.337 
  765200    301.26408   -1559.4775    482.77353    277.49658    259.39035    38614.337 
  765300     303.3953   -1555.0935    527.24218    335.92919    423.75033    38614.337 
  765400    302.96218    -1543.519    522.42542    340.74004   -46.039591    38614.337 
  765500    292.87937   -1546.2427    516.74942    287.01755    62.351792    38614.337 
  765600    296.61318   -1512.9347    515.27671    335.63645    231.48334    38614.337 
  765700     294.9163   -1519.8746    526.04522    331.83754      490.753    38614.337 
  765800    306.52508   -1503.9538    515.30707    389.20234   -27.339977    38614.337 
  765900    301.48738   -1537.0948     514.3722    332.48172    124.33506    38614.337 
  766000    294.33437   -1532.2979    522.18159     312.9348    526.69215    38614.337 
  766100    312.46679   -1530.0639    530.76634    405.25983    556.08466    38614.337 
  766200    303.06819   -1537.1762    507.56614    332.70011    -154.1754    38614.337 
  766300    301.43729   -1578.1799    509.74902    286.54833   -579.25319    38614.337 
  766400    302.98294   -1558.0497    509.80762    313.68487   -196.25669    38614.337 
  766500    294.69333   -1580.5391    527.48467    271.61019   -429.76126    38614.337 
  766600    303.86889   -1591.0705    517.65397     292.4928   -240.06404    38614.337 
  766700    301.66592   -1547.3852    512.09159    320.71323   -750.01204    38614.337 
  766800    302.11843   -1483.7492    514.96557    389.25726   -299.74475    38614.337 
  766900    304.05901   -1566.5872    498.51838     298.6952   -365.01937    38614.337 
  767000    302.70835   -1603.0864     499.3791    256.98539   -343.87532    38614.337 
  767100    316.33038   -1551.7302    517.42358    387.61793    278.88702    38614.337 
  767200    299.32381    -1560.533    523.36636     308.3123   -2.9696943    38614.337 
  767300    310.12683   -1581.7402    499.60598    311.90497    184.94887    38614.337 
  767400    310.41408   -1543.9715     521.4765    372.83543    133.68246    38614.337 
  767500    299.29589   -1594.5801     532.9955    283.76884   -214.44831    38614.337 
  767600    304.28582   -1580.2293    518.65353    306.20775     -440.269    38614.337 
  767700    309.45778   -1588.8232     509.1155     311.3241   -858.42529    38614.337 
  767800    299.11024   -1595.0589    503.67915    253.13923   -1421.7664    38614.337 
  767900    300.86447     -1582.81    493.25929    262.85358   -824.28747    38614.337 
  768000       301.59   -1600.2614    506.30766    261.71189    -13.08248    38614.337 
  768100    294.76644    -1582.121    495.83199    238.70433   -92.432116    38614.337 
  768200     300.9192   -1566.2737    497.13778    283.51438    -236.4338    38614.337 
  768300    305.08812    -1514.224    515.77523    372.94112   -381.40357    38614.337 
  768400    307.88917   -1522.4049    528.39514    389.97104   -67.539186    38614.337 
  768500    300.27993   -1538.2056    500.46675    312.03796   -196.62722    38614.337 
  768600    301.87103   -1534.5191      514.746    337.15582   -248.26111    38614.337 
  768700    306.98126   -1534.6404    512.01163    357.27087   -429.20282    38614.337 
  768800    305.03071   -1552.2592    494.60075     313.4734    35.092761    38614.337 
  768900     305.9946   -1568.1205    499.83591    307.17996   -89.825927    38614.337 
  769000    292.59453     -1544.04    516.87172     288.0621   -168.04609    38614.337 
  769100    289.07982   -1530.7875    526.57751    295.22159    652.95094    38614.337 
  769200    300.64925    -1543.495    511.88492    319.82681   -106.18405    38614.337 
  769300    293.93094   -1572.8939    478.21497    226.55868   -182.24353    38614.337 
  769400    310.83508    -1531.151    531.14972    397.22158   -65.233397    38614.337 
  769500    293.57011   -1548.2741    522.29267    293.63434     26.98004    38614.337 
  769600    296.84336   -1555.9598    522.94195    301.31137    64.495402    38614.337 
  769700    297.05879   -1575.9011     504.5635    263.95991    370.08967    38614.337 
  769800    309.54571   -1552.8703     519.1641    357.72084    350.87024    38614.337 
  769900    304.04828   -1534.9681    548.31199    380.05967    403.21724    38614.337 
  770000    291.62443   -1527.5078    514.49238    297.85439    224.23664    38614.337 
  770100    298.10143   -1531.3616    510.27138    318.89404   -978.13301    38614.337 
  770200    306.30646   -1533.2876    518.03963    361.61843   -604.52408    38614.337 
  770300    293.50133   -1536.1118    523.67414    306.86891   -277.86405    38614.337 
  770400    304.94488   -1545.6152    528.03093    353.16175   -205.93752    38614.337 
  770500     298.1401   -1518.8724    477.39873    298.68445   -65.224339    38614.337 
  770600    309.49488   -1526.0412    552.12348    417.28081    415.00433    38614.337 
  770700    298.27937   -1537.5516    520.42808    323.66055    67.784476    38614.337 
  770800    298.16061   -1566.1927    529.66848     303.7261    -167.3044    38614.337 
  770900    296.96441   -1547.9204    501.79088    288.74384   -594.89853    38614.337 
  771000    304.12882   -1516.3157    548.88802    399.65011   -468.56496    38614.337 
  771100    299.79993   -1542.4933    499.02207     304.1479   -443.39814    38614.337 
  771200    305.84366   -1545.3049    529.06195    358.54319   -143.35435    38614.337 
  771300    295.75947   -1523.8525    498.65055    304.25508    46.548686    38614.337 
  771400    308.01053   -1530.3676    534.98197    389.14065    -321.1476    38614.337 
  771500    300.21358   -1519.6139    500.11451    329.97911    219.13144    38614.337 
  771600    293.62579   -1558.6029    526.37043    287.63355   -67.444205    38614.337 
  771700     290.6766   -1514.1992    513.04115    305.45118   -144.91684    38614.337 
  771800    298.85848   -1524.0424    506.07198    325.41688    38.287801    38614.337 
  771900    294.43447   -1550.8141    530.99149     303.6784    229.71102    38614.337 
  772000    304.26628   -1506.4099     506.4962    367.78195    489.44224    38614.337 
  772100    294.61868    -1537.573    531.22166    317.97782   -357.25093    38614.337 
  772200    295.08793   -1558.2042    495.53988    263.77407   -55.656281    38614.337 
  772300    292.22694    -1561.215    523.99655    276.35963   -743.75786    38614.337 
  772400    304.84741   -1561.8841    500.79289    309.21668   -253.31682    38614.337 
  772500    309.01171   -1574.4261    519.11183    333.71245   -120.05542    38614.337 
  772600    304.22261   -1586.0328    522.89466    304.36126   -529.55346    38614.337 
  772700    280.74691   -1579.2495    531.68061    214.40577   -1083.5376    38614.337 
  772800    310.86185   -1565.1742    504.95287    337.12184   -590.90843    38614.337 
  772900    298.50581   -1593.0303    505.61015    254.38185   -1171.7394    38614.337 
  773000    289.48835   -1590.0908    496.12082    207.29795   -17.598905    38614.337 
  773100    302.50892   -1581.1841    539.21579    317.82786   -221.01493    38614.337 
  773200    305.02463   -1579.4272    500.18055    291.85779    91.442285    38614.337 
  773300    303.88278   -1546.5101    505.07931    324.54097    84.851304    38614.337 
  773400    292.23506   -1604.7634    516.17881    225.02997   -120.47991    38614.337 
  773500    306.71439   -1602.6328    513.23981    289.30706   -66.323006    38614.337 
  773600    289.37515   -1589.8494    521.06664    231.97634   -180.83908    38614.337 
  773700    294.05767   -1574.9725    502.23474    249.06955   -564.74866    38614.337 
  773800    302.86493   -1581.1498     516.0254    296.27211   -284.64279    38614.337 
  773900    296.35678   -1543.1525    497.01542    286.00488    85.591309    38614.337 
  774000     304.4935   -1516.4441    551.90542    404.17837    -53.56082    38614.337 
  774100    295.31486   -1516.2591    506.77418    317.97359    88.398073    38614.337 
  774200    289.95116   -1524.9556    521.86704    300.25976     28.26659    38614.337 
  774300    300.58329   -1570.6983    504.03643    284.47856    458.93707    38614.337 
  774400    303.35293    -1613.851    527.52186    277.26099    7.3824976    38614.337 
  774500    297.21869   -1574.9428    497.94686    259.02039   -170.26478    38614.337 
  774600    304.78736   -1575.1944    525.12552    319.96908   -71.538546    38614.337 
  774700    301.43993   -1585.5338    532.14842    301.60569   -395.77792    38614.337 
  774800    297.00313   -1563.2712    541.37763     313.1538    54.383218    38614.337 
  774900     296.7219   -1602.5986    489.77189    220.95647   -421.85116    38614.337 
  775000    291.93092   -1587.6324    503.00734    227.62243   -341.17065    38614.337 
  775100    297.63857    -1583.908    507.21352    261.20925   -519.56893    38614.337 
  775200      292.598   -1561.9936    513.39908    266.65145   -108.99727    38614.337 
  775300     300.9727   -1560.6691    554.01091     346.2326    572.78508    38614.337 
  775400    300.58694   -1552.5044    508.64097     307.2934    354.14802    38614.337 
  775500    297.97418   -1556.7164     515.9345    298.63038    179.03259    38614.337 
  775600    301.95637   -1583.9874    503.74103    277.06615    559.67999    38614.337 
  775700    290.13769   -1534.2885    546.57319    316.47147     420.1016    38614.337 
  775800    288.85722   -1562.7361     505.0243    240.71914   -139.63132    38614.337 
  775900    296.96185   -1576.9249    518.40444    276.34132   -49.795289    38614.337 
  776000    301.29722   -1544.1083    496.14344    306.38467   -276.17483    38614.337 
  776100    296.41339   -1558.1881    538.77112    312.97944   -136.35464    38614.337 
  776200    297.11853    -1537.161    514.07638    312.48151   -308.70544    38614.337 
  776300    303.37581   -1549.5887    511.40057    325.50483   -3.1275058    38614.337 
  776400    300.19237   -1537.3604    496.54094    308.56366   -193.00396    38614.337 
  776500    301.84156   -1556.4021    516.77292    317.16725   -398.34764    38614.337 
  776600    302.06343   -1534.4575    515.18572    338.52191   -543.59804    38614.337 
  776700     307.6294   -1512.7942     507.7074    377.72631   -470.63842    38614.337 
  776800    291.47149   -1507.6971    528.87317    331.35836    -956.1134    38614.337 
  776900    303.89303   -1534.3127    512.31675    344.02197   -663.42368    38614.337 
  777000    294.27505   -1542.0073    515.63099    296.40816   -228.74793    38614.337 
  777100    299.20971   -1540.1483    502.02902    306.84674    -937.3197    38614.337 
  777200    299.00427   -1505.4205    537.97303    376.59508   -1185.9325    38614.337 
  777300    302.43794   -1544.2775    534.00451    349.20415   -532.56155    38614.337 
  777400    296.79288   -1561.1786    535.63939    308.56305   -168.34813    38614.337 
  777500    302.19024    -1521.301    513.42458    350.48733   -500.04777    38614.337 
  777600    290.83751   -1499.0186    523.76819    332.08209   -416.09795    38614.337 
  777700    295.84466   -1487.7967    536.14475    378.18804    121.65123    38614.337 
  777800    298.46915   -1526.9263    489.90794    304.61879    437.48331    38614.337 
  777900    297.45792   -1560.6467     530.1329    306.57791    593.96965    38614.337 
  778000    295.19674   -1485.8387    509.73081     350.8196    798.46703    38614.337 
  778100    309.91834    -1506.058    533.24973    420.29373     680.3499    38614.337 
  778200    298.75156   -1503.8343    536.62365    375.69599    -28.19176    38614.337 
  778300    284.86433   -1508.6226    505.41149    277.27157   -220.02155    38614.337 
  778400    304.61016    -1490.867    522.20125    400.57566   -384.60609    38614.337 
  778500    294.95693     -1462.52    541.23573     404.5653     77.26738    38614.337 
  778600     298.8423   -1470.2879    531.36183    404.38849    -711.1236    38614.337 
  778700    303.77968   -1507.1179    519.51588    377.90631   -458.82209    38614.337 
  778800    302.65475   -1509.9191     519.9347    370.46732     -20.0125    38614.337 
  778900    296.92296   -1516.4711    510.82612      329.042    114.65341    38614.337 
  779000    299.94092   -1532.8342    488.60714    304.02584    75.512694    38614.337 
  779100    306.27635   -1526.3774    523.48065    373.83434    355.06864    38614.337 
  779200    304.99601   -1531.0599    503.22851    343.14447    88.147272    38614.337 
  779300    288.21387   -1505.5808    501.07525    291.03356    -367.1247    38614.337 
  779400    302.13046   -1489.1114    502.41735    371.40101   -93.950165    38614.337 
  779500    303.84098    -1480.601    508.34146    393.52436   -471.54884    38614.337 
  779600    300.85535   -1495.2364    501.37916    358.50607   -788.14524    38614.337 
  779700    307.89228   -1471.4577    510.04137    422.57845   -359.04771    38614.337 
  779800    303.14381   -1526.3961    525.44976    361.70373   -342.08504    38614.337 
  779900    303.48069    -1515.697    503.64263    352.11007   -93.961733    38614.337 
  780000    302.48512   -1551.6685    508.37321    316.39398   -265.05573    38614.337 
  780100    303.68877   -1527.7758    505.72033    343.04422    169.64359    38614.337 
  780200    310.32831   -1529.1785    493.25436     359.0207    207.98607    38614.337 
  780300    302.38424   -1521.8295    519.46679    356.87313    169.64712    38614.337 
  780400    299.37926   -1499.4285     516.1221    362.42175    310.32373    38614.337 
  780500    303.15559   -1529.2171    527.98704    361.47302    516.93441    38614.337 
  780600    298.91488   -1530.5022    517.64098    330.77953   -494.12669    38614.337 
  780700    301.02819   -1527.5312    521.58194    347.19094   -238.90732    38614.337 
  780800    302.91715   -1479.1771    517.50639    399.96052   -44.474472    38614.337 
  780900    299.09515   -1509.3234    517.69213    352.81986   -573.28261    38614.337 
  781000    303.56776   -1578.1866    499.72558    286.09473   -203.87172    38614.337 
  781100    302.89285   -1553.1943    517.30887    325.63663   -185.16554    38614.337 
  781200     305.6588   -1587.6174    481.05974    267.39745    14.637195    38614.337 
  781300    298.86557   -1531.9856    528.81459    340.24813   -202.71544    38614.337 
  781400    299.95702   -1540.1938    529.10114    337.23256    69.314155    38614.337 
  781500    305.32853   -1548.7077    503.81358    327.57644    80.080088    38614.337 
  781600    293.00015   -1533.1215     510.3395    294.27171    363.96651    38614.337 
  781700    295.18876   -1521.7438    500.01443    305.16228    332.36225    38614.337 
  781800    301.18281   -1514.3978    513.95686    353.39427    421.53348    38614.337 
  781900    300.46572   -1493.1418    511.09405    368.56417    374.04916    38614.337 
  782000    297.13032   -1505.4972    512.82916    342.95102   -15.483384    38614.337 
  782100    308.41008   -1525.2656    498.08056    359.13727   -263.32111    38614.337 
  782200    290.55361   -1493.6073    503.21545    315.66453   -476.85043    38614.337 
  782300    308.61561   -1517.6743    533.80389    403.37577   -397.06759    38614.337 
  782400    302.88796   -1515.4355    491.48922    337.55374   -466.53606    38614.337 
  782500    293.43567   -1522.8744    511.70547     307.8425   -547.09335    38614.337 
  782600    306.69765   -1525.9898    514.14913    366.78417   -607.55938    38614.337 
  782700     307.9703   -1523.1705    479.46657    340.64154   -550.28709    38614.337 
  782800    299.46563   -1499.8157    524.17409    370.47484   -263.04225    38614.337 
  782900     294.1601   -1494.2267    515.55844    343.59956   -118.63641    38614.337 
  783000    296.27084    -1528.049    503.55812    307.26474   -651.98415    38614.337 
  783100    303.38861   -1537.0891    515.62644    342.28785   -81.180118    38614.337 
  783200    291.43011   -1527.1187    521.34484    304.22244   -123.21669    38614.337 
  783300     291.9031   -1543.9807      496.935     265.0767   -39.051673    38614.337 
  783400    295.05118   -1549.3736    490.00879    266.90839    422.68796    38614.337 
  783500    301.84498   -1519.2224    552.05563    389.64503    339.12764    38614.337 
  783600    299.70337   -1503.3165    478.94949    322.81805   -487.98092    38614.337 
  783700    296.67056   -1483.0647    539.07225    389.55994   -223.85181    38614.337 
  783800     307.9973   -1499.6044    499.14022    384.00266    90.208416    38614.337 
  783900    293.77184   -1495.1085    502.63392    328.04792    379.20705    38614.337 
  784000    295.74045   -1527.5979    516.80299    318.57661    341.01527    38614.337 
  784100    292.89756    -1511.834    519.37522    324.13377    459.58335    38614.337 
  784200    312.98418   -1483.5673    503.81715    427.13302    219.54172    38614.337 
  784300    304.02695   -1539.1764    499.52913    326.97256    515.06005    38614.337 
  784400    295.75364   -1557.4953    513.05005    284.98555   -148.70835    38614.337 
  784500    303.40296    -1521.298    517.90096    360.41796    258.19762    38614.337 
  784600    293.69759   -1564.9379    496.84666     252.0975   -149.35057    38614.337 
  784700    303.13648   -1580.4228    504.44027     286.6346    242.82356    38614.337 
  784800    305.81522   -1558.8896    500.97994    316.74855   -358.78653    38614.337 
  784900    294.48852   -1563.7733    492.70436    252.67513   -179.74859    38614.337 
  785000    308.52395   -1547.4449    510.54423    349.93345    582.12903    38614.337 
  785100    302.17277     -1522.59    528.24047    363.93569    869.18589    38614.337 
  785200    300.85478   -1553.5931    478.32051    277.08817    334.01023    38614.337 
  785300     295.2636   -1544.3816    536.42316    319.26963   -153.01735    38614.337 
  785400     294.3024   -1573.0435    497.17927    247.04314   -435.41221    38614.337 
  785500    313.04602   -1552.4107    496.60169    351.35213   -110.12756    38614.337 
  785600     299.1901   -1527.9345     489.4624    306.40583   -609.91247    38614.337 
  785700    305.56037   -1529.2362    485.49554    329.77199   -756.63911    38614.337 
  785800    300.08486   -1504.7592     505.2631    349.40386   -756.76036    38614.337 
  785900    300.63727   -1516.0022    499.19104    334.57186   -111.62209    38614.337 
  786000    304.70091   -1528.7682    488.58959    329.47074    348.51589    38614.337 
  786100    300.16524   -1557.2435    527.52383    319.54157    34.377603    38614.337 
  786200     296.4698   -1518.5935    496.50644    310.56292   -289.15472    38614.337 
  786300    292.05189   -1614.3305    507.08964    205.55038     104.4864    38614.337 
  786400    303.39888   -1590.3725    484.71343    258.13761   -445.16446    38614.337 
  786500    304.25478   -1510.9563    484.97521     341.6629   -206.39933    38614.337 
  786600    303.40901   -1542.5175    491.84545    313.17015   -333.75632    38614.337 
  786700     304.1013    -1515.749    501.51665    352.72176   -183.93253    38614.337 
  786800    293.65054   -1527.2685    521.16951    313.87827   -262.20997    38614.337 
  786900    310.99532   -1527.4273    493.93143    364.44721    651.93394    38614.337 
  787000    302.31461   -1563.0607    503.42188    299.28398   -466.26619    38614.337 
  787100    286.90758   -1561.7098    510.95861    238.91601   -195.48093    38614.337 
  787200    301.52623   -1536.7658    499.91716    318.53038   -286.60759    38614.337 
  787300    301.87043   -1506.6363    514.99792    365.28781    599.49809    38614.337 
  787400    290.57334   -1520.9197    516.74689    301.97219    68.160856    38614.337 
  787500    310.07435   -1520.4107    497.11992     370.5125     150.0701    38614.337 
  787600    311.80341    -1532.936    491.86054    360.50004    325.57537    38614.337 
  787700    309.94989   -1564.8591    488.69052    317.07528    192.12909    38614.337 
  787800    296.84067   -1524.8879    501.49217    310.92138    124.09984    38614.337 
  787900    304.33887   -1529.3752    505.87196    344.51875    600.35793    38614.337 
  788000    300.24407   -1559.7429    513.19321    303.06589    274.73522    38614.337 
  788100     305.9367    -1508.767    500.41975    366.85702    632.92412    38614.337 
  788200     306.7921   -1500.3076    483.91666    362.65844    489.60024    38614.337 
  788300    311.06111   -1555.6117    522.94907    365.57618    409.44155    38614.337 
  788400    300.76878    -1508.377    511.62162    355.21884    211.60961    38614.337 
  788500    309.97172   -1483.7818    524.83098     434.3912     221.4311    38614.337 
  788600    297.02287   -1501.2577    480.50883    314.38721   -59.842359    38614.337 
  788700    294.06703    -1529.032    528.43212    321.24951    88.358998    38614.337 
  788800    296.52041   -1544.1931    495.92724    284.61164    341.33188    38614.337 
  788900    308.13248   -1577.2015    491.40276    299.27568    396.53158    38614.337 
  789000     307.3323   -1522.9345    517.02563    375.56873    722.63797    38614.337 
  789100    297.62376   -1537.3058    486.88685    287.41822   -144.36182    38614.337 
  789200    297.21167   -1483.8359    490.95456    343.10339    572.87414    38614.337 
  789300    313.17812   -1503.0379    503.69743    408.41449    -251.9451    38614.337 
  789400    300.13031    -1507.621    496.03287     337.5161     77.93581    38614.337 
  789500    298.75208   -1504.3148    510.02716    348.62133    477.48417    38614.337 
  789600    306.57584   -1532.7055    513.78225    359.15406   -42.939086    38614.337 
  789700    310.80907   -1471.2173    504.80037    430.68894   -162.38693    38614.337 
  789800    298.47474   -1479.4296    501.83081    364.06356    120.12326    38614.337 
  789900    299.80198    -1477.755    538.17022    408.04356   -241.93375    38614.337 
  790000    305.16787   -1490.7039    510.74453    391.78897    347.13532    38614.337 
  790100    292.81789   -1492.4403    504.19362    327.98772    195.45423    38614.337 
  790200    301.15229   -1494.5436    503.60633    362.76079    560.84157    38614.337 
  790300    305.90883   -1513.5403    503.27318    364.81187     213.2209    38614.337 
  790400    297.25532   -1493.3739    505.46446    348.27154    -255.9035    38614.337 
  790500    299.21026   -1530.0051    500.67224    315.63567   -634.87815    38614.337 
  790600    307.97764   -1475.5695    517.13924    425.94825   -103.16758    38614.337 
  790700    290.78521   -1498.7803     500.6907    309.00778   -221.37886    38614.337 
  790800    289.84629   -1530.9955    494.99464    266.87603    393.30555    38614.337 
  790900    301.89495      -1512.1    507.05502    351.99143    349.54153    38614.337 
  791000    284.98446   -1499.3112    491.66892    273.38042   -179.17048    38614.337 
  791100    305.51441   -1493.9495     506.1502    385.50679    -108.9692    38614.337 
  791200    310.66661   -1504.5204    518.50045    410.44563    28.058471    38614.337 
  791300    309.28057   -1482.2321    503.71199    411.71505   -55.149094    38614.337 
  791400    305.44351   -1533.4396    493.82325    333.37103    302.92924    38614.337 
  791500     297.0767   -1517.3379    514.14194    332.18212    233.24577    38614.337 
  791600    297.47397   -1498.1163    509.53811    348.58561     50.76926    38614.337 
  791700     300.2203   -1507.6357    507.01744    348.89043    605.41284    38614.337 
  791800    299.33922   -1546.9553    502.15455    300.74749    707.26146    38614.337 
  791900    296.92029   -1507.6126    523.41208    350.47448     207.9368    38614.337 
  792000    311.10869   -1528.9552    490.83015    360.32768    229.98572    38614.337 
  792100    299.64066   -1516.0421     520.7914    351.65252    -183.8404    38614.337 
  792200     313.3166   -1513.9832    471.54236     365.9366    691.77267    38614.337 
  792300    294.32449   -1494.3099     517.2429    345.93975    204.94985    38614.337 
  792400     303.2082   -1437.5738    519.06002    444.42575   -33.121404    38614.337 
  792500    297.22065   -1456.6952    503.17409    382.50401    254.37995    38614.337 
  792600     288.8378    -1437.532    515.11312    375.92483   -78.570214    38614.337 
  792700    310.35387   -1447.9448    524.77543    471.89035   -283.57705    38614.337 
  792800    299.04424   -1448.4261    499.89592    395.69205   -651.60112    38614.337 
  792900    301.40028   -1455.5636    508.42696    407.67615   -488.57972    38614.337 
  793000      284.253   -1450.7117    509.29929    336.32233   -341.19584    38614.337 
  793100    294.19418   -1475.0708    534.18501    381.53511   -471.28581    38614.337 
  793200    296.41824   -1478.1517    520.54308    374.80967   -738.11875    38614.337 
  793300    291.09813    -1487.376    507.51526    328.64329   -790.42195    38614.337 
  793400    299.64302   -1494.7761    515.67632    367.81406   -345.39868    38614.337 
  793500    309.24888   -1500.8961    505.93736    395.13398   -56.950775    38614.337 
  793600    304.75679   -1508.0315    504.03693    365.90594    14.951129    38614.337 
  793700    292.47932   -1481.5356    516.37129     349.5482    551.75129    38614.337 
  793800     295.1054   -1533.5395    520.69633     313.6738    11.142409    38614.337 
  793900    307.33546   -1555.9232    510.83373    336.40233    322.80431    38614.337 
  794000       292.83   -1576.7111    504.00689    243.58466   -353.43456    38614.337 
  794100    304.45861   -1548.8089    492.25408    312.00541    25.543402    38614.337 
  794200    294.63924   -1563.1552    488.75854    250.02485    -188.3681    38614.337 
  794300    297.86707   -1542.1812    526.30419    323.05377     157.2835    38614.337 
  794400    297.78056   -1559.5961    499.13087     278.0767   -106.69932    38614.337 
  794500    290.51044    -1558.494    534.14923    281.51754    38.331557    38614.337 
  794600     298.5928   -1520.4004    514.91338      336.706    108.17052    38614.337 
  794700     292.0665   -1551.0503    483.97173    245.77837   -474.05117    38614.337 
  794800    291.03226   -1522.5926    511.10206    296.71736   -450.15742    38614.337 
  794900     298.1004   -1504.4218    499.64566    335.20352   -211.02013    38614.337 
  795000    299.03353   -1510.5477    503.63136    337.25781   -444.66091    38614.337 
  795100    292.24858   -1508.1192    499.33396    304.89008   -860.09089    38614.337 
  795200    307.31416   -1496.6752     517.0375    401.75836    -463.9114    38614.337 
  795300    299.28105   -1489.8362    490.58592    346.03642    109.69927    38614.337 
  795400    309.70372   -1523.1207    501.94816    370.96476   -172.67025    38614.337 
  795500    304.68194   -1528.5601    510.03948    351.04343   -58.607123    38614.337 
  795600    293.34218   -1501.0109    497.78181    315.36204    251.27814    38614.337 
  795700    310.88906   -1449.5391    507.98022     455.9066   -253.10303    38614.337 
  795800    298.49805   -1495.3043    527.31027    373.77306   -547.56335    38614.337 
  795900    302.47071   -1486.1121    503.77554    377.28787   -904.27602    38614.337 
  796000    307.60611   -1476.3291    516.06365    422.44295   -659.53431    38614.337 
  796100     300.3388   -1488.0886    496.84283    358.79563   -633.17833    38614.337 
  796200    298.17253   -1482.5487    537.73473    395.48992    68.242297    38614.337 
  796300     294.6176   -1517.5973    520.11703    326.84394   -181.39663    38614.337 
  796400    306.93328   -1535.1974    535.84959    380.33619     707.0152    38614.337 
  796500    300.27623   -1525.8372    484.94247    308.86543    585.99589    38614.337 
  796600    309.70221   -1532.1506    506.16943    366.14936    475.51952    38614.337 
  796700    294.99398   -1552.6792    491.47715    264.81405   -164.98216    38614.337 
  796800    295.27879   -1572.7596    511.23197    265.76868   -821.28756    38614.337 
  796900    308.28216    -1544.855    476.46592    317.35821   -397.21237    38614.337 
  797000    302.31392   -1521.4598    507.33016    344.79003   -320.12428    38614.337 
  797100     301.5161   -1541.4239    520.69173    334.60121   -219.55292    38614.337 
  797200     298.0893   -1547.8482    484.75083    276.83233   -123.19577    38614.337 
  797300     292.8845   -1554.9484    496.83615    258.42157   -311.31716    38614.337 
  797400    309.19625   -1581.9182    495.56811    303.50604   -484.34278    38614.337 
  797500      300.291   -1586.9708    468.13812    230.99387   -292.51323    38614.337 
  797600    307.79855   -1570.5219     496.0145    309.06603    81.956459    38614.337 
  797700    295.30044   -1591.6604    471.47003    207.20327   -264.85447    38614.337 
  797800    306.12118   -1536.3881     515.6588    355.30428     59.41476    38614.337 
  797900    305.44334   -1569.9335    514.01492    317.06804   -360.47415    38614.337 
  798000    301.27821   -1517.0228    531.76137    369.00271   -170.96792    38614.337 
  798100    299.37188   -1545.8587    454.58369    254.42004   -324.13848    38614.337 
  798200     304.3958    -1543.723    526.50735    351.06222   -552.04107    38614.337 
  798300     296.1787   -1547.7484    501.02918    284.62231    163.14986    38614.337 
  798400    285.23306     -1533.95       514.32    262.51016   -739.18578    38614.337 
  798500    294.67779   -1519.0202    507.12471     312.6993   -630.07324    38614.337 
  798600    291.43999   -1605.2026    483.20847    188.04659   -294.44988    38614.337 
  798700    298.65826   -1560.0133     497.7994     280.2734    -434.3781    38614.337 
  798800    302.30413   -1524.1461    500.68707    335.41667    601.65408    38614.337 
  798900    309.83706   -1557.3634    505.60891     340.9822    314.97532    38614.337 
  799000    305.66946   -1544.2172    518.00228    347.78812    405.27101    38614.337 
  799100    299.80485   -1559.0846    491.42128    279.97792    567.34267    38614.337 
  799200    300.81713   -1602.0869     517.2565    267.36109    486.68528    38614.337 
  799300    302.68856   -1581.9129    499.13872    277.82956     442.6499    38614.337 
  799400    297.76551    -1549.882    521.50948    310.10174    478.05317    38614.337 
  799500    302.14528   -1565.7124    499.17878    291.62801    33.313933    38614.337 
  799600    289.26668   -1521.6747    510.71794    289.31471    34.095339    38614.337 
  799700    299.84132   -1575.6749    487.75286    259.88318    228.62358    38614.337 
  799800     297.7427   -1542.1428    497.38022    293.60918     130.1048    38614.337 
  799900    296.31177   -1533.6978    527.99304     326.2349    53.267039    38614.337 
  800000    299.56066   -1534.1808    501.51215    313.87497    245.75517    38614.337 
  800100    307.30961   -1508.0667     494.9901    368.29898    411.58767    38614.337 
  800200     298.2484   -1541.0012    491.22419     290.8679    -159.9242    38614.337 
  800300    300.29095   -1488.5119    506.43361    367.74799   -466.99319    38614.337 
  800400    284.13818     -1518.41    481.19752    240.00618   -399.71578    38614.337 
  800500    298.08208   -1521.8663    513.21273     331.2437   -234.92573    38614.337 
  800600    303.42621   -1547.0356    483.90987    300.79372   -585.58254    38614.337 
  800700    305.76022   -1556.2932    509.95649    328.07435   -177.06715    38614.337 
  800800    289.49434   -1562.8225    509.19044    247.66281   -476.11118    38614.337 
  800900    297.92264   -1522.2451    506.14247    323.07799    102.81565    38614.337 
  801000    295.71583   -1499.3779      487.649    317.53195    18.069586    38614.337 
  801100    305.06346   -1489.9221      516.314     397.6709   -225.13968    38614.337 
  801200    308.58509   -1529.1485    509.20398    367.16442    32.220344    38614.337 
  801300    296.79655   -1520.2879    503.33701    317.16793    96.913022    38614.337 
  801400    295.36445   -1521.0264    502.00774     308.6627    461.50532    38614.337 
  801500    253.64831   -1507.7317    503.54761    135.98069   -585.65242    38614.337 
  801600    299.84845    -1484.233    511.85406     375.4583    207.59265    38614.337 
  801700    306.82495   -1516.9155    520.01688    382.29846    184.65956    38614.337 
  801800    294.96208   -1525.0637     525.0097    325.81875    68.514799    38614.337 
  801900    307.86035   -1466.7725    528.77536    445.85413   -362.16222    38614.337 
  802000    292.63662   -1497.7755    531.41743    349.06156    23.505012    38614.337 
  802100    293.55898   -1530.6563    511.63638    300.54575    239.43613    38614.337 
  802200     301.9517   -1458.7153    509.13918     407.7153    302.92509    38614.337 
  802300    301.39474   -1497.3574    477.90751    335.33798   -171.38402    38614.337 
  802400    299.99233   -1473.1372    501.10633    376.45308   -359.77363    38614.337 
  802500    294.61794   -1470.6536    521.16239    374.83454   -435.38529    38614.337 
  802600    290.13976   -1495.1653    511.47832    320.50915     151.2193    38614.337 
  802700    303.05193   -1504.4724     509.2435    367.00821    877.91012    38614.337 
  802800    298.77023   -1518.2968    518.11695    342.81078   -24.275582    38614.337 
  802900    305.86837   -1469.4698    532.19827     437.6256    330.50774    38614.337 
  803000    297.45283   -1494.2121     485.8379    328.69461    260.86685    38614.337 
  803100    299.49078   -1514.6933    531.65307    363.18928    567.94772    38614.337 
  803200    294.39724   -1531.8036    505.99612    297.52623   -74.562866    38614.337 
  803300    298.08741   -1514.1956    518.19657    343.92228    272.82784    38614.337 
  803400    302.18945   -1493.3503     486.3737    351.38354    139.08677    38614.337 
  803500     294.2308   -1536.5128    498.10018    284.17296    464.99703    38614.337 
  803600    298.11343   -1507.0746    486.29618    319.25975     423.5908    38614.337 
  803700    302.93736   -1506.0191    522.29272     377.9957   -15.901224    38614.337 
  803800    299.29498   -1521.7178    495.17657     318.8081    25.534439    38614.337 
  803900    300.66767   -1509.1257    495.25975    337.65377   -69.041846    38614.337 
  804000    290.67737   -1489.8697    515.36067    332.10365   -221.77622    38614.337 
  804100    294.95067   -1511.4255     526.3154    340.71131   -89.028335    38614.337 
  804200    297.22226   -1510.3499    507.57951      333.262   -412.63549    38614.337 
  804300    292.91743   -1517.5138    483.35853    282.52664   -969.79277    38614.337 
  804400    291.85971   -1536.1893    530.09728    305.83531     -466.271    38614.337 
  804500    301.85629   -1571.5583     501.5503    286.85464    371.69405    38614.337 
  804600    307.40415   -1545.0858    491.14228    327.85707    301.38268    38614.337 
  804700    300.07219   -1512.0538     526.6574    363.44662   -83.668276    38614.337 
  804800    306.73181   -1532.2915    507.88324     354.3701    4.4276318    38614.337 
  804900     308.6416   -1536.9332    515.37516    365.80494     222.9516    38614.337 
  805000     290.9081   -1568.6254    500.13041    239.15481    -651.4036    38614.337 
  805100    297.33811   -1561.2651    491.88175    267.16973   -762.32302    38614.337 
  805200    292.23523    -1548.859    507.55925    272.31562   -470.75104    38614.337 
  805300    300.60631   -1565.3636    502.25995    288.14018    -1.611625    38614.337 
  805400    301.14067   -1582.4831    484.54702    255.70977   -437.50353    38614.337 
  805500    302.40574   -1525.9955    524.08117    357.41813   -458.11877    38614.337 
  805600    290.96297   -1539.6192    503.91954    272.19682   -598.04441    38614.337 
  805700    312.74865   -1502.6017    490.28613    393.50884   -24.239754    38614.337 
  805800    301.21056   -1511.6412    498.11081    340.42963   -431.68676    38614.337 
  805900    297.14912   -1544.0103    507.82155    299.51487   -66.474581    38614.337 
  806000    309.62666   -1512.9014    521.93191    400.82146    142.80811    38614.337 
  806100    300.49011   -1492.0886    536.98537    395.61832    133.45327    38614.337 
  806200    298.25071   -1536.8537    505.95116    309.75271    317.27627    38614.337 
  806300    296.29794    -1566.921    520.61252    285.56901    660.87876    38614.337 
  806400     301.8645   -1536.9367    510.24555    330.20833    1030.6686    38614.337 
  806500    305.55891   -1537.4228    519.13721    355.22049    475.86951    38614.337 
  806600    296.39047   -1547.5153    502.48645    287.26456    170.08562    38614.337 
  806700    297.60043   -1523.1303    516.30465    330.90662   -198.75513    38614.337 
  806800      304.828     -1532.74    513.69172    351.17238   -209.91978    38614.337 
  806900    297.37133    -1526.828    499.18415    309.05864    9.7327423    38614.337 
  807000    298.57283   -1490.0618    509.17444    361.21588   -34.448804    38614.337 
  807100     293.6532   -1525.2985    513.37876    308.06949   -661.58167    38614.337 
  807200     290.0137   -1558.4847    511.97858    257.12334   -198.05999    38614.337 
  807300    295.15695   -1500.5622     505.7155    331.90197   -241.35502    38614.337 
  807400    299.39809    -1487.186    502.18189    360.80872   -260.06658    38614.337 
  807500    306.08266   -1504.4072    529.87869    401.33183   -104.69543    38614.337 
  807600    293.01037   -1537.5395    482.15598    261.71616      267.646    38614.337 
  807700    296.10137   -1521.0598    491.65033    301.58437    -2.020719    38614.337 
  807800    290.18943    -1540.089    504.17157    268.50194   -134.44374    38614.337 
  807900    298.01017   -1528.5831    495.11805    306.10898   -582.15578    38614.337 
  808000    300.85567   -1534.4347    515.36143    333.29149    -778.5341    38614.337 
  808100     298.3559    -1574.967    495.15167    261.31281   -653.04043    38614.337 
  808200    296.99799   -1532.5563    496.19666    298.66459   -457.08665    38614.337 
  808300    308.10246   -1557.4623    501.67037    329.14761   -76.132539    38614.337 
  808400    298.53975   -1574.9528    506.47097    273.47268   -60.397115    38614.337 
  808500    299.45161   -1555.7584    493.97689    284.27188    10.779713    38614.337 
  808600    304.11503   -1564.2388    495.74359    298.52059    -253.2621    38614.337 
  808700    302.38103   -1484.0955    501.06797    376.19376       -11.28    38614.337 
  808800    291.36269   -1506.1527    533.66188    337.20236    54.873297    38614.337 
  808900    299.20336   -1541.6205    504.81889    308.13595     285.2964    38614.337 
  809000    287.43933   -1550.9965    508.13581    249.19684      125.936    38614.337 
  809100    284.45926   -1543.7168    524.81833    259.76346   -141.79528    38614.337 
  809200    302.00569     -1562.01    512.72456    308.24876    724.87213    38614.337 
  809300    304.11511   -1540.1848    483.59025    310.42162    63.031134    38614.337 
  809400    297.21798   -1493.9383    522.62669    364.70145    137.79356    38614.337 
  809500    306.22571   -1495.7054    515.87759    396.67558   -164.26991    38614.337 
  809600    313.01528    -1504.895    501.88539    404.01336    228.42943    38614.337 
  809700    303.33539    -1478.106    528.47688    413.88215    67.419474    38614.337 
  809800     295.7009   -1452.8633    505.35532     381.6858    78.434492    38614.337 
  809900    297.33456   -1475.4689    515.39514    376.46334    213.19596    38614.337 
  810000    300.10688   -1467.5972    515.42393    396.82557    11.166711    38614.337 
  810100    293.05653   -1510.9643    517.60369    323.94656    197.04093    38614.337 
  810200    291.52519   -1504.4339    527.51124    333.50098    549.73158    38614.337 
  810300    291.39875   -1516.1934    521.70044    315.36237    453.97091    38614.337 
  810400    297.23393   -1557.1076    495.61512    274.59235    215.47191    38614.337 
  810500    298.17654   -1566.5007    504.86924    278.69046    103.19783    38614.337 
  810600    301.79602   -1548.5331    501.46406    309.52268    354.54623    38614.337 
  810700    310.24066   -1542.7306    531.51117    383.33146    622.11567    38614.337 
  810800     293.6124   -1529.6615    490.40242    280.54672    264.44192    38614.337 
  810900    315.70199   -1527.3287    485.00988    376.78108    649.19472    38614.337 
  811000    298.92235   -1522.1553    497.16586    318.68495    650.97514    38614.337 
  811100    303.61212   -1541.3175    508.12383    331.56153     337.6477    38614.337 
  811200    306.97853   -1491.1244    488.37869    377.14167    332.90979    38614.337 
  811300    307.58684    -1481.458    485.72635    386.89016   -248.54761    38614.337 
  811400    303.64263   -1540.2351    507.85022    332.50744    315.80351    38614.337 
  811500    287.00981   -1547.5384    504.78467    247.37306   -26.639046    38614.337 
  811600    310.36081   -1511.3083    515.60529    399.38796    512.17057    38614.337 
  811700    298.49175   -1553.7363     505.3994    293.40192    803.82838    38614.337 
  811800    306.90695   -1583.0505    520.91606    317.43121    624.00543    38614.337 
  811900    296.51993   -1519.0329    521.02205    334.86447    344.08755    38614.337 
  812000    298.24061   -1522.3346    524.92243    343.19772    339.61584    38614.337 
  812100    299.54212   -1540.6035    502.15495    308.01171    207.11947    38614.337 
  812200    289.02098   -1505.6132    522.03988    315.59379      93.9503    38614.337 
  812300    304.34567   -1506.8268    471.59801    332.82368   -95.498972    38614.337 
  812400    298.04791   -1490.8908    501.49065    350.34357   -465.50129    38614.337 
  812500    309.87151   -1472.2163    510.38717    431.06239   -646.18866    38614.337 
  812600    307.50443   -1483.9175    501.93068    400.26453   -553.50775    38614.337 
  812700    302.63987    -1478.831    496.61409    378.16794   -375.83528    38614.337 
  812800    297.64871   -1496.0894    496.47434    338.33423   -791.07268    38614.337 
  812900    292.23914   -1507.2282    516.14342     322.5481   -843.98846    38614.337 
  813000    312.01792   -1513.9428    492.58744    381.18436   -1451.6889    38614.337 
  813100     308.5637   -1521.0127    542.09971     408.0998   -360.88794    38614.337 
  813200    298.63485   -1478.6447      505.613    369.35034    -79.25417    38614.337 
  813300     298.2953   -1438.2424    523.14667    425.75997    27.352438    38614.337 
  813400    307.01187   -1456.8294    521.25063    444.45847    -577.9577    38614.337 
  813500    293.65734    -1455.076    498.91729    363.84915   -1106.9653    38614.337 
  813600    299.39795   -1476.9077     496.0194    364.92392   -939.66546    38614.337 
  813700    295.94262   -1477.6749    478.25802     330.8634   -1074.5829    38614.337 
  813800    308.30876   -1472.4198    509.43757    422.88461   -625.41894    38614.337 
  813900    298.83136   -1476.7582     503.5876     370.0948   -543.90798    38614.337 
  814000    306.04768   -1474.4142    499.51866    400.80769    -97.24845    38614.337 
  814100    309.56825   -1468.8603    512.59001    435.25804   -857.94341    38614.337 
  814200    292.80968   -1475.8255    531.15414    371.52614   -557.89044    38614.337 
  814300     303.8024   -1523.0462    503.94132    346.50559   -100.58688    38614.337 
  814400    299.46215   -1441.7265    514.00937    418.38369   -299.49649    38614.337 
  814500    286.81517   -1471.7242    510.01733    327.54495    237.01415    38614.337 
  814600    300.00223   -1504.2237    496.25346    340.55826    57.801962    38614.337 
  814700    297.53821    -1503.242    489.98319    324.19375    49.433863    38614.337 
  814800    300.24126   -1516.9898    511.13095    343.74415    432.93744    38614.337 
  814900    300.00769   -1520.8978    523.97784    351.63301    171.15346    38614.337 
  815000    294.10548   -1509.9134     484.3231    296.43193     357.6762    38614.337 
  815100    288.12614    -1505.481     520.1856    309.84932    17.900469    38614.337 
  815200    292.40864   -1514.6432    506.80259    306.55428   -259.56124    38614.337 
  815300    295.44413   -1496.1044    478.48541    310.42058   -434.73252    38614.337 
  815400     290.0693   -1507.5022     517.7385    314.11569    68.858462    38614.337 
  815500    299.09781   -1522.5566    496.82309    318.72953   -236.41753    38614.337 
  815600     311.5224   -1523.2868    506.66048    383.68599   -99.569308    38614.337 
  815700    298.98947   -1510.3901    486.00304    319.58898   -344.10378    38614.337 
  815800    292.63623   -1549.9338    522.47456    287.95867   -477.55623    38614.337 
  815900    295.09916   -1486.2395    520.09225    360.34166    529.11597    38614.337 
  816000    297.37673   -1521.2016    515.27827    330.80334    349.03889    38614.337 
  816100    301.56286   -1523.7274     493.6243    325.44048    914.78922    38614.337 
  816200    300.63521   -1511.0273    507.32148    347.66794    547.21027    38614.337 
  816300    294.43976   -1500.1791    498.16676    321.51248       204.37    38614.337 
  816400     304.9029   -1467.4424    518.41334    421.52825    245.27145    38614.337 
  816500    292.26089    -1465.973     514.0496    361.80731   -295.36295    38614.337 
  816600    302.76918   -1474.6791    473.84537    360.13243   -434.49454    38614.337 
  816700    307.88661   -1515.0739    508.00895    376.90433   -90.510968    38614.337 
  816800    295.93162   -1495.2701    495.38884    330.34955   -55.120688    38614.337 
  816900    309.82322   -1434.2475    527.95291    486.37986     177.4502    38614.337 
  817000    293.77879   -1466.4033    501.82233    355.97278   -529.21058    38614.337 
  817100    303.09288   -1483.2674    495.79892    374.95264    47.393882    38614.337 
  817200    296.16035   -1470.7362    495.60379     356.1266     6.932784    38614.337 
  817300    307.37186    -1473.494    516.95719    425.11865     -223.336    38614.337 
  817400     300.4379   -1491.7216    503.16489    361.93017   -136.54091    38614.337 
  817500    296.02733   -1461.6946    526.84022    395.80675    -654.2041    38614.337 
  817600     299.3658   -1433.7744    500.93139    412.82468    317.94269    38614.337 
  817700     306.2277   -1475.2729    506.83143    408.07085     6.038276    38614.337 
  817800    302.00915   -1479.0741    518.49061    396.96626   -96.516488    38614.337 
  817900    298.09267   -1497.5406    496.76828    339.17262    -465.0245    38614.337 
  818000     293.0585    -1499.565    497.27408    315.02512   -675.88637    38614.337 
  818100    304.89825   -1513.1629     529.3265    386.69998   -231.32862    38614.337 
  818200    301.69092   -1483.0178    498.02878    371.13022   -255.35676    38614.337 
  818300    299.74233   -1506.3041    507.76504    348.82113   -261.95854    38614.337 
  818400    297.32344   -1518.8581     523.5701    341.19917    377.81382    38614.337 
  818500    294.74101   -1469.8245    476.61016    331.66465   -312.05802    38614.337 
  818600     294.8358    -1474.286     519.3455    370.36456   -632.75522    38614.337 
  818700    298.62575   -1470.8594    498.57167    370.05343   -220.62966    38614.337 
  818800    302.17574    -1488.891    508.17371    377.58128    -431.4923    38614.337 
  818900    301.90886   -1510.4159    488.83584    335.51882   -64.757241    38614.337 
  819000    290.33559   -1510.5541    507.62532    302.14759    629.58896    38614.337 
  819100    294.93432   -1489.8496    519.17117    355.06947    216.81212    38614.337 
  819200    310.06554   -1492.3617    505.58846    406.99048    424.05016    38614.337 
  819300    295.93531    -1497.781    525.11076    357.57726    992.32163    38614.337 
  819400    298.31801    -1541.913     502.1692      301.214    796.45919    38614.337 
  819500    292.20396   -1486.8656    518.88017    345.48939    684.84429    38614.337 
  819600    300.44201   -1451.6332    480.81829    379.69045    406.50781    38614.337 
  819700    297.09809   -1486.1015    495.47567    344.84834    917.39287    38614.337 
  819800    302.28213   -1495.3852    539.90823    403.29975    719.62361    38614.337 
  819900    301.25598    -1541.637    492.15217    304.67936    777.46173    38614.337 
  820000    300.89659   -1554.7169    515.37516    313.20694    527.12166    38614.337 
  820100    301.18041     -1541.79    490.73922    302.77372    -392.4279    38614.337 
  820200    302.99641   -1498.9714    511.13999    374.15606    313.95242    38614.337 
  820300    291.06213   -1528.0785    502.65337    282.91701    392.52577    38614.337 
  820400    310.29992   -1522.9373    487.49661    359.37652    258.32934    38614.337 
  820500    301.28557   -1532.3296    494.14557    316.11318     239.6951    38614.337 
  820600    297.80941   -1548.2868    496.38361    286.76849   -110.88425    38614.337 
  820700    302.97814   -1519.5366     477.5127    319.88154   -347.09692    38614.337 
  820800    305.84122   -1501.3734    506.54524    379.94693   -53.583176    38614.337 
  820900    294.32078   -1480.9364      515.645    357.69865   -794.04075    38614.337 
  821000    299.04173    -1469.966    511.34033    385.58534   -76.887178    38614.337 
  821100    302.04064   -1523.5246    492.04489    326.21152   -816.91809    38614.337 
  821200    300.32372   -1513.7773    481.73947    317.93575   -481.36426    38614.337 
  821300    300.75863   -1557.3509    517.87329    312.45092   -783.99339    38614.337 
  821400    295.58663    -1518.977     482.6497    292.35283   -503.42066    38614.337 
  821500    296.76113   -1521.0309    533.11696    346.04561    -374.8194    38614.337 
  821600    293.23323   -1510.6053    495.69899    303.19514   -510.37333    38614.337 
  821700    294.88633    -1542.825    512.80887    295.51608    -667.8109    38614.337 
  821800    299.96497   -1581.1825    503.46187    270.64042   -664.60941    38614.337 
  821900    313.11377   -1539.5239    470.00879    337.95059   -495.20387    38614.337 
  822000    305.92952   -1541.7255    456.00002    289.44656   -853.80925    38614.337 
  822100    306.90157   -1554.7341    468.11066    292.91804   -620.40398    38614.337 
  822200    293.62681   -1572.1643    495.88031     243.5866   -734.10747    38614.337 
  822300    304.84051   -1541.1964    500.53712    329.61762    142.00332    38614.337 
  822400    306.42941     -1551.63    491.96392    317.75301   -100.11951    38614.337 
  822500    296.50053   -1568.9556    493.29521    257.12779    221.46696    38614.337 
  822600     291.1242   -1550.2666    490.72575    249.08035   -164.87697    38614.337 
  822700     293.1097   -1537.1599    504.64115    285.02737   -571.29367    38614.337 
  822800     298.2317   -1579.5879    499.96266    260.94461    -187.0916    38614.337 
  822900    309.13673   -1589.1706    485.24927    285.66734   -232.31107    38614.337 
  823000    303.38588   -1583.4737    484.79713    265.06165     29.83521    38614.337 
  823100    298.78087   -1619.5981    490.79653    214.23686    -42.33279    38614.337 
  823200    293.92497   -1579.3602    481.55632    223.40694    205.68735    38614.337 
  823300    290.19612   -1588.8323    514.50151    230.11866   -336.86862    38614.337 
  823400    296.73668   -1558.3943    485.71463    261.16995   -535.40322    38614.337 
  823500    298.62813   -1545.5635      494.594    291.38228   -326.00312    38614.337 
  823600    296.30345   -1535.2912    502.99262    299.60362   -150.96284    38614.337 
  823700    294.75747   -1537.6271    473.25573    260.58162    240.42015    38614.337 
  823800    307.44851   -1580.3013    526.53306    328.23179    386.27401    38614.337 
  823900    298.63017   -1621.8541     498.0157    218.52262    762.74841    38614.337 
  824000     307.2136   -1562.8012     494.6714    312.81425     522.4459    38614.337 
  824100    301.07351   -1546.0946    500.34201     307.5914    950.18593    38614.337 
  824200    302.34287   -1529.9276    505.06759    334.18981    570.70588    38614.337 
  824300    306.52311   -1572.6866    497.61301     302.7666    559.71217    38614.337 
  824400    301.21212   -1563.1694    509.99178     300.7894    779.97418    38614.337 
  824500    288.42375   -1597.2914    479.03099    178.22207    486.76111    38614.337 
  824600    285.51371   -1584.1531     498.7337    197.98228    80.640557    38614.337 
  824700    316.36058   -1593.8262    484.85611    313.09021    629.29293    38614.337 
  824800    300.14254   -1603.8665    467.63048    212.92312    558.62419    38614.337 
  824900    299.78721   -1597.1433    524.99439    275.41301    1085.5042    38614.337 
  825000      295.439    -1594.497    453.21491    186.73443    660.25918    38614.337 
  825100    304.28247    -1586.132    518.25654    299.89294    991.67635    38614.337 
  825200    293.40593   -1593.3378    505.81308    231.35306    1039.4998    38614.337 
  825300    298.46864   -1557.8107    481.84992    265.67412    879.62564    38614.337 
  825400    302.11397   -1569.4566    542.09173      330.656    1264.2143    38614.337 
  825500    303.64538   -1624.6825    490.72615    230.94831    1100.3097    38614.337 
  825600     303.1774   -1645.5982    486.27323    203.47605    962.81547    38614.337 
  825700    286.94547   -1590.2732     498.0481     197.6125     1003.566    38614.337 
  825800    291.38923   -1631.5638    514.37791    192.62665    723.55832    38614.337 
  825900    303.45293    -1610.222    488.75036    242.56798    1420.5601    38614.337 
  826000    291.76204   -1610.5647    498.57321    199.49685    735.53823    38614.337 
  826100    301.27451   -1595.8889    494.94324    253.30178   -213.84105    38614.337 
  826200    294.11457   -1567.7167    488.06028    242.40672    159.15546    38614.337 
  826300    295.96952   -1574.9609    475.91841    231.35876   -197.41417    38614.337 
  826400    296.67872   -1586.6728    492.42434    239.34065   -158.88456    38614.337 
  826500    300.14933   -1550.0017    514.94922    314.13721   -119.26127    38614.337 
  826600    296.71752   -1553.4797    537.19273    317.47655    557.64085    38614.337 
  826700    305.75391   -1532.1916    491.77939    333.97044   -8.0438589    38614.337 
  826800    306.19343   -1527.1235    499.34441    348.57925    66.540025    38614.337 
  826900    297.83668    -1556.023    508.16441    290.93569    524.05275    38614.337 
  827000    307.58089   -1526.8892    506.07413    361.77996    379.43398    38614.337 
  827100    293.62273    -1579.774    494.89496    234.97317    389.55268    38614.337 
  827200    303.78451   -1537.9494    501.39615    328.97682    18.148063    38614.337 
  827300    308.56426   -1574.2811    486.21727    298.95147      250.083    38614.337 
  827400    292.70734   -1537.8543    490.82926    268.71246     301.5958    38614.337 
  827500     306.4568   -1590.1988    479.34008    266.68346    301.96212    38614.337 
  827600    306.86558   -1547.1232    522.30423    354.56073   -257.68954    38614.337 
  827700    304.65704   -1572.7446    514.94491    311.65248    113.03917    38614.337 
  827800    294.81581   -1552.5167    496.49491    269.19347   -102.24166    38614.337 
  827900    288.67675   -1547.5308    501.54387     251.6328   -257.75322    38614.337 
  828000      297.614   -1541.8666    478.91289     274.8395   -634.30281    38614.337 
  828100    291.95439   -1520.4359    512.92145     304.8385   -1333.4316    38614.337 
  828200    305.70105   -1541.9214    501.76983    333.99347   -687.83925    38614.337 
  828300    305.81778   -1556.0025    504.82032    323.48759   -416.42995    38614.337 
  828400     293.1592   -1541.6557    500.03758    276.15056   -602.23446    38614.337 
  828500    303.36469   -1565.2439    503.88876    302.28778   -199.27699    38614.337 
  828600    285.59143   -1577.1154    495.43934    202.07503    155.65126    38614.337 
  828700    305.35287   -1554.2826    482.07701    300.37441    152.01817    38614.337 
  828800    297.42502   -1537.2326    488.10528    287.81638   -252.51045    38614.337 
  828900    295.60558   -1541.5688    501.93393    289.13043   -425.73998    38614.337 
  829000    291.41839   -1571.8285    475.21681    213.33192   -439.14728    38614.337 
  829100     289.0266   -1540.3572    515.12305    273.95823     52.36347    38614.337 
  829200    308.15786   -1546.1006    494.97098    334.05893    61.304694    38614.337 
  829300    292.45077   -1593.2512    491.01727    212.35031    322.47106    38614.337 
  829400     305.5543   -1575.9351    487.31864    284.86891    56.684372    38614.337 
  829500    305.76905   -1582.3787    514.45782    306.52987   -238.51931    38614.337 
  829600    299.82837   -1587.0345    489.23665    249.94908   -337.98839    38614.337 
  829700    305.24634   -1559.9731    493.59242    305.72047    38.251643    38614.337 
  829800    303.41053   -1586.7125    513.19105    290.32755   -466.48641    38614.337 
  829900    313.63725   -1546.7918    490.30037    353.32732    100.71398    38614.337 
  830000    302.02554   -1566.6895    496.58663    287.52059   -70.805352    38614.337 
  830100    305.91282   -1535.7677    491.32307    330.65234    27.009913    38614.337 
  830200    295.39877   -1558.3514     537.0329    306.51715   -156.33755    38614.337 
  830300    295.79944   -1558.4215    483.16801    254.38318    403.04901    38614.337 
  830400    298.98924   -1539.2334    495.75523    300.49689   -440.00878    38614.337 
  830500    307.09145   -1507.0018    521.24998    394.64317    -103.8216    38614.337 
  830600    304.45178   -1546.3183    506.07972    328.29096    296.27084    38614.337 
  830700    293.72472   -1597.3265    502.39316    225.37734    673.08183    38614.337 
  830800    301.32316   -1557.6782    483.19667    279.98457    604.67391    38614.337 
  830900    298.35057   -1543.0951    515.38327    313.39232    274.96088    38614.337 
  831000    301.08274   -1535.5653    523.80779    341.62792    862.10386    38614.337 
  831100    297.57395   -1564.3193    485.19227    258.48626    450.01263    38614.337 
  831200    296.16814   -1568.4083    495.98374    258.86942    188.86108    38614.337 
  831300    304.80988   -1580.0532    504.79004    294.87598   -229.82405    38614.337 
  831400    304.14674   -1532.7865    487.56844    321.94031   -331.46854    38614.337 
  831500    304.07465   -1515.0084    517.11607    368.94198   -370.86395    38614.337 
  831600    303.65163   -1538.2816    494.35446    321.00564    -242.4917    38614.337 
  831700    300.04673   -1528.1132    535.37519     355.9905   -244.46487    38614.337 
  831800    298.81209   -1564.0913    484.30036    263.38779    15.369459    38614.337 
  831900    303.12291   -1553.2621    511.96666    321.26072   -440.38799    38614.337 
  832000    293.51071   -1533.2904    505.87717    291.93542   -448.85027    38614.337 
  832100    301.17831   -1484.9201     509.7458    378.64077    27.000091    38614.337 
  832200    295.09005   -1545.9624     516.5517    297.03722   -213.30789    38614.337 
  832300    298.18554   -1514.2706     491.4252    317.51693   -358.72816    38614.337 
  832400    304.06864    -1503.276      517.535    381.06626   -514.52486    38614.337 
  832500    309.91789   -1528.8212    506.92945    371.20824   -431.54713    38614.337 
  832600    299.85611   -1501.3147    482.35903    328.91598   -60.810189    38614.337 
  832700    303.47984   -1544.5306    541.05073    360.68072   -249.64997    38614.337 
  832800    298.83421   -1543.3541    503.85513    303.77922   -887.40315    38614.337 
  832900    295.67335   -1544.8957    498.67958    282.85374   -420.24393    38614.337 
  833000    300.27454    -1534.986     509.6129    324.37939   -559.19658    38614.337 
  833100    305.35665   -1555.9212    507.36289    324.03862    -461.6778    38614.337 
  833200    303.28159   -1523.3102    495.89326    335.85252   -452.81361    38614.337 
  833300    303.52329   -1505.0275    496.77027    356.09862   -608.79334    38614.337 
  833400    299.64237   -1545.6219    518.85255    320.14151   -663.08051    38614.337 
  833500    310.79537    -1552.151    484.99597    329.88925    126.71956    38614.337 
  833600    297.04009   -1535.7625    503.11168    302.56264    -65.68959    38614.337 
  833700    296.99262   -1516.4808    498.66907    317.18845    96.215909    38614.337 
  833800    303.70743   -1515.0527     519.4546    369.58554   -200.02041    38614.337 
  833900    301.06058   -1522.2127    472.29745    303.37053   -691.60981    38614.337 
  834000    302.69696   -1536.7054    508.01125    331.94729   -511.61693    38614.337 
  834100     294.8122   -1544.4749    467.73288    248.45696   -1106.6414    38614.337 
  834200    306.53983   -1545.3776    518.59461    351.13239   -212.13574    38614.337 
  834300    316.79447   -1541.6565    512.28379    394.63794     173.7762    38614.337 
  834400    302.75929   -1478.6513    517.37214    399.64244   -108.92745    38614.337 
  834500    307.85898   -1505.5311    499.35676    377.67077    115.07287    38614.337 
  834600     295.8069   -1501.4347    501.04162    329.27713   -324.40022    38614.337 
  834700    307.14313   -1541.8479    502.84201    341.62144   -166.91973    38614.337 
  834800    301.84475   -1519.1353    493.95731     331.6327    334.15654    38614.337 
  834900    293.83012   -1522.7041    513.22522     311.3056   -43.316376    38614.337 
  835000    297.91878   -1548.2506    500.32305    291.23575    153.95257    38614.337 
  835100    293.33632   -1528.5499    516.65816    306.67305     578.8863    38614.337 
  835200     301.2117   -1570.6537    527.80344    311.11491    607.01565    38614.337 
  835300    297.58415    -1475.295    496.05558    358.41962    594.23718    38614.337 
  835400    294.37272   -1509.9455     518.9387    332.21666     344.9254    38614.337 
  835500    318.53897   -1544.1777    501.82769    389.50228    342.62176    38614.337 
  835600    308.94743   -1542.5635    491.81235    337.98655    264.26712    38614.337 
  835700    305.22707   -1546.4795      510.151    335.68592    318.50819    38614.337 
  835800    298.74919   -1531.8205    495.85254      306.928    350.40094    38614.337 
  835900    291.85759   -1531.6448     499.0481    279.32115    480.23828    38614.337 
  836000    295.40965   -1538.6899    478.27957    267.47423    594.20694    38614.337 
  836100    301.17665   -1498.9987    538.05816    392.86704    485.40752    38614.337 
  836200    294.88557   -1524.4097    495.18272    296.30178     396.0838    38614.337 
  836300    300.05105   -1482.6323    523.24643    389.36207    71.871183    38614.337 
  836400     299.9072    -1491.866    512.59524    368.83054   -93.649035    38614.337 
  836500    297.55087   -1469.9337    529.91845    397.49423   -324.68862    38614.337 
  836600    312.61587   -1524.9049    536.21198    416.53468   -599.86677    38614.337 
  836700    296.60852   -1546.7963    517.19342    303.67067    -202.0981    38614.337 
  836800     293.9841   -1506.2696     528.2685    343.47553    304.67831    38614.337 
  836900    304.18291   -1486.5093    532.65879    413.47036    850.40616    38614.337 
  837000    301.11654   -1504.8846    528.36747    377.02026    1017.5532    38614.337 
  837100    302.49922   -1525.7531    513.70166    347.70122    264.23056    38614.337 
  837200    300.23607   -1513.8057    501.47702    337.25093   -94.982676    38614.337 
  837300    298.54016   -1511.0268    515.75241      346.682   -228.59565    38614.337 
  837400     294.9255   -1518.0928    519.55726    327.17275   -47.301997    38614.337 
  837500    300.54079   -1524.5398    522.48873    348.89833    401.88198    38614.337 
  837600     304.1266   -1536.6456    522.25239    352.67459    88.958261    38614.337 
  837700    298.00294   -1510.4855     484.1257    313.18177   -73.612369    38614.337 
  837800    299.72833   -1515.7902    487.68311     319.1902   -105.29353    38614.337 
  837900    295.33279   -1534.0796    529.04065    322.50007   -552.51385    38614.337 
  838000    298.52756   -1521.4891    476.14793     296.5586   -304.25349    38614.337 
  838100    306.74658   -1537.6361    510.43275    351.64136    323.27644    38614.337 
  838200    295.28228   -1503.1131    490.92485    315.12376    489.83207    38614.337 
  838300    305.43833   -1515.9228    503.72792    360.76923    774.09747    38614.337 
  838400    284.80348   -1525.3943    509.25265    264.06755    31.354829    38614.337 
  838500    295.54797   -1519.7275    517.61002    326.38883    163.34973    38614.337 
  838600    299.09149   -1524.8676    531.36245    350.92945    244.79343    38614.337 
  838700    302.01253   -1518.8549    512.69503    351.40508     508.5541    38614.337 
  838800    296.65605   -1536.3348    509.99435    307.14679   -157.88113    38614.337 
  838900    301.40578   -1548.1479    479.13955     285.8292    284.26796    38614.337 
  839000      298.607   -1531.8928    525.51021    335.87425    711.19196    38614.337 
  839100    292.75602    -1502.446    487.06752    300.57789     335.0344    38614.337 
  839200    298.17888   -1504.0219    512.38172    348.69224    714.64931    38614.337 
  839300    288.86371   -1528.2774    509.19904    279.38177    308.03652    38614.337 
  839400    305.55083   -1525.8244    510.28182     357.9272    330.58143    38614.337 
  839500    290.85548   -1468.8208    531.49193    370.08439   -259.26901    38614.337 
  839600    302.61291   -1498.0705     508.2182    370.41133   -100.28247    38614.337 
  839700    293.43398   -1481.2835    533.76185    371.48219   -624.22787    38614.337 
  839800    305.38244   -1475.2265    529.86663    427.35306    -734.8767    38614.337 
  839900    293.81183   -1533.5968      469.086    256.19144   -752.49176    38614.337 
  840000      302.665    -1507.954    530.60895    383.15278    229.51414    38614.337 
  840100    298.51715   -1531.7475    526.55507    336.66057    5.7356034    38614.337 
  840200    300.64954   -1518.7222    493.37177    326.08777   -73.906422    38614.337 
  840300    293.70775   -1527.5008     515.5965     308.3301    44.577384    38614.337 
  840400    286.65941   -1492.9095    497.82215    293.46433    24.701764    38614.337 
  840500    311.20355     -1499.27    499.65884    399.26789    466.43171    38614.337 
  840600    303.33191   -1539.8326    513.80616    337.46917   -75.877111    38614.337 
  840700    300.59081   -1555.8422    499.62427     294.9563    269.05373    38614.337 
  840800    304.35503   -1571.5799    517.39258    313.90726    219.85403    38614.337 
  840900    305.84277   -1571.8574    492.05625    294.98088    2.0092926    38614.337 
  841000    294.88904   -1559.4721    511.85936    277.93165   -4.5815373    38614.337 
  841100    299.41965   -1580.1837    494.10514    259.83118   -74.937042    38614.337 
  841200    309.74317   -1561.8958    481.10284    311.52169    118.38131    38614.337 
  841300    312.16347    -1556.169    513.93446    360.95943    85.691187    38614.337 
  841400    307.82702   -1542.6527    496.28622    337.33493   -99.968384    38614.337 
  841500     285.7692   -1537.2171    515.91646    263.24948   -569.30079    38614.337 
  841600     311.3262   -1558.7448    478.29382    318.97949   -288.19941    38614.337 
  841700    308.69179   -1588.9309    472.94992     271.6076   -522.53725    38614.337 
  841800    298.69285   -1554.1971    515.21922    303.66484   -58.144213    38614.337 
  841900    301.51891   -1550.8146    524.10202     328.6335   -436.01618    38614.337 
  842000     311.2185   -1553.0611    505.54423    351.42947   -179.94766    38614.337 
  842100    298.16917   -1552.6622    510.23367    297.86023   -207.20732    38614.337 
  842200    301.39812   -1545.4456    484.72228    294.07982   -270.01129    38614.337 
  842300    298.33203   -1571.9757    486.23911    255.28428   -396.49019    38614.337 
  842400     307.4895   -1549.9762    513.55411    345.76212   -255.28215    38614.337 
  842500    293.84711   -1539.7076    487.78796    268.94116    90.620027    38614.337 
  842600    307.81667     -1512.99    526.86229    397.52713   -3.0201944    38614.337 
  842700    303.91694    -1533.212    504.99056    337.90398    120.09689    38614.337 
  842800    296.93622   -1539.0694    484.35249    280.02964     54.36583    38614.337 
  842900     300.9337   -1589.2877    518.86839    282.29615     309.5839    38614.337 
  843000     302.6539   -1533.9215    482.14102    308.66739    202.45966    38614.337 
  843100    301.08142   -1537.9113    528.99635    344.46461    567.04885    38614.337 
  843200    307.52719   -1544.1497    489.17782    327.38178     149.8227    38614.337 
  843300    295.66413   -1520.0747    490.86518    299.81892     111.9388    38614.337 
  843400    303.21077   -1523.3754    549.20423    388.77991   -547.96228    38614.337 
  843500     289.7332   -1504.7117    496.53955    294.19639   -198.16087    38614.337 
  843600    296.00985   -1539.1198    522.94598    314.40873    197.71157    38614.337 
  843700    298.00216   -1525.7188    506.53181    320.35107    -313.3805    38614.337 
  843800    298.98183   -1506.9849    520.03737    356.99425   -373.39319    38614.337 
  843900    301.59817   -1534.0104    503.51843    325.21034   -750.92566    38614.337 
  844000    302.18025   -1491.1291    489.11509    356.30481   -430.44809    38614.337 
  844100    299.82585     -1534.82    508.97838    321.89405   -537.92678    38614.337 
  844200    283.10469   -1488.0613    506.22421     290.7359   -415.02669    38614.337 
  844300     299.5808   -1519.8081    518.82876    345.65483   -23.598878    38614.337 
  844400    301.57055   -1519.0388    502.13926    338.67866    309.88782    38614.337 
  844500    291.23275   -1540.1613    505.61296    274.56077    318.61449    38614.337 
  844600    307.72582   -1547.0333    515.82416    352.03734    3.2231894    38614.337 
  844700    289.93671   -1552.7692    506.12245     256.6366    31.834099    38614.337 
  844800    306.22455   -1521.7874    505.71435    360.42516    323.50343    38614.337 
  844900    305.25333   -1513.8241    508.07879    366.38716    140.62725    38614.337 
  845000    303.38141   -1514.8731    489.15318    337.99817    248.23601    38614.337 
  845100     295.8723   -1519.5768    510.63822    321.02564    595.56082    38614.337 
  845200    296.97702   -1551.1611    509.80003    293.56894    601.06672    38614.337 
  845300      294.833   -1544.4531    476.22406    257.06342    46.069947    38614.337 
  845400    299.83074   -1550.5954    520.73547    317.89768   -152.73548    38614.337 
  845500    297.66833   -1548.6437    493.71288    283.10659   -272.43359    38614.337 
  845600    308.95865    -1587.787    492.57498    293.57614   -91.460565    38614.337 
  845700    283.58615   -1556.2018    505.71951    224.25491   -338.98772    38614.337 
  845800    298.27975   -1536.5581    514.72732      318.955   -790.67884    38614.337 
  845900    300.03953   -1523.0469    481.28407    306.93336   -96.829198    38614.337 
  846000    302.77751   -1502.1451    514.73219    373.59066    208.96968    38614.337 
  846100    297.97624   -1507.6025    501.67739    333.49638   -219.16167    38614.337 
  846200    293.45545   -1508.0257    505.01592    316.09052   -344.05843    38614.337 
  846300    298.51247   -1480.2184    510.40981    372.02335   -290.85889    38614.337 
  846400    303.12836   -1494.7754    528.16634    395.97161    144.01657    38614.337 
  846500    295.79062   -1469.1675    515.44745    375.87699   -139.24555    38614.337 
  846600    302.61972   -1482.0182    486.55813    364.83427   -227.61996    38614.337 
  846700    300.02482   -1491.4093    521.89145    379.11221    9.2370832    38614.337 
  846800    303.34176   -1478.4303    513.08085    398.19045    123.47933    38614.337 
  846900    295.28733   -1465.6333    512.15812    373.85953   -545.83814    38614.337 
  847000    309.54044   -1480.4728    498.26679    409.19728    72.987844    38614.337 
  847100    298.60462   -1471.0703    509.75199     380.9278    60.111132    38614.337 
  847200    297.75534   -1508.6907    507.38489    337.12282    710.70466    38614.337 
  847300    296.23716   -1527.9462    491.25302    294.91103    60.568176    38614.337 
  847400    298.86529   -1555.2254    513.51823     301.7107   -314.71829    38614.337 
  847500    300.78588   -1498.5916    506.23281    359.69224   -454.96545    38614.337 
  847600    298.01219   -1491.5498    475.56998    323.60326   -635.80663    38614.337 
  847700    304.37835    -1505.721    510.95071    373.42918   -189.89092    38614.337 
  847800    306.28965   -1538.4359    480.52547    318.88041    434.71256    38614.337 
  847900    301.06296   -1607.3735    493.46207    239.38514   -202.99897    38614.337 
  848000    306.67227   -1559.5913    480.57504    299.49452   -485.76168    38614.337 
  848100    280.18267   -1510.4035    503.99092    253.02576   -522.97372    38614.337 
  848200    294.99895    -1474.031    524.55111    376.55853   -550.01418    38614.337 
  848300    292.36675    -1483.255    496.24229    327.19381   -279.21281    38614.337 
  848400    307.46611   -1528.8804    496.22576    349.42442     172.6554    38614.337 
  848500    313.92093   -1500.9081    525.70317    435.88896    162.76219    38614.337 
  848600    312.78281   -1486.2699    488.56351    408.27161    298.99239    38614.337 
  848700       304.46   -1494.5655    508.46376    382.46469   -265.45769    38614.337 
  848800    310.04194   -1508.8672    500.42269     385.2131    -327.2053    38614.337 
  848900    306.05139   -1491.2201    517.04896    401.54872    38.525047    38614.337 
  849000     288.3715   -1517.7881    499.01792    277.47749   -388.10965    38614.337 
  849100    293.47286   -1555.3813    510.48963    274.28686   -150.08586    38614.337 
  849200    299.49528   -1560.6916    480.79057    266.34873    468.03432    38614.337 
  849300    296.87786   -1564.3968    513.27495    283.36246    778.67013    38614.337 
  849400    283.26987   -1534.4369    510.41591    249.29455    115.50797    38614.337 
  849500    299.00999   -1550.9247    491.45284    284.59642    323.25661    38614.337 
  849600    293.88057   -1473.9493    527.40835    374.47034    99.727763    38614.337 
  849700    299.14753   -1509.4088    503.50422    338.78198    4.7833243    38614.337 
  849800    296.60943   -1527.9088    483.15397     288.5228   -153.61113    38614.337 
  849900    290.55564   -1502.8579    503.29436    306.50199   -43.090162    38614.337 
  850000    309.84028    -1551.436    492.30456    333.61972   -25.267482    38614.337 
  850100    303.67608   -1548.4877    486.29773    302.85268    -195.9946    38614.337 
  850200    293.09438   -1529.8412    493.53136    281.16743    532.36536    38614.337 
  850300    298.70094    -1574.015    501.13196     269.7961    356.09604    38614.337 
  850400     304.5395   -1508.6798    505.31871    365.56267    148.69721    38614.337 
  850500    295.00261   -1485.1724    480.20262    321.08514    296.02174    38614.337 
  850600    302.74948   -1510.1935    536.57075     387.2548    177.31889    38614.337 
  850700    298.79037   -1505.3092    495.21136    332.98327    242.63232    38614.337 
  850800    308.54976   -1542.7179    522.21282    366.44506   -88.041872    38614.337 
  850900     302.3511   -1519.3311    505.92466    345.68035   -175.93044    38614.337 
  851000    304.41505     -1510.49    519.03322    376.90762     350.9706    38614.337 
  851100    296.77593   -1519.8849    515.81403     329.9552    122.70901    38614.337 
  851200    304.16482   -1523.4762    496.00692    339.77029   -319.24842    38614.337 
  851300    295.91143   -1554.7681    531.51732    306.88927   -46.550994    38614.337 
  851400    302.40049   -1581.9686    475.99116    253.33134    591.01143    38614.337 
  851500     314.0347    -1561.163    507.12307    357.56535     356.4909    38614.337 
  851600    309.63029   -1547.1457    506.01442     350.6759    28.411797    38614.337 
  851700    291.43989   -1542.7329    506.42429     273.7317    57.718561    38614.337 
  851800    305.34099   -1516.5018    509.25543    365.28015   -72.188782    38614.337 
  851900    293.87377    -1492.955    517.12048    345.14617   -77.248765    38614.337 
  852000    304.22158   -1483.4471    548.99721    433.04481   -429.74087    38614.337 
  852100    290.03588   -1475.4507    510.79565    339.07403    3.9110176    38614.337 
  852200    304.76927   -1530.9472    513.19762      352.207    417.14707    38614.337 
  852300    303.85479    -1526.092    503.02886    342.78286    855.32939    38614.337 
  852400    296.11293     -1535.48    534.23661    329.80242    793.36323    38614.337 
  852500    297.55988   -1475.1127    500.28654    362.72378    719.59664    38614.337 
  852600    296.62453   -1510.2682    522.97607    346.05342    844.77228    38614.337 
  852700    296.64588   -1558.0351    519.09075    294.49715    304.43108    38614.337 
  852800    292.40916   -1486.0162    518.62137    347.00233    172.47666    38614.337 
  852900    296.13983   -1493.8801    487.67864    324.96528   -92.906767    38614.337 
  853000    295.71336    -1484.919     523.7185    368.04922    94.388456    38614.337 
  853100    306.97776   -1509.4539    530.33778    400.76776    134.02764    38614.337 
  853200     297.5339   -1478.4112    489.92911    348.95108   -124.10356    38614.337 
  853300    303.87509   -1526.7844    510.88996    350.04282   -96.436622    38614.337 
  853400     306.1533   -1541.1128    511.67614    346.74125    333.21204    38614.337 
  853500    310.93672   -1528.3842    495.97278    365.26831    546.87573    38614.337 
  853600    300.58411    -1555.892    508.82283    304.07492    560.39951    38614.337 
  853700    295.84524   -1520.5651    518.90755    328.18502     246.0032    38614.337 
  853800    307.22113   -1533.2017    498.90147    346.67762     195.8801    38614.337 
  853900     295.8696   -1500.0738    510.67616    340.55445   -438.36498    38614.337 
  854000    291.72846   -1472.3634    489.43901    328.41301    -268.9303    38614.337 
  854100    298.93263     -1489.52    507.20644    361.40695   -427.34487    38614.337 
  854200    297.68937   -1487.3982    502.56973    353.30355   -263.54282    38614.337 
  854300    299.04973   -1527.9474    492.02972    308.32928   -493.55835    38614.337 
  854400    292.20455   -1510.9845    495.39976    297.89273   -401.05896    38614.337 
  854500    294.30916   -1516.4573     514.3734    320.85384   -291.97543    38614.337 
  854600     294.0367   -1514.0872    497.28729    304.91317   -232.17921    38614.337 
  854700    305.78863   -1528.7157    504.45515    350.27819   -524.11473    38614.337 
  854800    301.65444   -1502.2745    501.57385    355.25464   -562.84375    38614.337 
  854900    309.13128   -1506.0983    496.35557    379.82138    458.90181    38614.337 
  855000    309.06715    -1529.341    509.31975    369.25458    88.319902    38614.337 
  855100     302.5512   -1511.3636    494.95022     343.5729    255.91327    38614.337 
  855200    301.00485   -1462.7535    499.82856    390.11035    163.87271    38614.337 
  855300    301.70984   -1461.0093    487.02624    382.22128    -196.6752    38614.337 
  855400     303.5083   -1477.4929     507.0183    393.81388   -18.283454    38614.337 
  855500     297.1014   -1511.8998     507.6442    331.23348   -290.65894    38614.337 
  855600    308.89671   -1517.2137     485.2536    356.54967    152.65631    38614.337 
  855700    300.75477   -1471.1713    518.59288    399.33279   -50.440078    38614.337 
  855800    298.55227   -1494.8476    506.27772    353.44092   -695.73183    38614.337 
  855900    300.44634   -1491.0252    501.06728    360.56687   -195.37535    38614.337 
  856000    296.58609    -1478.385    523.45885    378.24661   -233.52152    38614.337 
  856100    300.76109    -1520.879    503.06708    334.12768   -490.86438    38614.337 
  856200    295.65542   -1516.9195    484.59032    296.66014   -604.09686    38614.337 
  856300    286.97394   -1535.4952    502.31272    256.78307   -339.58672    38614.337 
  856400    288.98098   -1538.1695      523.192    284.00982   -597.58421    38614.337 
  856500    310.25474   -1549.1066    463.86094    309.36843   -588.13821    38614.337 
  856600    299.29346   -1482.0296    484.75535    348.06825   -354.91763    38614.337 
  856700    306.64128   -1544.3114    480.66785    314.72784   -596.98985    38614.337 
  856800    299.85763   -1522.2704    487.86114    313.46927    -289.4702    38614.337 
  856900    309.30882   -1531.9318    518.42646    376.85682    237.49027    38614.337 
  857000    297.70772   -1536.4507    492.75155    294.51533   -24.579609    38614.337 
  857100    303.73296   -1526.3975    510.09563    348.99654   -146.66265    38614.337 
  857200     302.3917   -1512.3491    488.67606     335.5963    -477.5613    38614.337 
  857300    289.09218   -1551.3278    502.94546    251.10483   -208.51715    38614.337 
  857400    308.16301   -1494.3668    504.63802    395.48295   -111.95364    38614.337 
  857500    298.73127   -1520.7932     491.7826    313.80483    30.162308    38614.337 
  857600    309.51905    -1526.649    497.16058    361.81871      379.462    38614.337 
  857700    306.49245    -1543.721    506.68834    340.66977    727.25313    38614.337 
  857800    301.87909   -1582.1702    515.69196    290.48688     964.7497    38614.337 
  857900    310.61502   -1604.8349    507.82388     299.2226    665.76203    38614.337 
  858000    303.52909   -1580.1947    501.44207    285.62928     640.5593    38614.337 
  858100    293.32822   -1606.8701      510.823    222.48137    425.39006    38614.337 
  858200    310.27768   -1589.2089    473.24107    278.74944     371.6937    38614.337 
  858300    293.47547   -1546.6975    493.56757    266.06037   -437.11936    38614.337 
  858400    292.37961   -1590.0619    493.29919    217.50161   -422.91962    38614.337 
  858500    305.62577   -1590.0003    500.74587    284.55223    306.94331    38614.337 
  858600    300.15602   -1547.0786    479.72727    281.86846    127.72389    38614.337 
  858700    310.73103   -1570.2195    512.49914    339.03471    289.12986    38614.337 
  858800    296.63845   -1548.6367    488.12926    272.90066     38.65454    38614.337 
  858900    297.83359    -1537.389    497.40969    298.80107    78.343995    38614.337 
  859000    306.41838   -1572.1325    494.58967    299.82664   -210.39949    38614.337 
  859100    290.99795   -1578.4771     483.4874    213.06398   -157.44652    38614.337 
  859200    295.10304   -1572.0105    492.72156     247.2174   -265.34359    38614.337 
  859300    310.25422   -1560.7527    484.99245    318.85164   -577.73419    38614.337 
  859400    301.62106   -1572.5242     471.9876     255.2686   -383.84068    38614.337 
  859500    309.62623   -1601.9278    488.72579    278.58692   -933.17574    38614.337 
  859600    300.60453   -1570.4215    477.89036    258.70477   -542.16167    38614.337 
  859700    302.58786    -1595.127    476.53493      241.559    -294.8811    38614.337 
  859800    298.02084   -1561.2616    490.53915    268.89954    53.688807    38614.337 
  859900    288.45295   -1572.2507    548.41637    272.77946    632.30136    38614.337 
  860000    292.68162   -1544.5949    503.54122    274.56825     385.6615    38614.337 
  860100    307.44532   -1573.4221      485.072    293.63551    87.886799    38614.337 
  860200    299.45707   -1532.5654    484.08303    297.59562    369.40287    38614.337 
  860300    292.54493   -1572.1269    493.41121    236.29177    135.51361    38614.337 
  860400    293.92017   -1571.6946    507.23377     256.7284    220.20995    38614.337 
  860500    306.88302   -1579.0374    484.01498    284.43568    61.260248    38614.337 
  860600    288.90864   -1582.3337    494.05804    210.38641   -272.05047    38614.337 
  860700    288.53142   -1604.2143    473.52099    166.27317      185.482    38614.337 
  860800     292.2266   -1514.3957    509.94978    309.13065   -413.44018    38614.337 
  860900    299.80076   -1597.7371    501.88737    251.77314   -282.56451    38614.337 
  861000    292.45061   -1590.6274    502.99101    226.94707   -224.57225    38614.337 
  861100    306.23434   -1547.9023    524.16724    352.80714    426.77172    38614.337 
  861200    297.93405   -1566.9898    511.46668    283.70877    160.64027    38614.337 
  861300    304.94543    -1582.059    531.03106    319.72054     255.7618    38614.337 
  861400    299.48313   -1530.6885    474.96998    290.47664    -117.6524    38614.337 
  861500    304.98354   -1575.0835    476.32874    272.16506   -59.337156    38614.337 
  861600    305.24377   -1559.7476    503.97901    316.32093    231.16877    38614.337 
  861700    305.50475   -1532.2225    488.25903    329.29922    188.57196    38614.337 
  861800    285.22763   -1541.1669    494.17848    235.12733   -271.48338    38614.337 
  861900    305.77761   -1546.8691    513.63559    341.25567   -209.78022    38614.337 
  862000    306.03622   -1537.6069    488.36641    326.41121     8.515462    38614.337 
  862100    300.32769   -1491.2422    504.85554    363.60481   -140.41379    38614.337 
  862200    306.52224   -1535.1932    527.63686    370.27999    15.501658    38614.337 
  862300    296.01018   -1511.3843    481.91612    301.11578    263.01262    38614.337 
  862400    301.87328   -1579.3412    507.52476    285.12255     331.8164    38614.337 
  862500    296.54247   -1547.2006    480.81757    266.59358     143.1856    38614.337 
  862600    301.59298     -1540.74    520.69821    335.63717   -17.020359    38614.337 
  862700    303.13611   -1542.8244    480.69202    300.48311    275.24977    38614.337 
  862800     300.5824   -1559.5706    493.46561    285.03146     424.9031    38614.337 
  862900    306.57918   -1577.9895    518.73987    318.84263   -288.28907    38614.337 
  863000    304.38976   -1563.8362    511.91831    316.33282   -122.37909    38614.337 
  863100    301.31817   -1563.6467    490.12411    280.92113    169.63727    38614.337 
  863200    305.80387   -1555.9421    510.87279    329.53789    160.10894    38614.337 
  863300     298.0608   -1541.2532    489.72479    288.27326   -106.77035    38614.337 
  863400     297.8505   -1538.8841    503.84594    303.81814    368.57563    38614.337 
  863500     298.4985   -1534.6253    521.32438    328.46819   -24.610454    38614.337 
  863600    290.51121   -1492.0629    502.47802     316.2809    98.142494    38614.337 
  863700    296.03749   -1510.3425    526.24867    346.61295   -301.90994    38614.337 
  863800    300.19012   -1492.4878    483.33038    340.21571   -411.94263    38614.337 
  863900    298.72591   -1518.9292    502.90308    326.76519   -260.58111    38614.337 
  864000    299.70256   -1466.0133    532.80669     413.9748   -413.48249    38614.337 
  864100    301.35016   -1513.8094    512.78895    353.56704   -617.28028    38614.337 
  864200    289.24004   -1502.1922    535.58697    333.54654   -638.17271    38614.337 
  864300    299.92309   -1533.4748    507.96366    322.66165   -1077.6305    38614.337 
  864400    309.65667   -1490.1666    500.27358    402.03275   -791.96044    38614.337 
  864500    300.56547   -1460.4805    491.44429    382.02408   -514.83761    38614.337 
  864600    307.61348   -1474.4727      519.411    427.67981   -358.28157    38614.337 
  864700    301.91563   -1508.3891    526.57482    375.31512    150.02551    38614.337 
  864800    304.44676    -1506.465    529.74789    391.78977      286.017    38614.337 
  864900    295.96293   -1518.1424    490.12418    302.35334    437.88781    38614.337 
  865000    297.44943   -1516.1077    533.98954    354.93536   -158.68339    38614.337 
  865100     297.8939   -1491.4805    495.36096    342.93187   -113.95183    38614.337 
  865200    299.70314   -1484.9283    503.57945     365.8352   -616.69647    38614.337 
  865300    302.47714   -1484.2146    485.50117    360.93996   -675.82335    38614.337 
  865400    303.66434   -1474.1642    522.93323    413.75892   -188.13513    38614.337 
  865500     307.9178   -1465.0105      498.892    417.99095   -54.577567    38614.337 
  865600     299.8196   -1478.0403    519.95882    389.62603   -390.86134    38614.337 
  865700    295.35316   -1489.1009    530.48544    369.01513    632.42969    38614.337 
  865800    294.51455   -1473.4872    514.49556     364.8694    522.87281    38614.337 
  865900    300.51461   -1463.6067    532.16968    419.39465    1071.4928    38614.337 
  866000    305.42954   -1461.8466    563.14758    474.22562    650.69179    38614.337 
  866100    294.50695   -1465.5721    524.78388    383.03869     492.4865    38614.337 
  866200    293.33779   -1456.9658    522.12496    383.73055    191.65528    38614.337 
  866300    303.27736   -1498.9183    530.28239    394.61445   -333.36128    38614.337 
  866400    296.25588   -1501.3277    480.12346    310.48419   -347.46305    38614.337 
  866500    291.00347    -1493.483    540.21097    354.80651   -100.29952    38614.337 
  866600    297.33253   -1528.9022    513.71194    321.33777   -155.37137    38614.337 
  866700    297.79055   -1540.2401    498.43657     296.7833   -82.204921    38614.337 
  866800    291.73164    -1499.825    518.71942    330.24607    338.80446    38614.337 
  866900    299.88185   -1519.1738    529.25904    358.07257    151.78207    38614.337 
  867000    299.60352   -1503.8324    527.65167    370.55553   -179.91507    38614.337 
  867100    301.19369   -1516.7899    501.48555    338.57976    389.68751    38614.337 
  867200    298.02294   -1519.4912    516.64414    336.78437    182.04594    38614.337 
  867300    288.13315   -1508.8181    523.51802    309.87613   -125.33823    38614.337 
  867400    295.90998   -1548.2486    497.33758    279.22257    299.34731    38614.337 
  867500    306.07668   -1525.5684    499.57077     349.8359    105.31881    38614.337 
  867600    300.83458   -1530.9956    496.82436    318.09869    170.26747    38614.337 
  867700    309.47209   -1537.8255    520.15364    373.42425    226.88441    38614.337 
  867800    297.46492   -1507.8312     529.6501    358.94205    271.81294    38614.337 
  867900    300.67641   -1565.5215    506.55126    292.58871    135.71967    38614.337 
  868000    297.34769   -1540.3653    473.32922    269.56011   -75.624642    38614.337 
  868100    302.54662    -1474.201    541.89443     427.6591   -560.60438    38614.337 
  868200    292.93339   -1526.1311    521.63442    312.25691    239.26318    38614.337 
  868300    299.84872    -1489.787    511.90917    369.96064    229.97815    38614.337 
  868400    289.68173   -1526.0457    520.35581    296.44731     12.92628    38614.337 
  868500    291.93684   -1582.9998    496.76674    226.04096   -214.65289    38614.337 
  868600    308.11247   -1552.4854    493.16574    325.66486    269.18607    38614.337 
  868700    313.80473   -1540.2097    485.65306    356.01496    277.53442    38614.337 
  868800    302.42864   -1550.6504    527.37327    336.15824    536.58567    38614.337 
  868900    311.32075   -1563.0601    489.63543    325.98129    26.382044    38614.337 
  869000    296.63781   -1518.8677    487.42222    301.95974    -151.9494    38614.337 
  869100    296.20624   -1527.6219    504.91705    308.76042    17.370325    38614.337 
  869200    294.42949   -1532.9741    515.33632    305.84087    32.185845    38614.337 
  869300    297.71554   -1511.2311    502.95955    329.97817   -89.511911    38614.337 
  869400    301.77928   -1507.2923    513.82949    363.05363   -597.76924    38614.337 
  869500    296.59366   -1521.9785    520.46427    331.69247   -753.52298    38614.337 
  869600    299.48795    -1502.354    508.84264    352.70538   -498.94602    38614.337 
  869700    303.80876   -1534.0195    508.61989    340.23949   -836.37184    38614.337 
  869800    298.13577   -1519.7757    505.53445    325.89738     -732.758    38614.337 
  869900     296.9948   -1517.8453    528.23008    345.39473   -804.60714    38614.337 
  870000    301.31958   -1490.0046    543.40516    407.85055   -744.02339    38614.337 
  870100    301.87486   -1524.1407    502.88328    335.68865   -864.39147    38614.337 
  870200    295.89816    -1532.561    477.67904    275.19851   -431.95739    38614.337 
  870300    307.20282   -1533.8937    511.34323    358.34513    220.83193    38614.337 
  870400    298.93566   -1534.6004    529.19317    338.32694   -36.407895    38614.337 
  870500     300.6408   -1530.2118    521.94409    343.13117    282.48538    38614.337 
  870600     293.0263   -1527.5124    492.53216    282.19097    39.939642    38614.337 
  870700     311.1507   -1552.8511    513.86918    359.65967   -249.09289    38614.337 
  870800    297.52051   -1528.5219    513.92161    322.77274    -101.3817    38614.337 
  870900    289.94896   -1505.4947    504.72401    302.56775   -558.19206    38614.337 
  871000    327.30122   -1537.0042    491.97017    426.20511   -231.59971    38614.337 
  871100    289.30862   -1498.1009    483.26287    285.62204   -637.31591    38614.337 
  871200    291.20684   -1581.3802    503.61175    231.22421   -371.36301    38614.337 
  871300    304.89838   -1521.2091    501.36688    350.69481   -256.32642    38614.337 
  871400    297.76613   -1553.7277    502.20119    286.95057   -481.93705    38614.337 
  871500    302.51945   -1549.8957    504.68149    314.62929   -281.80222    38614.337 
  871600    300.24039   -1495.6173    530.09792    384.07967   -169.38358    38614.337 
  871700    293.69561   -1484.4385    493.13401    328.87541   -371.02426    38614.337 
  871800    296.15634   -1503.5229    523.62615    351.34419    300.90295    38614.337 
  871900    301.21124    -1534.185    498.82105    318.59906   -124.91142    38614.337 
  872000    291.30738   -1558.6447     511.6213    262.42124     -122.415    38614.337 
  872100    310.96077   -1528.4073    503.45573    372.83628   -62.512492    38614.337 
  872200    294.78067   -1517.8886    512.68825    319.85691   -143.66647    38614.337 
  872300    299.33757   -1491.5474    508.10068    362.09406    19.719156    38614.337 
  872400    298.86306   -1495.0103    524.50548    372.90308    241.69359    38614.337 
  872500    299.85532   -1529.3876    491.83239    310.31294    39.118156    38614.337 
  872600    293.48605   -1549.4112    499.48889    269.31551    653.82452    38614.337 
  872700    307.13441   -1523.4906    503.00309     360.1006    -203.1775    38614.337 
  872800     299.2069   -1510.1108    515.51376    350.35633   -330.18647    38614.337 
  872900     295.6105   -1524.5039     513.7828     318.0663   -723.97897    38614.337 
  873000    292.91542   -1531.5484    489.37423    274.49866    164.42844    38614.337 
  873100    291.79068   -1553.7724    517.57872    275.42337    320.91482    38614.337 
  873200    303.20553   -1539.8441    512.02676    335.11017    169.75657    38614.337 
  873300    295.75107   -1557.4213    495.94684    267.94484   -1.2115615    38614.337 
  873400     299.1058   -1534.9349     504.8748    314.43889    20.992868    38614.337 
  873500    295.24608   -1507.9874    520.39228    339.55419    192.28455    38614.337 
  873600    302.28169   -1554.3299    498.81358    303.25848    388.47962    38614.337 
  873700    308.42844   -1550.9274      516.263    351.74045     20.42718    38614.337 
  873800    293.56668   -1481.9689    548.87472    386.50616   -212.03315    38614.337 
  873900    301.87063   -1543.9764    514.97198     327.9226    53.310965    38614.337 
  874000    295.08603   -1511.2565    500.76001    315.93334    317.55154    38614.337 
  874100    305.75169   -1487.9624    520.55949    406.96974    522.45872    38614.337 
  874200    310.48096   -1550.2597    518.72968    364.10098     715.4783    38614.337 
  874300    294.39058   -1564.5438     522.8981    281.65811    748.35463    38614.337 
  874400     301.3766   -1549.2319    498.15131    303.62579    690.41726    38614.337 
  874500    301.05804   -1571.2939    529.06865    311.04919     203.8945    38614.337 
  874600    300.52849   -1510.9642     516.5894    356.51928    116.67498    38614.337 
  874700    298.23814   -1546.5528    520.97964    315.02561   -32.588784    38614.337 
  874800    303.23205   -1591.7822    485.13527    256.39979    77.907605    38614.337 
  874900    285.88202   -1581.1668    509.28527    213.17578   -136.95753    38614.337 
  875000     301.5724   -1571.1254    508.61067    293.07178   -192.55604    38614.337 
  875100    300.12146   -1551.7656    472.48906    269.78786   -403.14518    38614.337 
  875200    297.91975   -1538.8474    523.72361    324.04386   -804.79661    38614.337 
  875300    311.23205   -1515.1751    483.78232    367.61446   -70.132228    38614.337 
  875400    303.81024   -1518.4794    514.78943     361.9558   -345.95431    38614.337 
  875500    311.06526    -1538.833    529.83197    389.25642   -78.774219    38614.337 
  875600     292.0732   -1525.9042    511.36928    298.35204   -186.79412    38614.337 
  875700    299.56871   -1541.8242    519.23087    323.98647     312.2855    38614.337 
  875800     287.7608   -1555.7542     524.4834    262.23166   -218.45691    38614.337 
  875900     295.9227   -1521.3329    484.25479    293.11264   -232.48759    38614.337 
  876000    294.52517   -1507.6084    524.72115    341.02154   -272.52091    38614.337 
  876100    293.13872   -1514.9938    509.00273    311.68552    58.720461    38614.337 
  876200    295.67758   -1556.2002    501.84617    274.73485    148.58601    38614.337 
  876300    303.11205   -1548.7572     502.5883    316.33837   -14.777212    38614.337 
  876400    290.97326   -1549.4372    515.75904    274.26452   -240.29692    38614.337 
  876500    293.14581   -1511.9862    487.93697    293.65919   -352.16934    38614.337 
  876600     302.0669   -1501.1853     509.3993     366.0233   -441.04192    38614.337 
  876700    302.29525   -1505.3776    520.19555    373.65366   -252.60477    38614.337 
  876800    294.32472   -1549.4967    485.41859    258.92967    -430.2067    38614.337 
  876900    302.27313     -1556.41    503.73385    306.06014    134.19433    38614.337 
  877000    292.85496   -1535.1455    507.65292    288.90854   -80.398508    38614.337 
  877100    312.64713   -1489.6222     513.6996    429.44553    23.143671    38614.337 
  877200    299.06768   -1528.6124    496.68094    312.39611    121.85886    38614.337 
  877300    290.42457   -1500.9199    526.84137    331.39784    31.837604    38614.337 
  877400    295.94954   -1540.3959    499.01626     288.9318   -234.45116    38614.337 
  877500    301.84257   -1515.0989    507.38434    349.08631    125.14839    38614.337 
  877600     300.8365   -1533.6474    503.59814     322.2293    546.54588    38614.337 
  877700    299.42124   -1526.8955    509.17584    328.19722    554.21086    38614.337 
  877800    299.36468   -1489.8736    504.46475    360.25383    461.10106    38614.337 
  877900    285.68028   -1520.4979    521.01277    284.66529     338.7245    38614.337 
  878000    305.20729   -1514.6292    529.15076     386.4471   -76.014462    38614.337 
  878100     295.6887   -1497.0587    493.77772    325.85795   -483.66423    38614.337 
  878200    302.89588   -1503.6727    520.67601    378.53895    -427.0739    38614.337 
  878300     305.8267   -1507.7836    508.24632    375.17258   -1008.3593    38614.337 
  878400    298.50759   -1472.8843    516.90688    385.83254   -843.30035    38614.337 
  878500     299.6844   -1498.3282    501.90814    350.67974   -673.91372    38614.337 
  878600    290.55714   -1500.9724    509.17425    314.27405   -319.47902    38614.337 
  878700    296.03038   -1515.3701    520.29286    335.59753    -111.7796    38614.337 
  878800     308.4811   -1512.2975    533.18805    407.53204    487.23595    38614.337 
  878900    288.30899   -1507.6906    529.54462    317.82072   -59.807673    38614.337 
  879000    303.31471   -1495.8922    503.49953     371.0256    159.04452    38614.337 
  879100    304.38996    -1481.646    541.39075    427.99634    431.86634    38614.337 
  879200    300.36652   -1541.9618    508.28545    316.48959    599.55574    38614.337 
  879300    297.95383   -1533.7356    522.26835    327.85352    305.16666    38614.337 
  879400    293.29183   -1524.1666    518.73834    312.93662    35.884995    38614.337 
  879500    297.11903   -1526.0429    528.79343    338.31884    189.76468    38614.337 
  879600    290.49306   -1532.4915    490.28607    263.57878   -336.57013    38614.337 
  879700     295.1968   -1525.4856    527.14632    328.58846    426.87201    38614.337 
  879800    300.66205   -1532.4459    503.47105    322.51961    668.14632    38614.337 
  879900    306.07807   -1560.4272    506.97961    322.39215    830.98169    38614.337 
  880000    292.44165   -1555.9441    507.20121    265.80035    572.77616    38614.337 
  880100    293.31511   -1561.5277    483.56834    240.51007    322.41559    38614.337 
  880200    308.11837   -1567.0578    510.53563    328.48891    77.565437    38614.337 
  880300    303.54211   -1517.3213     521.9797    369.09891   -417.20889    38614.337 
  880400    297.06991   -1537.3457    494.29955    292.30138   -173.81814    38614.337 
  880500    297.13952   -1521.3097    533.28946    347.64017   -239.38058    38614.337 
  880600    299.58819   -1513.4855    488.40451     321.5864   -415.31665    38614.337 
  880700    296.41446   -1524.5371     516.0237    323.88782   -661.25825    38614.337 
  880800    300.30418   -1527.7344    481.23766    303.38904   -368.95219    38614.337 
  880900    297.29734   -1510.0532    526.10852    352.42518   -679.79808    38614.337 
  881000    297.06968    -1515.357    499.41295    319.40244   -464.04633    38614.337 
  881100     309.1796   -1555.9261    490.87092    324.72614   -486.87149    38614.337 
  881200     308.3096   -1541.4894    514.13335    358.51459   -334.80457    38614.337 
  881300    292.86747   -1540.5273    503.26728    279.19728   -833.46561    38614.337 
  881400    299.61274   -1509.5785    503.81718    341.01637   -469.79938    38614.337 
  881500    299.79819   -1532.7692     500.7238    315.56587    183.94144    38614.337 
  881600    300.02661   -1500.9538    507.56836    355.25269    362.72943    38614.337 
  881700     302.9293   -1502.9607    520.77936    379.50454    609.94172    38614.337 
  881800    299.38695   -1522.3036    531.04024     354.4994   -46.899914    38614.337 
  881900     292.8499    -1531.411    488.73211    273.69942   -490.39473    38614.337 
  882000    303.20521   -1521.0959    523.80822    365.63842   -523.21826    38614.337 
  882100    290.40085   -1550.4407    496.02142    250.95045   -151.34437    38614.337 
  882200    292.66775   -1606.6557    518.44532    227.34919   -329.46368    38614.337 
  882300    301.50538   -1573.0696    507.51459    289.73021    310.01946    38614.337 
  882400    298.09015   -1552.6332    496.30473    283.60507    855.48808    38614.337 
  882500    303.72115   -1532.8855    528.29415     360.6539    457.52905    38614.337 
  882600    314.47709   -1565.1228    473.96976    322.44087    608.77569    38614.337 
  882700    305.35833   -1591.2822     480.5543    261.87654   -115.11246    38614.337 
  882800    292.49769   -1564.1189    510.24407    260.92024   -251.09414    38614.337 
  882900    305.70479   -1589.8435    467.46831    251.78671   -325.38251    38614.337 
  883000    304.04155   -1541.4084      509.664    334.94111   -398.16509    38614.337 
  883100    295.15929   -1530.4154    494.79384    291.13759   -146.07404    38614.337 
  883200    297.72816   -1609.5009    494.39926    223.20475   -321.08039    38614.337 
  883300    296.31538   -1555.0281    510.37418    287.30196    143.10846    38614.337 
  883400    296.86108   -1516.1634    531.68116    349.92661    98.166348    38614.337 
  883500    299.07258   -1563.9434    511.78255    292.18882     9.855595    38614.337 
  883600    297.87863   -1588.3672    510.11132    260.72689    297.08056    38614.337 
  883700    302.09362    -1577.858    479.80973    259.88113    226.66955    38614.337 
  883800    294.57207   -1561.7508    507.26956    269.63836   -295.86089    38614.337 
  883900    305.58609   -1587.0996    494.41032    280.93902   -336.59785    38614.337 
  884000    299.77346   -1573.9233    502.97519    276.55206    162.78292    38614.337 
  884100    291.64865   -1594.2702    480.85313    197.56159    230.00499    38614.337 
  884200    277.06656    -1567.489    488.30917    166.25144    229.24589    38614.337 
  884300    309.37665   -1604.3765    490.27556    276.56616     645.8285    38614.337 
  884400    289.62682   -1540.1007    481.44764    243.23733    69.312245    38614.337 
  884500    294.63677   -1526.5932    487.52442    285.34164   -234.15238    38614.337 
  884600    309.86176   -1534.2942    472.73995    331.29344   -294.44296    38614.337 
  884700    309.78707   -1517.6513    526.73007    401.59075    443.27053    38614.337 
  884800    295.14487   -1516.5238    521.29194    331.46253    324.70962    38614.337 
  884900    308.50902    -1519.275    510.77292    378.26495    560.83034    38614.337 
  885000    298.69913   -1557.8743    510.89272    295.68937    299.77079    38614.337 
  885100    303.50213   -1513.6495    528.10414     378.7154    381.70873    38614.337 
  885200    300.26187   -1514.9686    534.04727    368.77424    -358.4783    38614.337 
  885300    304.52079   -1507.8995    496.45938    357.39955    157.49484    38614.337 
  885400    304.01225   -1515.2649    482.62439    333.91328   -304.46775    38614.337 
  885500    304.78511    -1459.762     522.8162    433.08207    599.62674    38614.337 
  885600    291.63486   -1524.1701    527.04352    313.79008   -487.60832    38614.337 
  885700    299.65228   -1546.2664    495.60221    296.29123    397.55581    38614.337 
  885800    304.62077   -1550.4854    514.94013     333.7439    133.99883    38614.337 
  885900    296.40344   -1530.2512    512.34333    314.44386    64.955846    38614.337 
  886000    296.22704   -1521.5346    505.10457     315.1287   -212.22334    38614.337 
  886100    307.22581   -1564.0573    491.20047     308.1421    288.15329    38614.337 
  886200    299.97322   -1591.9456    495.54233    251.99481   -216.49553    38614.337 
  886300    298.67928   -1552.1151    480.68771    271.15436   -790.99155    38614.337 
  886400    305.71853   -1534.4556    498.27907    338.04704   -251.07359    38614.337 
  886500    305.51454   -1521.0152    513.97462    366.26612   -207.12253    38614.337 
  886600    297.08751   -1523.7305    530.95003    342.64616   -735.86477    38614.337 
  886700    302.63196   -1540.0212    501.97296    322.30102   -17.913891    38614.337 
  886800    302.97647   -1529.3681    489.56442    322.09421    265.41967    38614.337 
  886900    298.32872   -1516.9237    510.37391    334.45617   -184.06269    38614.337 
  887000    296.68943   -1513.0296    512.34343     332.9511    667.79022    38614.337 
  887100    312.03004   -1554.8173    503.49272    351.26967    584.27439    38614.337 
  887200    301.21346   -1494.5426    503.71712    363.14754    405.51117    38614.337 
  887300    301.82461   -1478.9662    499.48898    377.24303    92.016143    38614.337 
  887400    295.84919   -1477.6298    523.28533    375.51586    360.72904    38614.337 
  887500    294.99007    -1545.505    518.70757    299.20107    134.32268    38614.337 
  887600     305.2233   -1525.2282    508.56065    355.32994    226.76863    38614.337 
  887700    308.47921   -1483.8305    505.44497    408.24753    112.87955    38614.337 
  887800    298.11482   -1500.0953    505.50513    345.45431   -26.520716    38614.337 
  887900    305.31617     -1494.69     499.1899    376.91494    -81.87873    38614.337 
  888000    311.23554   -1506.5083    525.75819    418.27275   -497.83798    38614.337 
  888100    303.01265   -1522.4211    502.25137    341.89075   -200.41753    38614.337 
  888200    308.23722   -1500.9434     509.3442    393.94611   -293.00261    38614.337 
  888300    301.31712   -1542.5241    508.05879    319.97368   -544.19919    38614.337 
  888400    295.45325   -1530.5972    503.08036    300.56376   -480.95303    38614.337 
  888500    305.26147   -1506.6345    488.19239    353.72699    111.23536    38614.337 
  888600    294.43074   -1503.6709    509.34149    329.15492   -245.57035    38614.337 
  888700    304.88113   -1505.5328    521.00647    385.93311   -331.22488    38614.337 
  888800    303.70634   -1505.7621    511.28792     370.7045    139.90971    38614.337 
  888900    301.57257   -1543.4893    482.78241    294.88035    58.994977    38614.337 
  889000    301.31626   -1494.5715    492.99812    352.86169    632.62295    38614.337 
  889100    291.97559   -1533.4952    492.67716    271.63017    1276.3507    38614.337 
  889200    295.27984   -1552.2204     510.2314    285.31205    1135.5743    38614.337 
  889300    301.25735   -1531.3079    521.83669    344.69907    643.85264    38614.337 
  889400    297.29652    -1507.956    513.43481    341.84499    892.99016    38614.337 
  889500    298.69613   -1531.1853    467.14631    278.61847    120.09025    38614.337 
  889600    296.34093   -1512.9597     515.2648    334.37577   -201.38585    38614.337 
  889700    282.88886   -1534.6158    513.61645    250.60348   -165.65305    38614.337 
  889800    311.85516   -1503.2449    474.33319    372.89646    31.464989    38614.337 
  889900    303.70522   -1536.1123    497.41503    326.47632   -204.78473    38614.337 
  890000    294.26499   -1550.1522    501.65169    274.23867    183.87401    38614.337 
  890100    297.63527   -1543.9472    511.04106    304.98271    69.876845    38614.337 
  890200     294.7082   -1559.1032    494.50139     260.1297    -362.9322    38614.337 
  890300     308.4084   -1556.5146    492.59877     322.3989   -399.08053    38614.337 
  890400    297.76728   -1570.3434     499.2995    267.43836   -197.92456    38614.337 
  890500    298.76617    -1548.079    540.50749    335.40081   -186.45886    38614.337 
  890600    290.28196   -1524.2537    506.26089    286.84252    189.64922    38614.337 
  890700     298.7369    -1565.418    501.03632    278.45911    444.56202    38614.337 
  890800    302.25938   -1596.5785    500.45747    262.55347    407.12518    38614.337 
  890900    303.49954   -1541.5661    523.85734     346.5403   -253.75599    38614.337 
  891000    298.02813    -1532.159    514.19905    321.69481   -553.26638    38614.337 
  891100    294.18685     -1506.71     512.4065    328.08454    309.57517    38614.337 
  891200    296.56505   -1523.9458    526.73278    335.86516    208.62158    38614.337 
  891300    305.49822   -1535.6433    513.47138    351.06135    479.82995    38614.337 
  891400    311.07913   -1510.4139    500.03184    387.93779   -219.95266    38614.337 
  891500    301.55381   -1548.0508    488.79232    296.24452    26.606561    38614.337 
  891600     296.1353   -1566.5392     511.8637    276.47088    865.94391    38614.337 
  891700    304.84252   -1584.0882    523.96314    310.16089    709.81216    38614.337 
  891800     300.1751   -1595.7715    497.12122    250.65524    577.40801    38614.337 
  891900    299.04673   -1565.7252    485.55679    264.06501    807.34722    38614.337 
  892000    308.85034   -1558.7079    515.35654    344.94987    1003.3371    38614.337 
  892100    292.68891   -1547.7281      493.781    261.70751    396.69617    38614.337 
  892200     297.5498   -1509.0002     543.7584    372.26284    180.23237    38614.337 
  892300    306.39023   -1541.0995    489.98725    326.13073   -314.54701    38614.337 
  892400    297.62975   -1520.8225    505.26797    322.30955   -222.15536    38614.337 
  892500    304.11574   -1545.1789    491.74689    313.58696    -861.2678    38614.337 
  892600    297.58605   -1551.8777    491.34507    277.13504   -490.35605    38614.337 
  892700    303.47469   -1521.4346    521.54701    364.24986    275.35187    38614.337 
  892800    303.46896    -1456.563    513.83494    421.38356   -611.79045    38614.337 
  892900    297.66915   -1503.5882    513.83706    348.28997   -673.85699    38614.337 
  893000    300.03523   -1493.0993    521.50302    377.08051   -139.50274    38614.337 
  893100     298.2127   -1512.1935    470.06318    298.35413    21.471286    38614.337 
  893200    292.00797   -1507.1838    513.46712    318.87716   -665.17402    38614.337 
  893300    309.16166   -1525.9987    469.72195    333.42391    -566.2098    38614.337 
  893400    309.88637   -1534.8903    475.08329    333.15124   -180.51483    38614.337 
  893500    290.09209   -1539.9655    503.55907    267.57542     210.3722    38614.337 
  893600    298.61508   -1541.7179    492.32487    292.90015    250.36359    38614.337 
  893700    304.31847   -1537.4921    491.76472    322.20289    19.822753    38614.337 
  893800    293.83067   -1504.6654    523.57541    339.69697    140.31115    38614.337 
  893900    301.53571   -1504.2041    514.37031     365.5878    -203.6218    38614.337 
  894000    301.57246   -1500.6603    489.49855    344.42506    363.12893    38614.337 
  894100    303.84109   -1515.3293    530.20088    380.65599    321.77099    38614.337 
  894200    293.91603   -1561.1062    494.26988    254.33433    68.887765    38614.337 
  894300    313.20297   -1550.1624    510.88969    368.59395    310.76776    38614.337 
  894400    314.75331   -1545.7469     485.7855    354.87408    40.512385    38614.337 
  894500    303.36082   -1566.0976    492.46613    289.99408   -50.234877    38614.337 
  894600    293.57605   -1514.1663    529.19972    334.67587   -130.16597    38614.337 
  894700    301.50229   -1513.3317    482.11753    324.05717    331.81571    38614.337 
  894800     307.6451   -1504.7968    511.99655    390.08342    490.73707    38614.337 
  894900    298.84052   -1529.4173    500.51559    314.40486   -40.478672    38614.337 
  895000    309.59183   -1543.8328    492.95785     340.7594    111.79998    38614.337 
  895100    302.23897   -1522.9762    499.58684    335.19337   -564.99519    38614.337 
  895200     297.2042   -1543.8386     479.9029    272.01547    48.121666    38614.337 
  895300    299.66966    -1536.098    516.84304    327.77859   -376.81918    38614.337 
  895400    293.32911   -1562.9779    508.52128    264.07581   -164.48535    38614.337 
  895500     293.3761   -1568.7391    482.90939    232.91394   -268.65071    38614.337 
  895600    301.54539   -1519.9822    515.97628    351.45916   -401.03199    38614.337 
  895700    291.96206   -1520.1477    471.67757    263.91728   -154.76973    38614.337 
  895800    296.70224   -1494.2721    496.11537    335.53812   -115.94642    38614.337 
  895900    291.30977   -1478.8919    486.40552    316.96895   -289.68329    38614.337 
  896000    300.45759   -1495.8641    490.92301    345.63427   -266.40979    38614.337 
  896100    286.48956   -1478.9304    527.71823    336.57598     307.7216    38614.337 
  896200    301.25828   -1445.1591    507.80498    416.82043   -248.98753    38614.337 
  896300    309.87481   -1444.0375    505.47046    454.33925    19.469534    38614.337 
  896400    286.77621   -1435.1495    510.92031    364.84752    52.110526    38614.337 
  896500    305.26475   -1455.7463    491.32542    407.76289     7.813579    38614.337 
  896600    295.84919   -1478.0006    509.24383    361.10352   -190.68809    38614.337 
  896700    306.31197   -1492.0106     503.5403    388.42083    150.93945    38614.337 
  896800    295.19849   -1468.1088    498.83096    357.65753    215.04995    38614.337 
  896900    286.91599   -1455.9636    494.95314    328.69456    247.76664    38614.337 
  897000    300.21163   -1468.7008     506.6837    387.45267    338.09556    38614.337 
  897100    299.39012   -1474.1376    507.80872    379.44812    790.89325    38614.337 
  897200    298.84656   -1454.3306    510.78377    399.78689    837.37777    38614.337 
  897300     303.4193    -1537.678    517.89501    344.10538    172.45584    38614.337 
  897400    288.75634   -1524.9317    505.28722    278.33299    212.64221    38614.337 
  897500    299.10399     -1481.55    528.48527    391.42608    274.76997    38614.337 
  897600    293.47703   -1505.6081    513.95706    327.54623   -185.62566    38614.337 
  897700    307.15137   -1523.4485    513.34636    370.56221   -184.67161    38614.337 
  897800    297.37441   -1506.3023    511.17358    341.58756    34.685736    38614.337 
  897900    296.87602   -1539.8751    496.46474     291.0656   -832.13861    38614.337 
  898000    305.46483   -1511.2378    494.40074     356.2461   -454.37109    38614.337 
  898100    303.27707   -1508.7194    509.35935      363.889   -167.55884    38614.337 
  898200    317.08705   -1538.6994    479.09812    365.72451    268.29192    38614.337 
  898300    306.02673   -1567.1711    488.04873    296.48657   -511.76365    38614.337 
  898400    292.51821   -1531.7075    488.00418    271.18409   -819.52084    38614.337 
  898500    297.60209   -1558.1815    479.97719    259.53537   -694.54637    38614.337 
  898600    294.11393   -1555.3754    496.03932     262.7241    275.33005    38614.337 
  898700    307.89901   -1556.0774    497.06769    325.01529    457.83259    38614.337 
  898800    295.13654   -1524.4829      501.843    304.01702    526.91652    38614.337 
  898900    304.86919   -1480.0743    522.93099    413.26244    386.81096    38614.337 
  899000    295.61279   -1435.8522    531.01192    423.95738    600.18003    38614.337 
  899100    296.14579   -1463.3042    483.24957     351.1389    -193.0066    38614.337 
  899200     301.1477   -1523.8141     513.8152    343.67855   -309.37835    38614.337 
  899300    294.10112   -1515.7938    474.30101    280.50985   -54.919089    38614.337 
  899400     300.1773   -1491.1038     506.9556    365.16728   -87.426661    38614.337 
  899500    313.35021   -1549.7585    493.31137    352.08136   -407.25038    38614.337 
  899600    295.44795   -1552.5565    506.00341    281.50368   -164.36708    38614.337 
  899700    301.47152   -1523.9564      541.378    372.55463    427.44487    38614.337 
  899800    299.04625   -1542.9426    500.91662    302.20534    16.338381    38614.337 
  899900    298.73054   -1528.9193    463.24478     277.1376   -338.89163    38614.337 
  900000    300.80213   -1606.2051    488.97365    234.89264   -510.90435    38614.337 
  900100     303.4456   -1547.3924     488.2106    304.82481   -218.63689    38614.337 
  900200    298.14314    -1574.225     491.5963    257.54306   -71.739851    38614.337 
  900300     297.3377   -1519.3148    485.71005     302.9465    49.683697    38614.337 
  900400    305.81523   -1510.8178    503.91352    367.75402    378.37282    38614.337 
  900500    300.44836   -1540.9166    478.05304    287.67033     245.6147    38614.337 
  900600    294.94181    -1594.709    498.63786    229.71048    412.27717    38614.337 
  900700    302.95206   -1528.8494    500.36724    333.30605    283.79551    38614.337 
  900800    301.58652   -1481.4171     500.7224    374.95527    554.37924    38614.337 
  900900    296.05251   -1501.2323    498.07662     327.6186    752.48546    38614.337 
  901000    298.22582   -1554.6091    479.34879    265.28307    148.61443    38614.337 
  901100    290.31881   -1545.8279    522.98695    282.15995    25.727042    38614.337 
  901200     300.2385   -1526.0098    496.04236     319.6231    278.27137    38614.337 
  901300    299.36594   -1553.8703    486.91669    278.71466    -117.4584    38614.337 
  901400    298.23095   -1507.3965    500.92858    334.09856   -131.50444    38614.337 
  901500    300.32882   -1522.1222    509.90571    337.78009    -42.83799    38614.337 
  901600    302.39035   -1554.7471    494.65334    299.16947    289.26342    38614.337 
  901700    299.88864   -1493.6309      513.978    368.36497    511.20086    38614.337 
  901800    304.53587   -1493.0055    514.68538    390.58739    309.25583    38614.337 
  901900    293.32618   -1505.8519    489.63294    302.30027   -308.02243    38614.337 
  902000     290.2314   -1504.0523    502.02836    302.58405   -456.07692    38614.337 
  902100    291.08229   -1532.6622    517.19945    292.97005   -461.39296    38614.337 
  902200    310.27459     -1549.85    498.32134     343.1747    103.75041    38614.337 
  902300     308.0133   -1526.8797    508.08205    365.74108    -264.9172    38614.337 
  902400    298.34271   -1524.7055    496.43542    312.79879    133.90995    38614.337 
  902500    289.86494   -1508.3753    518.73094    313.31636    653.46149    38614.337 
  902600    295.88965   -1516.3019    498.58535    312.32568    47.557035    38614.337 
  902700    301.33619   -1555.0203    473.40343    272.90786    176.90529    38614.337 
  902800    298.13102   -1559.5325    460.09418    240.67901    255.05875    38614.337 
  902900    298.52022   -1512.3332    493.64977    323.18336    -234.5337    38614.337 
  903000    290.43937   -1589.2623    497.85143    214.13201    -491.5213    38614.337 
  903100    293.20416    -1538.445    488.43473    267.96048   -306.83783    38614.337 
  903200    299.34304   -1560.3456    499.72438    284.94412    39.143269    38614.337 
  903300    296.78796   -1565.4218    510.03599    278.69438   -609.02777    38614.337 
  903400    309.67668   -1531.5725    495.67871    356.12192   -367.92825    38614.337 
  903500    301.00132   -1549.3006    485.74442    289.46323   -581.01993    38614.337 
  903600    304.28312   -1523.2473     490.9867    335.51081   -88.345442    38614.337 
  903700    293.33893   -1538.0749    508.13089    288.63253   -246.40107    38614.337 
  903800      302.085    -1535.657    501.57362    323.80727    446.82964    38614.337 
  903900    312.13448   -1480.1486    523.44684    446.36192    436.49807    38614.337 
  904000    307.92141   -1450.4554    519.02098    452.69128     270.5646    38614.337 
  904100     301.4742   -1450.4563    524.26234     428.9511   -430.64008    38614.337 
  904200    291.20409   -1463.2025     498.6469    344.42468    -557.8303    38614.337 
  904300    296.22791   -1506.9613    486.36033    310.96168   -837.18003    38614.337 
  904400    296.57099    -1516.874    476.53571    292.76661    -310.8688    38614.337 
  904500    293.63464   -1542.1801    490.22216    267.94787   -442.06194    38614.337 
  904600    302.37468   -1497.4903    522.22089    383.92334   -235.17965    38614.337 
  904700    289.72333   -1467.2669    485.06488    320.12224    141.14285    38614.337 
  904800    287.27142   -1522.6979    504.58992    273.19473     179.3379    38614.337 
  904900    303.81234   -1497.7354    502.99918    370.91893    733.19197    38614.337 
  905000      296.396   -1550.8447    519.61705    301.09058    529.64722    38614.337 
  905100    306.70919   -1512.3607    494.51952    360.83549    192.91766    38614.337 
  905200     293.0678   -1525.3952    486.87897    278.84154   -158.47694    38614.337 
  905300    299.28174   -1494.2297    478.34459    329.40473    144.21034    38614.337 
  905400    295.39714   -1506.5801    477.85576    299.10401     30.62255    38614.337 
  905500    286.32693   -1535.3789    478.22988    229.90811   -206.67779    38614.337 
  905600    305.86979   -1540.7292    500.48505    334.65943   -157.93045    38614.337 
  905700    305.86295   -1551.5759    465.03891    288.33577    72.136286    38614.337 
  905800    300.32115   -1531.9577    488.80339    306.80778   -563.15273    38614.337 
  905900     306.9404   -1520.5637     514.1057    373.25799   -196.72209    38614.337 
  906000     295.0618    -1524.475    502.12313    303.96906   -1023.4461    38614.337 
  906100    294.31771   -1475.7685    494.18956    341.39734   -371.47772    38614.337 
  906200    307.55923   -1482.6407    480.72294    380.57994    -504.7879    38614.337 
  906300    289.54515    -1434.287    490.66693    357.90315   -559.26365    38614.337 
  906400    291.06993   -1461.4622    520.90398      367.819    33.352052    38614.337 
  906500    296.88741   -1494.6412    496.43854    336.32451     416.0622    38614.337 
  906600    297.32493   -1463.3024    492.24503    365.43653    770.21849    38614.337 
  906700    290.14014   -1466.7495    489.75344    327.20175     461.9923    38614.337 
  906800     301.3041   -1468.0159    490.24367    376.60831    285.01388    38614.337 
  906900    298.81929   -1427.9801    493.83189    409.06286    -314.0593    38614.337 
  907000    309.86121   -1474.9821    497.67877    415.54186    167.29374    38614.337 
  907100    293.57647   -1495.7653    506.18405    330.06307   -105.33826    38614.337 
  907200    308.35747   -1488.8878    511.32984    408.52786    263.75645    38614.337 
  907300    294.30695   -1512.1015    469.61877    280.44516    87.183173    38614.337 
  907400     296.7456   -1497.7239    516.42333    352.58913    -407.9033    38614.337 
  907500    293.39011   -1466.3101    480.60169    333.09816   -274.83742    38614.337 
  907600    295.21542    -1437.972    490.62852    379.66802   -490.50718    38614.337 
  907700    308.09837   -1436.0157     512.2231    461.12849   -279.34775    38614.337 
  907800    285.50322    -1416.887    485.09253    351.56011   -266.26195    38614.337 
  907900    300.74473   -1452.6568    494.47977    393.68905    38.036064    38614.337 
  908000    295.44435   -1448.5667    497.97708    377.45095    510.01764    38614.337 
  908100     289.7057     -1498.14    490.95163     295.0566    279.89882    38614.337 
  908200    295.75973   -1516.5388    489.87532    302.79471    139.62865    38614.337 
  908300    290.63736   -1468.4739    494.47857    332.43751    626.17246    38614.337 
  908400    305.90567   -1455.7249    500.89466    420.23456    255.54918    38614.337 
  908500    298.12892   -1472.1133    473.03101    341.02558     366.5805    38614.337 
  908600    295.05484   -1466.4547    497.00616    356.84111   -53.590183    38614.337 
  908700    283.85989   -1523.9359    505.74177    257.77354     -99.7269    38614.337 
  908800    303.83908   -1492.9716    497.98437    370.78819   -17.983401    38614.337 
  908900     316.7137   -1433.7132    498.38329    488.31769    641.12591    38614.337 
  909000    301.40152   -1495.0835    485.88635    345.62128    43.174524    38614.337 
  909100    307.97414   -1513.1206    479.36662    350.60872    733.23364    38614.337 
  909200    298.75174   -1510.0959    492.59338      325.405    628.57782    38614.337 
  909300    300.31535   -1506.8972    472.01979    315.05856    339.89792    38614.337 
  909400    292.82294   -1521.8069    498.06065    292.51086    359.73161    38614.337 
  909500    303.38359   -1477.4775    479.71859    365.96905     62.68604    38614.337 
  909600    301.57712   -1496.1681    483.69496    343.13456    101.06538    38614.337 
  909700    296.02125   -1519.5672    468.71029    279.77686    538.43337    38614.337 
  909800    295.71202   -1513.0264     526.4744    342.69175   -193.09971    38614.337 
  909900    290.52783   -1513.5376     452.0028    244.40564    -712.9581    38614.337 
  910000    303.88997   -1470.4172    516.78294    412.36989   -424.42315    38614.337 
  910100    291.74735    -1459.266    488.68857    340.84491   -211.30294    38614.337 
  910200    312.73388   -1502.7053     501.5591    404.61183    51.349749    38614.337 
  910300    307.75116   -1495.6175    499.36604    387.10889    108.14723    38614.337 
  910400    293.37119   -1484.7236    464.86018    298.85815   -237.04222    38614.337 
  910500    301.19019   -1509.4625    511.01533    355.42129     180.9864    38614.337 
  910600    302.56154   -1466.3893    494.58629     388.2298   -36.050848    38614.337 
  910700    297.94917   -1498.1115    492.98977    334.17817   -45.031564    38614.337 
  910800     289.9176   -1488.5788    476.95075    291.56936    458.49223    38614.337 
  910900    307.54374    -1520.332    505.80618    367.90224    602.99239    38614.337 
  911000    299.51036   -1533.8892    486.89298    299.32131     696.6626    38614.337 
  911100    303.40861   -1535.3998     505.8241    334.26472    971.57293    38614.337 
  911200    299.60093    -1558.375    485.32854    273.67822    1198.2015    38614.337 
  911300    294.96067   -1527.8105    514.61595    312.67182    196.64474    38614.337 
  911400    307.32915   -1540.5528    484.21981    325.13043    211.07679    38614.337 
  911500    292.39797   -1522.1827    502.55526    294.71941   -221.80729    38614.337 
  911600    304.64113   -1477.9087    478.62649    370.09844   -761.33455    38614.337 
  911700    302.98853   -1504.4411     505.8299    363.34091   -317.46071    38614.337 
  911800    291.60202   -1479.1826    500.53212    332.11852    24.452292    38614.337 
  911900    302.86589   -1478.6872    494.55073    377.26432    55.283782    38614.337 
  912000    295.28517   -1471.6522    487.75835     343.4312   -121.54894    38614.337 
  912100     291.8819   -1451.3426    506.35507    367.03955   -175.54764    38614.337 
  912200    304.18097   -1477.8013    476.02571    365.53653   -62.965727    38614.337 
  912300    293.05196   -1527.1671    490.84514    280.96465     10.29468    38614.337 
  912400    288.85248   -1543.4919    502.71013    257.62787    433.42372    38614.337 
  912500    292.57484   -1527.3065    495.88067    283.71608    257.37762    38614.337 
  912600    293.90656   -1479.4655    507.49632    349.15891    572.14772    38614.337 
  912700    309.32477   -1512.6985    483.89125    361.62667    466.00499    38614.337 
  912800    300.40189   -1504.2574    475.50806    321.57565    606.99713    38614.337 
  912900    290.66597   -1540.3243    494.02024    260.25741    227.35206    38614.337 
  913000    290.80787   -1518.5796    487.29916    275.91882   -233.79037    38614.337 
  913100    303.87252   -1492.0501    501.54116    375.41675   -13.275691    38614.337 
  913200    306.19716   -1530.8481    489.26789    334.79483   -72.467337    38614.337 
  913300    302.51527   -1539.2194    486.56089    307.16622   -56.556306    38614.337 
  913400    307.25319   -1513.8619    487.24216    354.50223    113.87926    38614.337 
  913500    304.25158   -1531.4322     478.7057    314.90308    364.61935    38614.337 
  913600    302.70184   -1510.5401    517.31667    367.43998    272.04505    38614.337 
  913700     309.7172   -1518.4536    471.01555    344.75983    69.128529    38614.337 
  913800    296.42698    -1564.155    460.17943    228.48193   -275.81824    38614.337 
  913900    312.97563   -1535.0113    486.95677    358.79018    222.54225    38614.337 
  914000      299.385   -1516.3173    477.98923    307.42597    369.25052    38614.337 
  914100    293.53874   -1539.0587    489.90189    270.31793   -205.32131    38614.337 
  914200    301.75064   -1543.9016     472.9438    285.42995   -168.82189    38614.337 
  914300    301.07835   -1525.3492    459.76331    287.77977   -628.44493    38614.337 
  914400    305.25633    -1529.705    469.01066    311.45165    166.76279    38614.337 
  914500    296.32807   -1548.5521    464.36069    247.82154    708.68498    38614.337 
  914600    299.75875   -1552.1713    486.39504    281.65781    523.23362    38614.337 
  914700    297.42544   -1528.6747    477.06004    285.33095    720.34503    38614.337 
  914800    306.65223   -1554.2542    439.86757    264.03405    296.00318    38614.337 
  914900    290.36541   -1574.6135    502.54377    233.14069   -497.93357    38614.337 
  915000    306.55665   -1595.3523    442.82179    225.46054    -14.37484    38614.337 
  915100    299.94493   -1539.7072    463.30969    271.87338    312.10874    38614.337 
  915200    289.82547   -1495.0571    504.99321     312.7194    165.55935    38614.337 
  915300    305.12319   -1484.4783    489.14999    376.21923    152.77343    38614.337 
  915400    299.59204   -1471.4048    502.76854    378.04836    242.83914    38614.337 
  915500    288.42391   -1501.7566    511.89482    306.62148   -374.84077    38614.337 
  915600    301.27283   -1498.0147    493.95653    350.18176    93.080735    38614.337 
  915700    288.89095   -1506.4298    489.99564    282.14838   -532.42259    38614.337 
  915800    297.47731   -1485.5253    501.56889    353.22241    10.600244    38614.337 
  915900    297.20608   -1501.3468    483.27755    317.89032    176.06402    38614.337 
  916000    280.95224   -1491.3303    501.51071    273.07798    -76.03314    38614.337 
  916100    301.93251   -1472.8071    491.28527    375.68333    214.38637    38614.337 
  916200    301.50666   -1457.3417    479.12882    377.07811    309.53757    38614.337 
  916300     299.9604   -1484.6188    490.08228    353.80388    574.02839    38614.337 
  916400    303.50129   -1483.5384    487.05919    367.77777    773.81846    38614.337 
  916500    307.72159   -1499.3432    491.74841     375.6327    443.30799    38614.337 
  916600    293.06081   -1475.0236    482.72058    325.02332   -124.53434    38614.337 
  916700    303.24295   -1440.5621    496.54013    419.07374   -483.21494    38614.337 
  916800    289.47483   -1491.4179    479.39295    289.18226   -170.45389    38614.337 
  916900    287.74906   -1456.4815    494.41894    331.38714   -28.327587    38614.337 
  917000    306.26251   -1461.5242    514.92135    430.06598    135.64136    38614.337 
  917100    304.18589    -1425.671    468.81802    410.48128      65.1408    38614.337 
  917200    293.05439   -1477.0655    483.19407    323.42607   -140.23967    38614.337 
  917300    288.15957   -1448.2384    491.56512    338.62177   -184.50652    38614.337 
  917400    299.36073   -1460.5727    491.37697    376.44914    -106.8295    38614.337 
  917500    296.90888   -1446.3055    489.40888    377.72709    124.67733    38614.337 
  917600    307.53959   -1462.6428    525.10227    444.86885   -258.19105    38614.337 
  917700     303.2658   -1429.7062    517.81268    451.30486     333.8571    38614.337 
  917800    307.66558   -1424.4039    492.69852    451.27036    557.97709    38614.337 
  917900    302.19524   -1432.8097    489.07278    414.64932   -121.50631    38614.337 
  918000    291.88408   -1451.5117    476.11805    336.64325   -115.11671    38614.337 
  918100    293.22945     -1450.91    481.69155    348.86599   -806.87658    38614.337 
  918200    301.31558   -1461.4185    478.93608    371.94973   -413.06627    38614.337 
  918300    301.80571   -1461.9216    479.37751    374.09118    -90.44919    38614.337 
  918400    294.84178   -1502.6102    470.60796    293.32974    332.35586    38614.337 
  918500    295.93668   -1466.1756    495.61538    359.69337   -114.76152    38614.337 
  918600    295.47224   -1468.0617    503.18508    363.28925    278.41318    38614.337 
  918700    308.48909   -1476.0456    508.61874    419.25061    41.744028    38614.337 
  918800    294.43097   -1442.7816    485.19505    365.89879   -164.01049    38614.337 
  918900    300.91934   -1428.9495    487.72935    411.43074    213.85146    38614.337 
  919000    313.90157   -1467.7313    498.15651    441.43206    523.32895    38614.337 
  919100    296.65278   -1459.8163    461.32887    334.98503    616.82295    38614.337 
  919200    304.09537   -1474.3676    497.78944    390.34926   -165.19105    38614.337 
  919300    301.16196   -1470.4802     478.7275    361.98884    503.92115    38614.337 
  919400     297.8453        -1488    478.95115    329.78415    676.15065    38614.337 
  919500    304.42892   -1499.3111    494.39771    363.51335    997.00201    38614.337 
  919600    289.81526    -1460.506    492.31522     334.5467    68.862817    38614.337 
  919700    299.52272   -1447.2553    485.28716    384.40496    107.10163    38614.337 
  919800    297.38412   -1467.4152      489.651    358.99578    4.6475339    38614.337 
  919900    308.06738   -1480.4409    481.76691    386.10789    379.44912    38614.337 
  920000    302.04549   -1463.0424    474.61941    369.29007   -64.074908    38614.337 
  920100    302.64335   -1498.9669    480.93512    342.36868    85.591569    38614.337 
  920200    302.15444   -1495.6656    459.87547    322.41269    367.47565    38614.337 
  920300    294.31516   -1492.4536     471.6726    302.18375   -347.78771    38614.337 
  920400    292.92676    -1475.176    479.99796    321.54574   -554.03362    38614.337 
  920500    294.07543   -1495.4526    521.48064    347.91519    157.69828    38614.337 
  920600    296.20793   -1509.8359     465.9038    287.54081   -164.05368    38614.337 
  920700    301.10114   -1514.7702    470.27605    308.97404   -10.190434    38614.337 
  920800    306.38534    -1531.135    471.73557    317.82149    420.82921    38614.337 
  920900    290.59245   -1505.6075    500.73362    301.35709   -291.31021    38614.337 
  921000    296.94574    -1477.828    503.07835    360.03977     392.5348    38614.337 
  921100    294.09658   -1509.2075    501.12788    313.90265    259.69632    38614.337 
  921200     297.0877    -1468.497    455.84004    322.77058    201.80295    38614.337 
  921300    296.36373   -1495.0815    489.21862    326.31035   -88.683418    38614.337 
  921400    310.59838   -1461.2854    472.23525    407.10871   -260.21133    38614.337 
  921500    300.17116   -1446.3337    486.13185    389.08602     422.9425    38614.337 
  921600    299.83387   -1514.8367    476.14596     309.0809    77.706815    38614.337 
  921700    290.90765   -1477.6727    510.05352    340.02859    111.05852    38614.337 
  921800    293.02218    -1487.628    487.45997    316.98472    428.31616    38614.337 
  921900    294.70015   -1494.0593    484.35206    314.98803   -289.32231    38614.337 
  922000    307.53307   -1476.1031    452.08033     358.3573   -295.20043    38614.337 
  922100    298.80982   -1525.4906    473.10504    290.78295   -23.970111    38614.337 
  922200    306.31772    -1519.082    461.95061     319.7856    375.68664    38614.337 
  922300    295.23937    -1515.444    475.67958    287.35469   -109.46197    38614.337 
  922400    311.01086   -1475.9461      482.699    404.76587   -12.972497    38614.337 
  922500    295.14288   -1483.0802    473.45056    317.05582   -645.32676    38614.337 
  922600    302.79582   -1496.9878    461.94186    326.03988   -575.34497    38614.337 
  922700    286.53089   -1467.3649    495.75892    316.36801    91.449417    38614.337 
  922800    298.30756   -1478.0025    489.57356    352.48191    49.152746    38614.337 
  922900    311.18138   -1462.9864    512.89466    448.68771    33.258672    38614.337 
  923000    299.85715   -1491.5077    487.57293    343.94159   -35.263942    38614.337 
  923100    295.82372   -1463.8984     497.3946    363.24203   -13.045156    38614.337 
  923200     307.9697   -1474.9409    489.14868    398.55054    40.039224    38614.337 
  923300    307.39472   -1478.2064    496.22931     399.7811    357.85537    38614.337 
  923400    309.13577   -1455.4915    502.65258     436.7454      50.3224    38614.337 
  923500    299.83237    -1483.556    484.16348    348.37246    75.913101    38614.337 
  923600    293.35061   -1437.3012    485.53389    366.86172   -67.157836    38614.337 
  923700    299.58711   -1455.1362    505.54883    397.07517    488.66629    38614.337 
  923800     300.1992   -1446.7624    502.88488    405.53635    348.97659    38614.337 
  923900    311.31188   -1448.4835    487.33282    438.21537    102.72563    38614.337 
  924000    307.59312   -1468.6083    484.75041    398.79214    178.71148    38614.337 
  924100    294.84845   -1494.1984    472.69009     303.8536    115.25104    38614.337 
  924200    298.31683   -1460.3359    489.18134    369.79793    -293.9385    38614.337 
  924300    299.04596   -1478.9405     500.5845    365.87401    298.57157    38614.337 
  924400    293.40454   -1460.0852     508.8366    367.62291   -17.793067    38614.337 
  924500    291.11838   -1473.8553    508.46395    343.20371    135.33192    38614.337 
  924600    293.08728   -1422.4551    516.60474    411.59503   -748.36348    38614.337 
  924700     304.0662   -1411.1058    502.84627    458.53676   -85.068892    38614.337 
  924800    296.96621   -1425.1231    505.28681    415.04515    72.159198    38614.337 
  924900     294.1664   -1449.3013    495.66347    368.65824   -297.48409    38614.337 
  925000     301.8161   -1451.8908    504.63422    409.42539    607.71046    38614.337 
  925100    302.42001   -1467.7807    496.81172    388.42756    379.18592    38614.337 
  925200    293.07617   -1489.9918    491.66332    319.06693     599.3527    38614.337 
  925300    308.71022     -1473.13    507.21168    421.75309    401.50125    38614.337 
  925400    306.81452    -1481.484    492.85003     390.5162    129.35035    38614.337 
  925500    301.91786   -1480.8399    480.73629    357.03576    192.50876    38614.337 
  925600    298.99059   -1465.8542    456.97516    335.10202     107.2405    38614.337 
  925700    305.16486   -1476.0261    495.29135    391.00006   -209.96617    38614.337 
  925800    299.79884   -1412.7956     498.0819    432.90057    124.17394    38614.337 
  925900    293.56619    -1421.095    507.92699    406.43003     59.26112    38614.337 
  926000    296.93871   -1432.8641    478.49099    380.38471   -180.48526    38614.337 
  926100    304.18112   -1434.8391    494.92815    427.40191    76.397082    38614.337 
  926200    305.78121   -1432.6715    485.73095    427.56487   -251.74956    38614.337 
  926300    298.17649   -1430.6916    487.66339    397.29344   -194.63493    38614.337 
  926400    308.61137   -1467.2334      478.467    398.46071    229.28725    38614.337 
  926500    286.84286     -1467.35    489.44285    311.46918   -168.65675    38614.337 
  926600    296.47148   -1437.8305    474.84678    369.67381   -406.65462    38614.337 
  926700    303.99643   -1424.7668    482.15754    423.87336   -22.272436    38614.337 
  926800    310.86477    -1479.019    478.81318    397.15043   -326.51433    38614.337 
  926900    283.23924   -1456.2061    460.53696    277.50865   -200.50943    38614.337 
  927000    303.09504   -1418.3494    496.05045    440.13191    179.02758    38614.337 
  927100    307.45348   -1454.6458    493.80401    421.18056    476.87686    38614.337 
  927200    303.17815    -1426.116    478.23262    414.92106   -462.67099    38614.337 
  927300    301.51784   -1401.2702    479.35937    433.43042   -73.796625    38614.337 
  927400    294.49736   -1439.3956    447.58726    331.97539    62.442232    38614.337 
  927500    294.64686   -1417.4473    504.90986    411.91837    152.33487    38614.337 
  927600     292.7681   -1397.9202    486.61155    404.70193    20.684907    38614.337 
  927700    299.12826   -1381.4751    500.68796    463.81277    160.05756    38614.337 
  927800    297.55423   -1407.2168    508.14233     438.4501    282.46496    38614.337 
  927900    296.98298   -1405.9169    496.90692    425.94677   -8.0019085    38614.337 
  928000    309.13438   -1431.9686    475.94585    433.55532   -4.7517672    38614.337 
  928100    302.78005   -1418.2509    487.20462    429.96863   -108.77356    38614.337 
  928200    291.25679   -1461.1879    479.12126    327.15051   -133.71156    38614.337 
  928300    305.12737   -1455.5692    455.80304    371.80015    74.420795    38614.337 
  928400    299.97169   -1491.9703    451.07255     307.4935   -312.49987    38614.337 
  928500    294.13645   -1473.5631    469.50877    318.10714   -32.812041    38614.337 
  928600    297.28829   -1476.5974    463.79087    323.52268   -5.0315208    38614.337 
  928700    308.14504   -1463.9763    464.47566    385.63028   -708.22163    38614.337 
  928800    292.36286    -1472.653    494.64917     336.1852   -92.538034    38614.337 
  928900    287.23065   -1491.8318    485.61304     284.9007   -299.56871    38614.337 
  929000    291.03855   -1479.5794    473.22089    301.87768   -275.63004    38614.337 
  929100    300.20717   -1476.1999    484.02257    357.27238    686.78985    38614.337 
  929200     300.4343   -1480.7253    456.38735    326.13272    54.212126    38614.337 
  929300    302.07201   -1479.8797    475.80985    353.76237    250.47202    38614.337 
  929400    312.87886   -1448.6307    465.97982    423.75886    150.35503    38614.337 
  929500    296.83885   -1495.5833    474.96109    313.68665    275.11858    38614.337 
  929600    295.85807   -1492.5939    489.30897    326.61528   -79.533833    38614.337 
  929700    308.30105   -1500.2295    481.54016    367.14287    34.749044    38614.337 
  929800    305.13731   -1457.6027    465.58983    379.59814     188.9133    38614.337 
  929900    304.53672   -1481.8256    501.05478    388.14048    116.55726    38614.337 
  930000    310.03443   -1492.9603    468.23724    368.90081    256.60635    38614.337 
  930100    306.44516    -1488.324     467.5333    356.69916    632.19151    38614.337 
  930200    297.62313    -1482.501    473.13836    328.47167    374.24841    38614.337 
  930300    300.57339   -1506.1922    509.90733      354.811    507.03217    38614.337 
  930400    294.96555   -1493.1821    490.01293    322.71913    235.84248    38614.337 
  930500    289.87025   -1513.0857    460.84643    250.74536    591.11639    38614.337 
  930600    296.87219   -1510.6954    516.12025    339.88364    208.12791    38614.337 
  930700    306.79495   -1520.1716    487.32749    346.21805    278.50595    38614.337 
  930800     299.4207   -1466.4691    456.31541    335.76076   -276.33624    38614.337 
  930900    297.83309   -1501.9707    496.05668    332.86406   -160.21673    38614.337 
  931000    299.64163   -1501.6649    489.59151    334.83419   -159.93001    38614.337 
  931100    297.43997   -1520.3996    475.34321    291.95463   -319.09659    38614.337 
  931200    294.46084   -1511.3609    446.23695    258.49561   -376.43201    38614.337 
  931300    303.36905   -1502.7893    489.80021    350.67341   -216.89854    38614.337 
  931400    304.71359   -1475.3705    507.79994    402.13579   -102.58845    38614.337 
  931500    297.78544   -1501.9723    469.52714    306.11873    16.020912    38614.337 
  931600     308.8435   -1507.5908    505.83994    386.51966    211.07131    38614.337 
  931700    305.88982    -1504.173    492.55131    363.37182     135.7926    38614.337 
  931800    301.29739    -1537.466    483.18843    300.07278    -183.9409    38614.337 
  931900    293.38976   -1502.6008    504.21094     320.4152    -180.0371    38614.337 
  932000    303.60278   -1523.1834    495.50235    337.03212   -206.00373    38614.337 
  932100    305.30556   -1529.6379    441.69186    284.42124   -378.80802    38614.337 
  932200    300.52374   -1509.0094    499.96347    341.82683   -355.70643    38614.337 
  932300    304.40403   -1493.1305    495.00225    370.18659   -398.18711    38614.337 
  932400    297.61345   -1512.9306    476.28729    301.14744   -646.74325    38614.337 
  932500    314.06456   -1486.0484    493.56676    419.25794   -467.11951    38614.337 
  932600    303.36748   -1484.1897    500.70703    380.17287    533.73142    38614.337 
  932700    297.29519   -1479.7068    486.31508    342.96851    477.87106    38614.337 
  932800    306.56025   -1475.8041    481.47944    383.68251    453.95974    38614.337 
  932900     306.2667   -1425.7553    479.26833    430.20072    636.94616    38614.337 
  933000    297.31308   -1508.7116    488.68105    316.41004     886.2033    38614.337 
  933100    313.68619   -1453.7603    499.98078    456.25922    33.695349    38614.337 
  933200     303.5812   -1492.5443    499.59179    371.66369   -131.52349    38614.337 
  933300    306.93557   -1494.6683    473.19718    358.22318    45.155372    38614.337 
  933400    297.85794   -1498.1447    471.98143    312.72653    22.788256    38614.337 
  933500    296.32497   -1528.7323    470.86851    274.13521   -76.702383    38614.337 
  933600    310.24588   -1494.9503    490.19248    389.81654    178.46016    38614.337 
  933700    307.30284   -1514.6404    480.83708    347.54186   -383.81381    38614.337 
  933800    304.45756   -1503.0403    472.51564    338.03081   -268.43412    38614.337 
  933900    307.76278   -1456.1758    476.28474    403.52159   -764.21519    38614.337 
  934000    289.48312   -1476.5719    474.88085    299.55338   -981.82174    38614.337 
  934100    300.96424    -1462.737    481.75289    371.86861   -592.24657    38614.337 
  934200     295.2524   -1478.2795    492.02811    340.92631   -448.28866    38614.337 
  934300    298.82585   -1469.3605    494.15164    368.03173    -377.1779    38614.337 
  934400    298.34921   -1490.6504    471.52902    321.97668    133.97565    38614.337 
  934500    305.25418   -1478.6068    500.30841    393.83792    247.65725    38614.337 
  934600    296.32971   -1477.7711    475.11639    329.36561   -208.45296    38614.337 
  934700    294.47025   -1461.4739    473.91266    336.10065   -85.113355    38614.337 
  934800    292.23917   -1460.1895     507.8968    361.34039   -302.06644    38614.337 
  934900    303.80461   -1451.7275     491.2066    405.09947    51.511961    38614.337 
  935000    299.86384   -1433.6611     485.0638    399.30914   -286.50584    38614.337 
  935100    298.90034   -1461.2216    479.75451    362.10828   -276.04318    38614.337 
  935200    301.75301   -1438.3046    489.28799    407.38175    54.143654    38614.337 
  935300    294.96978    -1429.876     494.5565    390.58781   -65.766121    38614.337 
  935400    294.85251   -1415.9232    505.39072    414.84774    215.21577    38614.337 
  935500    295.34642   -1461.0569    502.24183     368.7853   -314.36858    38614.337 
  935600     290.3337   -1442.3452    485.16495    347.88755   -453.52318    38614.337 
  935700    302.85882   -1486.8308    474.18952    348.72776    196.94596    38614.337 
  935800    308.39575   -1507.2788    496.62586      375.605   -85.816455    38614.337 
  935900    292.67135   -1522.4211    471.88689    265.04158   -124.83885    38614.337 
  936000    302.21978   -1548.8423    478.99692    288.65113    429.07363    38614.337 
  936100    305.36743   -1538.2996    483.84836    318.19415   -107.48013    38614.337 
  936200     309.0393   -1564.8622    471.46967    295.75811   -10.791481    38614.337 
  936300    298.42284   -1529.9319    473.86119    285.35831   -14.188948    38614.337 
  936400     297.5299   -1533.4862    490.86592    294.79492    319.19188    38614.337 
  936500    289.56937    -1504.069    513.28076    310.84392   -202.91755    38614.337 
  936600    295.05662   -1532.9325    503.49819    296.86338    393.02038    38614.337 
  936700    310.81579   -1575.6919    470.96408    292.40832    285.27306    38614.337 
  936800    292.77681   -1533.8961    475.92564    258.07932   -122.38033    38614.337 
  936900    290.42019   -1579.1357    452.41996     178.7409    145.94556    38614.337 
  937000    290.79938   -1555.4352    522.51822    274.24409   -85.996769    38614.337 
  937100     296.3577   -1564.8114    458.47058    225.80531    728.05888    38614.337 
  937200    294.39107   -1542.2677    528.92374    309.96202    473.03024    38614.337 
  937300    294.68956   -1514.7449    497.83192    307.73479    586.95595    38614.337 
  937400     298.0274   -1518.2685    494.92431    316.30737    784.35431    38614.337 
  937500    303.30784    -1555.774    509.04035    316.65373   -552.30502    38614.337 
  937600    303.68231   -1521.4824     468.0589    311.64714    95.039656    38614.337 
  937700    302.84956   -1506.1238       491.24    346.44365   -119.08784    38614.337 
  937800    300.50189   -1504.7828      510.446    356.43764    353.70973    38614.337 
  937900    299.18883   -1482.5947    492.23639    354.51389    68.072906    38614.337 
  938000    304.11515   -1439.9167     509.9219    437.02154    160.17687    38614.337 
  938100     307.4641   -1448.4224    467.30069    400.94836   -560.68618    38614.337 
  938200    301.38095   -1420.5872    507.35508    441.49378   -1040.8387    38614.337 
  938300    306.03782   -1431.6048    478.18318    422.23726   -1122.5763    38614.337 
  938400     307.5231    -1471.122     488.5849    399.79821   -844.87942    38614.337 
  938500    299.06475   -1489.1905    490.13739    345.26137   -543.47671    38614.337 
  938600    298.19186   -1473.0577    497.23098    364.56408   -700.93753    38614.337 
  938700    298.40717   -1493.3135    505.48368    353.52877   -480.27311    38614.337 
  938800    301.60755   -1509.5428    501.54317    347.74482   -504.68723    38614.337 
  938900    277.48544   -1486.9759     521.8812    282.21946   -1010.3515    38614.337 
  939000    314.91704   -1509.6546    475.05367    380.97051   -689.32001    38614.337 
  939100     296.2474   -1512.3263    492.44852    311.77254   -449.18587    38614.337 
  939200    291.68285   -1463.2226    505.46967    353.37939    21.060119    38614.337 
  939300     303.4064   -1496.2138    507.13355    374.75019    459.80629    38614.337 
  939400    313.01708   -1477.1535    512.39544      442.273    404.17295    38614.337 
  939500    292.38984   -1475.2763    539.79395    378.82803     531.4503    38614.337 
  939600    300.69063   -1461.5284    498.73918    388.83365    372.86872    38614.337 
  939700    298.63258   -1403.7049    519.93459     458.6015      117.495    38614.337 
  939800    296.26585   -1468.0514    533.95357    397.63541   -360.54456    38614.337 
  939900    300.18903   -1499.7725    489.32305    338.91871    407.33359    38614.337 
  940000    313.52835   -1502.4814     494.1024    400.95018    48.144538    38614.337 
  940100    302.87729   -1515.8886    483.43362    328.99709   -148.17666    38614.337 
  940200    299.70618   -1522.2191    500.77624    325.75486    145.34278    38614.337 
  940300    292.65908   -1475.8275    514.43571    354.12884    328.22731    38614.337 
  940400    299.86555   -1417.7775    529.36107    459.49771    419.99682    38614.337 
  940500    300.15676   -1421.8152    498.48968    425.89757    486.86214    38614.337 
  940600    299.66835   -1405.2409    520.18324    461.97001      32.1792    38614.337 
  940700    295.65506   -1448.4943    511.73466      392.228    186.91079    38614.337 
  940800    296.58678   -1440.0754    515.21659    408.31704    487.93231    38614.337 
  940900      298.203   -1490.1624    493.04869    343.32715    443.89927    38614.337 
  941000    294.08924   -1466.0547    497.82505    353.71958   -22.476016    38614.337 
  941100    295.04293    -1453.469    528.65746    401.42462    192.05875    38614.337 
  941200    301.40829   -1481.1742    490.64287    364.31746    178.54779    38614.337 
  941300    289.08821   -1473.6085    506.58828     332.4491   -91.672848    38614.337 
  941400    307.84057   -1543.3847    533.72294    374.10054    47.134644    38614.337 
  941500    298.74754   -1499.0651    486.70098    330.52442   -372.11848    38614.337 
  941600    290.73121    -1467.747    516.93285    356.04055   -52.132174    38614.337 
  941700    292.77313   -1480.3099    511.16819    346.89158   -292.77761    38614.337 
  941800    295.88262   -1516.8184    485.29665    298.48887   -455.63998    38614.337 
  941900    298.93342   -1504.4904    495.37572    334.60942   -569.46495    38614.337 
  942000    304.83327   -1487.3773    508.17446     391.0415     184.8894    38614.337 
  942100     300.6787   -1513.5039    503.17343    341.23877   -282.45193    38614.337 
  942200    295.36273   -1503.6601    471.95222    295.96576   -211.56248    38614.337 
  942300    297.47341   -1491.3599    489.46704    335.26842    89.279637    38614.337 
  942400    303.14375    -1506.981    489.23504    344.90386   -592.20319    38614.337 
  942500    298.43748   -1512.4863    474.93652    303.94508   -89.576209    38614.337 
  942600    296.39947   -1496.7795    479.55228    315.10663   -160.53864    38614.337 
  942700    298.52735   -1466.9548    493.43424    368.37831   -527.21582    38614.337 
  942800    301.37904   -1476.0133    512.70628    391.41031    32.104719    38614.337 
  942900    297.13987   -1475.0603     509.2215    369.82319   -33.343005    38614.337 
  943000    296.01367   -1462.7421    504.44297    372.30052    261.40684    38614.337 
  943100    290.82854   -1522.0972    511.07544    296.27044    192.15156    38614.337 
  943200    299.96769   -1517.0569    493.01562    324.33194     237.4592    38614.337 
  943300    308.50467   -1498.6036    489.42049    377.56441   -373.89409    38614.337 
  943400    293.30826   -1458.2957    511.49657     371.6396   -242.31366    38614.337 
  943500    298.32365   -1521.5671    497.07363    316.48966   -219.49569    38614.337 
  943600    296.01513     -1474.41    496.11882    352.31503   -384.40283    38614.337 
  943700    296.14939   -1467.2015    521.03149    385.03977   -555.51416    38614.337 
  943800    295.36398   -1473.2291    513.74427    368.19448   -570.70581    38614.337 
  943900    295.75586   -1461.3192    496.13871    364.26037    -582.9532    38614.337 
  944000    294.00791   -1478.7721    502.04222     344.8538    -617.0775    38614.337 
  944100    291.03686   -1449.6631    477.03812    335.60364   -295.90003    38614.337 
  944200    314.14892   -1450.9351    533.11058    494.29416   -578.94979    38614.337 
  944300     295.0859   -1487.6682    484.56344    323.32448   -807.75519    38614.337 
  944400    298.43496   -1450.5169    523.02695    413.99361   -291.61817    38614.337 
  944500    305.89868   -1479.4717    510.97969    406.54134    340.50746    38614.337 
  944600    283.05845   -1483.8325    495.81482    284.34744   -0.8217876    38614.337 
  944700    307.29654   -1506.7809    487.76691    362.30285   -111.03878    38614.337 
  944800    301.77662   -1463.6606    491.63752    384.48144    29.195588    38614.337 
  944900    291.08476   -1451.2343    514.06501     371.2746    161.88265    38614.337 
  945000    295.62569   -1481.4847    522.65795    370.02893   -243.42765    38614.337 
  945100    298.60573   -1486.6066    477.29841    332.94299    112.54179    38614.337 
  945200    303.68947   -1505.9534    510.21683    369.36631    391.06742    38614.337 
  945300    309.16123   -1454.0752    505.45953    441.08311    227.00425    38614.337 
  945400    294.12456   -1503.0238    510.96968    330.05385   -63.480761    38614.337 
  945500    305.08848    -1468.872    492.92713    395.44668    324.59575    38614.337 
  945600    290.83367   -1506.9249    500.33912    300.72951    360.11364    38614.337 
  945700    295.97846   -1474.9599    517.87554    373.35708     308.5259    38614.337 
  945800    295.23129   -1450.2187    509.99652    386.86062   -166.91321    38614.337 
  945900    307.99482   -1466.3335    513.00343    431.12556   -363.21192    38614.337 
  946000    308.43034   -1480.0254    497.81978    404.20778   -262.30079    38614.337 
  946100    303.90282   -1489.2507    494.76942    371.58059   -402.49982    38614.337 
  946200    295.84466    -1551.636    485.94908    264.15309   -381.44917    38614.337 
  946300    305.92435   -1509.7943    512.44866    377.80315    226.38531    38614.337 
  946400    302.59199   -1479.8161    513.74212    394.09569    537.77878    38614.337 
  946500    302.93226   -1490.4684    496.36744    367.59821    286.41711    38614.337 
  946600    298.37931   -1513.0054    489.56866    317.79662    462.02894    38614.337 
  946700    306.44339   -1505.3555    512.53781    384.66421    117.91549    38614.337 
  946800    298.22576   -1517.9304    520.94632    343.55911    9.7993402    38614.337 
  946900    298.08431   -1511.6162    496.37551    324.66665   -191.59363    38614.337 
  947000    304.79305   -1481.4682    517.24223    405.83758    277.65065    38614.337 
  947100    300.34993   -1467.4372     502.8594    385.51366   -25.933974    38614.337 
  947200    303.37942     -1449.54    496.32485    410.49401   -9.6897384    38614.337 
  947300    307.48374    -1521.186    502.68462    363.65696   -85.615661    38614.337 
  947400    293.11192   -1524.6365    497.03927     289.9589    298.56818    38614.337 
  947500    310.43767   -1516.9858    501.55868    380.00935   -60.045697    38614.337 
  947600    302.44378    -1532.281    505.50367    332.72607   -244.15269    38614.337 
  947700    283.23847   -1534.8424    480.89049    219.22249    269.92351    38614.337 
  947800    288.02695   -1493.1991    478.94719    280.44697    105.05187    38614.337 
  947900    304.29863   -1485.4031    519.51257    401.95049    421.66444    38614.337 
  948000    299.95689   -1492.0949    485.42615    341.65592    776.62988    38614.337 
  948100    291.61855   -1533.6306    493.85053    271.06325    1201.8913    38614.337 
  948200    297.56623   -1569.6934    505.56691    273.45198    758.48167    38614.337 
  948300    309.78658   -1559.6284    500.33482    333.21621    999.08658    38614.337 
  948400    293.35132   -1530.7271    480.66788    268.57304     443.0984    38614.337 
  948500    308.17635   -1531.4677    501.02757    354.83148    204.98221    38614.337 
  948600     294.4926   -1587.8933    498.29053    234.15964    184.64547    38614.337 
  948700    306.23855   -1531.9173    484.29525    328.93906    555.82564    38614.337 
  948800    310.84093   -1543.0187    500.77615    355.00657     116.0934    38614.337 
  948900    291.57375   -1544.4703    472.95854    239.13022   -311.89628    38614.337 
  949000    298.55066   -1568.8929    491.93894    265.04964   -192.52321    38614.337 
  949100    300.02207   -1531.6599    506.24586    323.20362   -66.684437    38614.337 
  949200    304.97352   -1527.7679    512.44619    355.55304   -294.84182    38614.337 
  949300    294.13915   -1516.7287    483.48515    288.93002   -512.35579    38614.337 
  949400    298.12709   -1519.2812     490.7897    311.60816   -213.99947    38614.337 
  949500    298.37104   -1558.1575    489.72061    272.75934   -499.13576    38614.337 
  949600    313.55584   -1467.2618    474.76003    416.95101    128.73848    38614.337 
  949700    292.63671    -1508.821    492.88206    299.48107    209.67919    38614.337 
  949800    302.54222   -1474.7643    529.90086    415.08241      -5.1215    38614.337 
  949900    308.44343   -1527.6141    491.97601    350.83412    1.4684817    38614.337 
  950000    297.17916   -1484.8096     502.5067    353.53576    376.79843    38614.337 
  950100    299.38622   -1506.8315    495.62924    334.55726   -50.842401    38614.337 
  950200    292.62968    -1482.762    538.00574    370.63218   -191.74659    38614.337 
  950300    297.56394   -1529.9975    481.12024    288.69096    104.87821    38614.337 
  950400    304.10821    -1517.804    509.50425    358.68534    77.590966    38614.337 
  950500    295.01111   -1476.9319     493.9093    343.07045    193.88696    38614.337 
  950600    301.51385   -1475.4682    518.66291    398.51802    -239.9077    38614.337 
  950700    297.84256   -1507.8467    493.51547    324.48941    -360.6123    38614.337 
  950800    293.31327   -1481.5344    469.31146    306.23832    -751.0574    38614.337 
  950900    303.80396   -1487.4948    508.21364    386.33632   -597.63631    38614.337 
  951000    302.33987   -1460.5624    472.91359    371.38754    26.093273    38614.337 
  951100    302.25454   -1472.1439    497.53364    384.04256   -181.03726    38614.337 
  951200    300.69939   -1478.8672    501.93626    374.73131   -260.30799    38614.337 
  951300    301.69675   -1476.3572    487.42888    367.21711   -576.24551    38614.337 
  951400    295.71948   -1481.0686    541.79687    390.00553   -315.59843    38614.337 
  951500    295.35044   -1519.9233    507.35099     315.0461   -649.82552    38614.337 
  951600    302.40319   -1496.4526    502.00817     364.8765   -313.86091    38614.337 
  951700    293.51859   -1483.9731    486.76048    322.17157   -751.45847    38614.337 
  951800    305.78187    -1500.885    524.60665       398.23   -271.53978    38614.337 
  951900    298.57155   -1506.8396    477.32417    312.58206   -798.42646    38614.337 
  952000     304.1157   -1496.1517    513.61628    384.48332   -500.87049    38614.337 
  952100    302.94987   -1474.8873    495.23106    382.12204   -979.04141    38614.337 
  952200    299.95352   -1448.5168    497.95163    397.74431   -642.67973    38614.337 
  952300    295.94148   -1487.6053    497.12418    339.79403   -281.93793    38614.337 
  952400    297.02275   -1525.6629    502.49101    311.96361   -201.24227    38614.337 
  952500    290.87059   -1489.5923    507.67832    325.56724    306.51232    38614.337 
  952600    298.07169   -1474.5628    508.87334    374.16117   -54.243904    38614.337 
  952700    302.81196   -1492.6025    486.96216    355.51809    11.318019    38614.337 
  952800    293.13212   -1491.1439    516.31316    342.81623   -138.96077    38614.337 
  952900    299.44807   -1486.8865    516.00145    375.15244    32.376907    38614.337 
  953000     302.0412   -1479.0785    487.04921    365.66454   -65.572301    38614.337 
  953100    306.12998   -1448.3519    523.60399    451.32517   -381.65354    38614.337 
  953200    299.93657   -1493.4782    487.24499    342.00012   -381.66273    38614.337 
  953300    302.62293    -1484.471    496.17023    372.00795   -397.90734    38614.337 
  953400     298.6966   -1499.8431    490.10803    332.92454    31.010702    38614.337 
  953500    295.92851   -1473.5234    499.56965    356.26311     -297.181    38614.337 
  953600    296.09535   -1481.0722    517.57424    367.46882   -369.31187    38614.337 
  953700    311.02905   -1429.5633    502.43063    470.96201   -357.35455    38614.337 
  953800    297.22949   -1494.2764     485.1296     326.9181   -334.53406    38614.337 
  953900    298.07429   -1506.4486    488.56969    321.98332    116.64126    38614.337 
  954000    309.72119    -1467.121    508.23179    433.32654   -45.245944    38614.337 
  954100    302.39593   -1472.7532    487.52565    374.06081    268.03468    38614.337 
  954200    304.37009   -1504.5572    485.85275    349.45779    38.050154    38614.337 
  954300    296.32622   -1534.0289    509.34143    307.31717    547.68363    38614.337 
  954400    292.50482   -1498.7548    511.53747    327.60986    487.65589    38614.337 
  954500    294.56529   -1483.1173    519.08844    360.06025   -75.962088    38614.337 
  954600    294.83903   -1523.0936     495.4655    297.69144   -289.38164    38614.337 
  954700    313.88144   -1459.9496    517.34883    468.31561    34.216549    38614.337 
  954800    308.27472     -1509.03    483.59769    360.28149    -33.43625    38614.337 
  954900    312.20524    -1501.082    474.08017    376.37988   -19.489613    38614.337 
  955000    296.15067   -1474.8868    491.29247    347.62118   -150.25721    38614.337 
  955100    301.25776   -1529.6161     475.7418    300.29792    158.25207    38614.337 
  955200    297.17683   -1510.0256    500.50337    326.30588   -231.62783    38614.337 
  955300    298.08293   -1495.3342    511.85745    356.42434   -237.92306    38614.337 
  955400    298.70809   -1467.0919    463.59148    339.21079   -3.0485092    38614.337 
  955500     297.9187   -1552.0585     488.2865     275.3909     27.58764    38614.337 
  955600    304.64053   -1516.9273    484.34506    336.79566    78.014882    38614.337 
  955700    294.08637   -1532.2913    485.27527    274.92031    549.36271    38614.337 
  955800    301.65517   -1548.6422    493.99763    301.31394    436.85283    38614.337 
  955900    292.37227   -1514.9475     471.5621    270.84591    73.454095    38614.337 
  956000    306.73537   -1526.1509    487.38908     340.0325   -33.398293    38614.337 
  956100    291.71689   -1566.3739    469.14313    214.05461   -46.239833    38614.337 
  956200    300.26948   -1563.3831    484.18303    270.52971    459.03656    38614.337 
  956300    301.47641   -1571.6028    442.81991    226.37214    31.409465    38614.337 
  956400     297.2593   -1571.9187    479.95974     244.2399    219.11609    38614.337 
  956500    297.38687   -1527.4248    495.09836    304.44587    566.55484    38614.337 
  956600    303.78753   -1518.4993    475.65727    322.70165     60.54883    38614.337 
  956700    294.49831   -1563.2413     474.8554    235.40208    344.18488    38614.337 
  956800    296.85714   -1531.2699     487.0415    290.16268   -15.238679    38614.337 
  956900    306.56201   -1545.2576    466.20728    298.96481     400.3132    38614.337 
  957000    305.27901   -1536.1907     480.7967    316.85398    19.049493    38614.337 
  957100    285.57054   -1555.6669    486.62196    214.61216    76.555067    38614.337 
  957200    296.56637   -1498.8647    510.66573    344.88513    179.73152    38614.337 
  957300    300.00422   -1518.5864    501.82028    331.77132    181.65945    38614.337 
  957400    307.59507   -1468.6745    473.93161     387.9159    105.53783    38614.337 
  957500    305.99945    -1500.185    516.56713    391.86851   -57.103796    38614.337 
  957600    299.74741   -1512.2927    512.52405    347.61443   -232.61769    38614.337 
  957700    314.75556   -1499.3416    513.16535    428.66942    -96.80183    38614.337 
  957800    284.33565   -1485.2297    500.33039    293.20697   -585.67943    38614.337 
  957900    292.29185   -1493.2412    503.21467    323.84338   -338.18156    38614.337 
  958000    297.19354   -1507.2275    500.08533    328.76108   -161.00487    38614.337 
  958100    301.59524   -1474.7312    489.65838     370.6163    172.37784    38614.337 
  958200    290.49916   -1489.9313    504.01119     319.8915   -91.887708    38614.337 
  958300    299.85745      -1491.4    503.69433    360.17198    306.89842    38614.337 
  958400    304.15077   -1458.5675     515.1666     423.7756    421.28368    38614.337 
  958500    295.41959   -1510.6289    490.99494    308.29527   -3.3065345    38614.337 
  958600    299.04058   -1505.8851    502.40053    340.72128   -60.628819    38614.337 
  958700    291.25111   -1466.0348    492.19722    335.35408   -691.86916    38614.337 
  958800    301.20363   -1474.1167    487.86308    367.67521   -170.45058    38614.337 
  958900    309.24992   -1459.2295    491.63414    422.50202   -354.21047    38614.337 
  959000    300.98818   -1506.3207    484.70298    331.34274   -47.862857    38614.337 
  959100    297.07229   -1459.7939    527.42202    402.98636    -47.92939    38614.337 
  959200    300.61663   -1498.9488    503.70901    356.05049    403.66162    38614.337 
  959300    292.78722   -1496.1717    481.51534    301.44026   -20.241911    38614.337 
  959400    306.08908   -1438.4485    512.03649    449.47726    547.50272    38614.337 
  959500    300.80224   -1464.1021    494.02186     382.0444    104.44015    38614.337 
  959600    300.14083   -1456.0105    497.29604    390.43701    286.42712    38614.337 
  959700    305.31843   -1482.6227    490.25479    380.05727    96.821441    38614.337 
  959800    293.32468   -1528.0504    480.20807    270.67013    492.46604    38614.337 
  959900    301.60444   -1479.3412    512.34023    388.72957    615.39754    38614.337 
  960000    303.30533   -1498.2121    492.96903    358.13302    314.34356    38614.337 
  960100    297.76932   -1488.0043    472.79363    323.28071    163.34841    38614.337 
  960200    289.75083   -1464.3826    487.63521    325.70047   -598.64388    38614.337 
  960300    297.98851   -1503.4255    494.80502    330.85624   -444.61836    38614.337 
  960400    306.16668   -1515.3938     495.9196    356.76392   -801.92367    38614.337 
  960500    296.49304   -1471.9052    488.53645     349.3857   -1012.6409    38614.337 
  960600    303.71722   -1518.0538    507.61843     354.7922   -475.02739    38614.337 
  960700    301.93502   -1487.5783    489.72476    359.36298   -471.10786    38614.337 
  960800    297.92719   -1508.5772    478.65835    309.28216   -668.89997    38614.337 
  960900    312.62246   -1460.3985    488.82082    433.67951   -616.63691    38614.337 
  961000    297.76755   -1476.6897    481.04132    342.83509   -685.19638    38614.337 
  961100     310.7679   -1421.6112    517.66678    492.97641    20.691273    38614.337 
  961200    302.71953   -1479.0391    504.54073    386.24454   -335.90391    38614.337 
  961300    302.36661   -1481.2074    482.14071     360.0898    130.03695    38614.337 
  961400    306.30892   -1496.0844    481.21921     362.0123    -27.38302    38614.337 
  961500    298.11185   -1450.9042    480.71846    369.84533   -127.66608    38614.337 
  961600    299.44201   -1499.4925    488.79918    335.31691    378.60006    38614.337 
  961700    301.27005   -1517.6063    480.98746    317.60853    368.24473    38614.337 
  961800    308.38368    -1481.902    513.24841    417.55004    420.34506    38614.337 
  961900    295.82288   -1454.1978    479.29991    354.84421   -805.50889    38614.337 
  962000    302.69867   -1409.3708    498.99034    450.26871   -303.09212    38614.337 
  962100    306.13465   -1419.6279    497.39029    453.85646    488.59526    38614.337 
  962200    288.54231   -1445.4847     505.2766    356.80733    630.93991    38614.337 
  962300    295.51746   -1384.7411    519.59608    463.22415    128.17053    38614.337 
  962400    309.39699   -1412.6729    504.25044    482.33608    499.76153    38614.337 
  962500    308.71149   -1446.5527    494.85962    435.98412    430.98609    38614.337 
  962600    299.00553   -1438.3629     523.9599    429.64523    628.90031    38614.337 
  962700    300.41098   -1467.0101    498.51462    381.87037    185.40218    38614.337 
  962800    283.41853   -1438.6219    498.59214    333.95397    149.27871    38614.337 
  962900    298.01529   -1485.7084    506.06226    359.95096    792.07547    38614.337 
  963000      301.067   -1443.8892    501.34991    410.77544    602.58917    38614.337 
  963100    297.46521   -1452.1548    485.20594    370.17561   -39.406018    38614.337 
  963200    289.92992   -1479.4239    500.26564    324.09458   -115.53253    38614.337 
  963300    290.51747   -1451.1009     488.9877    343.78068   -277.76873    38614.337 
  963400    294.97201   -1470.1586    488.74784    344.50664    153.08326    38614.337 
  963500    292.96404   -1459.0322    497.07985    354.93906    452.91333    38614.337 
  963600    295.30364   -1445.4757    495.80515    377.73751   -51.285272    38614.337 
  963700    300.60567   -1450.3485    493.39542    394.28786    222.14622    38614.337 
  963800    305.35334   -1446.4629    458.00209    384.12123    53.762592    38614.337 
  963900    295.15899   -1464.7493    508.50974    370.51826   -256.98803    38614.337 
  964000    302.65617   -1433.1764     511.2545    438.53626    7.3869653    38614.337 
  964100    294.75828    -1441.104    472.42832    356.28094    24.538246    38614.337 
  964200    292.02791   -1456.8429    498.48692    354.32748    7.5286543    38614.337 
  964300    288.05403   -1487.8024    499.88615     306.9044    261.17717    38614.337 
  964400    298.45866     -1495.36    471.24185    317.47186   -502.96931    38614.337 
  964500    302.35559   -1477.2862    461.99748    343.81827   -1074.9424    38614.337 
  964600    300.51829   -1476.1369     459.1751    333.88642   -1245.2406    38614.337 
  964700    297.89975   -1479.6823    493.21638    352.61176   -747.43031    38614.337 
  964800    302.33017    -1474.483    482.71735    367.22713    -696.3768    38614.337 
  964900    316.25565   -1501.1966    457.98557    378.37759   -577.19881    38614.337 
  965000    289.96662   -1453.2672    490.44813    340.59877   -395.61675    38614.337 
  965100    303.17888    -1467.589    474.06288    369.28157   -387.74724    38614.337 
  965200    296.13728    -1474.022    478.22326    335.35657    181.53073    38614.337 
  965300    300.83515   -1439.0962    482.02356    395.19983   -70.506004    38614.337 
  965400    295.76465   -1418.8341    495.90455    406.55074   -104.55305    38614.337 
  965500    304.71547   -1421.9015    486.43427    434.24759   -147.84486    38614.337 
  965600    296.47354   -1467.7637    494.57181     359.4749   -538.54225    38614.337 
  965700    292.60715   -1437.8702    472.21845    349.63539   -207.95025    38614.337 
  965800    302.34426   -1441.5745    512.78806    430.26956    108.28637    38614.337 
  965900    290.03199    -1483.024    489.87267    310.56032    368.48856    38614.337 
  966000     297.6712   -1476.4706    461.56211    323.14189    409.29318    38614.337 
  966100    301.68167    -1481.914    488.81802    362.98168    194.90828    38614.337 
  966200    310.04223    -1466.385    476.51682    403.79074     623.6205    38614.337 
  966300    302.04534   -1448.3994    533.39116    442.70416    121.29527    38614.337 
  966400    302.06403   -1461.3485    511.83819    408.28609   -86.004371    38614.337 
  966500    285.86908      -1461.4     445.5508    269.14993    -160.8569    38614.337 
  966600    304.96435   -1439.6243    511.52624    442.73547   -810.88494    38614.337 
  966700    293.80814   -1424.6928    448.75355    344.74645   -251.77238    38614.337 
  966800     302.4368   -1448.4553    487.22156    398.23827   -380.92187    38614.337 
  966900    301.68938   -1476.4102    484.28754    363.98971   -42.935163    38614.337 
  967000    299.18398   -1469.0541    467.95129    343.74758   -355.24772    38614.337 
  967100    296.93293   -1449.9488    491.16801    375.95099   -215.19309    38614.337 
  967200    306.53121   -1472.1379    475.77276    381.51157    220.18545    38614.337 
  967300    298.18699   -1455.8814    486.37382    370.86129   -231.70158    38614.337 
  967400    307.00354   -1472.0275    489.12215    397.09447    91.191119    38614.337 
  967500    293.75374   -1447.7666    512.55707    385.23162    222.70253    38614.337 
  967600     291.8544   -1455.3415    497.58431     354.1463    -167.3906    38614.337 
  967700    289.29579   -1472.7415    470.99663    298.65752   -623.32395    38614.337 
  967800    301.29575   -1444.1032    491.55565    401.79535    -482.5131    38614.337 
  967900    306.26497   -1458.3803    493.69259     411.9922   -95.249844    38614.337 
  968000    298.05669   -1461.3017    466.62392    345.10546    128.03932    38614.337 
  968100    305.46365   -1465.2299    491.14172    398.98972    34.344151    38614.337 
  968200    296.04085   -1480.9034     491.6823    341.50079     255.2507    38614.337 
  968300    310.90271   -1479.6919    496.80509    414.64005    746.06305    38614.337 
  968400    292.95232   -1476.7655    493.43011    333.50334    804.66969    38614.337 
  968500    298.02136   -1485.7849    497.29159    351.13101     744.3378    38614.337 
  968600    303.12088   -1484.0926    460.16605    338.62051    134.86837    38614.337 
  968700    306.38393   -1465.3143    494.25936    406.15972   -130.38401    38614.337 
  968800    297.15144    -1430.409    480.67134    385.97638   -362.99489    38614.337 
  968900    291.73425   -1431.0743    495.86029    376.14936    -407.0308    38614.337 
  969000    299.16975   -1435.5295    503.53828     412.7952    -253.0616    38614.337 
  969100    305.11079    -1468.514    484.24396     387.2218   -331.98364    38614.337 
  969200    295.03543   -1413.5783    507.02222    419.64631   -570.74579    38614.337 
  969300    298.55296    -1411.549     518.8314    449.29632    17.123633    38614.337 
  969400    301.93061    -1487.579    491.31149    360.92916    48.049784    38614.337 
  969500    298.53384   -1461.8805    505.64367    385.69121   -148.63014    38614.337 
  969600    300.52327   -1430.5611     490.2393    410.54877    261.15017    38614.337 
  969700    312.63529   -1419.6874    510.57617    496.20365    247.28592    38614.337 
  969800    303.90628   -1445.9826    500.29111    420.38589    481.96375    38614.337 
  969900    295.21064   -1439.9909    491.29658    378.29569    636.00027    38614.337 
  970000    296.26695   -1436.8066    489.36073    384.29235    359.05664    38614.337 
  970100    303.18263   -1441.2727    474.06857    395.62043    320.87767    38614.337 
  970200    302.01211   -1447.4838    478.53901    388.61821    168.71024    38614.337 
  970300     295.7788   -1424.6809    464.11013    368.97309   -344.45245    38614.337 
  970400    295.59852   -1444.6893    498.42136    382.46562   -74.086341    38614.337 
  970500    301.29679   -1461.0299     497.2883    390.60603    160.81805    38614.337 
  970600    306.73569   -1441.6341    454.72477    391.88652   -29.163131    38614.337 
  970700    302.50842   -1451.5523    494.50748    402.74914    26.276255    38614.337 
  970800    296.31385    -1452.382    471.37611    350.94309   -384.93754    38614.337 
  970900    297.73045    -1444.392    487.34467    381.26939   -221.00073    38614.337 
  971000    307.13191   -1469.2371    470.95377    382.29349      685.703    38614.337 
  971100    289.37688   -1454.9744    502.86889    348.66136    798.99254    38614.337 
  971200    294.37127   -1461.3134    486.08195    347.98558    126.73735    38614.337 
  971300    291.96278   -1495.4066     468.1658    285.14983   -194.23451    38614.337 
  971400    305.21663   -1527.7068    478.19256    322.45328   -198.60761    38614.337 
  971500    293.69359   -1482.2486    485.67151    323.59369   -132.48692    38614.337 
  971600    309.31741   -1463.5233     491.2072    418.08472    176.95345    38614.337 
  971700    294.92579   -1471.0692    500.32187    354.96228   -19.475589    38614.337 
  971800    299.82167    -1444.931     472.0867    374.87251    -279.2348    38614.337 
  971900    312.52401   -1455.0084    479.26508    429.07137   -116.56338    38614.337 
  972000    298.39272   -1495.7656    470.82646    316.35446    38.144983    38614.337 
  972100    307.68448   -1476.9734    481.89163    387.97889    535.40295    38614.337 
  972200    299.12978   -1536.2351    498.34936    306.72101    343.52022    38614.337 
  972300    304.92208   -1539.5417    470.54265    301.64441    1.9624986    38614.337 
  972400    306.02321   -1518.7629    479.01494     335.8452    77.497691    38614.337 
  972500    302.49133   -1426.1518    487.79472    421.36002    93.559105    38614.337 
  972600    302.84841   -1429.9027    490.36195    421.78151    119.95563    38614.337 
  972700    308.41854   -1462.7051    494.13231    417.78753    462.76377    38614.337 
  972800    305.56777   -1469.1031    474.54566    378.98848    88.802891    38614.337 
  972900    298.39408   -1457.4792    477.15353    360.97413    28.728803    38614.337 
  973000    311.30219   -1476.3006      459.055    382.07694    384.39292    38614.337 
  973100    301.02445    -1471.898    479.82087    361.04631    248.22746    38614.337 
  973200    297.72605   -1450.3802    481.10492    369.02163    240.75786    38614.337 
  973300    288.69803   -1468.3448    492.59473    321.96532    231.22703    38614.337 
  973400    299.98033   -1497.3288    469.65624    320.75752    193.08564    38614.337 
  973500    292.98159   -1499.6549     476.3444    293.65975   -112.11117    38614.337 
  973600     292.7487   -1477.9119    479.06493    317.07647    487.89243    38614.337 
  973700    301.49099    -1469.151    474.87813    360.94771    61.146426    38614.337 
  973800    291.76484   -1475.9717    472.48577    308.01492   -209.64009    38614.337 
  973900    300.20868   -1447.0394    484.09544     386.5126   -35.713851    38614.337 
  974000    292.57446    -1437.158    465.54743    343.52966   -1.2514616    38614.337 
  974100    297.32933   -1423.1841    507.49421    420.82373    44.900086    38614.337 
  974200    303.76268   -1450.8694    482.02456    396.58706    511.08686    38614.337 
  974300    297.00701   -1469.0281    482.62326    348.65993    663.69502    38614.337 
  974400     305.4931     -1451.19    501.97001    423.99029    633.29029    38614.337 
  974500    297.73057   -1477.8651    484.37251    344.82462    687.53366    38614.337 
  974600    294.98135   -1449.7798    492.26917    368.44868    420.02285    38614.337 
  974700    290.77367   -1436.2283    484.18789    355.00516    90.278899    38614.337 
  974800    298.18732   -1411.5912    488.27581    417.05496   -402.12378    38614.337 
  974900    300.30759   -1441.0878    491.58631    400.39963   -15.955273    38614.337 
  975000    299.95952   -1468.3316    457.95409      337.959   -127.42382    38614.337 
  975100    307.54376   -1485.0447    487.65123    385.03467   -39.063431    38614.337 
  975200    284.53968   -1486.1776    485.72894     278.5747   -333.01056    38614.337 
  975300    304.10537   -1481.5553    495.59975    381.01678    31.173872    38614.337 
  975400    309.42174   -1504.9925    465.98246     351.8597    19.165953    38614.337 
  975500    305.51859    -1470.736    474.14939    376.73819   -348.82304    38614.337 
  975600    289.60305   -1433.1439    467.65721     336.2968   -492.45071    38614.337 
  975700    301.70036   -1450.9635    499.34854    404.54678   -10.586849    38614.337 
  975800    293.85838   -1455.6408    463.41169    328.68235   -273.46032    38614.337 
  975900    298.21354   -1436.0217    510.89285    415.35941    202.73771    38614.337 
  976000    313.51584   -1439.5735    465.93541    435.63491    209.51623    38614.337 
  976100    291.53278   -1511.8454    470.39293    269.00536    147.86392    38614.337 
  976200     302.7346   -1411.3277    450.11531    399.59825   -386.25224    38614.337 
  976300     300.0942    -1393.152    480.83992    436.62979    49.364987    38614.337 
  976400    311.42549   -1416.3742    509.32521    492.82774   -176.67272    38614.337 
  976500    289.97611   -1472.8546    461.53593    292.14176    178.07531    38614.337 
  976600    308.01896   -1482.8008    478.84815    380.61153   -3.8222181    38614.337 
  976700     293.2079   -1506.1983    482.32545    294.11475   -139.93837    38614.337 
  976800     290.9187   -1491.2835    471.63055    288.04456    260.60247    38614.337 
  976900     299.6308   -1494.5522    457.16464     309.4713    210.93952    38614.337 
  977000     307.3162   -1494.1589     455.9925    343.23883    144.31046    38614.337 
  977100    304.05642   -1458.4048    478.09031    386.43783    332.35291    38614.337 
  977200    304.66613   -1467.4745    494.46194     396.4804    530.96432    38614.337 
  977300     295.9118   -1470.7875    493.37692    352.73115    68.958167    38614.337 
  977400    296.55514   -1475.0878     472.8294     330.7752    75.359603    38614.337 
  977500    307.21861   -1493.0027    468.30017    356.26399    216.26328    38614.337 
  977600    294.39184   -1481.1957    495.30371    337.41741    307.57125    38614.337 
  977700     296.2289   -1488.1211    485.68509    329.13108    735.49569    38614.337 
  977800     292.4247   -1466.9647    494.03072    341.53302    637.83894    38614.337 
  977900    300.22694   -1421.0673     476.9123    405.38361    628.24581    38614.337 
  978000     302.9514   -1458.5209     475.1335    378.39781   -87.247199    38614.337 
  978100    296.79661   -1442.3498    476.96217    368.73138    78.786016    38614.337 
  978200    297.43079   -1480.3994    471.37578    327.94611    33.882354    38614.337 
  978300    298.16703   -1453.5768    480.53109    367.23343    389.01708    38614.337 
  978400    306.93425   -1450.3517    480.56926    409.90594    245.05965    38614.337 
  978500    308.09506   -1425.1444     485.6234    445.38524   -79.649628    38614.337 
  978600     296.6269   -1442.6294    458.97666    349.70342    -629.1917    38614.337 
  978700    293.29892   -1437.6572     467.3373    348.07687   -15.217253    38614.337 
  978800    306.39798   -1492.3502    480.27551    365.20312    571.03411    38614.337 
  978900    310.19128   -1452.1951    486.26893    428.40266    283.23305    38614.337 
  979000    304.94476    -1473.222    477.75485    375.27837    460.56722    38614.337 
  979100    299.17799   -1461.1734     470.7062    354.35628   -101.34115    38614.337 
  979200    302.36239     -1447.73    489.72476    401.13232     -377.969    38614.337 
  979300    300.48973   -1422.7331    466.92505    394.91182   -387.17995    38614.337 
  979400     299.8116   -1455.6548    472.12339    364.14023   -483.42072    38614.337 
  979500    294.48772   -1471.4057    464.33909    316.67379   -716.26188    38614.337 
  979600    294.48233   -1414.4039    491.95042     401.2627    -644.4106    38614.337 
  979700     301.9985   -1432.1818    467.50946    392.82945   -19.050518    38614.337 
  979800    299.48962   -1470.6883    480.49406    356.03005   -35.566823    38614.337 
  979900    317.20678   -1429.0509    476.75567    473.56878   -170.32574    38614.337 
  980000    308.96126    -1418.174    492.43351    463.05938   -40.175377    38614.337 
  980100    293.41844   -1463.3615    478.72011    334.29255    161.36903    38614.337 
  980200    305.24513   -1446.9419     468.3851    393.53888    131.06662    38614.337 
  980300    299.97631   -1455.6597     458.0552    350.80747    157.94164    38614.337 
  980400     298.1253   -1437.3405    475.22698    377.97807   -137.17281    38614.337 
  980500    296.67092   -1406.6227    478.09064    405.02199   -682.04238    38614.337 
  980600    292.51985   -1402.9444    489.11482    401.06512   -278.29218    38614.337 
  980700    297.10429   -1415.5572    461.48743    381.43232   -1088.3177    38614.337 
  980800    291.59059   -1460.0301    469.97053    320.65812   -741.75667    38614.337 
  980900    303.63427   -1424.2615    473.92503    414.51829   -398.87654    38614.337 
  981000    305.70985   -1478.5929    450.68719    346.27887   -283.00781    38614.337 
  981100    302.07744   -1419.0213    463.07882    401.91421   -453.07004    38614.337 
  981200    298.85876   -1462.2302     489.4878    370.64609   -345.52987    38614.337 
  981300    301.87344   -1397.2934    491.92325    451.56956   -314.00447    38614.337 
  981400    306.74958   -1429.3383    483.30553    432.82545   -72.823369    38614.337 
  981500     290.1301   -1422.7285     480.9909    362.41501    -440.6554    38614.337 
  981600    307.74548   -1401.9589    476.12352    457.49951   -283.84882    38614.337 
  981700    303.04678   -1394.7685    506.37039    473.81578    400.20774    38614.337 
  981800    301.78273   -1410.0933     482.5477    428.98634    305.05105    38614.337 
  981900    303.04375   -1400.0504    469.15456    431.30443   -443.97382    38614.337 
  982000    296.81995   -1428.1417    477.68957    383.77186   -225.56837    38614.337 
  982100    302.94004    -1427.519    474.50613     408.7213   -847.83183    38614.337 
  982200    299.89164    -1393.911    465.35258    419.47295   -410.97926    38614.337 
  982300    294.74532   -1398.7971    490.43973    416.54096    -455.7537    38614.337 
  982400    293.21428   -1418.7589    469.06239    368.31968    212.98185    38614.337 
  982500    302.85617   -1368.9161    495.89287    488.33395   -94.986982    38614.337 
  982600    291.56054   -1387.7611    499.82534    422.64676   -211.26982    38614.337 
  982700    292.65234   -1406.4989    466.97308     375.9644   -501.93385    38614.337 
  982800    292.44772   -1423.5861    488.27963    379.26407   -164.73335    38614.337 
  982900    302.21007    -1438.824    489.04751    408.67641   -122.22617    38614.337 
  983000    303.85965    -1399.701    474.79325    440.96012   -341.43777    38614.337 
  983100    297.81068     -1416.24    485.22119    407.65856   -502.06659    38614.337 
  983200    300.66329   -1407.3768    472.03006     416.1532   -106.03337    38614.337 
  983300    301.68648   -1505.8688     473.2298    323.46028   -612.51571    38614.337 
  983400     300.9554   -1494.7833    469.72426    327.75397   -347.39285    38614.337 
  983500    299.14688   -1464.3588    467.24515    347.56998   -1048.1259    38614.337 
  983600    297.40621   -1482.9145    460.18932    314.13398   -628.57649    38614.337 
  983700    298.86424   -1438.5845    486.28257    391.11124   -615.80113    38614.337 
  983800    305.92082   -1474.5683    468.15889    368.72352    303.29349    38614.337 
  983900    303.48832   -1460.7866    473.77568     377.1878    703.85063    38614.337 
  984000    300.73655   -1495.4277    483.83019    340.23178    795.56876    38614.337 
  984100    301.40439   -1435.9586    501.84466     420.7174    104.34504    38614.337 
  984200    297.43673    -1444.978    460.49463    352.51309    148.83349    38614.337 
  984300    295.74255   -1464.5744    448.42867    313.23523   -50.045631    38614.337 
  984400    300.53795   -1453.0555    496.97775    394.85881   -298.49506    38614.337 
  984500    307.75537   -1483.5863    473.46884     373.2619    107.35417    38614.337 
  984600    297.32568   -1491.5221    476.11236    321.08752   -75.051672    38614.337 
  984700    305.55709    -1486.769    473.76584    360.49481    404.27982    38614.337 
  984800    296.71332   -1501.8261     479.9929    311.91148    162.97247    38614.337 
  984900    309.34793   -1521.1968    470.76133    340.10253    642.23017    38614.337 
  985000    287.81902   -1506.4598    495.28869     282.5931    904.65575    38614.337 
  985100    312.77115   -1488.2714    483.11572    400.76984    732.85578    38614.337 
  985200    295.41034   -1431.0303    486.66788    383.52528    844.97759    38614.337 
  985300    299.97952   -1456.0728    491.02227    383.37582   -205.23932    38614.337 
  985400    290.10855   -1477.5408    492.55373    319.06876   -85.198431    38614.337 
  985500     297.8321   -1444.5722    484.23066    378.43204   -174.39208    38614.337 
  985600    293.64506   -1501.8237    474.07171    292.20067   -531.09959    38614.337 
  985700    297.77902    -1474.691    477.87619     341.7202   -72.782657    38614.337 
  985800    297.95066    -1459.188     461.9623     342.0809   -418.21147    38614.337 
  985900    303.23488   -1460.0743    460.08808    363.07324   -525.35146    38614.337 
  986000    291.77132   -1446.3243    492.78919    357.99491   -369.20146    38614.337 
  986100     309.3339   -1442.0926      487.508    435.89035    368.51823    38614.337 
  986200    293.40402   -1442.9265    494.19839    370.14103    216.42276    38614.337 
  986300    298.32617   -1484.1639     466.2846    323.11526    620.93737    38614.337 
  986400    300.27364   -1491.7774    459.76522    317.73629     144.7307    38614.337 
  986500    305.36755   -1456.4292    485.78489    402.00166    513.92617    38614.337 
  986600    303.99736   -1434.9654    454.69203    386.21348    266.90572    38614.337 
  986700    297.74843   -1459.8548    506.28523    384.82798   -38.310007    38614.337 
  986800     293.1273   -1446.3136    484.61714    355.92877    168.33531    38614.337 
  986900    297.24976   -1432.5152    459.46521    363.10595   -155.02761    38614.337 
  987000    294.66319   -1464.5536    466.78635    326.76196   -267.84151    38614.337 
  987100    307.20324   -1467.6081    463.30442    376.59375    41.491623    38614.337 
  987200    302.03246   -1477.0934    501.35195    381.91306   -231.69109    38614.337 
  987300    294.40216   -1424.7354    475.17642    373.79687   -13.565995    38614.337 
  987400    295.88954    -1446.272    494.94355    378.71323    208.06048    38614.337 
  987500    295.88351   -1457.5199    467.46514     339.9598    251.53465    38614.337 
  987600    300.82348   -1447.9073    475.69736    380.01015    141.91963    38614.337 
  987700    299.75117   -1423.7981     463.2477    386.84958    167.22936    38614.337 
  987800    301.52505    -1432.719     465.8879    388.54257    402.27657    38614.337 
  987900    296.20863   -1417.8392    499.75745    413.39427   -80.576253    38614.337 
  988000    300.15376   -1393.0516    475.01055    431.16857   -10.685487    38614.337 
  988100    292.61502   -1393.8033    485.83089    407.35009    210.26525    38614.337 
  988200    304.08314   -1454.7721    494.81164    406.91199    794.97183    38614.337 
  988300    314.58963   -1419.2373    482.55905    477.42155    330.03735    38614.337 
  988400    301.07226   -1441.5131    478.28162    390.10688    20.820702    38614.337 
  988500    310.91315   -1449.5439    477.28787    425.31776    118.71517    38614.337 
  988600    295.02422   -1425.0214    474.45171    375.58233    27.807958    38614.337 
  988700    291.93562   -1421.0934    492.14527    383.32046   -24.443176    38614.337 
  988800    309.47077   -1451.3617    481.92657    421.65504    66.237202    38614.337 
  988900    296.10557   -1445.3304    483.94062    369.62303   -208.25528    38614.337 
  989000    301.43156   -1424.5565    470.32477    400.72165   -207.71988    38614.337 
  989100    298.51835   -1397.1287    458.12599     402.8557    62.675283    38614.337 
  989200    308.40707   -1447.1682    513.50791    452.64844    194.04932    38614.337 
  989300    292.24119   -1465.7616    454.38165    302.26214     347.3032    38614.337 
  989400    297.44496   -1439.5696    468.82716    366.29091    179.78288    38614.337 
  989500    296.17085   -1482.2023    480.86935    329.97325    46.174897    38614.337 
  989600    304.89345   -1445.7574    478.35239    403.10983    12.483481    38614.337 
  989700     302.6817    -1449.158    471.05625    382.47116    155.57662    38614.337 
  989800    295.23487   -1477.8125    463.43462    312.72103   -71.247177    38614.337 
  989900    300.36445   -1498.0597    519.31505    371.41207    329.61745    38614.337 
  990000    303.82917   -1471.1605      483.892     378.4623    413.86108    38614.337 
  990100    302.85014    -1475.868    447.39921    332.86127   -273.97541    38614.337 
  990200    297.42978   -1434.8602    468.36989    370.47483    298.02929    38614.337 
  990300    294.58403   -1455.7513    468.17882    336.60084   -229.13858    38614.337 
  990400    300.93726   -1475.0849    465.45625    343.10288    179.01317    38614.337 
  990500     296.0747   -1470.6031    473.57377    333.84468    337.96297    38614.337 
  990600    304.28248    -1494.235    472.41809    345.95151    195.21742    38614.337 
  990700    291.35677   -1472.7869    500.64567    337.52535    199.74213    38614.337 
  990800    302.26124   -1448.8461    480.44539    390.28211   -3.0915293    38614.337 
  990900    300.81989   -1428.7755    480.90305    404.33146   -304.09725    38614.337 
  991000    299.33927   -1397.3596    460.04305    408.23187    -88.24964    38614.337 
  991100    296.54072    -1424.803    470.77164    378.93744   -235.99135    38614.337 
  991200    292.93797   -1399.2143    493.68369    411.24362   -367.75733    38614.337 
  991300    300.12946   -1419.5736    479.71393    409.24069    160.53491    38614.337 
  991400     290.9451   -1430.8873    501.15265    378.08149   -201.47892    38614.337 
  991500    296.40212    -1449.087    475.86093    359.11975   -379.12094    38614.337 
  991600    303.17356   -1413.1715    485.56552    435.17786     303.3533    38614.337 
  991700    310.53692   -1465.3168    496.79609    427.36181     262.3237    38614.337 
  991800    305.07025   -1457.0865    468.28413    382.50722     137.1875    38614.337 
  991900    300.03093   -1406.8281    495.21078    437.04014   -286.30296    38614.337 
  992000    307.27054   -1411.8807    474.86794    444.18724   -527.20476    38614.337 
  992100    296.02077   -1502.3543    458.42085    286.69814   -245.73291    38614.337 
  992200    287.95152   -1466.9722    473.31173    300.69929    347.87194    38614.337 
  992300    295.83944   -1460.8419    500.30182    369.27645    358.66059    38614.337 
  992400     304.3728   -1438.7114    498.85406    428.31715    551.70421    38614.337 
  992500    306.60377   -1464.5981    476.74072    390.34544    398.72987    38614.337 
  992600    302.27909   -1427.6585    503.08491    434.18952    228.49383    38614.337 
  992700    301.57712   -1428.5208    464.81719    391.90413    46.545321    38614.337 
  992800    301.35239   -1441.8152    478.64836    391.43075   -162.82743    38614.337 
  992900     306.9695   -1435.8507    492.00836    436.00449    304.02069    38614.337 
  993000    303.56442   -1438.7629    461.35518    387.13306    462.23792    38614.337 
  993100    300.23045   -1459.2676    495.40763     385.6944    275.96714    38614.337 
  993200    288.49824   -1465.6289    481.11861    312.30705    627.23209    38614.337 
  993300    306.71452    -1461.498    465.60587    382.80852    682.66967    38614.337 
  993400     299.4626   -1416.9509    489.83788    418.98977    744.57916    38614.337 
  993500    305.11207    -1447.402    487.77843    411.87396    706.32334    38614.337 
  993600    291.24845    -1454.997    473.74345     327.9261    533.44167    38614.337 
  993700    302.01778    -1446.786    484.06489    394.86744    557.36245    38614.337 
  993800    295.18868   -1474.0609    477.51646    330.34689    48.629995    38614.337 
  993900    302.95199   -1456.8718    501.36195    406.27802   -7.7714779    38614.337 
  994000    283.97705   -1450.6276    458.09935    283.96608   -813.98954    38614.337 
  994100    298.02581   -1443.9538    485.32978    381.02031   -308.96995    38614.337 
  994200    296.77763   -1409.1154    495.56321    420.48156   -113.95993    38614.337 
  994300    298.68194   -1416.0025    497.13483    423.72601    277.37586    38614.337 
  994400    312.52402   -1445.5666    461.02996    420.27804    933.40477    38614.337 
  994500    300.42072    -1464.625    494.01504    379.79967    433.41762    38614.337 
  994600    303.15642   -1425.8882    493.88148    430.70004    1037.5233    38614.337 
  994700     297.3024   -1425.1253    493.08151    404.34877    249.07551    38614.337 
  994800    313.05257    -1459.743    491.02533    438.47286    262.30685    38614.337 
  994900    306.57551    -1499.592    476.23934    354.72316    200.39737    38614.337 
  995000    296.79446   -1473.2081    453.02186    313.92317   -461.15927    38614.337 
  995100    290.58142   -1476.6323    481.38436    310.93342   -416.32864    38614.337 
  995200    310.51654   -1443.8556    469.86129    421.79662    148.09301    38614.337 
  995300    295.75416   -1460.5217    484.06877    352.98025    569.59406    38614.337 
  995400     297.6253   -1407.1547    481.02526    411.71455   -79.211576    38614.337 
  995500    308.48816   -1433.2858     471.6058    424.99333     482.0694    38614.337 
  995600    303.33001   -1458.3397    466.32079    371.46818    339.90193    38614.337 
  995700    290.35414   -1419.5587    480.06194    365.66298    23.998664    38614.337 
  995800    298.43612   -1460.2393    476.54474    357.79417   -127.51521    38614.337 
  995900    299.67129   -1485.4529    468.44321    330.03117    -297.2331    38614.337 
  996000    294.03296   -1497.5694    452.33444    276.46134   -18.925521    38614.337 
  996100    299.01581   -1476.3673    468.68829    336.41544   -91.881413    38614.337 
  996200    304.92976   -1417.2854    496.41702    449.80964    98.467392    38614.337 
  996300     294.9643   -1404.1234    467.34805    389.10739   -16.476699    38614.337 
  996400    297.99121   -1449.4925    502.57195     392.5683   -427.41894    38614.337 
  996500    293.37277   -1423.3073    494.07189    389.49331   -764.89095    38614.337 
  996600    299.42611   -1415.6697    491.45741    421.72649   -500.00832    38614.337 
  996700     303.2994   -1463.3303    463.14514    363.16433   -444.69702    38614.337 
  996800    298.71182   -1450.7921    483.71613    375.65209   -596.77747    38614.337 
  996900    296.30793   -1467.9236     486.2341    350.23293   0.82683723    38614.337 
  997000     293.0975   -1429.1751    482.44214     370.7584   -291.81344    38614.337 
  997100    299.52355   -1497.2119    468.50355    317.66842   -402.19182    38614.337 
  997200    289.75616   -1474.0006    449.84068    278.31187   -642.63928    38614.337 
  997300    301.69163   -1459.2496     456.8469    353.71974   -99.465116    38614.337 
  997400    287.21431   -1435.3416    479.44038    335.14481   -324.53637    38614.337 
  997500    296.70554   -1456.6942    449.27103    326.28653   -570.98378    38614.337 
  997600    286.29228   -1482.7147     486.7356    290.92237   -305.05408    38614.337 
  997700    299.79015   -1473.0437    479.74849    354.27999   0.36480303    38614.337 
  997800    303.95598   -1451.9622    481.24948    395.58815    319.49017    38614.337 
  997900    300.73266   -1483.4543     468.3836    336.74111    -186.4628    38614.337 
  998000    293.79939   -1459.3452    477.60885    338.90998    53.746873    38614.337 
  998100     304.6412   -1443.7129    484.44487    410.11288    19.657798    38614.337 
  998200      307.937   -1479.8869    482.32719    386.63609    474.77235    38614.337 
  998300    306.76123   -1482.6292    494.45793    390.73935    1128.1107    38614.337 
  998400    301.16667   -1516.8393    505.34746    342.27093    547.47532    38614.337 
  998500    300.82126   -1485.7571    470.18078     336.6338    215.37675    38614.337 
  998600    300.32138   -1499.0133    483.70256    334.65238    240.44636    38614.337 
  998700    290.54918   -1450.7574    505.93039    361.20943    57.737632    38614.337 
  998800    300.82751   -1470.3106    477.61279    359.54035    540.30074    38614.337 
  998900    289.18837   -1497.6328    502.03163    304.31831    119.02119    38614.337 
  999000    294.16492   -1488.6903    473.95787    307.55695    10.828541    38614.337 
  999100    308.20211   -1485.9146    486.61031    386.08312   -321.34368    38614.337 
  999200    288.42434   -1463.0574    482.41995     315.8477   -572.05937    38614.337 
  999300    305.52412   -1490.2839    488.15098    371.21679   -147.09175    38614.337 
  999400    301.69828   -1471.8907    479.44105    363.70266    560.20787    38614.337 
  999500    302.99541   -1472.7094    474.60046    363.87415    64.105741    38614.337 
  999600    305.85188   -1470.9076    482.22248    386.13794   -826.12395    38614.337 
  999700    294.73726   -1485.3596    490.49704    329.99955   -247.33265    38614.337 
  999800    299.21879   -1506.0973    490.19735    329.10696    -53.18968    38614.337 
  999900    295.00633   -1487.2975    488.11486    326.88904    369.24099    38614.337 
 1000000    307.94121   -1488.2558    483.88614      379.845    627.32824    38614.337 
 1000100    305.39072   -1558.6687    473.62065    287.70208     652.9702    38614.337 
 1000200    301.04185   -1470.8945    507.65293    389.96001    757.73463    38614.337 
 1000300    308.63214   -1498.5383    480.36045    369.14266    160.31496    38614.337 
 1000400    297.03418   -1510.3401    489.36769     314.2145    106.63497    38614.337 
 1000500    293.39484    -1537.346    482.84605    264.32796    259.85497    38614.337 
 1000600    296.66733   -1505.6041    514.51473    342.44849    606.36157    38614.337 
 1000700    292.82966   -1472.1375    494.36579    338.51562     112.1499    38614.337 
 1000800    299.25288   -1457.1988    518.34473    406.30602    495.13839    38614.337 
 1000900    304.09509   -1437.2392    505.49961    435.18658    47.805837    38614.337 
 1001000    304.10464   -1428.8671     494.4731    432.57509   -335.17929    38614.337 
 1001100    298.51133   -1468.4086    512.86275    386.28092    127.87944    38614.337 
 1001200    308.92788   -1467.1284    499.81567    421.33705     354.4408    38614.337 
 1001300    288.86387   -1480.3278     509.7179    327.85101     647.5018    38614.337 
 1001400    308.31145   -1482.5867     513.4224     416.7146    1003.2928    38614.337 
 1001500    303.00882   -1491.1465    490.65729    361.55414    70.337456    38614.337 
 1001600    298.35793   -1464.9897    490.03645    366.18397    50.444068    38614.337 
 1001700     291.4656   -1505.2415    486.79568    291.70993   -495.82837    38614.337 
 1001800    306.63767   -1520.6341     514.7769    372.49804   -417.87791    38614.337 
 1001900    287.69256   -1516.2576    473.70457    250.64271   -314.77941    38614.337 
 1002000    290.58659     -1537.55    488.37336    257.02795      411.921    38614.337 
 1002100    304.17718   -1512.6021    475.98624    330.67925    631.48586    38614.337 
 1002200    291.27646   -1527.2958    535.53762    317.54748    741.70188    38614.337 
 1002300    295.64837    -1526.546    487.41868    289.83033     421.7926    38614.337 
 1002400    305.07293   -1491.3622    493.03655    372.99598    269.72223    38614.337 
 1002500    306.08522    -1478.534    492.21263    389.55057     321.0331    38614.337 
 1002600    303.98506   -1509.4114    521.26439    378.28452    209.65794    38614.337 
 1002700    298.35418   -1548.2973    495.46853    288.29167  -0.95350698    38614.337 
 1002800    307.96396   -1562.5587    472.53795    294.29621     125.7408    38614.337 
 1002900     300.2702   -1515.9672    510.58551    344.35141    356.73361    38614.337 
 1003000    299.98008   -1485.4905      524.454    387.39241   -68.501582    38614.337 
 1003100    292.77391   -1512.2868    507.19584    310.94577   -220.75747    38614.337 
 1003200    302.10838   -1540.9444    496.09074    313.14215   -58.001646    38614.337 
 1003300     308.0915    -1514.222    498.15179       368.82    118.63499    38614.337 
 1003400    298.94828   -1499.1375    514.30023    358.95358   -170.35112    38614.337 
 1003500    306.81282   -1517.7148    494.33587    355.76355    64.030162    38614.337 
 1003600    304.55274   -1523.2908    502.17601    347.86854   -279.89648    38614.337 
 1003700     300.2213   -1455.0799    507.47595    401.90924   -421.41054    38614.337 
 1003800    305.66706   -1489.9887    499.39673    383.40024   -480.54291    38614.337 
 1003900    294.97437   -1447.3232    503.57636    382.18112   -167.59082    38614.337 
 1004000    300.96585   -1466.5803    510.14024    396.42002   -292.25222    38614.337 
 1004100    291.87877   -1463.4841    507.25406    355.78297   -333.96028    38614.337 
 1004200    293.85561   -1473.6867    500.39474    347.60707   -453.43703    38614.337 
 1004300    298.20571   -1495.2451    491.18764    336.39554   -108.54499    38614.337 
 1004400    297.80696   -1480.5373    490.67348    348.79682    463.35481    38614.337 
 1004500    302.15063    -1471.869    516.68527     403.0019    191.93192    38614.337 
 1004600    315.76644   -1443.3136    503.88921    479.96516    452.42287    38614.337 
 1004700    290.23825   -1472.9161    488.96448    320.68716   -111.48644    38614.337 
 1004800    303.82473   -1480.6065    486.04838    371.15273     204.7294    38614.337 
 1004900    302.79099   -1491.5085    518.80905    388.36471     119.2583    38614.337 
 1005000    295.38171   -1547.4151    512.81517    293.15905    819.42173    38614.337 
 1005100    296.64767   -1505.9389    492.96472    320.47534    244.83702    38614.337 
 1005200    286.30384   -1567.8964    526.64979    245.70681    914.46737    38614.337 
 1005300    307.60037   -1534.8024    499.43161    347.31179    755.84998    38614.337 
 1005322    298.11989   -1519.1527    514.58498    335.49956    529.03888    38614.337 
Loop time of 608.456 on 32 procs for 1000000 steps with 1509 atoms

Performance: 141.999 ns/day, 0.169 hours/ns, 1643.503 timesteps/s
100.0% CPU use with 32 MPI tasks x no OpenMP threads

MPI task timing breakdown:
Section |  min time  |  avg time  |  max time  |%varavg| %total
---------------------------------------------------------------
Pair    | 253.7      | 268.59     | 290.49     |  52.9 | 44.14
Bond    | 1.4206     | 1.5355     | 1.6415     |   4.1 |  0.25
Neigh   | 39.619     | 39.682     | 39.744     |   0.7 |  6.52
Comm    | 264.8      | 286.68     | 301.6      |  51.1 | 47.12
Output  | 0.39036    | 0.40636    | 0.82864    |  11.9 |  0.07
Modify  | 8.678      | 8.7961     | 8.9408     |   2.0 |  1.45
Other   |            | 2.766      |            |       |  0.45

Nlocal:        47.1562 ave          89 max          16 min
Histogram: 3 3 7 1 6 2 5 3 1 1
Nghost:        1916.69 ave        1973 max        1854 min
Histogram: 2 2 2 6 3 4 3 5 1 4
Neighs:        5204.88 ave       12050 max        1188 min
Histogram: 4 7 3 3 6 3 4 0 1 1

Total # of neighbors = 166556
Ave neighs/atom = 110.37508
Ave special neighs/atom = 2.0172300
Neighbor list builds = 49857
Dangerous builds = 0

# Output the system volume
variable v equal vol
print 'The system volume is $v'
The system volume is 38614.3369426891

# Outputs
variable A equal xhi-xlo
variable B equal yhi-ylo
variable C equal zhi-zlo
variable D equal xy
variable E equal xz
variable F equal yz
print 'Lattice vectors'
Lattice vectors
print '$A 0 0'
33.7999605938551 0 0
print '$D $B 0'
0 33.7999605938551 0
print '$E $F $C'
0 0 33.7999605938551
Total wall time: 0:10:13
